
units lj                  # Use reduced LJ style units
atom_style atomic         # Uncharged point particles
atom_modify map hash      # Needed for indexing of clusters etc
                          # Used to be able to find where atoms are in relation to each other.

lattice fcc 1.0 spacing 1 1 1
Lattice spacing in x,y,z = 1.5874011 1.5874011 1.5874011
region box block 0 10 0 10 0 10 units lattice
create_box 2 box
Created orthogonal box = (0.0000000 0.0000000 0.0000000) to (15.874011 15.874011 15.874011)
  3 by 4 by 4 MPI processor grid
create_atoms 1 box
Created 4000 atoms
  using lattice units in orthogonal box = (0.0000000 0.0000000 0.0000000) to (15.874011 15.874011 15.874011)
  create_atoms CPU = 0.002 seconds
set type 1 type/fraction 2 0.87 78393
Setting atom values ...
  3472 settings made for type/fraction
mass 1 1.0
mass 2 1.0
pair_style lj/cut  3.5
pair_modify tail  yes
pair_coeff 1  1  1.0  1.0   # Intearaction between 1 and 1 set with epsilon = 1 and sigma = 1
pair_coeff 1  2  1.5  0.8
pair_coeff 2  2  0.5  0.88

write_data data.0
System init for write_data ...
Neighbor list info ...
  update every 1 steps, delay 10 steps, check yes
  max neighbors/atom: 2000, page size: 100000
  master list distance cutoff = 3.8
  ghost atom cutoff = 3.8
  binsize = 1.9, bins = 9 9 9
  1 neighbor lists, perpetual/occasional/extra = 1 0 0
  (1) pair lj/cut, perpetual
      attributes: half, newton on
      pair build: half/bin/atomonly/newton
      stencil: half/bin/3d
      bin: standard
WARNING: Not all mixed pair coeffs generated from mixing. Use write_data with 'pair ij' option to store all pair coeffs. (../write_data.cpp:312)


#############################
#   M E L T   S Y S T E M   #
#############################

velocity all create 2.4 5833274 mom yes dist gaussian # Assign velocities
                                                    # Temperature 2.4, random number seed, zero linear momentum
                                                                                # Gaussian distribution

timestep 0.002   # simulation timestep
thermo 1000       # output thermodynamic data every 1000 steps bf 100

# Define a fix  in this case with index 1 applied to all
# particles in the simulation. This fix is for simulations
# in the anisotropic NPT ensemble. Note that we use the MTK
# correction.
fix 1 all npt temp 2.4 2.4 0.1 iso 5.68 5.68 0.5 mtk yes tchain 5 pchain 5 # Use NPT ensemble
                                                                         # Set temperature and pressure and damping
                                                                         # Numbers of thermostats in chain and in barostat
run 10000          # run for 10000 steps
Per MPI rank memory allocation (min/avg/max) = 3.642 | 3.644 | 3.648 Mbytes
Step Temp E_pair E_mol TotEng Press Volume 
       0          2.4   -3.3406884            0   0.25841159    -2.808294         4000 
    1000     2.382366      -2.4911            0    1.0815555    5.8610948    3899.7566 
    2000    2.4139345   -2.4472605            0     1.172736    6.0559489     3915.673 
    3000    2.4121237   -2.4852512            0    1.1320298    5.5773466    3941.4115 
    4000    2.3797418   -2.4896431            0    1.0790771    5.9740414      3881.98 
    5000    2.4086087   -2.4514126            0    1.1605972    5.6325666    3963.6797 
    6000    2.3879798   -2.4496472            0     1.131427    5.7831903    3946.2337 
    7000    2.3497255   -2.5077777            0    1.0159294    5.3331347    3944.5364 
    8000    2.4301934   -2.4649035            0    1.1794753    5.6235703    3954.7121 
    9000    2.3940167   -2.4859196            0    1.1042078    5.6421278     3928.311 
   10000     2.384721   -2.4791111            0    1.0970762    5.7057649    3928.6604 
Loop time of 2.51845 on 48 procs for 10000 steps with 4000 atoms

Performance: 686137.589 tau/day, 3970.704 timesteps/s
99.6% CPU use with 48 MPI tasks x no OpenMP threads

MPI task timing breakdown:
Section |  min time  |  avg time  |  max time  |%varavg| %total
---------------------------------------------------------------
Pair    | 1.112      | 1.1753     | 1.2456     |   2.7 | 46.67
Neigh   | 0.20923    | 0.21769    | 0.23055    |   0.9 |  8.64
Comm    | 0.78215    | 0.86035    | 0.92982    |   3.9 | 34.16
Output  | 0.00024572 | 0.00025064 | 0.00031462 |   0.0 |  0.01
Modify  | 0.20793    | 0.24972    | 0.27529    |   3.8 |  9.92
Other   |            | 0.01517    |            |       |  0.60

Nlocal:        83.3333 ave          92 max          75 min
Histogram: 3 0 7 0 16 10 7 3 1 1
Nghost:        1659.90 ave        1684 max        1634 min
Histogram: 2 3 4 4 11 4 4 11 2 3
Neighs:        9713.92 ave       11274 max        8548 min
Histogram: 4 1 5 12 12 5 5 3 0 1

Total # of neighbors = 466268
Ave neighs/atom = 116.56700
Neighbor list builds = 910
Dangerous builds = 227

# Equilibrate just above the melting temperature to avoid step fn in T

fix 1 all npt temp 1.25 1.25 0.1 iso 5.68 5.68 0.5 mtk yes tchain 5 pchain 5
run 2000
Per MPI rank memory allocation (min/avg/max) = 3.643 | 3.645 | 3.649 Mbytes
Step Temp E_pair E_mol TotEng Press Volume 
   10000     2.384721   -2.4791111            0    1.0970762    5.7057649    3928.6604 
   11000    1.2377534   -3.6622497            0   -1.8060837    5.6853195    3054.1272 
   12000    1.2410719   -3.6638488            0   -1.8027063    5.6784967     3051.459 
Loop time of 0.614874 on 48 procs for 2000 steps with 4000 atoms

Performance: 562065.966 tau/day, 3252.697 timesteps/s
99.6% CPU use with 48 MPI tasks x no OpenMP threads

MPI task timing breakdown:
Section |  min time  |  avg time  |  max time  |%varavg| %total
---------------------------------------------------------------
Pair    | 0.27449    | 0.29977    | 0.33414    |   2.1 | 48.75
Neigh   | 0.04       | 0.042408   | 0.044533   |   0.5 |  6.90
Comm    | 0.19086    | 0.22381    | 0.25197    |   2.7 | 36.40
Output  | 5.1638e-05 | 5.2751e-05 | 6.7008e-05 |   0.0 |  0.01
Modify  | 0.040931   | 0.044004   | 0.04723    |   0.9 |  7.16
Other   |            | 0.004825   |            |       |  0.78

Nlocal:        83.3333 ave          94 max          77 min
Histogram: 2 8 14 3 9 7 1 2 1 1
Nghost:        1969.75 ave        2004 max        1935 min
Histogram: 2 3 7 4 8 5 8 5 5 1
Neighs:        12508.8 ave       14783 max       11113 min
Histogram: 3 6 8 11 6 8 4 0 0 2

Total # of neighbors = 600422
Ave neighs/atom = 150.10550
Neighbor list builds = 144
Dangerous builds = 14

#############################
# L I N E A R  Q U E N C H  #
#############################

# Define solid atoms. This closely follows ten Wolde  Ruiz-Montero and Frenkel  Faraday Discuss  1996  104  93-110
# Compute components of the per-atom q6 vector
compute q6 all orientorder/atom degrees 1 6 components 6 nnn NULL cutoff 1.3 # compute the Q6 parameter.
                                                                             # Use all neighbours within 1.3 unit cell.

# get number of connections
compute coord_number all coord/atom orientorder q6 0.5

# An atom is solid if it has 8 or more connections (of a possible 14)
variable is_solid atom c_coord_number>=8
group solid dynamic all var is_solid    # Must be dynamic to update
dynamic group solid defined

# do clustering
compute cluster solid cluster/atom 1.3 # Create a cluster where all atoms within are solid and max 1.3 units from another member

# define chunks one chunk per cluster
compute clus_chunks solid chunk/atom c_cluster nchunk every compress yes  # Says which atoms are in which chunk

# count the size of each chunk
compute size_chunks solid property/chunk clus_chunks count


# Find the maximum entry in the vector of chunk sizes
variable max_n equal max(c_size_chunks)


# Thermo style which includes this variable
# thermo_style custom step temp pe vol v_max_n

thermo ${N}  # Print the thermo information every 100 steps
thermo 1000  

# Reset the npt fix at a lower temperature (below freezing)
fix 1  all npt temp  ${temp} ${temp}  0.1  iso  5.68  5.68  0.5  mtk yes tchain  5  pchain  5
fix 1  all npt temp  0.45 ${temp}  0.1  iso  5.68  5.68  0.5  mtk yes tchain  5  pchain  5
fix 1  all npt temp  0.45 0.45  0.1  iso  5.68  5.68  0.5  mtk yes tchain  5  pchain  5

dump dmp2 all dcd ${N} traj.dcd
dump dmp2 all dcd 1000 traj.dcd


compute msd all msd com yes
variable twopoint equal c_msd[4]/6/(step*dt+1.0e-6)
fix 9 all vector 10 c_msd[4]
variable fit equal slope(f_9)/6/(10*dt)
thermo_style custom step temp pe c_msd[4] v_twopoint v_fit v_max_n

fix 1 all npt temp 1.25 ${temp} 0.1 iso 5.68 5.68 0.5 mtk yes tchain 5 pchain 5
fix 1 all npt temp 1.25 0.45 0.1 iso 5.68 5.68 0.5 mtk yes tchain 5 pchain 5
run 2000000 # 5000000  # Run for this many steps
Neighbor list info ...
  update every 1 steps, delay 10 steps, check yes
  max neighbors/atom: 2000, page size: 100000
  master list distance cutoff = 3.8
  ghost atom cutoff = 3.8
  binsize = 1.9, bins = 8 8 8
  4 neighbor lists, perpetual/occasional/extra = 1 3 0
  (1) pair lj/cut, perpetual
      attributes: half, newton on
      pair build: half/bin/atomonly/newton
      stencil: half/bin/3d
      bin: standard
  (2) compute orientorder/atom, occasional
      attributes: full, newton on
      pair build: full/bin/atomonly
      stencil: full/bin/3d
      bin: standard
  (3) compute coord/atom, occasional
      attributes: full, newton on
      pair build: full/bin/atomonly
      stencil: full/bin/3d
      bin: standard
  (4) compute cluster/atom, occasional
      attributes: full, newton on
      pair build: full/bin/atomonly
      stencil: full/bin/3d
      bin: standard
Per MPI rank memory allocation (min/avg/max) = 9.826 | 9.832 | 9.837 Mbytes
Step Temp PotEng c_msd[4] v_twopoint v_fit v_max_n 
   12000    1.2410719   -3.6638488 1.1501592e-30 7.9872163e-33 8.3333333e+20            3 
   13000     1.253853   -3.6773504   0.91980441 0.0058961819  0.077604329            2 
   14000    1.2251128   -3.7332163    1.9272177  0.011471533  0.081239358            2 
   15000    1.2595166    -3.674062     2.991485   0.01661936   0.08349194            2 
   16000    1.2413482   -3.7141719    3.8965563  0.020294564  0.083592199            1 
   17000    1.2235395   -3.6638224    4.8997871  0.024018564  0.082603133            2 
   18000    1.2440005   -3.6874535    5.9335405  0.027470094  0.082627354            3 
   19000    1.2451956   -3.6781124    6.9260708  0.030377503   0.08313345            2 
   20000    1.2382412   -3.7011213    7.8395639  0.032664849  0.082844495            3 
   21000    1.2452042   -3.6819833    8.8700284  0.035198524   0.08258046            1 
   22000    1.2620202   -3.6942667    9.8974809  0.037490457  0.082689494            1 
   23000    1.2679093   -3.6796332    10.811506  0.039172121  0.082609201            2 
   24000    1.2400534   -3.6831563     11.77073   0.04087059  0.082425825            1 
   25000    1.2411131   -3.6681582    12.872075  0.042906915  0.082378329            2 
   26000    1.2447099   -3.7124348    13.799421  0.044228912  0.082490848            1 
   27000    1.2625802   -3.6626906    15.054718  0.046465177  0.082715698            1 
   28000    1.2463919   -3.7146938    15.803879  0.047035354  0.082796054            3 
   29000    1.2503591    -3.710335    16.915193  0.048606875   0.08286242            2 
   30000    1.2601181   -3.6712518    18.020421  0.050056725  0.082982725            2 
   31000    1.2664881   -3.6779307    18.877325  0.050745498  0.083097237            2 
   32000    1.2567949   -3.7235958    19.771242   0.05148761  0.083107508            2 
   33000    1.2187667   -3.6912958    20.866736  0.052693778  0.083080375            1 
   34000    1.2536907   -3.6711732    21.836967  0.053521977  0.083063435            3 
   35000    1.2432126   -3.7105221    22.838002  0.054376195  0.083053298            1 
   36000    1.2413931   -3.6860453    24.002672   0.05556174  0.083087778            2 
   37000    1.2235668   -3.7011693     24.72487  0.055686643   0.08311695            1 
   38000    1.2464689   -3.6738429    25.891795  0.056780251   0.08297981            3 
   39000     1.246574   -3.7049863    26.422999  0.056459399  0.082854344            2 
   40000    1.2485558   -3.6826958    27.228872  0.056726816  0.082553974            1 
   41000    1.2450193   -3.7129092    27.984979  0.056880037  0.082266375            1 
   42000    1.2174017   -3.6840816    28.949175  0.057438838  0.081894653            3 
   43000    1.2715845   -3.7049529     29.91603  0.057976802   0.08154479            3 
   44000    1.2416168   -3.6931172    30.962346  0.058640806  0.081302818            1 
   45000    1.2424943   -3.7381612       31.902  0.059077778  0.081111928            4 
   46000    1.2280721   -3.7073462    32.924426  0.059645699   0.08100245            1 
   47000    1.2368239    -3.703696    33.853879  0.060024607  0.080870338            4 
   48000    1.2230848   -3.7046737    34.796909  0.060411299  0.080750527            3 
   49000    1.2397241   -3.7199691     35.78391   0.06085699  0.080643773            2 
   50000    1.2359485   -3.6973328     36.83162  0.061386033  0.080564042            1 
   51000    1.2195151   -3.7300645    37.657608  0.061532038  0.080521193            1 
   52000    1.2384479   -3.7189685    38.674348  0.061978122  0.080500166            1 
   53000     1.283255   -3.6891286    39.814694  0.062601719  0.080464093            1 
   54000    1.2329771   -3.6797288    40.952053  0.063197613  0.080469951            2 
   55000    1.2616907   -3.7180146    41.985695   0.06361469  0.080497555            4 
   56000    1.2172927   -3.6905953    42.860947   0.06378117  0.080523877            1 
   57000     1.226761   -3.7073259    43.693636  0.063879585  0.080525162            1 
   58000    1.2246237   -3.7141572    44.937007  0.064564665  0.080508499            1 
   59000    1.2485567   -3.6671735    45.685406  0.064527409  0.080521565            1 
   60000    1.1999016   -3.6778238     46.66834  0.064817139  0.080517288            1 
   61000    1.2440895   -3.6801431    47.763012  0.065250015  0.080552456            3 
   62000    1.2157254   -3.7174906    48.739947  0.065510681  0.080569484            2 
   63000    1.2533632   -3.7295714    49.470731  0.065437474  0.080609646            2 
   64000    1.2282975   -3.7077436    50.488251   0.06573991  0.080624411            3 
   65000    1.2507103    -3.699147    51.854622  0.066480284  0.080660001            1 
   66000    1.2356968   -3.7129467    52.400044  0.066161672  0.080675938            3 
   67000    1.2661512     -3.69277    53.456963  0.066488759  0.080679657            2 
   68000    1.2273548    -3.720297    54.012045  0.066191231  0.080656863            4 
   69000    1.2312197   -3.7003787    54.914114  0.066321394  0.080611151            2 
   70000     1.208867   -3.6908625    55.805291  0.066434869  0.080522573            1 
   71000    1.2465068   -3.7130629    56.578667  0.066406885  0.080421008            2 
   72000    1.2226989    -3.713544    57.856882  0.066963983  0.080338845            5 
   73000    1.2074921   -3.7685699    58.483393  0.066761864  0.080262222            3 
   74000    1.2342796   -3.7184648    59.721714  0.067254182  0.080218533            2 
   75000    1.2219839   -3.6918713    60.924106   0.06769345  0.080179947            1 
   76000    1.2531155   -3.7081843    61.793064  0.067755552  0.080153439            1 
   77000     1.225801   -3.7283878    62.773165  0.067936325   0.08013379            3 
   78000    1.2232601   -3.7218568    63.688777  0.068043565  0.080124118            1 
   79000    1.2487104   -3.7373117    64.801655  0.068356176  0.080126444            2 
   80000    1.2055063   -3.7406446    65.530183  0.068260607  0.080122013            3 
   81000    1.2328891   -3.7519171     67.07415  0.069006327  0.080114563            3 
   82000    1.2319297   -3.6919103    68.284131  0.069394442  0.080145995            2 
   83000    1.2263529   -3.7433701    68.941451  0.069218324  0.080189016            4 
   84000    1.2464856    -3.742806    70.117827  0.069561336  0.080245101            1 
   85000    1.2047968   -3.7461224     71.38595  0.069986225  0.080302053            2 
   86000    1.2004558   -3.7178469     72.20837   0.06996935  0.080363022            1 
   87000    1.2188187    -3.731076    73.333932   0.07024323  0.080422533            3 
   88000    1.2428938   -3.7573641    74.162966  0.070230081  0.080483692            1 
   89000    1.2297894   -3.7268313     75.56255  0.070751451  0.080532845            2 
   90000     1.184446   -3.7555482     76.15998    0.0705185   0.08058021            1 
   91000    1.2066919   -3.7537411    77.003721  0.070516228  0.080623372            1 
   92000    1.1912884   -3.7248543    78.186092  0.070820735  0.080675149            2 
   93000    1.2022198   -3.7594663    78.997954  0.070786697  0.080716519            3 
   94000    1.2217504    -3.742603    79.904412  0.070837244  0.080752941            3 
   95000    1.2188374   -3.7657565    81.053867  0.071099883  0.080781295            3 
   96000     1.192569   -3.7292507    81.751987  0.070965267  0.080815547            4 
   97000    1.2492341   -3.7285651    82.798539  0.071132765   0.08083077            1 
   98000     1.233426    -3.721928    84.049633  0.071470776  0.080858437            1 
   99000    1.2404314   -3.7480377    85.198396  0.071715821  0.080881768            5 
  100000    1.2172344    -3.734625    86.165009  0.071804174  0.080895445            2 
  101000     1.224399    -3.722009    86.802916  0.071619568  0.080914634            2 
  102000    1.2137187   -3.7131378    87.726177  0.071671713  0.080929821            1 
  103000    1.2125178   -3.7387342    88.613338  0.071693639  0.080954167            1 
  104000    1.2088859   -3.7505776      89.6212  0.071811859  0.080975657            2 
  105000    1.2133013   -3.7013092      90.9534  0.072185237  0.080995651            2 
  106000     1.210209   -3.7232909    92.459196  0.072688047  0.081028357            1 
  107000    1.2080407   -3.7446282    92.722551  0.072213825  0.081055081            1 
  108000    1.2453161   -3.7304331    94.244957  0.072719874  0.081095995            3 
  109000    1.2264359   -3.7391693    95.147821  0.072742982  0.081137729            1 
  110000    1.2133127   -3.7540988    95.752282  0.072539608  0.081169174            2 
  111000    1.2164293   -3.7710693    96.843965  0.072705679  0.081198207            1 
  112000     1.230887   -3.7616605    97.956271   0.07288413  0.081226241            2 
  113000    1.2129781    -3.744351    99.154553  0.073122827  0.081261735            2 
  114000     1.212242   -3.7216768    100.05763   0.07314154  0.081293041            2 
  115000    1.2160234   -3.7350867    100.48248   0.07281339  0.081309637            2 
  116000    1.1974478   -3.7758644    101.37258   0.07282513  0.081312292            6 
  117000    1.2094224   -3.7777893    102.37188  0.072914444  0.081318341            2 
  118000    1.2275771   -3.7621765    103.35235  0.072988948  0.081326914            2 
  119000    1.2140175   -3.7459621     105.3472  0.073772551   0.08134765            5 
  120000    1.2297607   -3.7618382    105.87019  0.073520962   0.08136737            1 
  121000    1.2263223   -3.7820992    105.72619  0.072814183  0.081370244            1 
  122000    1.1832667   -3.7809622    107.02373  0.073103638  0.081355002            2 
  123000     1.252945   -3.7417281    108.12846  0.073257761  0.081349447            2 
  124000    1.2121139   -3.7515652     109.0462  0.073283736  0.081353001            6 
  125000    1.2289848   -3.7630691    109.80638  0.073204256  0.081345184            1 
  126000    1.2172874    -3.768912    110.56593  0.073125617  0.081339515            1 
  127000    1.1843344   -3.8011952    111.65504  0.073264461  0.081322742            2 
  128000    1.1884122   -3.8099302    112.65017  0.073339956  0.081304307            4 
  129000    1.2035454   -3.7832596    113.76487  0.073491517  0.081296195            1 
  130000    1.2265552   -3.7571414    115.20166   0.07384722  0.081302059            2 
  131000    1.2208998   -3.7581213    115.81053  0.073670821  0.081304027            2 
  132000    1.1870704   -3.7527417    116.43555  0.073507292  0.081296809            3 
  133000     1.187587   -3.7054772    117.42075  0.073571901  0.081293999            2 
  134000    1.1636516   -3.7477951    119.22336  0.074143882  0.081292372            2 
  135000    1.2041307   -3.7194769    119.39344  0.073699655  0.081296731            1 
  136000    1.1888512   -3.7812478    120.42645  0.073790719  0.081284771            3 
  137000    1.2273673   -3.7770442    120.97622  0.073586509   0.08126499            2 
  138000    1.2104855   -3.7425812    121.97768  0.073658017  0.081248303            2 
  139000    1.2059754   -3.7584839    123.49464  0.074037556   0.08123093            2 
  140000    1.2172338   -3.7580773      124.658  0.074201191  0.081222186            2 
  141000    1.2165339   -3.7429768    125.73551  0.074311769  0.081222123            2 
  142000    1.1954642   -3.7409637     126.4796  0.074225115  0.081214905            1 
  143000    1.1994414   -3.7609963    127.65175  0.074389134  0.081212918            2 
  144000    1.2313208   -3.7602924    128.36115  0.074283075  0.081208726            3 
  145000    1.1852751   -3.7400523    129.29099  0.074305164  0.081216448            2 
  146000    1.2098203    -3.777155    130.65227  0.074573215  0.081210434            2 
  147000    1.2056843   -3.7694067    131.78826  0.074709899  0.081208062            1 
  148000    1.2005944   -3.7298784    132.49971  0.074605692  0.081210883            1 
  149000    1.1956434   -3.7598869     133.6458   0.07474597  0.081211227            2 
  150000    1.1913302   -3.7710629    135.03697  0.075020536  0.081221548            1 
  151000    1.1830567   -3.7773938    135.93303  0.075018229  0.081237294            6 
  152000    1.2024078   -3.7663003    137.72165  0.075505288   0.08125654            3 
  153000     1.187752    -3.755316    138.38277  0.075371878  0.081279417            2 
  154000    1.2103935   -3.7723536    138.94866  0.075188669  0.081296359            2 
  155000    1.1802399   -3.7772213    139.53491  0.075018767   0.08130793            1 
  156000    1.1994132   -3.7571217    141.21797   0.07543695   0.08131667            2 
  157000    1.2026308   -3.7625696     140.7645  0.074715763  0.081322599            2 
  158000    1.2086441   -3.7690399    141.79827  0.074788115  0.081320469            3 
  159000     1.187302   -3.7485217    143.28349  0.075096168  0.081310775            2 
  160000    1.1765893    -3.755553    143.28368  0.074626915  0.081299874            2 
  161000    1.1928151   -3.7782544    144.46163  0.074773099  0.081292731            5 
  162000    1.1611656   -3.7592023    146.04696  0.075127037  0.081285645            6 
  163000    1.1698084   -3.7804053    146.43384  0.074863925  0.081274597            6 
  164000    1.1937204   -3.7682549    147.86524  0.075134776  0.081268732            3 
  165000    1.1778572   -3.7725846    148.64327  0.075072361  0.081266949            1 
  166000    1.1655167   -3.7608969    149.23125  0.074915285   0.08125134            2 
  167000     1.175022   -3.7763138    150.44888   0.07507429  0.081233378            3 
  168000    1.1795797   -3.7448442    150.84142  0.074822134  0.081215233            1 
  169000    1.1689786    -3.777482    152.48712  0.075190887  0.081194034            3 
  170000    1.1829868   -3.7912769    153.16692  0.075081825  0.081174875            1 
  171000    1.2075661   -3.7646717     154.2739   0.07518221  0.081157777            3 
  172000     1.157876   -3.7729067    155.08357  0.075137388  0.081139165            2 
  173000    1.1874638   -3.7819938    155.95409  0.075122395  0.081115887            5 
  174000    1.1825193   -3.7611075     155.9392  0.074683523  0.081089874            4 
  175000    1.1847798   -3.7714984    157.41484  0.074959445  0.081064778            1 
  176000    1.1780524   -3.7668389    157.75632  0.074695226  0.081034278            2 
  177000    1.1761996    -3.770883    159.70682  0.075191537  0.081008911            3 
  178000    1.1820735   -3.7509093      160.649  0.075210206    0.0809804            2 
  179000    1.1803465    -3.755772    161.84848  0.075348455   0.08095588            2 
  180000    1.2030814   -3.7956872     161.8249  0.074918935   0.08093628            4 
  181000    1.1771633   -3.7621504    163.02175  0.075056053  0.080917041            1 
  182000    1.1916084    -3.787631    163.58293  0.074900608  0.080896364            1 
  183000    1.1907749   -3.8198378    164.99684  0.075135174  0.080876058            6 
  184000    1.1816098   -3.7954811    165.61802  0.075008161  0.080855222            3 
  185000    1.1903083   -3.8247338    166.52867  0.075012913  0.080834121            1 
  186000    1.1775054   -3.7809403    167.00144  0.074821435  0.080807022            2 
  187000    1.1846496   -3.7757471    168.67895  0.075168872  0.080775654            2 
  188000    1.1730331   -3.7523787    169.55941  0.075159311  0.080745886            2 
  189000     1.201314   -3.7905851    169.68058  0.074815071  0.080717255            3 
  190000     1.187695   -3.7627344    171.93208  0.075408808  0.080691266            1 
  191000    1.2008003   -3.7697057    172.08516  0.075080785  0.080661256            2 
  192000    1.1744613   -3.7983047    173.19586  0.075171813   0.08063974            2 
  193000     1.180453   -3.8112799    173.16581  0.074769347  0.080612425            3 
  194000    1.1727797   -3.8063541    174.79919  0.075085564  0.080590366            2 
  195000    1.1981079   -3.7249972    177.00205  0.075641903  0.080576279            2 
  196000    1.1677261   -3.7962681    177.19874    0.0753396  0.080559616            2 
  197000    1.1735148   -3.7664569      178.599  0.075549493  0.080540193            7 
  198000    1.1603628   -3.7814413    180.17682  0.075831996  0.080524081            2 
  199000    1.1778005    -3.793471      179.827  0.075304441  0.080506257            2 
  200000      1.19489   -3.7879908    182.01775  0.075840729  0.080490133            2 
  201000    1.1517908   -3.7775521    181.69298  0.075328763  0.080478687            2 
  202000    1.1495695   -3.8003159     182.4904  0.075284817  0.080461812            1 
  203000    1.1733304   -3.8433517    184.37385   0.07568713  0.080445748            2 
  204000    1.1626824    -3.771951    185.35445  0.075716689  0.080428797            2 
  205000    1.1826286   -3.7931139    185.08379  0.075237314  0.080412217            1 
  206000    1.1809507   -3.7954381    185.09796  0.074877816  0.080390799            3 
  207000    1.1887489   -3.8489924    185.61771  0.074725324  0.080365055            2 
  208000     1.151132   -3.7996027    188.74229  0.075617905  0.080335646            1 
  209000    1.1883748   -3.8199707    187.61569  0.074806896  0.080305223            2 
  210000    1.1448882   -3.7583762    190.67478  0.075664593  0.080278035            3 
  211000    1.1809666   -3.7865147    189.64805  0.074900492  0.080252762            2 
  212000     1.173517   -3.7934063     190.4984  0.074881445  0.080224725            2 
  213000    1.1753347   -3.8003884    191.68955   0.07499591  0.080192474            1 
  214000    1.1839399   -3.7962704    192.63249   0.07501265  0.080160601            3 
  215000     1.156508   -3.8046641    193.49473  0.074997957  0.080130463            2 
  216000    1.1893361   -3.8378947    194.02175  0.074854072  0.080105539            3 
  217000    1.1729692   -3.7989289       195.98  0.075261138  0.080080737            2 
  218000    1.1644715   -3.7952268    196.08089   0.07495447   0.08005343            2 
  219000    1.1613031   -3.7940615    196.40742  0.074736462  0.080018842            2 
  220000    1.1537249    -3.806402    196.77786  0.074537067  0.079982287            2 
  221000    1.1550519   -3.7878394    197.69302  0.074544878  0.079945273            2 
  222000    1.1650482   -3.8085722     199.2914  0.074809085   0.07990974            2 
  223000    1.1667492   -3.8343964    200.52579  0.074934901  0.079876008            2 
  224000    1.1693683   -3.8014602    201.02337  0.074785481  0.079842961            3 
  225000    1.1676257   -3.8471974    200.44769  0.074239886  0.079803552            3 
  226000    1.1436094   -3.8095441    201.76062  0.074395508  0.079759984            3 
  227000    1.1810734    -3.815746    202.48401  0.074333337  0.079714172            4 
  228000    1.1469433   -3.7946317    202.53085  0.074024432  0.079668516            5 
  229000    1.1606362   -3.8270079    204.38509  0.074375943  0.079625719            2 
  230000    1.1493776   -3.7770273    205.55769  0.074477424  0.079583752            1 
  231000    1.1666761   -3.8175314    206.01141  0.074318691  0.079545154            2 
  232000    1.1622122   -3.7952343    207.16976  0.074414424  0.079504311            1 
  233000    1.1630181   -3.7948712    207.44907  0.074194946  0.079461334            2 
  234000    1.1723416   -3.8133654    207.61614   0.07393737  0.079414028            4 
  235000     1.147028   -3.7991323    209.60699   0.07432872  0.079361388            4 
  236000    1.1637535   -3.8392116    209.33237  0.073916798   0.07930755            2 
  237000    1.1554687   -3.7795455    210.44481  0.073996066  0.079251551            3 
  238000    1.1624682   -3.8489596    211.30789  0.073987358  0.079195106            3 
  239000    1.1431958   -3.7903717    212.60911  0.074131488  0.079141224            1 
  240000    1.1677268   -3.7983129    213.54185  0.074146475  0.079091545            3 
  241000    1.1297761   -3.8125226    213.87097  0.073952618  0.079040738            2 
  242000     1.128732   -3.8104742    214.05907  0.073711802  0.078990519            2 
  243000    1.1875048   -3.8353281    215.55269  0.073920675  0.078944071            2 
  244000    1.1569739   -3.7822257    216.25238  0.073856688  0.078894978            1 
  245000    1.1488446   -3.8066013    216.61642  0.073679054  0.078845385            3 
  246000    1.1524396   -3.8661746    216.81127  0.073445553  0.078798441            6 
  247000    1.1626812   -3.8342376    218.24625  0.073632338  0.078749026            2 
  248000    1.1567362   -3.8161007    219.57075  0.073780493  0.078700624            1 
  249000    1.1570279   -3.8603593    219.66509  0.073515761  0.078652179            3 
  250000    1.1632764   -3.8029753    222.19744  0.074065815  0.078607554            2 
  251000     1.163481   -3.8252941    223.00057  0.074037375  0.078566783            2 
  252000    1.1358187   -3.7986509    223.79272  0.074005529  0.078524785            2 
  253000    1.1690607   -3.8142667      225.368  0.074231886  0.078485596            4 
  254000    1.1300576   -3.8324684    224.78778  0.073749272  0.078446295            1 
  255000    1.1500202   -3.8280694    226.95062  0.074166869    0.0784046            2 
  256000    1.1617788   -3.8416465    226.94431  0.073875102  0.078367917            2 
  257000    1.1343087   -3.8073261     227.3112  0.073706614  0.078329504            3 
  258000    1.1503306   -3.8307481    229.37254  0.074086738  0.078292342            1 
  259000      1.18066   -3.8052672    230.18511  0.074062134  0.078256193            1 
  260000    1.1479149   -3.7957714    230.67776   0.07393518   0.07821896            2 
  261000    1.1646354   -3.8302771    231.38125  0.073876516  0.078181822            4 
  262000    1.1325083   -3.8265316    232.22891  0.073864157  0.078144276            1 
  263000    1.1426602   -3.8096991    233.07701  0.073852032   0.07810535            2 
  264000    1.1439744   -3.8275096    232.93486  0.073527417  0.078067306            1 
  265000    1.1411865   -3.7967718    235.51088  0.074060025  0.078031447            5 
  266000    1.1552611   -3.8464111    234.80996  0.073562018   0.07799444            2 
  267000    1.1373653   -3.8341128     236.0888  0.073685644  0.077957677            2 
  268000     1.139726   -3.8224029    237.46371  0.073838218   0.07792165            2 
  269000     1.137431   -3.8583685    239.00718  0.074041878   0.07788643            3 
  270000    1.1561403    -3.837867    240.63863  0.074271182   0.07785322            1 
  271000    1.1450503   -3.8591066    240.17114  0.073853365  0.077813752            2 
  272000    1.1431885   -3.8305034    241.10974  0.073869407  0.077776786            1 
  273000    1.1382348   -3.8195631     241.5119  0.073721581  0.077740296            3 
  274000    1.1521408   -3.8073568    242.28758  0.073688436  0.077704144            3 
  275000    1.1559252   -3.8576475    242.20303  0.073394857  0.077663216            1 
  276000    1.1116379    -3.824884    243.27436  0.073452405  0.077619543            1 
  277000    1.1673068   -3.8475679    243.06699  0.073124846   0.07757897            2 
  278000    1.1313391   -3.8439375    245.24131  0.073513582  0.077538255            2 
  279000    1.1350495   -3.8420425    245.60851   0.07335977  0.077496528            1 
  280000    1.1519227    -3.835672    247.02513  0.073519383  0.077454825            2 
  281000    1.1658249   -3.8145751    248.63434  0.073734976  0.077413751            2 
  282000    1.1638289   -3.8406176    247.65281  0.073183454  0.077375358            1 
  283000    1.1483909    -3.839378     248.4327  0.073154504  0.077334663            2 
  284000    1.1463273   -3.8447451    248.69606  0.072974196  0.077290318            3 
  285000      1.13384     -3.86224    249.69079  0.073009002  0.077243496            5 
  286000    1.1109625   -3.8324756    251.62289  0.073316691  0.077198396            2 
  287000      1.15129   -3.8551284    251.78119  0.073107199  0.077152958            3 
  288000    1.1561806   -3.8750556    251.81446  0.072862979  0.077108194            2 
  289000    1.1716407   -3.8393897      253.158  0.072998271  0.077062406            2 
  290000    1.1057181   -3.8695971    253.84361  0.072943566  0.077020374            2 
  291000    1.1272441   -3.8371086    255.32615  0.073117453  0.076977923            2 
  292000    1.1035829   -3.8546639    254.02427  0.072495511  0.076931799            2 
  293000       1.1509   -3.8476697    255.96933  0.072801288  0.076885433            3 
  294000    1.1290787   -3.8386564     257.5042  0.072988719  0.076841647            1 
  295000    1.1401384   -3.8774624    256.90475  0.072571964  0.076797946            2 
  296000    1.1551307   -3.8269766    258.86101  0.072877537   0.07675344            2 
  297000    1.1359655   -3.8792753    260.10588  0.072981447  0.076712106            2 
  298000     1.136712   -3.8504045    259.96137  0.072696133  0.076670254            3 
  299000    1.1534745   -3.8363396    260.17239  0.072511815  0.076626409            1 
  300000     1.143965   -3.8889599    260.65133  0.072403148  0.076583747            2 
  301000    1.1282798   -3.8377878     262.2135  0.072595098  0.076537645            4 
  302000    1.1290614   -3.8502275    264.78064  0.073063089  0.076494006            4 
  303000    1.1504318   -3.8682804    264.08111  0.072629569  0.076452216            3 
  304000    1.1362051   -3.8615216    264.85775   0.07260355  0.076410546            1 
  305000    1.1213591   -3.8611109    265.83455  0.072632391  0.076368943            3 
  306000    1.1382573   -3.8600443    266.76546  0.072648547  0.076325521            2 
  307000    1.1407879    -3.858158    267.23546  0.072539483   0.07628325            4 
  308000    1.1457954   -3.8638749    268.37334  0.072611833  0.076241488            2 
  309000    1.1226958   -3.8806454    268.01944  0.072281403  0.076198803            1 
  310000    1.1083229   -3.8603859    269.76552  0.072517614  0.076156201            2 
  311000    1.1249829   -3.8259723    271.18076  0.072663654  0.076115775            2 
  312000    1.1463456   -3.8407801    270.68911  0.072299443  0.076072927            1 
  313000    1.1486178   -3.8539039    271.57383  0.072304002  0.076027378            4 
  314000    1.1143791    -3.846373     273.4695  0.072576831   0.07598202            1 
  315000    1.1484442   -3.8621648    271.95023  0.071944506  0.075934315            2 
  316000    1.1452473   -3.8246071    273.85781  0.072219885  0.075889393            2 
  317000    1.1476035    -3.887249    272.65087  0.071674782  0.075842735            6 
  318000     1.154551   -3.8718862    273.63689  0.071707781   0.07579233            1 
  319000    1.1317043   -3.8513084    275.29244  0.071915476  0.075743608            2 
  320000    1.1210401   -3.8424078    275.00564  0.071616053   0.07569327            2 
  321000    1.1464301   -3.8829721    275.48278  0.071516816  0.075641854            3 
  322000    1.1410748   -3.8841922     275.8554  0.071391148  0.075584841            3 
  323000    1.1351627   -3.8812377    277.13393  0.071499981  0.075531457            1 
  324000    1.1229367   -3.8533062    278.08132  0.071522972  0.075479288            1 
  325000    1.1189121   -3.8620102     281.3895  0.072151154  0.075428596            2 
  326000    1.0996333   -3.8728882     279.8052  0.071524847  0.075380609            2 
  327000    1.1111566    -3.859068    280.95858  0.071600047  0.075333565            1 
  328000    1.1265134    -3.894834    280.35569   0.07122858  0.075285638            3 
  329000    1.1218892   -3.8767517    281.62765  0.071334257   0.07523704            2 
  330000    1.1154394   -3.8606429    283.46053  0.071580942  0.075189519            2 
  331000    1.1433187    -3.863945    284.42283  0.071606957  0.075143053            2 
  332000    1.1010718   -3.9061416    284.28167   0.07135584   0.07509386            2 
  333000    1.1018642   -3.8646918    285.43802  0.071430937  0.075045823            2 
  334000    1.1016011   -3.8635755    286.97004  0.071599312  0.074999759            2 
  335000    1.1276796   -3.8671868    286.71727  0.071322703  0.074952956            2 
  336000    1.1261005   -3.8574443    288.27495  0.071496762  0.074909921            3 
  337000    1.1470554    -3.890374    288.87494  0.071432973  0.074866595            1 
  338000    1.1055522   -3.8707977    290.79989  0.071696225  0.074825813            1 
  339000    1.1193222   -3.8851769    290.48264  0.071406745  0.074782364            2 
  340000    1.1181321   -3.8720339    292.46672   0.07168302  0.074740614            2 
  341000     1.104548   -3.8767696    291.53694  0.071245586  0.074699143            4 
  342000    1.1048205   -3.8887069    292.30668  0.071224824  0.074657836            2 
  343000    1.1282018   -3.8515208    293.70496  0.071356891   0.07461721            8 
  344000    1.1313876   -3.8829656    294.20937  0.071271649  0.074575846            1 
  345000    1.1162309   -3.8771615    296.24562  0.071556913  0.074538647            2 
  346000    1.1293703   -3.8791223    297.04308  0.071542169  0.074500927            2 
  347000    1.1079986   -3.9012419    297.51916  0.071450327  0.074462472            3 
  348000    1.1300963   -3.8976063    297.14844  0.071156236  0.074425166            3 
  349000    1.1398457   -3.9080187     300.1041  0.071658094  0.074387493            1 
  350000    1.0986742   -3.8916042    300.58454  0.071567749  0.074352992            8 
  351000    1.1092267   -3.8957042    301.27985  0.071528928   0.07431864            1 
  352000    1.1311652   -3.9045936      301.797  0.071448152  0.074285721            3 
  353000    1.1183141   -3.8658111    303.21391  0.071580244  0.074251378            3 
  354000    1.1333382   -3.8474059    302.56675  0.071225694  0.074216317            1 
  355000    1.0990556   -3.8971066    304.02974  0.071368484  0.074180401            1 
  356000    1.1075331   -3.8970572    304.28616  0.071228033  0.074146299            1 
  357000    1.1149959   -3.8969518    305.98079  0.071424088  0.074112702            2 
  358000    1.1108976   -3.8700218    306.06555  0.071244309  0.074078216            6 
  359000    1.1067273   -3.8932086    306.87858  0.071234582  0.074042528            2 
  360000    1.0976865   -3.8444342    308.40567  0.071390201  0.074008641            2 
  361000    1.1057044   -3.8932315    310.06358  0.071575157  0.073976072            1 
  362000    1.1184242   -3.8946411    309.28968  0.071199283  0.073939705            3 
  363000    1.1255965   -3.8518356    310.58043  0.071299455  0.073901408            1 
  364000    1.1340213   -3.8832734    310.61574  0.071111661   0.07386342            3 
  365000    1.1128228   -3.8663235    310.96012  0.070995461  0.073824476            2 
  366000    1.1089558   -3.8621598    311.98035  0.071033777  0.073786779            1 
  367000    1.1233574   -3.8875153    312.32931  0.070919462  0.073745912            2 
  368000    1.1069078   -3.8857612     312.4588  0.070756068  0.073707166            2 
  369000    1.1376812   -3.9098461    314.70057   0.07107059  0.073668693            2 
  370000    1.1320986   -3.8678227    316.45452  0.071273541  0.073632067            3 
  371000    1.0846371     -3.92897    315.33314  0.070829546  0.073594498            2 
  372000    1.1133029   -3.9044153    317.21197  0.071060029  0.073558032            3 
  373000    1.0832134   -3.9009342    318.03981   0.07105447  0.073522552            1 
  374000    1.0980655   -3.9296604    317.86625  0.070825814  0.073486648            3 
  375000    1.1040881    -3.886774    319.56737  0.071014971  0.073451524            3 
  376000    1.1220435    -3.909804    320.92748  0.071127545  0.073416556            3 
  377000    1.0992284   -3.9101058    320.59908  0.070866286  0.073381387            3 
  378000    1.0946382   -3.9153998     320.6354  0.070686818  0.073346616            1 
  379000    1.0999697   -3.8922366    323.21233  0.071066915  0.073310944            2 
  380000    1.1046243   -3.8693239    323.46929  0.070936249  0.073277282            2 
  381000    1.1306505   -3.9241929     321.9189  0.070410958  0.073242635            2 
  382000    1.1206484   -3.8878733    323.64294  0.070602735  0.073208576            1 
  383000    1.0868981   -3.9440411    325.75932  0.070878877  0.073174944            4 
  384000    1.0920799   -3.9075618    324.85059  0.070497089  0.073139748            2 
  385000    1.0823573   -3.9250871     325.6969  0.070497163  0.073104428            2 
  386000    1.1050934   -3.8633902    328.02496  0.070817132  0.073070078            2 
  387000     1.093098   -3.9416207     327.0149  0.070416644     0.073032            3 
  388000     1.114163   -3.8873615    329.83151  0.070840101   0.07299596            2 
  389000    1.0973343    -3.891097    329.79553  0.070650284  0.072959434            2 
  390000    1.1071649   -3.8851116    330.38152  0.070594342  0.072922971            1 
  391000    1.1082115   -3.9327899    328.66646  0.070048266  0.072885778            2 
  392000    1.1025255   -3.9116106     332.3415   0.07065083  0.072849961            4 
  393000    1.0990246   -3.9144883    332.11419  0.070422856  0.072816732            3 
  394000    1.0962431   -3.9149458    331.25199  0.070061758  0.072780977            2 
  395000     1.091079   -3.8577614    336.17326  0.070922628  0.072745606            1 
  396000    1.0804924   -3.9114902    333.21414   0.07012082  0.072712763            2 
  397000    1.1100474   -3.8855202    336.02164   0.07053351  0.072679569            2 
  398000    1.1032025   -3.9342759    336.28284   0.07041098  0.072646431            4 
  399000    1.1062525   -3.9388501     336.2857  0.070235108  0.072613476            2 
  400000    1.0950246   -3.8969967    337.78994  0.070372904   0.07258003            2 
  401000    1.1034282   -3.9131999    337.37811  0.070111826  0.072548207            2 
  402000     1.100676   -3.9128642    338.83908  0.070240273  0.072514784            2 
  403000    1.1018517   -3.8893135    341.12345  0.070538348  0.072480235            5 
  404000    1.0664329   -3.9224963    341.51257  0.070444012  0.072450257            2 
  405000    1.0995638   -3.9196986    341.85311  0.070340145  0.072418835            9 
  406000    1.0916722    -3.900828    342.24095  0.070246501  0.072385913            2 
  407000    1.0783015   -3.9461398    342.39244  0.070104922  0.072353826            3 
  408000    1.1149052   -3.9102367    343.84548  0.070229878   0.07232093            2 
  409000    1.0910937   -3.9073649    345.58288  0.070412159  0.072289364            2 
  410000    1.0937598   -3.9081077    344.78996  0.070079261  0.072257023            4 
  411000    1.0964963   -3.9174246    345.65377  0.070083895  0.072225553            2 
  412000    1.0788625    -3.924461    347.63681  0.070314889  0.072193628            2 
  413000    1.0912906   -3.9292765    348.47717  0.070314199  0.072162863            2 
  414000    1.1003514   -3.8923508    348.36469  0.070121718  0.072132727            2 
  415000    1.0841782   -3.8664639    349.54837  0.070190436  0.072102882            1 
  416000    1.0994333   -3.9200505    350.05353  0.070122902  0.072071278            3 
  417000    1.0807999   -3.9827745    349.94844  0.069933741  0.072038614            2 
  418000    1.1076678   -3.9403024    350.98789  0.069973662  0.072004682            2 
  419000    1.0906331   -3.9080796    351.14602  0.069838111  0.071972051            3 
  420000    1.0817422   -3.9461593    351.64128  0.069770095  0.071939842            4 
  421000    1.0722665   -3.9409154    353.25442  0.069923677  0.071906157            1 
  422000    1.0758787   -3.9222275    354.09524   0.06992402  0.071872261            2 
  423000    1.0890976   -3.8876486    354.31228  0.069801473  0.071837716            3 
  424000    1.1063676   -3.9333287     353.1711  0.069412559  0.071803246            3 
  425000    1.0874042   -3.8903873    355.29512  0.069665709  0.071768305            2 
  426000    1.0775337   -3.9642479    353.30394  0.069112664  0.071733327            7 
  427000    1.0897557   -3.9302123    355.71261  0.069420884    0.0716968            3 
  428000    1.0902386   -3.9358514    357.15727  0.069539966   0.07166184            2 
  429000    1.0888749   -3.9145531    357.37191  0.069419564  0.071627775            2 
  430000    1.0845143   -3.9067263    359.23249  0.069618699  0.071594949            4 
  431000    1.0982445   -3.8836256    361.68609  0.069931572  0.071562143            6 
  432000     1.076202   -3.9413359    359.73636  0.069393587  0.071529448            2 
  433000     1.060358   -3.9131805    361.77897  0.069626438  0.071496483            5 
  434000    1.0760073   -3.9065164    362.77929  0.069658082    0.0714635            2 
  435000    1.1037672   -3.9585757    360.78114  0.069115162  0.071429271            3 
  436000    1.0795185   -3.9156109    361.80913  0.069153122  0.071393679            3 
  437000    1.0904715   -3.9301539    363.83771  0.069381713  0.071360491            2 
  438000    1.0722063   -3.9277371    363.87812  0.069230997  0.071326655            2 
  439000    1.0682322   -3.9626022    364.21954  0.069138105  0.071291632            1 
  440000    1.0878301   -3.8972515    365.65877  0.069253555  0.071257556            3 
  441000    1.0650343   -3.9109082    365.77809  0.069119064  0.071225621            2 
  442000    1.0879063   -3.9376688    366.24374   0.06905048  0.071192326            2 
  443000    1.0894625   -3.9364122    368.43946  0.069307649  0.071160643            2 
  444000     1.053223   -3.9325247    371.09274  0.069649538  0.071128767            1 
  445000    1.0640531   -3.9422252    369.30428  0.069158104  0.071097208            3 
  446000    1.0720716   -3.9383857    370.02634  0.069137956  0.071064971            1 
  447000    1.0874367   -3.9250052    370.65101  0.069099742  0.071032579            2 
  448000    1.0827301   -3.9171662    371.06966  0.069023374  0.070999469            2 
  449000    1.0656321    -3.948752    372.43178  0.069122453  0.070965556            3 
  450000    1.0961025   -3.9312744    372.56155  0.068992879   0.07093261            1 
  451000    1.0493466    -3.981056    371.53759    0.0686507  0.070897927            3 
  452000     1.076783   -3.9196834    374.23721  0.068996535  0.070862457            4 
  453000    1.0714819   -3.9629455      371.695  0.068376564  0.070827646            4 
  454000    1.0884479   -3.9004209    375.02955  0.068838024  0.070793192            2 
  455000     1.063954   -3.9685061    374.21521  0.068537584  0.070757633            1 
  456000    1.0541395    -3.935328     375.9975  0.068712994  0.070721094            3 
  457000    1.0766971   -3.9367241    377.58175  0.068851523  0.070686277            4 
  458000    1.0577751    -3.943145    377.76819  0.068735115  0.070651097            2 
  459000    1.0762884   -3.9435379    376.46435  0.068348648  0.070614886            5 
  460000    1.0763966   -3.9560888     377.0809  0.068311758  0.070578955            3 
  461000    1.0517967    -3.949765    378.70589  0.068457319  0.070542088            3 
  462000    1.0704506   -3.9462532    377.99042  0.068180091   0.07050502            5 
  463000    1.0933574   -3.9576536    379.02534  0.068219103  0.070468645            4 
  464000    1.0943114   -3.9653668    379.65756  0.068185624  0.070431705            3 
  465000      1.04979   -3.9862913    380.46364  0.068183448  0.070395539            4 
  466000     1.059264   -3.9488408    380.84004  0.068104442  0.070359432            4 
  467000    1.0864078   -3.9511194    381.31548  0.068043447  0.070323088            8 
  468000    1.0423589   -3.9303016    383.16326  0.068227076  0.070286781            3 
  469000    1.0761624   -3.9264767    384.42544   0.06830587   0.07025093            2 
  470000    1.0633201   -3.9279757    384.12388  0.068107072  0.070215535            3 
  471000    1.0749933    -3.974542     382.7805  0.067724788  0.070179935            2 
  472000    1.0668634   -3.9718509    384.94614  0.067963654  0.070143108            4 
  473000    1.0702258   -3.9346896    386.73542  0.068135205  0.070106758            1 
  474000    1.0699981   -3.9319585    388.53944  0.068308621  0.070071557            2 
  475000    1.0698613   -3.9923401    387.17895  0.067926131  0.070036167            2 
  476000    1.0484546    -3.989544    387.66016  0.067867675  0.070000654            2 
  477000    1.0560302   -3.9402852    390.43124  0.068209511  0.069965932            1 
  478000    1.0607421   -3.9621206      391.351  0.068227162  0.069931072            1 
  479000    1.0612704   -3.9670166    391.25056  0.068067251  0.069896456            1 
  480000    1.0451768   -3.9573122    391.52121  0.067972433  0.069860566            2 
  481000    1.0697072   -3.9744622    391.78259  0.067876402  0.069826636            2 
  482000    1.0820921   -4.0084695    391.60031  0.067704064  0.069791256            4 
  483000    1.0758639   -3.9589266    395.00126  0.068150667  0.069754995            3 
  484000    1.0415493   -3.9357812    394.24989  0.067880491  0.069719719            3 
  485000    1.0516128    -3.957426    394.28572  0.067746687  0.069685812            3 
  486000    1.0697004   -3.9254325     396.1896  0.067933745  0.069651765            2 
  487000    1.0598735   -3.9593027    395.96295  0.067755467  0.069616468            1 
  488000    1.0490881    -3.967668    397.25442  0.067837161  0.069582131            2 
  489000    1.0318218   -3.9566452    397.21744  0.067692134  0.069547675            3 
  490000    1.0720911   -3.9644692     396.5535  0.067441071  0.069511666            3 
  491000    1.0503308   -3.9330925    399.40192  0.067787155  0.069476239            5 
  492000    1.0446813   -3.9642026    401.03404  0.067925819  0.069440798            2 
  493000     1.045322   -3.9754302    399.18248  0.067475065  0.069406067            2 
  494000    1.0577034   -3.9940264    400.80952  0.067612942  0.069372491            2 
  495000     1.061172   -3.9751597     401.5485  0.067600757  0.069339503            1 
  496000    1.0759721   -3.9543471    403.33243  0.067764186  0.069306108            4 
  497000    1.0619584   -3.9919123    402.76268  0.067532308  0.069272252            5 
  498000    1.0687585    -3.962629    403.34292  0.067493796  0.069239516            3 
  499000    1.0491612   -4.0278986    403.75842  0.067427926  0.069206508            2 
  500000     1.058404   -3.9710167    405.64167  0.067606945  0.069174213            5 
  501000    1.0270612   -3.9737793    405.53523  0.067454296  0.069140965            1 
  502000    1.0298436   -3.9973088    404.92088  0.067217941  0.069107662            2 
  503000    1.0243417   -3.9897013    407.07684   0.06744149  0.069074192            2 
  504000    1.0819527   -3.9693547    407.90028  0.067443829  0.069041931            2 
  505000    1.0646695   -4.0014903     409.8278   0.06762835  0.069009512            5 
  506000    1.0374316   -3.9888594    408.64651   0.06730015   0.06897665            2 
  507000    1.0571571   -3.9486319    409.53617  0.067313637  0.068943757            1 
  508000    1.0374948   -4.0018371     408.2286  0.066966634  0.068911234            1 
  509000    1.0325299   -3.9996446    409.76229  0.067086164   0.06887652            2 
  510000    1.0430782    -4.016783    409.93111  0.066982207  0.068842762            1 
  511000    1.0669501   -3.9630784    412.19619  0.067220514  0.068808447            2 
  512000    1.0498598   -3.9739833    410.50968  0.066814727  0.068774521            4 
  513000    1.0532309   -3.9762833    412.14485  0.066950105  0.068739506            2 
  514000    1.0647333   -3.9761867    413.85067  0.067096412   0.06870523            2 
  515000    1.0524165   -4.0010944    414.06265  0.067000428  0.068671656            4 
  516000    1.0308165   -3.9984888    413.67005  0.066807179   0.06863827            3 
  517000    1.0299327    -3.991067    416.57488  0.067146176  0.068606617            4 
  518000    1.0488491   -3.9740874    417.54126  0.067172017   0.06857517            3 
  519000    1.0460006   -4.0033273    417.93109  0.067105185   0.06854337            2 
  520000     1.040982    -3.958498      417.806  0.066956089  0.068512408            3 
  521000    1.0664475   -3.9956552    420.40229  0.067242848  0.068482145            1 
  522000    1.0605976   -3.9910691    418.54781  0.066817978  0.068450238            2 
  523000    1.0760975   -4.0127571     418.6944  0.066713576  0.068418232            1 
  524000    1.0636141   -3.9632759    420.42864  0.066862061  0.068385682            4 
  525000    1.0300846   -4.0161921    420.52075  0.066749325   0.06835183            3 
  526000    1.0417645   -3.9526204    422.12915  0.066877241  0.068319491            2 
  527000    1.0283704   -3.9955669    421.33515  0.066624786  0.068286306            2 
  528000    1.0412359   -3.9999199    422.12953  0.066623978  0.068253182            2 
  529000    1.0513492   -3.9850726    422.05471  0.066486249  0.068219199            2 
  530000    1.0350052   -3.9807559     422.4868  0.066428743  0.068184696            3 
  531000     1.042273   -3.9907724    423.26536  0.066425825  0.068150373            3 
  532000    1.0493609   -4.0110546    424.31977   0.06646613  0.068115166            4 
  533000    1.0337387   -3.9962797    426.14201   0.06662633  0.068079976            2 
  534000    1.0404075   -3.9809502    427.88544  0.066773633  0.068045461            1 
  535000    1.0337449   -3.9978271    426.80654  0.066480769  0.068011514            3 
  536000    1.0336137   -4.0088684    426.83372  0.066360963   0.06797729            2 
  537000    1.0472522   -4.0252573    426.68804  0.066214779   0.06794415            4 
  538000    1.0270341     -4.01329    427.08332  0.066152931  0.067909673            2 
  539000    1.0372612   -3.9886687    428.85496  0.066304107  0.067874767            2 
  540000    1.0466348     -3.97693    429.76977  0.066322496  0.067840145            3 
  541000    1.0387641   -3.9682922    430.28969  0.066279989   0.06780598            6 
  542000    1.0510265   -3.9810397    430.55553  0.066198575  0.067772679            2 
  543000    1.0287363   -3.9770002    433.52314  0.066532097  0.067738342            4 
  544000    1.0274488   -3.9992095    432.85727  0.066307793  0.067703446            1 
  545000    1.0609896   -3.9941891     431.1215  0.065920718  0.067670002            5 
  546000    1.0379489   -3.9861853    433.00933  0.066088115   0.06763597            2 
  547000    1.0433497   -4.0142676    432.94913  0.065958124  0.067601967            2 
  548000    1.0409785   -4.0211796    434.39144  0.066057093  0.067567727            2 
  549000    1.0060255     -4.01601    434.44847  0.065945426  0.067533476            2 
  550000    1.0130608   -4.0195887    433.89918    0.0657423  0.067499296            3 
  551000    1.0309342   -3.9736146    435.74347  0.065901916  0.067465645            1 
  552000     1.038155    -3.975279    437.00772  0.065973388    0.0674318            2 
  553000    1.0305843   -4.0284818    435.53583  0.065632282  0.067397655            3 
  554000    1.0377988   -4.0123239    436.66188  0.065683195  0.067362939            3 
  555000    1.0212657   -4.0085911     435.2271  0.065349415  0.067328005            3 
  556000    1.0078111   -3.9755116    436.49729  0.065422256  0.067292927            3 
  557000    1.0344571    -3.993721    438.93326  0.065669249  0.067258893            2 
  558000    1.0392844   -4.0088565    438.23597  0.065447427  0.067223983            5 
  559000    1.0489419   -4.0106764    439.54695  0.065525783  0.067188949            3 
  560000    1.0381077   -4.0067545    440.91771  0.065612755  0.067153711            2 
  561000    1.0135986    -4.003313    441.51423  0.065584407  0.067116901            2 
  562000    1.0248074     -4.01002    440.31851  0.065290407  0.067079849            6 
  563000    1.0441958   -4.0171502    441.32079  0.065322792  0.067042387            5 
  564000     1.029261   -4.0355973      440.039  0.065017583  0.067005685            2 
  565000    1.0324116   -3.9867545    443.50772  0.065414118  0.066970044            1 
  566000    1.0291466   -4.0026485    445.35468  0.065570477  0.066934901            2 
  567000    1.0237627   -4.0276411    444.02726  0.065259738  0.066900654            4 
  568000    1.0218193   -4.0435381    444.63395  0.065233853  0.066865893            2 
  569000    1.0169735    -3.989713    446.72313   0.06542518  0.066830886            3 
  570000     1.013698   -3.9957731    444.72697  0.065018563  0.066796431            3 
  571000    1.0205437   -4.0198212     445.5199  0.065020417  0.066760135            3 
  572000     1.050846   -4.0275336    447.14378  0.065143325   0.06672531            4 
  573000    1.0365841   -3.9999021    448.65579  0.065249534  0.066692191            3 
  574000    1.0363061   -4.0091244    447.71785  0.064999688  0.066658445            4 
  575000   0.99429496   -3.9946453    449.78951  0.065186886  0.066625697            3 
  576000    1.0010186   -4.0138332    450.87075  0.065230143  0.066592403            2 
  577000    1.0099758   -4.0194156    450.58574   0.06507593  0.066559337            5 
  578000    1.0363612   -4.0223243    451.35353  0.065074038  0.066526544            1 
  579000    1.0245666   -4.0136992    452.83673   0.06517512  0.066492917            2 
  580000    1.0314659   -4.0558092    452.20737  0.064972323  0.066460191            3 
  581000     1.017543   -4.0326076    453.79389  0.065088051  0.066427438            2 
  582000     1.014068   -4.0335365    455.31589  0.065194142  0.066394391            5 
  583000    1.0218599    -4.030426    454.27313  0.064933265  0.066361861            2 
  584000    1.0092274   -4.0251153     453.4315  0.064701983  0.066328999            6 
  585000   0.99629213   -4.0760621    454.53747  0.064748927  0.066295268            4 
  586000    1.0061008   -4.0423032    457.25678  0.065025139  0.066262149            4 
  587000   0.99255943   -4.0448611    457.51981  0.064951705    0.0662298            2 
  588000    1.0136888   -4.0199947    459.94741   0.06518529  0.066197684            2 
  589000    0.9966435   -4.0413836    458.81635  0.064914594  0.066165542            3 
  590000    1.0072136   -4.0221228    459.23718  0.064864008  0.066133299            2 
  591000    1.0427942   -4.0232278    459.53123  0.064795718  0.066101579            2 
  592000   0.99761215   -4.0354566    460.54848  0.064829459  0.066070173            4 
  593000    1.0293236   -4.0457036    461.01478  0.064785664  0.066038607            3 
  594000    1.0348797   -4.0329239    463.60396  0.065039838  0.066006412            2 
  595000    1.0097593   -4.0357419     463.6076  0.064931037  0.065975107            6 
  596000     1.038843   -4.0371263    462.23993  0.064630863   0.06594345            2 
  597000    1.0278907   -3.9865227    464.30106   0.06481031  0.065911679            2 
  598000    1.0223913   -4.0513036    462.80897  0.064494004  0.065879312            5 
  599000    1.0232114   -4.0379147    464.09991  0.064565931  0.065845886            2 
  600000    1.0106247   -4.0421501    463.66799  0.064398332  0.065812982            4 
  601000    1.0100011   -4.0266483    465.18046  0.064500896  0.065778981            3 
  602000    1.0191115   -4.0332277    464.33892  0.064277258  0.065745396            3 
  603000    1.0070328   -4.0468943    464.10416   0.06413822   0.06571087            3 
  604000    1.0136474   -4.0703137    465.12362  0.064172684  0.065676873            2 
  605000    0.9925236   -4.0400507    465.92674  0.064177237  0.065642213            2 
  606000     1.017685   -4.0809515    465.75615  0.064047875  0.065607514            3 
  607000    1.0131958   -4.0446382    466.61652  0.064060477  0.065572434            2 
  608000    1.0283569   -4.0431838    466.08119  0.063881743  0.065537201            4 
  609000    1.0143518   -4.0471425    468.86422  0.064157665  0.065502894            3 
  610000     1.006161   -4.0388728    467.64377  0.063885761  0.065467879            8 
  611000    1.0267694   -4.0139385    470.62219  0.064187423  0.065434191            2 
  612000    1.0165244   -4.0624156    469.63295  0.063947841  0.065400727            2 
  613000    1.0213589   -4.0412651     469.5278  0.063829228  0.065367174            2 
  614000    1.0038197   -4.0494988    471.75663  0.064027773  0.065333514            3 
  615000   0.99712803   -4.0635667    470.91798  0.063810024  0.065299517            3 
  616000    1.0067581   -4.0786784    470.55876  0.063657841  0.065264396            3 
  617000     1.008863   -4.0527264    472.27413   0.06378635  0.065228697            4 
  618000    1.0162649   -4.0408553    473.34077  0.063826964  0.065192447            4 
  619000    1.0210141   -4.0602087     473.8581  0.063793497  0.065157737            4 
  620000    1.0153252    -4.047373    474.94222   0.06383632  0.065123025            3 
  621000   0.98946704   -4.0716977    471.90781  0.063326329  0.065087704            6 
  622000   0.99776259   -4.0605524    475.51869  0.063708292  0.065052707            3 
  623000    1.0047116   -4.0201743    475.62879  0.063620759  0.065018077            4 
  624000   0.98827273   -4.0566738    475.26298   0.06346995  0.064984242            3 
  625000   0.98870297   -4.0349665    476.78498   0.06357133  0.064949513            3 
  626000   0.96611262   -4.0343629    477.37882  0.063548832   0.06491526            2 
  627000    1.0166956   -4.0170776    479.27457  0.063699437  0.064881547            6 
  628000    1.0167487   -4.0565857    479.10938  0.063576086  0.064847618            4 
  629000   0.99557857   -4.0527251    477.32013   0.06323796  0.064814034            5 
  630000    1.0125934   -4.0604261    478.76962  0.063329315  0.064780182            4 
  631000    1.0082342    -4.068829    479.75256  0.063358764  0.064746397            4 
  632000   0.99389613   -4.0818077    479.43802  0.063217039  0.064713357            5 
  633000    0.9983425   -4.0677552    480.31637  0.063232803   0.06468009            3 
  634000    1.0172945   -4.0648299      483.624  0.063567823  0.064647513            4 
  635000    1.0034039   -4.0618046    484.90272  0.063635527  0.064615178            3 
  636000     0.999877   -4.0611657    483.93655  0.063408877  0.064582356            3 
  637000   0.98587686   -4.0842221    483.86339  0.063299764  0.064549614            4 
  638000    1.0141338   -4.0677539    484.97344  0.063345538  0.064516866            2 
  639000   0.98369311   -4.0868211    485.31907   0.06329148   0.06448355            2 
  640000   0.99057456   -4.0429377     486.9349  0.063402981  0.064451493            2 
  641000    0.9859173    -4.077462    487.58736  0.063388892  0.064419481            5 
  642000   0.98500793   -4.0999484     485.8323  0.063062344  0.064387747            3 
  643000   0.98588796   -4.0757052    489.58558  0.063450697  0.064355632            2 
  644000   0.99712186   -4.0798995     489.1634  0.063297542   0.06432416            5 
  645000   0.99055522   -4.0392693     490.7379   0.06340283  0.064291516            3 
  646000    1.0042261   -4.0943462     489.6036  0.063158359   0.06425965            2 
  647000    1.0063871   -4.0802526    491.95452   0.06336354  0.064228203            2 
  648000    1.0096618   -4.0503533    491.90928  0.063259938  0.064197344            3 
  649000   0.99975131   -4.0594515    492.59796  0.063250893  0.064165992            2 
  650000    1.0011387   -4.0749218    491.03965  0.062953801  0.064134275            3 
  651000    1.0017076   -4.0827822    495.03325  0.063368312  0.064103123            3 
  652000    0.9842964   -4.0576085    493.60028   0.06308797  0.064072557            3 
  653000    1.0152696   -4.0464461    494.80544  0.063145155  0.064041501            3 
  654000    1.0095147   -4.0710814     493.1004  0.062831346  0.064009397            2 
  655000    1.0158946   -4.0508031     496.3476  0.063148549  0.063976717            4 
  656000   0.99535601   -4.0914691    494.56565  0.062825922  0.063944867            3 
  657000   0.99052321   -4.0824366    494.88403  0.062770679  0.063913202            3 
  658000   0.98757103   -4.0776378    495.90375  0.062804426  0.063881402            3 
  659000    1.0098801   -4.0869334    494.91777  0.062584443  0.063850331            2 
  660000   0.98810561   -4.0809849    497.78107  0.062851145  0.063819572            3 
  661000   0.98096688   -4.0666071    498.59818  0.062859075  0.063788843            3 
  662000    1.0085878   -4.0528766    499.99131   0.06293949  0.063758078            3 
  663000   0.98955478    -4.054043    500.99345  0.062970519  0.063727224            2 
  664000    1.0103646   -4.0579305      502.453  0.063058861  0.063696753            3 
  665000   0.97270212   -4.0606959    501.98856  0.062905835  0.063666196            1 
  666000    0.9918421   -4.0834911    500.83053  0.062666483  0.063635682            2 
  667000   0.98157279    -4.113468    502.43472  0.062772953  0.063605619            2 
  668000   0.99010172   -4.0650723    503.74829   0.06284285  0.063575046            2 
  669000   0.99645663   -4.1094837    502.92761  0.062646688  0.063545579            2 
  670000   0.99642803    -4.079458    505.31526  0.062850157  0.063516299            3 
  671000   0.97716734   -4.0560073    505.49644  0.062778991   0.06348653            5 
  672000   0.99590956    -4.096834    504.45007  0.062555812  0.063456599            3 
  673000   0.98163008   -4.0822703    506.24174  0.062684713  0.063426798            2 
  674000   0.97817253   -4.0877459    507.90141   0.06279691  0.063397725            2 
  675000    0.9791119   -4.1032667    504.96176  0.062340958  0.063367408            7 
  676000    1.0187947   -4.0672067    507.84341  0.062603971  0.063336494            3 
  677000   0.99236663   -4.1273542    505.49831  0.062222835  0.063306429            3 
  678000   0.97379196   -4.1136166     508.7567  0.062531551  0.063276302            4 
  679000   0.99539389   -4.0826787    508.47403  0.062404765  0.063246186            6 
  680000    1.0117847   -4.0719087    510.38269  0.062546898  0.063216459            2 
  681000   0.99710795   -4.0781696    508.77051  0.062257772  0.063185337            2 
  682000   0.97818624   -4.0852056    509.05423  0.062201153  0.063154695            2 
  683000   0.99997972   -4.0716145    511.35176  0.062390405  0.063124268            1 
  684000   0.97398982   -4.0686567    508.72748  0.061979469   0.06309295            2 
  685000   0.97353002   -4.1002101     509.9011  0.062031764  0.063061734            2 
  686000   0.96580292   -4.0728603    510.47232  0.062010729  0.063030292            7 
  687000   0.99874346   -4.0681173    512.75671  0.062197562  0.062999345            3 
  688000   0.97220309   -4.0966719    515.19632  0.062402655  0.062968774            3 
  689000   0.99969832   -4.0970435    514.12969  0.062183078  0.062938656            4 
  690000   0.94951128   -4.0890087    514.54626  0.062143269  0.062909231            5 
  691000    0.9923214   -4.1268736    513.75699  0.061958151   0.06287748            2 
  692000   0.99136834   -4.0939449    514.12162  0.061912527  0.062846419            6 
  693000   0.96969201   -4.1125771    513.58895  0.061759133  0.062815802            5 
  694000   0.99531356   -4.0886011    514.29068  0.061754404  0.062784528            4 
  695000   0.96248058   -4.0863193    516.37524  0.061915496   0.06275368            1 
  696000   0.98374018   -4.0921141     518.7466  0.062110464  0.062722509            4 
  697000   0.96722538    -4.079014    517.93414  0.061924216  0.062692363            3 
  698000   0.96904845   -4.0779216    517.46318  0.061779271  0.062661824            3 
  699000   0.98323738   -4.0843123    518.67654  0.061835543  0.062631746            3 
  700000   0.99265623   -4.0936731     519.5116  0.061846619  0.062601612            3 
  701000   0.96643168   -4.1076245    518.69757  0.061661623  0.062571001            6 
  702000    0.9708648    -4.114746    518.88589   0.06159614   0.06253983            3 
  703000   0.98417097    -4.132145    519.39988   0.06156945  0.062509167            4 
  704000   0.97775018    -4.096493    521.58914  0.061741139  0.062479315            2 
  705000    0.9720122    -4.122325    522.89849  0.061808332  0.062449625            2 
  706000    1.0002503   -4.1105254     523.1648  0.061752219  0.062420396            3 
  707000   0.96764147   -4.0785197    524.16032  0.061782216  0.062391916            2 
  708000   0.97005354   -4.1223763    523.22768  0.061585179  0.062363388            3 
  709000     0.961159   -4.1568825    525.72146  0.061791427  0.062334874            2 
  710000   0.98658575   -4.0988822    525.68051   0.06169959  0.062305641            5 
  711000    0.9696928   -4.1072447    525.78275  0.061624794  0.062277289            4 
  712000   0.96314786   -4.1347858     525.2109  0.061471313  0.062248709            4 
  713000   0.97272893   -4.0962052    528.26112  0.061741599   0.06221951            5 
  714000   0.96079763   -4.1015288    527.28513  0.061541215  0.062190503            3 
  715000   0.97499798   -4.1105412    530.00933  0.061772649  0.062162128           10 
  716000   0.94545546   -4.1225416    529.84834  0.061667638   0.06213363            2 
  717000   0.96931804   -4.1306313    529.88079    0.0615854  0.062106563            3 
  718000    0.9491137   -4.1031573    530.90238  0.061618197  0.062079627            6 
  719000   0.95309067   -4.1135077    531.76889  0.061632927   0.06205276            6 
  720000   0.97353651   -4.1179463     529.3462  0.061266921   0.06202474            6 
  721000   0.92897048   -4.1272073    529.76758   0.06123065  0.061996334            2 
  722000   0.99393418   -4.0955629    531.48478  0.061344042  0.061967664            3 
  723000   0.97189904   -4.1320738     532.4601  0.061371611  0.061939017            2 
  724000   0.95768862   -4.1301744    529.79897  0.060980544  0.061909488            3 
  725000   0.95968542    -4.097139    532.55809  0.061213574  0.061879711            2 
  726000   0.96173072   -4.1491306    531.52004  0.061010105  0.061849402            3 
  727000   0.99028602   -4.0971377    531.80966  0.060959384  0.061819309            4 
  728000   0.97296238   -4.1134913    532.09147  0.060907907  0.061788914            3 
  729000   0.96828147   -4.1257491    532.58299  0.060880543  0.061758786            3 
  730000   0.95496357   -4.1109615    534.74512  0.061043963  0.061728537            6 
  731000   0.96306161   -4.1120845    535.52627  0.061049506  0.061698615            6 
  732000   0.94871284   -4.1101724    535.68934   0.06098467  0.061669267            4 
  733000   0.96384987    -4.135587    536.53566  0.060997688    0.0616396            6 
  734000    0.9632269   -4.1294425    535.76215  0.060826765  0.061609898            2 
  735000   0.94168584   -4.1313619    536.61492  0.060840694  0.061579897            3 
  736000   0.96667811     -4.09195    537.74809  0.060886332  0.061550309            3 
  737000   0.95507857   -4.1257861    538.12486   0.06084632  0.061521436            5 
  738000   0.95003747   -4.1384322    539.56006  0.060925932  0.061491859            4 
  739000   0.96301372   -4.1187429     539.9404  0.060886377  0.061462413            4 
  740000   0.95646694   -4.1350318    539.72942   0.06078034  0.061433325            2 
  741000   0.93489315   -4.1331894    540.93658  0.060834074  0.061404405            4 
  742000   0.95431831   -4.1728442    539.15393  0.060551879  0.061375403            3 
  743000   0.97577574   -4.1480724    540.29346   0.06059819  0.061346248            4 
  744000   0.96106495   -4.1262289    541.72618  0.060677215    0.0613173            2 
  745000    0.9520686   -4.1344418    542.35303  0.060665887  0.061288292            3 
  746000   0.94512595   -4.1321671    543.47926  0.060710373  0.061259285            3 
  747000   0.96870842   -4.1305192    541.37477   0.06039433  0.061230947            4 
  748000   0.94788918    -4.161709    543.78835  0.060582481  0.061202701            4 
  749000    0.9639653   -4.1075341    545.70828  0.060715207  0.061173902            2 
  750000   0.93106142   -4.1602373    544.39778  0.060488642  0.061144866            3 
  751000   0.95760147   -4.1444339    545.11391  0.060487562  0.061114754            2 
  752000   0.93611516   -4.1435242    546.40179  0.060549844  0.061084667            2 
  753000   0.95150105   -4.1334115    545.50458  0.060370139  0.061055575            4 
  754000   0.93162997   -4.1047845    547.10234   0.06046666  0.061026563            4 
  755000   0.96126859    -4.145788    546.35881  0.060304504   0.06099743            4 
  756000   0.95759363   -4.1654281    546.40666  0.060230011    0.0609675            3 
  757000   0.98188895   -4.1695516    547.25356  0.060243677  0.060937429            6 
  758000    0.9566496   -4.1252975    547.49542  0.060190789  0.060908055            2 
  759000    0.9307954   -4.1537356    549.29256  0.060308801  0.060878477            5 
  760000   0.94333836   -4.1625498    548.87451  0.060183609  0.060848307            2 
  761000   0.96769895   -4.1033186    550.95726  0.060332596  0.060819336            3 
  762000   0.94924645   -4.1620901     550.2584  0.060176991  0.060790239            4 
  763000   0.96650143   -4.1282264    551.88257   0.06027551   0.06076159            2 
  764000   0.93855353   -4.1525696    550.53126  0.060049221  0.060732869            3 
  765000   0.93843882   -4.1538736     552.4327  0.060177854  0.060703746            5 
  766000   0.94574323   -4.1762589    550.57095  0.059896752  0.060674668            3 
  767000   0.95319565   -4.1396864    553.08512  0.060091821  0.060646128            3 
  768000   0.93024017   -4.1707585    553.38504   0.06004612  0.060617071            3 
  769000   0.94584098   -4.1601815    553.94222  0.060028416  0.060587883            4 
  770000   0.96069422   -4.1320802    554.65461  0.060027555  0.060559374            2 
  771000   0.93234861   -4.1698929    554.82084  0.059967666   0.06053061            5 
  772000   0.93856031   -4.1648804    553.43574  0.059740472  0.060502097            3 
  773000   0.94425749   -4.1495942    555.84717  0.059923153  0.060473409            7 
  774000    0.9437954   -4.1354317    553.52814  0.059596053  0.060444126            5 
  775000   0.96228355   -4.1620546    558.59199  0.060063655  0.060415061            2 
  776000   0.96028337   -4.1467009    559.80873  0.060116917  0.060386576            7 
  777000   0.94695972   -4.1356569    555.43948  0.059570944  0.060358054            2 
  778000   0.93551352   -4.1555967    557.09434   0.05967163  0.060329744            4 
  779000   0.96104903   -4.1434341    558.48275  0.059743554  0.060301051            3 
  780000   0.94910201   -4.1647387    559.95099  0.059823823  0.060272316            3 
  781000   0.94650509   -4.1639626     560.0587  0.059758717  0.060243381            8 
  782000   0.92987227   -4.1761714    559.45542  0.059618011  0.060215098            4 
  783000   0.93686564   -4.1580269    560.62528  0.059666377  0.060186495            3 
  784000   0.93559887   -4.1701779    561.05384  0.059635825  0.060157571            3 
  785000   0.95841449   -4.1335809    561.20737  0.059576154  0.060129103            4 
  786000    0.9403421   -4.1434836    561.89703  0.059573477  0.060100561            3 
  787000   0.92972684   -4.1657438    563.41804  0.059658835  0.060072443            2 
  788000   0.93328138   -4.1905896    563.09361  0.059548817  0.060043704            7 
  789000    0.9395489   -4.1802097    565.08049  0.059683195   0.06001528            3 
  790000   0.94737439   -4.1847225    563.16179  0.059405252  0.059987018            4 
  791000   0.95422519   -4.2018364    562.63428  0.059274576  0.059957275            5 
  792000   0.94272504   -4.1599755     566.1784  0.059572643  0.059927853            3 
  793000   0.91588389   -4.1498945    567.00702  0.059584596  0.059899012            4 
  794000   0.92822534   -4.1594205    565.69033  0.059371361  0.059870087            2 
  795000    0.9144464   -4.1738676    565.56826  0.059283884  0.059841106            4 
  796000   0.94970497   -4.1498713    564.54291  0.059102064  0.059811954            3 
  797000   0.92936695   -4.1628793     566.9893  0.059283699  0.059782853            2 
  798000    0.9332657   -4.1556964    569.67009  0.059489358  0.059753997            4 
  799000   0.94839516   -4.1749229     566.7313  0.059108396  0.059726066            4 
  800000   0.92809547   -4.1807429    569.08412  0.059279596  0.059697152            4 
  801000   0.93398148   -4.1492028    571.42629   0.05944926  0.059668761            3 
  802000    0.9085645   -4.1610948     567.1228  0.058927972  0.059640201            3 
  803000   0.95309444   -4.1562274    570.38357  0.059192981   0.05961193            3 
  804000   0.95339274   -4.1634443    570.55471  0.059137097  0.059583631            4 
  805000   0.91711134   -4.1862153    570.14211  0.059020923  0.059555487            4 
  806000   0.92153379   -4.1810429    571.51861  0.059090013  0.059527142            3 
  807000   0.93075087    -4.193258    572.16257  0.059083289  0.059498046            3 
  808000    0.9378387   -4.1700643    572.18856  0.059012847  0.059469574            3 
  809000   0.94524276   -4.1756831    575.04937  0.059234587  0.059440958            3 
  810000   0.93597742   -4.1490755    573.14118  0.058965142   0.05941287            6 
  811000   0.91926808    -4.214712    573.06093  0.058884189  0.059384856            4 
  812000   0.92799755    -4.198627    572.30595  0.058734191  0.059356952            5 
  813000   0.91374017   -4.1518774    574.73074   0.05891049  0.059328385            5 
  814000   0.93342021   -4.1793985    574.68799  0.058833742  0.059300208            6 
  815000   0.92768946   -4.1779196    575.45126  0.058839597  0.059271802            5 
  816000   0.92547275   -4.1495159    577.36619  0.058963051  0.059244254            3 
  817000   0.92497699   -4.1684999    576.61633  0.058814395  0.059216383            2 
  818000   0.94285176   -4.1970607    576.58611  0.058739417  0.059187983            3 
  819000   0.93433422   -4.1819207    578.32368  0.058844494  0.059159707            6 
  820000   0.92676911   -4.1908897    579.71968  0.058914602  0.059131969            3 
  821000   0.90708352   -4.1939087     578.8223  0.058751756  0.059104456            3 
  822000   0.90277812   -4.1805949    579.67304  0.058766528  0.059076993            4 
  823000   0.93746437   -4.1904005    579.13012   0.05864015  0.059049049            3 
  824000   0.92423164    -4.192414    579.31455  0.058587637  0.059021723            4 
  825000   0.92334715   -4.2028387    580.96898  0.058683735  0.058994224            4 
  826000   0.92292245   -4.1970504     580.0586  0.058520843  0.058966797            4 
  827000   0.92939946   -4.1855804    582.40098  0.058686112  0.058939536            2 
  828000   0.91446964    -4.190743    579.73245  0.058346664  0.058912592            4 
  829000   0.93726673   -4.2005981    583.91302  0.058696524  0.058885392            3 
  830000   0.93251035   -4.2152637    584.43409  0.058678121  0.058858998            5 
  831000   0.90844863   -4.2097893    585.64913  0.058729355  0.058832315            2 
  832000    0.9074219    -4.200554    583.73951  0.058467499  0.058805545            3 
  833000   0.91927476   -4.1975182    588.05688   0.05882922  0.058779137            4 
  834000   0.93559807   -4.1911218    588.08191  0.058761182  0.058753323            3 
  835000    0.9035911   -4.1812852    587.22903  0.058605692  0.058727676            3 
  836000   0.93004428   -4.1866243    588.14668  0.058627061  0.058702062            1 
  837000   0.90711822   -4.2156198    587.83532  0.058526018  0.058676715            8 
  838000   0.91697939   -4.1615052    589.76746  0.058648315  0.058650657           14 
  839000   0.91670578   -4.1716913    590.45747  0.058646948  0.058624843            5 
  840000   0.91138104   -4.2069626    591.49936  0.058680492  0.058598687            5 
  841000   0.89847003   -4.2212746    588.15568  0.058279397  0.058572641            4 
  842000   0.91972789    -4.219155    588.49894  0.058244155   0.05854653            4 
  843000   0.91416066   -4.2070335     591.1183  0.058433996  0.058520259            7 
  844000    0.9224634   -4.1751832    590.78018  0.058331376  0.058493885            5 
  845000   0.91636529    -4.189975     591.3947  0.058322949  0.058467379            3 
  846000   0.91584596   -4.2075552    589.03546  0.058021617  0.058440474            5 
  847000    0.9618458    -4.215597    590.32425  0.058079914   0.05841385            3 
  848000   0.87756269   -4.1893992    592.60813  0.058235862  0.058386743            6 
  849000   0.92126472   -4.2065339    593.48004   0.05825285  0.058360101            3 
  850000   0.91530914   -4.2339072     593.7168   0.05820753  0.058333389            5 
  851000   0.91385957   -4.2217862     594.7885  0.058244076  0.058306837            6 
  852000      0.90846   -4.2054156    593.30641  0.058030752   0.05828028            4 
  853000   0.91469841   -4.1946358    594.36722  0.058066356  0.058253553            3 
  854000   0.89972143   -4.2273954    593.60599  0.057924082  0.058226737            4 
  855000   0.89786308   -4.2048783    595.90971  0.058080869  0.058200519            5 
  856000    0.9076582   -4.1838856    596.26492  0.058047597  0.058174333            3 
  857000   0.92276614   -4.2142859    594.16373  0.057775547  0.058148208            7 
  858000   0.89792123    -4.210126    596.03947  0.057890392  0.058121623            5 
  859000   0.90045107   -4.2019307    596.13144  0.057831921  0.058094878            5 
  860000   0.91531541   -4.1831036    599.79709  0.058119873  0.058068635            5 
  861000   0.91028253   -4.2043431    597.85216  0.057864127  0.058043076            4 
  862000   0.91882577    -4.188898    597.45168  0.057758283  0.058017076            4 
  863000   0.92993096   -4.2275574    599.21766  0.057861883  0.057991104            3 
  864000   0.88933552   -4.2476237    598.03719  0.057681056  0.057964227            3 
  865000    0.9209961   -4.2035549    602.42776  0.058037356  0.057937339            2 
  866000   0.88528613   -4.2360504    598.17687  0.057561284  0.057910804            5 
  867000   0.90966971   -4.2124705    601.19161  0.057784661  0.057884294            5 
  868000   0.92598356   -4.2337343    601.20221  0.057719107   0.05785799            5 
  869000   0.93490377   -4.2180956    602.36036  0.057763748  0.057831724            4 
  870000   0.91251959   -4.2061464    602.59967  0.057720275  0.057805703            3 
  871000   0.91993112   -4.2556802     602.6383  0.057657702  0.057779217            3 
  872000   0.89846306   -4.2262015     603.6323  0.057686573  0.057753346            2 
  873000   0.89308618   -4.2332012    604.42683  0.057696337  0.057727668            3 
  874000   0.88669399   -4.2296308    604.96623  0.057681753  0.057702186            3 
  875000   0.87658318   -4.2099885    603.60398  0.057486093  0.057675987            5 
  876000   0.92046492    -4.212373    604.70815  0.057525509  0.057649587            1 
  877000   0.90967771   -4.2378591    603.10361   0.05730745  0.057623339            5 
  878000   0.91566326   -4.2163993    606.30573  0.057546102  0.057596866            3 
  879000   0.89161781   -4.2094678    608.13079  0.057653658  0.057570477            4 
  880000   0.90418687   -4.2120078    607.41714  0.057520563  0.057544425            3 
  881000   0.88055399   -4.2257342     605.9166  0.057313337  0.057517752            4 
  882000   0.90436815   -4.1981235    607.39337  0.057387885  0.057491267            8 
  883000   0.89823547   -4.2154795    607.51889  0.057334739  0.057464989            4 
  884000   0.89811052   -4.2375974     609.0203  0.057411416  0.057438814            4 
  885000   0.90331608   -4.2081857    607.36052  0.057190256  0.057412408            5 
  886000   0.90380027   -4.2460791    608.75918  0.057257259  0.057385856            3 
  887000   0.88941332   -4.2651419    608.02031  0.057123291  0.057359242           12 
  888000   0.90974604   -4.2413976    609.35276  0.057184005  0.057332751            3 
  889000   0.89602886   -4.2195987    610.86688  0.057261612  0.057306136            2 
  890000   0.88951152   -4.2445061     609.6127  0.057079841  0.057279506            4 
  891000   0.90845903   -4.2272153    609.29785  0.056986331   0.05725262            3 
  892000   0.90461752   -4.2204021    613.41374  0.057306964  0.057226855            7 
  893000   0.88193151   -4.2418387    613.18134  0.057221103   0.05720113            5 
  894000   0.90716492   -4.2501353    611.96533  0.057043748  0.057174531            4 
  895000   0.90478463   -4.2211377    612.82531  0.057060085  0.057148146            2 
  896000   0.91217623    -4.257117    611.64768  0.056886875  0.057121364            4 
  897000   0.89733135   -4.2478406    612.45896  0.056898826  0.057095132            3 
  898000   0.88907501   -4.2040268    612.45844  0.056835416  0.057068441            5 
  899000   0.90750639   -4.2129518    613.01827  0.056824088  0.057041497            3 
  900000   0.88695307   -4.2545585    613.45615  0.056801496  0.057015162            3 
  901000   0.90980718   -4.2446742    613.11805  0.056707182   0.05698868            4 
  902000   0.89454132   -4.2538649    615.50545  0.056864879  0.056961964            4 
  903000   0.91820448   -4.2249901      618.995  0.057123939  0.056935375            3 
  904000   0.88431538   -4.2389639    614.60741  0.056656288  0.056909242            7 
  905000   0.92867584   -4.2642471    617.60111  0.056869347   0.05688344            4 
  906000   0.89899043   -4.2497835    616.50088  0.056705379  0.056857573            5 
  907000   0.89526685   -4.2354024    616.95919  0.056684968  0.056831434            3 
  908000   0.88945068   -4.2408527    617.30179  0.056653982  0.056805417            4 
  909000   0.89535255   -4.2796197     616.4453  0.056513137  0.056778599            5 
  910000    0.9079732   -4.2578217    617.99796   0.05659322  0.056752257            3 
  911000   0.89412928   -4.2528589     619.0453  0.056626903  0.056725904            2 
  912000   0.88226322   -4.2462817    620.61268   0.05670803  0.056700197            2 
  913000   0.90474049   -4.2550978     619.4199  0.056537048  0.056674138            4 
  914000    0.8848603   -4.2683625    619.93295  0.056521968  0.056647906            5 
  915000   0.89261872   -4.2568014    622.05342  0.056653317  0.056621816            4 
  916000   0.89809584   -4.2556079     621.0615  0.056501229  0.056595368            7 
  917000   0.87620367   -4.2457621     623.4085  0.056652898  0.056568882            3 
  918000   0.87199802   -4.2711034    621.05926  0.056377928  0.056542306            3 
  919000   0.88299173   -4.2740985     622.4055  0.056438657  0.056515826            5 
  920000   0.88263452   -4.2696457    622.49232  0.056385174  0.056489942            5 
  921000   0.88108342   -4.2772458    622.02376  0.056281557  0.056464232            5 
  922000    0.8871447   -4.2489803    624.24726  0.056421481  0.056438331            4 
  923000   0.89776468   -4.2645854    625.63893  0.056485999  0.056412648            7 
  924000   0.89689234   -4.2381226    624.44508  0.056317197  0.056387443            6 
  925000   0.85789523   -4.2357714    628.72383  0.056641787  0.056362465            4 
  926000    0.8891558    -4.266575     625.3086  0.056273272  0.056337204            4 
  927000   0.88944324   -4.2863062    627.93272  0.056448464  0.056311767            6 
  928000   0.89344467   -4.2478684     625.9972  0.056213829  0.056286655            6 
  929000    0.8727974   -4.2293456    627.90471  0.056324426  0.056261248            4 
  930000   0.86717772     -4.25136    626.60472  0.056147376  0.056235926            4 
  931000   0.89216011   -4.2565505    629.19575   0.05631899  0.056210282            5 
  932000   0.88484254   -4.2651566    630.05279  0.056335192  0.056184607            3 
  933000   0.86283351   -4.2340308    629.83977  0.056255785  0.056159257            3 
  934000   0.89866281   -4.2837191     629.8806  0.056199197  0.056134293            4 
  935000   0.87216009   -4.2260728    631.28383  0.056264156  0.056109376            4 
  936000   0.88140761   -4.2379431    631.49798  0.056223111  0.056084565            6 
  937000   0.87970877   -4.2614514    632.65789  0.056266265  0.056059461            6 
  938000   0.87918877   -4.2807038    629.55367  0.055930497  0.056033624            3 
  939000   0.86839813   -4.2764065    631.72994   0.05606407  0.056008064            7 
  940000   0.87311669   -4.2357992    633.50602  0.056161881  0.055982939            2 
  941000   0.87692345   -4.2801045    631.53368  0.055927531  0.055957675            5 
  942000   0.88217857   -4.3082205    630.00889   0.05573327  0.055931655            8 
  943000   0.87336433   -4.2548739    633.83919  0.056012653  0.055905688            2 
  944000   0.86952375   -4.2632959    632.97647   0.05587716  0.055880267            3 
  945000   0.88140808   -4.2670773    633.02169  0.055822018  0.055854838            3 
  946000   0.87308333   -4.2931489    633.86018  0.055836873  0.055829397            3 
  947000   0.85948262    -4.288814    634.36123  0.055822002  0.055803886            6 
  948000   0.88688173   -4.2503483    637.19404  0.056012135  0.055778765            3 
  949000   0.87549101   -4.2816306    633.83008  0.055657717  0.055753262            8 
  950000   0.88089879   -4.2639518    636.12501  0.055800439   0.05572762            5 
  951000   0.86457323   -4.2771051    634.26102  0.055578428   0.05570235            4 
  952000    0.8682533   -4.2715679    639.58871  0.055986407   0.05567751            6 
  953000   0.85516982   -4.2919543    635.11098  0.055536112   0.05565244            5 
  954000   0.88903593   -4.2605733    637.97745  0.055728289  0.055626962            5 
  955000   0.89712018   -4.2946726    638.20927  0.055690164  0.055601748            3 
  956000   0.85111608   -4.2883881    638.83583  0.055686527  0.055577022            4 
  957000   0.85379414   -4.2925026    638.93611   0.05563707  0.055552229            4 
  958000   0.88147611   -4.2688829    641.40662  0.055793895  0.055527215            3 
  959000   0.84854365   -4.2973958    637.20944  0.055370997  0.055501964            3 
  960000   0.85202912   -4.2750126    641.45008   0.05568143  0.055476576            2 
  961000   0.84957303   -4.3056905    638.93043  0.055404997  0.055451323            2 
  962000   0.86039156   -4.3059544     640.9232  0.055520028  0.055425556            4 
  963000   0.87458963   -4.2851425    641.33833  0.055498298  0.055399965            2 
  964000   0.86012432   -4.3102733    639.89854  0.055316264  0.055374861            5 
  965000   0.85805448   -4.2946185     643.1933  0.055543463  0.055349324            6 
  966000   0.86862609   -4.2732666    643.26454   0.05549211  0.055323608            6 
  967000   0.86642026   -4.3006865    640.08926  0.055161088  0.055298425            3 
  968000   0.86804238   -4.2786095    642.10753  0.055277852  0.055272698            4 
  969000   0.87565465   -4.2752491    644.17783   0.05539885  0.055246973            3 
  970000   0.85227019   -4.2987878    642.55152   0.05520202  0.055221231            3 
  971000   0.86983437   -4.2807009    642.89243  0.055174428  0.055195714            3 
  972000   0.86191219    -4.297941      642.646  0.055096536  0.055170186            5 
  973000   0.86124282   -4.2930654    643.94992  0.055151586  0.055144801            4 
  974000   0.86379611    -4.274867    645.72151  0.055246536  0.055119649            6 
  975000   0.88004932    -4.287566    647.63293  0.055353242   0.05509505            7 
  976000   0.86185547     -4.28305    645.58814  0.055121938  0.055070209            7 
  977000   0.85929184   -4.3094926    646.83707  0.055172046  0.055045072            2 
  978000   0.86314394   -4.2906117    645.91892  0.055037399  0.055019883            4 
  979000   0.88643737   -4.3166614     647.1312  0.055084372  0.054994886            4 
  980000   0.88305829   -4.2799441    648.13506  0.055113525  0.054969732            5 
  981000   0.86257151   -4.2952398    648.02976  0.055048399  0.054944116            3 
  982000   0.87334805   -4.2480808    647.54133  0.054950894  0.054918497            6 
  983000   0.87484911   -4.2950296    645.57951   0.05472868  0.054893241            2 
  984000   0.85589794   -4.2699085    648.02427  0.054880104  0.054868102            5 
  985000   0.86423285   -4.3075735    650.51102  0.055034773  0.054843391            3 
  986000    0.8557276   -4.3188088    649.55894  0.054898491  0.054818143            2 
  987000   0.84192153      -4.3209    650.20464  0.054897386  0.054792817            6 
  988000   0.85873092   -4.3056166    653.17021  0.055091954  0.054767307            3 
  989000   0.86126995   -4.2964769    650.15094  0.054781846  0.054742429            3 
  990000   0.86213402   -4.2828154    652.27511  0.054905312  0.054717506            3 
  991000   0.85763782   -4.3236862     652.8985  0.054902329  0.054692785            2 
  992000   0.85962915   -4.3060162    652.76198  0.054835516  0.054668436            4 
  993000   0.86138839   -4.3137558    653.99038  0.054883382  0.054644061            2 
  994000    0.8690214   -4.2975354    654.01702  0.054830401  0.054619643            9 
  995000   0.86502442   -4.2888513    654.42459  0.054809429  0.054595294            2 
  996000   0.87121729   -4.2891608    656.26431  0.054908326  0.054570704            4 
  997000   0.84741328   -4.3193657    656.96815  0.054912082  0.054546238            2 
  998000   0.85134266   -4.3297727    655.84026  0.054762881  0.054521695            4 
  999000   0.83327343   -4.2993027    657.08284  0.054811715  0.054497809            3 
 1000000   0.83968191   -4.3213901     657.2188  0.054768233  0.054474009            7 
 1001000   0.86178867   -4.3217105    658.31331  0.054804638  0.054449884            4 
 1002000   0.84819436    -4.292018    658.44084  0.054760549  0.054425813            5 
 1003000   0.82931655   -4.3305001    657.54334  0.054631384   0.05440189            5 
 1004000   0.85011183   -4.3176968     658.2551  0.054636047  0.054378342            4 
 1005000   0.84561743   -4.2982233    658.80477  0.054627261  0.054354309            5 
 1006000   0.86334433   -4.3087591    659.99091  0.054671215  0.054329943            4 
 1007000   0.84199939   -4.3164081    658.88454  0.054525367  0.054306187            4 
 1008000    0.8489127   -4.3054785    661.17646  0.054660752  0.054281954            6 
 1009000   0.83979844   -4.3224873    662.89447   0.05474847  0.054257893            6 
 1010000   0.85694246   -4.3343005    661.49514  0.054578807   0.05423413            3 
 1011000   0.86784313   -4.2815028    661.70084  0.054541777  0.054210464            3 
 1012000   0.85141982   -4.2811926    663.21859  0.054612861   0.05418713            8 
 1013000   0.83201333   -4.3287517    660.20486  0.054311028  0.054163322            7 
 1014000   0.85559788   -4.3276511    662.96845  0.054484586   0.05413984            7 
 1015000   0.86094602   -4.2918097    663.47476  0.054472476  0.054116103            8 
 1016000   0.87279709   -4.3337658    663.85304  0.054449889  0.054092431            3 
 1017000   0.84984768   -4.3199102    664.48274  0.054447946  0.054068805            5 
 1018000   0.84758092   -4.3090314    663.72844  0.054332714  0.054045197            2 
 1019000   0.84012493   -4.3483735    664.27493  0.054324087  0.054021478            4 
 1020000   0.85191116   -4.3401433    665.53962  0.054374152  0.053997754            5 
 1021000   0.85117569   -4.2943777     666.0022  0.054358651  0.053974058            4 
 1022000   0.83956073   -4.3095879    667.20287  0.054403365  0.053950223            4 
 1023000   0.83944971   -4.3440636     663.4575  0.054045088  0.053926356            6 
 1024000   0.84260544   -4.3364825    665.70997  0.054175616   0.05390224            4 
 1025000   0.85240325   -4.3180637    667.50111  0.054268383  0.053878307            6 
 1026000   0.84065597   -4.3150018    667.16938  0.054188546  0.053854703            4 
 1027000   0.82366336   -4.3276716    668.42838   0.05423794  0.053830232            6 
 1028000   0.82298363   -4.3063888    667.61418  0.054119178  0.053806185            5 
 1029000   0.83727431   -4.3381388    668.73531  0.054157379  0.053781964            3 
 1030000   0.81954286   -4.3573709    665.22728  0.053820977  0.053757544            4 
 1031000   0.83234109   -4.3340155    669.12551  0.054083859   0.05373266            7 
 1032000   0.84479001   -4.3270891    667.83671  0.053927383  0.053708277            8 
 1033000   0.83691617    -4.337273    668.57771  0.053934956  0.053683743            4 
 1034000   0.84594582   -4.3537997    667.66232   0.05380902    0.0536592            5 
 1035000   0.85725963   -4.3392931    669.00251  0.053864936  0.053634796            3 
 1036000   0.83773656   -4.3337867    668.66676  0.053785937  0.053610181            3 
 1037000   0.83569267   -4.3402874    668.70465  0.053737114  0.053585455            3 
 1038000   0.85945547   -4.3363049    668.61293  0.053677981  0.053560412            3 
 1039000   0.85588158   -4.3374502    672.21163  0.053914953  0.053535719            4 
 1040000   0.83645277   -4.3536308     670.4786  0.053724246   0.05351143            3 
 1041000   0.84409452   -4.3315822    671.12207  0.053724149  0.053486837            5 
 1042000   0.85207323   -4.3152015    670.95003  0.053658831  0.053462195            4 
 1043000   0.82961788   -4.3426741    673.57446  0.053817071  0.053437514            5 
 1044000   0.85211312   -4.3507499    671.98971  0.053639025  0.053413178            7 
 1045000   0.82083307   -4.3412633    672.62607  0.053638442  0.053388677            9 
 1046000   0.84717204   -4.3624244    672.26039   0.05355803  0.053364456            3 
 1047000    0.8311054   -4.3392277    672.36418  0.053515137  0.053339815            5 
 1048000   0.82813213   -4.3184211    670.99124  0.053354901   0.05331528            3 
 1049000   0.83174063   -4.3134277    673.17745  0.053477713  0.053290217            7 
 1050000    0.8422911   -4.3746131    672.21557  0.053350442   0.05326526            4 
 1051000   0.83422349   -4.3235206    673.04312  0.053365297  0.053239869            4 
 1052000    0.8385243   -4.3324433    674.25176   0.05341031  0.053214727            5 
 1053000   0.82572744   -4.3908473      671.943  0.053176875  0.053189261            3 
 1054000   0.83479105   -4.3380135    673.83615  0.053276103  0.053163898            7 
 1055000   0.84255682   -4.3557601    672.22347   0.05309822  0.053138123            8 
 1056000   0.85208697   -4.3494221    676.00984  0.053346736  0.053112678            4 
 1057000   0.82743992   -4.3213945    675.92747  0.053289772  0.053087665            6 
 1058000   0.82586901   -4.3370268       674.47  0.053124606  0.053062456            5 
 1059000   0.81932131   -4.3604038    674.23295  0.053055788  0.053037005            7 
 1060000   0.82523617   -4.3546979    673.89208  0.052978937  0.053011514            5 
 1061000   0.84741813   -4.3435894    675.51921  0.053056802  0.052986069            4 
 1062000   0.83115298   -4.3576693     675.2488  0.052985624  0.052960686            3 
 1063000   0.82728551   -4.3611188    675.18829  0.052931036  0.052934981            5 
 1064000   0.81284218   -4.3584984    675.27003   0.05288769  0.052909204            4 
 1065000   0.82347367   -4.3749494    675.25703  0.052837014  0.052883503            9 
 1066000   0.82703028   -4.3578577    675.61076    0.0528151  0.052857464            4 
 1067000   0.81719898   -4.3097107    676.67078   0.05284839   0.05283202            4 
 1068000   0.83218931   -4.3544452    675.94289  0.052742111  0.052806642            6 
 1069000   0.82882872    -4.368042    678.93223  0.052925805  0.052780903            5 
 1070000   0.81702461   -4.3726009    677.14483  0.052737136  0.052755812            6 
 1071000   0.84032359   -4.3666314    676.89872  0.052668746  0.052730042            5 
 1072000   0.82210234   -4.3406969    678.91211  0.052776128  0.052704108            5 
 1073000   0.82514895   -4.3545095    677.21144  0.052594862  0.052678474            3 
 1074000    0.8127677   -4.3533181    680.35266  0.052789623   0.05265249            5 
 1075000   0.82881662   -4.3605917    677.45317   0.05251575  0.052626353            4 
 1076000    0.8156907   -4.3523327    678.73545  0.052566252  0.052600342            4 
 1077000    0.8356768    -4.355781    677.48056  0.052420346  0.052574272            3 
 1078000   0.82344648   -4.4004687    678.75669  0.052470368   0.05254775            4 
 1079000   0.82070357   -4.3810754    679.43657  0.052474249  0.052522156            8 
 1080000   0.83625232   -4.3785978    680.25353  0.052488699  0.052496289            5 
 1081000   0.82829513   -4.3986634    678.96897  0.052341117  0.052470367            2 
 1082000   0.84341708   -4.3652634    681.25063  0.052468471  0.052444467            4 
 1083000   0.84031675   -4.3602906    680.66922  0.052375286  0.052418772           12 
 1084000   0.79258845   -4.3724308     682.2761    0.0524505  0.052393182            4 
 1085000   0.81537008   -4.3676222    682.60141  0.052427144  0.052367556            5 
 1086000    0.8180414   -4.3802058    679.44856  0.052136937  0.052341864            6 
 1087000   0.81317349   -4.3960701    682.27294  0.052305499  0.052316269            3 
 1088000   0.83245571   -4.3725536    683.54295  0.052354699  0.052290697            4 
 1089000   0.81324029   -4.3469689    685.37012  0.052446443  0.052265203            9 
 1090000   0.84239413   -4.3848141      684.402  0.052324312  0.052240032            4 
 1091000   0.82181529   -4.3600148     685.1755  0.052335434  0.052214591            6 
 1092000   0.80238072   -4.3729183    684.57471   0.05224166  0.052189351            3 
 1093000   0.83764002   -4.3854887    683.71108  0.052128018  0.052163581            7 
 1094000   0.80503803   -4.3939459    683.67026  0.052077259  0.052138161            4 
 1095000   0.82137851   -4.4051135     686.7717  0.052265731  0.052112675            3 
 1096000   0.82959709    -4.368827    686.15511  0.052171161  0.052087412            4 
 1097000   0.83544603   -4.3776983    685.91742  0.052105547  0.052062668            5 
 1098000   0.80111711   -4.3726416    687.94338  0.052211853  0.052037905            6 
 1099000   0.81943175   -4.3787347    688.23747  0.052186645  0.052013138            2 
 1100000   0.81160158   -4.3957384    687.39113  0.052075086  0.051988344            3 
 1101000   0.82288806    -4.388574    690.29427  0.052247523  0.051963662            3 
 1102000   0.82193239   -4.3978624    688.40589  0.052057312  0.051939108            8 
 1103000   0.81783764   -4.3826376    688.89306  0.052046922  0.051914147            4 
 1104000   0.82793253   -4.3963269    690.45751  0.052117867  0.051889148            3 
 1105000   0.82399328   -4.3723294    689.77941  0.052019563  0.051864142            8 
 1106000   0.79834111   -4.3862642    688.56375  0.051880934  0.051839111            4 
 1107000   0.79180691   -4.3778147    691.42809  0.052049691  0.051813969            2 
 1108000   0.80551727   -4.3851581    692.49988  0.052083324  0.051789158           12 
 1109000    0.8152643   -4.3711318    691.06509  0.051928546  0.051764482            5 
 1110000   0.81174066   -4.3758843    692.45043  0.051985768  0.051739421            3 
 1111000   0.80927294   -4.3981816    690.14594  0.051766122  0.051714562            7 
 1112000   0.80504403    -4.412467    692.09993  0.051866002  0.051689657            4 
 1113000   0.81468941   -4.3944861    691.75343  0.051793458  0.051664522            6 
 1114000   0.80371179   -4.4025197    690.58529  0.051659582  0.051639034            4 
 1115000   0.81799494   -4.3744707    693.71742  0.051847341  0.051613971            8 
 1116000   0.81200927   -4.3740911    693.71618   0.05180079  0.051589082            9 
 1117000   0.80751812   -4.3961229    690.71511  0.051530522  0.051564113            3 
 1118000   0.80519194   -4.3989938    694.32941  0.051753832  0.051539338            5 
 1119000   0.81315745    -4.381234    694.85141  0.051746456  0.051514513            5 
 1120000   0.80993215   -4.4216963    694.71735  0.051690279  0.051489845            8 
 1121000   0.82522608    -4.383133    694.48766  0.051627093  0.051465148            2 
 1122000   0.80490379   -4.3845305    694.68729  0.051595907  0.051440653            6 
 1123000      0.80991   -4.3953723    694.02323  0.051500685  0.051415794            4 
 1124000   0.79742274   -4.3810148    695.46647  0.051561867   0.05139091            8 
 1125000    0.7978454    -4.410004     692.8097  0.051319237  0.051365531           14 
 1126000   0.80245725   -4.4035198    696.10579  0.051517598  0.051340254            4 
 1127000   0.80946862   -4.3754895    696.72793  0.051517889  0.051315343            6 
 1128000   0.79208696   -4.4044285     695.2538  0.051363313  0.051290398            5 
 1129000   0.80789787   -4.3852145    697.83482  0.051508328  0.051265412            6 
 1130000   0.79512876    -4.404196    698.01587  0.051476097  0.051240628            6 
 1131000   0.80021737    -4.445207    695.30276  0.051230678  0.051215535            5 
 1132000   0.81543879   -4.4264971    697.79762  0.051369083   0.05119056            7 
 1133000   0.80463763   -4.4009787    696.58949  0.051234885  0.051165633            4 
 1134000   0.80398617   -4.4124863    700.29877  0.051462285  0.051141093            6 
 1135000   0.78900896   -4.4100924    700.23641  0.051412365  0.051116509            6 
 1136000    0.7885922   -4.3989495    699.20879  0.051291725  0.051091788            6 
 1137000   0.81087092    -4.419488    699.20289  0.051246181  0.051066997            5 
 1138000   0.80207826   -4.3918802    698.51122  0.051150499  0.051042268            3 
 1139000   0.79835442    -4.418087    701.82752  0.051348224  0.051017384            8 
 1140000    0.8013854   -4.3991453    704.30664  0.051484404  0.050993036            3 
 1141000   0.78960105   -4.4040407    700.32977  0.051148829  0.050968596            6 
 1142000   0.80790012   -4.3959636    699.17933  0.051020091   0.05094374           10 
 1143000   0.81297899   -4.4195758    699.79251  0.051020159   0.05091894            7 
 1144000   0.78510026   -4.4256539    698.28605  0.050865825  0.050894364            6 
 1145000   0.78711537   -4.4037379    703.55708  0.051205028  0.050869765            6 
 1146000   0.80061903   -4.4155772    701.54348  0.051013923   0.05084506            9 
 1147000     0.793323   -4.3981635    703.62536  0.051120703  0.050820416            5 
 1148000   0.79386731   -4.4267283    702.98328  0.051029564  0.050796004            7 
 1149000   0.78451012   -4.4036883    702.73135  0.050966881  0.050771758            4 
 1150000   0.79015642   -4.4238735    702.15733  0.050880966  0.050746962            6 
 1151000    0.7967395   -4.4362862      703.926  0.050964813  0.050722571            7 
 1152000   0.80040606   -4.4156632    702.64412  0.050827844  0.050697841            6 
 1153000   0.79720524   -4.4326056    701.27136  0.050684544  0.050673135            7 
 1154000   0.78308507   -4.4225808    704.76023  0.050892564  0.050648698            4 
 1155000   0.78945871   -4.4103775    705.40716  0.050895177  0.050624246            5 
 1156000   0.80105266    -4.416173    707.46399  0.050999422  0.050599856            5 
 1157000   0.80028587   -4.4160278     705.8659  0.050840241  0.050575302            5 
 1158000   0.80102098   -4.4216617    706.41749  0.050836031  0.050550707            7 
 1159000   0.79723617    -4.398512    705.97988  0.050760704  0.050526424            4 
 1160000   0.78485662   -4.4215408    706.04933  0.050721935  0.050502095            5 
 1161000   0.77739862   -4.4476685    705.08188  0.050608805  0.050477276            3 
 1162000   0.79011184   -4.4329767    706.60659  0.050674598  0.050452305            3 
 1163000   0.78729718   -4.4200173    704.67604  0.050492694  0.050427441            5 
 1164000    0.7908502   -4.4205078    704.24833  0.050418695  0.050402319            3 
 1165000   0.78892334   -4.4193668    706.16667  0.050512637  0.050377134            2 
 1166000   0.78103233   -4.4170951    706.72923  0.050509522  0.050352133            8 
 1167000   0.78948815   -4.4247932    706.75329  0.050467958  0.050327133            4 
 1168000   0.79615038   -4.4363921    706.25231  0.050389006  0.050301863            3 
 1169000   0.78924405   -4.4685768    704.77499  0.050240589  0.050276649            5 
 1170000   0.77863239   -4.4412877    708.55562  0.050466925  0.050251306            6 
 1171000   0.77194133   -4.4176969    708.72646  0.050435985  0.050225984            3 
 1172000   0.79171385   -4.4400491    705.56114  0.050167885  0.050200679            4 
 1173000   0.77786903   -4.4441838     708.7322  0.050350398  0.050175373            5 
 1174000   0.79366132   -4.4279571     705.9207  0.050107943  0.050150063           12 
 1175000   0.78037978   -4.4407016    707.33106  0.050165323  0.050124752            5 
 1176000   0.77812244   -4.4385262    709.33452  0.050264634  0.050099405            4 
 1177000   0.76815013    -4.448486     708.2312  0.050143812  0.050074195            5 
 1178000   0.77756637   -4.4439515    710.04407   0.05022949  0.050048714            4 
 1179000   0.77922434   -4.4406783    706.28438  0.049921147  0.050023497            4 
 1180000   0.77788847   -4.4541909    708.48852    0.0500345  0.049998145            5 
 1181000   0.77590565   -4.4493956    708.68988  0.050006342  0.049972796            3 
 1182000   0.79825256   -4.4207606    710.20372  0.050070764    0.0499474            3 
 1183000   0.80266928   -4.4660557    709.46547  0.049976435  0.049922059            3 
 1184000    0.7712926   -4.4541019    709.26702  0.049920257  0.049896752            4 
 1185000   0.79185873   -4.4511623    709.91772   0.04992389  0.049871434           15 
 1186000    0.7690871   -4.4481825      712.551  0.050066821  0.049845955            4 
 1187000   0.77291969   -4.4397314    711.31193  0.049937653  0.049820742            5 
 1188000   0.81771947   -4.4406494    710.89551  0.049866408  0.049795215            5 
 1189000   0.77447158   -4.4226029    711.88006  0.049893472  0.049770202            5 
 1190000   0.78500159   -4.4605312    709.89997  0.049712883  0.049744656            2 
 1191000    0.7728826   -4.4708469    712.56747  0.049857785  0.049719481            7 
 1192000   0.79063631    -4.459948    710.41985  0.049665818  0.049694111            4 
 1193000   0.78482534   -4.4623804    709.94626  0.049591105  0.049668889           11 
 1194000   0.77250933   -4.4479809    712.49777   0.04972765  0.049643803            4 
 1195000    0.7702676   -4.4801339    710.59975  0.049553679  0.049618603           11 
 1196000    0.7759869   -4.4761709    709.87674  0.049461869   0.04959318            8 
 1197000    0.7680079   -4.4342283    714.70258  0.049756515  0.049567839            6 
 1198000   0.78060746   -4.4452369    712.85375  0.049586376  0.049542633            6 
 1199000   0.76908801   -4.4385252    714.57062  0.049664346  0.049517846            6 
 1200000   0.75209333   -4.4618344    715.50461   0.04968782  0.049492769            3 
 1201000    0.7646296   -4.4332385    715.98374  0.049679694  0.049467508            7 
 1202000   0.77955247   -4.4615154    715.23733  0.049586615    0.0494426            5 
 1203000   0.77856274   -4.4633036    716.83173  0.049655841  0.049417822            8 
 1204000   0.76785003    -4.464052    716.90167   0.04961944  0.049392998            8 
 1205000   0.77262597   -4.4996697    715.26385  0.049464996  0.049368452            5 
 1206000   0.76332263   -4.4516941    718.00112  0.049613124   0.04934371            5 
 1207000   0.77897195   -4.4716282    716.26131    0.0494519  0.049318668            3 
 1208000   0.77341723    -4.475152    717.23589  0.049478194  0.049293771            8 
 1209000   0.76578123   -4.4795567    715.33967  0.049306567  0.049268707            6 
 1210000   0.75545145   -4.4608296    716.58779  0.049351776  0.049243897            6 
 1211000   0.78215135   -4.4647571    716.75694  0.049322663  0.049218752            4 
 1212000   0.75789982   -4.4601277    717.28088  0.049317993  0.049193528            5 
 1213000   0.77092055     -4.47619    715.13292  0.049129769  0.049168376            3 
 1214000   0.77233011    -4.472714    720.52468   0.04945941  0.049143165            6 
 1215000   0.75999312   -4.4460897    718.75619  0.049297407  0.049117833            7 
 1216000   0.76655773   -4.4625836    718.08919  0.049211156  0.049092455           13 
 1217000   0.76898181   -4.4873178    718.13906  0.049174135   0.04906708            8 
 1218000   0.75896414   -4.4669506    716.93168  0.049051155  0.049041664            8 
 1219000   0.76013075   -4.4835644    718.19075  0.049096988    0.0490164           11 
 1220000    0.7541078   -4.4749725    717.92921   0.04903888  0.048991143            4 
 1221000   0.76628836   -4.5066267    718.60556  0.049044878  0.048965616            9 
 1222000   0.78275407   -4.4743809    716.56787  0.048865785  0.048940278           12 
 1223000   0.77266769   -4.4995257    717.19276  0.048868408  0.048914764            6 
 1224000   0.74582504    -4.462062    718.40625  0.048911101  0.048889348            8 
 1225000   0.75852087   -4.4876992    719.46783   0.04894339  0.048863962            6 
 1226000   0.75883581   -4.4803584    720.95524  0.049004571  0.048838549           11 
 1227000   0.76111499   -4.4636079    720.39538  0.048926608  0.048813445            7 
 1228000   0.76591612   -4.5119156    720.35143  0.048883783  0.048788115           10 
 1229000   0.75416082   -4.4758007    721.36203  0.048912533  0.048762762            6 
 1230000   0.74936426   -4.5016928    718.00793  0.048645524  0.048737147            6 
 1231000   0.76223308   -4.4724567    720.15288   0.04875121   0.04871175            5 
 1232000   0.75903458   -4.4776913    722.30437  0.048857168  0.048686689            5 
 1233000    0.7586971   -4.4630641    723.38112  0.048890316  0.048661681            6 
 1234000   0.76437569   -4.4856713    723.99646  0.048892251  0.048636774            5 
 1235000   0.76101463   -4.4962193    721.02586  0.048652218  0.048611862           11 
 1236000   0.77149696   -4.4647826    724.23576  0.048829272  0.048586855            4 
 1237000   0.77507665   -4.4515064    726.16237  0.048919588  0.048562082            9 
 1238000   0.76000833   -4.4819034    725.03393  0.048804115  0.048537538            7 
 1239000   0.76829171   -4.4915249     723.7728  0.048679903  0.048512757            3 
 1240000   0.74356325   -4.5204336    722.85187  0.048578755  0.048487811            5 
 1241000   0.76146731   -4.4815833    724.71218   0.04866453  0.048463007           15 
 1242000    0.7662579   -4.4957778    724.85422  0.048634878  0.048438093            6 
 1243000   0.75914899   -4.5102414    724.66779  0.048583252  0.048413296            8 
 1244000   0.76305876   -4.4879605    724.23081  0.048514925  0.048388511            9 
 1245000   0.75104199   -4.5017856    723.02942  0.048395544    0.0483636            5 
 1246000   0.73938911   -4.5041508    726.78791  0.048608073  0.048338883            4 
 1247000   0.75123057   -4.4877456    726.69538   0.04856291  0.048314389            4 
 1248000   0.74511117   -4.4792296    729.13668  0.048687011  0.048289768            6 
 1249000   0.76294168    -4.503814    727.78356   0.04855775  0.048265002            8 
 1250000    0.7575856   -4.5118797    726.23083  0.048415389  0.048240489            5 
 1251000    0.7499236   -4.4787092    726.60127  0.048401363  0.048215917            7 
 1252000   0.76034299    -4.514437    726.96843  0.048387143  0.048191544            5 
 1253000   0.75361264   -4.5022049    727.63665  0.048392967  0.048166861            4 
 1254000   0.76857339     -4.48908    727.33886  0.048334587  0.048142315            5 
 1255000   0.75805599   -4.4999314    728.02424  0.048341583    0.0481176            3 
 1256000   0.73489192   -4.5115007    728.13503  0.048310445  0.048092984            7 
 1257000   0.74612043   -4.4889361     729.5077  0.048363014  0.048068545            8 
 1258000   0.76733951   -4.4979102    732.42642  0.048517913   0.04804405            5 
 1259000   0.74751046    -4.498209    729.48826  0.048284899  0.048019439            7 
 1260000   0.73014591   -4.4667412     729.5462   0.04825041  0.047995025            7 
 1261000   0.75427275   -4.5191124    731.64887  0.048351102  0.047970653            7 
 1262000    0.7448425   -4.4815652    734.13326   0.04847684  0.047946362            7 
 1263000   0.74428667   -4.5050577    730.81651  0.048219616  0.047922043            5 
 1264000   0.76824936   -4.5316292    730.45832  0.048157853  0.047897643           12 
 1265000   0.75464951   -4.5191545    731.98723  0.048220503  0.047873243            7 
 1266000   0.74630913   -4.5110631    731.57216  0.048155092  0.047849027            9 
 1267000   0.75195363   -4.5093724    730.96404  0.048077087  0.047824712           10 
 1268000   0.74306103   -4.5161955    731.57226  0.048079144  0.047800273            6 
 1269000   0.75458559   -4.5036495    731.84021  0.048058853  0.047776121            2 
 1270000   0.73606385   -4.5160201    732.45452   0.04806132  0.047751783            5 
 1271000   0.74693244   -4.4941258    730.41856  0.047890018  0.047727459            8 
 1272000    0.7543205   -4.4907668    732.63443  0.047997538  0.047702902            7 
 1273000   0.74808374   -4.5291166    732.26633  0.047935738  0.047678518            5 
 1274000   0.74197633   -4.5295578    732.06571  0.047884989   0.04765399            7 
 1275000   0.73474329   -4.5021919    735.09527  0.048045442  0.047629863            5 
 1276000   0.74761177   -4.5275328    733.53074  0.047905613  0.047605645           20 
 1277000   0.73068743   -4.5277145    733.66616  0.047876936  0.047581366            9 
 1278000   0.73080146   -4.5081822    734.55758  0.047897599  0.047557202            6 
 1279000   0.73986783   -4.5454181    734.31184  0.047844139  0.047532721           12 
 1280000    0.7586097   -4.5180203    735.26245  0.047868649  0.047508402            9 
 1281000   0.73992246   -4.5362636    731.53877  0.047589043  0.047484062            9 
 1282000     0.734381   -4.5182395    734.25506  0.047728488  0.047459767            5 
 1283000   0.75472073   -4.5123977    737.96122   0.04793201   0.04743558            4 
 1284000   0.73318642    -4.513961    734.45368  0.047667035  0.047411413            6 
 1285000   0.73476236   -4.5103649    736.11956  0.047737974  0.047387285            4 
 1286000   0.73386554   -4.5451489    737.00777  0.047758409  0.047363214            4 
 1287000   0.72932063   -4.5297407    736.57472  0.047693261  0.047339143            5 
 1288000   0.74400906   -4.5302363    737.00303  0.047683943  0.047315077            8 
 1289000   0.74091672    -4.505837    739.44875  0.047805065  0.047291109           11 
 1290000   0.74878652    -4.491012    734.87791  0.047472733  0.047266912            3 
 1291000   0.74116652   -4.5269587    737.21111  0.047586568  0.047242524           17 
 1292000   0.75341535   -4.5383574    735.56926  0.047443838  0.047218171            6 
 1293000   0.73983057   -4.5089567    736.28615  0.047453348   0.04719356            7 
 1294000   0.75197543   -4.5126013    735.26359  0.047350824  0.047169152            8 
 1295000   0.74093895   -4.5329178    735.66134  0.047339854  0.047144744           10 
 1296000   0.74422956   -4.5482083    734.93949  0.047256912  0.047120471            9 
 1297000   0.72739317   -4.5511013    735.93351  0.047284343  0.047095996           12 
 1298000    0.7412495   -4.5231465    735.83449  0.047241557  0.047071302            7 
 1299000   0.74329532   -4.5332289    737.33882  0.047301695  0.047046863            5 
 1300000   0.73953716   -4.5368864    738.98448    0.0473708  0.047022579            6 
 1301000   0.72695595   -4.5351756    739.67293  0.047378486  0.046998291            6 
 1302000   0.74530655   -4.5428002    739.68556  0.047342906  0.046974005           10 
 1303000   0.72687091   -4.5275993    740.02176  0.047328074  0.046949666            7 
 1304000   0.73146213   -4.5037691    737.06821  0.047103029  0.046925211           13 
 1305000   0.73278952   -4.5584827    738.40869  0.047152535  0.046900951            6 
 1306000   0.72642613    -4.542075    741.15612  0.047291738  0.046876523            4 
 1307000   0.73699817   -4.5375811    740.49359  0.047213312   0.04685215            4 
 1308000   0.72901191   -4.5499004    736.43994  0.046918956  0.046827706            7 
 1309000   0.73464514   -4.5258281    739.81477  0.047097961  0.046803423           13 
 1310000   0.72781727   -4.5406263    737.64036  0.046923687  0.046778906            7 
 1311000   0.72460311   -4.5611502     737.0136  0.046848055  0.046754289            7 
 1312000   0.72299009   -4.5311056    742.58836  0.047166435   0.04672986            8 
 1313000   0.73043037   -4.5455081    738.51832  0.046872196   0.04670531            3 
 1314000   0.72042615   -4.5376142    739.79291  0.046917358  0.046680665            6 
 1315000   0.73465454   -4.5662652    739.21903  0.046845313  0.046655926            6 
 1316000   0.72022618   -4.5508601      739.504  0.046827761  0.046631209            5 
 1317000   0.72848813   -4.5412167    741.13647  0.046895499  0.046606838            9 
 1318000   0.72812962   -4.5679005    740.70568  0.046832681  0.046582222            5 
 1319000   0.71124063   -4.5474082    742.13521  0.046887491  0.046557572            9 
 1320000   0.71587171   -4.5297413    741.49482  0.046811541  0.046532947            3 
 1321000   0.72863652   -4.5491263    739.85339  0.046672558  0.046508349            9 
 1322000   0.71627438   -4.5685858    742.35263  0.046794795  0.046483801            4 
 1323000   0.71827906   -4.5872166    739.54541  0.046582603  0.046459305            6 
 1324000   0.72796332   -4.5759807    741.55968  0.046674199  0.046434593            4 
 1325000   0.72658657   -4.5685902    738.50531  0.046446875  0.046409731            6 
 1326000   0.73587225   -4.5416089     741.8202  0.046620173  0.046385014            5 
 1327000   0.74735769   -4.5583099    740.85402  0.046524367  0.046360222            6 
 1328000   0.72935699   -4.5488968    741.47126  0.046528066  0.046335279            9 
 1329000   0.73727566   -4.5598019    740.87301  0.046455544  0.046310236            8 
 1330000   0.72197816   -4.5666639    740.41976  0.046392215  0.046285244            4 
 1331000   0.72171437   -4.5754554    741.37266  0.046417021  0.046260302            7 
 1332000   0.71158886   -4.5421783    743.90601  0.046540666   0.04623549            7 
 1333000   0.71875388   -4.5764252    741.64717  0.046364539  0.046210531            5 
 1334000    0.7302142   -4.5455248    742.14607  0.046360949  0.046185726            4 
 1335000   0.70101177   -4.5989264    741.44158  0.046282246  0.046160598            4 
 1336000   0.73077662   -4.5740942    742.65606  0.046323357  0.046135725            5 
 1337000     0.725642   -4.5654519     741.2946  0.046203852  0.046110753           10 
 1338000    0.7184422   -4.5659463    740.90374  0.046144976  0.046085812           12 
 1339000   0.71918962   -4.5670715     741.3868  0.046140578  0.046060792            7 
 1340000   0.71930174   -4.5897372    742.53079  0.046177288  0.046035656           10 
 1341000   0.72074176   -4.5657363    743.21804  0.046185561  0.046010625            5 
 1342000   0.71274608   -4.5750781     741.8614  0.046066902  0.045985551            9 
 1343000   0.72680163   -4.5871017    743.02456  0.046104775  0.045960283            5 
 1344000   0.72400727   -4.5713111    742.98516  0.046068028  0.045934937            7 
 1345000   0.70982055    -4.571558     740.9454  0.045907398  0.045909362            7 
 1346000   0.69971956   -4.5778601    741.89447   0.04593205  0.045884034           15 
 1347000   0.70109503    -4.560448     740.2596  0.045796808  0.045858619            6 
 1348000   0.71360463   -4.5797596    741.57872  0.045844382  0.045833129            6 
 1349000   0.70023055   -4.5903043    741.29997  0.045793178  0.045807545            7 
 1350000   0.70027199   -4.5784917    742.59007  0.045838893  0.045781999            8 
 1351000   0.71697773   -4.5868862    742.47917  0.045798123  0.045756526            2 
 1352000   0.71842546   -4.5648975    738.90839  0.045544156  0.045730744            6 
 1353000   0.70644325   -4.5666343    741.69386  0.045682056  0.045705188           11 
 1354000   0.70770856   -4.5724517    744.30398   0.04580896  0.045679634            5 
 1355000   0.70808902   -4.5866863    742.74331   0.04567917  0.045654164            8 
 1356000   0.72134321   -4.5578367    743.05545  0.045664666   0.04562867            4 
 1357000   0.69831693   -4.5580341    743.61474  0.045665361  0.045603284            9 
 1358000   0.70928973   -4.5538726    743.26042  0.045609991  0.045577747            5 
 1359000   0.73187181   -4.5988203    744.84762  0.045673757  0.045552279            9 
 1360000   0.71669033   -4.5660381    741.28622   0.04542195  0.045526661            6 
 1361000   0.68888036   -4.5797947    745.46171  0.045644239  0.045501137           13 
 1362000   0.70921382   -4.6020402    744.67692  0.045562709   0.04547546            6 
 1363000   0.70598887    -4.580659    743.67216   0.04546785  0.045449929            7 
 1364000   0.69667136   -4.5829807    743.63078  0.045431988   0.04542423            5 
 1365000    0.7163953   -4.5804187    744.71377  0.045464821   0.04539845            3 
 1366000   0.70939614   -4.5563056    746.06926   0.04551423  0.045372737            6 
 1367000   0.69859854   -4.5801753    743.39674  0.045318016   0.04534736            3 
 1368000   0.72597686   -4.5849911    741.69884   0.04518146  0.045321711            8 
 1369000   0.70582287   -4.5588231    745.52603  0.045381424  0.045296219            5 
 1370000   0.70097283   -4.5761837    743.50424  0.045225319  0.045270615           13 
 1371000   0.71221221   -4.5725965    743.90191  0.045216503  0.045244913            7 
 1372000   0.70083921   -4.5961405    741.36643  0.045029545  0.045219186            7 
 1373000    0.6959949   -4.6098395    746.22278  0.045291501  0.045193397            6 
 1374000   0.70538592    -4.616208    743.04159  0.045065599  0.045167812           10 
 1375000   0.71452738   -4.5902738    745.32902  0.045171456   0.04514205            6 
 1376000     0.701652   -4.5859515    745.59846  0.045154945  0.045116424            9 
 1377000   0.71891366   -4.5713254     746.7911  0.045194329  0.045090969            7 
 1378000   0.70668678   -4.6075345    744.40173  0.045017038  0.045065303            7 
 1379000    0.7096008   -4.5795735    745.68103  0.045061701  0.045039815            3 
 1380000   0.70875905   -4.5784522    745.44636  0.045014877  0.045014147           13 
 1381000   0.70776593   -4.6085269    744.53259  0.044927142  0.044988474            7 
 1382000   0.68852321   -4.6143445    745.68675  0.044964227  0.044962714            5 
 1383000   0.68412646   -4.5923822    745.10601  0.044896723  0.044937021           10 
 1384000   0.71070068    -4.603677    746.27886  0.044934903  0.044911429            6 
 1385000   0.69735747   -4.5841035    748.16739  0.045016088  0.044886132            5 
 1386000   0.69203901   -4.5975783     747.9004  0.044967556  0.044860615            7 
 1387000   0.69183044   -4.5891875    747.25663  0.044896457  0.044834986           10 
 1388000   0.71148603   -4.6138806    746.66769  0.044828752   0.04480945           10 
 1389000   0.69426355   -4.6190892    746.68236  0.044797358  0.044783788           10 
 1390000   0.69655583    -4.615871    743.68039  0.044585156  0.044757979           11 
 1391000   0.68947389   -4.6031651    748.24081  0.044826313  0.044732454            5 
 1392000   0.69757601   -4.5935847    747.61385  0.044756576  0.044706959           10 
 1393000   0.68894931   -4.5968366    747.66844  0.044727713  0.044681409            6 
 1394000   0.69625088   -4.6014978     747.3041  0.044673846  0.044655807            5 
 1395000   0.69900642   -4.6043739    749.35548  0.044764366  0.044630245            5 
 1396000   0.70694304   -4.6091502    744.44517  0.044439182  0.044604619            9 
 1397000   0.69725336    -4.632911    747.14086  0.044568174  0.044578855            9 
 1398000   0.69520438   -4.6134879    747.78024  0.044574406  0.044553236           12 
 1399000   0.69184678   -4.6063869    749.15423  0.044624388  0.044527509           14 
 1400000   0.68454182   -4.5991976    748.44406  0.044550242  0.044501986            6 
 1401000   0.70350552   -4.6178552    747.74313  0.044476751  0.044476519            5 
 1402000   0.68403672   -4.5985025    749.41606  0.044544464  0.044451071            5 
 1403000   0.67972405   -4.5914665    750.19536  0.044559002  0.044425764            6 
 1404000   0.70321193   -4.5981979    749.69517  0.044497577  0.044400717            7 
 1405000   0.69874523   -4.6113866     749.5427  0.044456862  0.044375426            3 
 1406000   0.67262531   -4.6001378    748.86741  0.044385219  0.044350134           10 
 1407000   0.70012635   -4.5972715    748.48213  0.044330854  0.044324799           10 
 1408000   0.69564409    -4.629928    748.93528  0.044326188  0.044299298           22 
 1409000   0.70195075   -4.6205408    750.51264   0.04438802  0.044273879           10 
 1410000   0.70311134   -4.6171025    749.49273  0.044296261  0.044248503            9 
 1411000   0.68311655   -4.5987653    751.49966  0.044383396  0.044223011           11 
 1412000   0.70135624   -4.6059371    752.00975  0.044382068  0.044197827            4 
 1413000   0.69643065    -4.582313    751.95833  0.044347625  0.044172615            9 
 1414000   0.69589527   -4.6109399    749.64981  0.044180211  0.044147408            9 
 1415000   0.68979828   -4.6106305    754.35958  0.044426359  0.044122249            6 
 1416000   0.68718982   -4.6217502    751.42142   0.04422207  0.044097111            7 
 1417000   0.69418321    -4.620262     750.2747  0.044123424  0.044071869            5 
 1418000   0.69770828   -4.6104062     752.1862  0.044204643  0.044046609            7 
 1419000   0.68750591     -4.63175    751.21117   0.04411623  0.044021205            7 
 1420000   0.68339232   -4.6086146    752.41875   0.04415603  0.043995896            4 
 1421000   0.68699095   -4.6157359    751.49163  0.044070586  0.043970918            5 
 1422000   0.69819961   -4.6082371    750.71728  0.043994215  0.043946018            5 
 1423000   0.69757852   -4.6165311    753.17432  0.044107187  0.043920919           16 
 1424000   0.68693887   -4.6057425    752.40672  0.044031292   0.04389585            8 
 1425000   0.68008513   -4.6365523    753.46583  0.044062329  0.043870666           19 
 1426000   0.70393345   -4.6396908    749.89702  0.043822874  0.043845401            7 
 1427000   0.67417007   -4.6154659    751.71348  0.043898241  0.043820124            2 
 1428000   0.68647806   -4.6347985    751.41978  0.043850361   0.04379484            9 
 1429000   0.68668526    -4.627649    754.66939  0.044009178  0.043769696            7 
 1430000    0.6794489   -4.6118158    753.43638  0.043906549  0.043744442            9 
 1431000   0.68132733   -4.6405592    751.12419  0.043741218  0.043719187           10 
 1432000   0.68458768   -4.6503327    753.37958  0.043841921  0.043693981            7 
 1433000   0.68238968   -4.6407847    754.98109   0.04390446  0.043668583            6 
 1434000   0.67799498   -4.6624565    752.57567  0.043734058  0.043643226            5 
 1435000    0.6951716   -4.6421692    750.99287  0.043611665  0.043617774            7 
 1436000   0.67667976   -4.6139108    753.62361   0.04373396  0.043592257            8 
 1437000   0.67459971   -4.6576793    752.06275  0.043613011  0.043566899           10 
 1438000   0.67451231   -4.6238317    752.29347  0.043596052  0.043541497           14 
 1439000   0.69527262   -4.6195387    751.99656  0.043548562  0.043515976            7 
 1440000   0.67557262   -4.6131429    756.03792  0.043752195  0.043490715            7 
 1441000   0.68036032   -4.6357874    753.15177  0.043554925  0.043465343            7 
 1442000   0.67027921   -4.6734152    752.68291  0.043497625  0.043440003            9 
 1443000   0.67757248   -4.6291808    754.88907  0.043594888  0.043414817            5 
 1444000   0.68059998   -4.6296758    754.98894   0.04357046  0.043389658            6 
 1445000   0.67342383   -4.6456059    755.17547  0.043551065  0.043364436            8 
 1446000   0.68984159    -4.663737    752.91381  0.043390607  0.043339286            4 
 1447000    0.6736538   -4.6520196    752.87032  0.043358116  0.043313848           11 
 1448000   0.67955971   -4.6468891    754.23602  0.043406769  0.043288514           14 
 1449000   0.67569617   -4.6631051    753.19008   0.04331666   0.04326311            7 
 1450000   0.67229067   -4.6508529    754.79477   0.04337901  0.043237858           12 
 1451000   0.66952464   -4.6482863    752.35256  0.043208854  0.043212533           15 
 1452000   0.67118534   -4.6591368    752.93123  0.043212307    0.0431874           10 
 1453000    0.6717634   -4.6568538    755.34246  0.043320857  0.043162197           11 
 1454000   0.66974137   -4.6625668    755.14968  0.043280014  0.043137063            6 
 1455000   0.67353312   -4.6443988    755.78737  0.043286791  0.043111772           12 
 1456000   0.65955254   -4.6531267    755.81853  0.043258844   0.04308657            7 
 1457000   0.67029016   -4.6422896    754.09045  0.043130316  0.043061393           14 
 1458000   0.66782414   -4.6385674    755.57671  0.043185683  0.043036328           10 
 1459000   0.68429536   -4.6463205    755.47243  0.043150127   0.04301129           10 
 1460000    0.6706302   -4.6619386     753.2147  0.042991706   0.04298624           10 
 1461000   0.66520349   -4.6368049    755.33985  0.043083496  0.042961089            7 
 1462000   0.67414232   -4.6279072    756.61633  0.043126786  0.042936233            9 
 1463000    0.6749401   -4.6584964    757.64985  0.043156177  0.042911157            3 
 1464000   0.66427504   -4.6729009    754.77168  0.042962869  0.042885825           13 
 1465000   0.66891792   -4.6518155    755.93331   0.04299962  0.042860589            5 
 1466000   0.66618501   -4.6511981    756.22036  0.042986605  0.042835433            8 
 1467000    0.6627676   -4.6714835    755.20031  0.042899358  0.042810254            7 
 1468000   0.68608264   -4.6485407    757.44036  0.042997295   0.04278514           14 
 1469000   0.66946907   -4.6958519    756.58447  0.042919473  0.042759977            3 
 1470000   0.66029014   -4.6616303    753.73905  0.042728971  0.042734719           16 
 1471000   0.66609535   -4.6617725    755.33228  0.042790181  0.042709694           10 
 1472000    0.6614657   -4.6950998    756.16611  0.042808317   0.04268459           13 
 1473000   0.66661976   -4.6755014     757.8931  0.042876957  0.042659549            6 
 1474000   0.66232694   -4.6973043    755.84775  0.042732234  0.042634487            7 
 1475000   0.65759808   -4.6588261     758.0585  0.042828164  0.042609373            8 
 1476000   0.66002752   -4.6559696    758.20536  0.042807439  0.042584371           11 
 1477000   0.67480295   -4.6462921    758.30832  0.042784265  0.042559544            4 
 1478000   0.66375579   -4.6713584    758.07209  0.042741998  0.042534675            3 
 1479000   0.65657186   -4.6648327    758.51793   0.04273822  0.042509637            9 
 1480000   0.65669383   -4.6899194    758.03481   0.04268214  0.042484632            4 
 1481000   0.66803371   -4.6667453    758.34489  0.042670768  0.042459765            7 
 1482000   0.66960733   -4.6737928    757.84805  0.042614038  0.042434961            5 
 1483000   0.64847905   -4.7216297    757.57882  0.042570174  0.042409943           13 
 1484000   0.66357995   -4.6658412    757.01018  0.042509556  0.042384681           10 
 1485000   0.66095332   -4.6725487     757.3075  0.042497615  0.042359583           11 
 1486000   0.65642955   -4.6754065    758.43108  0.042532025  0.042334534           10 
 1487000   0.64831068   -4.7120435    757.56577   0.04245493  0.042309564           14 
 1488000   0.68368093   -4.6816163    756.04658  0.042341319  0.042284512            6 
 1489000   0.64180476   -4.6643474    757.63928  0.042402019  0.042259532           13 
 1490000   0.65228509   -4.6894722    758.83828   0.04244062  0.042234542           24 
 1491000   0.65292761   -4.6761153    758.94272  0.042417992  0.042209796           13 
 1492000   0.65999299   -4.6761984    757.19983  0.042292216  0.042184904            8 
 1493000   0.66311528   -4.6789364    759.49568  0.042392034  0.042160028           10 
 1494000   0.64997477   -4.6847757     760.9626  0.042445482  0.042135214            5 
 1495000   0.66454854   -4.6870566    757.34791  0.042215603  0.042110397           10 
 1496000   0.68454886   -4.6902376    758.56863  0.042255382  0.042085351           20 
 1497000   0.65421852   -4.7012022    758.33931   0.04221439  0.042060321           13 
 1498000   0.66748151   -4.6852733    759.99564  0.042278351  0.042035535            8 
 1499000   0.66960219   -4.7037592    760.06261   0.04225387  0.042010562            4 
 1500000   0.64976666   -4.6748458    758.83502  0.042157501  0.041985656           12 
 1501000   0.65283564   -4.6870237     758.6789  0.042120747  0.041960783            9 
 1502000   0.66227728   -4.6926514    760.08781  0.042170873  0.041935879            8 
 1503000   0.66557828   -4.6770376    759.14561  0.042090575  0.041910925            4 
 1504000   0.65529213   -4.6724076    762.03602  0.042222741  0.041886059            8 
 1505000   0.65647856   -4.6894044    759.33316  0.042045026  0.041861306            7 
 1506000   0.65847337   -4.6904533    760.66557  0.042090835  0.041836432            9 
 1507000   0.66874118   -4.7076884    759.56757  0.042002188  0.041811714            3 
 1508000   0.65983442   -4.6916779    760.57456  0.042029982  0.041787011            5 
 1509000   0.64457032   -4.6669472    762.75959  0.042122796  0.041762275            9 
 1510000   0.65076579   -4.7078489     760.8833  0.041991352  0.041737446            8 
 1511000    0.6492877   -4.7337547    762.49998  0.042052723  0.041712726            7 
 1512000   0.64968408    -4.703113    760.56764  0.041918411  0.041687961           15 
 1513000   0.66381958   -4.7252005    761.97351  0.041968138  0.041663205            8 
 1514000   0.63955177   -4.6815629    760.51909  0.041860364  0.041638342           14 
 1515000   0.65853326   -4.6964881    761.47947  0.041885559  0.041613645           10 
 1516000   0.64961095   -4.6896565      761.536  0.041861038   0.04158893           13 
 1517000   0.64285057    -4.703774    760.74207   0.04178983  0.041564194            8 
 1518000    0.6369349   -4.7154785    762.59636  0.041864095  0.041539555           13 
 1519000   0.67036063   -4.7089114    761.18693  0.041759213  0.041514834            7 
 1520000    0.6449102   -4.7059342    760.60133  0.041699634  0.041490061           15 
 1521000   0.64618536   -4.7175879     762.4195  0.041771833  0.041465232           10 
 1522000   0.64876822   -4.6858572    760.39184  0.041633368  0.041440287            8 
 1523000   0.65083052   -4.7214236    759.79164  0.041573191  0.041415487           17 
 1524000   0.64610468   -4.7042359    761.15896  0.041620678  0.041390595           17 
 1525000    0.6353687   -4.7060923    761.96729  0.041637557  0.041365933            5 
 1526000   0.63933078   -4.7241809    761.88071  0.041605544  0.041341308           11 
 1527000   0.63504552   -4.7019917    762.10596  0.041590589  0.041316734           12 
 1528000   0.64265013   -4.7268511     761.1915  0.041513498  0.041292214           16 
 1529000   0.63763452   -4.7388316    760.99207  0.041475478  0.041267621            7 
 1530000   0.65062307    -4.707632    763.76581  0.041599445  0.041243222           21 
 1531000   0.64791374   -4.7136799    762.54124  0.041505619  0.041218785           15 
 1532000   0.63867616   -4.6978493     762.1101  0.041455075  0.041194481            8 
 1533000   0.65387353   -4.7245868    763.80459  0.041520145  0.041169968           14 
 1534000   0.63877082    -4.714916    763.67824  0.041486215  0.041145321            8 
 1535000   0.63665514   -4.7180574    763.23835  0.041435307  0.041120824            8 
 1536000   0.63286163   -4.7059835    764.05048  0.041452391  0.041096343           12 
 1537000   0.63817951   -4.7256619    762.25163  0.041327892    0.0410717            6 
 1538000   0.63559534   -4.7157439    761.07721  0.041237387  0.041047079            9 
 1539000   0.64996204   -4.7266265    762.37036  0.041280613  0.041022405           16 
 1540000   0.64661976   -4.7306001    761.67926   0.04121641   0.04099794           25 
 1541000   0.65322679   -4.7294755    763.37961  0.041281614  0.040973415            7 
 1542000     0.648044   -4.7242868     762.6026  0.041212851  0.040948877            5 
 1543000     0.642478    -4.713513    765.07389  0.041319609  0.040924381            6 
 1544000   0.63509623   -4.7392458    762.46377  0.041151974  0.040899895            6 
 1545000     0.619491    -4.743853    761.12923  0.041053357  0.040875141            6 
 1546000   0.62882469   -4.7534604    763.56244  0.041157958   0.04085046           12 
 1547000    0.6417104   -4.7416332    761.89786  0.041041686  0.040825794            7 
 1548000   0.63408635   -4.7283284    765.64289  0.041216779    0.0408012           11 
 1549000   0.63601989   -4.7319882    763.51118  0.041075488  0.040776644            7 
 1550000   0.62362382   -4.7257879    761.12603  0.040920754   0.04075199            9 
 1551000   0.63150148   -4.7084355    763.90478   0.04104367  0.040727335            7 
 1552000   0.64714894   -4.7236681    762.58045  0.040946115  0.040702667            5 
 1553000   0.63021094   -4.7411258    762.98835  0.040941637   0.04067798           13 
 1554000   0.62874344   -4.7315581     764.7476  0.041009631  0.040653463           14 
 1555000   0.62313113   -4.7193617    761.52564  0.040810592  0.040628786           11 
 1556000   0.64558353   -4.7485109    762.87318  0.040856533   0.04060406            8 
 1557000   0.63426475   -4.7425199    759.73923  0.040662558  0.040579248            6 
 1558000   0.62238601   -4.7430494     761.7313  0.040743009  0.040554414           15 
 1559000   0.63087289    -4.755535    762.42116   0.04075375  0.040529678           28 
 1560000   0.65933911   -4.7559926    762.12525  0.040711819  0.040504896           19 
 1561000    0.6261465   -4.7289781     764.6098  0.040818375  0.040480119           11 
 1562000   0.62200834   -4.7310168    764.73242  0.040798785  0.040455521            9 
 1563000   0.63827624   -4.7247985    763.15639  0.040688654  0.040430998           10 
 1564000   0.61298654   -4.7565957    762.66225  0.040636309  0.040406399           15 
 1565000    0.6187195   -4.7466792    764.78141  0.040723185  0.040381857           13 
 1566000    0.6360328   -4.7157381    766.51069  0.040789202  0.040357304           12 
 1567000   0.63218757   -4.7349988    764.27496  0.040644275  0.040332813            4 
 1568000   0.63599869   -4.7494729     762.5884   0.04052872  0.040308363            5 
 1569000    0.6304801   -4.7290651    764.69171  0.040614601  0.040283744            4 
 1570000   0.61863104   -4.7519254    763.00719   0.04049932  0.040259281           18 
 1571000   0.62399401   -4.7524363    764.26143  0.040540072  0.040234727           14 
 1572000   0.61080344   -4.7445938    764.25721  0.040514059  0.040210163           28 
 1573000   0.63409967   -4.7586282    764.02421   0.04047596  0.040185715           15 
 1574000   0.63285235   -4.7641449    763.65497  0.040430695  0.040161351           12 
 1575000   0.61779005   -4.7582395    764.97824  0.040475039  0.040137093            9 
 1576000   0.63634734   -4.7483359    766.89049   0.04055047  0.040112748           11 
 1577000   0.61628256   -4.7807496    765.25524  0.040438345  0.040088461           12 
 1578000   0.64667597   -4.7798031    764.99392  0.040398919  0.040064218            5 
 1579000   0.64219726   -4.7608955    765.32828   0.04039098  0.040040082            6 
 1580000   0.61775355   -4.7494098     766.6613  0.040435723    0.0400159           15 
 1581000   0.61862497   -4.7582296    765.56561  0.040352393  0.039991695            7 
 1582000   0.62180982   -4.7617193    766.94294  0.040399438  0.039967578           10 
 1583000   0.62921526   -4.7566911    767.43724  0.040399939  0.039943442            9 
 1584000   0.61600099   -4.7480678    765.25615  0.040259688  0.039919412            6 
 1585000   0.61914401   -4.7425871    767.76627   0.04036626  0.039895402            7 
 1586000   0.62946819    -4.757137    767.43467  0.040323386  0.039871259           10 
 1587000   0.62247142     -4.77982    764.61016  0.040149662  0.039847107           13 
 1588000   0.61802995   -4.7374691    765.92103  0.040193169  0.039822985           13 
 1589000   0.60907781    -4.783818     766.4789  0.040197131  0.039798803           25 
 1590000   0.60813084    -4.749319    767.38449  0.040219313  0.039774575           14 
 1591000   0.61864751   -4.7700676    766.03669  0.040123439  0.039750565           15 
 1592000   0.63721492   -4.7751852    766.06266  0.040099595   0.03972639           17 
 1593000    0.6108801   -4.7818941    765.44241  0.040041976  0.039702327            8 
 1594000   0.62341852   -4.7602271    766.33881  0.040063718  0.039678249            8 
 1595000   0.62008136   -4.7712582    766.67589  0.040056212  0.039654208           15 
 1596000   0.61908288   -4.7571945    765.98935  0.039995267  0.039630253            5 
 1597000   0.62313834   -4.7797487    765.76547   0.03995854  0.039606256           13 
 1598000   0.61450785   -4.7882537    768.03699  0.040051992  0.039582277            9 
 1599000   0.61652661   -4.7727317    766.64171  0.039954227  0.039558281           18 
 1600000   0.60838487   -4.7690531    767.04397  0.039950207  0.039534273           15 
 1601000   0.62064676   -4.7700947    767.64051  0.039956304  0.039510292            9 
 1602000   0.61518472   -4.7777336    767.34205  0.039915837  0.039486227            5 
 1603000   0.62370176   -4.7746286    767.89496   0.03991968    0.0394622            6 
 1604000   0.62243136   -4.7658804    767.37608  0.039867835  0.039438112           12 
 1605000   0.61998944   -4.7974986    769.06257  0.039930559  0.039414048           12 
 1606000    0.6202757   -4.7660788    766.24846  0.039759675  0.039389964           12 
 1607000   0.61622157   -4.7676123    769.02116  0.039878716  0.039366062           10 
 1608000   0.59472082   -4.7789129    767.50132  0.039775152  0.039342219           14 
 1609000   0.61463217    -4.789047     769.3243  0.039844847  0.039318352            8 
 1610000   0.60603167   -4.7863111    769.91897  0.039850878  0.039294431           12 
 1611000   0.60542215   -4.7934383    767.66176  0.039709381  0.039270529           15 
 1612000   0.60912328   -4.7821363    768.65885  0.039736293  0.039246734            8 
 1613000   0.60248669   -4.7626158     769.1999  0.039739611  0.039222992           15 
 1614000   0.61437397   -4.7644906    769.82987  0.039747515  0.039199196           10 
 1615000   0.61424094   -4.7970504    767.63512  0.039609655  0.039175345           14 
 1616000   0.62105288   -4.7894292    769.34051  0.039673087  0.039151522            9 
 1617000   0.59459381   -4.7798385    768.78362  0.039619853  0.039127796           14 
 1618000    0.6095852   -4.8107022    768.12625  0.039561509  0.039104094           18 
 1619000   0.61501945   -4.7965556    769.07258  0.039585782  0.039080329            5 
 1620000   0.60863463   -4.7921119    768.92821   0.03955392  0.039056609           18 
 1621000   0.61676167   -4.7904699    769.38701  0.039553105  0.039032831           21 
 1622000   0.61039483   -4.7798919    768.23159  0.039469358  0.039009145           16 
 1623000   0.61004882   -4.7960621    769.70127  0.039520501  0.038985471            9 
 1624000   0.61109654    -4.793627    768.99129  0.039459734  0.038961771           29 
 1625000   0.60395236    -4.799053    769.88826  0.039481449  0.038938024           21 
 1626000    0.6041517   -4.8012192    767.71132  0.039345599  0.038914339           14 
 1627000   0.61078157   -4.7900788    770.84555  0.039481948  0.038890697           10 
 1628000   0.60326329   -4.7821202    769.49113  0.039388367  0.038867167           14 
 1629000   0.61245249   -4.8089753    770.11766  0.039396238  0.038843444           10 
 1630000   0.59217526   -4.7895364    768.73824  0.039301546    0.0388198           12 
 1631000   0.61014008   -4.7939174    769.73217  0.039328233  0.038796111           10 
 1632000   0.60527675   -4.7790964    769.80978  0.039308097  0.038772444           14 
 1633000   0.59576176   -4.8019713    767.59184  0.039170843  0.038748764           11 
 1634000   0.59855921    -4.800085    768.35579  0.039185832     0.038725            8 
 1635000   0.60819899   -4.8079539    767.67848  0.039127343  0.038701345           10 
 1636000   0.58650821   -4.7930951    768.87047  0.039164144  0.038677572            6 
 1637000   0.59958362   -4.8086643    768.95683  0.039144616  0.038653788            7 
 1638000   0.60331291   -4.7962795    768.64331  0.039104767  0.038630001            9 
 1639000   0.59998368   -4.7920742    768.89867  0.039093892  0.038606333           11 
 1640000   0.58105531   -4.8106423     770.0209  0.039127078  0.038582605           16 
 1641000   0.59387085   -4.8040295    771.13078  0.039159597  0.038559081            7 
 1642000   0.60164395   -4.8079862    771.45137  0.039152018  0.038535615            9 
 1643000   0.59332917   -4.7939368    770.71725  0.039090954  0.038512262            6 
 1644000   0.59916973   -4.7940475    771.69433  0.039116704  0.038488913            9 
 1645000    0.6169685   -4.8251498    771.26842  0.039071348  0.038465521            6 
 1646000   0.59101744   -4.8105637    771.32826  0.039050641  0.038442066           13 
 1647000   0.60022298    -4.816075    768.58462   0.03888811  0.038418614           10 
 1648000   0.58318762   -4.8203931    771.65074  0.039019556  0.038395049            7 
 1649000   0.58886822   -4.8058952    770.15845   0.03892048  0.038371653            7 
 1650000   0.59139023   -4.8042289    771.45101  0.038962172  0.038348119           17 
 1651000   0.59474008   -4.8379287    770.63323  0.038897296  0.038324641            8 
 1652000   0.59851334   -4.8106664    770.96351  0.038890411   0.03830101            7 
 1653000   0.60284226   -4.8143919    769.99399  0.038818007  0.038277478           14 
 1654000   0.58548153   -4.8009763    770.45029  0.038817528  0.038254077           19 
 1655000   0.58929839   -4.8209015    770.95307  0.038819389  0.038230632            8 
 1656000   0.59788071   -4.8049871    771.02643  0.038799639  0.038207218            8 
 1657000   0.59909994   -4.8404209    771.22772  0.038786347    0.0381838           17 
 1658000   0.59629027   -4.8217488    771.71346  0.038787367  0.038160498           23 
 1659000   0.58965041   -4.8450314    770.06295   0.03868108   0.03813709           14 
 1660000   0.59157719   -4.8171791    772.23425   0.03876678   0.03811376            9 
 1661000    0.5822783   -4.8305256    772.09608  0.038736508   0.03809038           13 
 1662000   0.60268612   -4.8157721    769.27295  0.038571648  0.038066984           20 
 1663000   0.58702491    -4.816233    771.88734  0.038679462  0.038043711            6 
 1664000   0.60302109   -4.8219464    770.39491  0.038581476  0.038020314           19 
 1665000    0.5855927   -4.8635557    769.57968  0.038517501   0.03799682           10 
 1666000   0.58710148   -4.8292564    768.31901  0.038431323  0.037973351           13 
 1667000   0.59623806    -4.866672    770.59116  0.038521854  0.037949892           21 
 1668000   0.57927979   -4.8442783    770.18003  0.038478219  0.037926572           17 
 1669000   0.58101821   -4.8224278    770.65432  0.038478846  0.037903291           10 
 1670000   0.59247156   -4.8485241    769.97995  0.038422153  0.037880018           13 
 1671000   0.57779885   -4.8231492    772.87133  0.038543354  0.037856664           13 
 1672000   0.58905852   -4.8411741    770.84697  0.038419406  0.037833298           11 
 1673000   0.59315995   -4.8311583    772.66038  0.038486769  0.037809962           14 
 1674000   0.59309857   -4.8455576    771.07804  0.038385008  0.037786509           10 
 1675000   0.58220955   -4.8431609    769.17974  0.038267649  0.037763078           14 
 1676000   0.58643149   -4.8268563    770.15318  0.038293217  0.037739587            7 
 1677000    0.5876786   -4.8594473    770.90824  0.038307903  0.037716287            9 
 1678000   0.58619934    -4.826299    770.85084  0.038282223  0.037692911            6 
 1679000   0.58772503   -4.8446272    772.12388  0.038322607  0.037669625           11 
 1680000   0.57340292   -4.8764938    770.71389  0.038229856  0.037646261           10 
 1681000    0.5672838   -4.8452147     768.9523  0.038119785  0.037622838           15 
 1682000   0.59356073   -4.8535899     769.9853    0.0381483  0.037599551           13 
 1683000   0.57735888   -4.8314297    772.57843  0.038254032  0.037576331            9 
 1684000   0.58082828   -4.8555524    772.38639  0.038221813  0.037553001           16 
 1685000   0.58514751    -4.845317    771.33581  0.038147172  0.037529838           13 
 1686000   0.57832849   -4.8409194    771.02502  0.038109184  0.037506672           13 
 1687000   0.57885561   -4.8459515    773.76763  0.038222072  0.037483611           11 
 1688000   0.57603076    -4.861599     772.0523  0.038114746  0.037460597            6 
 1689000   0.57234294   -4.8455874    773.28536  0.038153017   0.03743747           15 
 1690000   0.58330139    -4.852068    773.30602  0.038131461  0.037414463           10 
 1691000   0.57681301   -4.8554146    771.62924  0.038026278  0.037391368            9 
 1692000   0.58686165   -4.8710147    773.22493  0.038082394  0.037368292           15 
 1693000   0.57438834   -4.8601886    772.33153  0.038015925  0.037345208           21 
 1694000   0.57134216   -4.8496812    773.05043  0.038028848  0.037322154           11 
 1695000   0.57012687   -4.8669962    772.64334  0.037986398  0.037299206           28 
 1696000   0.56610275   -4.8660364    772.36706  0.037950426  0.037276235           20 
 1697000   0.56840612   -4.8649966    773.49813  0.037983605  0.037253306           10 
 1698000   0.57804065   -4.8509441     771.7639  0.037876124  0.037230397           14 
 1699000   0.56178587   -4.8690217    771.97137  0.037864007  0.037207366           16 
 1700000   0.57828628   -4.8798091    772.67574  0.037876262  0.037184354           13 
 1701000   0.57843093   -4.8723754    772.34816  0.037837946  0.037161342           10 
 1702000     0.574617   -4.8576368    773.53647  0.037873897  0.037138515           17 
 1703000   0.57457361   -4.8563681    773.68769  0.037859057  0.037115632           13 
 1704000    0.5626463   -4.8472247     773.7935  0.037842014  0.037092782           10 
 1705000   0.56443648   -4.8771952     771.9901  0.037731676  0.037070003            5 
 1706000   0.58609887   -4.8544899    772.44055  0.037731562  0.037047182            8 
 1707000   0.57111562   -4.8626915    773.56436  0.037764321  0.037024358           19 
 1708000   0.57757409    -4.854952    774.70566  0.037797895  0.037001477           16 
 1709000    0.5744242   -4.8771164    772.57905  0.037672082   0.03697853            7 
 1710000   0.56269126   -4.8673879    773.49205  0.037694545  0.036955563           17 
 1711000    0.5567078   -4.8678881    772.70824  0.037634339  0.036932616            9 
 1712000    0.5719941   -4.8775859    773.56382  0.037654002  0.036909651           14 
 1713000   0.57066697    -4.882942    771.65291   0.03753906  0.036886691           17 
 1714000   0.56676035   -4.8748956    773.16395  0.037590624  0.036863838           16 
 1715000   0.55794928   -4.8767857    772.86662  0.037554257  0.036840967           18 
 1716000   0.57555723   -4.9011277    772.30977  0.037505331  0.036818088           16 
 1717000   0.57235679   -4.8651604    772.08182  0.037472424  0.036795255           34 
 1718000   0.57335202   -4.8648338    775.25767   0.03760466  0.036772618           11 
 1719000    0.5755708   -4.8774112    773.70798  0.037507659  0.036749925           19 
 1720000   0.55654333   -4.8560972    773.63596  0.037482363  0.036727162           11 
 1721000   0.57567972   -4.8717975    773.10834  0.037435035  0.036704404           35 
 1722000   0.57101637   -4.8562263    772.40404  0.037379212   0.03668165           13 
 1723000   0.55135912   -4.8903215    771.69445  0.037323198  0.036658754           12 
 1724000   0.57666264   -4.8816436    774.06145  0.037415963  0.036635917            7 
 1725000   0.57310719    -4.871675    772.54328  0.037320932  0.036613173           17 
 1726000   0.56952416   -4.8657893    771.90775  0.037268624  0.036590402           21 
 1727000   0.57679342   -4.8606943    774.83366  0.037388229  0.036567656           11 
 1728000   0.55729953   -4.8770957    774.36708  0.037344091  0.036544976           19 
 1729000   0.56062872   -4.8841465    772.74634  0.037244377  0.036522127            8 
 1730000   0.56315602   -4.8871077     773.9345  0.037280082  0.036499391           10 
 1731000   0.55469367   -4.8870711    774.11318  0.037267147  0.036476631           16 
 1732000   0.57788095   -4.8914081    773.44215  0.037213345  0.036453847           17 
 1733000    0.5663778   -4.9004525    772.77518  0.037159799  0.036431113           28 
 1734000   0.57698726   -4.8910777    774.25754  0.037209609  0.036408387           24 
 1735000    0.5692303   -4.9038109    772.44504  0.037101107  0.036385584           13 
 1736000   0.55035054   -4.8949176    774.14805  0.037161485  0.036362868           20 
 1737000   0.56681115   -4.9046685    771.64993  0.037020242  0.036340155           31 
 1738000   0.56140744   -4.9086167    773.25861  0.037076074  0.036317388           11 
 1739000   0.56147482    -4.914049    773.31257   0.03705734  0.036294767           14 
 1740000    0.5672195   -4.8828713    774.01922  0.037069886  0.036272082           15 
 1741000   0.56007103   -4.8907014    771.12843  0.036910226  0.036249458           22 
 1742000   0.53933759   -4.9078593     773.3314  0.036994422  0.036226857            8 
 1743000   0.55028307   -4.9027412    773.45178  0.036978953  0.036204226           33 
 1744000    0.5664764   -4.8950688    774.05033   0.03698635  0.036181582           18 
 1745000   0.54798934   -4.9031557    773.26642  0.036927718  0.036158979           13 
 1746000   0.56087324   -4.9017706    772.81323  0.036884939  0.036136299           21 
 1747000   0.55951643   -4.9130999    772.27424  0.036838115   0.03611358           48 
 1748000   0.55173347   -4.9028168    773.43939  0.036872587  0.036090844           67 
 1749000   0.55870459   -4.8818851    773.64775  0.036861433  0.036068255           29 
 1750000   0.53555633   -4.9042419    772.78081  0.036799086   0.03604567           16 
 1751000   0.56985425   -4.8945598    774.24672  0.036847836   0.03602309           19 
 1752000   0.54912711   -4.9160772    775.50221  0.036886521  0.036000427           17 
 1753000    0.5563405   -4.8953864    773.34058   0.03676272  0.035977712           19 
 1754000   0.55050971   -4.9037465    772.49152  0.036701421  0.035955221           28 
 1755000   0.55184267   -4.9017934    774.99985  0.036799613  0.035932692           21 
 1756000   0.56237842   -4.9087744    773.98839  0.036730656  0.035910233           30 
 1757000   0.54595247   -4.9010993    773.39291  0.036681508   0.03588776           10 
 1758000   0.56007763   -4.9071113    773.81274  0.036680543  0.035865273           12 
 1759000   0.54196802   -4.9044453    773.17333  0.036629398  0.035842762            6 
 1760000   0.54221472   -4.9160674     772.6421  0.036583433  0.035820178            8 
 1761000   0.56246346   -4.9108388    773.46636  0.036601664  0.035797669            9 
 1762000   0.55499674   -4.9061869    774.89507  0.036648461   0.03577516            7 
 1763000   0.55351752   -4.9100995    774.75809  0.036621199  0.035752651           10 
 1764000   0.55299693   -4.9073771    773.06911  0.036520649  0.035730175           13 
 1765000   0.54731557   -4.9166898    775.51492  0.036615435  0.035707713           18 
 1766000   0.55221424   -4.9001623    773.37442  0.036493697  0.035685254           21 
 1767000   0.54925012   -4.9160907    772.99942  0.036455359  0.035662749           10 
 1768000    0.5342038   -4.9308034    773.88621  0.036476537  0.035640253           17 
 1769000   0.55376289   -4.9372758    773.89415  0.036456291  0.035617811           12 
 1770000   0.54245677    -4.939708    773.42843  0.036413768  0.035595332           25 
 1771000   0.54491696   -4.9109788    773.45516  0.036394464  0.035572938           10 
 1772000    0.5508583   -4.9241589    772.86488  0.036346166  0.035550618           13 
 1773000   0.54548607    -4.926742    774.75939  0.036414711   0.03552829           15 
 1774000   0.54695266   -4.9144495    774.81866  0.036396968  0.035506026           17 
 1775000   0.53510667   -4.9379775    773.22404  0.036301598  0.035483668            6 
 1776000   0.54997932   -4.9141243    773.74484  0.036305595  0.035461265           18 
 1777000   0.54025567   -4.9506322    773.94611  0.036294603  0.035438963           19 
 1778000   0.53875296   -4.9164484    776.16437  0.036378157  0.035416639           29 
 1779000   0.55208885   -4.9346953    773.14971  0.036216494  0.035394378           26 
 1780000   0.54426635   -4.9444972    773.70577   0.03622218  0.035371916           15 
 1781000   0.55451615   -4.9379901    771.74479  0.036110088  0.035349467           21 
 1782000   0.54830139   -4.9465997    773.15903  0.036155959  0.035327038           24 
 1783000    0.5412797   -4.9360543    770.27791  0.036001024   0.03530464           25 
 1784000   0.54403049   -4.9192639    774.00662  0.036155018  0.035282316           22 
 1785000   0.54916374   -4.9383158    772.17431  0.036049221  0.035260031           28 
 1786000   0.53154506   -4.9337329    772.78262   0.03605742  0.035237744           10 
 1787000   0.54729007   -4.9561173    773.15824  0.036054758  0.035215442           12 
 1788000   0.52427289   -4.9302098    774.78962  0.036110627  0.035193143           15 
 1789000   0.54879409   -4.9211935    774.09562  0.036058115  0.035170908            9 
 1790000   0.52989355   -4.9479868    773.45314   0.03600806  0.035148694           11 
 1791000   0.53165837   -4.9288681    776.10985  0.036111569  0.035126424           15 
 1792000    0.5439099   -4.9324598    773.36877  0.035963949   0.03510414           20 
 1793000   0.54212479    -4.956671    774.02261   0.03597428  0.035081875           57 
 1794000   0.53634327   -4.9664941    774.68894  0.035985179  0.035059592           29 
 1795000   0.53115056   -4.9572444    772.79766  0.035877329  0.035037335           47 
 1796000   0.54540407   -4.9592501    773.38349  0.035884534  0.035015149           27 
 1797000   0.53521909   -4.9624936    771.99722  0.035800279  0.034992928           28 
 1798000   0.53747168   -4.9474775    773.90869   0.03586896  0.034970712           32 
 1799000   0.53788378   -4.9489012    772.81118  0.035798183  0.034948368          107 
 1800000   0.53235033   -4.9453492    771.96645  0.035739188  0.034926073           51 
 1801000   0.52376082   -4.9443265    772.82177  0.035758919  0.034903852           27 
 1802000   0.53402951    -4.959626    773.55185  0.035772838  0.034881679           22 
 1803000   0.54107089   -4.9598475    771.67772  0.035666376   0.03485943           52 
 1804000   0.51673291   -4.9572461    775.07432  0.035803507  0.034837234           71 
 1805000   0.54764775   -4.9574279    772.83919   0.03568048  0.034815053           22 
 1806000   0.52375558    -4.953972    773.85662   0.03570767    0.0347928           42 
 1807000   0.53794485   -4.9633204    774.06205  0.035697383  0.034770574           15 
 1808000   0.53281566   -4.9522629    772.41358  0.035601658   0.03474843            9 
 1809000   0.52709659   -4.9420488    773.89128   0.03565005  0.034726345           30 
 1810000   0.52763915   -4.9350966    773.20436  0.035598727  0.034704278            6 
 1811000     0.528404   -4.9512826    774.58457  0.035642581  0.034682154           14 
 1812000   0.53481287   -4.9504714    772.18361  0.035512491  0.034660069           13 
 1813000   0.52536255   -4.9666108    773.36253  0.035547092  0.034637962           15 
 1814000   0.53133935   -4.9451908    771.97923  0.035463949  0.034615799           28 
 1815000   0.52618132   -4.9574303    774.07505  0.035540636  0.034593719           24 
 1816000   0.51575402   -4.9581935    774.39555  0.035535773  0.034571639           12 
 1817000   0.51915735    -4.961397    771.39028  0.035378384  0.034549494           22 
 1818000   0.53468394   -4.9503332    774.07745  0.035482098  0.034527368           10 
 1819000   0.52511115   -4.9747234    773.84104  0.035451761  0.034505238           25 
 1820000   0.53554085   -4.9507706    774.22754  0.035449979  0.034483123           11 
 1821000   0.52879284   -4.9387403    773.20976  0.035383936  0.034461069           24 
 1822000   0.53607177   -4.9684984    773.31661  0.035369402  0.034439051           18 
 1823000   0.53666507   -4.9583328    771.79905  0.035280629  0.034416995           25 
 1824000   0.53685089   -4.9487497    772.40784  0.035289101  0.034394958           37 
 1825000   0.51202651   -4.9712738    773.47345  0.035318423  0.034372858           28 
 1826000   0.52604984   -4.9550261    772.75413  0.035266253  0.034350762           40 
 1827000   0.52403601   -4.9832652    773.22873  0.035268597  0.034328704           17 
 1828000   0.52923312    -4.965891    772.43852   0.03521328  0.034306691           28 
 1829000   0.52180459   -4.9802338    773.07675  0.035223107  0.034284684           24 
 1830000   0.53247939   -4.9694949    771.45785  0.035130139  0.034262689           16 
 1831000   0.51502382   -4.9896781    772.05449  0.035138107  0.034240628           12 
 1832000   0.51676052   -4.9773485     772.5202  0.035140111  0.034218599           22 
 1833000   0.53052553   -4.9645663    772.37124  0.035114168  0.034196719           12 
 1834000   0.51720202   -4.9774241    774.98373  0.035213728  0.034174849           25 
 1835000   0.51706119   -4.9666534     772.1053  0.035063819  0.034152918           12 
 1836000   0.50819719   -4.9720055    774.17174  0.035138514  0.034131049           23 
 1837000    0.5242726     -4.97416    773.95332  0.035109477  0.034109228           14 
 1838000   0.51914001   -4.9821284    771.81719  0.034993525  0.034087369           14 
 1839000   0.51502187   -4.9649387    773.92579  0.035070047   0.03406546            8 
 1840000   0.52322202   -4.9736772    774.25034  0.035065686  0.034043627           20 
 1841000   0.51277812   -4.9667095    772.13431  0.034950856  0.034021766           16 
 1842000   0.50466867   -4.9773485    774.51856  0.035039747  0.033999916           12 
 1843000   0.52250072   -4.9943368    772.60697  0.034934299  0.033978012           60 
 1844000   0.51983687   -5.0029716    774.20655  0.034987642  0.033956184           36 
 1845000   0.52045304   -5.0065442     771.6608  0.034853694  0.033934356           36 
 1846000   0.51441733   -4.9865988    774.39563  0.034958271  0.033912526           19 
 1847000   0.50908097   -4.9848732    772.90784  0.034872218   0.03389071           15 
 1848000   0.51929354   -4.9842906    772.09454  0.034816673  0.033868917           46 
 1849000   0.51247311   -4.9800609    772.90944   0.03483457  0.033847059           25 
 1850000   0.52392904   -4.9929268    775.21069    0.0349194  0.033825261           14 
 1851000   0.52200651   -4.9860834    771.72913  0.034743793  0.033803473           24 
 1852000   0.51622204   -4.9926471    771.90513  0.034732952  0.033781685           33 
 1853000   0.50051224   -4.9593208    771.82458  0.034710586  0.033759957           17 
 1854000   0.51905089    -4.983531    775.05287  0.034836968  0.033738335           17 
 1855000   0.51167167   -4.9934757    771.18761  0.034644546  0.033716683           18 
 1856000   0.52484956   -4.9895182    774.62803  0.034780353  0.033695002           17 
 1857000   0.50903632    -4.992871    772.90365  0.034684242  0.033673361           16 
 1858000   0.51055221   -5.0168346    773.31244  0.034683909  0.033651678           20 
 1859000   0.51943341   -4.9868989    772.68139  0.034636964  0.033630022           45 
 1860000   0.51119252   -4.9797002    773.34286  0.034647977  0.033608395           40 
 1861000   0.51106148   -4.9794411    774.44187  0.034678572  0.033586766           33 
 1862000   0.52338428   -5.0056868    773.23882  0.034606105  0.033565234           15 
 1863000   0.52278555   -5.0022627    773.81858  0.034613463  0.033543747           17 
 1864000   0.50967929   -5.0046669    772.03565  0.034515185  0.033522171           29 
 1865000    0.5020099   -5.0148977    773.50844  0.034562486  0.033500598           70 
 1866000   0.49553703   -5.0014518    773.61295  0.034548631   0.03347904           45 
 1867000   0.50813146    -5.001385    772.67593  0.034488303   0.03345752           38 
 1868000   0.50266977   -4.9989474    773.37046  0.034500824  0.033435983           24 
 1869000    0.4944326   -5.0175005    771.88693  0.034416218  0.033414439           25 
 1870000   0.52145424   -5.0177582    773.59835   0.03447408  0.033392908           24 
 1871000   0.50672929   -5.0014201     774.3021  0.034486999  0.033371374           24 
 1872000   0.50626116    -4.995097    773.51985  0.034433754  0.033349863           21 
 1873000   0.50367897   -4.9981095    773.38561  0.034409397  0.033328401           14 
 1874000   0.49451085   -5.0322309     769.9761  0.034239421  0.033306947           51 
 1875000   0.50696856   -5.0197808    772.33319   0.03432592  0.033285446           38 
 1876000   0.50956533   -5.0092557    774.38562  0.034398793   0.03326403           56 
 1877000   0.50135122   -5.0230513    773.15593  0.034325872   0.03324257           22 
 1878000    0.5099789   -5.0332521    773.11477  0.034305767  0.033221088           16 
 1879000   0.51176216   -5.0198809    774.55472  0.034351371  0.033199636           59 
 1880000   0.49581836   -5.0067804    771.63769  0.034203798  0.033178258           35 
 1881000   0.50381176   -5.0146754    774.90821  0.034330507   0.03315686           26 
 1882000   0.50138935   -5.0297856    774.20025  0.034280918  0.033135536           36 
 1883000   0.50657144   -5.0235554    772.02928  0.034166635  0.033114204           24 
 1884000   0.49763656    -5.013641    773.38975  0.034208676   0.03309289           54 
 1885000   0.49689562   -5.0167548    773.98786   0.03421697  0.033071639           49 
 1886000   0.50090554   -5.0138454     773.8455  0.034192537   0.03305032           59 
 1887000   0.49470823   -5.0172248    773.40934  0.034155155  0.033029056           72 
 1888000   0.50944256   -5.0283995    773.91643  0.034159447  0.033007776           37 
 1889000   0.49341455   -5.0209601    773.12745  0.034106558  0.032986482           82 
 1890000   0.50084566   -5.0083759    774.91562  0.034167355  0.032965241           42 
 1891000   0.49806699   -5.0180443    773.23588  0.034075264  0.032943993           76 
 1892000    0.4904326   -5.0136016    773.43016   0.03406581  0.032922755           90 
 1893000   0.49667304   -5.0013228    774.61821  0.034100115  0.032901561           35 
 1894000   0.49108171   -5.0191838    774.01406  0.034055529  0.032880314           11 
 1895000   0.50496759   -5.0270581     773.4283  0.034011799   0.03285909           23 
 1896000   0.49403514   -5.0523089    773.43551  0.033994177  0.032837841           38 
 1897000   0.49519308   -5.0201854    773.08062  0.033960667  0.032816547           49 
 1898000   0.49944542   -5.0321874     771.8569  0.033889045   0.03279524           81 
 1899000   0.49560333   -5.0328605    772.59625  0.033903645   0.03277391           49 
 1900000   0.48643359   -5.0368301    773.66692   0.03393276  0.032752658           55 
 1901000   0.49641913   -5.0476335    772.42565  0.033860497  0.032731481           31 
 1902000   0.48502049   -5.0257488    774.02714  0.033912861  0.032710303           53 
 1903000   0.50187946   -5.0364073    770.85222  0.033756009  0.032689152           38 
 1904000   0.49438016   -5.0260042    772.70759  0.033819485  0.032668011           59 
 1905000   0.49242118   -5.0209663    773.77372  0.033848369  0.032646926           18 
 1906000   0.49452748   -5.0267471    773.59993  0.033823012  0.032625851           16 
 1907000   0.48619825   -5.0157578    771.67908  0.033721337   0.03260473           17 
 1908000   0.49913771   -5.0194361    773.81295  0.033796862  0.032583664           17 
 1909000    0.5029641   -5.0394293    772.59318  0.033725912  0.032562595           20 
 1910000   0.49658978    -5.036286    774.20148  0.033778424  0.032541451           16 
 1911000   0.47891415    -5.032901    771.89961   0.03366037  0.032520354           27 
 1912000   0.48809571    -5.044395    773.55765   0.03371503  0.032499254           17 
 1913000   0.48744631   -5.0289292    774.28297  0.033729002  0.032478258            9 
 1914000   0.48810341   -5.0420059    773.93015  0.033696018  0.032457291           11 
 1915000   0.50069192   -5.0404557    773.57108  0.033662797   0.03243628           26 
 1916000   0.48785306   -5.0291315    772.40009  0.033594298  0.032415319           52 
 1917000   0.49283913   -5.0398845    772.92155  0.033599441  0.032394369           33 
 1918000   0.47837832   -5.0400875    774.19751  0.033637361  0.032373414           26 
 1919000   0.49938342   -5.0410373    774.93491  0.033651855   0.03235246           31 
 1920000   0.48444001   -5.0339068    771.21223  0.033472753  0.032331497           42 
 1921000   0.47554149   -5.0508673    773.28187   0.03354511  0.032310515           27 
 1922000   0.48570097   -5.0558527    773.01256   0.03351598  0.032289607           35 
 1923000   0.48784389   -5.0459829     773.7326  0.033529754  0.032268718           43 
 1924000    0.4849256   -5.0397925    774.36478  0.033539708  0.032247849           34 
 1925000   0.48687813   -5.0434229    773.91408  0.033502774  0.032226967           52 
 1926000   0.48894363    -5.052156    772.87682  0.033440499  0.032206033           44 
 1927000   0.49626227   -5.0652335    772.22633  0.033395015  0.032185147           31 
 1928000   0.47170907   -5.0333508    774.09769  0.033458579  0.032164337           46 
 1929000   0.48617234   -5.0475822    771.59502  0.033333118  0.032143482           69 
 1930000   0.47444811   -5.0448975    773.82438  0.033412106  0.032122621           53 
 1931000   0.48823921    -5.032399    772.29948  0.033328995  0.032101771           32 
 1932000   0.47959507   -5.0318251    772.07847  0.033302212  0.032080945           38 
 1933000   0.47061802   -5.0599376    771.07055  0.033241531    0.0320601           41 
 1934000   0.48787365   -5.0644224    773.29529  0.033320204  0.032039304           45 
 1935000    0.4814372   -5.0496487     773.0214  0.033291189  0.032018507           21 
 1936000   0.48673084   -5.0360859    772.91029   0.03326921  0.031997747           25 
 1937000   0.47144215   -5.0560742    772.83154  0.033248647  0.031976988           35 
 1938000   0.47473256   -5.0632081    772.45941  0.033215489  0.031956225           22 
 1939000   0.47711738    -5.057078    773.05147  0.033223804  0.031935457           35 
 1940000   0.47681247   -5.0390384    773.61564  0.033230912  0.031914762           43 
 1941000   0.48879059   -5.0637569    771.68747  0.033131009  0.031894012           27 
 1942000   0.47099383   -5.0762685    772.50817  0.033149166  0.031873256           46 
 1943000   0.47135168   -5.0727163    772.20191   0.03311897  0.031852464           56 
 1944000   0.47954886   -5.0825106    773.88549  0.033174104  0.031831645           97 
 1945000   0.47105091   -5.0745701    771.05985  0.033035983  0.031810818           94 
 1946000   0.47918504   -5.0818779    772.44907  0.033078497  0.031789991          129 
 1947000   0.48052893   -5.0773394    771.74193  0.033031242  0.031769181          112 
 1948000   0.47581502   -5.0877799    771.67197  0.033011292  0.031748365          182 
 1949000    0.4772915   -5.0885846    770.00694  0.032923163   0.03172748           81 
 1950000   0.48311888   -5.0687624    769.90434  0.032901895  0.031706623           89 
 1951000   0.47200422   -5.0788647    770.32307  0.032902916  0.031685837           97 
 1952000   0.47567426   -5.0833504     770.8386  0.032908068  0.031665057           59 
 1953000   0.47612477   -5.0762215    772.05301  0.032943037  0.031644294           61 
 1954000    0.4648697   -5.0805959    772.28023  0.032935868  0.031623571           88 
 1955000   0.46141506   -5.0768677    772.51485  0.032929022  0.031602831           98 
 1956000   0.47542603   -5.0878168    772.07578  0.032893481  0.031582124           29 
 1957000   0.46189064   -5.0610984    772.30958  0.032886628  0.031561431           71 
 1958000   0.46400477   -5.0843624    771.70515  0.032844108  0.031540783           90 
 1959000   0.46736282   -5.0831479     771.2067  0.032806138   0.03152011           87 
 1960000   0.46933991   -5.0911834    771.80455  0.032814819  0.031499432           38 
 1961000   0.45614811   -5.0812706    771.41747  0.032781636  0.031478817           54 
 1962000   0.46450886   -5.0802612    770.65908  0.032732716  0.031458202           86 
 1963000   0.45087383   -5.0755553    772.29397  0.032785446   0.03143758           70 
 1964000   0.47046162    -5.079339    771.28856  0.032726093  0.031417035           41 
 1965000   0.46020822    -5.102282    770.66528  0.032683006  0.031396424           68 
 1966000   0.46759035   -5.0946223    770.69861  0.032667794  0.031375797           51 
 1967000   0.47038312    -5.078185    771.09119  0.032667819  0.031355199           78 
 1968000   0.45973042   -5.0829448    771.09923  0.032651559   0.03133461           75 
 1969000   0.47631499   -5.0998747    770.17007  0.032595652  0.031314038           62 
 1970000   0.46957204   -5.0937988    771.69459  0.032643595  0.031293458           76 
 1971000   0.45696155   -5.0842753    770.82282  0.032590175  0.031272921           20 
 1972000   0.46625166   -5.0971295    769.01698  0.032497337  0.031252336           55 
 1973000   0.46846713   -5.0986347    770.43075  0.032540579  0.031231731           49 
 1974000   0.46685978   -5.1085243    771.65675  0.032575851  0.031211179           30 
 1975000   0.45926129   -5.0856144    770.26715  0.032500724  0.031190642          109 
 1976000   0.45986501   -5.0869011    771.49604  0.032536102  0.031170183           22 
 1977000   0.45934484   -5.1011919    771.57262  0.032522872  0.031149698           18 
 1978000   0.45994785   -5.0886518    770.84723  0.032475869  0.031129253           30 
 1979000   0.45562033    -5.116107    771.33907   0.03248017  0.031108792           40 
 1980000   0.45186074    -5.109047    772.49363  0.032512358  0.031088345           29 
 1981000   0.46181502   -5.1061464    769.91589   0.03238751  0.031067865           40 
 1982000   0.46324324   -5.1054173    770.90975  0.032412956    0.0310474           23 
 1983000   0.45204955   -5.1094972    770.60106  0.032383638  0.031026927           29 
 1984000   0.45780002   -5.1180606    769.22914  0.032309692  0.031006474           24 
 1985000   0.46646875   -5.1113303    770.80204  0.032359447   0.03098604           63 
 1986000   0.46205099   -5.1115436    769.29121  0.032279759  0.030965602           47 
 1987000   0.45397207   -5.1181904    769.60408  0.032276635  0.030945155          141 
 1988000   0.45772301   -5.1020937    770.05482  0.032279293  0.030924742          110 
 1989000   0.44866655   -5.1233085    769.20202  0.032227335  0.030904338           76 
 1990000   0.46890956   -5.1102426    770.13672  0.032250281  0.030883938           78 
 1991000   0.45245462   -5.1270691    769.42829  0.032204432  0.030863545           51 
 1992000   0.45920183   -5.1208563    770.50058  0.032233123  0.030843178           43 
 1993000   0.45897155   -5.1168134    768.24391  0.032122592  0.030822829           46 
 1994000   0.45224673   -5.1171386    769.03889  0.032139706   0.03080255           86 
 1995000   0.45625374   -5.1237081    770.06303  0.032166376  0.030782201           95 
 1996000   0.44938742   -5.1403053    769.66796  0.032133766  0.030761858           96 
 1997000   0.45879957   -5.1256399    770.36231   0.03214665  0.030741487           52 
 1998000   0.44933432   -5.1384939    770.16307   0.03212225   0.03072117           89 
 1999000   0.46376826   -5.1300423    768.66375  0.032043678  0.030700876           79 
 2000000   0.44841337   -5.1326633    769.46959  0.032061233  0.030680551           72 
 2001000   0.45908481   -5.1213369    770.41057  0.032084398  0.030660239           57 
 2002000   0.45317644   -5.1167456    768.34687   0.03198247  0.030639976           54 
 2003000   0.45440562   -5.1260196    769.63386  0.032020047  0.030619793           65 
 2004000   0.45410216   -5.1190954    770.15426  0.032025709  0.030599559          135 
 2005000    0.4534183   -5.1227499    771.09932  0.032049016  0.030579342          141 
 2006000   0.45755883   -5.1389308    769.95515  0.031985508  0.030559101          184 
 2007000   0.44548563   -5.1290829    768.37985  0.031904162  0.030538848          173 
 2008000   0.45282013   -5.1474402    769.91843  0.031952126  0.030518609          203 
 2009000   0.44471759   -5.1121041    770.73701  0.031970176  0.030498438          204 
 2010000   0.44242338    -5.131149    769.03233  0.031883596  0.030478247           40 
 2011000   0.45674289   -5.1397434    769.04172   0.03186813  0.030458075           94 
 2012000    0.4443669   -5.1299168     769.4085  0.031867483  0.030437925           43 
Loop time of 4991.35 on 48 procs for 2000000 steps with 4000 atoms

Performance: 69239.845 tau/day, 400.694 timesteps/s
99.4% CPU use with 48 MPI tasks x no OpenMP threads

MPI task timing breakdown:
Section |  min time  |  avg time  |  max time  |%varavg| %total
---------------------------------------------------------------
Pair    | 326.69     | 357.94     | 381.27     |  61.8 |  7.17
Neigh   | 33.935     | 35.153     | 36.455     |  11.8 |  0.70
Comm    | 316.33     | 339.93     | 374.59     |  63.9 |  6.81
Output  | 4.2148     | 4.2164     | 4.2511     |   0.2 |  0.08
Modify  | 4196.1     | 4208.4     | 4219.7     |   9.3 | 84.31
Other   |            | 45.68      |            |       |  0.92

Nlocal:        83.3333 ave          90 max          76 min
Histogram: 1 0 7 6 8 11 4 4 4 3
Nghost:        2290.35 ave        2306 max        2280 min
Histogram: 4 3 7 11 6 10 4 1 1 1
Neighs:        15511.6 ave       17366 max       13694 min
Histogram: 1 1 6 10 8 6 8 5 1 2
FullNghs:      31020.8 ave       33632 max       27923 min
Histogram: 1 0 6 6 9 7 8 3 4 4

Total # of neighbors = 1488996
Ave neighs/atom = 372.24900
Neighbor list builds = 108002
Dangerous builds = 0

#clear
#
#next RN
#
#jump SELF
Total wall time: 1:23:14
