
units lj                  # Use reduced LJ style units
atom_style atomic         # Uncharged point particles
atom_modify map hash      # Needed for indexing of clusters etc
                          # Used to be able to find where atoms are in relation to each other.

lattice fcc 1.0 spacing 1 1 1
Lattice spacing in x,y,z = 1.5874011 1.5874011 1.5874011
region box block 0 10 0 10 0 10 units lattice
create_box 2 box
Created orthogonal box = (0.0000000 0.0000000 0.0000000) to (15.874011 15.874011 15.874011)
  3 by 4 by 4 MPI processor grid
create_atoms 1 box
Created 4000 atoms
  using lattice units in orthogonal box = (0.0000000 0.0000000 0.0000000) to (15.874011 15.874011 15.874011)
  create_atoms CPU = 0.027 seconds
set type 1 type/fraction 2 0.18 78393
Setting atom values ...
  747 settings made for type/fraction
mass 1 1.0
mass 2 1.0
pair_style lj/cut  3.5
pair_modify tail  yes
pair_coeff 1  1  1.0  1.0   # Intearaction between 1 and 1 set with epsilon = 1 and sigma = 1
pair_coeff 1  2  1.5  0.8
pair_coeff 2  2  0.5  0.88

write_data data.0
System init for write_data ...
Neighbor list info ...
  update every 1 steps, delay 10 steps, check yes
  max neighbors/atom: 2000, page size: 100000
  master list distance cutoff = 3.8
  ghost atom cutoff = 3.8
  binsize = 1.9, bins = 9 9 9
  1 neighbor lists, perpetual/occasional/extra = 1 0 0
  (1) pair lj/cut, perpetual
      attributes: half, newton on
      pair build: half/bin/atomonly/newton
      stencil: half/bin/3d
      bin: standard
WARNING: Not all mixed pair coeffs generated from mixing. Use write_data with 'pair ij' option to store all pair coeffs. (../write_data.cpp:312)


#############################
#   M E L T   S Y S T E M   #
#############################

velocity all create 2.4 5300450 mom yes dist gaussian # Assign velocities
                                                    # Temperature 2.4, random number seed, zero linear momentum
                                                                                # Gaussian distribution

timestep 0.002   # simulation timestep
thermo 1000       # output thermodynamic data every 1000 steps bf 100

# Define a fix  in this case with index 1 applied to all
# particles in the simulation. This fix is for simulations
# in the anisotropic NPT ensemble. Note that we use the MTK
# correction.
fix 1 all npt temp 2.4 2.4 0.1 iso 5.68 5.68 0.5 mtk yes tchain 5 pchain 5 # Use NPT ensemble
                                                                         # Set temperature and pressure and damping
                                                                         # Numbers of thermostats in chain and in barostat
run 10000          # run for 10000 steps
Per MPI rank memory allocation (min/avg/max) = 3.642 | 3.644 | 3.648 Mbytes
Step Temp E_pair E_mol TotEng Press Volume 
       0          2.4   -7.1764538            0   -3.5773538   -3.5088476         4000 
    1000    2.4258356   -4.8003451            0   -1.1625014      5.71292    4535.8317 
    2000    2.3896434   -4.7854048            0   -1.2018358    5.5969408    4559.1283 
    3000    2.4156617   -4.7881817            0    -1.165595    5.6604594    4554.8667 
    4000    2.4165442   -4.7772083            0   -1.1532983    6.1319558    4509.3834 
    5000    2.4033283   -4.7832147            0   -1.1791236    5.6276596    4560.9788 
    6000     2.398165   -4.7360788            0   -1.1397306    5.7279351    4568.8079 
    7000    2.4228725    -4.786558            0   -1.1531578    6.1797078    4505.9943 
    8000     2.441529   -4.7496759            0   -1.0882979    5.9042016    4548.3557 
    9000    2.4018185   -4.7881313            0   -1.1863042    5.6078059    4564.3554 
   10000    2.4357657   -4.7250394            0   -1.0723043     5.748476    4575.9564 
Loop time of 2.29109 on 48 procs for 10000 steps with 4000 atoms

Performance: 754225.296 tau/day, 4364.730 timesteps/s
99.7% CPU use with 48 MPI tasks x no OpenMP threads

MPI task timing breakdown:
Section |  min time  |  avg time  |  max time  |%varavg| %total
---------------------------------------------------------------
Pair    | 0.94797    | 1.0143     | 1.1236     |   3.7 | 44.27
Neigh   | 0.18989    | 0.20231    | 0.22275    |   1.2 |  8.83
Comm    | 0.70866    | 0.80709    | 0.88687    |   4.7 | 35.23
Output  | 0.00024184 | 0.00024588 | 0.00030772 |   0.0 |  0.01
Modify  | 0.21661    | 0.25238    | 0.31113    |   4.6 | 11.02
Other   |            | 0.01472    |            |       |  0.64

Nlocal:        83.3333 ave          92 max          73 min
Histogram: 3 0 2 3 12 12 6 4 3 3
Nghost:        1504.42 ave        1538 max        1477 min
Histogram: 3 6 3 9 10 6 2 5 2 2
Neighs:        8331.25 ave        9474 max        7173 min
Histogram: 3 1 4 5 14 5 8 1 3 4

Total # of neighbors = 399900
Ave neighs/atom = 99.975000
Neighbor list builds = 904
Dangerous builds = 180

# Equilibrate just above the melting temperature to avoid step fn in T

fix 1 all npt temp 1.25 1.25 0.1 iso 5.68 5.68 0.5 mtk yes tchain 5 pchain 5
run 2000
Per MPI rank memory allocation (min/avg/max) = 3.642 | 3.644 | 3.649 Mbytes
Step Temp E_pair E_mol TotEng Press Volume 
   10000    2.4357657   -4.7250394            0   -1.0723043     5.748476    4575.9564 
   11000    1.2588363   -6.4633338            0   -4.5755515    5.6883327    3719.6126 
   12000    1.2673203   -6.4789915            0   -4.5784863    5.6658504    3715.9626 
Loop time of 0.495499 on 48 procs for 2000 steps with 4000 atoms

Performance: 697478.721 tau/day, 4036.335 timesteps/s
99.7% CPU use with 48 MPI tasks x no OpenMP threads

MPI task timing breakdown:
Section |  min time  |  avg time  |  max time  |%varavg| %total
---------------------------------------------------------------
Pair    | 0.21348    | 0.23976    | 0.25955    |   2.3 | 48.39
Neigh   | 0.031225   | 0.034185   | 0.036013   |   0.6 |  6.90
Comm    | 0.14591    | 0.1691     | 0.19879    |   3.0 | 34.13
Output  | 5.0072e-05 | 5.2e-05    | 6.5661e-05 |   0.0 |  0.01
Modify  | 0.04062    | 0.047824   | 0.053607   |   1.7 |  9.65
Other   |            | 0.004574   |            |       |  0.92

Nlocal:        83.3333 ave          93 max          75 min
Histogram: 2 2 6 9 10 7 5 4 1 2
Nghost:        1727.62 ave        1756 max        1701 min
Histogram: 1 1 6 9 11 3 11 5 0 1
Neighs:        10280.2 ave       11788 max        9329 min
Histogram: 6 5 7 8 9 3 4 4 1 1

Total # of neighbors = 493450
Ave neighs/atom = 123.36250
Neighbor list builds = 142
Dangerous builds = 7

#############################
# L I N E A R  Q U E N C H  #
#############################

# Define solid atoms. This closely follows ten Wolde  Ruiz-Montero and Frenkel  Faraday Discuss  1996  104  93-110
# Compute components of the per-atom q6 vector
compute q6 all orientorder/atom degrees 1 6 components 6 nnn NULL cutoff 1.3 # compute the Q6 parameter.
                                                                             # Use all neighbours within 1.3 unit cell.

# get number of connections
compute coord_number all coord/atom orientorder q6 0.5

# An atom is solid if it has 8 or more connections (of a possible 14)
variable is_solid atom c_coord_number>=8
group solid dynamic all var is_solid    # Must be dynamic to update
dynamic group solid defined

# do clustering
compute cluster solid cluster/atom 1.3 # Create a cluster where all atoms within are solid and max 1.3 units from another member

# define chunks one chunk per cluster
compute clus_chunks solid chunk/atom c_cluster nchunk every compress yes  # Says which atoms are in which chunk

# count the size of each chunk
compute size_chunks solid property/chunk clus_chunks count


# Find the maximum entry in the vector of chunk sizes
variable max_n equal max(c_size_chunks)


# Thermo style which includes this variable
# thermo_style custom step temp pe vol v_max_n

thermo ${N}  # Print the thermo information every 100 steps
thermo 1000  

# Reset the npt fix at a lower temperature (below freezing)
fix 1  all npt temp  ${temp} ${temp}  0.1  iso  5.68  5.68  0.5  mtk yes tchain  5  pchain  5
fix 1  all npt temp  0.45 ${temp}  0.1  iso  5.68  5.68  0.5  mtk yes tchain  5  pchain  5
fix 1  all npt temp  0.45 0.45  0.1  iso  5.68  5.68  0.5  mtk yes tchain  5  pchain  5

dump dmp2 all dcd ${N} traj.dcd
dump dmp2 all dcd 1000 traj.dcd


compute msd all msd com yes
variable twopoint equal c_msd[4]/6/(step*dt+1.0e-6)
fix 9 all vector 10 c_msd[4]
variable fit equal slope(f_9)/6/(10*dt)
thermo_style custom step temp pe c_msd[4] v_twopoint v_fit v_max_n

fix 1 all npt temp 1.25 ${temp} 0.1 iso 5.68 5.68 0.5 mtk yes tchain 5 pchain 5
fix 1 all npt temp 1.25 0.45 0.1 iso 5.68 5.68 0.5 mtk yes tchain 5 pchain 5
run 2000000 # 5000000  # Run for this many steps
Neighbor list info ...
  update every 1 steps, delay 10 steps, check yes
  max neighbors/atom: 2000, page size: 100000
  master list distance cutoff = 3.8
  ghost atom cutoff = 3.8
  binsize = 1.9, bins = 9 9 9
  4 neighbor lists, perpetual/occasional/extra = 1 3 0
  (1) pair lj/cut, perpetual
      attributes: half, newton on
      pair build: half/bin/atomonly/newton
      stencil: half/bin/3d
      bin: standard
  (2) compute orientorder/atom, occasional
      attributes: full, newton on
      pair build: full/bin/atomonly
      stencil: full/bin/3d
      bin: standard
  (3) compute coord/atom, occasional
      attributes: full, newton on
      pair build: full/bin/atomonly
      stencil: full/bin/3d
      bin: standard
  (4) compute cluster/atom, occasional
      attributes: full, newton on
      pair build: full/bin/atomonly
      stencil: full/bin/3d
      bin: standard
Per MPI rank memory allocation (min/avg/max) = 9.769 | 9.775 | 9.780 Mbytes
Step Temp PotEng c_msd[4] v_twopoint v_fit v_max_n 
   12000    1.2673203   -6.4789915 1.7268165e-30 1.1991781e-32 8.3333333e+20            1 
   13000    1.2450328   -6.4798338   0.52413551 0.0033598429  0.043242174            2 
   14000    1.2314471   -6.4829345    1.0601597 0.0063104739    0.0431358            1 
   15000    1.2455896   -6.5059114    1.5395468 0.0085530377  0.042666279            3 
   16000     1.270413   -6.4737275    2.0527934  0.010691632  0.042395415            3 
   17000    1.2558163   -6.4476758    2.5667525   0.01258212  0.042214191            1 
   18000    1.2420817   -6.4996851    3.1852419   0.01474649  0.042989413            1 
   19000    1.2466772   -6.4822567    3.7548397  0.016468595   0.04381156            1 
   20000    1.2489335   -6.5086033    4.3051932  0.017938305  0.044459402            2 
   21000    1.2549123   -6.5058639     4.818655  0.019121647  0.044706401            2 
   22000    1.2192506   -6.4923391    5.2973339  0.020065658   0.04472743            1 
   23000    1.2800709   -6.5163951    5.8687816  0.021263701  0.044738955            3 
   24000    1.2384149   -6.4690299     6.497807  0.022561829  0.044845923            1 
   25000    1.2590404   -6.5100353    6.9594796  0.023198265  0.045053107            2 
   26000    1.2223532   -6.4590349     7.472928  0.023951692  0.045065574            1 
   27000    1.2707922   -6.4807044    8.0562504   0.02486497  0.045040992            4 
   28000    1.2785001   -6.4794475    8.5647145  0.025490221  0.045025339            3 
   29000    1.2590368   -6.5191464    9.1401286  0.026264737  0.045021739            1 
   30000    1.2718058   -6.5314375    9.6654104  0.026848362  0.045037179            1 
   31000    1.2410565   -6.5015744    10.291803  0.027666137  0.045048361            2 
   32000    1.2315622   -6.5165231    10.852909  0.028262782  0.045117779            1 
   33000    1.2464126   -6.4856623    11.521734  0.029095287  0.045299332            3 
   34000    1.2123756   -6.5223425    12.096001  0.029647061  0.045489987            1 
   35000    1.2528141   -6.5207701     12.67165  0.030170595  0.045704808            4 
   36000    1.2256098   -6.4775165    13.338643  0.030876488  0.045914622            2 
   37000    1.2511349   -6.4904991    13.825615  0.031138771  0.046086871            4 
   38000    1.2550126    -6.573192    14.243279  0.031235261  0.046160297            2 
   39000    1.2368893   -6.5260509    14.739962  0.031495644  0.046131078            3 
   40000    1.2220029   -6.4998935    15.318567  0.031913681   0.04609984            2 
   41000    1.2396559   -6.5153164    15.806464  0.032126959  0.046042888            2 
   42000    1.2334062   -6.5134364    16.071364  0.031887628  0.045917991            1 
   43000    1.2153741   -6.5050201    16.425893  0.031833126  0.045711185            2 
   44000     1.247782   -6.4802982    16.758501  0.031739585  0.045449241            1 
   45000    1.2438438   -6.5012224    17.314464  0.032063822  0.045193404            2 
   46000    1.2877621   -6.5173933    18.242814  0.033048576  0.045065258            2 
   47000    1.2292232   -6.4813214    18.726103   0.03320231  0.045009238            1 
   48000    1.2192246   -6.4738148    19.265538  0.033447113  0.044926861            2 
   49000    1.2226788   -6.5276315    19.772573  0.033626824  0.044866259            1 
   50000    1.2223972   -6.5542142    20.289336  0.033815559  0.044818529            4 
   51000    1.2268454   -6.4980945    20.808658  0.034001074  0.044752584            4 
   52000    1.2452356   -6.5042407     21.33185  0.034185656  0.044698345            2 
   53000     1.219016   -6.5077125    22.008807  0.034605042   0.04465715            1 
   54000    1.2126488   -6.5234518    22.390991  0.034553998  0.044630231            5 
   55000    1.2234113     -6.54219    22.701218  0.034395784  0.044562883            3 
   56000     1.229505   -6.5048878    23.387714  0.034803146  0.044507702            1 
   57000     1.220172   -6.5327358    23.965879  0.035037835  0.044468732            2 
   58000    1.2232274   -6.5088958    24.671466  0.035447508  0.044455166            2 
   59000    1.2198884   -6.5055559    25.071412  0.035411599  0.044441228            2 
   60000    1.2346137   -6.5233846    25.641642  0.035613391  0.044437592            2 
   61000    1.2086225   -6.5367098    25.917827  0.035406867  0.044411631            2 
   62000    1.2224822   -6.5087041    26.487084  0.035600919  0.044368294            1 
   63000     1.215675   -6.5112363    27.128059  0.035883676  0.044326889            1 
   64000    1.2235776   -6.5396746     27.40454  0.035682995   0.04428498            2 
   65000    1.2185574   -6.5209321    28.102102  0.036028336  0.044240853            3 
   66000     1.232406   -6.5010553    28.718572  0.036260823  0.044201128            3 
   67000    1.2759949   -6.5131814    29.231623   0.03635774  0.044183524            2 
   68000    1.2320837   -6.5463233    29.804755  0.036525434  0.044172345            1 
   69000    1.2602636   -6.5591451    30.326884  0.036626671  0.044167136            2 
   70000    1.2145275   -6.5282714    31.030126  0.036940626  0.044185438            1 
   71000    1.2232648   -6.5501901    31.535891  0.037013957   0.04419584            1 
   72000    1.2398758   -6.5302821    32.009753  0.037048325  0.044208062            3 
   73000    1.2569713   -6.5627304    32.340069  0.036917887  0.044188655            2 
   74000    1.2293905   -6.5393335    32.910828  0.037061743  0.044168054            3 
   75000     1.196236   -6.5647278    33.596803  0.037329781   0.04415772            2 
   76000    1.2150112   -6.5252474     34.09612  0.037386096  0.044166171            1 
   77000    1.2396356   -6.5440058    34.594361  0.037439785  0.044167307            6 
   78000    1.2453636   -6.5604917    35.142234  0.037545121  0.044162738            3 
   79000    1.2017133   -6.5529077    35.774475  0.037736787   0.04417329            6 
   80000    1.2240901   -6.5305942    36.087412  0.037591054  0.044171632            2 
   81000    1.2280621   -6.5402045    36.731146  0.037789245  0.044171773            2 
   82000    1.2182316   -6.5517285    37.200345  0.037805228  0.044181274            1 
   83000    1.2229653   -6.5480538    37.604617   0.03775564  0.044185798            1 
   84000    1.2294917   -6.5333591    38.235646  0.037932188  0.044182519            3 
   85000    1.2073617   -6.5377423    38.830286  0.038068907  0.044179447            1 
   86000    1.1854615   -6.5560152    39.132287  0.037918883  0.044171216            3 
   87000    1.2207095    -6.556416     39.60774  0.037938449  0.044148492            2 
   88000    1.2352172   -6.5591596    40.059686  0.037935308  0.044123073            3 
   89000     1.220497   -6.5800339    40.676391  0.038086508  0.044103522            3 
   90000    1.2389599   -6.5287733     41.09281  0.038048898  0.044084523            5 
   91000    1.2374217    -6.550483    41.678056  0.038166717  0.044064817            2 
   92000     1.222921   -6.5333586    42.067976  0.038105051  0.044037705            2 
   93000    1.2012958   -6.5352418    42.841931  0.038388827  0.044015813            3 
   94000    1.2164318   -6.5655212    42.992864  0.038114241  0.043987061            2 
   95000    1.2091493    -6.586231    43.599304  0.038245004  0.043952451            3 
   96000    1.2156536   -6.5876191    43.950194   0.03815121  0.043925261            2 
   97000    1.2365918   -6.5248459    44.446072   0.03818391  0.043883421            2 
   98000    1.2225187   -6.5354139     44.89712  0.038177823  0.043843963            2 
   99000    1.1957827   -6.5290202    45.328083  0.038154952  0.043803509            3 
  100000    1.2075607   -6.5522596    46.038025   0.03836502  0.043770206            2 
  101000    1.2339457   -6.5902284    46.528072  0.038389498  0.043741474            7 
  102000    1.2309958    -6.558614    47.313446  0.038654776  0.043722204            2 
  103000     1.221117    -6.589358    47.717445  0.038606347  0.043707689            2 
  104000    1.2065874   -6.5152547     48.38522  0.038770208  0.043692671            1 
  105000    1.2165186   -6.5396279    48.895814  0.038806201  0.043686111            3 
  106000    1.2257025   -6.5457392     49.51486  0.038926777  0.043681127            1 
  107000    1.2043892   -6.5150546    50.017654  0.038954559  0.043670503            2 
  108000    1.2253656   -6.5703868     50.43388  0.038915031  0.043661615            2 
  109000    1.2286473   -6.5529136    50.951716  0.038953911  0.043651614            2 
  110000    1.2274565   -6.6060621    51.262561  0.038835273  0.043640148            1 
  111000    1.1837544   -6.5449446    51.919931  0.038978927  0.043622581            3 
  112000     1.210618   -6.5855554    52.170787   0.03881755  0.043601103            3 
  113000    1.2054875   -6.5875516    52.640398  0.038820352  0.043578545            2 
  114000     1.224865   -6.5675041    53.608552  0.039187538  0.043564533            2 
  115000     1.229576   -6.5374082    54.048411  0.039165515  0.043549059            1 
  116000       1.1816   -6.5776065    54.240612  0.038965957  0.043533409            3 
  117000    1.1940407   -6.5762733    54.502688  0.038819578  0.043510245            1 
  118000    1.2218932   -6.5852128    55.256309  0.039022817  0.043484992            4 
  119000    1.1914576   -6.5583557    55.476252  0.038848915  0.043456075            1 
  120000    1.2081227    -6.574269    55.998668  0.038887963  0.043424997            2 
  121000    1.1886518   -6.5703462    56.566652  0.038957749  0.043400231            1 
  122000    1.1938258   -6.5752899    56.816486  0.038809075  0.043371208            1 
  123000    1.2357746   -6.5522813    57.279724  0.038807401  0.043338036            2 
  124000     1.200687   -6.6222341     57.56392   0.03868543  0.043298378            2 
  125000    1.1675848   -6.5878935    58.138647  0.038759098  0.043259758            1 
  126000    1.2185033   -6.5729485    58.761906  0.038863694  0.043224256            2 
  127000    1.2042298   -6.5487513    59.175245  0.038828901  0.043189767            1 
  128000    1.2010548   -6.5570077    59.599037  0.038801457  0.043155674            2 
  129000    1.2333312    -6.592616    60.208503  0.038894382  0.043122333            3 
  130000    1.2105794   -6.5699465    60.655735  0.038881882  0.043089862            3 
  131000    1.2123505    -6.610787    60.736693  0.038636573  0.043053169            1 
  132000    1.1826239   -6.5679551    61.609364  0.038894801  0.043013623            2 
  133000    1.1911148   -6.5960743    61.544542  0.038561743  0.042975639            2 
  134000    1.2131368   -6.5884642    61.902134  0.038496352  0.042928463            2 
  135000    1.2030781   -6.5914804    62.747909  0.038733277  0.042880308            3 
  136000    1.1849519   -6.5781949    62.986818  0.038594864   0.04283223            1 
  137000    1.1929984   -6.5814445    63.326006  0.038519468  0.042789032            2 
  138000     1.180496   -6.5555095    64.189146  0.038761562   0.04274823            2 
  139000    1.2328491   -6.5730421     64.67548  0.038774268  0.042710236            1 
  140000    1.1924961   -6.6094659    64.837715  0.038593878  0.042670354            1 
  141000     1.182161   -6.5694046    65.543684  0.038737402  0.042631841            1 
  142000    1.1759896   -6.5742976    66.071985  0.038774639  0.042592201            1 
  143000    1.1842035   -6.5995833    66.101659   0.03852078  0.042551754            1 
  144000     1.206861   -6.5851566     66.86058  0.038692465   0.04251285            2 
  145000    1.2038798   -6.6087305    67.375202   0.03872138  0.042476785            2 
  146000    1.1941386   -6.5972207    67.513482  0.038535092  0.042438655            2 
  147000     1.201613   -6.6107269    68.203365  0.038664039  0.042398807            2 
  148000    1.1998472   -6.6141271    68.541644  0.038593268  0.042357404            3 
  149000    1.2086768   -6.5807649    68.929461  0.038551153  0.042319854            2 
  150000    1.1659718   -6.5748805    69.596626  0.038664792  0.042281843            1 
  151000    1.2047639   -6.6210532    70.026466  0.038645952  0.042244388            1 
  152000    1.1846079   -6.6027288     70.57829  0.038694238  0.042207306            3 
  153000    1.1804285   -6.5826923    70.923361  0.038629281  0.042169312            2 
  154000     1.204677   -6.5787023    71.431436  0.038653374  0.042135549            3 
  155000    1.2041871   -6.6060599    71.692379   0.03854429  0.042098695            2 
  156000    1.1592593   -6.5933691    72.273129  0.038607441  0.042060608            2 
  157000    1.1901375   -6.5929687    72.743668  0.038611289  0.042028397            1 
  158000    1.2011005   -6.6053943     73.31364  0.038667531  0.041994207            3 
  159000    1.1868039   -6.6395512    73.619448  0.038584616  0.041960301            2 
  160000    1.2076099   -6.5818301    74.047648  0.038566483  0.041925572            4 
  161000    1.1970628   -6.5579307    74.463094  0.038541974  0.041887416            1 
  162000    1.1824644   -6.6131564    74.650449  0.038400437  0.041844813            3 
  163000    1.1875464   -6.6139689    75.032633  0.038360242  0.041801807            2 
  164000    1.1989478   -6.6411474    75.214326  0.038218661  0.041760083            3 
  165000    1.1889235   -6.6199162    75.638207  0.038201114  0.041712158            1 
  166000    1.2018863   -6.6176887    75.942836  0.038123914   0.04166476            1 
  167000    1.1582248   -6.5421668    76.658481  0.038252735  0.041619693            4 
  168000    1.1933227   -6.6386901    76.795416  0.038092964  0.041573636            2 
  169000    1.1640619   -6.6127087    77.245469  0.038089482  0.041528338            3 
  170000    1.2132766    -6.569638    77.732358  0.038104097  0.041482035            1 
  171000    1.1887707   -6.6263971    78.170002  0.038094543  0.041435052            1 
  172000    1.1951289   -6.6358108    78.499614  0.038032759  0.041389163            1 
  173000     1.190014   -6.6152787    78.735969  0.037926767  0.041339233            2 
  174000    1.2157481    -6.600397    79.265623  0.037962463  0.041289874            2 
  175000    1.1811706    -6.619718    79.555009  0.037883338  0.041240562            1 
  176000    1.1778768   -6.6044446    80.344414  0.038041863  0.041193548            2 
  177000    1.1903316   -6.6031731    81.021377  0.038145657  0.041150326            4 
  178000    1.1884849   -6.5984921    81.493416  0.038152348  0.041107417            3 
  179000     1.170035   -6.5887763     82.05479  0.038200554  0.041068153            1 
  180000    1.1738392   -6.5875437    82.374948   0.03813655  0.041030674            2 
  181000    1.1683928   -6.6078051    82.825262  0.038133178  0.040996275            3 
  182000    1.1859417   -6.6249663    83.829471  0.038383457  0.040965499            1 
  183000    1.1735987   -6.6056442    84.086379  0.038290701   0.04093528            2 
  184000    1.1603802   -6.6482871    84.169432  0.038120214  0.040904484            5 
  185000    1.1941265   -6.6343268    84.714657  0.038159755  0.040872854            2 
  186000    1.1899766   -6.6017837    85.666033  0.038380839  0.040843818            2 
  187000    1.1800788   -6.6229544    85.940201  0.038297772  0.040819214            1 
  188000    1.1852462   -6.5964972    86.761319  0.038458031  0.040796793            2 
  189000    1.1779096    -6.610492    87.113149  0.038409678  0.040776518            3 
  190000    1.1986919   -6.6319637    87.476584  0.038366923  0.040751577            4 
  191000    1.1942911    -6.592112    87.553449  0.038199585  0.040725372            2 
  192000    1.1723815    -6.636844    87.948835  0.038172237  0.040694041            2 
  193000    1.1885747    -6.623352    88.525815  0.038223582  0.040662448            2 
  194000     1.178892   -6.6443418    88.775654  0.038133872   0.04063206            2 
  195000     1.182575   -6.6364325    89.287557  0.038157076  0.040599996            2 
  196000    1.1880598   -6.6204912    89.225915  0.037936188  0.040566561            2 
  197000    1.1563896   -6.6203355    89.846878  0.038006293  0.040533801            2 
  198000    1.1632935   -6.6116476    90.319203  0.038013133  0.040502207            3 
  199000    1.1621049   -6.6217732    90.611994  0.037944721  0.040473098            2 
  200000     1.190497   -6.6158149    91.822816  0.038259507    0.0404474            2 
  201000    1.1715614   -6.6006994     92.17948  0.038217032  0.040422543            4 
  202000     1.214175   -6.6496419    92.655008  0.038224013  0.040402134            2 
  203000    1.1812023   -6.6153722    93.249582  0.038279795  0.040382532            1 
  204000     1.181532   -6.5960213    94.178088  0.038471441  0.040364359            3 
  205000    1.1724763   -6.6294168    94.664738  0.038481601  0.040349215            4 
  206000    1.1647896   -6.6157238    95.145863  0.038489427  0.040335977            1 
  207000    1.1695215   -6.6406104    95.811182  0.038571329  0.040324415            2 
  208000    1.1860138   -6.5795755    96.410033  0.038625815  0.040314264            2 
  209000    1.1670816   -6.6308578    96.642558  0.038533715  0.040302628            1 
  210000    1.1909919   -6.5933444    97.306267  0.038613598  0.040293209            1 
  211000    1.1431513   -6.6229706    97.320226  0.038436108   0.04028175            4 
  212000    1.1665855   -6.6623543    97.826813  0.038453936  0.040270495            2 
  213000    1.1417733   -6.6287724    98.490679   0.03853313   0.04025885            2 
  214000    1.1731745   -6.6100875    98.827454  0.038484211  0.040247928            1 
  215000    1.1688969   -6.6373952    99.484878   0.03856003  0.040238007            1 
  216000    1.1874852   -6.6387912    99.954257  0.038562599  0.040226253            2 
  217000    1.1716008   -6.6050728    100.62415  0.038642148  0.040216073            1 
  218000    1.1722034   -6.6402465    101.32414  0.038732468  0.040209856            2 
  219000    1.1657934   -6.6904819    101.79929  0.038736412  0.040205561            2 
  220000    1.1548098   -6.6245803    102.33449  0.038763063  0.040202251            2 
  221000    1.1628733   -6.6338219    102.81904  0.038770375  0.040198612            4 
  222000    1.1385865    -6.654048     103.0925  0.038698385  0.040194391            4 
  223000    1.1640011   -6.6768589    103.92727  0.038836797  0.040190891            2 
  224000    1.1688763   -6.6142567    104.17961  0.038757296  0.040187357            2 
  225000     1.173155   -6.6430202    104.87772    0.0388436  0.040185351            2 
  226000    1.1501008    -6.676564    105.36012    0.0388496  0.040183056            2 
  227000    1.1551061    -6.671015    105.86824  0.038864992  0.040179667            2 
  228000    1.1658753   -6.6825091    105.81607  0.038675463  0.040177206            1 
  229000    1.1770276     -6.67209    106.90131  0.038901494   0.04017315            4 
  230000    1.1592398    -6.670567    107.45197  0.038931873  0.040170729            7 
  231000    1.1482928   -6.6337169     107.5823  0.038810354  0.040167926            4 
  232000    1.1571526   -6.6763876    107.92284  0.038765387  0.040162057            2 
  233000    1.1330627   -6.6431043    108.91202  0.038952796   0.04016075            2 
  234000    1.1631466   -6.6945459    109.18593  0.038883879  0.040159802            5 
  235000    1.1573675   -6.6325886    109.85917  0.038957152  0.040158938            2 
  236000    1.1252168   -6.6675282    110.19007  0.038908924  0.040157745            2 
  237000    1.1854253   -6.6701266    110.36381  0.038805839  0.040154965            3 
  238000    1.1426986   -6.6768285    110.57091  0.038715306   0.04015094            5 
  239000     1.140538   -6.6357366    111.06279  0.038724822  0.040144752            3 
  240000    1.1460621   -6.6797359    111.29998  0.038645827  0.040137473            2 
  241000    1.1527507   -6.6523336    111.93401  0.038704705  0.040131414            3 
  242000    1.1455316   -6.6098626    113.17377  0.038971685  0.040124542            4 
  243000    1.1640363   -6.6133438    113.28536  0.038849575  0.040119049            2 
  244000    1.1310423    -6.717327    112.97332  0.038583786    0.0401107            3 
  245000      1.13599   -6.6662714    113.19927  0.038503153   0.04010153            1 
  246000    1.1397741   -6.6783324    113.84228  0.038564459   0.04009243            1 
  247000    1.1614838   -6.6826627    114.18987  0.038525598  0.040081907            1 
  248000    1.1287767   -6.6640522    114.36815  0.038430157  0.040070224            2 
  249000    1.1420253   -6.6449973    114.72655  0.038395768  0.040056495            1 
  250000    1.1380465   -6.6544486    115.35917  0.038453058  0.040041627            2 
  251000    1.1681384   -6.7175104    115.97669  0.038504876  0.040026087            2 
  252000    1.1776162   -6.6695914    115.91431  0.038331451  0.040010205            2 
  253000    1.1393104    -6.627185    116.13579  0.038252896  0.039994352            1 
  254000     1.162366   -6.6523529    116.41487  0.038193855  0.039976374            4 
  255000    1.1645847   -6.6418188    117.28838  0.038329537   0.03995993            2 
  256000    1.1743991   -6.6647343    117.72626  0.038322351  0.039945781            4 
  257000     1.138532   -6.7176408     118.1189  0.038300552  0.039932613            3 
  258000    1.1629256   -6.6767528    118.32803  0.038219647   0.03991773            2 
  259000    1.1552069   -6.6500406    119.29872    0.0383844  0.039901777            1 
  260000    1.1234168    -6.645091    119.66568  0.038354384  0.039886751            3 
  261000    1.1707055   -6.6723532    120.04213  0.038327629  0.039871811            1 
  262000    1.1299688   -6.7011855    120.19437  0.038229762   0.03985638            1 
  263000    1.1554091   -6.6753719    120.38968  0.038146286  0.039838719            1 
  264000    1.1260653   -6.6922583    120.51348   0.03804087  0.039819567            4 
  265000    1.1746533   -6.6937874    121.23216  0.038123321  0.039800891            4 
  266000    1.1374708   -6.6799374    122.05799  0.038238719  0.039783954            4 
  267000    1.1439723   -6.6720898    122.24369  0.038153463  0.039768132            3 
  268000    1.1597763   -6.6697016    122.74563  0.038167175  0.039750366            2 
  269000    1.1653134   -6.7149324    122.95517  0.038090201  0.039733807            2 
  270000    1.1611749   -6.6743309    123.80169  0.038210397  0.039717459            3 
  271000    1.1305652   -6.6904499     124.0105  0.038133611  0.039700088            1 
  272000     1.150123   -6.6832062    124.42175  0.038119408  0.039683091            2 
  273000    1.1370102   -6.6661181    124.71258  0.038068553   0.03966716            1 
  274000    1.1513894   -6.7089478    125.15059   0.03806283  0.039652022            4 
  275000    1.1416358   -6.6653944    125.38112  0.037994278  0.039636062            1 
  276000    1.1491953   -6.6716382     125.9326  0.038023127   0.03961799            1 
  277000    1.1328937   -6.6866863    126.29673  0.037995406  0.039599928            4 
  278000    1.1965241   -6.6870703    126.80219  0.038010249  0.039583241            2 
  279000    1.1336897   -6.6756355    127.62573   0.03811999   0.03956573            2 
  280000    1.1274889   -6.6903977     127.8234   0.03804268  0.039548562            1 
  281000    1.1364809   -6.6829138    128.10914  0.037992033  0.039531578            1 
  282000    1.1455228   -6.6881979    128.19966  0.037884059  0.039512941            2 
  283000    1.1545014   -6.6753073     129.1549  0.038031479  0.039495711            1 
  284000     1.134243   -6.6967591     129.3944   0.03796784  0.039478676            1 
  285000    1.1352493   -6.7437733    129.54304  0.037878083  0.039460845            2 
  286000    1.1291199   -6.6889897    130.09414  0.037906219  0.039441869            2 
  287000    1.1346368   -6.6882238    130.60384  0.037922137  0.039423004            2 
  288000    1.1349823   -6.7062744     130.9486  0.037890221  0.039404709            4 
  289000    1.1525189    -6.693992     130.9498  0.037759459  0.039384402            3 
  290000    1.1372484   -6.7228422    131.48816  0.037783953  0.039364266            2 
  291000    1.1170348   -6.6810619    131.99051   0.03779797  0.039344537            3 
  292000    1.1624055   -6.6673277    132.54816  0.037827671  0.039324418            6 
  293000    1.1272251   -6.7123485    132.42527  0.037663616  0.039302774            1 
  294000    1.1253678   -6.7292524    132.47126  0.037548543  0.039281288            3 
  295000    1.1434721   -6.7016277    133.57654  0.037733486  0.039260911            5 
  296000    1.1247969   -6.7069409    133.75194  0.037655389  0.039241043            2 
  297000    1.1347138   -6.7130542     134.1263  0.037633643  0.039220293            3 
  298000     1.125926   -6.7357448    134.09259  0.037497926  0.039199291            3 
  299000    1.1101039   -6.7301976    134.83191   0.03757857  0.039178327            4 
  300000    1.1398244   -6.7032252    135.30842  0.037585672  0.039155114            3 
  301000    1.1460218   -6.7137129    135.44774  0.037499375  0.039133085            3 
  302000    1.1361983   -6.6488392    135.85468  0.037487493  0.039109913            2 
  303000    1.1573112   -6.7007675    136.42048  0.037519385  0.039087629            4 
  304000    1.1351404   -6.7317966    135.96362  0.037270729  0.039063091            1 
  305000    1.1541062   -6.7347573    136.52746  0.037302586  0.039037277            3 
  306000    1.1279441   -6.6843537    137.37228  0.037410751  0.039012992            4 
  307000    1.1290165   -6.7267562    137.37077  0.037288482  0.038988803            2 
  308000    1.1160396   -6.6915606    137.78176  0.037278614  0.038963832            2 
  309000    1.1073173   -6.7280304    138.15517  0.037258676  0.038939883            6 
  310000    1.1243335   -6.7147834    138.60962  0.037260652  0.038916804            2 
  311000    1.1085407   -6.7445763    138.42071  0.037090222  0.038892467            2 
  312000    1.1231867   -6.6905499    139.47436  0.037252768  0.038866685            3 
  313000    1.1273239   -6.7096925    139.33448  0.037096507  0.038841433            2 
  314000    1.1223891    -6.709542    139.75292  0.037089415   0.03881363            2 
  315000    1.1356931   -6.7343734    140.32512  0.037123047  0.038787238            2 
  316000    1.1175725   -6.7170366    140.13431   0.03695525  0.038760705            2 
  317000    1.1361468   -6.7664267    139.97989  0.036798077  0.038733284            2 
  318000     1.115071   -6.7136128    141.05044  0.036962902  0.038705217            2 
  319000    1.1325044   -6.7223325    140.78578  0.036777894  0.038677143            2 
  320000     1.153949   -6.7383663    141.60714  0.036876859  0.038650515            1 
  321000    1.0959737   -6.7090819    142.19435  0.036914421  0.038621774            2 
  322000     1.107721    -6.764365    142.33022  0.036834944  0.038593635            1 
  323000    1.1296471   -6.7537635    142.18297  0.036682912  0.038566359            2 
  324000    1.1012883   -6.7341197     143.1681   0.03682307  0.038538897            3 
  325000    1.1259144   -6.7019008    143.86363   0.03688811  0.038512576            2 
  326000    1.1158908   -6.7655334    143.97573  0.036803613  0.038486142            3 
  327000    1.1326753   -6.7016772    145.05707  0.036966635  0.038460724            4 
  328000    1.1305038   -6.7406716    144.72085  0.036768508  0.038435505            3 
  329000    1.1014765   -6.7520538     145.5489   0.03686649  0.038410325            4 
  330000    1.1597615   -6.7355237    145.69881  0.036792628  0.038385364            1 
  331000    1.1061745   -6.7264803    146.21995  0.036812677  0.038360759            3 
  332000    1.1216789   -6.7318916    146.35463    0.0367356  0.038335188            1 
  333000    1.1557914   -6.7274871    146.77239  0.036729826  0.038310304            2 
  334000    1.1157918   -6.6963367    147.51211  0.036804418  0.038286167            3 
  335000    1.1322423   -6.7231839    147.81075  0.036768843  0.038261685            5 
  336000    1.0912882   -6.7319958    147.88279   0.03667728  0.038236422            2 
  337000    1.1290527   -6.7629543    148.16704  0.036638734  0.038211173            3 
  338000    1.1195887   -6.7266593    148.63835  0.036646535  0.038185118            2 
  339000    1.1194576   -6.7172799    149.10458  0.036653042  0.038159581            1 
  340000    1.1070237   -6.7034757    149.41361  0.036620984  0.038134528            2 
  341000    1.1317785   -6.7633544    149.60118  0.036559427  0.038109326            2 
  342000    1.1071654   -6.7474126    150.07925  0.036569019  0.038083661            2 
  343000    1.1086644   -6.7534305    150.59275   0.03658716  0.038058566            1 
  344000    1.1034214   -6.7630396    150.47202  0.036451556   0.03803226            3 
  345000    1.1295921   -6.7812455    150.36162  0.036319232  0.038006188            3 
  346000    1.1574493     -6.74574    151.24681  0.036427459  0.037979656            1 
  347000    1.1328471   -6.7313149    152.12268  0.036532825   0.03795467            3 
  348000    1.1143912   -6.7305313    152.60629  0.036543653  0.037930659            1 
  349000    1.0994429    -6.753373    152.52334  0.036419136  0.037905779            3 
  350000    1.1204286   -6.7357466    152.61507  0.036336922  0.037880197            3 
  351000    1.0945898   -6.7665633    153.07222  0.036341933  0.037854459            2 
  352000     1.126964   -6.7485088    153.69692  0.036386582  0.037828723            1 
  353000    1.1095114   -6.7623643    153.75289  0.036296717  0.037802318            4 
  354000     1.117079   -6.7671986    153.29483  0.036086354  0.037774817            3 
  355000    1.1359036   -6.7526753    153.47748  0.036027579   0.03774647            4 
  356000    1.1187513   -6.7790859    154.19397  0.036094095  0.037716852            2 
  357000    1.1085101   -6.7587803    154.58242  0.036083664  0.037687653            4 
  358000    1.1263337   -6.7771072    154.55269  0.035975953   0.03765766            1 
  359000     1.107066   -6.7249848     154.9347  0.035964415   0.03762788            3 
  360000    1.1064249   -6.7966734     155.0165   0.03588345  0.037598651            6 
  361000    1.1074745   -6.7676572    155.65155  0.035930644  0.037569884            2 
  362000    1.1278166   -6.7856232     155.4231  0.035778797   0.03754055            3 
  363000    1.0858342   -6.7605663    156.36922  0.035897433  0.037511928            2 
  364000     1.090247   -6.7508853    156.14185  0.035746761  0.037483739            7 
  365000    1.1077487   -6.7653031    156.64202  0.035763018  0.037454741            2 
  366000    1.0876171   -6.7755198    157.44133  0.035847298  0.037426474            3 
  367000    1.0989778   -6.7684572    157.85377  0.035843271  0.037398154            3 
  368000    1.0980408   -6.7620449    158.51212  0.035894954  0.037370516            3 
  369000    1.1006752   -6.8054485    159.07044  0.035923767  0.037342626            2 
  370000    1.0910073   -6.7475257    159.36113  0.035892147  0.037314808            1 
  371000    1.1084991   -6.7879187    158.99301  0.035712716   0.03728756            2 
  372000    1.1056667   -6.7179704    159.69082  0.035773033  0.037259915            3 
  373000    1.1051352    -6.751437    160.24274  0.035800433   0.03723239            2 
  374000    1.1159684   -6.7214487    160.09255  0.035671245   0.03720477            3 
  375000    1.0995211   -6.7734127    160.37876  0.035639723  0.037176568            2 
  376000    1.1047463   -6.7566802    160.84155  0.035647507  0.037148039            3 
  377000    1.1211058   -6.7617007    161.32535  0.035659892  0.037119939            3 
  378000    1.1039176    -6.767932    161.72491   0.03565364  0.037092235            2 
  379000    1.0861177   -6.7318432    162.11724  0.035645832  0.037063961            2 
  380000    1.0927315   -6.7871571    161.15384  0.035340754  0.037035263            3 
  381000    1.1006175   -6.7778163    161.80749  0.035390966  0.037005607            5 
  382000    1.0998022   -6.7512039    163.03755  0.035566657  0.036976923            4 
  383000    1.0999487   -6.7408907    162.67554  0.035395027  0.036948108            2 
  384000    1.0752234   -6.7828605    162.81015  0.035332063  0.036917892            2 
  385000    1.1045289   -6.8052044    162.78495  0.035234837  0.036887531            2 
  386000    1.0945757   -6.7646326    163.76506  0.035355152  0.036856968            2 
  387000    1.1145502   -6.7695323    164.38995  0.035398352  0.036827714            3 
  388000    1.0981171    -6.773988    164.12798  0.035250854   0.03679832            1 
  389000    1.0997333   -6.7703422      164.197  0.035175022  0.036769223            6 
  390000     1.089565   -6.7954298    164.21786  0.035089287   0.03673946            2 
  391000    1.0869187   -6.7628209    165.17384  0.035203291  0.036709967            2 
  392000    1.0769635   -6.7853921    165.51492  0.035185995  0.036681231            2 
  393000    1.1136302   -6.7836388    165.96126  0.035191107   0.03665258            2 
  394000    1.1249393   -6.7785877    166.98864  0.035319087   0.03662489            2 
  395000    1.1113097   -6.7592567    167.15061  0.035263842   0.03659717            4 
  396000    1.0995558   -6.7591616    167.16729  0.035178303  0.036569447            3 
  397000    1.0752176   -6.7732838    167.52627  0.035165045  0.036542192            4 
  398000    1.0903456   -6.7803871    167.88677   0.03515217  0.036514569            3 
  399000    1.0887996   -6.8093065    167.86849  0.035060253  0.036486199            3 
  400000    1.0926979   -6.7748882    168.26082  0.035054338  0.036457923            3 
  401000    1.1031487   -6.7936252    168.80175  0.035079332   0.03642987            4 
  402000     1.109745   -6.7700934    169.27653  0.035090492  0.036402016            2 
  403000    1.0992355   -6.8329229    169.82933  0.035117728   0.03637554            1 
  404000    1.0759941   -6.7855036    170.31219  0.035130402   0.03634917            4 
  405000    1.1146606   -6.7750637    170.86607  0.035157627  0.036324717            3 
  406000     1.091848   -6.7740314    171.59761  0.035221185  0.036300944            2 
  407000    1.0891448    -6.795949    171.95424  0.035207665   0.03627818            3 
  408000    1.0979408   -6.8062766     172.2761  0.035187112  0.036255039            1 
  409000    1.0938499   -6.7951486    172.17727  0.035080944  0.036230986            2 
  410000    1.1144415   -6.8130345    172.73241  0.035108213  0.036206837            3 
  411000    1.0861318    -6.789119    173.20972  0.035119571  0.036183866            2 
  412000    1.0718136    -6.767807     173.5127  0.035095612  0.036160519            2 
  413000     1.096134   -6.8051249    173.39985  0.034987864  0.036136544            1 
  414000    1.0739513    -6.847463    174.56049  0.035136974  0.036112479            1 
  415000    1.1170931    -6.796164    174.75144  0.035090651  0.036087966            2 
  416000    1.0795891   -6.8070574     174.8322  0.035022476  0.036063986            3 
  417000    1.0666686   -6.8169051    174.69819  0.034911708  0.036039717            2 
  418000    1.0959948   -6.7828583    175.14361  0.034916987  0.036015988            2 
  419000    1.0713746    -6.799684    175.08309  0.034821617  0.035991049            3 
  420000    1.0944898   -6.7593719    176.23914  0.034968083  0.035966075            3 
  421000    1.0750379   -6.8353136    175.79383  0.034796878  0.035941824            2 
  422000    1.0863995   -6.7995467    176.58692  0.034871035  0.035917695            4 
  423000    1.0675201   -6.7804991    176.97355  0.034864766  0.035894282            2 
  424000    1.1039663   -6.7782015    177.20892  0.034828797  0.035869833            2 
  425000    1.0855635   -6.8240115    177.07337  0.034720269  0.035844779            2 
  426000    1.0823828   -6.7948916    177.44353  0.034711175  0.035819209            7 
  427000    1.1039729   -6.8137999    177.50847  0.034642559  0.035793918            1 
  428000    1.0773696   -6.8055259    177.62724  0.034584744  0.035768249            3 
  429000    1.0569679   -6.7897931    178.11912  0.034599673  0.035742567            3 
  430000    1.0939144   -6.8060678    178.97277  0.034684645  0.035717171            3 
  431000    1.0813999   -6.8188181    179.71295  0.034747284   0.03569197            1 
  432000    1.0743902     -6.82691    179.47193  0.034620357  0.035667621            1 
  433000    1.0842419   -6.8165309    180.14208  0.034669377  0.035642802            4 
  434000    1.0915435   -6.8334271    180.28177  0.034616316  0.035618332            3 
  435000    1.0754304   -6.8408534    180.45921  0.034570731  0.035594432            2 
  436000     1.084022   -6.7958263    181.23388  0.034639502  0.035571026            1 
  437000    1.0836015   -6.8027221    181.34278  0.034581004  0.035547527            4 
  438000    1.0984839   -6.8017285    181.54018  0.034539608  0.035523328            3 
  439000    1.0767948   -6.8317489    181.46712  0.034447062  0.035499144            2 
  440000    1.1026467   -6.8097983    181.89866  0.034450503  0.035474808            2 
  441000    1.0762082   -6.8106546    182.81217  0.034545006  0.035450486            2 
  442000    1.0673575   -6.8301811    182.73953  0.034453154  0.035426521            1 
  443000    1.0726677   -6.7949908    183.58818  0.034535022   0.03540191            2 
  444000    1.0677349   -6.8261493    183.02933  0.034352351  0.035377138            2 
  445000    1.0460189   -6.8273604    183.66212  0.034393655  0.035352757            3 
  446000    1.0985455   -6.8219167    184.01699  0.034382846  0.035328544            1 
  447000    1.0972946   -6.8249716    183.76844   0.03425959  0.035303231            4 
  448000    1.0581968   -6.8625555    183.75698  0.034180985  0.035277917            2 
  449000    1.0671719   -6.8269712    184.25774  0.034197798  0.035252658            3 
  450000    1.0769392   -6.8815134    184.28709  0.034127238   0.03522828            9 
  451000    1.0729141   -6.8237165    184.84142  0.034153995  0.035203995            2 
  452000    1.0651577   -6.8264276    185.76106  0.034247983   0.03517954            8 
  453000    1.0455084   -6.8160004    186.37156  0.034284688  0.035155822            2 
  454000    1.0566555   -6.8175846    186.90703  0.034307458  0.035132844            1 
  455000    1.0706179   -6.8237049    186.97323  0.034244181  0.035110363            2 
  456000    1.0540885   -6.8493758    186.96462  0.034167512  0.035087424            3 
  457000    1.0688548   -6.8485383    187.98354  0.034278544  0.035065441            3 
  458000    1.0468142   -6.8502586    188.53164  0.034303428  0.035043774            3 
  459000    1.0697283   -6.8760556    188.34513  0.034194831  0.035022147            3 
  460000    1.0754801    -6.832096    189.04857  0.034247929  0.035000272            3 
  461000     1.077394   -6.8622578    189.68176  0.034288099  0.034979233            2 
  462000    1.1079985   -6.8244937    190.00683  0.034272517  0.034958854            5 
  463000     1.085868    -6.858552     190.5553  0.034297211  0.034938731            4 
  464000    1.0718246   -6.8380886    190.54468  0.034221387   0.03491894            2 
  465000    1.0398634   -6.8443034    191.25249  0.034274639  0.034898828            2 
  466000    1.0510252   -6.8562798     190.5452  0.034074607  0.034878154            4 
  467000    1.0637404   -6.8573385    191.76909  0.034220038  0.034857532            2 
  468000    1.0705008   -6.8286742    191.99988  0.034188012  0.034837013            3 
  469000    1.0418427   -6.8268169    191.83544  0.034085898  0.034816132            3 
  470000    1.0593237   -6.7966748    193.11237  0.034239781  0.034795226            3 
  471000    1.0692775   -6.8504373    192.92982  0.034134787  0.034774482            5 
  472000    1.0774035   -6.8423061    192.96978  0.034069523  0.034753837            3 
  473000    1.0695936   -6.8162346    193.88244  0.034158287  0.034733048            2 
  474000    1.0796969   -6.8322326    194.22516  0.034146476  0.034712748            5 
  475000    1.1039547   -6.8331826    194.11566  0.034055379  0.034692191            3 
  476000    1.0577218   -6.8133462    194.75621  0.034095976  0.034672265            4 
  477000    1.0534059   -6.8515549    193.97764  0.033888476  0.034651644            3 
  478000    1.0652448   -6.8203233    195.15996  0.034023703  0.034630433            3 
  479000    1.0574606   -6.8223616    195.24077  0.033966731  0.034609118            4 
  480000    1.0395032   -6.9245192    194.11043  0.033699728  0.034587341            2 
  481000    1.0492678   -6.8537549    195.28142  0.033832541  0.034564857            3 
  482000    1.0518677   -6.8735954    195.03774  0.033720218  0.034542036            1 
  483000    1.0504441   -6.8610795    195.92577  0.033803617  0.034519681            3 
  484000    1.0592636    -6.850513    196.52774  0.033837421  0.034498277            1 
  485000    1.0637489   -6.8589201    196.30622  0.033729591  0.034476196            3 
  486000    1.0591783   -6.8657556    196.42439   0.03368045   0.03445416            2 
  487000    1.0600552   -6.8685629     197.1453  0.033734651  0.034432701            4 
  488000    1.0537969   -6.8478274    197.82148   0.03378099  0.034411675            7 
  489000     1.079966   -6.8476122    197.88054  0.033721973  0.034391052            2 
  490000    1.0589509   -6.8412473    198.34464  0.033732082  0.034369825            3 
  491000    1.0819808   -6.8226974    198.59144  0.033705268  0.034348867            3 
  492000    1.0689501   -6.8537817     198.7888  0.033670189  0.034327395            1 
  493000    1.0592295   -6.8624469    199.08187  0.033651431  0.034305525            2 
  494000    1.0586374    -6.881771    198.95299  0.033561571  0.034283768            3 
  495000    1.0509915   -6.8680336    199.06587  0.033512773   0.03426238            2 
  496000      1.05967   -6.8496656    200.05327  0.033611101  0.034240849            3 
  497000     1.055911   -6.8808387    200.23982  0.033574752  0.034219159            3 
  498000    1.0495526   -6.8687078    200.49077  0.033549326  0.034197536            3 
  499000    1.0515923   -6.8462737    201.19722  0.033600071  0.034176036            3 
  500000    1.0823266   -6.8469199    200.83155  0.033471925   0.03415389            5 
  501000    1.0508816   -6.8669361    200.14793  0.033291405  0.034131279            5 
  502000    1.0454514   -6.8629848     201.6674  0.033477325  0.034108586            2 
  503000    1.0599934   -6.8833509    201.12517  0.033320936  0.034085881            2 
  504000    1.0507496   -6.8595239     201.8242  0.033370404  0.034063287            2 
  505000    1.0585487   -6.9138917    201.28412  0.033215201  0.034041419            3 
  506000     1.058661    -6.888049    202.42221  0.033336992  0.034019363            3 
  507000    1.0542468   -6.8376777    203.41085  0.033433735  0.033997574            2 
  508000    1.0237994   -6.8830927    202.52267  0.033222223  0.033975841            3 
  509000     1.049101   -6.8559408     202.8866  0.033216536  0.033953317            1 
  510000    1.0515578   -6.8529957    203.47464  0.033247489  0.033931183            3 
  511000    1.0669889   -6.8879204    203.91718  0.033254596  0.033909236            6 
  512000    1.0743595   -6.8748038    203.79849  0.033170327  0.033887709            2 
  513000     1.022601   -6.9031823    204.61791  0.033238776  0.033866595            2 
  514000    1.0495161   -6.8857058    204.59132  0.033169799  0.033845633            3 
  515000      1.04516    -6.899731    204.93248  0.033160596  0.033824669            4 
  516000    1.0071578   -6.8902002    205.37418  0.033167665  0.033803267            2 
  517000    1.0471124   -6.8785263    205.51086  0.033125542  0.033781458            4 
  518000    1.0604751   -6.8939729    205.83532  0.033113791  0.033760099            3 
  519000    1.0519815   -6.8957305    206.84308  0.033211799  0.033739259            2 
  520000    1.0197349   -6.8478752    207.49519  0.033252434  0.033718393            2 
  521000    1.0385439   -6.9030522    207.22263  0.033145014  0.033698081            3 
  522000    1.0474379   -6.8872342     207.5347  0.033131337  0.033677158            1 
  523000    1.0603548   -6.8681312    207.55109    0.0330706  0.033656961            3 
  524000    1.0395271   -6.9174295    207.84558  0.033054323  0.033636218            2 
  525000     1.071184   -6.8972124    208.96426   0.03316893  0.033615523            2 
  526000     1.041888    -6.864532    209.55876  0.033200056  0.033594995            4 
  527000    1.0541177   -6.8936234    208.68424  0.032998773  0.033574472            3 
  528000    1.0589564    -6.890119    208.80707  0.032955662  0.033553416            3 
  529000    1.0604411   -6.8758536    209.16001  0.032948962  0.033532673            2 
  530000    1.0520844   -6.9222088    209.57551  0.032952124  0.033511688            3 
  531000    1.0362835   -6.8825821    209.73335  0.032914838  0.033490563            2 
  532000    1.0373607   -6.8706218     209.8231  0.032867027  0.033469471            3 
  533000    1.0404926   -6.8810908      210.166  0.032858975  0.033448267            3 
  534000    1.0254485   -6.9189409    210.75647  0.032889586  0.033427598            4 
  535000    1.0530361    -6.920357    211.34579  0.032919904   0.03340663            1 
  536000    1.0402051   -6.8771513    211.38839   0.03286511  0.033386118            2 
  537000    1.0536025   -6.9082094    211.68754  0.032850333  0.033366059            4 
  538000    1.0346952   -6.8787332    212.88113  0.032974152  0.033346115            5 
  539000    1.0324626   -6.9029941    212.21368  0.032809784  0.033326439            4 
  540000    1.0519288   -6.8841563    212.61235  0.032810548  0.033306814            3 
  541000    1.0267716   -6.8981021    213.39666  0.032870712  0.033287373            2 
  542000    1.0327926   -6.8926973    214.03722  0.032908551   0.03326751            3 
  543000    1.0416307   -6.9268445    213.81718  0.032814177   0.03324779            6 
  544000    1.0355205   -6.9095403    213.82798  0.032755511  0.033228475            2 
  545000    1.0351997    -6.874294    214.90171  0.032859588   0.03320972            1 
  546000    1.0340714   -6.9322243    214.42461   0.03272659  0.033191222            4 
  547000    1.0411467   -6.9209928    214.68028  0.032705711  0.033172272            1 
  548000    1.0523331   -6.9269278    215.53846   0.03277653  0.033153681            4 
  549000    1.0403086    -6.892954    216.12338  0.032805613  0.033135323            1 
  550000    1.0223868    -6.885875    215.90056  0.032712206  0.033116992            4 
  551000    1.0182251   -6.8772706    216.48711  0.032741548  0.033098502            2 
  552000    1.0307636   -6.8857499    218.09325  0.032924706  0.033080628            3 
  553000    1.0344081   -6.9140726    217.13766  0.032721167  0.033063009            2 
  554000    1.0612714   -6.8894192    218.41217  0.032853816  0.033045514            4 
  555000    1.0424267   -6.9191748    217.88725  0.032715803  0.033028171            2 
  556000    1.0282706   -6.9195595    218.33798  0.032724517  0.033010562            3 
  557000    1.0507259   -6.9445661    218.15703  0.032638693  0.032992751            3 
  558000    1.0427529   -6.8892112    218.82825  0.032680443  0.032975123            2 
  559000    1.0357374   -6.9048292    219.18578   0.03267528  0.032957028            3 
  560000    1.0198837   -6.9116751    219.10658  0.032605145   0.03293856            1 
  561000    1.0370871    -6.965751    218.73417  0.032491706   0.03291966            2 
  562000    1.0244031   -6.8901075    219.24003  0.032508901  0.032900771            2 
  563000    1.0106165   -6.9380003     219.4598  0.032483688  0.032881461            1 
  564000    1.0393055   -6.9187934    219.79676  0.032475881  0.032862542            5 
  565000    1.0182838   -6.9326137    220.01984  0.032451303  0.032843444            5 
  566000    1.0349256   -6.9019563    220.75659  0.032502442  0.032824591            1 
  567000    1.0354485   -6.9279919    220.85898  0.032460167  0.032806079            3 
  568000    1.0372783   -6.9235921    220.97429  0.032419938  0.032787408            6 
  569000    1.0277076   -6.9048798    221.99526  0.032512486  0.032768912            1 
  570000    1.0402367   -6.9076617     221.9586  0.032450087  0.032750752            3 
  571000    1.0427239   -6.9335278    222.05688  0.032407601  0.032732439            6 
  572000    1.0090288   -6.9198007     222.9008  0.032473893  0.032714356            3 
  573000    1.0263474   -6.9371166    222.74382  0.032394389  0.032696082            2 
  574000    1.0194796   -6.9318879    223.41982  0.032436095  0.032677474            2 
  575000     1.020604   -6.9267652     223.3756  0.032373275  0.032658537            4 
  576000    1.0221536    -6.919728    224.01313  0.032409308  0.032639944            3 
  577000    1.0141535   -6.9080614    224.14849  0.032372687  0.032621649            5 
  578000    1.0439723   -6.9390684    223.70731  0.032253073  0.032603006            4 
  579000    1.0082814   -6.9037731    224.36479  0.032291996  0.032584314            3 
  580000    1.0365872   -6.9202812    224.58836  0.032268442  0.032565827            3 
  581000    1.0196953   -6.9379914    225.19552  0.032299988   0.03254728            2 
  582000    1.0402444   -6.9090229    224.91132  0.032203797  0.032529006            3 
  583000    1.0284921   -6.9358265    225.70141  0.032261494   0.03251086            5 
  584000    1.0133914   -6.9309207    226.00545  0.032249636  0.032493241            2 
  585000    1.0372905   -6.8910317    226.14843  0.032214875  0.032475098            2 
  586000    1.0139451   -6.9401895     225.9601  0.032133119  0.032456986            2 
  587000    1.0304793   -6.9547141     226.6559  0.032177158  0.032438871            4 
  588000    1.0142365   -6.9361111    226.90966  0.032158398  0.032420737            3 
  589000    1.0104519   -6.9328294    227.38133  0.032170534  0.032402392            2 
  590000     1.006886   -6.9761313    227.26552  0.032099649  0.032384667           12 
  591000    1.0103272   -6.9344068    228.37639  0.032201973  0.032366841            3 
  592000    1.0250222   -6.9383996    228.02466  0.032098065  0.032348914            5 
  593000    1.0398483   -6.9133108    228.54991   0.03211775  0.032330739            2 
  594000    1.0234935   -6.9767811    227.80612  0.031959333   0.03231278            1 
  595000    1.0276146   -6.9507752    228.32641  0.031978488  0.032294583            4 
  596000    1.0109336   -6.9299821    229.55407  0.032096486    0.0322768            3 
  597000    1.0378496   -6.9681538    228.58804  0.031907878  0.032258723            2 
  598000    1.0231919   -6.9232503    229.12118  0.031928816  0.032240356            3 
  599000    1.0220819   -6.9368111    229.25118  0.031893597  0.032222108            2 
  600000    1.0192799   -6.9215975    229.81851  0.031919238  0.032203573            3 
  601000    1.0414748   -6.9541261    229.60372  0.031836344  0.032185041            1 
  602000    1.0261206   -6.9655644    230.04075  0.031843957  0.032166486            5 
  603000   0.98242916   -6.9603649    230.45849  0.031848879  0.032147826            4 
  604000    1.0161736   -6.9381846    230.90923  0.031858338   0.03212895            2 
  605000    1.0101923   -6.9393542    230.62805  0.031766949  0.032110142            4 
  606000    1.0005539   -6.9493894    231.35301   0.03181422   0.03209104            2 
  607000    1.0216926   -6.9395239    231.30655  0.031755429  0.032071721            4 
  608000    1.0264995   -6.9999811    230.05675  0.031531901  0.032052329            2 
  609000    1.0055418   -6.9373263    231.70379  0.031705499  0.032032903            2 
  610000   0.97867961   -6.9501678    231.25846  0.031592686  0.032013325            3 
  611000    1.0262541   -6.9839577    231.55762  0.031581781  0.031993822            3 
  612000    1.0238117   -6.9742881     231.6852  0.031547548  0.031974193            4 
  613000   0.99862338   -6.9758771     232.2245  0.031569399  0.031954759            6 
  614000    1.0112436    -6.937745    232.88762  0.031607983   0.03193516            3 
  615000    1.0258834   -6.9834908    232.23482  0.031468133  0.031915883            3 
  616000   0.99627226   -6.9651653    233.32187  0.031564106  0.031896277            3 
  617000    1.0018348   -6.9767349    232.77332   0.03143886   0.03187689            3 
  618000    1.0289675   -6.9695087    233.12071  0.031434831  0.031857195            3 
  619000   0.99694222   -6.9445188    234.09757  0.031515559  0.031837847            3 
  620000    1.0349069   -6.9122231    234.12945  0.031469012  0.031818268            2 
  621000    1.0135535   -6.9475505    234.10766  0.031415413  0.031798595            3 
  622000    1.0217549   -6.9727515    233.29784  0.031256409  0.031778628            6 
  623000   0.98499528   -6.9703003     233.9217  0.031289687  0.031758602            8 
  624000    1.0117543   -6.9341522    234.72873  0.031347319  0.031738785            2 
  625000    1.0245798   -6.9383898    235.38746  0.031384995  0.031719408            5 
  626000    1.0060705   -6.9908611     235.3122  0.031324841  0.031700425            3 
  627000    1.0001208   -6.9636339    235.63918  0.031318339  0.031681006            3 
  628000    1.0132948   -6.9621276    235.85115  0.031296596   0.03166159            2 
  629000    1.0192673   -6.9449433    236.85035  0.031379219  0.031642431            3 
  630000   0.99467068   -6.9568557     237.3664  0.031397671  0.031623516            4 
  631000   0.98867142   -6.9388657    237.94297  0.031424058  0.031605047            3 
  632000    1.0108696   -6.9711893    236.70973  0.031211725  0.031586718            2 
  633000   0.99772876   -6.9815825    237.95487  0.031326339  0.031568436            2 
  634000      1.00961   -6.9437746      238.255  0.031316377  0.031550268            2 
  635000   0.98996328   -6.9887133    238.62085  0.031315072  0.031532311            2 
  636000    1.0068432   -7.0070068    238.02651  0.031187961  0.031514245            3 
  637000   0.97893352   -6.9739206    238.80217  0.031240472  0.031496261            6 
  638000    1.0053714   -6.9772358    239.36465  0.031264975  0.031477739            4 
  639000    1.0197976   -6.9155418    239.83032  0.031276776  0.031459505            2 
  640000   0.98570344   -6.9723038    240.17165   0.03127235  0.031441143            3 
  641000    0.9932446   -7.0039557    239.64857   0.03115556  0.031422426            8 
  642000   0.99218415   -6.9531392    240.18097  0.031176138  0.031403881            5 
  643000    1.0044774   -6.9851124    240.20411  0.031130652  0.031385243            6 
  644000   0.98079764   -6.9734199    239.78337  0.031027869  0.031366447            3 
  645000    1.0156292   -6.9899443    239.95376  0.031001778  0.031347357            5 
  646000    1.0003303   -7.0132341    239.58681  0.030906451   0.03132833            2 
  647000   0.99963835   -6.9788511    241.04541  0.031046549  0.031309189            3 
  648000    0.9950831   -7.0049096    240.29043  0.030901547  0.031290074            2 
  649000    0.9750711   -6.9987521    240.32862  0.030858837  0.031270882            2 
  650000   0.98492709   -6.9875252    241.34956  0.030942251  0.031251544            2 
  651000    1.0087937    -6.998992       241.65   0.03093318  0.031232165            2 
  652000   0.98050057   -7.0265106    241.26546  0.030836587  0.031212565            6 
  653000     1.004306   -6.9773156    242.47217   0.03094336  0.031193003            4 
  654000    0.9912288   -6.9811042    242.65483  0.030919321  0.031173799            3 
  655000     1.000428   -7.0297989    241.92883  0.030779749  0.031154593            4 
  656000   0.99491516   -7.0251616     241.7498  0.030710086  0.031135027            4 
  657000    1.0045653   -7.0021192    243.24701  0.030853249   0.03111571            2 
  658000    0.9898226   -6.9874559     242.9016  0.030762614  0.031096618            2 
  659000   0.98489994   -6.9735463    243.04813  0.030734463  0.031077786            1 
  660000   0.99762243   -6.9956003    243.80923  0.030783994  0.031058593            6 
  661000   0.99550305   -7.0003663    243.92874  0.030752489  0.031039476            3 
  662000    1.0077452   -6.9930197    243.62136  0.030667341   0.03102032            1 
  663000   0.99608771   -7.0042196    243.84468  0.030649156  0.031001163            3 
  664000   0.97936021   -7.0412272    243.89746  0.030609621  0.030982266            3 
  665000   0.98174821   -6.9850829    245.42633  0.030755179  0.030963449            2 
  666000   0.99280394   -6.9851194    244.87252  0.030639705  0.030944804            3 
  667000   0.96268667   -7.0180702    246.25763   0.03076682   0.03092618            4 
  668000   0.99603814   -7.0098387    246.23707  0.030718198  0.030907662            2 
  669000    1.0009281   -6.9951934    245.99133   0.03064167  0.030888827            4 
  670000   0.96929526   -7.0135388    246.38213  0.030644543  0.030870338            3 
  671000    1.0162525   -7.0017909    246.47465  0.030610363  0.030851466            1 
  672000   0.97324822   -6.9947784     246.1373  0.030522979  0.030832702            2 
  673000   0.99209577   -6.9914564    247.20016  0.030609233  0.030814086            1 
  674000   0.99413506     -7.03885    247.56732  0.030609214   0.03079573            3 
  675000    1.0229111    -7.017923    246.98267  0.030491688  0.030777115            4 
  676000   0.98791156   -7.0096896    247.42903  0.030501606  0.030758459            3 
  677000   0.96439662   -6.9890285    247.22009  0.030430833  0.030739692            3 
  678000   0.98652565   -6.9954601     247.5296  0.030423992  0.030721048            3 
  679000   0.98214961     -6.99645    248.33539  0.030478079  0.030702427            4 
  680000   0.97087837   -7.0397487    247.71841  0.030357648  0.030683386            4 
  681000   0.97301356   -6.9851924    249.11475  0.030483939  0.030664566            3 
  682000   0.98951627   -6.9805652    249.19571  0.030449133  0.030646167           10 
  683000   0.95676866   -7.0235794    249.20941  0.030406224  0.030627633            5 
  684000   0.97636192   -7.0353579    249.11281  0.030350001  0.030608722            3 
  685000   0.96430548   -7.0296672    249.65082  0.030371146  0.030590087            2 
  686000   0.99013032   -7.0490713    248.88949  0.030234389   0.03057112            5 
  687000   0.97826684   -7.0280535    248.96806   0.03019991  0.030551825            3 
  688000   0.98514578   -7.0085408    250.26116  0.030312641  0.030532579            1 
  689000   0.96583547   -7.0093952    249.72787  0.030204145  0.030513562            4 
  690000   0.98809696    -7.048393    249.30447  0.030109236  0.030494295            2 
  691000   0.98384729   -7.0407045    249.88014  0.030135087  0.030474897            5 
  692000   0.96283872   -6.9947124    250.70178  0.030190484  0.030455986            5 
  693000    0.9485606   -7.0260211    250.69963  0.030146661   0.03043696            4 
  694000    1.0008718   -7.0418764    251.01949  0.030141629  0.030417857            2 
  695000    0.9881501   -7.0333148    251.49884  0.030155737  0.030399017            2 
  696000   0.99804076   -6.9874244    252.28776  0.030206868  0.030380515            2 
  697000   0.94587728    -7.018845    252.77088  0.030221291  0.030362398            3 
  698000   0.98218792   -7.0110088    253.07642  0.030214472   0.03034441            3 
  699000   0.97515594   -6.9900447    252.90412  0.030150705  0.030326041            7 
  700000   0.97221468   -7.0293557    252.60461  0.030071977  0.030307723            5 
  701000   0.96908121    -7.038875    253.15434  0.030094429  0.030289345            2 
  702000    0.9942531   -7.0339278    252.77666  0.030006726    0.0302706            2 
  703000   0.95815203   -6.9987674     253.8322  0.030089166  0.030252232            2 
  704000   0.97964808   -7.0673572    252.80668  0.029925033  0.030233901            6 
  705000   0.97075485   -7.0197105    254.01661  0.030025603  0.030214982            2 
  706000   0.97276896    -7.015134    254.50339  0.030040532  0.030196263            3 
  707000   0.97813621   -7.0372049    254.18262  0.029960233  0.030177584            6 
  708000   0.97424134   -7.0445399    255.21338   0.03003924  0.030159308            2 
  709000   0.97067123   -7.0503855    255.31525  0.030008845  0.030141199            2 
  710000   0.97548006   -7.0506585    254.81836  0.029908258  0.030122872            7 
  711000   0.95977212   -7.0008382    255.38712  0.029932855  0.030104484            1 
  712000    1.0041733   -7.0734141    254.22277  0.029754538  0.030085897            3 
  713000   0.98149786   -7.0461103    255.37431  0.029847395  0.030067005            5 
  714000   0.96825898   -7.0600767    255.17037  0.029781789  0.030048212            7 
  715000    0.9718901   -7.0470052    255.79719  0.029813192  0.030029055            5 
  716000   0.94041954   -7.0383758    255.97504  0.029792254  0.030010265            3 
  717000   0.97292635   -7.0235367    256.07379  0.029762179  0.029991397            4 
  718000   0.98069783   -7.0654113    256.09088  0.029722711  0.029972599            7 
  719000   0.97047672   -7.0486082    256.93788  0.029779542  0.029953779            3 
  720000   0.98582169   -7.0566862    256.75092  0.029716541  0.029935273            2 
  721000   0.95807197   -7.0219971    257.13955  0.029720243  0.029916778            2 
  722000   0.96491048   -7.0498403    256.98195  0.029660889  0.029898504            2 
  723000   0.96686392   -7.0590629    256.83945  0.029603441  0.029879829            3 
  724000   0.95815201   -7.0236097    258.21942  0.029721388  0.029860987            2 
  725000   0.97508669   -7.0651188    257.73582  0.029624807  0.029842363            3 
  726000   0.95989636   -7.0670749    257.82755   0.02959453  0.029823552            4 
  727000   0.97040791   -7.0318961    258.01456  0.029575259  0.029804555            4 
  728000   0.95779029   -7.0827261    258.32399  0.029570054  0.029785694            3 
  729000   0.98298079   -7.0309879    259.02665  0.029609813  0.029766769            9 
  730000   0.97178488   -7.0636927    258.55199  0.029515068   0.02974825            5 
  731000   0.95256201   -7.0971123    258.29227  0.029445083  0.029729152            3 
  732000   0.96200657   -7.0606545    259.02241  0.029487979    0.0297102            9 
  733000   0.99615006   -7.0193619    259.07342   0.02945355  0.029691834            7 
  734000   0.97362236   -7.0593293     260.0417  0.029523353  0.029673431            2 
  735000   0.95082785   -7.0764145    259.16203   0.02938345  0.029655083            7 
  736000   0.96458855   -7.0973836    259.62276  0.029395693  0.029636392            5 
  737000   0.97161975   -7.0667531    260.47394  0.029452051  0.029617609            4 
  738000   0.97630721   -7.0347861    260.88906  0.029459018  0.029599232            4 
  739000   0.97455831   -7.0581249    260.88838  0.029419078  0.029580615            2 
  740000   0.96345566   -7.0780701    261.08827  0.029401832  0.029562386            2 
  741000   0.95253481   -7.0725861    260.87034  0.029337645  0.029543829            3 
  742000   0.97144508   -7.0344497     260.9788  0.029310288  0.029525323            1 
  743000   0.96401159   -7.0578916    261.74786  0.029357095  0.029506759            2 
  744000    0.9545613   -7.0647489     261.2807  0.029265311  0.029488083            2 
  745000    0.9430052   -7.0724435    261.76345  0.029280028  0.029469592            4 
  746000   0.94392772   -7.0592039    261.68123  0.029231595  0.029450888            4 
  747000   0.93710032   -7.0452749    262.49867  0.029283653  0.029432404            2 
  748000   0.94024373   -7.0477808    262.85477  0.029284177   0.02941363            2 
  749000   0.93978809   -7.0812154    261.67392  0.029113698  0.029394765            2 
  750000   0.92745833   -7.0858775    262.69181  0.029187978  0.029375721            2 
  751000   0.92607605   -7.1142964    262.39227  0.029115876  0.029356538            1 
  752000   0.94934902   -7.0706874    262.50901  0.029090094  0.029337625            3 
  753000   0.96531489   -7.0856025    262.56814  0.029058006  0.029318468            3 
  754000   0.95249562   -7.0626301    263.27287  0.029097355  0.029299317            4 
  755000   0.92836989   -7.0586608    263.20288  0.029051091  0.029280203            2 
  756000   0.95198815   -7.0933547    263.35971   0.02902995  0.029261106            3 
  757000    0.9568145   -7.0986997    262.74959  0.028924438  0.029241715            3 
  758000   0.95139056   -7.0605251    263.15956   0.02893135  0.029222476            2 
  759000   0.93827342   -7.0842794     263.5178  0.028932565   0.02920328            5 
  760000   0.96594829   -7.1056868     263.2211  0.028861962   0.02918391            4 
  761000   0.94148647   -7.0471616    263.89563  0.028897901  0.029164852            3 
  762000   0.94394974   -7.0832409    263.81331  0.028850974  0.029145602            3 
  763000   0.95177831   -7.0891425    264.44623  0.028882288  0.029126321            5 
  764000   0.94991712   -7.1025258     264.0501  0.028801276  0.029106816            2 
  765000    0.9472383   -7.0454317    264.29404    0.0287902  0.029087179            6 
  766000   0.94581359   -7.0512729    264.96219  0.028825304  0.029067536            3 
  767000   0.94521986   -7.1288282    263.69025  0.028649527  0.029047622            3 
  768000   0.93896698   -7.1067681    263.84611  0.028629135   0.02902788            4 
  769000   0.93886025   -7.0755444    265.63397  0.028785649   0.02900786            4 
  770000   0.95353615   -7.0982446    264.62166  0.028638708  0.028988083            2 
  771000   0.94374767   -7.1057071    264.78578  0.028619302   0.02896838            2 
  772000     0.953655   -7.1055001    265.32677  0.028640627  0.028948681            4 
  773000   0.95260729   -7.1172223    265.10584  0.028579758   0.02892896            3 
  774000   0.93716806   -7.1047047    266.29605  0.028670979  0.028909069            3 
  775000   0.93307741   -7.0903827     265.9603  0.028597881  0.028889263            3 
  776000   0.95682907   -7.1208578    265.89549  0.028554069  0.028869724            4 
  777000   0.94893266   -7.0784378     266.2628  0.028556714  0.028849962            3 
  778000    0.9217954   -7.1179235     266.1511  0.028508044  0.028830324            3 
  779000   0.94311339    -7.086704    267.55453   0.02862158  0.028810655            5 
  780000   0.94102025   -7.1058657    267.08361  0.028534574  0.028791177            3 
  781000   0.94460666   -7.1132209    267.51669  0.028544247  0.028771741            3 
  782000   0.95799202   -7.1066886    267.04545  0.028457528  0.028752288            4 
  783000   0.92224951   -7.0801453    267.32084  0.028450494  0.028732854            2 
  784000   0.93437601   -7.0698709    267.64022  0.028448152    0.0287135            5 
  785000   0.95347159   -7.0716708    268.29043  0.028480937  0.028694141            2 
  786000   0.93702086   -7.1102542    267.98521  0.028412342  0.028674767            3 
  787000   0.92674368    -7.102979     267.6865   0.02834461  0.028655265            1 
  788000   0.93402022   -7.1281961    268.62767  0.028408171  0.028635864            2 
  789000   0.94180924   -7.1277292    268.57611   0.02836672  0.028616734            1 
  790000   0.93193054   -7.1254087     268.8829  0.028363175  0.028597422            2 
  791000    0.9208767    -7.098829    269.89516  0.028433961   0.02857822            2 
  792000   0.93351814   -7.1022528    269.85795  0.028394145  0.028559149            4 
  793000    0.9426202   -7.1243978    268.85678  0.028253129  0.028539965            3 
  794000   0.92935862   -7.1120015    269.61713  0.028297348  0.028520871            4 
  795000   0.95531867   -7.1154439    269.83255  0.028284335  0.028501899            9 
  796000   0.95404873   -7.1260164    269.46663  0.028210493  0.028482994            5 
  797000   0.93453936   -7.1077976    269.45344  0.028173718  0.028464008            3 
  798000   0.90879626   -7.1034036    270.54421  0.028252319   0.02844498            4 
  799000    0.9330681   -7.1052603    270.62995  0.028225902  0.028426107            7 
  800000   0.91964007   -7.1289927    270.88891  0.028217595   0.02840705            3 
  801000   0.93082417   -7.1305506    270.44249  0.028135922  0.028388015            3 
  802000   0.93227422   -7.1292002    271.16529  0.028175944  0.028368938            3 
  803000   0.94357955   -7.1164613    271.44297  0.028169673  0.028349963            2 
  804000   0.92447439   -7.1133658    271.41772  0.028132019  0.028331049            2 
  805000   0.94548736   -7.0891697    272.07168   0.02816477  0.028312658            1 
  806000   0.93753259   -7.0950724    272.82456  0.028207668  0.028294068            4 
  807000   0.93063745   -7.1302267    272.64065  0.028153723  0.028275224            4 
  808000   0.92615278   -7.1288585    272.61528  0.028116262  0.028256471            6 
  809000   0.94401169    -7.135394    272.53424   0.02807316  0.028237706            3 
  810000   0.92735221   -7.1573539    272.56788  0.028041963  0.028219082            3 
  811000   0.93933622   -7.1405042    272.64852  0.028015672  0.028200419            4 
  812000   0.93563282   -7.1037116    273.15337  0.028032982  0.028181772            5 
  813000    0.9423004   -7.1348235    272.95434  0.027978099  0.028163206            4 
  814000   0.94965393   -7.1199003    273.23466  0.027972427  0.028144512            2 
  815000   0.92795869    -7.127869     273.0005  0.027914161  0.028125589            4 
  816000   0.94313552   -7.1122612    274.13182  0.027995488   0.02810689            3 
  817000   0.93284668    -7.104195    273.70173  0.027917353  0.028088253            4 
  818000   0.92926357   -7.1135629    273.99301  0.027912898  0.028069583            3 
  819000   0.92203047   -7.1348382    274.28194  0.027908215  0.028051099            4 
  820000   0.92197102   -7.1176306     275.0132  0.027948496  0.028032685            4 
  821000   0.92015372    -7.141077    274.78535  0.027891326  0.028014203            1 
  822000   0.91653905   -7.1043657     275.5084  0.027930697  0.027995713            3 
  823000     0.937194   -7.1603826    275.05965  0.027851322  0.027977165            3 
  824000   0.92900664   -7.1535255    275.85716  0.027898175  0.027958571            2 
  825000    0.9273759   -7.1730917    275.80576  0.027859168  0.027940037            5 
  826000   0.93534032   -7.1385199    275.88184  0.027833115  0.027921708            2 
  827000   0.91988619   -7.1131278    276.65162  0.027877028  0.027903603            5 
  828000   0.92607833   -7.1513291    276.01735  0.027779524   0.02788543            1 
  829000   0.93404264   -7.1011555    276.69572  0.027814205  0.027867173            5 
  830000   0.92965675   -7.1235006    275.89459   0.02770026  0.027848816            9 
  831000   0.89967745   -7.1476465     276.3766  0.027715262  0.027830125            6 
  832000   0.91811246   -7.1710406    276.44034  0.027688335  0.027811679            2 
  833000   0.90928657   -7.1407336    277.21558  0.027732651  0.027793532            3 
  834000   0.92556699   -7.1205748    277.79883  0.027757677  0.027775334            3 
  835000   0.91359548   -7.1435385    277.48112  0.027692726  0.027757328            5 
  836000   0.91796837   -7.1208167    277.75104  0.027686507  0.027739444            3 
  837000   0.94884389   -7.1774371    277.54283    0.0276327  0.027721363            1 
  838000   0.93222997   -7.1563913    277.75666  0.027620988  0.027703358            2 
  839000   0.91801018   -7.1683359    278.24818  0.027636887  0.027685316            6 
  840000   0.94082232   -7.1528841    278.15872  0.027595111  0.027667065            4 
  841000   0.91380453   -7.1451456    277.85818  0.027532519  0.027648791            2 
  842000   0.89118497    -7.149084    278.06957  0.027520741  0.027630546            6 
  843000   0.92472786   -7.1644369    277.71342  0.027452888  0.027612179            5 
  844000   0.90331116   -7.1720405    278.53177  0.027501163  0.027593823            6 
  845000    0.9221716   -7.1535624    279.03191   0.02751794  0.027575539            5 
  846000   0.90412832    -7.149901    279.53633    0.0275351  0.027557541            2 
  847000   0.89955668   -7.1636318    278.35156  0.027386025  0.027539455            3 
  848000   0.93281063   -7.1517093    279.62632  0.027479002  0.027521364            4 
  849000   0.90542538   -7.1572616    279.75621  0.027459385  0.027503379            6 
  850000   0.90171686   -7.1638926    279.81551  0.027432893  0.027485296            5 
  851000    0.9229956   -7.1411614    280.47416  0.027465155  0.027467277            6 
  852000   0.89021646   -7.1593657    280.47039   0.02743255  0.027449327            2 
  853000   0.93316431   -7.1804034    279.87388  0.027342115  0.027431461            3 
  854000   0.91917435   -7.1416083    281.14526  0.027434158  0.027413595            2 
  855000   0.89893834   -7.1528218     280.6559  0.027354377  0.027395645            3 
  856000   0.90378268     -7.14352     280.2025   0.02727828    0.0273777            6 
  857000   0.90572175   -7.1769194    281.47131  0.027369828  0.027359816            2 
  858000   0.89926704   -7.1288152    281.18994    0.0273106  0.027341856            4 
  859000   0.91895566   -7.1940683    281.32185  0.027291603  0.027324152            3 
  860000   0.90739742   -7.1641134    281.74136  0.027300519  0.027306509            5 
  861000   0.91006831   -7.1353923    281.85522  0.027279831  0.027288848            8 
  862000   0.90750629   -7.1680545    282.17775  0.027279365  0.027271174            2 
  863000   0.90382751   -7.1685304    282.42059  0.027271205  0.027253582            8 
  864000   0.90309382   -7.1726042    281.93222  0.027192537  0.027236007            3 
  865000   0.89343396   -7.1706399     282.4474  0.027210732  0.027218396            4 
  866000   0.92461581   -7.1593335      282.583  0.027192359  0.027200897            2 
  867000   0.92150183   -7.1679423    283.25219  0.027225316  0.027183408            2 
  868000   0.91140487    -7.142776    284.01822  0.027267494  0.027166237            2 
  869000   0.91618726    -7.190101    283.37788  0.027174711  0.027148949            3 
  870000   0.90152533   -7.1643583    284.12311  0.027214857  0.027131704            5 
  871000   0.91789905   -7.1708767    283.57748  0.027131408  0.027114429            2 
  872000   0.88204215   -7.1561817    284.20131  0.027159911  0.027097068            5 
  873000   0.89737925   -7.1973395    284.33184   0.02714126   0.02707985            3 
  874000   0.89521132   -7.1576074    284.52324  0.027128455  0.027062492            3 
  875000   0.91814108   -7.1369147     284.4269  0.027088276  0.027045288            7 
  876000    0.9086315   -7.1851753    285.00149  0.027112014  0.027028126            3 
  877000   0.88716582   -7.1916132    284.89972  0.027071429  0.027010838            4 
  878000   0.90586268   -7.2139322    284.43888  0.026996857  0.026993619            6 
  879000   0.91826415   -7.1497129    284.81477   0.02700178  0.026976276            7 
  880000   0.91204598   -7.1732852    284.80355  0.026970033   0.02695897            7 
  881000   0.89726442   -7.1867594    284.99414  0.026957448  0.026941471            4 
  882000    0.9187377   -7.1716606    285.62912  0.026986878  0.026923779            2 
  883000   0.88709028   -7.1961094    285.43827  0.026938304  0.026906033            4 
  884000   0.89463052   -7.2075656    284.66039  0.026834501  0.026888205            2 
  885000   0.90548949   -7.1984549    285.27765  0.026862302  0.026870194            4 
  886000   0.87093491   -7.1834831    285.21698  0.026826278  0.026852246            5 
  887000   0.90597848   -7.1663378    285.47163  0.026819957  0.026834362            8 
  888000   0.88256737   -7.2288068    284.85721  0.026732095  0.026816443            3 
  889000   0.89606068   -7.1470316     286.5331  0.026859121  0.026798574            3 
  890000    0.8938153   -7.2166055    285.14288  0.026698772  0.026780676            4 
  891000   0.92052133   -7.1913255    285.00757  0.026656151   0.02676259            2 
  892000    0.8890904   -7.2412192    285.70855  0.026691755  0.026744482            3 
  893000   0.89652583   -7.1819613    286.83408  0.026766898   0.02672645            3 
  894000   0.91185317   -7.2055199    286.20757  0.026678558  0.026708604            8 
  895000   0.89727852   -7.1946605    286.90031   0.02671325  0.026690845            4 
  896000   0.87573088   -7.2165818    286.69413  0.026664261  0.026673048            3 
  897000   0.90949547   -7.1753345    287.51592  0.026710881  0.026655053            9 
  898000   0.88814213   -7.2032884    286.33466  0.026571516  0.026637191            3 
  899000   0.86804478   -7.1876022     286.5409  0.026561077  0.026619322            4 
  900000   0.90367387   -7.2020354    287.18218  0.026590943  0.026601365            3 
  901000   0.89340375   -7.2032446    287.33669   0.02657572  0.026583452            3 
  902000   0.92260373   -7.2032257    287.48011  0.026559508  0.026565629            2 
  903000   0.91851184   -7.2192179    288.19742  0.026596292  0.026547807            2 
  904000   0.90277175   -7.1974235    288.14607  0.026562138  0.026530039            4 
  905000   0.88661458   -7.2117161    288.43877  0.026559739  0.026512325            4 
  906000   0.90441164   -7.2163097    288.16446  0.026505193  0.026494544            2 
  907000   0.89874092   -7.2011808    288.34184  0.026492268  0.026476888            2 
  908000   0.90822134   -7.2273585    288.28663  0.026458024  0.026459134            5 
  909000   0.87475998   -7.2287492    288.06309  0.026408424  0.026441156            3 
  910000    0.8754891   -7.2139565    288.33204  0.026404033  0.026423228            2 
  911000   0.90892509   -7.1974336    288.78429  0.026416419  0.026405451            4 
  912000   0.88610598   -7.2204683    288.80915  0.026389725  0.026387502            5 
  913000   0.86211266   -7.2231206     288.2952  0.026313911  0.026369582            3 
  914000   0.90339591   -7.1964832    288.53951  0.026307395  0.026351711            3 
  915000   0.89435067   -7.2369038    288.64824  0.026288546  0.026333926            5 
  916000   0.89335746   -7.2180375    288.34515  0.026232274  0.026315884            4 
  917000    0.8850808   -7.2495714    288.98877  0.026262156  0.026297816           13 
  918000   0.88778601    -7.187092    289.30857  0.026262579  0.026280118            4 
  919000    0.9025364   -7.2092224    289.77195   0.02627602   0.02626224            2 
  920000   0.89894054   -7.1941439    289.17912  0.026193761  0.026244361            6 
  921000   0.86061122   -7.2123017    289.97625  0.026237446  0.026226454            2 
  922000   0.89954132   -7.2137029    290.27358  0.026235862  0.026208518            5 
  923000   0.88361062   -7.2173608    290.19751   0.02620057  0.026190688            5 
  924000    0.8894483   -7.2084256    290.58603  0.026207254    0.0261728            8 
  925000   0.88761361   -7.1849438    290.78014  0.026196409  0.026155128            5 
  926000   0.89942971    -7.190199     290.5424  0.026146724  0.026137462            3 
  927000   0.90737164   -7.2011581    291.14903  0.026173052  0.026119831            4 
  928000   0.86131532   -7.2254586    290.35007  0.026073103  0.026102123            3 
  929000   0.87625642   -7.2116744    291.28648  0.026129035  0.026084211            5 
  930000    0.8795897   -7.2409768    290.31706  0.026014073   0.02606633            4 
  931000   0.88200872    -7.207233    291.10987  0.026057095  0.026048295            4 
  932000     0.870412   -7.2182197    291.22603  0.026039523  0.026030339            4 
  933000   0.88803234   -7.2475551    291.38543  0.026025851  0.026012582            3 
  934000   0.87989579   -7.2316564    291.93047  0.026046616  0.025994896            5 
  935000   0.88585585   -7.2489271    292.22768  0.026045248  0.025977268            4 
  936000   0.86683196   -7.2315999    292.00008  0.025997158  0.025959713            4 
  937000   0.85952331   -7.2407543    291.44208  0.025919786  0.025941983            5 
  938000   0.88080069   -7.1990286    291.58562  0.025904906   0.02592421            6 
  939000   0.88130395   -7.2550775    291.65315  0.025883311  0.025906305            4 
  940000   0.86840298   -7.2536447    291.44183  0.025837042  0.025888354            4 
  941000   0.88837473   -7.2134629    292.27758  0.025883597  0.025870356            3 
  942000   0.88535665    -7.220741    292.21264  0.025850375  0.025852493            3 
  943000   0.86671944   -7.2300521    293.23964  0.025913719  0.025834662            3 
  944000   0.88649756   -7.2462403    292.91288  0.025857423  0.025816982            5 
  945000   0.87647026   -7.2371634    292.09536  0.025757968  0.025799396            3 
  946000   0.86702781   -7.2432882    292.98286   0.02580892  0.025781891            5 
  947000    0.8941282   -7.2334263     292.9755  0.025781019  0.025764327            6 
  948000   0.86531004   -7.2488403    292.91593  0.025748587  0.025746645            6 
  949000   0.88879304   -7.2416105    294.09081  0.025824624  0.025729228            5 
  950000   0.85544181   -7.2606922    294.26859  0.025813034  0.025711855            6 
  951000   0.86210834   -7.2424733    293.71917  0.025737747  0.025694483            2 
  952000   0.87264489   -7.2375279    293.42989   0.02568539  0.025677144            3 
  953000    0.8687163   -7.2457769    294.87807  0.025785071  0.025659552            3 
  954000   0.86018997   -7.2546881    293.77917  0.025662052  0.025642034            3 
  955000   0.86439998   -7.2533778    294.29393  0.025680099   0.02562458            3 
  956000    0.8599683   -7.2434579    294.34636  0.025657807   0.02560714            6 
  957000   0.87454945   -7.2441826    294.75746  0.025666794  0.025589739            7 
  958000   0.87314921   -7.2625461    294.98453  0.025659754   0.02557244            3 
  959000   0.87912742   -7.2577305    295.01904  0.025635996  0.025555139            4 
  960000   0.88814909    -7.232372    295.44784  0.025646514  0.025537784            4 
  961000   0.88314991   -7.2666205    295.31534  0.025608337  0.025520524            2 
  962000   0.86532167   -7.2293112    294.61301  0.025520878  0.025503139            3 
  963000   0.86338586   -7.2337222    295.40657  0.025563047  0.025485672            7 
  964000   0.87990728   -7.2346728    295.68144   0.02556029  0.025468363            7 
  965000   0.87121411   -7.2703006    295.26771  0.025498075  0.025451086            5 
  966000   0.87863698   -7.2564988    295.35993  0.025479635  0.025433725            4 
  967000   0.85884344   -7.2486512    295.54084  0.025468876  0.025416403            3 
  968000    0.8703844    -7.299128    295.07633  0.025402576  0.025399072            9 
  969000   0.86283312    -7.293643    295.97716  0.025453833  0.025381652            7 
  970000   0.86867565   -7.2749227    295.80982  0.025413214  0.025364108            5 
  971000   0.87076428   -7.2460688     296.3028  0.025429351  0.025346566           10 
  972000   0.87128275   -7.2489346    296.21898  0.025396003  0.025329073            2 
  973000   0.88157154   -7.2730881      296.667  0.025408274  0.025311673            4 
  974000   0.88243392   -7.2916579     295.2035  0.025256973  0.025294213            6 
  975000   0.86078835   -7.2513723    295.61005  0.025265816  0.025276758            8 
  976000   0.86614226   -7.2576615    296.38154  0.025305801  0.025259391            4 
  977000   0.87889559   -7.3023602    296.46894  0.025287355  0.025241893            3 
  978000   0.86689102   -7.2648291    296.96394  0.025303676  0.025224333            3 
  979000   0.85048437   -7.2538834    296.05577  0.025200525  0.025206907            3 
  980000    0.8378661   -7.2761395    297.27475  0.025278465  0.025189421            4 
  981000    0.8698106   -7.2749479    296.86249  0.025217676   0.02517199            4 
  982000   0.86174481   -7.2851904    297.02921  0.025206145  0.025154524            4 
  983000    0.8681783   -7.2682114    297.53242  0.025223162  0.025137134            5 
  984000    0.8583097   -7.2784948    297.38351  0.025184918  0.025119716            7 
  985000   0.87258065    -7.279499    297.15009  0.025139602  0.025102307            3 
  986000   0.86451839    -7.276513    297.79442  0.025168561  0.025084869            3 
  987000   0.84371801   -7.3005678    296.79546  0.025058718  0.025067319            3 
  988000   0.87203599   -7.3208653     297.2558  0.025072183  0.025049957            4 
  989000   0.85294819   -7.3183481    297.54386  0.025071104   0.02503255            3 
  990000   0.88160809    -7.285043    297.70934  0.025059709  0.025015147            3 
  991000   0.85207231   -7.2742269    298.41042  0.025093376   0.02499752            5 
  992000    0.8585445   -7.2749519     297.8139  0.025017968  0.024979917            6 
  993000   0.87067994   -7.3019709    297.44824  0.024962088  0.024962112           13 
  994000   0.86009203    -7.277009    297.70397  0.024958415  0.024944396            8 
  995000   0.86307744   -7.2592856    298.04593   0.02496197  0.024926707            6 
  996000   0.87922781   -7.3016335    298.92002  0.025010041  0.024909206            5 
  997000   0.85978783   -7.2865354    298.17596  0.024922765  0.024891557            4 
  998000   0.85089821   -7.3089828     298.4245  0.024918546     0.024874            8 
  999000   0.87197223   -7.2621168    298.69841   0.02491645  0.024856436            4 
 1000000   0.84174419   -7.2508667    299.12792  0.024927326  0.024838987            8 
 1001000   0.84528163   -7.2704204    299.76091  0.024955121  0.024821639            4 
 1002000   0.83192685    -7.288128    299.82665  0.024935683  0.024804222            2 
 1003000   0.86691159   -7.3098952    298.88259  0.024832385  0.024786842            3 
 1004000   0.84249417   -7.3068803    298.91404  0.024810262  0.024769452            5 
 1005000   0.86643998   -7.2774662    299.25018  0.024813447  0.024752012            4 
 1006000   0.85250309   -7.3120813     299.3407  0.024796281  0.024734535            5 
 1007000   0.85418534   -7.2705668    299.15258  0.024756089  0.024717143            8 
 1008000   0.84898282   -7.2905093    298.75877  0.024698972  0.024699735            6 
 1009000   0.84698623   -7.2997365    298.56301  0.024658326  0.024682194            4 
 1010000   0.85351368   -7.2968509    299.65953  0.024724383  0.024664728            5 
 1011000   0.86485914   -7.3276353    298.99881  0.024645467  0.024646983            2 
 1012000   0.84131523   -7.3293895    299.64974  0.024674715  0.024629234            2 
 1013000   0.82859506   -7.2905443    299.61042  0.024647123  0.024611628            7 
 1014000   0.84344585   -7.2814452    300.57943  0.024702452  0.024594091            2 
 1015000   0.87174609   -7.2956177    300.13645  0.024641744  0.024576537            3 
 1016000   0.84330062   -7.2782537    299.89184  0.024597428  0.024559055            2 
 1017000   0.85587328   -7.3073223    299.87435  0.024571809  0.024541439            7 
 1018000   0.85652473   -7.3339401    299.37093  0.024506462  0.024523769            5 
 1019000   0.84954397   -7.3199908    300.01873  0.024535389  0.024506094            2 
 1020000   0.84909728   -7.3162071    300.28784   0.02453332  0.024488533            4 
 1021000   0.84443572   -7.3086984    299.67514  0.024459283  0.024470772            3 
 1022000   0.82683396   -7.3172523    300.30246  0.024486502   0.02445296            4 
 1023000   0.83777633   -7.3077609    300.20782  0.024454857  0.024435104            2 
 1024000   0.84761824    -7.303792    299.50251  0.024373577  0.024417124            4 
 1025000   0.84906131    -7.313106     300.4009  0.024422837  0.024399254            7 
 1026000   0.84766021   -7.3365889    300.50791  0.024407725  0.024381397            3 
 1027000   0.84866934   -7.3036539    299.84229  0.024329949  0.024363699            6 
 1028000    0.8428159   -7.2971954    300.69267  0.024375216  0.024346033            3 
 1029000   0.85263284   -7.3178714    301.37456  0.024406751  0.024328453            6 
 1030000   0.84501813   -7.3157788    300.77273  0.024334364  0.024310784            6 
 1031000   0.85402728    -7.343556    301.58989   0.02437681  0.024293219            2 
 1032000   0.83901367   -7.3337888    301.36289  0.024334859  0.024275648            3 
 1033000   0.84715849   -7.3174863    301.77615  0.024344639   0.02425818            4 
 1034000   0.83440384   -7.3121021    301.76481  0.024320181  0.024240742            2 
 1035000   0.82378689   -7.3369451    301.35584  0.024263755  0.024223444            8 
 1036000   0.85242835   -7.3440672    302.11995  0.024301798  0.024206208            3 
 1037000   0.85849701   -7.3335394    302.53879  0.024312021   0.02418891            4 
 1038000   0.83667075   -7.3303045    301.49962  0.024205172  0.024171581            4 
 1039000    0.8502929   -7.3120541    302.43359  0.024256785  0.024154245            2 
 1040000   0.83937321   -7.2982741    303.18831  0.024293935  0.024136921            3 
 1041000   0.84114398   -7.3081942    302.56531  0.024220726  0.024119665            5 
 1042000   0.83425339   -7.2823595    303.76477  0.024293408  0.024102476            6 
 1043000   0.83396134   -7.3100147    303.05065  0.024213059  0.024085208            2 
 1044000   0.83784568   -7.3067068     302.2952  0.024129566  0.024067846            3 
 1045000    0.8389578    -7.352658    302.78953  0.024145896  0.024050519            3 
 1046000   0.83126156   -7.3542114    303.31746  0.024164871  0.024033262            3 
 1047000    0.8245941   -7.3056186    302.82564  0.024102646  0.024015993            3 
 1048000   0.84433866   -7.3148662    303.01848  0.024094981  0.023998942            4 
 1049000    0.8254299   -7.3109071    302.53727  0.024033783  0.023981736            5 
 1050000   0.84324501   -7.3027751    303.54014  0.024090487  0.023964647            3 
 1051000   0.85160703   -7.3273841    303.31206  0.024049481   0.02394746            3 
 1052000   0.84509715   -7.3476535    303.58172  0.024047981  0.023930415            4 
 1053000   0.82431115    -7.315588    303.44686  0.024014472  0.023913295            5 
 1054000   0.85637211   -7.3366349    303.66656  0.024009057  0.023896112            4 
 1055000   0.82021657   -7.3531887    303.35122  0.023961391  0.023878826            4 
 1056000   0.82808963   -7.3393102    303.92657  0.023984105   0.02386158            5 
 1057000   0.81934972   -7.3417216    304.56087  0.024011422  0.023844321            4 
 1058000   0.83475965   -7.3452546    304.28505  0.023967002  0.023827245            2 
 1059000   0.83596136   -7.3038013    304.52635  0.023963358  0.023810155            4 
 1060000   0.83024146   -7.3336263    304.43184  0.023933321  0.023793177            4 
 1061000    0.8452675   -7.3298654    304.53188  0.023918621  0.023776072            5 
 1062000   0.83074861   -7.3579985    304.19982  0.023870042  0.023759009            4 
 1063000   0.82271838   -7.3437972     304.8765  0.023900635  0.023742002           11 
 1064000   0.81686128   -7.3434258    304.83356  0.023874809  0.023725029            3 
 1065000   0.82537592   -7.3431546    304.56077  0.023831046  0.023708101            4 
 1066000    0.8229291   -7.3534524    304.18015  0.023778936  0.023691114            6 
 1067000   0.83840653   -7.3482516    305.44506  0.023855441  0.023674077            7 
 1068000   0.83160553   -7.3689692     305.4776  0.023835643  0.023657061            4 
 1069000   0.82255776   -7.3531871     305.3085  0.023800164  0.023640182            4 
 1070000   0.81438826    -7.350425    305.21952   0.02377099  0.023623251            3 
 1071000   0.83814356   -7.3687855    304.82898  0.023718408  0.023606237            3 
 1072000   0.81142599   -7.3652454    305.85014  0.023775664  0.023589146            4 
 1073000   0.82354214   -7.3559486    305.68719  0.023740851  0.023572023            3 
 1074000    0.8051087   -7.3530424    305.64016  0.023715096  0.023554922            6 
 1075000   0.81336952   -7.3314681     305.7541  0.023701868  0.023537971            4 
 1076000   0.82204876   -7.3465068    305.59186  0.023667276  0.023520999            5 
 1077000   0.82436212   -7.3677055    305.48838  0.023637294  0.023503889            3 
 1078000   0.82687097   -7.3643517    305.23508  0.023595786  0.023486772            5 
 1079000   0.82189746    -7.371174    304.94772  0.023551724   0.02346958            6 
 1080000   0.82506154    -7.346865    305.74831   0.02359169  0.023452471            7 
 1081000   0.81746381   -7.3622906    306.35776  0.023616848  0.023435505            5 
 1082000   0.83298982   -7.3693005    305.91084  0.023560601  0.023418472            6 
 1083000   0.82088466   -7.3383565     306.2862  0.023567729  0.023401437            2 
 1084000   0.81912181   -7.3677402    305.81662  0.023509888  0.023384412            6 
 1085000   0.81895054   -7.3538231    306.63038  0.023550721  0.023367378            3 
 1086000   0.83424385   -7.3390216    306.13607  0.023491104  0.023350321            3 
 1087000    0.8204236   -7.3355265    306.40286  0.023489947  0.023333265            5 
 1088000   0.82760319   -7.3405439     306.4653  0.023473139  0.023316208            6 
 1089000   0.85050402   -7.3654805     306.2569  0.023435637  0.023299138            5 
 1090000   0.81629103    -7.340943    306.78805  0.023454744  0.023282081           10 
 1091000   0.82254666   -7.3433651    306.54759  0.023414878  0.023265241            7 
 1092000    0.8245821   -7.3401143    306.53709  0.023392635  0.023248331            7 
 1093000    0.8109648   -7.3781102    307.03581  0.023409256  0.023231354            4 
 1094000   0.83513931   -7.3820512    307.30244  0.023408168  0.023214388            6 
 1095000   0.82444331   -7.3885519    306.32883  0.023312696  0.023197463            3 
 1096000    0.8402114   -7.3854192    306.84062  0.023330339  0.023180544            6 
 1097000   0.80927402    -7.389207    306.92427  0.023315427  0.023163596            4 
 1098000   0.80735533   -7.3584883    307.53559  0.023340588  0.023146762            2 
 1099000   0.82136639   -7.3698005    306.85017  0.023267377  0.023129942            8 
 1100000   0.84043033   -7.3770343    307.73545  0.023313292  0.023113138            3 
 1101000   0.81495006   -7.3636634    308.16557  0.023324672  0.023096384            2 
 1102000   0.80734056   -7.3440868    308.68438  0.023342739  0.023079711            4 
 1103000   0.81096744   -7.3735594    307.80152  0.023254874  0.023063095            5 
 1104000   0.79344389   -7.3912906    308.61467   0.02329519   0.02304653            3 
 1105000   0.79905898   -7.3911516    308.45965  0.023262417  0.023029972            5 
 1106000   0.82190717   -7.3838344     308.3998  0.023236875  0.023013306            4 
 1107000   0.80754922   -7.3663841    308.23627  0.023203573  0.022996702            5 
 1108000   0.81327798   -7.3643808    308.45292  0.023198926  0.022980097            2 
 1109000   0.79045326   -7.3714818    308.19102  0.023158327  0.022963452            3 
 1110000   0.79632397   -7.3930511    309.26707  0.023218249  0.022946812            8 
 1111000   0.80897707   -7.3845706    308.05282  0.023106272  0.022930108            7 
 1112000   0.81436999   -7.3775437    308.66064  0.023131043  0.022913574            7 
 1113000   0.80569166   -7.3732536    309.50251  0.023173294  0.022897013            6 
 1114000   0.80629568   -7.3853455    309.34936  0.023141035  0.022880335            6 
 1115000   0.80901561   -7.3996414    308.27107  0.023039691  0.022863696            3 
 1116000   0.81783257   -7.4026009    308.67751  0.023049396  0.022846945            4 
 1117000   0.80983094    -7.370798     308.6317  0.023025344   0.02283016            3 
 1118000   0.82404467   -7.3804213     309.0356  0.023034854  0.022813441           10 
 1119000   0.77339705   -7.3862591    308.37721  0.022965237   0.02279676            7 
 1120000   0.80812546   -7.4145692    308.28873  0.022938149  0.022779967            7 
 1121000   0.79040516   -7.3762333    309.14199  0.022981118  0.022763328            7 
 1122000   0.82161391   -7.3723945    309.41071  0.022980593  0.022746676            3 
 1123000   0.80699958   -7.3872551    308.53732  0.022895319  0.022729949            3 
 1124000   0.80309566   -7.4118531    308.80576  0.022894852  0.022713191            5 
 1125000   0.80633459   -7.4051246    309.60605  0.022933781   0.02269641            2 
 1126000   0.80767034   -7.4231756    309.28564  0.022889701  0.022679532            2 
 1127000   0.80980655   -7.4124378    309.12704  0.022857664  0.022662829            4 
 1128000   0.80060506   -7.3956582    309.07855  0.022833817  0.022646111            4 
 1129000   0.79009553   -7.3977961     309.3515  0.022833739  0.022629368            4 
 1130000   0.80327308   -7.3981411    310.27589  0.022881703  0.022612741            2 
 1131000   0.81305112   -7.4038746    309.92337  0.022835498  0.022596138            8 
 1132000   0.80962769   -7.3903669    309.26228  0.022766658   0.02257959            6 
 1133000   0.78228159   -7.3979259    309.81567  0.022787266  0.022562972            6 
 1134000   0.79525768   -7.3723197    309.72565  0.022760556  0.022546452            8 
 1135000   0.80349826    -7.408552    310.68953  0.022811272  0.022530002            4 
 1136000   0.81030854   -7.3923979    310.58998  0.022783889  0.022513543            3 
 1137000   0.80889972   -7.4105004    309.93942   0.02271617  0.022497096            3 
 1138000   0.80053431   -7.3999688    310.48298  0.022736012  0.022480672            6 
 1139000    0.7988877   -7.4091535    310.63841  0.022727423  0.022464291            3 
 1140000    0.7995438   -7.3825408    311.03331  0.022736353  0.022447789            2 
 1141000   0.79131301    -7.392295     310.5821  0.022683472  0.022431373            8 
 1142000   0.80493877    -7.387351    311.32637   0.02271792  0.022414925            3 
 1143000    0.7906634   -7.4286424    310.39652  0.022630251  0.022398452           13 
 1144000   0.79103454   -7.4111663    311.21523  0.022670107  0.022381847            5 
 1145000   0.79975003   -7.4211878    310.35456  0.022587668  0.022365301            8 
 1146000   0.80383668   -7.4323258    310.04859  0.022545709  0.022348728            5 
 1147000   0.79569551   -7.4188529    310.92516  0.022589738    0.0223322            8 
 1148000    0.7911349   -7.4045463    311.10038   0.02258278  0.022315765            5 
 1149000   0.80054936   -7.4393247    311.10146  0.022563204  0.022299386            7 
 1150000   0.79019453    -7.420234    311.19076  0.022550055  0.022282962            4 
 1151000   0.80163359   -7.4100012    311.68932  0.022566559  0.022266476            5 
 1152000   0.78306786   -7.3971873    311.45809  0.022530244  0.022250015            4 
 1153000   0.78616974   -7.4156882    311.43163  0.022508791  0.022233573            5 
 1154000   0.80348981   -7.3832453    311.81605  0.022517046  0.022217129            4 
 1155000   0.81714004   -7.4261393    310.78097   0.02242287  0.022200591            4 
 1156000   0.78579032    -7.418303    310.93641  0.022414678  0.022184118            4 
 1157000   0.79266484   -7.4629163    310.54862  0.022367374  0.022167634            4 
 1158000   0.77557577   -7.4449526    311.60273  0.022423916  0.022151221            2 
 1159000   0.78538157   -7.4400747     311.2836  0.022381622  0.022134891            7 
 1160000   0.79133948   -7.3987978    312.05947  0.022418065   0.02211859           11 
 1161000   0.76685628   -7.3913977    312.41185  0.022424049  0.022102315            7 
 1162000   0.78412304   -7.4210794    311.37249  0.022330213  0.022085982           11 
 1163000   0.80368979   -7.4151056    312.40337  0.022384879  0.022069624            3 
 1164000   0.79174129   -7.4093787    311.55607  0.022304988  0.022053308            2 
 1165000   0.77899098   -7.4346977    311.83696  0.022305934  0.022037102            5 
 1166000   0.78267039   -7.3951306    312.93717  0.022365435  0.022020965            5 
 1167000   0.79140738   -7.4169946    312.09671  0.022286255  0.022004871            5 
 1168000   0.78762099   -7.4053373    312.37076  0.022286727  0.021988844            7 
 1169000   0.78560611   -7.4080954    312.55288  0.022280645   0.02197272           10 
 1170000    0.7773528   -7.4746282    312.08179  0.022228048  0.021956467            5 
 1171000   0.76938923   -7.4611914    312.04641  0.022206548  0.021940148            4 
 1172000   0.76854968   -7.4432271     311.8581  0.022174211  0.021923785            6 
 1173000   0.78445433   -7.4510643    311.82931  0.022153261  0.021907518            2 
 1174000   0.78086503   -7.4654279    313.02628  0.022219355  0.021891357            7 
 1175000    0.7862782   -7.4382991    313.44982  0.022230484  0.021875287            5 
 1176000   0.79099934   -7.4396114    312.69683  0.022158222  0.021859117            4 
 1177000   0.78784103   -7.4708104    312.87109  0.022151734  0.021842983            5 
 1178000   0.79148416   -7.4121861    313.40628   0.02217079  0.021826871            8 
 1179000   0.78241922   -7.4568032    312.58284  0.022093783  0.021810709            7 
 1180000   0.77453245   -7.4570697    313.49346  0.022139369  0.021794643            4 
 1181000   0.78541197   -7.4135997     313.6984  0.022135083  0.021778583            4 
 1182000    0.7872994    -7.457686    313.05251   0.02207082  0.021762541            2 
 1183000   0.76783523   -7.4479844    313.59476  0.022090361  0.021746377            4 
 1184000   0.76773411   -7.4365575    313.49631  0.022064774  0.021730235            5 
 1185000   0.77351658   -7.4557786     313.3718  0.022037398   0.02171409           10 
 1186000    0.7857947    -7.460864    313.46685  0.022025495  0.021698012            9 
 1187000   0.78280455   -7.4646585    313.43435  0.022004658  0.021681892            6 
 1188000   0.77720504   -7.4331021    312.99122  0.021955052  0.021665799           13 
 1189000   0.78174229   -7.4334447    314.45048  0.022038862  0.021649689            5 
 1190000   0.78265399   -7.4476624    313.42357  0.021948429   0.02163361            6 
 1191000     0.777284    -7.454756    313.53346  0.021937689  0.021617406            4 
 1192000    0.7910663   -7.4598553    313.63568  0.021926432  0.021601214            5 
 1193000   0.77353894   -7.4604511    313.93763  0.021929144  0.021585123            2 
 1194000   0.78708527   -7.4563552    313.49205  0.021879679  0.021569081            2 
 1195000   0.77713839   -7.4505583    313.47267  0.021860019  0.021553021            4 
 1196000   0.77135118   -7.4460471    313.82906  0.021866573  0.021536941            5 
 1197000    0.7594813   -7.4740831    314.05384  0.021863954   0.02152089            4 
 1198000   0.76748228   -7.4636846    313.71676  0.021822257  0.021504858            3 
 1199000   0.78534297   -7.4658566    313.51546  0.021790065  0.021488896            8 
 1200000   0.77678886   -7.4274076    313.52827  0.021772796  0.021472908           10 
 1201000   0.77795305   -7.4479629    314.05383  0.021791134  0.021456928            3 
 1202000    0.7548565   -7.4744553    314.27473   0.02178832  0.021440988            5 
 1203000   0.78702511   -7.4564403    314.20196  0.021765167  0.021425068            7 
 1204000   0.78071403   -7.4818135    313.58155  0.021704149  0.021409171            6 
 1205000   0.76995288   -7.4746491    313.94511   0.02171128  0.021393292            4 
 1206000   0.77977136   -7.4791836    314.48685  0.021730711  0.021377415            6 
 1207000   0.78319057    -7.468835    314.38776  0.021705866  0.021361472            5 
 1208000   0.77726834   -7.4590866    314.45594  0.021692601  0.021345498            5 
 1209000   0.76785152   -7.4643972    314.22375  0.021658654   0.02132958            8 
 1210000    0.7632335   -7.4732657    314.12176   0.02163373  0.021313692            6 
 1211000   0.78864697   -7.4768337     314.4157  0.021636093  0.021297822            6 
 1212000   0.78354388   -7.4662476    314.97907  0.021656977  0.021281928            7 
 1213000   0.78018346   -7.4574367    314.36469  0.021596914  0.021266056            5 
 1214000   0.77604578    -7.490856    314.64791  0.021598566  0.021250197            5 
 1215000   0.75038855   -7.4723459    314.96969  0.021602859  0.021234324            3 
 1216000   0.76885036   -7.4845008    315.08798  0.021593201  0.021218478            8 
 1217000   0.75939539   -7.4877107    314.45945  0.021532419  0.021202632            9 
 1218000   0.77704274   -7.4812678    315.01813  0.021552965  0.021186885            3 
 1219000   0.77357991   -7.5026738    315.39417  0.021560991  0.021171114            4 
 1220000   0.76917073   -7.5149894    314.48678  0.021481338  0.021155261            4 
 1221000   0.77272219   -7.4972639    315.19666  0.021512193  0.021139462            5 
 1222000   0.76833836   -7.4811856     315.1587  0.021492001  0.021123653            4 
 1223000   0.78451881   -7.4853694    315.35055    0.0214875  0.021107878            5 
 1224000   0.76468054   -7.4945013    315.16343  0.021457205  0.021092142            5 
 1225000   0.76464748   -7.4995159    315.12164  0.021436846    0.0210764            4 
 1226000   0.76752965   -7.4788125     315.5679  0.021449694  0.021060732            6 
 1227000   0.76303847   -7.5067964    315.82241  0.021449498  0.021045154           10 
 1228000   0.77324147   -7.4989186    315.73485  0.021426089  0.021029593            7 
 1229000   0.75475953   -7.5053259    315.22599  0.021374151  0.021013964            5 
 1230000    0.7565832   -7.4650455    315.26711   0.02135956  0.020998249            5 
 1231000   0.76840117   -7.4977725    316.31233  0.021412966  0.020982664            5 
 1232000   0.75612374   -7.5223836      316.238  0.021390557  0.020967143            4 
 1233000    0.7514845   -7.5273843    315.73048  0.021338908  0.020951615            3 
 1234000   0.76768621    -7.494842    316.02677  0.021341624  0.020936046            3 
 1235000   0.75510788   -7.4831631    316.59172  0.021362464  0.020920511            4 
 1236000   0.76050039   -7.5073709    316.49329  0.021338544   0.02090495            4 
 1237000    0.7510158   -7.5069725    317.10138   0.02136226  0.020889481            5 
 1238000   0.74843887   -7.5145524    317.09433   0.02134453  0.020874067            6 
 1239000   0.78691762   -7.5038584    315.80185  0.021240372  0.020858619            4 
 1240000   0.75313951   -7.5098146    316.13151  0.021245397  0.020843142            2 
 1241000   0.75635289   -7.4921088    317.27311  0.021304936   0.02082777            5 
 1242000   0.74946358   -7.5208804    316.45423  0.021232839  0.020812395            6 
 1243000   0.75874346   -7.5102864    317.14471  0.021262048  0.020797002            3 
 1244000   0.77528284   -7.4948685    316.92064  0.021229947  0.020781618            7 
 1245000   0.75474946   -7.4994663    317.33327  0.021240514  0.020766317            5 
 1246000    0.7592895    -7.504665    317.71837  0.021249222  0.020750991            7 
 1247000   0.76554239    -7.478573    317.87532  0.021242671  0.020735729            5 
 1248000   0.76473339   -7.4831548    317.81018  0.021221299  0.020720524            6 
 1249000   0.76918848   -7.4935512    317.81494  0.021204626  0.020705327            8 
 1250000   0.73908385   -7.5239298    317.57875  0.021171916  0.020690006            6 
 1251000   0.75349451   -7.5340243    317.04058  0.021119143  0.020674624            4 
 1252000    0.7692091   -7.5163644    317.83802  0.021155353  0.020659307            5 
 1253000   0.74889872   -7.5323761    316.50966  0.021050124  0.020643965            4 
 1254000   0.75017273   -7.5429158    317.09488  0.021072228  0.020628511            3 
 1255000   0.74776596   -7.5495578    318.10937    0.0211228  0.020613175            3 
 1256000   0.74611048   -7.5420198    316.85511  0.021022765  0.020597756            7 
 1257000   0.75098988   -7.5003391    317.38744  0.021041331  0.020582299            3 
 1258000    0.7536695   -7.5289227    316.79219  0.020985174  0.020566919            3 
 1259000   0.74278771    -7.539487    316.52918  0.020951098  0.020551593            3 
 1260000   0.75072777   -7.5218054    318.16074  0.021042377  0.020536222            9 
 1261000   0.74598105   -7.5412808    318.25617  0.021031996   0.02052085            4 
 1262000    0.7593495   -7.5411386    317.37161  0.020956921  0.020505569            4 
 1263000   0.75708546   -7.5012543    317.62723  0.020957194  0.020490225            3 
 1264000   0.74241812   -7.5149443    318.07339  0.020970029  0.020474953            6 
 1265000   0.75025163   -7.5062421    317.88861  0.020941279  0.020459702           13 
 1266000   0.74365828   -7.5378603    317.32216  0.020887451  0.020444503            4 
 1267000   0.75563284   -7.5008944    318.13934  0.020924713   0.02042926            4 
 1268000   0.73462671    -7.495877    317.05421  0.020836896  0.020414023            4 
 1269000   0.75021997   -7.4862232    318.01311  0.020883445  0.020398846            9 
 1270000   0.74017096   -7.5020325    317.91942  0.020860855  0.020383644            3 
 1271000   0.77171462    -7.531353    318.55698  0.020886243  0.020368433            5 
 1272000   0.74848363   -7.5087131    317.90821   0.02082732  0.020353198            6 
 1273000   0.76196935   -7.5273553     317.5482  0.020787392  0.020337974            5 
 1274000   0.74114755   -7.5287312    317.79238  0.020787047  0.020322673            4 
 1275000   0.74586588   -7.5289273    317.46178  0.020749136  0.020307404            4 
 1276000   0.75503001   -7.5457705    317.79368  0.020754551   0.02029217            3 
 1277000   0.76952092   -7.5443741    317.74383  0.020735045  0.020276988            5 
 1278000   0.74277306   -7.5626482    318.00245  0.020735684  0.020261806            9 
 1279000   0.72393471    -7.537739    317.85315  0.020709744  0.020246597            4 
 1280000   0.73489113   -7.5364378    317.86957  0.020694634  0.020231378            4 
 1281000   0.73719917   -7.5365037    318.61019  0.020726658  0.020216193            5 
 1282000   0.73239886   -7.5429651    318.90497  0.020729652  0.020201074            3 
 1283000    0.7531306   -7.5548008    318.49789  0.020687054  0.020186033            5 
 1284000     0.735376   -7.5417294    318.95717  0.020700751  0.020171048            6 
 1285000   0.73966959    -7.519846    318.94245  0.020683687  0.020156107            3 
 1286000   0.73006249    -7.563486    319.17897   0.02068293  0.020141143           12 
 1287000   0.73457158   -7.5426502    318.94801  0.020651904  0.020126133            6 
 1288000   0.74732334   -7.5412149    319.86459  0.020695173  0.020111156            7 
 1289000   0.73587953   -7.5312928    318.40626  0.020584837  0.020096213            6 
 1290000   0.73042344   -7.5199694    318.35261  0.020565414  0.020081268            2 
 1291000   0.74789022   -7.5328569    319.30087  0.020610694  0.020066312            4 
 1292000   0.74958216   -7.5420391    319.15956  0.020585627  0.020051319            5 
 1293000   0.73590667   -7.5667446    319.03043  0.020561384  0.020036396            3 
 1294000   0.72324665   -7.5601933    318.99331  0.020543104  0.020021461            5 
 1295000   0.73779312   -7.5531159    318.40688  0.020489503  0.020006519            4 
 1296000    0.7372338   -7.5466373    319.79395  0.020562883   0.01999156            6 
 1297000   0.73904849   -7.5586174    319.40671  0.020522148  0.019976634            4 
 1298000   0.74037253   -7.5689589      319.331  0.020501476  0.019961744            3 
 1299000   0.72977365   -7.5366883    319.80778   0.02051628  0.019946878            5 
 1300000   0.71854125    -7.553775    319.41457  0.020475293  0.019932063            6 
 1301000   0.73934134   -7.5621921    319.46794  0.020462974  0.019917211            5 
 1302000    0.7368208   -7.5740259    319.18597   0.02042921  0.019902365            2 
 1303000   0.74089138   -7.5187182    320.15802  0.020475699  0.019887545            5 
 1304000   0.73582404   -7.5524688    319.96136  0.020447428  0.019872784            5 
 1305000   0.73295339   -7.5415942    319.39486  0.020395585  0.019858012            5 
 1306000   0.72106141   -7.5600784    319.91671  0.020413267  0.019843211            5 
 1307000   0.72565664   -7.5573694    319.30526  0.020358662  0.019828408            5 
 1308000   0.72977247   -7.5588199    319.87409  0.020379338  0.019813574            3 
 1309000   0.73069235    -7.567364    318.78226  0.020294262  0.019798731            8 
 1310000   0.72147184   -7.5714441    319.43753  0.020320453  0.019783808            4 
 1311000   0.73890642   -7.5872413    319.42356  0.020304066  0.019768907            4 
 1312000   0.71738604   -7.6105352    319.54848  0.020296525  0.019754004            7 
 1313000   0.71504417    -7.590159     319.3201  0.020266571  0.019739085            4 
 1314000   0.70809188   -7.5993422    319.20234   0.02024368  0.019724177            5 
 1315000   0.71591531   -7.5812326     319.5026  0.020247313  0.019709343            5 
 1316000   0.74084781   -7.5731989    319.45781  0.020229091  0.019694486            5 
 1317000   0.71782932   -7.5890733    319.76243  0.020233006  0.019679657            4 
 1318000   0.72843123   -7.5763734    319.92804  0.020228126  0.019664846           21 
 1319000   0.73428616   -7.5777394    319.72965  0.020200256  0.019650012            4 
 1320000   0.74342172   -7.5635463    319.74578  0.020185971  0.019635228           12 
 1321000   0.72254398    -7.575705    319.59255  0.020161024  0.019620407            7 
 1322000   0.72883796    -7.585146    319.52132  0.020141283  0.019605637            8 
 1323000   0.71799809   -7.5794743    319.82396  0.020145122  0.019590884           11 
 1324000    0.7027064   -7.5395242    320.19915  0.020153522  0.019576175            4 
 1325000   0.73604964   -7.5765692    320.19772  0.020138222  0.019561489           10 
 1326000   0.73086651   -7.5742196    319.94382  0.020107078  0.019546721            4 
 1327000   0.72292179   -7.5730434    320.01435  0.020096355  0.019531985            4 
 1328000   0.72165251   -7.5672378    319.44639  0.020045582  0.019517271            3 
 1329000   0.72155803   -7.5893787    320.30017  0.020084034  0.019502527            8 
 1330000   0.71449341   -7.5940626    320.64911  0.020090796  0.019487778            7 
 1331000   0.71783553    -7.583095    320.27796  0.020052464  0.019473089            4 
 1332000   0.72631147   -7.5898187    320.38692  0.020044227  0.019458439            6 
 1333000   0.73857925   -7.5898134    319.87695  0.019997309  0.019443785            5 
 1334000   0.72722022   -7.5666257    320.67038  0.020031883  0.019429108           12 
 1335000    0.7210638   -7.6036168     320.4292  0.020001823  0.019414513            8 
 1336000   0.73633921   -7.5890416    320.19153  0.019972026  0.019399934           14 
 1337000   0.70969547   -7.5766652    320.13561  0.019953603  0.019385388            6 
 1338000   0.72753443   -7.5616416    320.25062  0.019945853  0.019370777            4 
 1339000   0.72360337   -7.5947833    320.42587  0.019941864  0.019356224            5 
 1340000   0.71936596    -7.603219    320.89431  0.019956114  0.019341612            6 
 1341000    0.7095889   -7.5638506    320.17775  0.019896704  0.019327021            7 
 1342000    0.7130523   -7.5778582     320.7535  0.019917629  0.019312482            8 
 1343000   0.72525467   -7.6037717    320.91689  0.019912937  0.019297911           11 
 1344000   0.72686863   -7.5870851    320.84862  0.019893888  0.019283437           11 
 1345000   0.72530621   -7.6064031    320.56338  0.019861424  0.019268924           12 
 1346000   0.72071472   -7.5646836    320.77419  0.019859719  0.019254381            4 
 1347000   0.73386648   -7.5706565    320.62748    0.0198359  0.019239821            4 
 1348000   0.71895851   -7.6268132    320.60869  0.019820023  0.019225285            4 
 1349000   0.71207748   -7.5792968    321.12653   0.01983732  0.019210775            4 
 1350000    0.7002065   -7.6087205    321.10335  0.019821195  0.019196317            6 
 1351000   0.73939321   -7.5955751    320.99229  0.019799673  0.019181869            7 
 1352000   0.71008639   -7.6017188    320.66133  0.019764628  0.019167385            6 
 1353000   0.70471904   -7.5866979    321.03102   0.01977279   0.01915289            4 
 1354000   0.70349399   -7.5942391    320.57857   0.01973034  0.019138397            7 
 1355000   0.71156751   -7.6112716    320.01782  0.019681292  0.019123844            7 
 1356000   0.71826324   -7.6186449     320.3594  0.019687771  0.019109286            4 
 1357000   0.71036884   -7.6130626    320.49424  0.019681543  0.019094728            7 
 1358000   0.71633876    -7.602167    320.63953  0.019675966   0.01908014            9 
 1359000   0.70929718   -7.6284295    320.13582    0.0196306  0.019065543            9 
 1360000   0.71312244   -7.6110662    320.90547  0.019663325  0.019050971            6 
 1361000   0.71548558   -7.6041048      320.751  0.019639419  0.019036443            8 
 1362000   0.70454748    -7.604236      321.503  0.019671011     0.019022            5 
 1363000   0.72101717   -7.6008902    321.11488  0.019632849  0.019007557            5 
 1364000   0.70570788   -7.6188268    320.85573  0.019602623  0.018993144            6 
 1365000   0.71356255   -7.6020651    321.30561  0.019615727  0.018978674           16 
 1366000   0.70354409   -7.5888513    321.26268  0.019598748  0.018964203            8 
 1367000   0.70518751    -7.630531    320.39019  0.019531224  0.018949754            4 
 1368000   0.69797035   -7.6319211    320.90095   0.01954806  0.018935266            5 
 1369000   0.71723901   -7.6259321    320.31987  0.019498409   0.01892082           10 
 1370000   0.71345438   -7.5972558    320.80415  0.019513635  0.018906396            6 
 1371000   0.70378906   -7.5947646    321.11984   0.01951859  0.018891987            9 
 1372000   0.70151291   -7.6124728    321.24225  0.019511799  0.018877647            4 
 1373000   0.69305027   -7.6213956     321.3999  0.019507156   0.01886323            6 
 1374000   0.71407168   -7.6342161    321.10067   0.01947481   0.01884877            9 
 1375000   0.71949185   -7.6328576    320.45199  0.019421333  0.018834315            6 
 1376000   0.70373787   -7.6207506    320.61491  0.019417085  0.018819852            9 
 1377000   0.71198462   -7.6361431    321.07572  0.019430871  0.018805375            5 
 1378000   0.69496688    -7.600913    321.15003  0.019421265  0.018790923            4 
 1379000    0.6966168   -7.6284089    320.73754  0.019382254  0.018776445            7 
 1380000   0.70022511   -7.6288566    320.15885  0.019333264  0.018761996            5 
 1381000   0.69130304   -7.6284769    320.21024  0.019322366   0.01874755            5 
 1382000   0.68740346   -7.6463976    319.82934  0.019285416   0.01873308            7 
 1383000   0.69419874   -7.6281916    320.58893  0.019317241  0.018718632            6 
 1384000   0.68528564   -7.6363707     321.3878  0.019351385  0.018704198            5 
 1385000   0.69992507   -7.6406756    320.84122  0.019304526  0.018689814            7 
 1386000   0.70967067   -7.6497831    321.44912  0.019327148  0.018675432            3 
 1387000   0.70057881   -7.6255443    320.91796    0.0192813  0.018661044            6 
 1388000   0.67804735   -7.6605407    320.57218  0.019246649  0.018646694            4 
 1389000   0.69414113   -7.6141236    320.77941  0.019245225   0.01863235            5 
 1390000   0.70011598   -7.6244182    320.53421  0.019216679  0.018618018            5 
 1391000    0.7060053   -7.6180132     320.7209  0.019214049  0.018603688            5 
 1392000   0.69282713    -7.615009    320.89102   0.01921043  0.018589369           15 
 1393000   0.68029878   -7.6556935    321.42341  0.019228488  0.018575014            3 
 1394000   0.69783198   -7.6505922    320.46523  0.019157415  0.018560685            4 
 1395000   0.69439628   -7.6487433    321.07154  0.019179901  0.018546316            4 
 1396000   0.67664379   -7.6217676    320.56728   0.01913606  0.018531971           13 
 1397000   0.70408815   -7.6361933    321.16986  0.019158307  0.018517625            7 
 1398000   0.69573806    -7.645595    320.60198  0.019110752  0.018503318            3 
 1399000   0.71013415   -7.6375727     321.1529  0.019129908  0.018489013            6 
 1400000   0.69196817   -7.6458024    321.33292  0.019126959  0.018474776            4 
 1401000   0.69718726   -7.6581121     320.9882  0.019092803  0.018460443            3 
 1402000   0.69720871   -7.6340525    321.47356  0.019108034  0.018446119            8 
 1403000   0.69400756   -7.6676738    321.86192  0.019117482  0.018431832            3 
 1404000   0.68074082   -7.6539771    321.10302  0.019058821  0.018417554           12 
 1405000   0.68609112   -7.6453825     320.5775  0.019014087   0.01840329            6 
 1406000   0.68162993   -7.6252117    321.89269  0.019078514  0.018389109            4 
 1407000   0.69407709   -7.6464153    320.44008   0.01897892  0.018374921            6 
 1408000   0.69402861   -7.6806262    320.98436  0.018997654  0.018360707            7 
 1409000   0.69961387   -7.6665188    321.44116  0.019011187  0.018346463            8 
 1410000   0.70949245   -7.6661634    321.12044  0.018978749  0.018332223           10 
 1411000   0.68575126   -7.6513623    321.25527  0.018973262  0.018318028           10 
 1412000   0.70209524   -7.6614223    321.62544  0.018981671   0.01830385            9 
 1413000   0.68401877   -7.6577619    321.44878  0.018957819  0.018289716           11 
 1414000   0.68113751   -7.6546139    321.04496  0.018920613   0.01827557            8 
 1415000   0.68086027    -7.666664    321.32742  0.018923876   0.01826141            5 
 1416000    0.6863039    -7.633506    320.98288  0.018890236  0.018247287            5 
 1417000   0.68692212   -7.6557654    321.34437  0.018898163  0.018233197            8 
 1418000   0.70758133   -7.6510539    322.00726  0.018923793  0.018219117           11 
 1419000   0.69271723   -7.6851009    321.50851  0.018881167  0.018204995           13 
 1420000   0.68461511   -7.6390561    321.18176  0.018848695  0.018190831            6 
 1421000   0.68178524   -7.6665489     321.4632  0.018851935  0.018176723           11 
 1422000   0.69042459   -7.6632225    322.04998  0.018873065  0.018162617           12 
 1423000   0.69483309   -7.6857956    320.47657   0.01876766   0.01814852           13 
 1424000   0.68929122   -7.6569393    321.25663   0.01880013   0.01813444            4 
 1425000   0.68358965   -7.6683363     321.2065  0.018784006  0.018120326           11 
 1426000   0.68157316   -7.6801889    321.81499  0.018806392  0.018106242            7 
 1427000   0.66854965    -7.671488    320.73821  0.018730332  0.018092126            5 
 1428000   0.68159841   -7.6724913    320.82382  0.018722212  0.018078045            5 
 1429000    0.6692343   -7.6744104    321.76785  0.018764162  0.018063961            6 
 1430000   0.68235391   -7.6816846    321.58273  0.018740252  0.018049845            6 
 1431000   0.68246132   -7.6607489    321.04742  0.018695983  0.018035752            7 
 1432000   0.67625298   -7.6698691    321.29625  0.018697408  0.018021644            5 
 1433000   0.67054216   -7.6836005    320.99761  0.018666993   0.01800747            6 
 1434000   0.68161855   -7.7016498    321.01359  0.018654904  0.017993271            7 
 1435000   0.67902604   -7.6551543    321.07643  0.018645554  0.017979102            6 
 1436000   0.68854304   -7.6699506    321.03344  0.018630074  0.017964931            8 
 1437000   0.66722923   -7.6975771    320.73881  0.018600024  0.017950784            7 
 1438000   0.66129698   -7.6961742    320.84569  0.018593283  0.017936637            6 
 1439000    0.6750335   -7.6848913    321.43031  0.018614217  0.017922484           13 
 1440000   0.67585428   -7.6797238     320.9605  0.018574103  0.017908345            4 
 1441000   0.68068732   -7.6742624    320.71161   0.01854682  0.017894239            7 
 1442000   0.67821424   -7.6711101    320.86896  0.018543051   0.01788017            5 
 1443000   0.67504646    -7.671021    320.75343  0.018523529  0.017866119            3 
 1444000   0.68561505   -7.6812583    321.16497  0.018534451   0.01785203            4 
 1445000   0.66571746   -7.6889643    320.92175  0.018507598  0.017837957            8 
 1446000   0.67414421   -7.7054921    321.00015  0.018499317  0.017823873            8 
 1447000   0.67507799    -7.711684    321.27809  0.018502539  0.017809811            7 
 1448000   0.66642667   -7.7003285    320.51336   0.01844575   0.01779573            5 
 1449000   0.67433624    -7.697133    320.44113  0.018428866  0.017781676            3 
 1450000   0.67295656    -7.698337     322.1411  0.018513856  0.017767653            8 
 1451000   0.66161428   -7.6823146    321.40537  0.018458843  0.017753683            3 
 1452000   0.67486837   -7.6728139    320.94742  0.018419847   0.01773972            8 
 1453000   0.68603719   -7.6938505    321.27179  0.018425774  0.017725777           13 
 1454000   0.66261065   -7.6800618    321.39803  0.018420336  0.017711862           23 
 1455000   0.67998815   -7.7042576    321.42115  0.018409001   0.01769794           14 
 1456000   0.67406582   -7.7156515    321.21404  0.018384503  0.017684014            9 
 1457000   0.67228872   -7.7067183    321.46795  0.018386408  0.017670106            7 
 1458000   0.67206437   -7.6899392     322.0183  0.018405253  0.017656226           14 
 1459000   0.67070469   -7.6901262    321.36072  0.018355079  0.017642367            5 
 1460000   0.67384924    -7.680738    322.14613  0.018387336  0.017628554           10 
 1461000   0.66760684   -7.6946674    321.85779  0.018358304   0.01761479           11 
 1462000    0.6744189    -7.698957     322.4765  0.018381013  0.017601056           14 
 1463000   0.66874666   -7.6809061    320.98069  0.018283247  0.017587287           10 
 1464000   0.66841849   -7.7134243    321.64241  0.018308425   0.01757353           14 
 1465000   0.67450464   -7.7087617    322.37711  0.018337719  0.017559772            4 
 1466000   0.67188587   -7.7115576    322.26579  0.018318883  0.017546007            6 
 1467000   0.66480305   -7.7134271    321.51764  0.018263897  0.017532224           11 
 1468000   0.67600392   -7.7041237    321.03278  0.018223932  0.017518441            6 
 1469000   0.66080736   -7.7018702    321.17864  0.018219801  0.017504641            8 
 1470000   0.67397129   -7.7441207    321.35278  0.018217278  0.017490787            5 
 1471000   0.68705908   -7.7091709    322.01481  0.018242398  0.017476989            6 
 1472000   0.66416993   -7.7230624    321.90903  0.018224017  0.017463208            4 
 1473000   0.66653484    -7.717643    321.42771  0.018184415  0.017449421           12 
 1474000   0.67499412   -7.7044507    321.42465  0.018171905  0.017435658            6 
 1475000   0.66981874   -7.7234988     322.1605  0.018201158   0.01742193           10 
 1476000   0.67530388   -7.6990198    321.56992  0.018155483  0.017408186            5 
 1477000    0.6753364   -7.7353595    321.60401  0.018145114  0.017394463            7 
 1478000   0.67945151   -7.7127729    321.77622  0.018142547  0.017380766            5 
 1479000   0.66963868   -7.7275552    321.50337  0.018114907   0.01736705            8 
 1480000     0.665415   -7.7091335    321.43689  0.018098924  0.017353337            4 
 1481000   0.65332015   -7.7486157    321.36401  0.018082602  0.017339653           14 
 1482000   0.65708536   -7.7273308    321.37872  0.018071228  0.017325968            8 
 1483000   0.67323738    -7.730478    320.45413  0.018007088   0.01731229            8 
 1484000   0.66162565   -7.7418054    321.95135  0.018079029  0.017298627            7 
 1485000   0.66198288   -7.7366881    321.42279  0.018037194  0.017284957            9 
 1486000   0.65345286   -7.7315027    321.53876  0.018031559  0.017271315            8 
 1487000   0.64935597   -7.7209978    322.06008  0.018048648  0.017257731            9 
 1488000   0.66771281   -7.7107247    321.82413  0.018023305  0.017244159            7 
 1489000   0.66261982   -7.7360247    321.68521  0.018003426  0.017230586            5 
 1490000   0.66389619   -7.7127463    322.02472  0.018010331  0.017217018            4 
 1491000   0.67291225   -7.7360974    321.48575  0.017968128  0.017203434            6 
 1492000   0.65855546   -7.7277525    321.43791  0.017953413  0.017189859            6 
 1493000   0.66147999   -7.7112866    322.31765  0.017990492   0.01717637            9 
 1494000    0.6596877   -7.7088657    321.98381  0.017959829  0.017162867            5 
 1495000   0.66154136   -7.7261288    322.43324  0.017972867  0.017149407           10 
 1496000   0.66370732   -7.7152445    322.03873  0.017938878  0.017135981           14 
 1497000    0.6542704   -7.7026244    322.41517   0.01794785  0.017122576            7 
 1498000   0.64059115   -7.7140545    321.92821  0.017908779  0.017109167            9 
 1499000   0.65598698   -7.7157754    322.34008  0.017919729  0.017095768            6 
 1500000   0.64808125   -7.7295866    322.21154  0.017900641  0.017082395            8 
 1501000    0.6538857   -7.7341436    322.03923  0.017879149  0.017069021           11 
 1502000   0.64889775   -7.7371186     322.0792  0.017869463  0.017055666           13 
 1503000   0.65597909   -7.7252726    323.30133  0.017925334  0.017042326           14 
 1504000   0.64785008   -7.7270413    322.62224  0.017875789  0.017029013           13 
 1505000   0.65762619   -7.7336394     322.2302  0.017842204  0.017015657           18 
 1506000   0.66990094   -7.7480983     321.8639  0.017810087  0.017002331            9 
 1507000   0.65226038   -7.7245682     322.7678  0.017848253  0.016989007           11 
 1508000   0.65688303   -7.7533389    323.03887  0.017851396  0.016975704           10 
 1509000   0.65698847   -7.7495437    322.03443  0.017784097  0.016962383           11 
 1510000   0.66130333   -7.7522727    321.87151  0.017763328  0.016949103            5 
 1511000   0.65329363   -7.7171633    322.44048  0.017782952  0.016935795            7 
 1512000   0.65326776   -7.7400772    321.77145  0.017734317  0.016922475            6 
 1513000   0.65391994   -7.7389347    322.40373  0.017757421  0.016909146            9 
 1514000   0.65721943   -7.7418746    322.04133  0.017725745   0.01689582           10 
 1515000   0.65306017   -7.7467876    321.75159  0.017698107  0.016882529            7 
 1516000    0.6548904   -7.7392899    322.53803  0.017729663  0.016869232            9 
 1517000   0.63290049   -7.7256039    322.01201   0.01768908  0.016855941            8 
 1518000   0.64241594   -7.7548457    321.84114  0.017668047  0.016842637           10 
 1519000   0.65068332   -7.7570037    322.53732  0.017694608  0.016829325            8 
 1520000   0.64724997   -7.7636883    321.63798  0.017633661  0.016815983            8 
 1521000   0.63896066    -7.733437    321.39174  0.017608577  0.016802613           12 
 1522000    0.6502117   -7.7649997    321.81061  0.017619941  0.016789263            5 
 1523000   0.63982162    -7.762979    321.93103  0.017614961  0.016775901            7 
 1524000   0.64680861   -7.7699861    321.37787  0.017573156  0.016762572            7 
 1525000   0.64769633   -7.7702091    322.02793  0.017597155  0.016749231            8 
 1526000   0.63981532   -7.7688255    320.92502  0.017525394  0.016735906            5 
 1527000   0.64605862   -7.7789166    320.99752  0.017517874  0.016722601            9 
 1528000   0.63972982   -7.7600687    320.93093  0.017502778  0.016709313            9 
 1529000   0.63865068   -7.7725272    321.94108  0.017546385  0.016696048            6 
 1530000   0.64001154   -7.7423635    322.12762  0.017545077  0.016682779            6 
 1531000    0.6407399    -7.778458    321.25021   0.01748586  0.016669529           15 
 1532000   0.63615394   -7.7703175    321.99558   0.01751499    0.0166563           11 
 1533000   0.65399859   -7.7644108    321.44295  0.017473524  0.016643044            8 
 1534000   0.64390171   -7.7669674     321.2771  0.017453124  0.016629806           11 
 1535000   0.64259132    -7.786692    320.82701  0.017417319  0.016616589            7 
 1536000   0.64217671   -7.7731137      321.795  0.017458496  0.016603368            8 
 1537000   0.63993773   -7.7442527    321.86396  0.017450876  0.016590244            5 
 1538000    0.6426859   -7.7736384    321.80977  0.017436594  0.016577126            4 
 1539000   0.63780289   -7.7917813    322.04573   0.01743804  0.016564016            6 
 1540000   0.63700216   -7.7638378    322.10273  0.017429801   0.01655092            3 
 1541000   0.64749309   -7.7843109    321.93611   0.01740948  0.016537851            3 
 1542000   0.63720787   -7.7609672    322.87824  0.017449105  0.016524821            6 
 1543000   0.63399561   -7.7897185    321.71961  0.017375222  0.016511756            4 
 1544000   0.62132888   -7.7811359    322.02765  0.017380594  0.016498703            5 
 1545000   0.63460303   -7.7747722    321.54349   0.01734323  0.016485647            8 
 1546000   0.63433959   -7.7669157     321.4339  0.017326105  0.016472594            3 
 1547000   0.63889145   -7.7726703    321.83776   0.01733666  0.016459524            6 
 1548000   0.64572699   -7.7713778    321.33143  0.017298204   0.01644647            5 
 1549000   0.64441535   -7.7633093    321.43618  0.017292672  0.016433426            4 
 1550000   0.62513315   -7.7803899    321.98682  0.017311119   0.01642043            8 
 1551000   0.63617126   -7.7730488    321.80785  0.017290342  0.016407448            6 
 1552000   0.63990733   -7.7776548    322.11939  0.017295929  0.016394461            4 
 1553000   0.63732663   -7.7703968    322.05822   0.01728151  0.016381451            5 
 1554000   0.62778427   -7.7861329    322.30753  0.017283758   0.01636847            6 
 1555000   0.63390839    -7.801549    321.69553  0.017239846  0.016355484            8 
 1556000   0.62356084    -7.794233    321.81884   0.01723537   0.01634251            6 
 1557000   0.62626906    -7.792852    321.66152  0.017215881  0.016329539            9 
 1558000   0.63533826   -7.7814963     321.3138  0.017186233  0.016316576           15 
 1559000   0.63579821   -7.7861892    321.61001  0.017191042  0.016303615            6 
 1560000   0.63083664   -7.7718633    321.86667  0.017193732  0.016290642            5 
 1561000   0.62499526   -7.7899148    321.81726   0.01718008  0.016277687            7 
 1562000   0.62131729   -7.8032622    321.71732  0.017163749  0.016264721           10 
 1563000   0.62606259   -7.8130117    321.86012  0.017160382  0.016251772            5 
 1564000   0.62898453   -7.7927534    321.28324  0.017118672  0.016238823            6 
 1565000   0.63061091   -7.7897089    321.97512  0.017144575  0.016225893           10 
 1566000   0.62449043   -7.8071877    321.36522  0.017101172  0.016212965           13 
 1567000   0.62274397    -7.810036     321.2399  0.017083594  0.016200028            6 
 1568000   0.63173724   -7.7987515    321.29708  0.017075737  0.016187105            7 
 1569000   0.60398379   -7.7990244      321.296  0.017064797  0.016174136            8 
 1570000     0.630827   -7.8166371    321.94379  0.017088312  0.016161187            5 
 1571000   0.64337878   -7.8199291    321.49016  0.017053371  0.016148236            5 
 1572000   0.61874997    -7.786967    321.20847   0.01702759  0.016135271            7 
 1573000   0.62604006   -7.8033671    321.26778  0.017019908  0.016122327            9 
 1574000    0.6270049   -7.8072035    321.68783  0.017031334  0.016109418            6 
 1575000   0.63362977   -7.8081114    321.97543  0.017035737  0.016096537            4 
 1576000   0.62986896   -7.7996475    322.03698  0.017028182  0.016083677            6 
 1577000   0.64560578   -7.8200844    321.67696   0.01699836  0.016070845            8 
 1578000   0.62149704   -7.8044024    320.90259  0.016946694  0.016057999            4 
 1579000   0.62852615   -7.7874809     321.0589   0.01694421  0.016045191            4 
 1580000   0.63218674   -7.8152588    321.46162  0.016954727  0.016032372            5 
 1581000   0.62402926   -7.8171293    321.89578  0.016966887  0.016019579            8 
 1582000   0.61987165   -7.8121262     321.8904  0.016955879  0.016006735            7 
 1583000   0.60790141   -7.8014352    321.78078  0.016939397  0.015993926           12 
 1584000   0.62452744    -7.804676    321.25969  0.016901288  0.015981139           14 
 1585000   0.62698364   -7.8035206    322.23266   0.01694178  0.015968376            6 
 1586000    0.6293374   -7.8088944    321.92193  0.016914771  0.015955612           11 
 1587000   0.61576893   -7.8259967    321.42802  0.016878178  0.015942875            8 
 1588000   0.61532177   -7.8256117    321.61404  0.016877311  0.015930122            9 
 1589000   0.61054905    -7.804977    321.31963   0.01685125  0.015917383           10 
 1590000   0.61980443   -7.8185752    321.49179  0.016849674  0.015904689           13 
 1591000   0.61487873    -7.834686    321.50223  0.016839631   0.01589195           13 
 1592000   0.61298179   -7.8247196    321.83123  0.016846275   0.01587921           19 
 1593000   0.61037741   -7.8396999    321.64457  0.016825935  0.015866483           10 
 1594000   0.61056477   -7.8308828    321.60101  0.016813102  0.015853762           12 
 1595000   0.61358268   -7.8295127    321.19741  0.016781474  0.015841036            9 
 1596000   0.62147536   -7.8486496    321.61187    0.0167926  0.015828314           11 
 1597000   0.60694136   -7.8291373    320.41833  0.016719804  0.015815603           17 
 1598000   0.61529093   -7.8464959    321.20658  0.016750447  0.015802908            9 
 1599000   0.60662061   -7.8200328    321.12786  0.016735869  0.015790218           12 
 1600000   0.61267663   -7.8344025    321.14099  0.016726093  0.015777547           12 
 1601000   0.60368257   -7.8423701    320.80556  0.016698186  0.015764883           11 
 1602000   0.61699889   -7.8448255     321.0078  0.016698283  0.015752235           11 
 1603000   0.63490242   -7.8303736    320.71546  0.016672669   0.01573959           10 
 1604000   0.61010769   -7.8325353    321.38088  0.016696845  0.015726922           13 
 1605000   0.60577776   -7.8225967    320.67095  0.016649582  0.015714264           11 
 1606000   0.59999656   -7.8410883    321.61927  0.016688422  0.015701605            4 
 1607000    0.6289435   -7.8569922    321.62488  0.016678328  0.015688969            8 
 1608000   0.60171509   -7.8417776    321.10944  0.016641244  0.015676366           15 
 1609000   0.60324945   -7.8248382     320.7026   0.01660983  0.015663768            8 
 1610000   0.61587588   -7.8420925    320.39332  0.016583505  0.015651171            8 
 1611000   0.61224709   -7.8527223    320.96627  0.016602849  0.015638584            8 
 1612000   0.60441654   -7.8581391    320.76786  0.016582292  0.015626015           13 
 1613000   0.59869042   -7.8558618    320.80468  0.016573914  0.015613432            6 
 1614000   0.61343146   -7.8455402    320.74267  0.016560443  0.015600863            8 
 1615000    0.6010576    -7.849736    320.85416  0.016555942  0.015588274            6 
 1616000   0.60921602    -7.839477    320.27682  0.016515925  0.015575698            8 
 1617000   0.61936067    -7.842159    320.76733   0.01653099  0.015563147            6 
 1618000   0.60218302    -7.822286    321.07058  0.016536392  0.015550607            8 
 1619000   0.61091002   -7.8538176    321.11062  0.016528239  0.015538087            8 
 1620000   0.59779688   -7.8431861    320.74467  0.016499211  0.015525571            5 
 1621000   0.60774256   -7.8397193    320.85985  0.016494954  0.015513052            7 
 1622000   0.60369641   -7.8510322    321.50933  0.016518153  0.015500573           13 
 1623000    0.5953407    -7.859194    320.88743  0.016476044  0.015488114           10 
 1624000   0.61408054    -7.842102    321.20731  0.016482312  0.015475678            7 
 1625000   0.60351407   -7.8378054    321.12808  0.016468107  0.015463266            6 
 1626000   0.61477427   -7.8309092    320.99248  0.016451029  0.015450826            5 
 1627000   0.60935738   -7.8437108    320.98761  0.016440668  0.015438408            4 
 1628000   0.60223701    -7.858582    321.35284  0.016449265  0.015425985            8 
 1629000   0.60874572   -7.8503878    321.12188  0.016427352  0.015413556            6 
 1630000   0.60087779   -7.8878569    321.33808  0.016428327  0.015401146            5 
 1631000    0.6005232   -7.8651084    320.72635  0.016386999  0.015388715           10 
 1632000   0.58818762   -7.8679938    321.11177  0.016396638  0.015376331            8 
 1633000   0.59913037   -7.8573282    320.82685  0.016372058  0.015363942            4 
 1634000   0.59949711   -7.8819908    320.84351  0.016362888  0.015351552           12 
 1635000   0.59506269   -7.8758271    320.42714  0.016331659  0.015339165            6 
 1636000   0.59439241   -7.8750332    320.35914  0.016318212   0.01532678            6 
 1637000    0.6074059   -7.8526684    320.81896  0.016331651  0.015314411            7 
 1638000   0.58965134   -7.8686764    320.62189  0.016311655  0.015302072            7 
 1639000   0.60261699    -7.843915    321.46831  0.016344738  0.015289752            7 
 1640000    0.5972524   -7.8439761    321.10844  0.016316486  0.015277449            7 
 1641000   0.61185749   -7.8326803    321.05479  0.016303818  0.015265133            4 
 1642000   0.59581886   -7.8685065    320.67441  0.016274585  0.015252845            8 
 1643000   0.60101563   -7.8556349    320.74928  0.016268476  0.015240563           14 
 1644000   0.58583175   -7.8877021    321.25651  0.016284292  0.015228266           25 
 1645000   0.59605043   -7.8673031    320.45292  0.016233684  0.015215974           23 
 1646000   0.59934073   -7.8695216    320.92244  0.016247592  0.015203718           28 
 1647000   0.61078161   -7.8624984    320.75382  0.016229195  0.015191455           13 
 1648000    0.5948314   -7.8567165    320.93293  0.016228405   0.01517923           21 
 1649000   0.59737743   -7.8733719    321.27994    0.0162361  0.015166996           13 
 1650000   0.59734736   -7.8787813    320.95403    0.0162098  0.015154761           19 
 1651000   0.59825601    -7.861334    320.83496  0.016193971  0.015142572           15 
 1652000   0.59840684    -7.879894    320.36957  0.016160693   0.01513039           23 
 1653000   0.59376205   -7.8619253    321.19202  0.016192378  0.015118199           13 
 1654000   0.59015396   -7.8888919    321.16717  0.016181337  0.015106029            5 
 1655000   0.58654765   -7.8807516    320.77602  0.016151864  0.015093864           19 
 1656000   0.59240373   -7.8813865    321.16377  0.016161623  0.015081715           37 
 1657000   0.59283763   -7.8637614    320.35001  0.016110944  0.015069556           14 
 1658000   0.57743172   -7.8720643    320.94657  0.016131211  0.015057428           25 
 1659000   0.59077225   -7.8428916    321.34858   0.01614168  0.015045315           18 
 1660000    0.5865308   -7.8673242    321.34804   0.01613193  0.015033213           10 
 1661000   0.58640162   -7.8870279    320.79077  0.016094259  0.015021109           19 
 1662000   0.58753273   -7.8686054    321.22894  0.016106545  0.015009026           15 
 1663000   0.58588054   -7.8761463    321.16666  0.016093739  0.014996953            7 
 1664000   0.59066343   -7.8518646    320.23703  0.016037511  0.014984884           18 
 1665000   0.59199968    -7.871238    320.60504  0.016046298  0.014972838            8 
 1666000   0.59368621   -7.8778457    321.25427  0.016069141  0.014960802           14 
 1667000   0.57764159   -7.8742123    320.32339  0.016012967  0.014948749           10 
 1668000   0.59432119   -7.8828871    320.29784   0.01600209  0.014936699           15 
 1669000   0.58093413    -7.877679    320.20376  0.015987805  0.014924641            9 
 1670000   0.58646616   -7.8758863    320.79901  0.016007935  0.014912613           11 
 1671000   0.59025097   -7.8781167    320.86274  0.016001533  0.014900597            7 
 1672000   0.57443766   -7.8791135     320.3772  0.015967763  0.014888613           13 
 1673000    0.5787524   -7.8739946    321.09672  0.015994058  0.014876625           14 
 1674000   0.58055846   -7.9033464    320.61669  0.015960608  0.014864637           12 
 1675000    0.6000778    -7.905879    320.25922  0.015933295  0.014852648           12 
 1676000   0.57149207   -7.8901379    320.95452  0.015958359  0.014840684           11 
 1677000   0.58274608   -7.8888424    320.52706  0.015927602  0.014828739           10 
 1678000   0.58279394   -7.8870854    320.43914  0.015913744  0.014816771           14 
 1679000   0.58233173   -7.9096623    320.09821  0.015887344  0.014804808           17 
 1680000    0.5909252   -7.9145724    320.72947    0.0159092  0.014792848           17 
 1681000   0.59647792    -7.895914    321.37063   0.01593152  0.014780896           10 
 1682000    0.5838097    -7.911204    320.76429  0.015892008  0.014768948           10 
 1683000   0.57933147   -7.9009991    320.19698  0.015854475  0.014757018           14 
 1684000   0.56561387   -7.9043717     320.1312  0.015841805  0.014745082            7 
 1685000   0.56452541   -7.8855028    320.08126  0.015829934   0.01473316           14 
 1686000   0.58246997   -7.8919587    320.59154  0.015845766  0.014721248            5 
 1687000   0.57617376   -7.8861349     320.8765   0.01585045  0.014709367            7 
 1688000   0.57244218    -7.885124    320.69262  0.015831981  0.014697488           11 
 1689000   0.58021997   -7.8860567    320.53108  0.015814638  0.014685635           14 
 1690000   0.57793016   -7.9254599    320.48857  0.015803184  0.014673776           12 
 1691000   0.57690618   -7.8777701    320.54696  0.015796716  0.014661929            9 
 1692000   0.58321221   -7.9022438    320.92798  0.015806146  0.014650106            7 
 1693000   0.57260696   -7.9142534    320.75485  0.015788287   0.01463828            6 
 1694000   0.58431679    -7.916407    320.60176  0.015771437  0.014626451            9 
 1695000   0.58689196   -7.9234169    319.64356  0.015715022  0.014614624           10 
 1696000   0.57628689   -7.9168302    320.48515  0.015747109  0.014602808            9 
 1697000   0.57339696   -7.9298559    320.60504  0.015743717   0.01459101            7 
 1698000     0.588388   -7.9144777    320.67076   0.01573767  0.014579217           17 
 1699000    0.5830996   -7.9100879      320.724  0.015731018  0.014567461           12 
 1700000   0.57194716   -7.9014626    320.30861  0.015701402  0.014555713           13 
 1701000   0.57567526   -7.9260482    320.79515  0.015716007  0.014543992            9 
 1702000   0.56790722   -7.9051489    320.03062  0.015669341  0.014532263           10 
 1703000   0.57859006   -7.9245952    320.98927   0.01570705  0.014520532           17 
 1704000   0.58570978   -7.9246549    320.45758   0.01567183  0.014508826           10 
 1705000   0.56976608   -7.8988569    320.36615   0.01565817  0.014497103            7 
 1706000   0.56611748   -7.9017028    320.43364  0.015652288  0.014485421            6 
 1707000   0.57313169    -7.929411    320.11217  0.015627425  0.014473726           10 
 1708000   0.56925485   -7.9272856    320.18904  0.015622026  0.014462025            7 
 1709000   0.58161858   -7.9074783    319.73719  0.015590852  0.014450335           12 
 1710000   0.55943628    -7.913137     320.5199  0.015619878  0.014438664            7 
 1711000   0.56174009   -7.9118388    320.08567    0.0155896  0.014427009           24 
 1712000   0.56487656   -7.9169126    320.38719  0.015595171   0.01441536            8 
 1713000   0.58124455   -7.9123681    319.76871  0.015555979  0.014403717            6 
 1714000   0.57293542   -7.9206231     319.7176  0.015544418  0.014392052            7 
 1715000   0.57294203   -7.9277507    320.39592  0.015568315  0.014380412            5 
 1716000    0.5852171   -7.9147373    320.27755  0.015553494  0.014368786            9 
 1717000   0.57170877   -7.9241695    319.96554  0.015529292  0.014357188            8 
 1718000   0.56916482   -7.9126157    320.50139  0.015546245  0.014345578            7 
 1719000    0.5678605    -7.933122    320.51611  0.015537915  0.014333988            9 
 1720000   0.56260624   -7.9166974    320.27794  0.015517342  0.014322431            9 
 1721000   0.57531193   -7.9168343    320.50709  0.015519421   0.01431089            9 
 1722000   0.57046072   -7.9083377    320.40423  0.015505431  0.014299353           10 
 1723000   0.55484558    -7.929279    320.31891  0.015492305  0.014287825           23 
 1724000   0.55067234    -7.906577    320.27533  0.015481213  0.014276287            6 
 1725000   0.56150964   -7.9338843     320.0264  0.015460212  0.014264757           10 
 1726000   0.55714727   -7.9106909    319.93535  0.015446859  0.014253238           10 
 1727000   0.56518671   -7.9316882     319.6281  0.015423089  0.014241737           13 
 1728000   0.57812304    -7.929812    320.38532  0.015450681  0.014230226            9 
 1729000   0.56616474   -7.9316514    319.95807  0.015421152  0.014218727            4 
 1730000   0.56629085   -7.9276018    320.45629  0.015436238  0.014207227           10 
 1731000   0.56112052   -7.9362718    319.74687  0.015393167  0.014195739            7 
 1732000   0.57038187   -7.9363884    319.85712  0.015389584  0.014184246           10 
 1733000   0.56974676   -7.9587325    319.73366  0.015374767  0.014172767           10 
 1734000   0.55832841   -7.9414935    319.44918  0.015352229  0.014161295            8 
 1735000    0.5667777   -7.9202089     319.6599  0.015353501  0.014149828            7 
 1736000   0.56936743   -7.9483971    319.64117  0.015343758  0.014138374           12 
 1737000   0.55904534   -7.9607125    319.25918  0.015316599  0.014126916            7 
 1738000   0.56399182   -7.9380917    319.37694  0.015313432  0.014115483           13 
 1739000    0.5521683   -7.9596295    320.03062  0.015335951   0.01410408            5 
 1740000   0.55731444   -7.9455289    320.01915  0.015326588  0.014092681           10 
 1741000   0.55811669   -7.9505383    320.22581  0.015327676  0.014081284           12 
 1742000   0.55482692   -7.9393066      319.571  0.015287553  0.014069906           12 
 1743000   0.55434422   -7.9680215    319.58263  0.015279338  0.014058522           15 
 1744000   0.54622524   -7.9488222    320.05998  0.015293386  0.014047124            7 
 1745000   0.55745247   -7.9512072    319.52622  0.015259132  0.014035745            8 
 1746000   0.56464302   -7.9435439    319.62401  0.015255059  0.014024387           11 
 1747000   0.55326038   -7.9513944    319.73194  0.015251476  0.014013038           17 
 1748000    0.5513074   -7.9505003    319.36176  0.015225103  0.014001692            6 
 1749000   0.55333834   -7.9522614    320.09742  0.015251449   0.01399034            6 
 1750000   0.55370655   -7.9722065    319.59871  0.015218986  0.013979007           10 
 1751000   0.55779186   -7.9590193    319.60894  0.015210782   0.01396769            9 
 1752000   0.55049661   -7.9444401    319.68602  0.015205766  0.013956384            5 
 1753000    0.5624241   -7.9489742    319.95821  0.015210031  0.013945087           16 
 1754000   0.56749709   -7.9646402    319.75628  0.015191766  0.013933783            5 
 1755000   0.54144287    -7.962426     320.2041  0.015204373  0.013922504           16 
 1756000   0.55053783   -7.9729042    319.36946  0.015156106  0.013911224            7 
 1757000   0.55124522   -7.9914857    319.39156  0.015148528  0.013899967           11 
 1758000   0.54072655   -7.9436795    320.02889  0.015170122  0.013888715           22 
 1759000   0.55946139   -7.9481439    319.47598  0.015135303  0.013877473           10 
 1760000   0.54469658   -7.9682993    318.73213  0.015091484  0.013866236           14 
 1761000   0.54435069   -7.9563177    319.42767  0.015115828  0.013855022            6 
 1762000   0.55444799   -7.9697935    319.68009  0.015119187  0.013843829           11 
 1763000   0.55431103   -7.9670196    319.54973  0.015104449  0.013832638            9 
 1764000     0.543623    -7.965976    319.74343  0.015105037  0.013821442           28 
 1765000   0.54536661   -7.9585792    319.75404   0.01509698  0.013810264           13 
 1766000    0.5484825    -7.967571    318.92329  0.015049231  0.013799093           20 
 1767000   0.54951464   -7.9606304    319.08955  0.015048555   0.01378793           21 
 1768000   0.55212205   -7.9728732    319.21234   0.01504583  0.013776781            9 
 1769000   0.54014636   -7.9541601    319.38256  0.015045344  0.013765635            6 
 1770000   0.55310958   -7.9632541     319.5431  0.015044402  0.013754496           15 
 1771000   0.55094006   -7.9699015     319.1053  0.015015307  0.013743365           21 
 1772000   0.56351336   -7.9653599    319.21634  0.015012055  0.013732254           18 
 1773000   0.55918417   -7.9701344    319.61437  0.015022296  0.013721145            9 
 1774000   0.54387699   -7.9750728    319.78401  0.015021797  0.013710058            7 
 1775000   0.54184936   -7.9726093    319.97898  0.015022487  0.013698996           12 
 1776000   0.54735303    -7.955586    319.17104  0.014976119  0.013687937           14 
 1777000   0.54092744   -7.9735762    319.88465  0.015001156  0.013676889           22 
 1778000   0.54736125   -7.9932599    318.97902  0.014950273  0.013665839           31 
 1779000   0.55067084   -7.9743165    319.69272  0.014975301  0.013654801            7 
 1780000   0.53946007   -7.9715768    319.23837  0.014945617  0.013643778           16 
 1781000   0.54771062   -7.9732845    319.17757   0.01493438  0.013632754           25 
 1782000    0.5439105   -7.9774188    319.29707  0.014931587  0.013621742           15 
 1783000   0.54068873   -7.9999802    319.06924  0.014912565  0.013610737           10 
 1784000   0.55316092   -7.9656642    319.61037  0.014929483  0.013599746           23 
 1785000   0.55358913   -7.9818551     319.4969  0.014915822  0.013588763           11 
 1786000   0.53703247   -7.9691264    318.89666  0.014879464  0.013577791           27 
 1787000   0.53554918   -7.9925728    318.97948  0.014874999  0.013566823           15 
 1788000   0.53012287   -7.9741126    319.12614  0.014873515  0.013555866           21 
 1789000    0.5529495   -7.9677111    319.76135   0.01489479  0.013544915           16 
 1790000   0.54529727   -8.0028902    319.30801  0.014865363  0.013533956           18 
 1791000   0.53391754   -7.9972918    319.30185  0.014856777  0.013523011           11 
 1792000   0.53798942   -7.9860597    319.33844  0.014850188  0.013512074           18 
 1793000   0.54284303   -7.9926255    319.16565  0.014833875  0.013501149           19 
 1794000   0.53539826   -7.9919065    319.38035  0.014835579  0.013490228           21 
 1795000   0.54544879    -7.992337     319.2017   0.01481902  0.013479314           10 
 1796000   0.54330081   -7.9751291    318.95924  0.014799519  0.013468418           19 
 1797000   0.52903505   -7.9944593     319.2183  0.014803297  0.013457541           10 
 1798000   0.53558332   -7.9831093    319.15921  0.014792325   0.01344667           14 
 1799000   0.55092951   -7.9826374     318.8774  0.014771049  0.013435826           19 
 1800000   0.52762406   -7.9958349    319.16516  0.014776165  0.013424977           17 
 1801000   0.53101334   -7.9795191    319.26165  0.014772425  0.013414154           32 
 1802000   0.52144834   -7.9799397    319.09698  0.014756612  0.013403338           18 
 1803000   0.53210793   -8.0012459    318.85209  0.014737109  0.013392527            7 
 1804000   0.54963065   -7.9894493    319.20633  0.014745304  0.013381727           10 
 1805000   0.52347872   -7.9995535    318.84814  0.014720597  0.013370946           10 
 1806000   0.54753262   -7.9963427    319.17419  0.014727491   0.01336018           12 
 1807000   0.53747879   -7.9917103    318.88979  0.014706225  0.013349417            9 
 1808000   0.52736662    -7.994685    319.24463  0.014714446  0.013338655           23 
 1809000   0.53466109   -7.9768027    319.46936  0.014716665  0.013327917           11 
 1810000    0.5310543    -7.991332    318.91989  0.014683236  0.013317176            7 
 1811000   0.54418892   -7.9975254    318.93951  0.014676031  0.013306453           12 
 1812000   0.51764146   -8.0037053    319.00124  0.014670771  0.013295737           16 
 1813000    0.5218103   -7.9850004    318.89412  0.014657755  0.013285022           21 
 1814000   0.53120521   -7.9804336    318.97218  0.014653261  0.013274332           11 
 1815000    0.5308108   -7.9983562    319.14838  0.014653277  0.013263646            8 
 1816000   0.53773445   -7.9942308     319.0714  0.014641676  0.013252962           14 
 1817000   0.52424666   -7.9881865    318.70819   0.01461696  0.013242293            8 
 1818000   0.53125648   -8.0045457    318.90234  0.014617819  0.013231625           11 
 1819000   0.51775074   -8.0033758    319.16766  0.014621938  0.013220967           13 
 1820000   0.52444424   -7.9995823    319.21136  0.014615905  0.013210331           14 
 1821000   0.52866307    -8.013694    319.02976  0.014599568  0.013199698           11 
 1822000   0.53196709   -8.0107653    319.01364  0.014590818  0.013189071           12 
 1823000   0.53429457   -8.0174981    318.51939  0.014560221  0.013178446           13 
 1824000   0.52318479   -8.0200371    319.00139  0.014574259  0.013167838            9 
 1825000    0.5142834   -8.0099511    318.92062  0.014562586  0.013157252            9 
 1826000   0.51195589   -8.0104463    319.29706   0.01457179   0.01314666           14 
 1827000   0.52470348   -8.0199798    318.92679  0.014546926  0.013136085           15 
 1828000   0.50032198    -8.011609    319.23423  0.014552983  0.013125519           18 
 1829000   0.51809042   -8.0120734    319.12037  0.014539838  0.013114966           10 
 1830000   0.52236595   -8.0116588    319.30484  0.014540293   0.01310443           14 
 1831000   0.53657173   -8.0156127    319.33978  0.014533942   0.01309391            6 
 1832000    0.5380897   -8.0205857    318.30066  0.014478742  0.013083393           13 
 1833000    0.5156787   -7.9915775    318.76644  0.014492018  0.013072878            7 
 1834000   0.52601091   -8.0137428    318.65142   0.01447889  0.013062384           14 
 1835000   0.52452335   -8.0279382    318.60943  0.014469093  0.013051882           12 
 1836000   0.51174948   -8.0328219     319.2631  0.014490881  0.013041406           25 
 1837000   0.52609894   -8.0147653    319.20361  0.014480294  0.013030948            5 
 1838000   0.51671225   -8.0241178    318.34744  0.014433598  0.013020487           18 
 1839000   0.50679519   -8.0284174    319.38619   0.01447282  0.013010036           15 
 1840000   0.52127503   -8.0145671    319.01181  0.014447998  0.012999593            8 
 1841000   0.51085272   -8.0257828    318.94419   0.01443709  0.012989165           10 
 1842000   0.51752855   -8.0287597    318.60252  0.014413795   0.01297876            8 
 1843000   0.51724276    -8.023271    318.69594  0.014410198  0.012968358           13 
 1844000   0.52325264   -8.0218501    318.86413  0.014409984  0.012957957            6 
 1845000    0.5221216     -8.02225    318.99116  0.014407912  0.012947566           12 
 1846000   0.51212638   -8.0252011    318.59176  0.014382077  0.012937188           11 
 1847000   0.51782915    -8.007328    318.50367  0.014370316  0.012926831           11 
 1848000   0.52642175   -8.0498126    319.66736  0.014415014  0.012916485           15 
 1849000   0.52719808   -8.0172162    319.18213  0.014385349  0.012906144            8 
 1850000    0.5089927   -8.0188459     319.0888  0.014373369  0.012895819           14 
 1851000   0.52574012   -8.0320538    318.50731  0.014339425  0.012885505            8 
 1852000   0.51926896   -8.0115271    318.22566  0.014319009  0.012875198           10 
 1853000   0.50405499   -8.0186072    318.78262  0.014336329  0.012864901            7 
 1854000   0.51484868    -8.031123    318.72529   0.01432602    0.0128546           16 
 1855000   0.50771268   -8.0191304    318.82523  0.014322786  0.012844324           16 
 1856000   0.50970053    -8.025835    318.58119  0.014304112  0.012834032           14 
 1857000   0.51238396   -8.0153723    317.83162  0.014262772   0.01282376           19 
 1858000   0.50866114   -8.0243736    318.97553  0.014306401  0.012813508           15 
 1859000   0.51543861    -8.034203    318.59908  0.014281831  0.012803272            8 
 1860000   0.50448894   -8.0310481    319.08133  0.014295758  0.012793039           22 
 1861000   0.50291429   -8.0326667    318.84677  0.014277573  0.012782828           22 
 1862000   0.50478025   -8.0296387    318.82146  0.014268773  0.012772614           18 
 1863000   0.50526191   -8.0183722    318.19024  0.014232879   0.01276241           20 
 1864000   0.50196128   -8.0299147    318.41679  0.014235372  0.012752217           11 
 1865000   0.51012943   -8.0315564      319.016  0.014254513  0.012742024            8 
 1866000   0.51408228   -8.0381973    319.06517   0.01424907  0.012731844           11 
 1867000   0.49998732   -8.0370849    318.61897  0.014221521  0.012721669           12 
 1868000   0.51425925   -8.0349347    318.52794  0.014209847  0.012711508           13 
 1869000   0.50166857   -8.0251817      318.441  0.014198368  0.012701354           15 
 1870000   0.51394955   -8.0210273    318.88431  0.014210531  0.012691215           12 
 1871000   0.49806908   -8.0432853    318.49321  0.014185516  0.012681078            9 
 1872000   0.50040507   -8.0177067    318.41022  0.014174244   0.01267095           18 
 1873000   0.48935561   -8.0455635     318.4089  0.014166618  0.012660826           10 
 1874000   0.49154947   -8.0413236     318.8669  0.014179425   0.01265071            9 
 1875000   0.50214169   -8.0328657    318.64667  0.014162074  0.012640611           15 
 1876000   0.49743374   -8.0193149    318.74445  0.014158868   0.01263053           16 
 1877000   0.49811445   -8.0504965    318.53154  0.014141873  0.012620462           19 
 1878000   0.50302778   -8.0606694    318.64166  0.014139229  0.012610395            9 
 1879000   0.50960808   -8.0404261    319.00737  0.014147923   0.01260034           17 
 1880000   0.52136972   -8.0386315    318.81764  0.014131988  0.012590299           18 
 1881000   0.49966681   -8.0568974    319.10825  0.014137349  0.012580251            9 
 1882000    0.4995146    -8.038485    318.80809  0.014116547  0.012570212           15 
 1883000   0.49658987   -8.0358997    318.21702  0.014082892  0.012560171           12 
 1884000   0.50091598   -8.0516488    318.46232  0.014086267  0.012550152           10 
 1885000   0.50607603   -8.0508166    318.33075  0.014072977  0.012540142           13 
 1886000   0.50039042   -8.0467426    318.68857  0.014081326  0.012530133           17 
 1887000   0.49983324   -8.0448019    318.92473  0.014084293  0.012520135           14 
 1888000   0.50503746   -8.0470475    318.97489  0.014079047  0.012510145           18 
 1889000   0.50160697    -8.055978    317.88927  0.014023702  0.012500171           24 
 1890000   0.50585413   -8.0322485    318.47674  0.014042184  0.012490203            9 
 1891000   0.51105387   -8.0465126    318.20948  0.014022981  0.012480249           20 
 1892000    0.5061085    -8.061267    318.54365  0.014030288  0.012470314           20 
 1893000   0.49075678   -8.0523402    318.49539  0.014020752  0.012460379           24 
 1894000   0.49970672   -8.0395169    318.45073  0.014011384  0.012450447           11 
 1895000   0.50145893   -8.0508998     318.7563  0.014017427  0.012440525           12 
 1896000   0.48535541   -8.0499839    318.75441  0.014009951  0.012430611           15 
 1897000   0.50289909   -8.0655644    318.40396  0.013987171  0.012420717           15 
 1898000   0.49757256   -8.0448396    318.54418  0.013985958  0.012410825           14 
 1899000   0.48600835   -8.0525071    318.59832  0.013980969  0.012400947           15 
 1900000   0.49887125   -8.0339589    318.69879  0.013978017  0.012391083           13 
 1901000   0.49276965   -8.0528377    317.90229  0.013935748  0.012381235           18 
 1902000   0.49256361   -8.0578483    318.12328  0.013938104  0.012371386           14 
 1903000    0.4881148   -8.0551505    318.50379  0.013947442  0.012361534           19 
 1904000   0.49088191   -8.0531852    318.36201  0.013933911  0.012351708           15 
 1905000   0.48483198   -8.0632545    317.97883  0.013909835  0.012341887           17 
 1906000    0.4991846   -8.0591412    318.18683  0.013911631   0.01233207           20 
 1907000   0.48662412   -8.0485968    318.01172  0.013896684  0.012322258           12 
 1908000   0.48014607   -8.0671676    318.39401  0.013906097  0.012312452           15 
 1909000   0.48955275   -8.0553866    318.24097  0.013892132  0.012302649           15 
 1910000    0.4966011   -8.0630826    317.54582   0.01385453  0.012292863           17 
 1911000   0.49275332   -8.0688277    318.37232  0.013883321  0.012283085           20 
 1912000    0.4816068   -8.0640434    318.22169  0.013869495  0.012273306           29 
 1913000   0.48572946   -8.0693067    318.25142   0.01386354   0.01226355           16 
 1914000   0.48840936   -8.0726954    318.18368  0.013853347  0.012253807           28 
 1915000   0.49123315   -8.0467325    317.74472  0.013827011   0.01224407           15 
 1916000   0.48846479   -8.0637922    317.84643  0.013824219  0.012234334           11 
 1917000   0.50252462   -8.0660349    317.79431  0.013814742  0.012224605            8 
 1918000   0.48293004   -8.0677557    318.28292  0.013828768   0.01221489           14 
 1919000   0.48584023   -8.0556065    318.13576  0.013815171  0.012205186           24 
 1920000   0.48821989   -8.0675671    317.63564  0.013786269  0.012195498           11 
 1921000   0.48395755    -8.065002    318.57335  0.013819771  0.012185809           12 
 1922000   0.48811879   -8.0746046    318.03816  0.013789375  0.012176133            8 
 1923000   0.47765341   -8.0743953    318.45519  0.013800277  0.012166465           11 
 1924000   0.47847481   -8.0653086    318.03773  0.013775023  0.012156804           29 
 1925000   0.47281153   -8.0799208    317.87337  0.013760752   0.01214717           21 
 1926000   0.48392203   -8.0772612    318.39561  0.013776203  0.012137534            9 
 1927000   0.47365324   -8.0822009    317.80244  0.013743402  0.012127906            8 
 1928000   0.48866007    -8.079474    318.01192  0.013745328  0.012118284           17 
 1929000   0.48359604   -8.0696972    317.69062  0.013724323  0.012108677           12 
 1930000   0.48101861   -8.0844578    317.89677  0.013726113  0.012099082           13 
 1931000    0.4750696   -8.0804083    318.17742  0.013731116  0.012089505           10 
 1932000   0.48072907   -8.0707729    318.07623  0.013719644  0.012079925           14 
 1933000   0.47459476   -8.0856909    318.21704  0.013718617  0.012070353           17 
 1934000   0.48983954   -8.0763779    318.30285  0.013715221  0.012060792            7 
 1935000   0.47771098    -8.078809    318.39292  0.013712012  0.012051237           11 
 1936000   0.47949606   -8.0863072    318.27397  0.013699809  0.012041702           11 
 1937000   0.47329397   -8.0955679    317.68639  0.013667458  0.012032171           12 
 1938000   0.47611574   -8.0740553    317.92557   0.01367069  0.012022635           13 
 1939000   0.48445653   -8.0908914    318.02526  0.013667924  0.012013128           13 
 1940000   0.48396255   -8.1005575    317.78696  0.013650643  0.012003633           10 
 1941000   0.47301955   -8.0735091    318.11249  0.013657586  0.011994146           22 
 1942000   0.47966644   -8.0734639    317.85136  0.013639348  0.011984654            8 
 1943000   0.46826948   -8.0716663     317.9926  0.013638386  0.011975183           19 
 1944000   0.47680368   -8.0977175    318.01511  0.013632335  0.011965718           13 
 1945000   0.46693186   -8.0986594    317.98318  0.013623958  0.011956263           21 
 1946000   0.46562143   -8.0852842    317.76339  0.013607545  0.011946806           11 
 1947000   0.46838021   -8.0858748    317.93903  0.013608073  0.011937369           15 
 1948000   0.47804912   -8.0840395    317.84076  0.013596884  0.011927938           21 
 1949000   0.46950628   -8.0832504    317.77946  0.013587287  0.011918512            9 
 1950000   0.48355403   -8.0858211     317.8643  0.013583944  0.011909091           22 
 1951000   0.48322534   -8.0932365    317.61617  0.013566383  0.011899685           21 
 1952000   0.47753019   -8.0991374    318.22271  0.013585327  0.011890285            9 
 1953000   0.47985568   -8.0943147    317.93161   0.01356595  0.011880899           28 
 1954000   0.47730795   -8.0836838    317.86951  0.013556359   0.01187152           18 
 1955000   0.47284268   -8.0992556    318.00966  0.013555399  0.011862149           15 
 1956000   0.47913241   -8.0996538    318.09084  0.013551928  0.011852785           23 
 1957000   0.47354009   -8.0821607    317.48281  0.013519111   0.01184343            8 
 1958000   0.46729099   -8.0971504    317.62434   0.01351823  0.011834077           12 
 1959000   0.47918153   -8.1043788    317.82101  0.013519696  0.011824732           16 
 1960000   0.47199881   -8.0862411    317.47804  0.013498216  0.011815392           15 
 1961000   0.46641776   -8.1033531    317.84418  0.013506892   0.01180607           14 
 1962000   0.47018091    -8.099462    317.82832  0.013499334  0.011796753           12 
 1963000    0.4705828   -8.0897105    317.78915  0.013490794   0.01178744           10 
 1964000   0.47070044   -8.0844073    317.52838   0.01347286  0.011778141           13 
 1965000   0.46884424   -8.0962783    317.20553  0.013452313  0.011768849           11 
 1966000   0.47128273   -8.0894408    317.62028   0.01346305  0.011759563           12 
 1967000   0.46413346   -8.0919886    317.66263     0.013458  0.011750297           11 
 1968000   0.47234853   -8.1090195    317.71099  0.013453209  0.011741028           20 
 1969000   0.45748211   -8.0980644    318.01446  0.013459221  0.011731768           13 
 1970000   0.46610879    -8.099676    317.11274  0.013414245  0.011722515           11 
 1971000   0.46590531   -8.0986759    317.59095  0.013427657  0.011713271           15 
 1972000   0.46282766   -8.1089096    317.66808  0.013424108  0.011704025           10 
 1973000    0.4710608   -8.1045019    317.61327  0.013414989  0.011694802           11 
 1974000   0.46466829   -8.0967898    317.09666  0.013386384  0.011685582           20 
 1975000   0.45897044   -8.1146004    317.64095  0.013402572  0.011676374           17 
 1976000   0.46759448   -8.1033062    317.21586  0.013377862  0.011667173           20 
 1977000   0.46333005   -8.1074998    317.61815  0.013388052   0.01165798           22 
 1978000   0.45711271   -8.1167596    317.69649  0.013384584  0.011648795           16 
 1979000   0.46243778   -8.1072357    317.52207  0.013370476  0.011639621           13 
 1980000   0.45552016   -8.1181927    318.05098  0.013385984  0.011630455           15 
 1981000   0.45577358   -8.1023953    317.16703  0.013342042  0.011621303           19 
 1982000   0.45808048   -8.0902092    316.95495  0.013326394  0.011612161           25 
 1983000   0.45530616    -8.116224    317.06594  0.013324338  0.011603028           12 
 1984000   0.45151946   -8.1134866    317.52126  0.013336746  0.011593889           27 
 1985000   0.47061502   -8.1245605    317.67165  0.013336341  0.011584779           29 
 1986000   0.45938417   -8.1188948    317.61961  0.013327443  0.011575669           28 
 1987000   0.46082406   -8.1157539    317.45761  0.013313941  0.011566567           10 
 1988000   0.47051029    -8.108557    317.71849   0.01331818  0.011557471           16 
 1989000    0.4672484   -8.1124483    317.66751  0.013309348  0.011548387           22 
 1990000   0.45906665   -8.1093365    317.20536  0.013283307  0.011539319           30 
 1991000   0.45095601   -8.1101627    317.76018  0.013299857  0.011530263           19 
 1992000   0.45164785   -8.1097618    317.09339  0.013265286  0.011521209           15 
 1993000   0.45841861   -8.1214489    317.46374  0.013274115  0.011512165           15 
 1994000   0.46704728   -8.1147427    317.69093  0.013276953  0.011503133           15 
 1995000   0.45581183   -8.1294365    317.11173  0.013246104   0.01149411           17 
 1996000   0.45707998   -8.1083942    317.02523  0.013235856  0.011485097           15 
 1997000   0.45042088   -8.1258639    317.52638  0.013250141  0.011476091           18 
 1998000   0.44598741   -8.1368052    317.40661  0.013238514  0.011467078           26 
 1999000   0.45288191   -8.1136428    317.61756  0.013240685   0.01145808           25 
 2000000   0.45828306   -8.1321285    317.57932  0.013232472  0.011449089           19 
 2001000    0.4544624    -8.128058    317.15313   0.01320811   0.01144011           31 
 2002000   0.45098545   -8.1377788    317.02283  0.013196089  0.011431131           15 
 2003000   0.46125472   -8.1106508    317.11494  0.013193332  0.011422173           15 
 2004000   0.46029503   -8.1292351    317.38952  0.013198167  0.011413219           21 
 2005000   0.45867007    -8.105025    317.23725  0.013185256  0.011404266            9 
 2006000   0.46123227   -8.1192343    317.13637  0.013174492  0.011395323           19 
 2007000    0.4566093   -8.1171931    317.45023   0.01318096  0.011386397           15 
 2008000   0.45083579   -8.1127369    317.28292  0.013167452  0.011377475           18 
 2009000   0.44909955   -8.1288673    317.02834  0.013150338  0.011368558            9 
 2010000   0.44945131   -8.1349872    317.28178  0.013154303  0.011359646           15 
 2011000   0.45753078   -8.1128537    317.50858   0.01315716   0.01135075           14 
 2012000   0.45478963   -8.1305746    317.19308  0.013137553  0.011341859            7 
Loop time of 4563.72 on 48 procs for 2000000 steps with 4000 atoms

Performance: 75727.760 tau/day, 438.239 timesteps/s
99.4% CPU use with 48 MPI tasks x no OpenMP threads

MPI task timing breakdown:
Section |  min time  |  avg time  |  max time  |%varavg| %total
---------------------------------------------------------------
Pair    | 278.08     | 303.3      | 333.18     |  84.5 |  6.65
Neigh   | 28.669     | 29.789     | 31.542     |  12.6 |  0.65
Comm    | 264.93     | 295.76     | 321.67     |  87.2 |  6.48
Output  | 4.0056     | 4.0081     | 4.0448     |   0.3 |  0.09
Modify  | 3869.3     | 3884.8     | 3894.5     |   8.4 | 85.12
Other   |            | 46.08      |            |       |  1.01

Nlocal:        83.3333 ave          93 max          73 min
Histogram: 1 1 3 3 10 15 7 4 3 1
Nghost:        1907.08 ave        1934 max        1887 min
Histogram: 4 3 7 7 9 8 3 6 0 1
Neighs:        11975.2 ave       13627 max       10150 min
Histogram: 2 0 8 5 5 7 10 8 1 2
FullNghs:      23949.9 ave       27239 max       20772 min
Histogram: 1 4 1 7 9 13 8 4 0 1

Total # of neighbors = 1149596
Ave neighs/atom = 287.39900
Neighbor list builds = 107557
Dangerous builds = 0

#clear
#
#next RN
#
#jump SELF
Total wall time: 1:16:06
