
units lj                  # Use reduced LJ style units
atom_style atomic         # Uncharged point particles
atom_modify map hash      # Needed for indexing of clusters etc
                          # Used to be able to find where atoms are in relation to each other.

lattice fcc 1.0 spacing 1 1 1
Lattice spacing in x,y,z = 1.5874011 1.5874011 1.5874011
region box block 0 10 0 10 0 10 units lattice
create_box 2 box
Created orthogonal box = (0.0000000 0.0000000 0.0000000) to (15.874011 15.874011 15.874011)
  3 by 4 by 4 MPI processor grid
create_atoms 1 box
Created 4000 atoms
  using lattice units in orthogonal box = (0.0000000 0.0000000 0.0000000) to (15.874011 15.874011 15.874011)
  create_atoms CPU = 0.003 seconds
set type 1 type/fraction 2 0.97 78393
Setting atom values ...
  3879 settings made for type/fraction
mass 1 1.0
mass 2 1.0
pair_style lj/cut  3.5
pair_modify tail  yes
pair_coeff 1  1  1.0  1.0   # Intearaction between 1 and 1 set with epsilon = 1 and sigma = 1
pair_coeff 1  2  1.5  0.8
pair_coeff 2  2  0.5  0.88

write_data data.0
System init for write_data ...
Neighbor list info ...
  update every 1 steps, delay 10 steps, check yes
  max neighbors/atom: 2000, page size: 100000
  master list distance cutoff = 3.8
  ghost atom cutoff = 3.8
  binsize = 1.9, bins = 9 9 9
  1 neighbor lists, perpetual/occasional/extra = 1 0 0
  (1) pair lj/cut, perpetual
      attributes: half, newton on
      pair build: half/bin/atomonly/newton
      stencil: half/bin/3d
      bin: standard
WARNING: Not all mixed pair coeffs generated from mixing. Use write_data with 'pair ij' option to store all pair coeffs. (../write_data.cpp:312)


#############################
#   M E L T   S Y S T E M   #
#############################

velocity all create 2.4 1741580 mom yes dist gaussian # Assign velocities
                                                    # Temperature 2.4, random number seed, zero linear momentum
                                                                                # Gaussian distribution

timestep 0.002   # simulation timestep
thermo 1000       # output thermodynamic data every 1000 steps bf 100

# Define a fix  in this case with index 1 applied to all
# particles in the simulation. This fix is for simulations
# in the anisotropic NPT ensemble. Note that we use the MTK
# correction.
fix 1 all npt temp 2.4 2.4 0.1 iso 5.68 5.68 0.5 mtk yes tchain 5 pchain 5 # Use NPT ensemble
                                                                         # Set temperature and pressure and damping
                                                                         # Numbers of thermostats in chain and in barostat
run 10000          # run for 10000 steps
Per MPI rank memory allocation (min/avg/max) = 3.642 | 3.644 | 3.648 Mbytes
Step Temp E_pair E_mol TotEng Press Volume 
       0          2.4   -2.8451072            0   0.75399283    -1.976462         4000 
    1000    2.3862846    -1.703023            0    1.8755091    5.7862625     4121.269 
    2000     2.500006   -1.6568071            0    2.0922644    5.8660226    4176.5929 
    3000    2.3641178   -1.6543605            0    1.8909297    5.7898477    4168.0602 
    4000    2.4261947   -1.6588513            0     1.979531    5.6965563    4187.1767 
    5000    2.3918464   -1.6704738            0    1.9163989    5.7841808     4144.863 
    6000    2.3419575   -1.7029645            0    1.8090936    5.7940198    4117.7039 
    7000    2.3987157   -1.7134109            0    1.8837632    5.5318839    4167.3265 
    8000    2.4078389   -1.6493175            0    1.9615379    5.6810535    4210.6671 
    9000    2.4024945   -1.6881463            0    1.9146946    5.6864097    4165.1697 
   10000    2.4262071   -1.6727201            0    1.9656807    5.8589807    4140.5391 
Loop time of 2.39908 on 48 procs for 10000 steps with 4000 atoms

Performance: 720275.232 tau/day, 4168.259 timesteps/s
99.6% CPU use with 48 MPI tasks x no OpenMP threads

MPI task timing breakdown:
Section |  min time  |  avg time  |  max time  |%varavg| %total
---------------------------------------------------------------
Pair    | 1.0527     | 1.1078     | 1.1771     |   2.4 | 46.17
Neigh   | 0.20355    | 0.21015    | 0.21971    |   0.7 |  8.76
Comm    | 0.74447    | 0.81686    | 0.88312    |   3.2 | 34.05
Output  | 0.00023737 | 0.00024472 | 0.00030749 |   0.0 |  0.01
Modify  | 0.23512    | 0.24916    | 0.2651     |   1.5 | 10.39
Other   |            | 0.0149     |            |       |  0.62

Nlocal:        83.3333 ave          96 max          73 min
Histogram: 3 1 5 10 12 5 8 2 1 1
Nghost:        1606.83 ave        1641 max        1577 min
Histogram: 2 4 4 6 13 6 8 2 1 2
Neighs:        9214.00 ave       10710 max        7705 min
Histogram: 1 1 5 7 11 10 5 4 3 1

Total # of neighbors = 442272
Ave neighs/atom = 110.56800
Neighbor list builds = 904
Dangerous builds = 178

# Equilibrate just above the melting temperature to avoid step fn in T

fix 1 all npt temp 1.25 1.25 0.1 iso 5.68 5.68 0.5 mtk yes tchain 5 pchain 5
run 2000
Per MPI rank memory allocation (min/avg/max) = 3.643 | 3.645 | 3.649 Mbytes
Step Temp E_pair E_mol TotEng Press Volume 
   10000    2.4262071   -1.6727201            0    1.9656807    5.8589807    4140.5391 
   11000    1.2177104   -2.5527212            0  -0.72661228    5.6150097    3267.9327 
   12000    1.2550359   -2.5610391            0  -0.67895582    5.4544218    3278.9353 
Loop time of 0.589562 on 48 procs for 2000 steps with 4000 atoms

Performance: 586198.355 tau/day, 3392.352 timesteps/s
99.6% CPU use with 48 MPI tasks x no OpenMP threads

MPI task timing breakdown:
Section |  min time  |  avg time  |  max time  |%varavg| %total
---------------------------------------------------------------
Pair    | 0.25561    | 0.28054    | 0.32247    |   2.4 | 47.58
Neigh   | 0.038329   | 0.040359   | 0.045464   |   0.6 |  6.85
Comm    | 0.17386    | 0.22013    | 0.25161    |   3.1 | 37.34
Output  | 5.151e-05  | 5.292e-05  | 6.8901e-05 |   0.0 |  0.01
Modify  | 0.037923   | 0.043769   | 0.048495   |   1.6 |  7.42
Other   |            | 0.004708   |            |       |  0.80

Nlocal:        83.3333 ave          91 max          72 min
Histogram: 1 1 2 4 7 6 12 9 5 1
Nghost:        1881.04 ave        1906 max        1854 min
Histogram: 3 2 8 5 4 7 6 6 3 4
Neighs:        11643.5 ave       13018 max        9793 min
Histogram: 2 4 2 6 6 3 7 8 4 6

Total # of neighbors = 558886
Ave neighs/atom = 139.72150
Neighbor list builds = 142
Dangerous builds = 8

#############################
# L I N E A R  Q U E N C H  #
#############################

# Define solid atoms. This closely follows ten Wolde  Ruiz-Montero and Frenkel  Faraday Discuss  1996  104  93-110
# Compute components of the per-atom q6 vector
compute q6 all orientorder/atom degrees 1 6 components 6 nnn NULL cutoff 1.3 # compute the Q6 parameter.
                                                                             # Use all neighbours within 1.3 unit cell.

# get number of connections
compute coord_number all coord/atom orientorder q6 0.5

# An atom is solid if it has 8 or more connections (of a possible 14)
variable is_solid atom c_coord_number>=8
group solid dynamic all var is_solid    # Must be dynamic to update
dynamic group solid defined

# do clustering
compute cluster solid cluster/atom 1.3 # Create a cluster where all atoms within are solid and max 1.3 units from another member

# define chunks one chunk per cluster
compute clus_chunks solid chunk/atom c_cluster nchunk every compress yes  # Says which atoms are in which chunk

# count the size of each chunk
compute size_chunks solid property/chunk clus_chunks count


# Find the maximum entry in the vector of chunk sizes
variable max_n equal max(c_size_chunks)


# Thermo style which includes this variable
# thermo_style custom step temp pe vol v_max_n

thermo ${N}  # Print the thermo information every 100 steps
thermo 1000  

# Reset the npt fix at a lower temperature (below freezing)
fix 1  all npt temp  ${temp} ${temp}  0.1  iso  5.68  5.68  0.5  mtk yes tchain  5  pchain  5
fix 1  all npt temp  0.45 ${temp}  0.1  iso  5.68  5.68  0.5  mtk yes tchain  5  pchain  5
fix 1  all npt temp  0.45 0.45  0.1  iso  5.68  5.68  0.5  mtk yes tchain  5  pchain  5

dump dmp2 all dcd ${N} traj.dcd
dump dmp2 all dcd 1000 traj.dcd


compute msd all msd com yes
variable twopoint equal c_msd[4]/6/(step*dt+1.0e-6)
fix 9 all vector 10 c_msd[4]
variable fit equal slope(f_9)/6/(10*dt)
thermo_style custom step temp pe c_msd[4] v_twopoint v_fit v_max_n

fix 1 all npt temp 1.25 ${temp} 0.1 iso 5.68 5.68 0.5 mtk yes tchain 5 pchain 5
fix 1 all npt temp 1.25 0.45 0.1 iso 5.68 5.68 0.5 mtk yes tchain 5 pchain 5
run 5000000 # 5000000  # Run for this many steps
Neighbor list info ...
  update every 1 steps, delay 10 steps, check yes
  max neighbors/atom: 2000, page size: 100000
  master list distance cutoff = 3.8
  ghost atom cutoff = 3.8
  binsize = 1.9, bins = 8 8 8
  4 neighbor lists, perpetual/occasional/extra = 1 3 0
  (1) pair lj/cut, perpetual
      attributes: half, newton on
      pair build: half/bin/atomonly/newton
      stencil: half/bin/3d
      bin: standard
  (2) compute orientorder/atom, occasional
      attributes: full, newton on
      pair build: full/bin/atomonly
      stencil: full/bin/3d
      bin: standard
  (3) compute coord/atom, occasional
      attributes: full, newton on
      pair build: full/bin/atomonly
      stencil: full/bin/3d
      bin: standard
  (4) compute cluster/atom, occasional
      attributes: full, newton on
      pair build: full/bin/atomonly
      stencil: full/bin/3d
      bin: standard
Per MPI rank memory allocation (min/avg/max) = 9.809 | 9.821 | 9.829 Mbytes
Step Temp PotEng c_msd[4] v_twopoint v_fit v_max_n 
   12000    1.2550359   -2.5610391 1.069301e-30 7.4257008e-33 8.3333333e+20            1 
   13000    1.2947176   -2.5258463    1.1381823 0.0072960401  0.097942053            2 
   14000    1.2614164   -2.5469402    2.3881641  0.014215262   0.10024402            1 
   15000    1.2628259   -2.5395903    3.7032982  0.020573878   0.10385053            2 
   16000    1.2499162   -2.5661893    4.9783989   0.02592916    0.1049278            2 
   17000     1.242184   -2.5445942    6.2372611  0.030574808   0.10556373            1 
   18000    1.2564114   -2.5372276    7.5665645   0.03503039   0.10617783            1 
   19000    1.2518998    -2.545909    8.7621347  0.038430414   0.10610448            1 
   20000    1.2500762   -2.5588861    10.100447  0.042085195   0.10620986            2 
   21000    1.2503538   -2.5522702    11.451011   0.04544052   0.10695829            2 
   22000    1.2379884   -2.5207799    12.791375  0.048452178   0.10729785            2 
   23000    1.2675196   -2.5552673    14.149187  0.051265169   0.10781427            1 
   24000    1.2499917   -2.5544624    15.386838  0.053426519   0.10801327            2 
   25000    1.2544033   -2.5380351    16.611242  0.055370804   0.10810295            2 
   26000    1.2516256   -2.5426799    17.934112  0.057481127   0.10808405            1 
   27000    1.2624467   -2.5290851    19.288837  0.059533447   0.10810843            1 
   28000    1.2743581   -2.5786559    20.282626  0.060364956   0.10796611            2 
   29000    1.2708489   -2.5196193    21.411144  0.061526274   0.10755196            2 
   30000    1.2477895    -2.548552    22.711097  0.063086378   0.10705947            2 
   31000    1.2335909   -2.5381374    23.888698   0.06421693   0.10651516            2 
   32000    1.2683108   -2.5529211    25.190991  0.065601539   0.10609003            2 
   33000    1.2613057   -2.5607108    26.544648  0.067031939   0.10582135            4 
   34000    1.2067209   -2.5848837    27.866778  0.068300925   0.10574101            2 
   35000    1.2704776   -2.5397954    29.196264  0.069514913   0.10578998            2 
   36000    1.2302656   -2.5626302    30.476918   0.07054842   0.10589776            1 
   37000    1.2397125   -2.5558999    31.570472  0.071104667   0.10586591            2 
   38000    1.2478749   -2.5633914    33.059639  0.072499208   0.10584454            1 
   39000    1.2083731   -2.5551757    34.322451  0.073338569   0.10578968            1 
   40000    1.2249644   -2.5258866    35.528878  0.074018494   0.10581484            1 
   41000    1.2635612   -2.5355011    37.011606   0.07522684    0.1059208            1 
   42000    1.2517312   -2.5254415    38.251226  0.075895288   0.10602226            2 
   43000    1.2614932   -2.5978972    39.366039  0.076290772   0.10611765            2 
   44000    1.2258027    -2.573343    40.972079  0.077598634   0.10623008            2 
   45000     1.251643   -2.5674292    42.340454  0.078408247   0.10636989            2 
   46000    1.2474119   -2.5531245    43.515028  0.078831571   0.10654964            1 
   47000    1.2424931   -2.5473447    44.767399  0.079374821   0.10671109            1 
   48000    1.2652696   -2.5647349    46.734273   0.08113589   0.10689035            2 
   49000    1.2416265   -2.5433225    47.974107  0.081588616   0.10709341            2 
   50000    1.2457828   -2.5547108    48.557392  0.080928985   0.10717902            1 
   51000    1.2404228   -2.5370854    50.098576  0.081860418   0.10725209            1 
   52000    1.2263402   -2.5422427    51.281485  0.082181866   0.10726979            2 
   53000    1.2200844   -2.5092649    53.003741  0.083339215   0.10732199            2 
   54000    1.2523872   -2.5320728    54.298324  0.083793709   0.10741395            1 
   55000    1.2284354   -2.5395235    55.224862  0.083674032   0.10744493            1 
   56000    1.2088511   -2.5598364    56.565582  0.084174972   0.10745101            1 
   57000    1.2699866   -2.5561451    58.291818  0.085221955    0.1075007            2 
   58000    1.2356998   -2.5468994    58.992529   0.08475938    0.1075664            2 
   59000    1.2640857   -2.5704815    60.557418  0.085533076   0.10759295            2 
   60000    1.2509155    -2.572409    61.785964  0.085813838   0.10762436            4 
   61000    1.2113145   -2.5407951    63.093571  0.086193403   0.10764917            1 
   62000    1.2519892   -2.5633032    64.355271   0.08649902   0.10764357            1 
   63000    1.2359406   -2.5547208     65.55634  0.086714735   0.10763996            2 
   64000    1.2596975    -2.558446    67.005255  0.087246425    0.1076383            2 
   65000    1.2207523   -2.5860073    68.026473  0.087213426    0.1076548            1 
   66000    1.2308956   -2.5669027    69.309007  0.087511371   0.10767271            1 
   67000    1.2743927    -2.533041    70.448565  0.087622593   0.10764613            2 
   68000    1.2522364   -2.5528845    71.909831  0.088124792   0.10762975            2 
   69000    1.2296464   -2.5359128    73.674042  0.088978312   0.10762129            2 
   70000     1.197385   -2.5268177    75.061046  0.089358387    0.1076707            2 
   71000    1.2752965     -2.55328    76.194184  0.089429792   0.10773013            1 
   72000    1.2392063   -2.5665908    77.416132  0.089602004   0.10776636            2 
   73000    1.2422185     -2.55014    78.746329  0.089893069   0.10780726            1 
   74000    1.2185325   -2.5519972    80.420334  0.090563439   0.10784757            3 
   75000    1.2322311   -2.5817504    81.362658  0.090402952   0.10788892            1 
   76000    1.2370807   -2.5610936    82.358758  0.090305655   0.10789379            1 
   77000    1.2302979   -2.5726326    83.332255  0.090186423   0.10784592            3 
   78000    1.2368839   -2.5352518    84.318325   0.09008368   0.10777777            2 
   79000    1.2651828   -2.5260349    85.327356  0.090007759     0.107692            1 
   80000    1.2322051   -2.5618377    86.704103  0.090316774   0.10761612            1 
   81000    1.2450866   -2.5530982    87.781222  0.090309898     0.107543            1 
   82000    1.2264847   -2.5464174    88.713847  0.090156348   0.10746025            2 
   83000     1.235291     -2.54088      90.7314  0.091095783   0.10736154            6 
   84000    1.2445155   -2.5585428    92.101477  0.091370512   0.10728086            2 
   85000    1.2391048   -2.5676909    93.530201  0.091696275   0.10723186            1 
   86000    1.2262325    -2.543676     94.67615  0.091740455   0.10719123            1 
   87000    1.2378261   -2.5837992    95.728015    0.0916935   0.10715702            3 
   88000    1.2242714   -2.5779063      96.7931  0.091660132   0.10712515            2 
   89000    1.2379578   -2.5323558    98.946182  0.092646237   0.10710289            2 
   90000    1.2553589     -2.51084    99.891843  0.092492447   0.10708194            2 
   91000    1.2276943   -2.5536112     100.4408  0.091978752   0.10704279            5 
   92000    1.2366541   -2.5432649    100.71702  0.091229187   0.10696298       -1e+20 
   93000    1.2440684   -2.5696361    102.56953  0.091908176    0.1068622            2 
   94000     1.230136   -2.5448305    104.35446  0.092512816   0.10678546            1 
   95000    1.2515485   -2.5353787     105.6025  0.092633771   0.10670914            2 
   96000    1.2200128   -2.5411107    106.32369  0.092294869   0.10661871            1 
   97000    1.2299871   -2.6153722     107.6119  0.092450088    0.1065518            1 
   98000    1.2361993   -2.5529873     108.7054  0.092436567   0.10647058            1 
   99000    1.2177413   -2.5804005     110.0163  0.092606313   0.10641524            1 
  100000    1.2395625   -2.5310257    111.46703  0.092889188   0.10636218            2 
  101000    1.2321436   -2.5495089    112.79901  0.093068489   0.10632425            2 
  102000    1.2418042   -2.5600846    113.33775    0.0925962   0.10626231            1 
  103000    1.2435878   -2.5533429    115.38134  0.093350598    0.1062064            2 
  104000    1.2338072   -2.5852715    116.42668  0.093290612   0.10616474            3 
  105000    1.2091207   -2.5388662    117.89473  0.093567244   0.10611844            3 
  106000    1.2298235   -2.5242413    119.87322  0.094239954   0.10610766            2 
  107000    1.2154553   -2.5802911    120.65208  0.093965797   0.10609582            2 
  108000    1.2602995   -2.5877349    121.99704  0.094133516   0.10608997            2 
  109000    1.2258028   -2.5784664    123.16685  0.094164257   0.10607027            2 
  110000    1.2200434   -2.5574723    124.50861  0.094324707   0.10603979            1 
  111000    1.2476291   -2.5530327    125.27729  0.094052022    0.1059942            2 
  112000    1.2061166   -2.5438676    126.69456  0.094266782   0.10593279            1 
  113000    1.2275554   -2.5831667    127.38919  0.093944828   0.10588989            2 
  114000    1.2187977   -2.5792509    129.14661  0.094405416   0.10585599       -1e+20 
  115000     1.240462   -2.5738638    131.10047  0.095000343   0.10583941            1 
  116000     1.243844   -2.5480873    132.35111  0.095079821   0.10581969            3 
  117000    1.2487715   -2.5492072    133.12344  0.094817264   0.10579593            2 
  118000    1.2368294   -2.5609613    134.25694  0.094814222    0.1057747            3 
  119000    1.2238661   -2.5506174    135.60259    0.0949598   0.10575379            2 
  120000    1.2358391    -2.561471    137.58618  0.095545957   0.10574138            1 
  121000    1.1960589    -2.603446     138.5225  0.095401174   0.10573364            1 
  122000    1.2092328   -2.5477585    140.01083  0.095635811   0.10574356            4 
  123000    1.2325429   -2.5593495     141.7133  0.096011719   0.10575503            1 
  124000     1.234855   -2.5825449    142.79147  0.095962006   0.10577222            1 
  125000    1.2303853   -2.5900449    143.80485    0.0958699   0.10577539            2 
  126000    1.2340857   -2.5446552    145.87017  0.096474982   0.10579649            1 
  127000    1.2266164   -2.5840009     147.3335  0.096675525   0.10582016            1 
  128000    1.2416379   -2.5678304     148.3898  0.096607941   0.10584302            1 
  129000    1.2332242   -2.5593042    149.40773  0.096516624    0.1058497            1 
  130000    1.2248019   -2.5737436    150.54084  0.096500538   0.10584968            1 
  131000    1.2343862   -2.5540464    151.07574  0.096104159   0.10584879            1 
  132000    1.2171717   -2.5473575    152.80788  0.096469622    0.1058533            1 
  133000    1.2335464    -2.542147    154.08027  0.096541525   0.10585762            3 
  134000    1.1869401     -2.54608    155.52008  0.096716469   0.10585355            7 
  135000    1.2369323   -2.5726557    156.45483  0.096577056   0.10585165            3 
  136000    1.2173518   -2.5546851     157.7394  0.096654042   0.10585368            1 
  137000    1.2263158   -2.5664198    159.36271  0.096935952   0.10586015            1 
  138000    1.2492107    -2.545258    161.35794  0.097438371    0.1058625            2 
  139000    1.2296688   -2.5209152    162.04181   0.09714737   0.10586426            2 
  140000    1.2071542   -2.5320114    162.67976  0.096833193   0.10584779            1 
  141000    1.2198183   -2.5876846    163.24899  0.096482853   0.10582613            1 
  142000    1.2395995   -2.5698041    164.23706  0.096383251   0.10580108            2 
  143000    1.2334448   -2.5381204    165.88211  0.096667894   0.10577365            2 
  144000     1.217138    -2.584552    166.78172  0.096517199   0.10573967            1 
  145000    1.2234957   -2.5568147    168.14024  0.096632321   0.10570096            2 
  146000     1.230389    -2.541506    169.48202  0.096736312    0.1056683            2 
  147000    1.2231459   -2.5706082     170.7185  0.096779197    0.1056364            2 
  148000    1.2336288   -2.5668861    171.55057   0.09659379   0.10561083            1 
  149000    1.2369211   -2.5737994    172.31879  0.096375162   0.10557515            2 
  150000    1.2162484   -2.5720402    173.81349  0.096563051   0.10554201            1 
  151000     1.239077   -2.5763596    175.28726    0.0967369   0.10550729            1 
  152000    1.2610567    -2.549116    176.16296  0.096580569   0.10547514            1 
  153000    1.2550433   -2.5912702    176.78903  0.096290322   0.10543483            1 
  154000    1.2290963   -2.5770687    178.49906  0.096590402   0.10539055            2 
  155000    1.2460916   -2.5691166      178.446  0.095938709   0.10534723            1 
  156000    1.2065266   -2.5666071    180.37552  0.096354445   0.10528638            1 
  157000    1.2324555   -2.5736606    180.96473  0.096053465   0.10521956            2 
  158000    1.2233816   -2.5477882    183.00383  0.096521007   0.10516279            1 
  159000    1.2151482   -2.5449368    183.93483  0.096401901   0.10511452            1 
  160000    1.2393421   -2.5598732    184.96656  0.096336751   0.10505492            1 
  161000    1.2607339   -2.5707461    186.24591  0.096400573   0.10499614            2 
  162000    1.1901421   -2.5623462    188.09025  0.096754242   0.10493874            2 
  163000    1.2507502   -2.5898662    187.75542  0.095989476   0.10488332            2 
  164000    1.2422334   -2.5503546    189.47409  0.096277485   0.10483084            2 
  165000    1.2190771   -2.5777058    191.28346  0.096607808    0.1047815            1 
  166000    1.2272549   -2.5611581    192.65509  0.096714402   0.10473659            1 
  167000     1.251807   -2.5494311    193.68812  0.096650756   0.10469386            2 
  168000    1.2257539   -2.5953952    194.38214  0.096419712   0.10464939            1 
  169000    1.1950349   -2.5624592    195.80881  0.096552668   0.10459642            1 
  170000    1.2061243   -2.5459351    196.97041  0.096554122   0.10454477            1 
  171000    1.2225118   -2.5928108    197.77144  0.096379845   0.10449807            1 
  172000    1.2498939   -2.5819625    198.47443  0.096160094   0.10444517            1 
  173000    1.2267113   -2.5760425    201.03543  0.096837877   0.10440516            2 
  174000    1.2015022   -2.5423906    201.12767  0.096325512   0.10437389            2 
  175000    1.2217626   -2.5515635    203.16517  0.096745319   0.10434226            1 
  176000    1.2550612   -2.5812873    203.84656  0.096518255   0.10430199            1 
  177000    1.2128488    -2.546082    205.38734  0.096698371   0.10426465            1 
  178000    1.2242675   -2.5711238    207.01936  0.096919176   0.10423956            1 
  179000    1.2174979    -2.595786    208.36544  0.097004393   0.10421034            3 
  180000      1.23761   -2.5657453    210.13332  0.097283946   0.10417653            1 
  181000    1.2067663   -2.5760143    210.71277  0.097013244   0.10414642            2 
  182000    1.2171971   -2.6158146    211.79495  0.096975711   0.10412079            3 
  183000     1.196566    -2.600552    213.52714  0.097234579   0.10409057            1 
  184000    1.2282454   -2.5583868    214.26306  0.097039431    0.1040607            2 
  185000    1.2180003   -2.5678897    215.82764  0.097219657   0.10402668            1 
  186000    1.2378386   -2.5447755    217.67717  0.097525613   0.10399713            2 
  187000    1.2367485   -2.5772034    218.21309  0.097242911   0.10396278            2 
  188000    1.2427891   -2.5506433    219.04937  0.097096351   0.10392579            1 
  189000    1.2123996   -2.5496557     220.5578  0.097247708    0.1038976            1 
  190000    1.1894392   -2.5973822    221.62193  0.097202599   0.10387209            1 
  191000    1.2306451    -2.568692    222.54878  0.097098073   0.10384392            2 
  192000    1.2097005   -2.5747874     224.1869   0.09730334   0.10381901            1 
  193000    1.2221733   -2.5488615    225.22826  0.097248818   0.10379209            1 
  194000    1.2264068   -2.5527555     225.4176  0.096828866   0.10376496            3 
  195000    1.2139208   -2.5431288    227.91361  0.097398979   0.10373534            1 
  196000    1.2204985    -2.592976    228.27215  0.097054485   0.10370877            2 
  197000    1.2080097   -2.5665191    231.30607  0.097845205   0.10367709            1 
  198000    1.2358005   -2.6024507    231.61045  0.097479146   0.10365511            1 
  199000     1.209709   -2.5487398    232.66621  0.097431412   0.10362601            2 
  200000    1.2195996   -2.5816266    232.75891  0.096982877   0.10359992            2 
  201000     1.225957   -2.5589808    234.15841  0.097080601   0.10357307            1 
  202000    1.2265809   -2.5728482     233.6407  0.096386428     0.103543            1 
  203000    1.2225612   -2.6211257    236.60099  0.097126842   0.10350926            4 
  204000     1.220064   -2.5886185    238.35135  0.097365748   0.10347519            2 
  205000    1.2438405   -2.5226284    239.31407  0.097282142   0.10344174            2 
  206000     1.235774    -2.567817    241.27413  0.097602801   0.10341501            2 
  207000    1.2470904   -2.5815692    241.25613  0.097124045   0.10338419            1 
  208000    1.2371541   -2.5974508    242.09759  0.096994226   0.10335409            1 
  209000    1.1993808   -2.5930228    244.41964  0.097455995   0.10332686            3 
  210000      1.20822    -2.571659    246.23539  0.097712456   0.10330439            4 
  211000    1.2151976   -2.6036439    246.80177  0.097473052   0.10328767            1 
  212000    1.2401295   -2.5721796    247.18843  0.097165263   0.10326011            1 
  213000    1.2083206   -2.5731562    249.92897  0.097781288    0.1032363            1 
  214000     1.215464   -2.5546784    250.92657  0.097712839   0.10321103            1 
  215000    1.2347052   -2.5865054    249.73781  0.096797602   0.10318501            3 
  216000      1.20725   -2.6076136    251.90584  0.097185895   0.10316129            1 
  217000    1.2418422   -2.5668656    251.90304  0.096736957   0.10313097            3 
  218000    1.2260072      -2.5743    254.58635   0.09731894   0.10309914            2 
  219000    1.2153182   -2.6061062    253.99358  0.096649004   0.10306581            3 
  220000    1.2207308   -2.6075033    256.59541   0.09719523   0.10302509            3 
  221000    1.2228846   -2.5752326     257.1437   0.09696218    0.1029879            1 
  222000    1.2066953   -2.5875862    258.53791  0.097048766   0.10295014            4 
  223000    1.2067462    -2.591108    258.62369  0.096645623   0.10290677            2 
  224000    1.2425789    -2.605435     261.5545  0.097304503   0.10287222            1 
  225000    1.2227826   -2.5750429    262.43855  0.097199463   0.10284377            1 
  226000    1.2242997   -2.6300094    262.52004  0.096799426   0.10281348            2 
  227000    1.2254914   -2.5402941    264.49531  0.097098129   0.10277433            1 
  228000    1.2250359   -2.5709627    264.85454  0.096803558   0.10273731            1 
  229000    1.2149092   -2.5588193    267.32694  0.097280545   0.10269949            1 
  230000    1.2031351   -2.5973364    267.33363  0.096860012   0.10266236            1 
  231000    1.2029382     -2.57448    268.94701  0.097022729   0.10262498            1 
  232000    1.2229057   -2.5934803     269.4626  0.096789725   0.10258211            1 
  233000     1.212718   -2.6062545     269.9128  0.096535337   0.10253997            1 
  234000    1.1568403   -2.5806581    270.63218  0.096378983   0.10250025            2 
  235000    1.2029209   -2.5918849    272.31494  0.096565581   0.10245635            2 
  236000    1.1899311   -2.5835071    274.27978  0.096850203    0.1024128            1 
  237000    1.2218209   -2.5830409    276.01524   0.09705177   0.10237328            3 
  238000    1.2248255   -2.6032286    277.52656  0.097173164   0.10233587            1 
  239000    1.2087529   -2.6132894    277.02851  0.096592926   0.10229577            1 
  240000    1.2197052   -2.5457519    280.06966  0.097246408     0.102264            2 
  241000    1.2065796   -2.6037795    279.82214  0.096757308    0.1022327            2 
  242000    1.2004877   -2.6070963    282.74296  0.097363277   0.10220035            3 
  243000    1.2154018   -2.6044607    284.68642  0.097629087   0.10217365            2 
  244000     1.217146   -2.5655001    284.79906  0.097267439   0.10214779            1 
  245000    1.2204369   -2.5771845    284.99718  0.096937817   0.10212035            3 
  246000    1.1790885   -2.6040331    287.18344  0.097284362   0.10209565            1 
  247000    1.1912062   -2.5655283    288.47844  0.097327409   0.10207296            1 
  248000    1.1912927   -2.5777824    289.17653  0.097169534   0.10204502            1 
  249000    1.2063019   -2.5878903    290.27313  0.097146296   0.10202482            2 
  250000    1.1802902   -2.5906888    291.52515   0.09717505   0.10200241            1 
  251000    1.2128902    -2.565518    292.55758   0.09713067   0.10198125            1 
  252000    1.2264075    -2.597246    294.15914  0.097274849    0.1019577            2 
  253000    1.1777737   -2.6032893    295.15546  0.097218531    0.1019309            1 
  254000    1.2344091   -2.6136815    296.29852    0.0972108    0.1019065            5 
  255000    1.2136266    -2.598554     296.9955  0.097057352    0.1018799            1 
  256000    1.2231635   -2.5979893    298.12891   0.09704717   0.10185777            1 
  257000    1.2176229   -2.5957359    298.40509  0.096759108   0.10183474            2 
  258000    1.2175794   -2.6047017    301.75863  0.097467257   0.10181301            1 
  259000     1.212806   -2.6158155    302.93854  0.097470573   0.10179256            1 
  260000    1.2171974     -2.58359    303.25953  0.097198567   0.10177629            3 
  261000     1.196272   -2.5836817    306.93751  0.098000482   0.10176513            1 
  262000    1.2331871   -2.5859156     308.4818  0.098117619   0.10175753            2 
  263000    1.1998429   -2.5581513    308.60192  0.097782612   0.10174899            2 
  264000    1.2188531   -2.5652428    308.57507  0.097403746   0.10173947            1 
  265000    1.1967332   -2.5733986    310.37902  0.097603467   0.10172779            1 
  266000    1.1869528   -2.5594517    311.11638  0.097467538   0.10171425            1 
  267000    1.2010513   -2.5777294    313.07851  0.097714892   0.10169991            1 
  268000    1.2346848   -2.6140002    314.33448   0.09774082   0.10168513            1 
  269000    1.2303257   -2.5865985    314.88229  0.097547179   0.10166973            2 
  270000    1.2389532   -2.5809711    315.78183  0.097463529   0.10165505            2 
  271000    1.2510473   -2.6051011    316.20221  0.097233152   0.10163672            2 
  272000    1.1871607   -2.5684704    319.08052  0.097757511   0.10162019            2 
  273000    1.1848446   -2.5849278    319.00711  0.097377017   0.10160212            1 
  274000    1.2011845   -2.5698073    321.99006  0.097928851   0.10159016            2 
  275000       1.2099   -2.5669774    322.30858  0.097669265   0.10157961            1 
  276000    1.1874995   -2.5998303    322.91082  0.097497227   0.10156277            1 
  277000     1.195342   -2.5891485    324.07423  0.097495255   0.10154476            3 
  278000    1.2139563   -2.5589935    327.43546  0.098152116   0.10153081            2 
  279000    1.2030415   -2.5965362    325.52842   0.09723071   0.10151456            3 
  280000    1.2072372   -2.5540857    326.57652  0.097195393   0.10149713            2 
  281000     1.213433   -2.5886908    329.61318  0.097750053   0.10148399            2 
  282000    1.2296009   -2.6050863    329.03299  0.097231971   0.10146956            2 
  283000     1.219312   -2.6227613    331.13939  0.097508654   0.10145843            2 
  284000    1.2166185   -2.6082025    332.42705   0.09754315   0.10144331            1 
  285000    1.1713917    -2.572502    333.00037  0.097368529   0.10142882            2 
  286000    1.2145729   -2.6028167    334.83952  0.097563962    0.1014167            1 
  287000    1.2350837    -2.593937    336.87572   0.09781525   0.10140691            3 
  288000    1.2152527   -2.5880139    338.59281  0.097972455   0.10139666            3 
  289000    1.2143451   -2.6043267    338.68477  0.097659969   0.10138768            2 
  290000    1.1836113   -2.6038399     341.0329   0.09799796   0.10137989            1 
  291000    1.2273087   -2.5875937    340.46343  0.097498117   0.10137093            3 
  292000    1.1891344   -2.5772092    343.30851  0.097976172   0.10136384            1 
  293000    1.2079717   -2.6114114    344.98513  0.098118638   0.10135535            2 
  294000    1.2334188   -2.5902719    346.44378  0.098198351   0.10134511            2 
  295000    1.2023241   -2.6064376    345.11768  0.097490871   0.10133315            2 
  296000    1.2041586    -2.580552    347.62954  0.097868676   0.10132476            2 
  297000    1.2123749   -2.6082677    349.23639  0.097990008   0.10131458            2 
  298000    1.2016707   -2.5855333    350.58589   0.09803856   0.10130384            1 
  299000    1.2143409   -2.5718935    351.46581  0.097955911   0.10129676            1 
  300000    1.2013046   -2.5886401    351.99726  0.097777018   0.10128755            1 
  301000    1.2079181   -2.5869332    353.31175  0.097816098   0.10127943            2 
  302000    1.1913007   -2.6031145    355.15931  0.098002017   0.10127013            1 
  303000    1.2086127   -2.6106336    358.17252  0.098507293   0.10126258            4 
  304000    1.2076657   -2.6327088    355.06457  0.097331296   0.10125674            2 
  305000    1.1864395   -2.6044636     358.3698  0.097915246   0.10124763            2 
  306000    1.1858738   -2.6068761    360.16289  0.098083575    0.1012403            2 
  307000    1.1891477   -2.5685229    362.63768  0.098435853   0.10123747            1 
  308000    1.2033248   -2.5617944    362.91964  0.098192544   0.10123582            2 
  309000    1.1838276   -2.6013387     363.7602  0.098101457    0.1012358            2 
  310000    1.2219682   -2.5990434    364.63639  0.098020535   0.10123147            3 
  311000    1.1936171    -2.595888    367.53986  0.098483349   0.10122776            2 
  312000    1.2104037   -2.5948998    367.01927   0.09802865   0.10122835            2 
  313000    1.2154158   -2.6041265    367.56959  0.097861978   0.10122717            1 
  314000    1.1803217    -2.605858    370.36547  0.098292321   0.10122902            5 
  315000    1.2141539    -2.606667    371.75478  0.098347825   0.10122718            1 
  316000    1.2099074   -2.6115033    370.17344  0.097619577   0.10122475            2 
  317000    1.1699094    -2.587487    374.22435  0.098376537   0.10122269            1 
  318000    1.2026617   -2.6245275    375.89053  0.098503809    0.1012222            2 
  319000    1.1815999   -2.5742173    375.94141   0.09820831   0.10122125            3 
  320000    1.2220886   -2.6018223    376.68391  0.098094769   0.10121769            2 
  321000    1.2206902   -2.6021788    377.83787  0.098088752   0.10121491            2 
  322000    1.1998697   -2.5978004    380.16197  0.098385604   0.10121568            1 
  323000    1.2193456   -2.5798727    382.78926   0.09875884   0.10121415            1 
  324000    1.2074102   -2.6265448     381.9359  0.098234541   0.10120918            2 
  325000    1.1894183     -2.58176     382.6094  0.098104974   0.10120608            2 
  326000    1.2096598   -2.6044928    383.83236  0.098116656   0.10119973            2 
  327000    1.1704714   -2.5952828    387.18986  0.098672238   0.10119967            2 
  328000    1.1981763   -2.5744084    388.12496  0.098608985   0.10119531            1 
  329000    1.2099645   -2.5990206    389.88537   0.09875516   0.10119357            1 
  330000    1.2171088    -2.593706    391.12114  0.098767965   0.10119318            5 
  331000    1.1887693   -2.5989602    390.77786  0.098383148   0.10119223            1 
  332000    1.1899657    -2.592583    392.37856  0.098488595    0.1011901            1 
  333000    1.1945998   -2.6124263    397.02305  0.099355118   0.10119232            1 
  334000    1.1637738   -2.6193923    393.96421  0.098294462   0.10119425            2 
  335000    1.2113524   -2.6100854    394.54519  0.098145569   0.10119423            3 
  336000     1.200053   -2.6076979    398.72565  0.098890291   0.10119371            1 
  337000    1.1929299    -2.617009    396.43548  0.098030533   0.10119206            1 
  338000    1.2096438   -2.6098947    398.93827  0.098357562   0.10118865            2 
  339000    1.1920833    -2.580029    401.50444  0.098698239   0.10118305            2 
  340000     1.230697   -2.6121407    401.33142  0.098365545   0.10117455            4 
  341000    1.1830125   -2.6273547    402.11032  0.098267428   0.10116348            4 
  342000    1.1899241   -2.6281972    399.97235   0.09745915   0.10115268            2 
  343000    1.1945716   -2.5692271    402.96734  0.097902659   0.10114157            2 
  344000    1.2083791   -2.6105783    405.28827  0.098180297   0.10112894            1 
  345000    1.1940582   -2.6204278    403.81061  0.097538794   0.10111464            1 
  346000    1.1926918   -2.6025177    407.18584  0.098069808    0.1010981            1 
  347000    1.2021068   -2.6222554    404.81725  0.097218359    0.1010812            1 
  348000    1.2142888    -2.571428    409.75266  0.098120848   0.10106594            4 
  349000    1.2149563   -2.5974402    408.11481  0.097448619   0.10104799            1 
  350000    1.1974947   -2.5876906    409.87151  0.097588455   0.10103033            1 
  351000    1.2127232      -2.5651    411.19275   0.09762411   0.10101197            1 
  352000    1.1741559   -2.5723794    411.50423  0.097420509   0.10099325            1 
  353000    1.2096962   -2.5729175    415.48671  0.098084682   0.10097394            1 
  354000    1.1845347   -2.5985858    412.09567  0.097009339   0.10095569            1 
  355000    1.1792244   -2.6001729    414.84586  0.097381656   0.10093438            1 
  356000    1.2017648   -2.5909116    415.80744  0.097333202    0.1009156            1 
  357000    1.1677766   -2.5718926    418.98285  0.097801785   0.10089797            1 
  358000    1.1716838   -2.5949622    417.74296  0.097239982   0.10087819            4 
  359000    1.2035504   -2.5857633    420.41835  0.097590145   0.10085884            3 
  360000    1.1687632   -2.6152369    420.69291  0.097382618   0.10083986            4 
  361000    1.1925478   -2.6000952    422.78433  0.097595645   0.10081841            1 
  362000    1.1869472   -2.5861035     422.8609  0.097343669   0.10080182            1 
  363000    1.2097204   -2.6184869     421.5637  0.096777709   0.10077958            2 
  364000    1.1940626   -2.6016696    424.76451  0.097244623   0.10075837            2 
  365000    1.2107769   -2.5953204    425.76644   0.09720695    0.1007367            1 
  366000    1.1928011   -2.5960942     428.0365   0.09745822    0.1007146            3 
  367000    1.1822924    -2.607655    427.45824  0.097061362   0.10069101            3 
  368000    1.2351766   -2.6041835     427.7903  0.096872803   0.10066547            2 
  369000     1.192218   -2.5979618    430.94719  0.097323213   0.10064115            3 
  370000    1.1907255   -2.6231857    429.26961  0.096682345   0.10061631            1 
  371000    1.1925646   -2.5811055    431.99482  0.097033878   0.10059243            1 
  372000    1.1915557   -2.5962957    434.10282  0.097245255   0.10056797            2 
  373000    1.2062113   -2.6210707    433.89908  0.096939026   0.10054209            2 
  374000    1.1911886   -2.6036317    435.51787  0.097040523   0.10051469            1 
  375000    1.1860689   -2.6036328    434.58024  0.096573388   0.10048718            3 
  376000     1.193888   -2.5971478    436.47054  0.096735492   0.10046317            1 
  377000    1.1901279   -2.6174428    438.84473  0.097003697   0.10043918            2 
  378000    1.1830848   -2.6065027     440.8628  0.097191975   0.10041831            1 
  379000    1.2017196   -2.6348015    439.89473  0.096722675   0.10039548            2 
  380000    1.1969597   -2.6686044    442.54939  0.097050305   0.10037174            1 
  381000    1.1951295   -2.6028781     443.4846  0.097000131   0.10034532            2 
  382000    1.1898911   -2.5922372    445.35166  0.097153503   0.10032562            2 
  383000    1.1987544   -2.5999233    445.31281  0.096891385    0.1003029            1 
  384000    1.1933887   -2.5870436    446.33709  0.096861347   0.10027978            1 
  385000    1.2001469   -2.6020049    446.82051  0.096714396   0.10025446            4 
  386000     1.185822   -2.6078711    447.31381  0.096570338   0.10023088            1 
  387000    1.1928822   -2.5928083    451.59823  0.097243374   0.10020475            3 
  388000    1.1755796   -2.6373931    452.68062  0.097225218    0.1001836            2 
  389000    1.1957682    -2.642567    452.25086  0.096883217   0.10016311            2 
  390000    1.2013665   -2.6070154    455.80724  0.097394709    0.1001441            2 
  391000    1.1715002   -2.5907069    457.31827  0.097467662   0.10012883            1 
  392000    1.2262407   -2.6085792    459.99715   0.09778851   0.10011539            1 
  393000    1.1879873   -2.6229978    459.58446  0.097452176    0.1001027            1 
  394000     1.196925     -2.60141    462.52011  0.097825741   0.10008893            2 
  395000    1.1664926    -2.584511    462.01561  0.097471648   0.10007813            1 
  396000    1.1735377   -2.6160625    462.18198  0.097260517   0.10006419            2 
  397000    1.2089196   -2.5951366    462.84233  0.097154142   0.10005018            2 
  398000    1.1988373    -2.600734    465.03892  0.097369958   0.10003691            1 
  399000     1.207057   -2.6267382    463.19028  0.096739824   0.10001971            2 
  400000    1.1816512   -2.6127196    467.24484  0.097342674    0.1000017            2 
  401000    1.1752965   -2.6111771    466.50222  0.096945599  0.099985098            3 
  402000    1.1895447   -2.6217851     467.1342  0.096835447  0.099966327            2 
  403000     1.185202   -2.6060852    470.09992  0.097208419  0.099951718            1 
  404000    1.1770569   -2.6357987    469.96079  0.096939106  0.099934484            2 
  405000    1.1740562   -2.5967439    470.66708  0.096845078  0.099917249            2 
  406000    1.1910381   -2.5675283    474.74804  0.097444178  0.099903716            3 
  407000    1.2002294   -2.6053488    474.26918  0.097106712  0.099892139            1 
  408000    1.1565739    -2.632679    479.91668  0.098022197  0.099884525            2 
  409000    1.1873006   -2.6057762    479.51055  0.097699786  0.099874745            2 
  410000    1.1842001   -2.6341003     480.9974    0.0977637  0.099867861            2 
  411000    1.1689946   -2.6362625    481.62975  0.097654044  0.099860992            2 
  412000    1.1770981   -2.6224307    482.77473   0.09764861  0.099855451            1 
  413000     1.180658   -2.6034327    486.34874  0.098133322  0.099851454            2 
  414000    1.1634169   -2.6111754    487.60928  0.098150016  0.099848342            1 
  415000    1.1564313    -2.641016    486.81764  0.097754547  0.099844579            3 
  416000    1.1948117   -2.6113437    486.56637  0.097469225  0.099841078            3 
  417000    1.2272365   -2.6329865    491.26234  0.098173928  0.099838884            1 
  418000    1.2042733   -2.6411302    489.41335  0.097570445  0.099836193            5 
  419000    1.1849025   -2.6379182    492.10827  0.097873561  0.099831893            1 
  420000    1.1836347   -2.6123772    493.05616  0.097828604  0.099826841            2 
  421000    1.1841682    -2.624272    494.79053  0.097939535  0.099822146            3 
  422000    1.1871741   -2.6201572     494.6281  0.097675375  0.099822995            2 
  423000    1.1969629   -2.6155322    498.97803  0.098301425  0.099819274            2 
  424000    1.1518562   -2.6046714     498.5127  0.097978125  0.099817455            1 
  425000    1.2009891   -2.6049332    501.27746  0.098289698  0.099817895            1 
  426000    1.1927682   -2.6148842     501.8398  0.098168975  0.099817447            1 
  427000    1.1604017   -2.6508635    501.18903  0.097812066  0.099814834            2 
  428000    1.1732817    -2.627021    505.53103  0.098428939  0.099812113            1 
  429000    1.1786415   -2.6193607    502.61303  0.097632679  0.099807303            2 
  430000    1.1582693    -2.615744    507.75824   0.09840276  0.099803972            1 
  431000    1.1642737   -2.6118558    506.60908  0.097952258  0.099801575            2 
  432000    1.1709144   -2.6437502    505.90192  0.097589104  0.099800406            1 
  433000    1.1642273   -2.6055497    510.06565   0.09816506   0.09980054            1 
  434000    1.1740601   -2.6333694    509.56066  0.097841908  0.099800835            1 
  435000    1.1954096   -2.6244242    509.02982  0.097515291  0.099798757            1 
  436000    1.2022748   -2.6283016    513.46462  0.098139262  0.099797055            1 
  437000    1.1606285    -2.638477    511.81571  0.097600249  0.099795413            1 
  438000    1.1885054   -2.6279733    515.84346  0.098143733  0.099792907            1 
  439000    1.2047431   -2.6530265    515.97407  0.097944964  0.099793038            1 
  440000    1.1998154   -2.6425188    517.72643  0.098054248  0.099793661            2 
  441000    1.1738491   -2.5897994    521.27083  0.098501668  0.099793541            2 
  442000    1.1495187   -2.6115013    521.65569  0.098351374  0.099793725            1 
  443000    1.1463151   -2.6258792    521.38186  0.098077851  0.099791799            1 
  444000    1.1992157   -2.6261026    521.86717  0.097948043  0.099787574            4 
  445000    1.1625884    -2.619489     523.6655  0.098064701  0.099783803            1 
  446000    1.1682246   -2.6125152    526.05216  0.098290763   0.09977954            2 
  447000     1.184164    -2.605696    524.70121  0.097819018  0.099773734            4 
  448000    1.1818628   -2.6075972    526.23834  0.097886595   0.09976748            1 
  449000     1.186581    -2.607019    525.17943  0.097472055  0.099759587            2 
  450000    1.1696948   -2.6171847    526.95914  0.097585026  0.099749466            1 
  451000     1.200151   -2.6349104    527.98294  0.097557823   0.09974038            1 
  452000    1.1536688    -2.606223    529.40703  0.097604541  0.099730426            2 
  453000    1.1810552   -2.6363466    533.33049  0.098110833  0.099722051            5 
  454000    1.2035251   -2.6407059    533.30817  0.097890633   0.09971404            1 
  455000     1.185917   -2.6053447    535.71747  0.098116753  0.099705984            1 
  456000    1.1988996   -2.6170949    533.73948   0.09754011  0.099698733            2 
  457000    1.1591745   -2.6214798    535.95616  0.097730883  0.099690987            4 
  458000    1.1653366   -2.6057267    537.12214  0.097729647  0.099682969            4 
  459000    1.2026738   -2.6039986    538.29232  0.097729179   0.09967334            2 
  460000    1.1716745   -2.5959947    539.29628  0.097698601  0.099664321            1 
  461000    1.1808416   -2.6517766    538.32767  0.097311582  0.099656953            1 
  462000    1.1769722    -2.634252    538.84978  0.097195126  0.099646842            1 
  463000    1.1893789   -2.6147069    544.50844  0.098003679  0.099639626            2 
  464000    1.1871885   -2.6431358    542.81433  0.097488205  0.099630946            2 
  465000    1.1788251   -2.5832238    544.61994   0.09760214   0.09962116            1 
  466000    1.1458096   -2.6362077    543.51721  0.097195495  0.099613686            1 
  467000    1.1612614   -2.6249897    545.18844  0.097285588  0.099602753            2 
  468000    1.1950644   -2.6154861    547.00842  0.097401784  0.099592726            1 
  469000    1.1613577   -2.6156126    549.48713  0.097634529  0.099584007            2 
  470000    1.1821986    -2.645846    546.00053  0.096808605  0.099571957            1 
  471000    1.1614936   -2.6002197    551.18208   0.09751983   0.09956048            1 
  472000    1.1968955   -2.6216923    551.42951  0.097356905  0.099549538            2 
  473000    1.1502443   -2.6150005    549.33827  0.096782642   0.09953951            2 
  474000    1.1770374    -2.643218     554.0355  0.097404272  0.099527168            2 
  475000    1.1600284   -2.6169902    555.18346  0.097400607  0.099514877            1 
  476000    1.1846881   -2.6562042    554.35449  0.097050856  0.099501559            2 
  477000    1.1773092   -2.6108911    557.38431  0.097376714  0.099489501            1 
  478000    1.1952611   -2.6366596    555.01851  0.096760548  0.099474107            2 
  479000    1.1311405   -2.6214225    557.91745  0.097062882  0.099458687            3 
  480000    1.1881803   -2.6260173    560.64947  0.097334978  0.099444429            1 
  481000     1.217746   -2.6175348    561.90453  0.097350057  0.099432151       -1e+20 
  482000    1.1715349   -2.6405973    561.83082  0.097135342  0.099418919            1 
  483000    1.1692977   -2.6435536    562.38241  0.097029401  0.099405425            3 
  484000    1.1573011   -2.6322025    562.72597  0.096888081  0.099391551            1 
  485000     1.142335   -2.6460501    564.07951  0.096920878  0.099374818            2 
  486000    1.1574357   -2.6106597     563.5862  0.096636865  0.099360031            3 
  487000    1.1536786   -2.6236499    562.00357  0.096167619  0.099344142            1 
  488000    1.1823523   -2.6162626    566.41626  0.096724088  0.099326411            1 
  489000    1.1457443   -2.6018837    567.31329  0.096679156  0.099307624            2 
  490000    1.1905211   -2.6299417    568.45768  0.096676477  0.099288298            4 
  491000    1.1752439   -2.6305352    568.65418   0.09651293  0.099268238            2 
  492000    1.2099971   -2.6368035    572.58505  0.096982562   0.09925023            2 
  493000     1.171632   -2.6002852    571.34835  0.096576801  0.099232303            2 
  494000    1.1596866   -2.6352874    573.23648   0.09669981  0.099213213            2 
  495000    1.1676621   -2.6048578    571.01565  0.096130581  0.099194972            3 
  496000     1.165676   -2.6502201    574.69824  0.096555484   0.09917636            1 
  497000    1.1478423   -2.6436696    572.35162  0.095967744  0.099154818            1 
  498000    1.1779928   -2.5720622    576.91134  0.096538042  0.099133034            1 
  499000    1.1745361   -2.5903537    577.32421  0.096413529   0.09911478            1 
  500000    1.2044623   -2.6092178    577.03441  0.096172402  0.099096724            2 
  501000    1.1706454    -2.638976    579.07026  0.096319072  0.099076847            7 
  502000    1.1812208   -2.6373967    579.93395  0.096270576  0.099057496            1 
  503000    1.1777961   -2.6101741    581.71974   0.09637504  0.099036964            2 
  504000    1.1590139   -2.6180283    584.72636  0.096680946    0.0990195            1 
  505000     1.176869   -2.6185774    585.83155  0.096671873   0.09900021            1 
  506000    1.1770287   -2.6119184    586.57826  0.096603797  0.098984547            1 
  507000     1.182779   -2.6299513    587.81943  0.096617263  0.098967774            1 
  508000    1.1591702   -2.6456386    590.54979  0.096874965  0.098953543            3 
  509000    1.1726659    -2.642788    588.92426   0.09641851  0.098938394            1 
  510000    1.1698157   -2.6709239    588.83843   0.09621543  0.098921704            2 
  511000    1.1620913   -2.6311743    588.49395  0.095970964  0.098904173            1 
  512000    1.1652872   -2.6340489    593.56299  0.096608559  0.098886962            4 
  513000    1.1745189   -2.6394954    592.93236  0.096317797  0.098869705            1 
  514000     1.144568   -2.6276475    595.30525  0.096515118  0.098853937            3 
  515000    1.1544527   -2.6280759    595.95197  0.096432357  0.098838416            1 
  516000     1.149093   -2.6234372    593.22818  0.095805584  0.098822279            2 
  517000    1.1846522   -2.6302998    598.54497  0.096477267  0.098806819            3 
  518000    1.1769884   -2.6168985    597.84891  0.096179039  0.098790656            2 
  519000    1.1937556   -2.6621233    597.78816   0.09598397  0.098773142            2 
  520000    1.1780846    -2.629291    599.67235  0.096101338  0.098754671            1 
  521000    1.1618836   -2.6300973    600.27911  0.096013933  0.098733768            1 
  522000    1.1496788   -2.6339976    601.09747  0.095960643  0.098712414            3 
  523000    1.1847824   -2.6577507    596.75685   0.09508554  0.098690267            3 
  524000    1.1357193   -2.6194578    603.44291  0.095967383  0.098668845            2 
  525000    1.1812582   -2.6142097    602.07441  0.095567367  0.098646134            1 
  526000    1.1456044   -2.6460584    603.83744  0.095664993  0.098625047            2 
  527000    1.1739108   -2.6296903    606.02356  0.095829153  0.098602553            2 
  528000    1.1609116   -2.6368354    606.68975  0.095752801  0.098579969            3 
  529000    1.1843824   -2.6314083    606.09778  0.095478541  0.098557284            3 
  530000    1.1868018   -2.6494281    609.88517  0.095893895  0.098535451            1 
  531000    1.1685486   -2.6439626    609.31536  0.095623879  0.098515171            2 
  532000    1.1701571   -2.6312129    610.75973  0.095670384  0.098493109            2 
  533000     1.151687   -2.6428179    610.87172  0.095508399  0.098470611            1 
  534000    1.1824428   -2.6390224    613.03965  0.095667861  0.098448044            1 
  535000     1.161379   -2.5956768    616.02326  0.095953779  0.098425477            2 
  536000     1.160582   -2.6266794    613.66398  0.095407956   0.09840434            3 
  537000    1.1789578    -2.648773    614.92669   0.09542624  0.098382925            2 
  538000    1.1594557   -2.6213302    619.89959  0.096019144  0.098361471            1 
  539000    1.1513191   -2.6385238    620.62557  0.095953242  0.098340248            1 
  540000    1.1597238   -2.6406056    623.53524  0.096224573  0.098319939            1 
  541000    1.1953077   -2.6076095    622.69625  0.095917475  0.098299733            2 
  542000    1.1684335    -2.651698    623.96017  0.095934836  0.098281188            1 
  543000    1.1429831   -2.6483092    625.79984  0.096040491  0.098261147            2 
  544000     1.160196   -2.6748131    622.23618  0.095318042  0.098240192            1 
  545000    1.1675503   -2.6338265    626.35045  0.095772239  0.098219044            2 
  546000    1.1739445   -2.6525737    624.24411  0.095275353   0.09819716            1 
  547000    1.1717111   -2.6535672    627.76869   0.09563813  0.098177011            1 
  548000    1.1934672   -2.6488174    628.72304  0.095608735  0.098158176            1 
  549000    1.1764363   -2.6644807    629.35107  0.095529913  0.098136688            3 
  550000    1.1527658   -2.6464961    629.67897  0.095405904  0.098115618            2 
  551000    1.1772319   -2.6443403    632.29908  0.095629019  0.098094471            1 
  552000     1.168454   -2.6364036    632.10395  0.095426321  0.098074616            1 
  553000    1.1508561   -2.6545132    634.09377  0.095553612  0.098054329            1 
  554000    1.1785097   -2.6625934    634.37288  0.095423116  0.098033356            1 
  555000    1.1759204    -2.637808    636.42346  0.095559079  0.098013783            3 
  556000    1.1696785    -2.650472    637.41765  0.095536219  0.097992766            1 
  557000    1.1816694   -2.6446383    638.96445  0.095596118  0.097972753            1 
  558000    1.1589119   -2.6222115    643.81053  0.096148526   0.09795348            1 
  559000    1.1597187   -2.6143259     640.5702   0.09549347  0.097935197            2 
  560000    1.1645055   -2.6573918    639.74684  0.095200422  0.097915573            2 
  561000    1.1741591   -2.6611551    641.46375  0.095285761  0.097894337            1 
  562000    1.1503934   -2.6486721    644.37658  0.095548129  0.097874299            2 
  563000    1.1739786   -2.6618619     643.3503   0.09522651  0.097856126            2 
  564000    1.1429829    -2.679743    643.58923  0.095092971  0.097835333            3 
  565000    1.1850376   -2.6123913    647.38595  0.095484654  0.097817083            3 
  566000    1.1572472   -2.6486513    649.22128  0.095586172  0.097798639            2 
  567000    1.1557745   -2.6417605    650.14335  0.095553108  0.097779822            1 
  568000    1.1668506   -2.6294908    651.37889  0.095566151  0.097761517            2 
  569000    1.1861878    -2.623041     652.8249  0.095609974  0.097742121            2 
  570000     1.163971   -2.6644966    652.55924  0.095403398  0.097721611            1 
  571000    1.1698411   -2.6438643    653.26098   0.09533873  0.097702428            1 
  572000    1.1568153   -2.6519049    655.50037  0.095498306  0.097682632            1 
  573000    1.1625864   -2.6468171    653.53949  0.095046465  0.097661887            2 
  574000    1.1332389   -2.6298972    659.10094  0.095688289  0.097642522            4 
  575000    1.1611857   -2.6632492    655.95403  0.095065801  0.097622289            1 
  576000    1.1654177   -2.6127562     659.1953   0.09536969  0.097602879            1 
  577000    1.1648081   -2.6508197    662.40624  0.095668146  0.097584224            1 
  578000     1.173298   -2.6369879    661.26917  0.095338693  0.097566642            2 
  579000    1.1535053   -2.6534503    661.60827  0.095222837  0.097549079            2 
  580000    1.1458046   -2.6326438    666.49445  0.095760697  0.097531414            1 
  581000    1.1679837   -2.6300216     663.3526  0.095145238  0.097513907            1 
  582000    1.1358001   -2.6489991    663.35562  0.094982191  0.097495297            2 
  583000    1.1744907   -2.6560313     664.6285  0.095001214  0.097475494            1 
  584000     1.146026     -2.66844    666.07617  0.095045115   0.09745484            1 
  585000    1.1553805   -2.6463581     669.4477  0.095362921  0.097436779            2 
  586000    1.1751141   -2.6429927    669.92559  0.095268145  0.097419496            1 
  587000    1.1356061   -2.6256437    674.66131  0.095778153   0.09740297            2 
  588000    1.1355013   -2.6420343    672.55279  0.095316439   0.09738702            4 
  589000    1.1706791   -2.6475527    674.10089   0.09537364  0.097371242       -1e+20 
  590000    1.1716137   -2.6368102     673.1167   0.09507298  0.097355658            2 
  591000    1.1606441   -2.6432209    679.09649  0.095755286  0.097339665            2 
  592000     1.132084   -2.6214882    677.70891  0.095398214   0.09732526            1 
  593000    1.1481357   -2.6233047    677.19039  0.095164472  0.097310452            1 
  594000    1.1451694   -2.6326371    681.87079  0.095660885   0.09729335            2 
  595000       1.1564   -2.6415466    680.78409  0.095347912  0.097276526            1 
  596000     1.157898   -2.6590174    676.84563  0.094637252  0.097258272            1 
  597000     1.173553   -2.6344772     681.2755  0.095097082  0.097239196            1 
  598000    1.1479213   -2.6655844    683.42445  0.095237521  0.097221353            1 
  599000    1.1595049   -2.6446791    684.74943  0.095262859  0.097203199            1 
  600000    1.1809422   -2.6535743    684.18442  0.095025614  0.097185276            1 
  601000    1.1487165   -2.6449278    684.68056  0.094936295  0.097166845            3 
  602000      1.13336   -2.6547729     688.4753  0.095303889  0.097147331            3 
  603000    1.1729343   -2.6408322    687.81607  0.095054735  0.097129031            6 
  604000    1.1822561   -2.6448222    686.76926  0.094752933  0.097110976            1 
  605000    1.1542606   -2.6391533    691.71651  0.095277756  0.097090273            2 
  606000     1.129094     -2.64946    690.45229  0.094946685  0.097070537            2 
  607000    1.1470521   -2.6341429    691.85915  0.094983408  0.097050292            2 
  608000    1.1410512   -2.6614411    688.64069  0.094386059   0.09703019            1 
  609000     1.165842   -2.6451435    693.31708  0.094870974  0.097010189            2 
  610000    1.1627134   -2.6239553    691.78806  0.094506566  0.096988692            1 
  611000     1.168431   -2.6522007    693.90614  0.094640771  0.096968763            1 
  612000    1.1373324   -2.6379223    697.67309   0.09499906  0.096948723            2 
  613000    1.1329967   -2.6441964    698.05385  0.094895847  0.096930835            3 
  614000    1.1203242   -2.6483273    700.06419  0.095014141   0.09691251            2 
  615000    1.1564279   -2.6417767    702.88049  0.095241258  0.096896419            3 
  616000    1.1478507   -2.6319901    702.28604  0.095006229  0.096879345            1 
  617000    1.1370815   -2.6710839    702.64296  0.094900453  0.096863574            2 
  618000    1.1374484   -2.6564781    703.34377  0.094841393  0.096845907            2 
  619000    1.1735897   -2.6604203    703.19948  0.094668751  0.096828614            1 
  620000    1.1449356   -2.6610871    704.81983  0.094733849  0.096811583            1 
  621000     1.124161    -2.661064    708.56309  0.095083614  0.096793057            3 
  622000    1.1668128   -2.6497402    703.99866   0.09431922  0.096772839            1 
  623000    1.1498016   -2.6513334    705.94119  0.094427661  0.096753754            6 
  624000    1.1762693   -2.6264378    707.92187  0.094540847  0.096733659            3 
  625000    1.1487297   -2.6722301    710.10949  0.094681265  0.096713807            1 
  626000    1.1601641   -2.6156732    711.76288  0.094750117  0.096693331            2 
  627000    1.1286554   -2.6608635    709.05701  0.094239369  0.096674126            1 
  628000    1.1551924   -2.6389676    715.72166  0.094973681  0.096655077            2 
  629000    1.1453583   -2.6700405    711.77143  0.094299341   0.09663442            2 
  630000     1.165237   -2.6511026     711.9885  0.094178373  0.096612883            1 
  631000    1.1338049     -2.67623    714.74246  0.094392824  0.096591623            2 
  632000     1.160767   -2.6619229    713.84276  0.094124837  0.096571425            3 
  633000      1.17628   -2.6405926    715.16844  0.094150663  0.096550005            2 
  634000    1.1582784   -2.6474465    718.37419  0.094423526  0.096529476            2 
  635000    1.1724559   -2.6568527    718.45006  0.094284784  0.096508781            2 
  636000    1.1791285   -2.6509138    719.61647  0.094289369  0.096487598            1 
  637000    1.1581048   -2.6654553    719.32897  0.094103738  0.096466087            1 
  638000    1.1679865    -2.662407      717.414  0.093706113  0.096444038            2 
  639000    1.1514399   -2.6327062     722.1693  0.094179616  0.096420663            4 
  640000    1.1163726   -2.6452095    723.94678  0.094263904   0.09639951            1 
  641000    1.1553558   -2.6417756    722.73403  0.093959182  0.096377719            4 
  642000    1.1365135   -2.6613319    724.37306  0.094025579  0.096355244            2 
  643000     1.119323   -2.6298016    723.15209   0.09372111   0.09633262            1 
  644000    1.1505927   -2.6355945    724.32578  0.093727455  0.096307675            2 
  645000    1.1674659   -2.6238364    730.78085  0.094416131  0.096284131            1 
  646000    1.1354362   -2.6702923    725.06759  0.093532971  0.096260064            2 
  647000    1.1346031   -2.6504883    727.05885   0.09364488  0.096235396            2 
  648000    1.1670634   -2.6403973    728.80755   0.09372525  0.096210236            2 
  649000    1.1488414   -2.6665277    729.88783  0.093719547  0.096185929            2 
  650000    1.1552866   -2.6674257    733.02985  0.093978185  0.096161448            1 
  651000    1.1424463   -2.6298405    737.66984  0.094427783  0.096137551            2 
  652000    1.1416251   -2.6534007    729.82595  0.093280412     0.096116            2 
  653000    1.1458441   -2.6422096    735.00479  0.093798467  0.096093292            4 
  654000    1.1396785    -2.651917    738.30411  0.094075447  0.096070001            3 
  655000    1.1457918   -2.6628956    736.22239  0.093666971  0.096047743            1 
  656000    1.1245874     -2.66651    739.45993  0.093935459  0.096026183            1 
  657000    1.1547618    -2.648927    741.73329  0.094080833  0.096005568            3 
  658000    1.1454591   -2.6494618    741.05056  0.093851388  0.095986395            1 
  659000    1.1443802   -2.6629596    741.72156  0.093793824  0.095966256            2 
  660000    1.1272027    -2.647456    743.58896  0.093887495    0.0959464            2 
  661000     1.138068   -2.6546563    743.36752  0.093717539   0.09592775            1 
  662000     1.148257   -2.6469126    749.18391  0.094308146  0.095909552            1 
  663000    1.1414015   -2.6341992    745.49464  0.093702192  0.095889873            3 
  664000    1.1392275    -2.662376    747.68489  0.093835955  0.095869556            1 
  665000    1.1458367   -2.6624103    749.17948   0.09388214   0.09585054            2 
  666000    1.1320281   -2.6488853    748.26351  0.093626565  0.095830446            3 
  667000     1.153177   -2.6762162    751.26658  0.093861392  0.095810718            2 
  668000    1.1516951   -2.6623663    749.07423  0.093447384   0.09579149            3 
  669000    1.1457421   -2.6757167    754.33604  0.093963133  0.095772098            1 
  670000     1.134138   -2.6611596    751.81315  0.093509098   0.09575183            1 
  671000    1.1481651   -2.6639063     752.8288  0.093495877  0.095730714            1 
  672000    1.1402238   -2.6814726    753.51298   0.09344159  0.095709657            6 
  673000    1.1610463   -2.6342499    754.99337  0.093486054  0.095688943            2 
  674000      1.14706   -2.6513577    759.10351  0.093855528  0.095668257            1 
  675000     1.149069   -2.6753852    759.57532  0.093774731  0.095648524            2 
  676000    1.1177786   -2.6590989    759.41883   0.09361672  0.095629238            1 
  677000    1.1549074   -2.6556816    762.05096  0.093802433  0.095611251            1 
  678000    1.1306722   -2.6579973    764.60588  0.093978108  0.095592273            2 
  679000    1.1327923   -2.6528358    763.33407  0.093683612   0.09557321            2 
  680000    1.1605184   -2.6405496     763.0193  0.093507267  0.095554788            2 
  681000    1.1413311   -2.6541072    766.01202  0.093736175  0.095536461            1 
  682000    1.1435173   -2.6716053    765.47808   0.09353349  0.095517121            2 
  683000    1.1367473    -2.668915    767.86765  0.093688097  0.095498928            4 
  684000    1.1290936   -2.6610269    769.38527  0.093736023  0.095480187            4 
  685000    1.1553123   -2.6298425    773.15278  0.094057516  0.095460672            1 
  686000    1.1735829   -2.6634822    769.60142  0.093488997  0.095442026            1 
  687000    1.1407013   -2.6582128    772.97581  0.093762228  0.095421481            2 
  688000    1.1378247   -2.6395242    772.67129  0.093589061  0.095402057            1 
  689000    1.1435273   -2.6359124    773.61451  0.093567308  0.095383353            4 
  690000    1.1543971   -2.6763472    774.76253  0.093570354  0.095364183            2 
  691000    1.1517772   -2.6740646    772.91162  0.093211725  0.095343622            1 
  692000     1.123449   -2.6747834    777.65284  0.093647982  0.095323794            3 
  693000    1.1414559    -2.682358    779.46537  0.093730805  0.095304223            1 
  694000    1.1494892   -2.6611307    778.56946  0.093488168   0.09528495            1 
  695000    1.1633389   -2.6640759    782.04237  0.093770068  0.095266249            1 
  696000    1.1425037   -2.6578613    780.63052  0.093466297  0.095246918            1 
  697000    1.1554471   -2.6654136    781.43578  0.093428476  0.095227862            1 
  698000    1.1233896    -2.654405    781.37911  0.093287859  0.095208103            2 
  699000    1.1326494   -2.6876388    781.20744  0.093133934  0.095189339            2 
  700000    1.1438517   -2.6467792    784.56668  0.093400796  0.095170516            2 
  701000    1.1547968   -2.6649279    782.01478  0.092964192  0.095150895            3 
  702000    1.1173645   -2.6401536    786.29819  0.093340241  0.095130407            2 
  703000    1.1379821   -2.6842625    786.33563  0.093211905  0.095110399            2 
  704000    1.1329397   -2.6641724    784.76931  0.092894095  0.095092255            1 
  705000    1.1236811   -2.6411073    790.46225  0.093435254  0.095073362            2 
  706000    1.1525266   -2.6602191    785.72106  0.092743279  0.095052746            2 
  707000    1.1619943   -2.6739948    789.17619  0.093019353  0.095032965            2 
  708000    1.1681262   -2.6796859    789.55621  0.092932699  0.095012228            3 
  709000    1.1477975     -2.69066    791.61059  0.093043087  0.094992383            3 
  710000    1.1128316   -2.6574737    792.81465  0.093053363  0.094972296            4 
  711000     1.126857   -2.6779338     790.2022  0.092616292  0.094951163            1 
  712000    1.1454221   -2.6437295    799.93634  0.093625507  0.094930482            2 
  713000    1.1380104   -2.6349334    799.21291  0.093409644  0.094911603            1 
  714000     1.131953   -2.6527816    796.43178  0.092954223  0.094892447            1 
  715000    1.1377339   -2.6556692    798.29239  0.093041071  0.094873847            2 
  716000    1.1558837   -2.6834766     797.7326  0.092845973  0.094854451            1 
  717000    1.1341761   -2.6474084    807.02869  0.093796919  0.094835702            1 
  718000    1.1249205   -2.6890625    802.55989  0.093147619  0.094818041            3 
  719000    1.1200139   -2.6671129    804.28063  0.093217505  0.094799752            1 
  720000    1.1310595    -2.658847    803.03925  0.092944358  0.094783323            3 
  721000    1.1239333     -2.69524    808.53393  0.093450523  0.094765126            2 
  722000    1.1596618   -2.6510998    807.27326  0.093175584  0.094747044            3 
  723000    1.1308806   -2.6573707    811.38908  0.093521101  0.094729194            1 
  724000    1.1433039   -2.6627444    808.76733  0.093090163  0.094711568            1 
  725000     1.123639   -2.6394734    813.28521  0.093481059  0.094694437            5 
  726000     1.110804    -2.661248    810.73264  0.093059302   0.09467765            1 
  727000    1.1309256   -2.6543998    813.92683  0.093297436  0.094659357            2 
  728000    1.1391761   -2.6620374    811.30242  0.092868867  0.094641713            1 
  729000    1.1340102   -2.6800848    817.08676  0.093402693   0.09462399            3 
  730000    1.1292884   -2.6529631    815.67928  0.093114073  0.094606562            1 
  731000    1.1603672   -2.6618382    815.58394  0.092975825  0.094589578            3 
  732000    1.1420635   -2.6333097    821.61167  0.093535026  0.094573636            2 
  733000    1.1221021   -2.6771663    820.11563  0.093237338  0.094556981            2 
  734000    1.1192022   -2.6668846     818.6449  0.092943336  0.094539899            1 
  735000    1.1447612   -2.6645957    819.79667  0.092947468  0.094524099            2 
  736000    1.1407836   -2.6622434     821.8137  0.093049559  0.094507994            2 
  737000    1.1265782   -2.6824883    822.16167  0.092962649  0.094491247            1 
  738000    1.1324164   -2.6997318    828.14903  0.093512763  0.094475736            1 
  739000    1.1199096   -2.6943659    825.17748  0.093051137  0.094459161            1 
  740000    1.1406626   -2.6623867    827.45623  0.093182008  0.094442498            3 
  741000    1.1124933   -2.6823313     829.0177   0.09323186  0.094426982            1 
  742000    1.1581121   -2.6870892      833.534  0.093613432  0.094411341            4 
  743000    1.1370136   -2.6460211    832.49558  0.093370971  0.094395948            1 
  744000    1.1486661   -2.6675853    835.54754  0.093587314  0.094379443            1 
  745000    1.1223826   -2.6729258    832.05724   0.09307128   0.09436483            2 
  746000    1.1469943   -2.6791386    831.85477  0.092923902  0.094348686            3 
  747000    1.1301935   -2.6707563    833.05391  0.092933278   0.09433199            1 
  748000    1.1370597   -2.6787017    835.11762  0.093038951  0.094316847            5 
  749000    1.1231686     -2.65937    834.71948  0.092870436  0.094300663            3 
  750000     1.135233   -2.6689824    836.08495  0.092898327  0.094284543            2 
  751000    1.1411443   -2.6592998    836.32687  0.092801472  0.094267596            2 
  752000    1.1333171   -2.6609733    837.67349  0.092827293  0.094251462            1 
  753000     1.115371   -2.6680552    840.29378  0.092993999  0.094234905            1 
  754000    1.1054283   -2.6807371    843.53129  0.093228481  0.094219487            2 
  755000    1.1302935   -2.6852299    843.08294  0.093055512   0.09420401            3 
  756000    1.1343361   -2.6725746    844.58818  0.093098344  0.094188468            1 
  757000    1.1311536   -2.6835614    844.68712  0.092986253  0.094174354            1 
  758000    1.1223702   -2.6922295    847.22839  0.093142962  0.094159091            5 
  759000    1.1428038   -2.6777971    846.71369  0.092963734  0.094143621            2 
  760000    1.1161196   -2.6488942    851.02764  0.093314435  0.094129095            2 
  761000    1.1647212   -2.6699438    849.51565  0.093026243  0.094114256            4 
  762000    1.1405662   -2.6613311    848.41851  0.092784177  0.094100253            3 
  763000    1.1402166   -2.6701187    854.88402  0.093368722  0.094086209            2 
  764000    1.1393067   -2.6966986    853.30373  0.093074141  0.094073618            2 
  765000    1.1464051   -2.6459828    859.98007  0.093679746  0.094060106            1 
  766000     1.132011   -2.6736997    855.86879  0.093110181  0.094047534            3 
  767000    1.1245469   -2.6785644    858.75518  0.093302388  0.094034419            2 
  768000    1.1383845   -2.7096533    855.41849  0.092818847  0.094023344            2 
  769000    1.1340853   -2.6862397    856.05799  0.092767446  0.094010741            2 
  770000    1.1274639   -2.6648543    858.50042  0.092911301  0.093997395            2 
  771000    1.1001985   -2.6738334    859.12749   0.09285857  0.093985409            2 
  772000    1.1133994   -2.6986108    860.22351  0.092856597  0.093973252            2 
  773000    1.1137825   -2.6844821    864.36412   0.09318285  0.093959716            2 
  774000    1.1400441   -2.7372073    860.48177  0.092644462   0.09394609            2 
  775000    1.1507629    -2.694119    861.39583  0.092623207  0.093930428            2 
  776000    1.1176184   -2.6884662    864.78347  0.092867641   0.09391678            1 
  777000    1.1304545   -2.6791139     863.5013  0.092610607   0.09390198            1 
  778000    1.1249568    -2.681336    870.20013  0.093209096   0.09388881            1 
  779000    1.1487393   -2.6695826    865.98282  0.092638299   0.09387568            1 
  780000    1.1236957    -2.672413    868.05068  0.092740458  0.093861829            2 
  781000    1.1311279   -2.6939008    868.19827  0.092637459  0.093847132            1 
  782000    1.1151516   -2.6591425     869.1223  0.092617466  0.093833592            2 
  783000    1.1339404   -2.6772196    868.30332  0.092412018  0.093820206            5 
  784000    1.1025249   -2.6453407    873.96302   0.09289573  0.093806679            1 
  785000    1.1143635   -2.6766541    874.46863  0.092831065  0.093792782            1 
  786000    1.1185755   -2.6789024    870.79695   0.09232368  0.093778955            1 
  787000    1.1071328   -2.6614907    875.05176  0.092656899  0.093764573            4 
  788000     1.108931   -2.6801194    874.49035  0.092479944  0.093751211            1 
  789000    1.1387818   -2.6854507    877.94373  0.092727474  0.093737079            1 
  790000    1.1276788   -2.6680514    878.48711  0.092667416   0.09372218            2 
  791000    1.1152161   -2.7029943    878.67432  0.092569987  0.093707058            2 
  792000     1.137068   -2.6636249    880.01557  0.092594231  0.093692579            2 
  793000    1.1079185    -2.658151    881.46439  0.092629717  0.093678641            1 
  794000     1.129043   -2.6638674    884.52447  0.092834222  0.093664217            2 
  795000    1.1155307   -2.6431345    887.55418  0.093035029  0.093650129            1 
  796000    1.1511987   -2.6668346     882.2861  0.092366635  0.093635571            2 
  797000    1.1051014    -2.683916     885.2021  0.092555636  0.093619643            2 
  798000    1.1202362   -2.7070164    883.61748  0.092274173  0.093603985            3 
  799000    1.1533273   -2.6717842    891.99728  0.093032675  0.093589289            1 
  800000    1.1161982    -2.706406    886.62298   0.09235656   0.09357465            4 
  801000    1.1154222   -2.6760422    888.87212  0.092475251  0.093559421            3 
  802000    1.1398564   -2.6742216    890.56563  0.092535914   0.09354332            2 
  803000     1.133384   -2.6881391    883.47039  0.091684349  0.093527176            2 
  804000    1.1312483   -2.6965626    890.01132  0.092248272  0.093510426            3 
  805000    1.1179813   -2.6796664    890.71674  0.092206702  0.093492906            1 
  806000    1.1017123   -2.6981018    890.64512  0.092084896  0.093476288            2 
  807000    1.1549735    -2.678959    890.69795  0.091976245   0.09345874            3 
  808000    1.1154456   -2.6870347    889.96543  0.091786864  0.093441322            1 
  809000    1.1354267   -2.6916238     892.8025  0.091965647  0.093424913            1 
  810000    1.1160075   -2.6742983    897.68038  0.092353948    0.0934082            4 
  811000    1.1403322   -2.6768661    894.42197  0.091905258  0.093391864            2 
  812000    1.1069667   -2.6378853    894.17515  0.091766743  0.093374692            1 
  813000    1.1197743   -2.6899764    892.92426  0.091525652  0.093357564            2 
  814000    1.1257612    -2.689239    897.50847  0.091882521  0.093340676            4 
  815000    1.1220232   -2.6982773    900.40202  0.092065646  0.093323271            1 
  816000    1.1234382   -2.7163015    896.41915  0.091546073   0.09330582            3 
  817000    1.1321069   -2.6933299    900.58596  0.091859033   0.09328766            2 
  818000    1.1224296   -2.6670132    902.61567  0.091953512  0.093268876            3 
  819000      1.12672   -2.6508278    904.09496  0.091991754  0.093250545            2 
  820000    1.0963836   -2.6645388    906.34562  0.092108295  0.093233294            1 
  821000    1.1313259   -2.6854989    901.77554  0.091532231  0.093216138            2 
  822000    1.1341514   -2.6847632      903.778  0.091623885  0.093198606            3 
  823000    1.1250446     -2.67259    908.99923  0.092041234  0.093181194            1 
  824000    1.1111896   -2.6890202    911.83747  0.092216573  0.093163416            1 
  825000    1.1288768   -2.6935614    911.51976  0.092072703  0.093147949            4 
  826000    1.1168274   -2.6994221    909.52661   0.09176015  0.093131897            1 
  827000    1.1262884   -2.6672268    910.85788  0.091783342  0.093115534            3 
  828000    1.0991001   -2.6962604    912.06176  0.091793655  0.093098955            1 
  829000    1.0884252   -2.6599935    914.88074  0.091966298   0.09308263            1 
  830000    1.1428422    -2.711371    914.92655  0.091860095   0.09306589            2 
  831000    1.1005351   -2.6862358    913.25686  0.091582116  0.093049807            2 
  832000    1.0995113   -2.6934759    913.90645  0.091537104  0.093033778            5 
  833000    1.1334296   -2.6869909    919.41764  0.091978556  0.093016972            1 
  834000    1.0974991   -2.6621383    918.15926  0.091742532  0.093000896            1 
  835000    1.1264273   -2.6852308    920.11297  0.091827641  0.092985062            2 
  836000     1.129334   -2.6749442     919.9947   0.09170601  0.092969381            4 
  837000    1.0885763   -2.7006848    922.80004   0.09187575  0.092953341            1 
  838000    1.1348115   -2.7361377    920.82829  0.091570037  0.092935929            1 
  839000    1.1252352   -2.6620551    918.97699  0.091277015  0.092919194            2 
  840000    1.1125032   -2.6889093    926.77184  0.091941651  0.092902591            2 
  841000    1.1094222   -2.6862079     926.3914   0.09179463  0.092885613            6 
  842000    1.1199807   -2.6829926    926.71131  0.091717271  0.092869958            1 
  843000    1.1120859   -2.7191485    926.51362  0.091588931  0.092853608            2 
  844000    1.0966856   -2.7056733    922.82919  0.091116626  0.092837132            1 
  845000    1.1156922     -2.66935    933.25033  0.092036521  0.092821168            2 
  846000    1.1291454    -2.650636    934.03393  0.092004918  0.092806219            3 
  847000    1.1329724   -2.6844859    933.41829  0.091835723  0.092791358            1 
  848000    1.1023609   -2.7261731    930.90897  0.091480835  0.092775438            2 
  849000    1.0913778   -2.6786317    932.20513  0.091500307  0.092759976            2 
  850000    1.0912494   -2.6673735    935.92432  0.091757286  0.092743899            1 
  851000    1.1278311   -2.6934808    935.95545  0.091652512  0.092728681            4 
  852000    1.1122206   -2.6905763    934.88255  0.091439999  0.092712743            2 
  853000    1.1189262   -2.6772184    937.55796  0.091594173  0.092696128            4 
  854000    1.1093925   -2.6946279    936.33528  0.091367611  0.092680503            2 
  855000    1.0883234   -2.6995904    939.49668  0.091568877  0.092664964            5 
  856000    1.1385337   -2.7033645    943.98882  0.091899223  0.092648695            1 
  857000    1.1170745   -2.6892576    942.91749  0.091687815  0.092633282            1 
  858000    1.0890845   -2.7187472    939.78344  0.091276558  0.092618479            1 
  859000    1.1379246   -2.6900516    943.18536  0.091500326  0.092602498            2 
  860000    1.0795342   -2.6862638    945.09861  0.091579323  0.092587289            2 
  861000     1.110412   -2.6840897    945.74011  0.091535048  0.092570738            2 
  862000     1.143754    -2.695526    943.75935  0.091237369  0.092554329            2 
  863000    1.1108302   -2.7063997    943.11284   0.09106922  0.092538028            1 
  864000    1.1298686     -2.65988    947.77511  0.091413494  0.092522213            1 
  865000    1.1058701    -2.696554    945.84626   0.09112199  0.092505847            2 
  866000    1.1065442   -2.6693438    951.00687  0.091513363  0.092489123            2 
  867000    1.1187954   -2.7024915    952.30617  0.091532696  0.092472649            1 
  868000    1.1216211     -2.66423    952.67032  0.091462204  0.092456525            4 
  869000    1.1183084   -2.6906692    948.11987  0.090920586   0.09243979            3 
  870000    1.1243864   -2.6889322    954.49751  0.091426964  0.092423489            2 
  871000    1.1088081   -2.6607707    957.27502  0.091587736  0.092409015            1 
  872000    1.1095791   -2.7322323    955.46248  0.091309488  0.092393428            2 
  873000    1.1145408   -2.6831072    958.46353  0.091491364  0.092378198            1 
  874000     1.097906   -2.6644589    958.51065  0.091391175  0.092363297            1 
  875000    1.1193962   -2.7008639    959.15796  0.091348377  0.092347198            1 
  876000    1.1046994   -2.6802056    955.36294   0.09088308  0.092330639            3 
  877000    1.1175635   -2.7006566    958.84866  0.091110667  0.092313262            2 
  878000    1.1166887   -2.6857981    959.63355  0.091081393  0.092295364            5 
  879000    1.1106667   -2.6776337    956.20716  0.090652935  0.092277217            2 
  880000     1.115238   -2.7127739    958.97349  0.090811884  0.092259035            1 
  881000    1.1082551   -2.6863955    962.65304  0.091056852  0.092242068            2 
  882000    1.0836744   -2.6909076    969.27967  0.091579712  0.092225423            5 
  883000    1.1093283   -2.6851866    961.56946  0.090748344  0.092209697            2 
  884000     1.106233   -2.7138095    964.87505  0.090957301  0.092193322            1 
  885000    1.1253376   -2.6904408    966.32872  0.090991405  0.092176282            1 
  886000    1.0984885   -2.7070896    967.53553  0.091002213  0.092160276            5 
  887000    1.1181162   -2.7087183    969.02721  0.091039761  0.092143851            2 
  888000    1.1074049   -2.6855022    974.37332  0.091438938  0.092128192            3 
  889000    1.1293938   -2.6721715    970.94757  0.091014958  0.092112973            4 
  890000    1.0936764   -2.7073582    966.53457  0.090499492  0.092096543            2 
  891000    1.1075812   -2.7144159    971.53855  0.090865932  0.092080908            3 
  892000    1.1129586    -2.697919    973.86358  0.090981277   0.09206501            1 
  893000    1.1322441   -2.7212536    974.45687  0.090934758  0.092048666            3 
  894000    1.0802535   -2.6968702    970.16303  0.090432795  0.092032385            1 
  895000    1.0732008   -2.6811424    980.03119  0.091250576  0.092017043            2 
  896000    1.1017552   -2.7145223     978.6037  0.091015969  0.092001242            1 
  897000    1.0994464   -2.6998233    978.19394  0.090876434  0.091986212            2 
  898000    1.1094831   -2.7310355    976.37084  0.090606055  0.091971214            2 
  899000    1.1173466   -2.7255323    981.08765  0.090942497  0.091955061            2 
  900000    1.1016217   -2.7245821    979.63237  0.090706701  0.091939991            1 
  901000    1.0963324   -2.7285838    980.12857  0.090651921  0.091925419            3 
  902000    1.0960354   -2.7228972    984.96037  0.090997817  0.091909823            2 
  903000    1.0972604   -2.6974049    983.07058  0.090722645  0.091894792            2 
  904000     1.087723   -2.6875659    986.52319   0.09094056  0.091879518            2 
  905000     1.098704   -2.7300133    983.21213  0.090535187  0.091863596            2 
  906000    1.1120667   -2.7118858    984.81482  0.090582673  0.091847433            3 
  907000    1.0987471   -2.7037631    987.13953  0.090696392  0.091831105            2 
  908000    1.0914241   -2.7232897    988.70903  0.090740549  0.091815054            2 
  909000     1.113553   -2.6939082    989.71728  0.090733157  0.091799398            3 
  910000    1.1229474   -2.6926634    993.91257  0.091017635  0.091784286            1 
  911000    1.1302677    -2.716569    992.21779  0.090762696  0.091769232            1 
  912000    1.0958435   -2.7023191    990.23032  0.090481572  0.091753145            3 
  913000    1.1201612    -2.713839    990.07231  0.090368046  0.091737356            5 
  914000    1.0951117   -2.7058369     995.6768  0.090780161  0.091721575            3 
  915000    1.0864914   -2.7125543     997.5052  0.090847469  0.091705068            2 
  916000    1.0929746   -2.7172687    992.91844  0.090331008   0.09168897            1 
  917000    1.1127135   -2.6975873    996.92059    0.0905962  0.091672754            2 
  918000    1.1047131   -2.6768299    1001.9531  0.090954347   0.09165682            1 
  919000    1.1006244   -2.6964431    999.25021  0.090610284  0.091640152            3 
  920000    1.0859937   -2.6912569    996.99072   0.09030713  0.091623773            2 
  921000     1.106951   -2.7264819    999.06532   0.09039679  0.091606358            1 
  922000    1.1101367   -2.7100525    997.61023   0.09016723  0.091589667            2 
  923000    1.1223827   -2.6893157    1002.4932  0.090510403  0.091572752            1 
  924000    1.1003769   -2.6892799    998.66419  0.090067117  0.091556363            1 
  925000    1.0888978   -2.7000559    1001.5891  0.090233256  0.091539206            3 
  926000    1.0979579   -2.6810105    1003.4365  0.090302058  0.091521704            2 
  927000    1.0846421   -2.7020337    1003.6243  0.090221526  0.091504526            1 
  928000    1.1071914   -2.7100646    1003.7469  0.090135321  0.091486579            2 
  929000     1.102958   -2.6812386    1002.6898  0.089943467  0.091470261            1 
  930000    1.1305377   -2.6972132    1005.0528  0.090058492   0.09145362            2 
  931000    1.0969855   -2.7102735    1004.3216  0.089896312  0.091437514            2 
  932000    1.0990891    -2.711459    1012.5163  0.090532578  0.091421053            1 
  933000    1.1263097    -2.728195    1009.3151  0.090149612  0.091404686            2 
  934000     1.096286   -2.7010708    1014.4205   0.09050861  0.091388592            1 
  935000    1.1232592    -2.672809    1020.1647  0.090923772  0.091373672            2 
  936000    1.1010164   -2.7103436    1016.6774  0.090516152  0.091358267            1 
  937000     1.091427   -2.6865093    1016.1264  0.090370543  0.091343279            2 
  938000    1.1265786   -2.6930897    1018.7241  0.090504988  0.091327468            1 
  939000     1.116693   -2.6795662    1018.8006  0.090415389  0.091311981            2 
  940000    1.0942928   -2.7000249    1017.2635  0.090182938   0.09129628            2 
  941000    1.0933817   -2.6973918    1021.1735  0.090433362  0.091281066            2 
  942000    1.1023844   -2.6826584    1021.6436  0.090378945  0.091266034            3 
  943000    1.1160545   -2.6809155    1025.3099  0.090607093  0.091251134            3 
  944000    1.0886791   -2.6751333    1021.3124   0.09015823  0.091236459            1 
  945000    1.0907427   -2.6857354    1022.1829  0.090139584  0.091222635            2 
  946000    1.1126875   -2.6940777    1024.2458  0.090226021  0.091208325            1 
  947000    1.0973579   -2.7206041    1026.1269  0.090296282  0.091193227            1 
  948000    1.1184341   -2.7148951    1024.9294   0.09009576  0.091177702            1 
  949000     1.106025   -2.7025851    1028.9169  0.090350979  0.091162996            2 
  950000    1.0873736    -2.734464    1028.4421  0.090214221  0.091147463            3 
  951000    1.0839984   -2.7176003    1027.7448  0.090058258  0.091131975            2 
  952000    1.0945262   -2.7212004    1027.7322  0.089962549     0.091116            1 
  953000    1.1209004     -2.70501    1027.5898  0.089855698  0.091100234            4 
  954000    1.0828631   -2.7127651    1032.7922  0.090215953  0.091084948            2 
  955000    1.0804474   -2.7480436    1032.0231   0.09005437  0.091068469            1 
  956000    1.0923555   -2.7083978     1035.926  0.090300384  0.091052882            3 
  957000    1.1079631   -2.7379544    1030.8977  0.089768175  0.091036511            5 
  958000    1.0697903   -2.7272858    1035.2044  0.090049097  0.091020933            1 
  959000    1.1071275   -2.6946773    1033.3185  0.089791317  0.091004972            1 
  960000    1.1069561   -2.6884527    1040.4544   0.09031722  0.090989223            2 
  961000    1.1115823   -2.7054065    1036.4335  0.089874565  0.090974278            2 
  962000    1.1000885   -2.7275634    1039.0003  0.090003489  0.090959432            1 
  963000    1.0898089    -2.684931    1040.4515  0.090035606  0.090944505            2 
  964000    1.1169101   -2.7028494    1037.5715   0.08969325  0.090929499            1 
  965000     1.087918   -2.7144785    1039.9108  0.089802316   0.09091384            2 
  966000    1.0864586    -2.693584    1043.7707  0.090042334  0.090897805            3 
  967000    1.1253166   -2.7021204    1039.5241  0.089583252  0.090881702            1 
  968000    1.0998319   -2.7250979    1043.3757   0.08982229  0.090865663            2 
  969000    1.1241748   -2.7249061    1039.0974  0.089361658  0.090848489            2 
  970000    1.1021385   -2.7021983     1047.146  0.089960997  0.090831243            2 
  971000    1.0822308   -2.7286138    1038.9704  0.089166705   0.09081401            4 
  972000    1.1026858   -2.7055785    1043.5123  0.089464359  0.090797082            2 
  973000    1.1014485   -2.7135728    1046.7248  0.089647551  0.090780353            1 
  974000    1.1106307   -2.7247341    1046.7152  0.089554687  0.090763396            2 
  975000    1.0812448   -2.7040623    1049.8787  0.089733224  0.090746169            3 
  976000    1.1070339   -2.6762531    1052.3416  0.089851571  0.090728615            1 
  977000    1.1027631   -2.6940842    1048.9438  0.089469792  0.090712622            3 
  978000    1.1003836   -2.7278602    1050.4239  0.089504423  0.090695489            1 
  979000    1.1048769   -2.7059651     1052.266  0.089569796  0.090677736            2 
  980000     1.078779    -2.727684     1053.851   0.08961318  0.090661178            4 
  981000    1.0649961   -2.7412907     1050.097  0.089202936  0.090644497            1 
  982000    1.0947001   -2.7165082    1054.9825  0.089526689  0.090627935            4 
  983000    1.0816965   -2.6940344     1058.353  0.089721343  0.090611526            1 
  984000    1.1168603   -2.7382283    1058.8122  0.089669053  0.090595248            2 
  985000     1.126106   -2.7288938    1061.7093  0.089823122  0.090579496            2 
  986000    1.1031583     -2.71505    1061.2158  0.089690317  0.090563911            4 
  987000    1.1009134   -2.6944401    1070.7405  0.090403626  0.090549781            1 
  988000    1.1068132   -2.6966657    1063.8295  0.089729211  0.090535002            4 
  989000    1.1044895   -2.7434625    1063.5175  0.089612191  0.090520218            2 
  990000    1.0948496   -2.7203095    1065.8893  0.089721318  0.090506386            1 
  991000    1.0659361   -2.7415904    1067.3877  0.089756787  0.090491393            1 
  992000    1.0733966   -2.7079502    1066.1694  0.089563961  0.090477231            2 
  993000    1.1351735   -2.7284077    1071.0506  0.089883404  0.090462858            2 
  994000    1.0753538   -2.7071946    1074.7874   0.09010625  0.090448302            2 
  995000    1.1015661   -2.7291795     1074.556  0.089996318  0.090433718            2 
  996000    1.0892784   -2.7538768    1073.5141  0.089818783  0.090419092            2 
  997000    1.1142459   -2.6942686    1071.4274  0.089554279  0.090404103            2 
  998000    1.0809885   -2.7191903    1072.7184  0.089572341  0.090389694            2 
  999000    1.1078676   -2.7320221      1075.21  0.089690521  0.090374524            1 
 1000000    1.0890348   -2.7078892     1077.023  0.089751915   0.09035963            1 
 1001000    1.1019664   -2.7418009     1072.674  0.089300196  0.090344417            2 
 1002000    1.0874381    -2.696575    1078.8591  0.089725471  0.090329557            1 
 1003000    1.1001185   -2.7167927    1081.3711  0.089844724  0.090315048            3 
 1004000     1.099558   -2.7085243    1082.6124  0.089858265  0.090300221            1 
 1005000    1.0816469    -2.708707    1076.0961  0.089228531  0.090285718            1 
 1006000    1.0777837   -2.7102909     1084.136  0.089805836  0.090271116            1 
 1007000    1.0869377   -2.7130832    1086.3453  0.089899477  0.090256338            2 
 1008000    1.0741846   -2.7373957    1075.0289  0.088874745  0.090240723            3 
 1009000    1.1059603   -2.7747045     1081.097  0.089287827  0.090224487            1 
 1010000    1.0880151   -2.7155088    1082.4746  0.089313086  0.090207842            1 
 1011000    1.0833192   -2.7221035     1081.451  0.089140371  0.090191511            2 
 1012000    1.0696102   -2.7386542    1079.7466   0.08891194  0.090174517            2 
 1013000    1.0817673   -2.7564009    1082.4852  0.089049454  0.090157431            4 
 1014000    1.0987949   -2.7268439     1085.939  0.089245479  0.090141104            1 
 1015000    1.0705391   -2.7334705    1085.7272   0.08914016  0.090124305            2 
 1016000    1.0834507   -2.7284884    1087.8287  0.089224792  0.090108358            1 
 1017000    1.1216904   -2.7213277    1087.3839  0.089100616  0.090092308            1 
 1018000    1.0653096   -2.7151949    1088.6115  0.089113584  0.090075027            6 
 1019000    1.0801944   -2.7059135    1090.1499  0.089151934  0.090058575            2 
 1020000    1.0897075   -2.7220164    1086.7483  0.088786624  0.090041925            6 
 1021000    1.0932023   -2.7483928    1089.7104  0.088941431  0.090026549            2 
 1022000    1.1031415   -2.7387348    1092.1252  0.089051305  0.090010292            1 
 1023000    1.0859847   -2.7280988    1093.5262  0.089078377  0.089994363            2 
 1024000    1.1063489   -2.7260089    1088.5761  0.088588551  0.089977604            1 
 1025000    1.0670074   -2.6912304     1095.284   0.08904748  0.089961041            1 
 1026000    1.0788923   -2.7095105    1093.9926  0.088855797  0.089944594            2 
 1027000    1.1090533   -2.7506972    1092.3974  0.088639844   0.08992791            2 
 1028000    1.0882796   -2.7440109    1096.9584  0.088923349  0.089911805            2 
 1029000    1.0794199   -2.6864613    1098.3632  0.088950694  0.089895558            3 
 1030000    1.0961763   -2.7294312    1101.4588  0.089114788  0.089880137            1 
 1031000     1.087002    -2.714992    1100.6982  0.088966875  0.089863478            3 
 1032000    1.0832153   -2.7227475    1098.9014  0.088735578  0.089847366            2 
 1033000    1.0600203    -2.718588    1099.2717  0.088679549  0.089830718            3 
 1034000    1.0702394   -2.7183699    1102.4732  0.088851809  0.089815531            3 
 1035000    1.0921194   -2.7554553    1102.8971  0.088800092  0.089799815            1 
 1036000    1.0870184   -2.7016888    1101.6557   0.08861452  0.089783923            2 
 1037000    1.0917745   -2.7704411    1104.2998  0.088741546  0.089767718            2 
 1038000    1.1130939     -2.74007     1099.707  0.088287332   0.08975106            1 
 1039000    1.0701478   -2.7512996    1106.8512  0.088775359  0.089734678            2 
 1040000    1.0911681   -2.7261884    1107.8502   0.08877005  0.089718988            1 
 1041000    1.0706581   -2.7519341    1104.6967  0.088432334  0.089701668            2 
 1042000    1.1028707   -2.7267397    1104.6837  0.088346424  0.089684826            2 
 1043000    1.0714317   -2.7442814    1110.9006   0.08875844  0.089668581            6 
 1044000    1.1033951   -2.7355538     1108.656  0.088494251  0.089652237            3 
 1045000     1.056862   -2.7447485    1112.2305  0.088694617  0.089635913            1 
 1046000    1.0912824   -2.7257028    1114.2452  0.088770334  0.089619959            1 
 1047000    1.1022166   -2.7273328    1112.3706  0.088536338  0.089603858            2 
 1048000    1.0803473   -2.7454194    1116.8973  0.088811809  0.089587803            2 
 1049000    1.0955847   -2.7264569    1114.9569  0.088572998  0.089571387            5 
 1050000    1.0767301   -2.7142675    1116.3603  0.088600027  0.089555127            1 
 1051000    1.0941419   -2.7032329    1119.0315  0.088727522  0.089538476            2 
 1052000     1.103034   -2.7220018    1115.0717  0.088329505  0.089521068            2 
 1053000    1.0755573   -2.7644881    1114.1517  0.088172816  0.089503942            3 
 1054000    1.0859504   -2.7600419    1116.3207  0.088260653  0.089487025            4 
 1055000    1.1239674   -2.7138083    1121.0647  0.088551713  0.089469098            2 
 1056000    1.0719688   -2.7382731    1119.4332  0.088339108  0.089451828            1 
 1057000    1.0831063   -2.7331977    1118.3147  0.088167353  0.089434809            1 
 1058000    1.0595723   -2.7270312    1123.0489   0.08845691  0.089417553            1 
 1059000    1.0921086   -2.7396616    1121.9005  0.088283009  0.089401078            1 
 1060000    1.1006573   -2.7677686    1121.7187  0.088185434  0.089383633            2 
 1061000    1.0859186    -2.712373    1125.5148  0.088400475  0.089365818            3 
 1062000     1.091825   -2.7279499    1126.0435  0.088358719  0.089348612            1 
 1063000    1.0893404   -2.7482318    1121.4978  0.087919239  0.089331829            2 
 1064000    1.0844681   -2.7525916    1125.5774  0.088156124  0.089315362            3 
 1065000    1.0692936   -2.7367755    1127.8758  0.088253195  0.089298272            3 
 1066000    1.0631827   -2.7388678    1129.2357  0.088276712  0.089281911            3 
 1067000    1.0915297   -2.7148549    1129.6725  0.088228092  0.089266198            2 
 1068000    1.0729972   -2.7071564    1132.1801   0.08834114  0.089250071            2 
 1069000    1.0827928    -2.708937    1134.9025  0.088470729  0.089233664            1 
 1070000     1.084584    -2.722584    1133.6217  0.088288293  0.089217073            2 
 1071000    1.0645419   -2.7139843    1139.5427  0.088666564  0.089200653            2 
 1072000    1.0898657   -2.7175634    1138.5145  0.088503925  0.089185189            3 
 1073000    1.0770557   -2.7215191     1137.997  0.088381249  0.089169307            2 
 1074000     1.076093   -2.7314363    1137.8132  0.088284696  0.089153627            2 
 1075000    1.0845226   -2.7421165     1134.878  0.087975035  0.089137618            5 
 1076000    1.0722577   -2.7358313    1138.2437  0.088153939   0.08912141            3 
 1077000    1.0529442   -2.7557168    1140.5763  0.088252576  0.089105516            2 
 1078000    1.1004363   -2.7350311    1137.7945  0.087955666  0.089088844            2 
 1079000     1.090847   -2.7195312    1140.2225  0.088061669  0.089071811            2 
 1080000     1.082487   -2.7515738    1146.4053  0.088457196  0.089055548            6 
 1081000      1.08749   -2.7218111     1141.184  0.087972863   0.08903975            2 
 1082000    1.0787498   -2.7460952    1143.6519  0.088081629  0.089024019            2 
 1083000    1.1033767    -2.720048    1142.1606  0.087885549  0.089007863            5 
 1084000    1.1060634   -2.7264249    1148.3147  0.088277573  0.088991749            2 
 1085000    1.1048012   -2.7276121    1146.3031  0.088041711  0.088975426            3 
 1086000    1.0710198   -2.7077044    1148.4388  0.088124525   0.08895985            4 
 1087000    1.0797487   -2.7349038    1147.2142  0.087949569  0.088942957            2 
 1088000    1.0575589   -2.7478847    1147.2054  0.087868064  0.088926031            1 
 1089000     1.058941    -2.716606    1151.2135  0.088094086  0.088909437            2 
 1090000    1.0848048   -2.7098434    1154.9892  0.088301926  0.088892672            1 
 1091000     1.067052   -2.7175187    1155.1056  0.088229881  0.088876629            3 
 1092000    1.0979776   -2.7342231    1151.8047  0.087897186  0.088860638            1 
 1093000    1.0694547   -2.7668465    1153.9995  0.087984105  0.088844245            3 
 1094000     1.074585    -2.742741     1154.227  0.087921006  0.088827597            1 
 1095000    1.0642769   -2.7366554    1157.9153  0.088121405  0.088812103            2 
 1096000    1.0655962   -2.7566311    1157.9656  0.088044826  0.088795927            1 
 1097000    1.1007965   -2.7445482    1154.6017  0.087709032  0.088780192            2 
 1098000    1.0694274   -2.7497903    1160.1089  0.088047126  0.088763967            1 
 1099000     1.110332   -2.7296868    1156.3105  0.087678985  0.088747469            4 
 1100000    1.0959222   -2.7563643    1160.6652  0.087929179  0.088730841            2 
 1101000    1.0627869     -2.74025    1159.8328  0.087786314  0.088713972            4 
 1102000    1.0759002   -2.7436237    1160.1239  0.087728667   0.08869662            2 
 1103000    1.0837059   -2.7119139    1157.1211  0.087422265   0.08867984            2 
 1104000    1.0932661   -2.7200657    1160.9156  0.087629495  0.088662444            1 
 1105000    1.0497419   -2.7640973    1159.9026    0.0874738  0.088645767            2 
 1106000    1.0578141   -2.7377976    1160.7188  0.087456207  0.088629159            4 
 1107000    1.0534161   -2.7440194    1164.3819  0.087652959  0.088612299            2 
 1108000    1.0747425   -2.7612186    1161.7805  0.087378195  0.088595505            1 
 1109000    1.0750261   -2.7406129    1168.5723  0.087809762  0.088579155            2 
 1110000    1.0813374   -2.7271833    1166.2022  0.087552719  0.088563124            4 
 1111000    1.0552135   -2.7564606    1166.0446  0.087462093  0.088546692            1 
 1112000    1.0558929   -2.7467622    1164.5703  0.087272952   0.08852964            5 
 1113000    1.0632663   -2.7347448    1169.4574  0.087560454  0.088513267            3 
 1114000     1.059705   -2.7420026    1171.2703  0.087617465  0.088497742            2 
 1115000    1.0577951    -2.748248    1168.7988  0.087354169  0.088481607            2 
 1116000    1.0813453   -2.7485664    1172.1745  0.087527968   0.08846508            2 
 1117000    1.0729711   -2.7237589    1175.4758  0.087695894  0.088448597            2 
 1118000    1.0585123   -2.7128801    1175.1578  0.087593754  0.088432998            1 
 1119000     1.059758   -2.7437682    1173.0867  0.087361238  0.088417452            3 
 1120000     1.083348   -2.7499127      1175.69  0.087476934  0.088401188            2 
 1121000    1.0709381   -2.7443028    1176.4831  0.087457855  0.088384728            1 
 1122000    1.0708518   -2.7606074    1179.1479  0.087577833  0.088367951            1 
 1123000    1.0569006   -2.7556632    1175.9333  0.087261299   0.08835187            2 
 1124000    1.0865704   -2.7468731     1179.312   0.08743416  0.088336353            2 
 1125000    1.0875272   -2.7288206     1177.569  0.087227333  0.088319982            1 
 1126000    1.0761912   -2.7290627    1180.9347  0.087398954  0.088303768            1 
 1127000     1.077174   -2.7497778    1180.3607  0.087278965  0.088287759            1 
 1128000    1.0765665   -2.7064027    1186.7109  0.087670726  0.088271364            2 
 1129000     1.098056   -2.7150855    1180.5234   0.08713636  0.088255638            4 
 1130000    1.0592111   -2.7396823    1186.9569  0.087533695  0.088239406            3 
 1131000    1.0672972   -2.7395311    1184.9961  0.087311822  0.088223561            1 
 1132000     1.075149   -2.7583975    1186.7157  0.087361284   0.08820681            2 
 1133000    1.0858183   -2.7487764    1186.6615  0.087280192  0.088190684            4 
 1134000    1.0803859   -2.7335812    1188.0346  0.087304127  0.088174436            1 
 1135000    1.0755163   -2.7630408    1189.6199  0.087343603  0.088158129            2 
 1136000    1.0560915   -2.7383583    1189.3724   0.08724856  0.088142507            2 
 1137000    1.0519887   -2.7538873    1187.7572  0.087053447  0.088126543            2 
 1138000    1.0732764   -2.7307085    1193.1019  0.087368331  0.088110852            5 
 1139000    1.0705629   -2.7479096    1196.0156    0.0875048  0.088095182            6 
 1140000    1.0637863   -2.7486046    1195.8898  0.087418846  0.088078756            4 
 1141000    1.0886852   -2.7251535    1196.7062  0.087401853  0.088063208            2 
 1142000    1.0358449    -2.737783    1195.3563  0.087226816  0.088047566            2 
 1143000    1.0610871    -2.748638    1195.6434  0.087171435  0.088031636            2 
 1144000    1.0747322   -2.7599328     1190.052  0.086687937  0.088014941            2 
 1145000    1.0366195   -2.7438871    1201.4647  0.087442843  0.087998279            1 
 1146000    1.0810529   -2.7273283    1198.3405   0.08713936  0.087982017            2 
 1147000    1.0474044    -2.760777    1194.2924  0.086769279  0.087965829            2 
 1148000    1.0891185   -2.7336194    1202.0824  0.087259176  0.087949413            3 
 1149000    1.0531359   -2.7281138    1193.7904  0.086581836   0.08793302            2 
 1150000    1.0667769   -2.7281462    1205.4706  0.087352944  0.087916201            5 
 1151000    1.0704648   -2.7583673    1200.2138  0.086896449   0.08789976            1 
 1152000    1.0653809   -2.7743078     1204.547  0.087134479    0.0878833            1 
 1153000    1.0665768   -2.7657377    1200.4418    0.0867622   0.08786687            5 
 1154000    1.1025053   -2.7662242    1202.5441  0.086838831  0.087850285            2 
 1155000    1.0767548   -2.7645498    1210.1151  0.087309891  0.087834257            3 
 1156000    1.0695061   -2.7916991    1202.3529  0.086674803  0.087818074            1 
 1157000    1.0773239    -2.731864    1214.9453  0.087506863     0.087802            3 
 1158000    1.0701227   -2.7318988    1208.5177  0.086968744  0.087786608            1 
 1159000      1.07567   -2.7412817    1209.8261  0.086987787  0.087770534            3 
 1160000    1.0732849   -2.7361441    1207.6095  0.086753556  0.087754051            3 
 1161000    1.0620068   -2.7606112    1204.9873  0.086490618  0.087736979            1 
 1162000     1.069719   -2.7479895    1212.5842  0.086961003  0.087721145            2 
 1163000    1.0440368   -2.7467013    1213.4949  0.086951486  0.087705145            1 
 1164000    1.0668116   -2.7383974    1213.8973  0.086905591  0.087689153            2 
 1165000    1.0670527   -2.7462797    1218.7597  0.087178804   0.08767268            3 
 1166000    1.0547174   -2.7333956    1221.4808  0.087298515  0.087657339            2 
 1167000    1.0449153   -2.7392169     1214.332  0.086713222  0.087641594            2 
 1168000    1.0807078   -2.7401766    1220.7921  0.087099893  0.087625889            1 
 1169000    1.0442179   -2.7579718    1214.9909  0.086611839  0.087610188            4 
 1170000    1.0557606   -2.7542877    1219.5219  0.086860538  0.087594605            1 
 1171000    1.0547991   -2.7311716    1225.5869  0.087217968  0.087579371            3 
 1172000    1.0608434   -2.7417959    1219.5099  0.086711453  0.087563839            3 
 1173000    1.0479677   -2.7643836    1221.3781  0.086770256  0.087548615            2 
 1174000    1.0712699   -2.7399243    1228.4726  0.087199932  0.087533623            2 
 1175000     1.074121   -2.7371724    1221.7303  0.086647538  0.087518594            3 
 1176000    1.0507649   -2.7479452     1226.896  0.086939912  0.087503136            2 
 1177000    1.0794018   -2.7469763    1227.7898  0.086929326  0.087487841            1 
 1178000    1.0238715   -2.7472795    1228.8649  0.086931589  0.087472619            2 
 1179000    1.0993086   -2.7693714    1228.5336  0.086834434  0.087458263            1 
 1180000    1.0437206   -2.7265557    1231.1937  0.086948706   0.08744367            2 
 1181000    1.0607952   -2.7380543    1232.8023  0.086988587   0.08742913            2 
 1182000     1.069928   -2.7567847    1229.4644   0.08667967  0.087414476            2 
 1183000    1.0369641   -2.7681194    1230.2017  0.086658337  0.087399652            3 
 1184000    1.0782007    -2.724575    1235.1358  0.086932418  0.087385574            1 
 1185000    1.0643787   -2.7655993    1234.6272  0.086823288  0.087371173            5 
 1186000    1.0370808   -2.7515247     1239.785   0.08711249  0.087357056            3 
 1187000    1.0587654   -2.7829441    1234.1285  0.086641991  0.087342584            4 
 1188000    1.0661211   -2.7778366    1240.8659  0.087041663  0.087328342            3 
 1189000    1.0717701    -2.755289    1241.1374  0.086987486  0.087314354            3 
 1190000    1.0901319    -2.753379    1241.1428   0.08691476  0.087300006            2 
 1191000    1.0520518   -2.7473649     1239.403  0.086720052  0.087285814            2 
 1192000    1.0317375   -2.7504742     1242.798  0.086884649  0.087271672            1 
 1193000    1.0665148   -2.7314547    1244.8445  0.086954774   0.08725781            2 
 1194000    1.0608643   -2.7268549    1245.6117  0.086935488  0.087243877            1 
 1195000    1.0586938   -2.7580385    1244.7621   0.08680349  0.087229415            2 
 1196000    1.0739347   -2.7667963    1242.6174  0.086581482  0.087214634            2 
 1197000    1.0479705    -2.731075    1242.0118  0.086466987  0.087200403            1 
 1198000    1.0625896    -2.747356     1244.761  0.086586043  0.087185543            2 
 1199000    1.0582294   -2.7587963    1243.9428  0.086456965  0.087170452            2 
 1200000    1.0455058   -2.7215292    1252.5021  0.086979312  0.087156114            4 
 1201000     1.070277   -2.7462186    1243.6772  0.086294562  0.087141492            3 
 1202000    1.0667195   -2.7752392    1250.0136  0.086662066  0.087126968            1 
 1203000    1.0764045   -2.7565336    1249.2912  0.086539984  0.087111709            2 
 1204000    1.0548432   -2.7501229    1248.9585  0.086445079  0.087096689            2 
 1205000    1.0596401   -2.7408442    1249.3984  0.086403765  0.087081211            1 
 1206000    1.0629969   -2.7507065    1250.5316  0.086410422  0.087065604            3 
 1207000     1.053865   -2.7532341      1249.23  0.086248961  0.087049866            2 
 1208000    1.0761937   -2.7386303    1246.6075  0.085996651  0.087034339            1 
 1209000    1.0654219   -2.7564527     1251.191  0.086241454   0.08701873            1 
 1210000    1.0505124   -2.7935886    1252.0775  0.086231235  0.087002753            2 
 1211000    1.0673376   -2.7510711    1251.4955  0.086119974  0.086986936            2 
 1212000    1.0284484   -2.7447759    1252.1804  0.086096014  0.086971028            1 
 1213000    1.0594059   -2.7750192    1254.1921  0.086163239  0.086955287            6 
 1214000    1.0733706   -2.7420645    1255.4118  0.086175986  0.086939685            3 
 1215000    1.0723369   -2.7398617    1255.3458  0.086100536  0.086924467            4 
 1216000    1.0632592   -2.7665267     1252.447  0.085831072  0.086908135            2 
 1217000    1.0560637   -2.7767657    1259.2005  0.086222984  0.086892434            2 
 1218000    1.0439484   -2.7615902    1255.7701  0.085917497   0.08687635            4 
 1219000    1.0515593   -2.7517522    1258.8173  0.086055329  0.086860675            1 
 1220000    1.0560011   -2.7822859    1251.9365  0.085514788  0.086844699            2 
 1221000    1.0585402   -2.7569016     1261.603  0.086104493  0.086828172            2 
 1222000    1.0486624   -2.7603037    1262.1544  0.086071629  0.086812487            2 
 1223000    1.0448003   -2.7617285    1258.7633  0.085770191  0.086795848            2 
 1224000    1.0602699    -2.763712    1260.3865  0.085810628   0.08677927            4 
 1225000    1.0512152    -2.751928    1270.4286  0.086423712  0.086763318            2 
 1226000    1.0767694   -2.7589635    1268.2927  0.086208043  0.086747537            2 
 1227000    1.0723776   -2.7542288    1260.9073  0.085636196  0.086731416            1 
 1228000    1.0381365   -2.7370674    1271.7091  0.086299475  0.086714811            1 
 1229000    1.0662418   -2.7640748    1262.7084  0.085618956  0.086698611            1 
 1230000    1.0512394   -2.7512729     1263.646   0.08561287  0.086681902            3 
 1231000    1.0449063   -2.7886601    1267.5356  0.085806633  0.086665333            3 
 1232000    1.0551621   -2.7544922    1265.8381  0.085622167  0.086648635            2 
 1233000    1.0591127   -2.7469127    1272.1894  0.085981985  0.086631839            4 
 1234000    1.0534746   -2.7652113    1267.3567  0.085585949  0.086615025            2 
 1235000    1.0493751   -2.7875998    1267.8251  0.085548255    0.0865983            3 
 1236000     1.052538   -2.7595762    1271.4768   0.08572524  0.086580914            4 
 1237000    1.0708549   -2.7710742    1267.9319  0.085417133   0.08656371            2 
 1238000    1.0627558   -2.7864646    1268.1145  0.085360426  0.086546602            5 
 1239000    1.0539082    -2.757456    1274.3299  0.085709574  0.086529337            2 
 1240000    1.0673114   -2.7645881    1277.0898  0.085825928  0.086512781            2 
 1241000    1.0600823   -2.7398402    1275.5557  0.085653753  0.086496766            3 
 1242000    1.0462155   -2.7623452     1275.117  0.085555353  0.086480615            2 
 1243000    1.0794263   -2.7558087    1273.8673  0.085402739  0.086464857            5 
 1244000    1.0470558   -2.7505327    1279.6723  0.085722959  0.086448555            6 
 1245000    1.0442331   -2.7742705    1279.5216  0.085644013  0.086432159            2 
 1246000    1.0729304   -2.7698155    1276.8413   0.08539602  0.086415398            4 
 1247000    1.0539564   -2.7652218    1279.3812  0.085497275   0.08639919            1 
 1248000    1.0373756   -2.7504112    1287.7853  0.085989937  0.086383274            5 
 1249000    1.0502761   -2.7717499    1283.2351    0.0856175  0.086367627            6 
 1250000    1.0549457   -2.7593558    1281.4046  0.085426973  0.086351931            4 
 1251000    1.0407994   -2.7638434    1290.2542  0.085948186  0.086336272            4 
 1252000    1.0587743   -2.7440315    1290.2792  0.085881201  0.086320749            2 
 1253000    1.0421582   -2.7755637    1289.0647  0.085731892  0.086304681            2 
 1254000    1.0773223   -2.7345561    1293.4008  0.085951672  0.086289228            2 
 1255000    1.0509346   -2.7704831    1289.6567  0.085634575  0.086273396            1 
 1256000    1.0673335    -2.754017    1287.8004  0.085443234   0.08625763            1 
 1257000    1.0557033   -2.7682124    1293.9617  0.085783725   0.08624184            2 
 1258000    1.0489732   -2.7881569    1293.3123  0.085672516  0.086225549            1 
 1259000    1.0482979   -2.7856775    1286.2956  0.085140029  0.086209328            2 
 1260000    1.0366711   -2.7715874    1295.5561  0.085684924  0.086194097            2 
 1261000    1.0673296   -2.7819733     1296.194  0.085659132  0.086178938            2 
 1262000    1.0870006   -2.7835776    1297.3288  0.085666192  0.086164014            2 
 1263000    1.0420786   -2.7474409    1296.7638  0.085561086  0.086148553            2 
 1264000    1.0459255   -2.7757861    1300.1042  0.085713621  0.086133616            2 
 1265000    1.0622823   -2.7545528    1297.4484  0.085470907  0.086118592            2 
 1266000    1.0382881   -2.7403932    1302.3123  0.085723558  0.086103807            4 
 1267000    1.0755631   -2.7722252    1301.7281  0.085617474  0.086089132            3 
 1268000    1.0366338   -2.7978913     1300.969  0.085500065  0.086073553            1 
 1269000    1.0678819    -2.754132    1305.2987  0.085717014  0.086058121            2 
 1270000    1.0495657   -2.7805557    1299.0864  0.085241891  0.086043324            1 
 1271000    1.0358484   -2.7686289    1304.2419  0.085512844  0.086028092            2 
 1272000    1.0330013   -2.7882593    1300.7797  0.085218798  0.086012845            3 
 1273000    1.0511237    -2.739985    1308.2247  0.085639218  0.085997968            1 
 1274000    1.0752781   -2.7886381    1302.7851  0.085216188  0.085982906            1 
 1275000    1.0619513   -2.7769287    1300.2902   0.08498629  0.085967355            1 
 1276000     1.055006   -2.7731914      1306.73  0.085340256  0.085952078            3 
 1277000    1.0645856   -2.8078438    1304.8628  0.085151581  0.085937501            2 
 1278000    1.0536305   -2.7595705    1309.6836  0.085399298  0.085922571            2 
 1279000     1.021573   -2.7772257    1314.7219  0.085660798  0.085908189            2 
 1280000     1.056727   -2.7431871    1314.1644  0.085557576  0.085893122            2 
 1281000    1.0267426   -2.7732563    1315.5752  0.085582563  0.085878157            2 
 1282000    1.0279424   -2.7691138    1320.3751  0.085827813  0.085863374            2 
 1283000    1.0336449   -2.7820033    1309.7278  0.085069356  0.085849217            2 
 1284000    1.0678199   -2.7649905    1316.8413   0.08546478  0.085834372            2 
 1285000    1.0492356   -2.7670434     1320.381   0.08562782  0.085819476            2 
 1286000     1.046817   -2.7849948    1315.0271  0.085214304  0.085804778            2 
 1287000    1.0234705   -2.7629373    1317.0838  0.085281262  0.085790137            3 
 1288000     1.035865   -2.7816043    1317.6495  0.085251653   0.08577505            1 
 1289000    1.0468231   -2.7489056    1323.0362  0.085533759  0.085759717            3 
 1290000    1.0446164   -2.7716344    1318.9448  0.085203153  0.085744506            1 
 1291000    1.0223575   -2.7957821    1322.3181  0.085354902  0.085729296            2 
 1292000    1.0463649   -2.7587384    1322.1961  0.085280963  0.085713996            3 
 1293000    1.0228489   -2.7693585    1317.1861  0.084892117  0.085699095            1 
 1294000    1.0411891   -2.7862733    1317.5749  0.084851552  0.085684053            3 
 1295000    1.0334034   -2.7937073    1323.2802  0.085153163  0.085669006            2 
 1296000     1.019634   -2.8027279    1323.7735  0.085119182   0.08565391            4 
 1297000    1.0593858   -2.7672254    1329.3092  0.085409223   0.08563962            2 
 1298000    1.0454651   -2.7889067    1318.8514   0.08467202  0.085624911            2 
 1299000    1.0302726   -2.7782681    1322.6157  0.084848329  0.085609588            3 
 1300000    1.0396549   -2.7562449    1327.5302   0.08509809  0.085595443            2 
 1301000    1.0376973   -2.7668901    1330.4951  0.085222589   0.08558096            2 
 1302000    1.0389828   -2.7793613    1326.5106  0.084902113  0.085566676            4 
 1303000    1.0439977   -2.7841636    1332.8597  0.085243007  0.085552968            1 
 1304000    1.0597267   -2.7571234    1335.5003   0.08534639  0.085539663            4 
 1305000    1.0337133   -2.7786475    1333.3631  0.085144515  0.085526029            2 
 1306000    1.0468983   -2.7684239    1334.9408   0.08517999  0.085512986            4 
 1307000    1.0468657   -2.7482813    1337.2744  0.085263607  0.085499525            1 
 1308000    1.0529328   -2.7724933    1337.1935  0.085193265  0.085487123            1 
 1309000    1.0563781   -2.7797192    1347.1492  0.085761978  0.085474444            3 
 1310000    1.0262352   -2.7646442    1344.1202  0.085503829  0.085461318            3 
 1311000    1.0491895   -2.7854496    1342.6164   0.08534302  0.085448593            2 
 1312000    1.0320511   -2.7421797    1346.1067  0.085499665  0.085436573            2 
 1313000     1.040623   -2.7759411    1343.3329  0.085258499  0.085424131            3 
 1314000    1.0468215   -2.7636509    1345.5635  0.085335079  0.085411592            2 
 1315000    1.0355535    -2.765262    1349.2154  0.085501611  0.085398645            5 
 1316000     1.045817   -2.7994824    1342.8101  0.085031034  0.085386081            1 
 1317000    1.0662702   -2.7806633    1348.0034  0.085295077  0.085373277            3 
 1318000    1.0592614   -2.7739425    1350.1731  0.085367544  0.085360357            2 
 1319000    1.0518712   -2.7469799    1351.1642  0.085365442  0.085347205            1 
 1320000    1.0363525   -2.7740198    1355.0437   0.08554569  0.085334524            2 
 1321000     1.070708   -2.7843274    1348.5201  0.085069401  0.085322067            2 
 1322000     1.039023   -2.7770062    1353.1596  0.085297504  0.085309448            3 
 1323000    1.0404289   -2.7941013    1351.5979  0.085134665  0.085296374            2 
 1324000    1.0263296   -2.7817454    1356.1568  0.085357302  0.085283373            1 
 1325000     1.042953   -2.7924227    1352.8233  0.085083224  0.085269818            3 
 1326000    1.0626287   -2.7676848    1351.8524  0.084958047  0.085256687            1 
 1327000     1.029337   -2.7538703    1356.2887  0.085172613  0.085242837            2 
 1328000    1.0366546   -2.7531656    1357.7935  0.085202905  0.085229437            1 
 1329000    1.0351224   -2.7714395    1352.5208  0.084808175  0.085216041            1 
 1330000    1.0469676   -2.7709577    1360.2211  0.085226886  0.085202957            1 
 1331000    1.0547786   -2.7755571    1362.6631  0.085315745  0.085190112            2 
 1332000    1.0396393   -2.7650158    1358.5045  0.084991521  0.085176165            2 
 1333000    1.0553911   -2.7885706    1360.1491  0.085030578   0.08516283            2 
 1334000     1.024543   -2.8021123    1359.5274  0.084927999  0.085149369            4 
 1335000    1.0520345    -2.766037    1360.4605  0.084922629  0.085136177            1 
 1336000     1.027855   -2.7853957    1356.6868  0.084623677  0.085123301            4 
 1337000    1.0383998   -2.7728343     1361.913  0.084886125  0.085110258            2 
 1338000    1.0214732   -2.7629519    1364.8471  0.085005426  0.085097272            1 
 1339000    1.0623212   -2.7601053    1368.5364  0.085171546  0.085084284            1 
 1340000    1.0257408   -2.7452578    1368.3507  0.085096435  0.085071198            3 
 1341000     1.069932   -2.7543229    1365.9073  0.084881139  0.085058056            1 
 1342000    1.0416955   -2.7951403    1361.3692  0.084536089  0.085044457            2 
 1343000    1.0561182   -2.7421069    1367.3364  0.084843411  0.085030762            2 
 1344000    1.0515287   -2.7845325    1368.0444  0.084824181  0.085017443            2 
 1345000    1.0318949   -2.7635092    1373.4713  0.085097352  0.085003507            2 
 1346000     1.037517   -2.7884561    1373.7706   0.08505266  0.084989806            2 
 1347000    1.0272567   -2.7908878    1370.8512  0.084808908  0.084976428            2 
 1348000    1.0317469    -2.811487    1367.9137  0.084564398  0.084962126            2 
 1349000    1.0336843   -2.7955329     1374.358  0.084899802  0.084948556            3 
 1350000    1.0491935   -2.7800542    1375.7739  0.084924313  0.084935163            2 
 1351000    1.0253255   -2.7771619    1375.7966  0.084862857  0.084921391            2 
 1352000    1.0195769   -2.7789092    1374.5627  0.084724029  0.084907886            4 
 1353000      1.03356   -2.7856557    1372.6159  0.084541505  0.084894472            2 
 1354000    1.0286104   -2.7749839    1379.0548  0.084875359  0.084880923            2 
 1355000    1.0452596   -2.7784226    1377.1192  0.084693678  0.084867215            3 
 1356000    1.0325755    -2.785764    1382.7971  0.084980153  0.084853786            2 
 1357000    1.0182531   -2.7873297    1381.7447  0.084852905  0.084840343            3 
 1358000    1.0205296   -2.7953756    1373.9178  0.084310123  0.084826374            3 
 1359000    1.0416984   -2.8017289    1379.4496  0.084587294   0.08481238            3 
 1360000    1.0298619     -2.77072    1382.0197  0.084682579  0.084798348            4 
 1361000    1.0426831   -2.7901299    1379.4445   0.08446268  0.084784794            1 
 1362000    1.0433447   -2.7569241    1383.1082  0.084624829  0.084771091            1 
 1363000     1.033792   -2.7868979    1384.8035  0.084666391   0.08475724            3 
 1364000    1.0465334    -2.819651    1380.9364  0.084368059  0.084743278            2 
 1365000    1.0281553   -2.7586529    1386.1882  0.084626876  0.084729313            2 
 1366000    1.0342188   -2.8044301    1385.9222  0.084548697  0.084715507            2 
 1367000    1.0387113   -2.7881064    1383.4251  0.084334621  0.084701841            6 
 1368000    1.0510383   -2.7598602    1385.9242  0.084425207  0.084688476            2 
 1369000     1.030433   -2.7829029    1386.9251  0.084424465  0.084674927            1 
 1370000    1.0188036   -2.8076337    1384.3981  0.084209129   0.08466116            5 
 1371000    1.0363138   -2.7834517    1386.1628  0.084254974  0.084647358            4 
 1372000    1.0334642   -2.7937193    1394.5606  0.084703633  0.084633747            4 
 1373000   0.98595296   -2.7783038      1397.96  0.084848262  0.084619823            2 
 1374000   0.99793236   -2.7858389    1384.3147  0.083958919  0.084606072            2 
 1375000    1.0169152   -2.7970867    1387.0866  0.084065853  0.084592219            2 
 1376000    1.0376928   -2.7886271    1396.5956  0.084580647  0.084578619            2 
 1377000    1.0386572   -2.7748327    1399.4091  0.084689485  0.084565203            1 
 1378000    1.0076506   -2.7825099    1396.5277   0.08445378  0.084551751            1 
 1379000    1.0358931   -2.7810212    1396.2608  0.084376405  0.084538291            3 
 1380000    1.0247317   -2.7877638    1399.5281  0.084512569  0.084524828            1 
 1381000    1.0224533   -2.7949216    1398.0289  0.084360902  0.084510775            2 
 1382000    1.0293793   -2.8157562    1399.3187  0.084377632   0.08449721            1 
 1383000    1.0036276     -2.79253    1399.5011  0.084327612  0.084483832            1 
 1384000    1.0107502   -2.7899219    1397.5701  0.084150417  0.084470331            3 
 1385000    1.0307403   -2.8068543     1402.753  0.084401502  0.084456599            5 
 1386000    1.0208343    -2.789278    1398.2139  0.084067694  0.084442504            2 
 1387000    1.0147112   -2.8035431    1401.9319   0.08423047  0.084428703            3 
 1388000    1.0290118   -2.7865387    1407.1911  0.084485536  0.084414739            3 
 1389000     1.052702    -2.783847    1400.5588  0.084026806  0.084401333            2 
 1390000    1.0284539   -2.7849983    1403.1283  0.084120404  0.084387357            3 
 1391000    1.0243296   -2.7621855    1401.7207  0.083975597  0.084373199            3 
 1392000    1.0449693   -2.7929892    1403.3303  0.084011634  0.084359161            2 
 1393000    1.0522289   -2.8102149     1404.757  0.084036671  0.084345694            4 
 1394000    1.0446674   -2.7911616    1409.0659  0.084233973  0.084332292            1 
 1395000    1.0331495   -2.8074032      1411.62  0.084326163  0.084318602            2 
 1396000    1.0516801   -2.8094244    1409.2427  0.084123846  0.084305224            3 
 1397000    1.0125945   -2.7843216     1414.099  0.084353317  0.084292058            5 
 1398000    1.0252741   -2.7745532    1409.0059  0.083989384  0.084278358            3 
 1399000    1.0219816   -2.7822726    1415.4266  0.084311808  0.084264974            3 
 1400000    1.0278172   -2.7771565    1413.4938  0.084136537  0.084251961            2 
 1401000    1.0472758   -2.7831518    1414.2928  0.084124005  0.084238889            2 
 1402000    1.0299474   -2.7989078    1414.6559  0.084085588  0.084225674            4 
 1403000    1.0192101   -2.8054966     1416.516  0.084136138  0.084212071            3 
 1404000    1.0223157   -2.7941814    1416.2023  0.084057591  0.084199382            3 
 1405000    1.0330235   -2.7968896    1417.8411  0.084094965  0.084187147            2 
 1406000     1.028437    -2.816568     1414.905  0.083861131  0.084174451            3 
 1407000    1.0312681   -2.7844302    1419.4053   0.08406807   0.08416206            3 
 1408000    1.0178576   -2.8213181    1423.8166  0.084269448  0.084148846            3 
 1409000    1.0555104   -2.7975699    1427.2556  0.084413034  0.084136378            5 
 1410000    1.0066322     -2.80424    1422.9057  0.084096084  0.084123629            2 
 1411000    1.0298005   -2.8213945    1423.5329  0.084073522  0.084110445            5 
 1412000    1.0286577   -2.7993065    1429.9089  0.084390277   0.08409721            3 
 1413000   0.99666864   -2.8186696    1421.3097  0.083823406  0.084083964            3 
 1414000    1.0140313   -2.7913247    1424.7387  0.083966212  0.084070726            2 
 1415000    1.0510177   -2.8210849    1424.6789  0.083903354  0.084057682            2 
 1416000    1.0169487   -2.7993584    1424.1345  0.083812058  0.084044612            3 
 1417000    1.0074619   -2.8168488    1423.5154  0.083716503  0.084031365            4 
 1418000    1.0289251    -2.811264    1431.0018  0.084097425  0.084018775            4 
 1419000    1.0112719   -2.7899645    1427.7935  0.083849748  0.084005857            2 
 1420000    1.0396466   -2.7898889    1432.2225  0.084050619  0.083993287            1 
 1421000    1.0402275   -2.8039449    1433.3768   0.08405916  0.083980267            2 
 1422000    1.0202645   -2.7822165    1432.1306  0.083927015  0.083967778            4 
 1423000    1.0215765   -2.8074122    1435.6376  0.084073415  0.083954863            3 
 1424000     1.035376   -2.7702698    1432.0809  0.083806231  0.083942433            5 
 1425000    1.0205691   -2.7946578    1434.6891  0.083899949   0.08392938            1 
 1426000    1.0242643   -2.8379163    1433.6684  0.083781463  0.083916186            6 
 1427000    1.0072081   -2.7994238    1433.4509  0.083710051  0.083903189            1 
 1428000    1.0346827   -2.8008521    1430.1027  0.083456038  0.083889872            2 
 1429000    1.0369834   -2.8194231    1436.6672  0.083780452  0.083876566            1 
 1430000     1.045596    -2.798546    1435.8492  0.083674196  0.083863614            2 
 1431000    1.0079466   -2.8030305    1436.1606   0.08363386  0.083850654            2 
 1432000    1.0337156   -2.8082206    1442.6149  0.083951051  0.083837396            2 
 1433000    1.0019695   -2.8023352    1439.0766  0.083686708  0.083824193            2 
 1434000    1.0477113   -2.7903586    1438.6994  0.083606427   0.08381136            4 
 1435000    1.0225703   -2.8140461     1443.391  0.083820618  0.083798802            1 
 1436000    1.0119093   -2.8006447    1445.1338  0.083863383  0.083786465            2 
 1437000   0.99568829   -2.8159233    1443.5418  0.083712702  0.083774219            2 
 1438000    1.0276293   -2.7966808    1444.3172  0.083699421  0.083761571            4 
 1439000    1.0216054   -2.7706292    1448.3786  0.083876454  0.083748831            2 
 1440000    1.0337766   -2.8003219    1447.3774  0.083760266  0.083736794            3 
 1441000    1.0313738   -2.8177329     1445.542  0.083595999  0.083724246            4 
 1442000    1.0171404   -2.8017085    1443.0314  0.083392939  0.083711315            3 
 1443000    1.0012434   -2.8038473    1449.4241  0.083704323  0.083698409            2 
 1444000    1.0186851   -2.8124128    1452.5084  0.083824351  0.083685875            1 
 1445000    1.0234073   -2.7942348    1451.4313  0.083704225  0.083672988            2 
 1446000    1.0227793   -2.8101722    1451.2984  0.083638681  0.083660345            1 
 1447000    1.0280878   -2.8062454    1455.8654  0.083843896  0.083647377            2 
 1448000    1.0339837   -2.7972117    1453.4955  0.083649605  0.083635024            3 
 1449000     1.029915   -2.7900477    1459.5393  0.083939458   0.08362259            1 
 1450000    1.0199611    -2.794033    1452.3665  0.083469342   0.08361039            2 
 1451000    1.0144669   -2.8196463    1455.1231  0.083570131   0.08359785            1 
 1452000     1.005286   -2.8027401    1458.7402  0.083720167  0.083584855            2 
 1453000    1.0374241   -2.7784795    1458.0909  0.083625311   0.08357228            2 
 1454000    1.0185357   -2.8000276     1455.143  0.083398844  0.083559571            3 
 1455000    1.0228199   -2.8179722    1452.9247  0.083214474  0.083547135            3 
 1456000    1.0345959    -2.808815    1463.4626   0.08376045  0.083534843            2 
 1457000    1.0254597   -2.7780111    1469.1056  0.084025717  0.083522573            2 
 1458000    1.0363396   -2.7694866    1465.2853  0.083749732  0.083510436            2 
 1459000    1.0301483   -2.7995284     1459.497  0.083361722  0.083498009            2 
 1460000    1.0187008   -2.7969559    1465.2762  0.083634488  0.083485228            3 
 1461000    1.0289216   -2.8008834    1464.2496  0.083518685  0.083472394            4 
 1462000     1.016425   -2.8159957    1465.6961  0.083544007  0.083459588            5 
 1463000    1.0208421   -2.8228912    1462.1305  0.083283809  0.083446296            3 
 1464000    1.0277941   -2.8029244    1461.7204  0.083203576  0.083433813            1 
 1465000   0.99887602   -2.7725803    1474.3163  0.083863268  0.083420905            6 
 1466000    1.0229684   -2.7904422    1471.1073  0.083623651   0.08340794            1 
 1467000    1.0160675   -2.8120507    1466.8532  0.083324997  0.083395221            2 
 1468000    1.0364901   -2.8217437    1464.7887  0.083151037  0.083381761            4 
 1469000    1.0043662   -2.8065981    1466.4544  0.083188927  0.083368505            2 
 1470000     1.010386   -2.7940073    1465.6199  0.083085029  0.083355519            2 
 1471000    1.0395993   -2.7731305    1478.1974  0.083741074  0.083343145            2 
 1472000   0.99012226   -2.8082711    1475.8198   0.08354958  0.083330632            2 
 1473000    1.0310431   -2.7774782    1478.2048  0.083627787  0.083317646            5 
 1474000    1.0182109   -2.8228553    1470.2965  0.083123951  0.083304989            2 
 1475000    1.0386199   -2.8098281    1471.0194   0.08310844  0.083292158            3 
 1476000    1.0393469   -2.7985485    1470.3265  0.083013016  0.083279258            2 
 1477000    1.0163924   -2.8154907    1479.7182  0.083486697  0.083266175            1 
 1478000    1.0077796   -2.8425057    1472.5704  0.083027199  0.083252554            2 
 1479000    1.0058366   -2.7915592    1474.6568  0.083088621  0.083238929            6 
 1480000    1.0347429   -2.8064362    1472.8704  0.082931892  0.083225096            3 
 1481000    1.0303124   -2.8340182    1472.0966  0.082832354  0.083210992            7 
 1482000   0.99818628   -2.7808623    1480.4597  0.083246721  0.083196801            1 
 1483000    1.0168953   -2.8192444    1470.9555  0.082656527  0.083182146            2 
 1484000   0.99904197   -2.8403281    1472.5362  0.082689591  0.083168155            2 
 1485000   0.99169906   -2.8136416    1471.7373  0.082589076  0.083153881            2 
 1486000    1.0094646   -2.8065174    1475.0643  0.082720068  0.083139478            2 
 1487000    1.0052604   -2.7939522    1475.0136    0.0826616  0.083124755            2 
 1488000   0.99209416   -2.8525023    1476.3584  0.082681364  0.083110235            4 
 1489000    1.0212532   -2.8258241    1466.8153  0.082091743  0.083095113            3 
 1490000    1.0061571    -2.800815    1480.2342  0.082787146   0.08308038            1 
 1491000    1.0119586   -2.8083262    1476.1393  0.082502757  0.083065654            2 
 1492000    1.0082417   -2.7908409    1475.9638  0.082437656  0.083050882            2 
 1493000    1.0267176   -2.8021837    1485.7483  0.082928574  0.083036784            3 
 1494000    1.0009612   -2.7840529    1485.0321  0.082833116   0.08302263            3 
 1495000   0.99123091    -2.780206    1481.9932  0.082608317  0.083008693            3 
 1496000    1.0145462    -2.816992    1482.8526  0.082600969  0.082994395            3 
 1497000    1.0337083   -2.8156386    1477.0909  0.082225055  0.082980089            4 
 1498000    1.0104482   -2.8221718    1485.4248  0.082633776  0.082965474            6 
 1499000    1.0297343   -2.8174071    1483.3947  0.082465792  0.082951018            2 
 1500000   0.97966963   -2.8037343     1487.498   0.08263878  0.082936822            4 
 1501000    1.0173422   -2.7899509    1489.9025  0.082717216  0.082923205            2 
 1502000    1.0025596    -2.813453    1489.4489  0.082636976  0.082909237            3 
 1503000    1.0404814   -2.8063304    1489.2144  0.082568997  0.082895271            4 
 1504000    1.0192826     -2.81877    1494.6023  0.082812629  0.082881488            3 
 1505000    0.9873008   -2.7970427    1494.6218  0.082758682  0.082867751            3 
 1506000    1.0181116   -2.8159101    1497.9834   0.08288974  0.082853829            2 
 1507000     1.008129   -2.7732925     1499.828  0.082936737  0.082840129            5 
 1508000    1.0117425   -2.7965813    1489.7062  0.082322404  0.082826477            2 
 1509000    1.0017043   -2.8153041    1498.3755  0.082746603  0.082812715            3 
 1510000    1.0202238   -2.8075285    1494.0777  0.082454621   0.08279908            1 
 1511000    1.0226416   -2.8118064    1501.2843  0.082797503  0.082785335            2 
 1512000    1.0086483   -2.8243088    1497.4673  0.082532371  0.082771706            2 
 1513000    1.0143883     -2.80732    1496.5658   0.08242817  0.082758126            2 
 1514000    1.0114436   -2.8216852     1497.839  0.082443801  0.082744306            2 
 1515000    1.0088942   -2.8184756     1494.091  0.082183226  0.082730174            6 
 1516000    1.0002896   -2.8023585    1497.7912  0.082332409  0.082716292            2 
 1517000    1.0219838   -2.8218669    1497.7694   0.08227694  0.082702449            3 
 1518000    1.0273458   -2.8246539    1496.7179  0.082165013  0.082688574            2 
 1519000    1.0207113   -2.8140884    1500.4376  0.082314986  0.082674479            2 
 1520000    1.0066889   -2.8135725    1501.3477  0.082310732  0.082660741            4 
 1521000    1.0380191   -2.8298731    1504.7553  0.082443311  0.082646384            2 
 1522000     1.008708   -2.8231432    1503.7454  0.082333849  0.082631904            4 
 1523000   0.99474001   -2.7962389    1509.6416  0.082602406   0.08261773            2 
 1524000    1.0188169   -2.8218929    1497.4334  0.081880655  0.082603415            2 
 1525000   0.97774373   -2.8186536    1506.7872  0.082338099  0.082588947            2 
 1526000    1.0120767   -2.8288834    1503.1911  0.082087761  0.082574861            2 
 1527000    1.0031195   -2.8104758    1508.9575  0.082348694  0.082560639            1 
 1528000    1.0055502   -2.8023594    1509.0375  0.082299168  0.082545892            4 
 1529000    1.0177491   -2.8312175    1502.4395  0.081885735  0.082531087            3 
 1530000    1.0018903   -2.8103723    1503.3836  0.081883638  0.082516703            4 
 1531000    1.0136604   -2.7909148    1511.9455  0.082296186  0.082502237            2 
 1532000    1.0150983   -2.8101568    1509.8456   0.08212824  0.082488122            2 
 1533000   0.99879223   -2.8132666    1513.9461  0.082297568  0.082474412            1 
 1534000     1.019143   -2.8061104    1510.6768  0.082066318  0.082460648            2 
 1535000    1.0048679   -2.8048007    1515.0214  0.082248718  0.082446319            2 
 1536000    1.0049792   -2.8175854    1509.2718  0.081883238  0.082431755            3 
 1537000    1.0184926    -2.833317    1510.0308  0.081871112  0.082417545            2 
 1538000    1.0091897   -2.8124331    1510.9709  0.081868816   0.08240268            2 
 1539000    1.0127467   -2.7893883    1517.1757  0.082151597  0.082388582            2 
 1540000    1.0198021   -2.8353493    1511.3748  0.081784351  0.082374499            2 
 1541000    1.0091219   -2.8020728    1518.9683  0.082141915   0.08236032            3 
 1542000    1.0177025   -2.8099801    1518.5742   0.08206735  0.082345827            1 
 1543000    1.0027958   -2.8349909    1522.0328   0.08220095  0.082331458            2 
 1544000    1.0002331   -2.8358991    1505.1874  0.081238528  0.082316342            4 
 1545000    1.0138026   -2.8400595     1514.566  0.081691803  0.082301519            6 
 1546000    1.0093724    -2.821477    1514.1071  0.081614223   0.08228667            1 
 1547000   0.98903044   -2.7930442    1526.6564  0.082237469  0.082272326            2 
 1548000    1.0092552   -2.8224633     1519.021  0.081773307  0.082258484            3 
 1549000    1.0159681   -2.8131248    1524.7138  0.082026783  0.082244529            1 
 1550000    0.9979567   -2.8304181    1522.5477  0.081857403  0.082230554            2 
 1551000   0.99602948   -2.8313304     1526.793   0.08203272  0.082216775            3 
 1552000   0.99341511   -2.8337993    1518.5526  0.081537406   0.08220286            2 
 1553000    1.0091409   -2.8289635    1524.6931  0.081814398  0.082189043            3 
 1554000    1.0061318   -2.8107406    1534.2317  0.082273258  0.082174768            2 
 1555000    1.0143924   -2.7945387    1526.3507     0.081798  0.082160824            3 
 1556000    1.0016557   -2.8330875    1529.8581  0.081933276  0.082147163            2 
 1557000    1.0130982   -2.8177659    1531.3496  0.081960478  0.082133231            3 
 1558000   0.99823324   -2.8260984     1529.644  0.081816648  0.082119886            1 
 1559000   0.99957052   -2.8293006    1536.9848  0.082156555  0.082106972            1 
 1560000    1.0156488   -2.8429742    1538.6745  0.082194153  0.082093209            2 
 1561000    1.0097933   -2.8286174    1533.2654  0.081852731   0.08207884            2 
 1562000    1.0017652   -2.8400149    1534.4564  0.081863869  0.082065073            3 
 1563000   0.99812687   -2.8340732    1527.4952  0.081440349  0.082050862            4 
 1564000   0.99567441   -2.8076009    1535.9617  0.081839391  0.082036662            2 
 1565000    1.0163552   -2.7890339    1531.9732  0.081574716  0.082022288            2 
 1566000    1.0184512   -2.8166738    1537.1297  0.081797026  0.082008176            1 
 1567000   0.99735446   -2.8242979    1537.4685  0.081762844  0.081993395            2 
 1568000    1.0020339   -2.8297758    1534.0783  0.081530524  0.081979057            2 
 1569000   0.98357342   -2.8189421    1535.1348  0.081534674  0.081964407            2 
 1570000    1.0053009   -2.8301231    1537.2875  0.081597001  0.081950063            2 
 1571000    1.0155067   -2.8284019    1545.3145  0.081970852  0.081936496            3 
 1572000   0.99384517   -2.8277901    1534.7499  0.081358665  0.081922163            3 
 1573000    1.0128257   -2.8432402    1538.7602  0.081519402  0.081908174            1 
 1574000   0.98180075   -2.8402298    1538.4198  0.081449587  0.081894033            2 
 1575000    1.0242523   -2.8333051    1541.1759  0.081543697  0.081879853            2 
 1576000   0.98176438   -2.8295791    1543.2268  0.081600404  0.081865909            1 
 1577000    1.0042325   -2.8441955    1542.6698  0.081519226  0.081851951            2 
 1578000   0.97935447   -2.8276605    1547.3679  0.081715669  0.081837906            3 
 1579000    1.0180188   -2.8439175    1543.3165  0.081450098  0.081823625            4 
 1580000   0.99908271   -2.8379471    1546.5113  0.081567052  0.081809523            1 
 1581000   0.99801205   -2.8320597    1549.2087  0.081657638  0.081795057            2 
 1582000   0.99521172   -2.8510369    1540.6393  0.081154619  0.081780606            3 
 1583000    1.0039368   -2.8274496    1543.0955  0.081232652  0.081765804            2 
 1584000    1.0191166   -2.8303743    1553.4112  0.081724073  0.081751744            4 
 1585000   0.98987027   -2.8130647    1552.9936  0.081650555  0.081737934            3 
 1586000    1.0167979   -2.8514413    1551.3311  0.081511722  0.081724262            1 
 1587000   0.96501744   -2.8316204    1557.6663   0.08179302    0.0817107            4 
 1588000   0.99895355   -2.8344477     1554.725  0.081587164  0.081697004            4 
 1589000     1.002259    -2.842224     1558.927   0.08175619  0.081683346            1 
 1590000    1.0394749   -2.8082616    1556.4863  0.081576852  0.081670137            1 
 1591000    1.0015069   -2.8295369    1556.9554  0.081550149  0.081656584            2 
 1592000   0.99595428   -2.8466581    1558.3081  0.081569728  0.081643201            4 
 1593000   0.99456208    -2.834491    1562.2919  0.081726925  0.081630134            1 
 1594000   0.99357538   -2.8358091    1558.3004  0.081466979  0.081617059            2 
 1595000    1.0198279   -2.8182484    1562.8832  0.081655339  0.081604093            1 
 1596000   0.98191715   -2.8273727    1562.7214   0.08159573  0.081591166            3 
 1597000      1.03916   -2.8477489    1562.1452  0.081514569  0.081578236            2 
 1598000   0.98580839   -2.8404927    1568.8505  0.081813229  0.081565377            1 
 1599000   0.97532179   -2.8474834     1565.135  0.081568431  0.081552502            5 
 1600000   0.97982351   -2.8387336    1559.2884   0.08121294  0.081539167            2 
 1601000    0.9825367   -2.8201219    1573.9171  0.081923646  0.081526529            1 
 1602000   0.98414775   -2.8313754    1568.6627  0.081599184   0.08151424            2 
 1603000   0.99414101   -2.8389846    1572.7105  0.081758708   0.08150188            3 
 1604000   0.97744145   -2.8264822    1569.6113  0.081546723  0.081489677            4 
 1605000    1.0119513   -2.8330411    1577.8792   0.08192519  0.081477525            3 
 1606000   0.99820546   -2.8579941    1572.3572  0.081587653  0.081465012            2 
 1607000    1.0044352   -2.8461679    1566.9211  0.081254984    0.0814526            2 
 1608000    1.0039188    -2.801632    1571.4672  0.081440048  0.081440804            1 
 1609000   0.99487455   -2.8254687    1580.2933  0.081846557  0.081428791            1 
 1610000   0.99668755   -2.8533006    1578.9221  0.081724748  0.081417048            4 
 1611000   0.98656185   -2.8375168    1581.0672  0.081784979  0.081405342            2 
 1612000   0.97114469   -2.8491647    1575.9015  0.081467197  0.081393462            2 
 1613000   0.98527821   -2.8114691    1585.1161  0.081892751  0.081381471            1 
 1614000    0.9968403   -2.8343978    1576.8423  0.081414822  0.081369865            3 
 1615000   0.97804168   -2.8055105    1587.7143  0.081925401  0.081358088            3 
 1616000     1.024004   -2.8383964     1585.274  0.081748867  0.081346425            2 
 1617000   0.99141941   -2.8185478    1585.8496  0.081727976  0.081334595            2 
 1618000    1.0083691   -2.8302996    1585.4941  0.081659151  0.081323221            2 
 1619000    0.9670755   -2.8536856    1584.8605  0.081576101  0.081311586            2 
 1620000   0.98448272   -2.8399255    1589.2767  0.081752915   0.08129988            4 
 1621000    0.9730882   -2.8503656    1592.3874  0.081862401  0.081288334            6 
 1622000    0.9897111    -2.846326     1583.113  0.081335438  0.081277056            1 
 1623000   0.99254306   -2.8283894    1590.9149  0.081685917  0.081265622            2 
 1624000    1.0128394    -2.819879    1593.2264  0.081754226  0.081254013            2 
 1625000   0.99144028   -2.8177099    1594.7528  0.081782194  0.081242544            3 
 1626000   0.99980009   -2.8336641    1590.2573  0.081501501   0.08123096            2 
 1627000   0.98988516   -2.8263055     1603.263  0.082117548  0.081219926            2 
 1628000   0.99638513   -2.8313762    1596.3366   0.08171256  0.081208633            2 
 1629000    1.0005659   -2.8549471     1597.991  0.081747032  0.081196937            1 
 1630000   0.99930409    -2.830843    1597.6758  0.081680769  0.081185501            1 
 1631000   0.94936702   -2.8474536    1591.4696  0.081313591  0.081173946            7 
 1632000   0.97021417   -2.8300512    1593.3685   0.08136073  0.081161994            1 
 1633000   0.98093313   -2.8654907    1593.9219  0.081339143  0.081150344            1 
 1634000   0.97429715    -2.848195    1594.0559  0.081296198  0.081138626            2 
 1635000   0.99647069   -2.8444806    1593.0319  0.081194285  0.081126825            4 
 1636000    1.0118305   -2.8599576    1602.6044  0.081632255  0.081115496            5 
 1637000    1.0041387   -2.8336592    1600.7372  0.081487333   0.08110407            3 
 1638000   0.98843078   -2.8230445    1608.8782  0.081851761  0.081092806            3 
 1639000   0.96297668   -2.8431397    1601.5836  0.081430931  0.081081622            2 
 1640000   0.99167452   -2.8357467    1605.1286   0.08156141  0.081070404            3 
 1641000   0.98089615   -2.8193356    1609.8378  0.081750853   0.08105919            2 
 1642000   0.98539159   -2.8337425    1608.1894   0.08161741   0.08104826            1 
 1643000   0.98867913   -2.8324995    1613.2979  0.081826836  0.081037285            5 
 1644000    0.9925735   -2.8467046    1606.8354  0.081449485  0.081026237            3 
 1645000   0.99252073   -2.8512446    1612.2785   0.08167571  0.081015148            2 
 1646000    1.0011959    -2.843756    1609.3186  0.081476233  0.081004447            2 
 1647000    0.9890261   -2.8511331    1607.3755  0.081328451  0.080992991            2 
 1648000    0.9867169   -2.8335692    1608.9707  0.081359762  0.080981497            1 
 1649000   0.98853923   -2.8327392    1609.0701  0.081315447  0.080970178            2 
 1650000   0.98443803   -2.8573043    1612.8887  0.081459023  0.080958641            3 
 1651000    1.0108245   -2.8128271    1607.8616  0.081155944  0.080947305            5 
 1652000     0.990917   -2.8542261    1617.9715  0.081616802  0.080935391            2 
 1653000    1.0032629   -2.8747261    1607.4269   0.08103584  0.080923901            3 
 1654000   0.99616512    -2.863352    1617.7613  0.081507524  0.080912529            2 
 1655000   0.99422396   -2.8242291    1615.7046  0.081354713   0.08090114            3 
 1656000   0.98946733   -2.8423104    1619.1812  0.081480534  0.080890306            1 
 1657000   0.99625346   -2.8509344    1616.7176  0.081307463  0.080879243            3 
 1658000   0.96873018   -2.8349329    1625.9136  0.081720626  0.080868677            3 
 1659000   0.99625062   -2.8723161    1614.4503  0.081095554  0.080857884            3 
 1660000   0.97274263   -2.8769328    1622.9794   0.08147487  0.080846932            2 
 1661000   0.99053624   -2.8451845     1620.028  0.081277745   0.08083614            3 
 1662000     0.990739   -2.8801888    1620.2342  0.081239181  0.080825238            3 
 1663000   0.98936218   -2.8428732    1622.7386  0.081315822  0.080814093            8 
 1664000    0.9850088   -2.8293987    1624.5305  0.081356696  0.080803165            3 
 1665000   0.99667646   -2.8471619     1626.354  0.081399099  0.080792687            2 
 1666000   0.97306871   -2.8192475    1625.3207  0.081298553  0.080781643            3 
 1667000    0.9744677   -2.8655368    1629.8315  0.081475281  0.080770946            3 
 1668000   0.97818881   -2.8513343    1623.3578   0.08110301  0.080760143            3 
 1669000   0.98843204   -2.8459007    1625.8215  0.081177428  0.080748892            3 
 1670000   0.97490867   -2.8464362    1629.1028  0.081292554  0.080737797            1 
 1671000   0.96753938   -2.8264095    1631.9406   0.08138543   0.08072696            2 
 1672000   0.95964668   -2.8666174    1631.3692  0.081308273  0.080715719            3 
 1673000   0.98507147   -2.8533561    1633.9325  0.081387352  0.080704612            3 
 1674000   0.97392368   -2.8560051    1631.8662  0.081235871   0.08069372            2 
 1675000    1.0017413   -2.8400615    1633.1145  0.081249478  0.080682636            5 
 1676000   0.98062026   -2.8319693    1639.0021  0.081493742  0.080671354            1 
 1677000   0.98277948      -2.8494    1633.6326  0.081178324  0.080660409            2 
 1678000   0.98896716   -2.8791938    1637.6322  0.081328578  0.080650013            4 
 1679000   0.98178514   -2.8398695    1644.0595  0.081599141  0.080638962            4 
 1680000   0.99109705   -2.8426393    1626.3811  0.080673663  0.080628493            2 
 1681000   0.96803931   -2.8599999    1637.8903  0.081196225  0.080617651            1 
 1682000   0.96655962     -2.84174     1635.443  0.081026703  0.080606919            2 
 1683000   0.97907563   -2.8689868    1636.4098  0.081026429  0.080595828            3 
 1684000   0.98529011   -2.8419132    1641.0553  0.081208197  0.080584901            1 
 1685000   0.96094471   -2.8612935    1636.7002  0.080944619  0.080574198            2 
 1686000    0.9880347    -2.859424    1638.0959  0.080965596  0.080563061            3 
 1687000   0.97284728   -2.8901064    1639.1254  0.080968456   0.08055189            3 
 1688000   0.99303686   -2.8707613    1632.7214  0.080604336  0.080540633            3 
 1689000   0.98068247   -2.8670057    1638.0095   0.08081752  0.080529413            4 
 1690000   0.98900698   -2.8623214    1640.2252  0.080878953  0.080518046            3 
 1691000   0.97904165   -2.8450046    1643.2343  0.080979416  0.080507043            3 
 1692000   0.97904207   -2.8715867    1647.1903  0.081126392  0.080496196            2 
 1693000   0.99578103    -2.853521    1641.2666  0.080786899   0.08048496            3 
 1694000   0.98928352   -2.8644065     1650.129  0.081175176  0.080473865            2 
 1695000   0.97820129   -2.8425566    1649.6304  0.081102771  0.080462803            1 
 1696000   0.96068434   -2.8314478    1650.0502  0.081075582  0.080451734            5 
 1697000   0.99142924   -2.8331197     1646.453  0.080851161  0.080440911            3 
 1698000   0.97144412   -2.8673113    1651.3879  0.081045735  0.080430083            1 
 1699000   0.97345988   -2.8727168    1646.5182  0.080759182  0.080418973            3 
 1700000   0.96786693   -2.8537023    1651.4223  0.080952072  0.080408023            5 
 1701000   0.99318215   -2.8398248    1649.9126  0.080830523  0.080396853            3 
 1702000   0.97698926   -2.8426376    1653.5258  0.080959937  0.080385617            2 
 1703000   0.99710209   -2.8501703    1653.2732  0.080900039  0.080374302            1 
 1704000   0.97045789   -2.8609753    1654.7711  0.080925818   0.08036281            3 
 1705000   0.97885986    -2.850795     1652.937  0.080788709  0.080351209            6 
 1706000      0.97578   -2.8565937    1658.4942  0.081012809   0.08033944            2 
 1707000   0.96996394   -2.8371929    1655.3435  0.080811536   0.08032771            2 
 1708000   0.96884337   -2.8368768    1664.2382  0.081198194  0.080316724            4 
 1709000   0.96938548   -2.8496765    1657.5798  0.080826008  0.080305379            4 
 1710000   0.99300284   -2.8531628    1655.2322  0.080664339  0.080294068            3 
 1711000   0.99234024   -2.8744517    1656.4323  0.080675643  0.080282816            3 
 1712000   0.97005931   -2.8495245    1664.4349  0.081018055  0.080271837            3 
 1713000    1.0040453    -2.872524    1669.8178  0.081232625  0.080260576            1 
 1714000   0.96053011   -2.8685932    1654.4642   0.08043875  0.080248961            3 
 1715000   0.98756642   -2.8255495    1659.8076  0.080651487  0.080237758            2 
 1716000    0.9743245   -2.8618993    1664.4397  0.080829435  0.080226369            3 
 1717000   0.97050262   -2.8489033    1660.6064  0.080596311  0.080214952            2 
 1718000   0.96936321   -2.8491475    1658.2135  0.080433329  0.080203617            2 
 1719000   0.97843121   -2.8550514    1665.9067  0.080759489  0.080191979            1 
 1720000   0.99741641   -2.8658441    1662.2062  0.080533247  0.080180801            1 
 1721000   0.97328896   -2.8494244    1665.7516  0.080658123  0.080169294            2 
 1722000   0.99528487     -2.84479    1664.5373   0.08055252  0.080157837            2 
 1723000   0.97337318   -2.8574259     1661.763  0.080371589  0.080146266            1 
 1724000   0.96754923    -2.872543    1665.9567  0.080527684  0.080134795            2 
 1725000   0.98792661    -2.845374    1665.0957  0.080439406  0.080123043            2 
 1726000   0.96313419   -2.8733916    1667.3153  0.080499965  0.080111237            3 
 1727000   0.97556521   -2.8694587    1667.3445  0.080454761   0.08009962            5 
 1728000   0.97873102   -2.8511866    1671.8165  0.080623866  0.080088293            3 
 1729000   0.97535504   -2.8479411    1661.9921  0.080103723  0.080076783            6 
 1730000   0.98735702   -2.8633924    1667.5357  0.080324455  0.080064904            1 
 1731000   0.97058795   -2.8377575    1665.2366  0.080167369  0.080052824            5 
 1732000    0.9811838   -2.8701409    1671.3833  0.080416826  0.080040729            3 
 1733000   0.97613364   -2.8553519    1667.2476  0.080171551  0.080028506            1 
 1734000   0.98327079   -2.8452982    1671.7402  0.080341224  0.080016047            1 
 1735000    0.9810726   -2.8685334    1673.0929  0.080359891  0.080003818            4 
 1736000   0.96290766   -2.8515896    1668.6674   0.08010116  0.079991409            8 
 1737000   0.97728348   -2.8615284    1670.8881  0.080161586  0.079979298            3 
 1738000   0.97567759   -2.8597547    1669.5536  0.080051476  0.079967273            2 
 1739000   0.98607412   -2.8522644    1667.5155  0.079907777   0.07995502            2 
 1740000   0.98026387   -2.8739932    1678.1069  0.080369104  0.079943158            2 
 1741000   0.97849146   -2.8659783    1675.6971  0.080207598  0.079931217            1 
 1742000   0.98571945   -2.8884859    1671.9374  0.079981696  0.079919106            1 
 1743000   0.96572237   -2.9060896    1669.7467  0.079831072   0.07990699            2 
 1744000   0.96940201   -2.8615465    1677.1254  0.080137871  0.079895218            2 
 1745000   0.96687339   -2.8858924    1675.9947   0.08003795  0.079882874            1 
 1746000   0.97017399    -2.831227    1678.5092  0.080112124  0.079870557            2 
 1747000   0.97452369   -2.9018526    1671.7577  0.079744215  0.079858225            5 
 1748000   0.96443283   -2.8659786    1678.0612  0.079999106   0.07984575            1 
 1749000   0.98566473   -2.8563493     1672.768  0.079701161  0.079832978            4 
 1750000   0.96840235   -2.8306998    1677.0912  0.079861484  0.079820027            2 
 1751000   0.95540996   -2.8469293    1677.9501  0.079856752  0.079806956            6 
 1752000   0.96003756   -2.8553271    1683.7196  0.080085599  0.079794215            4 
 1753000   0.98143684   -2.8402715    1681.1121  0.079915959  0.079781561            2 
 1754000   0.97145816   -2.8575175    1681.1439  0.079871906  0.079769239            3 
 1755000   0.97301423   -2.8847754    1674.4401  0.079508076  0.079756757            2 
 1756000   0.95666316   -2.8794229    1684.0683  0.079919719  0.079744291            3 
 1757000   0.98183341   -2.8799213    1695.4677  0.080414897  0.079731988            2 
 1758000   0.95390229   -2.8649514    1683.0795  0.079781927   0.07971964            3 
 1759000   0.94848911   -2.8259555    1692.4258  0.080179352   0.07970754            5 
 1760000   0.98393305   -2.8300385    1687.9615   0.07992242  0.079695092            3 
 1761000   0.98047246   -2.8601258    1694.5728   0.08018989  0.079682534            3 
 1762000   0.97897346   -2.8495455    1688.0542  0.079836084  0.079670063            4 
 1763000   0.97354642   -2.8880892    1686.7225  0.079727854  0.079657442            3 
 1764000   0.99698598   -2.8604168    1687.4563  0.079717324  0.079644806            5 
 1765000   0.98602762   -2.8725328    1687.0124    0.0796512  0.079632218            3 
 1766000   0.95488779   -2.8810244    1690.3647  0.079764282  0.079619551            2 
 1767000   0.95971741   -2.8718503    1689.6913  0.079687385  0.079606977            2 
 1768000   0.95681015   -2.8700416    1691.0617  0.079706903  0.079594553            2 
 1769000   0.95903217     -2.86912    1687.1827  0.079479119  0.079582008            3 
 1770000   0.96240315   -2.8702286    1692.2166  0.079671216  0.079569253            2 
 1771000   0.99106532   -2.8698228    1689.5916  0.079502708  0.079556272            5 
 1772000   0.97988234   -2.8763627    1685.9439  0.079286303    0.0795431            2 
 1773000   0.95743498   -2.8591807    1687.0633  0.079294194  0.079530294            2 
 1774000   0.97868751   -2.8848475    1686.6079  0.079228104  0.079517513            5 
 1775000   0.94612228   -2.8727489    1694.2563  0.079542547  0.079504617            1 
 1776000   0.99111471    -2.883475    1696.0711  0.079582915  0.079491911            2 
 1777000   0.97861896   -2.8863772    1698.9799  0.079674539  0.079478957            2 
 1778000    0.9715059   -2.8339083    1696.3845  0.079508085  0.079466227            3 
 1779000   0.96899057   -2.8832358    1695.9173  0.079441506  0.079453264            3 
 1780000    0.9598251   -2.8900045    1692.2615  0.079225725  0.079440119            3 
 1781000   0.98356872   -2.8871172    1687.6821  0.078966972  0.079426558            5 
 1782000   0.95506936   -2.8638876    1696.9417  0.079355671  0.079413109            4 
 1783000    0.9629193   -2.8633416    1698.7129   0.07939395  0.079399941            3 
 1784000   0.96285037   -2.8595756    1698.8122  0.079354084    0.0793866            2 
 1785000    0.9660401   -2.8911204    1695.9891  0.079177829  0.079373243            2 
 1786000   0.96385098   -2.8837694    1699.3283    0.0792893  0.079360057            5 
 1787000   0.97261775   -2.8625192    1704.0125  0.079463372  0.079347144            3 
 1788000   0.95344431   -2.8860389    1699.8045  0.079222806  0.079334092            2 
 1789000   0.96546952   -2.8756486    1708.1094  0.079565372  0.079321091            1 
 1790000   0.95856099   -2.8737122    1700.6212  0.079172307   0.07930824            2 
 1791000   0.99345556   -2.8994722    1700.9523   0.07914351  0.079294714            3 
 1792000   0.96325068   -2.8427592    1702.8262  0.079186486  0.079281722            1 
 1793000    0.9547196    -2.866386    1705.1999  0.079252643  0.079268465            2 
 1794000   0.99311321   -2.8424257    1707.0584  0.079294799  0.079255299            1 
 1795000   0.96265868   -2.8773837    1705.3386   0.07917078  0.079242013            3 
 1796000   0.98131433   -2.8741427    1706.8227  0.079195561  0.079228791            2 
 1797000   0.95424887   -2.8768859     1703.819  0.079012198  0.079215811            3 
 1798000   0.97759757   -2.8715994    1706.5649  0.079095518  0.079202249            2 
 1799000    0.9756421   -2.8691368    1709.4968  0.079187361  0.079188849           10 
 1800000   0.95532564   -2.8682384    1710.2157  0.079176652   0.07917573            3 
 1801000   0.96588776   -2.8686837    1707.5591  0.079009769  0.079162623            1 
 1802000   0.96464025   -2.8827658    1707.9314   0.07898314  0.079149408            3 
 1803000   0.95552711   -2.8597827    1714.6854  0.079251496  0.079136074            4 
 1804000   0.97022726   -2.8730382    1705.7604  0.078795286  0.079123011            3 
 1805000    0.9820985   -2.8690612    1714.0215  0.079133035   0.07911006            2 
 1806000   0.97796349   -2.8664697    1713.7763  0.079077901  0.079096938            3 
 1807000   0.97747041   -2.9013688    1708.6021  0.078795524  0.079083775            2 
 1808000   0.96359615   -2.8773953    1713.7664   0.07898997  0.079070849            4 
 1809000   0.97339185   -2.8774654    1717.9973  0.079141206   0.07905772            4 
 1810000   0.96376787   -2.9029592    1711.7784  0.078811161  0.079044628            3 
 1811000   0.95596556   -2.9037018    1721.6087  0.079219987  0.079031513            3 
 1812000   0.96581605   -2.8581986    1714.7212  0.078859513   0.07901875            3 
 1813000   0.95206598   -2.8713164    1717.5322  0.078945218  0.079005794            1 
 1814000   0.96531147   -2.8834612    1720.2234  0.079025332  0.078992741            2 
 1815000   0.94527217    -2.890671    1719.4282  0.078945281  0.078979516            2 
 1816000    0.9636433   -2.8741104    1715.1683  0.078706327  0.078966125            3 
 1817000   0.97946634   -2.8718324    1724.9229   0.07911039  0.078952827            2 
 1818000   0.96464327     -2.86077    1724.0642  0.079027514  0.078939595            3 
 1819000    0.9734735   -2.8791694    1716.0018  0.078614707  0.078926106            3 
 1820000   0.97051685   -2.8465625    1714.9381  0.078522806  0.078912502            1 
 1821000   0.97186855   -2.8754661    1722.6446  0.078832354  0.078898808            1 
 1822000   0.98100715   -2.8805855    1722.7681  0.078794735  0.078885209            2 
 1823000   0.98448719   -2.8843578     1713.771  0.078340234  0.078871648            4 
 1824000   0.96519792   -2.8574658    1723.2391  0.078729858  0.078858143            3 
 1825000   0.95235614   -2.8746253    1722.7844  0.078665953   0.07884489            3 
 1826000    0.9446097   -2.8824039    1731.0547  0.079000307  0.078831329            2 
 1827000    0.9634923   -2.8750905    1721.0308  0.078499855  0.078818184            3 
 1828000   0.93360315   -2.8811644    1718.6161  0.078346832  0.078804244            2 
 1829000   0.96652366   -2.8722394    1722.6292  0.078486841  0.078790615            1 
 1830000   0.95434633   -2.8722476    1725.6931  0.078583476  0.078777475            3 
 1831000   0.96419072   -2.8768356    1721.8426  0.078365312  0.078763979            1 
 1832000   0.96968504   -2.8738628    1726.6937    0.0785432   0.07875089            3 
 1833000   0.95751274   -2.9040381    1723.4562  0.078353166  0.078737315            2 
 1834000   0.96306525   -2.8684674    1734.4907  0.078811826  0.078723532            3 
 1835000     0.943668   -2.8769817    1727.8406  0.078466874  0.078710037            5 
 1836000   0.98852398   -2.8911458    1726.6474  0.078369979  0.078696026            3 
 1837000   0.95315157   -2.8820008    1737.0844  0.078800779  0.078682717            1 
 1838000   0.97845912   -2.8572315    1734.8234  0.078655393  0.078669286            2 
 1839000   0.94931527   -2.8482353    1729.9588   0.07839219  0.078656256            2 
 1840000   0.97508931   -2.8662041    1732.7808   0.07847739  0.078643022            3 
 1841000   0.94370807   -2.8641385    1737.1453  0.078632322   0.07862995            2 
 1842000   0.95651231   -2.8992577    1735.0543  0.078495039  0.078616785            3 
 1843000   0.95472088    -2.871129    1737.3923  0.078558163  0.078603296            2 
 1844000   0.97125647   -2.8670329    1740.2565  0.078644999  0.078589964            3 
 1845000   0.95633593   -2.8698344    1734.8468   0.07835803   0.07857684            8 
 1846000   0.96396942   -2.8969327    1734.8462  0.078315556  0.078563203            2 
 1847000   0.97309955   -2.9044811     1723.641  0.077767597  0.078549053            3 
 1848000     0.946533   -2.9077122    1727.5845   0.07790334  0.078534695            2 
 1849000   0.96613093   -2.8770385    1735.3874  0.078212882  0.078520995            1 
 1850000   0.95399317   -2.8844194    1746.6281  0.078676941  0.078507473            1 
 1851000   0.96175483   -2.8738948    1736.1294  0.078161775  0.078493729            1 
 1852000   0.92382622   -2.8783088    1735.0532  0.078071146  0.078479815            3 
 1853000   0.96312802   -2.8808045    1732.2618  0.077903481  0.078465647            2 
 1854000   0.94287306   -2.8961509    1737.2138  0.078084043   0.07845133            2 
 1855000   0.97438654    -2.895491    1739.7273  0.078154865  0.078437343            3 
 1856000   0.95599928   -2.8770721    1741.4198  0.078188748  0.078422993            4 
 1857000   0.95763342   -2.8807325    1742.3368  0.078187793  0.078409062            4 
 1858000   0.95173706   -2.8937455    1743.3765  0.078192342  0.078395043            3 
 1859000   0.94463755   -2.8516121    1740.2912  0.078011977  0.078380649            2 
 1860000   0.97116656   -2.8980339    1741.1834  0.078010009  0.078366733            2 
 1861000   0.95712241   -2.8636925    1743.1332  0.078055398  0.078352767            3 
 1862000   0.96768251   -2.8960088    1742.3555  0.077978673  0.078338735            3 
 1863000   0.96224226    -2.907675    1741.4944  0.077898302  0.078324521            4 
 1864000   0.96415139   -2.8442655    1743.1795  0.077931844  0.078310489            1 
 1865000   0.95217888   -2.8908522    1745.2591  0.077982979  0.078296675            2 
 1866000   0.93439722   -2.8774729    1746.2395  0.077984974  0.078282597            1 
 1867000   0.98825617   -2.8766933    1748.0668  0.078024763  0.078268776            3 
 1868000   0.95340841   -2.8983356    1743.2682  0.077768926  0.078254726            4 
 1869000   0.97029008   -2.8986272    1748.2953  0.077951458  0.078240902            1 
 1870000   0.96386884   -2.8720806    1750.1922  0.077994303  0.078226983            2 
 1871000   0.97701872   -2.8648718    1742.4442  0.077607529  0.078213119            3 
 1872000   0.94880739   -2.8885175     1752.229  0.078001645  0.078199225            2 
 1873000   0.95004628   -2.8807185    1755.7716  0.078117621  0.078185317            1 
 1874000   0.96299407   -2.9059627    1750.0739  0.077822568  0.078171456            1 
 1875000     0.940507   -2.8851664    1760.3405  0.078237355  0.078157461            3 
 1876000   0.97103135   -2.8837687    1755.2793  0.077970828  0.078143744            3 
 1877000   0.91963339   -2.8851253    1759.4557  0.078114709  0.078130145            2 
 1878000    0.9624421   -2.8698628    1759.8362  0.078089998  0.078116671            2 
 1879000   0.93878118    -2.904483    1755.4489  0.077853862   0.07810298            2 
 1880000   0.94598795   -2.8921993    1753.2172  0.077713528  0.078089441            2 
 1881000   0.94585919   -2.8891873    1756.4442  0.077815178  0.078076199            5 
 1882000   0.96068686   -2.9001895    1755.2853  0.077722516    0.0780628            2 
 1883000    0.9304734   -2.8808773    1761.9294  0.077975278  0.078049286            2 
 1884000   0.97492192   -2.9062914    1761.3844  0.077909785  0.078035941            2 
 1885000   0.93625283   -2.8967541      1766.39  0.078089744  0.078022968            2 
 1886000   0.97741026   -2.8862623     1763.029   0.07789983  0.078009732            3 
 1887000   0.93704793   -2.8786733     1763.634  0.077885269  0.077996313            9 
 1888000   0.93378499    -2.886016    1762.9681  0.077814621  0.077982906            4 
 1889000   0.95515959   -2.8894618    1762.6107  0.077757664  0.077969362            6 
 1890000   0.96637913   -2.8922365    1762.8713  0.077728012   0.07795639            4 
 1891000    0.9168976   -2.8882292    1768.1485  0.077919464  0.077942961            6 
 1892000   0.94585045   -2.9300646    1765.2503  0.077750629  0.077929618            3 
 1893000   0.96199734   -2.8759447    1769.1496  0.077881213  0.077916024            2 
 1894000   0.96319367   -2.9163403    1774.6502  0.078082108  0.077902704            4 
 1895000   0.95048928   -2.8936316    1773.2178  0.077977917  0.077889132            5 
 1896000   0.94010887   -2.9137436    1766.5584  0.077644091   0.07787603            2 
 1897000   0.93735957   -2.8915047    1774.1787  0.077937914  0.077863066            5 
 1898000   0.95442076   -2.8747722    1770.9395  0.077754631  0.077849944            2 
 1899000    0.9451042   -2.8982467    1773.6903  0.077834398  0.077837248            4 
 1900000   0.96679077      -2.8947    1766.2425  0.077466778  0.077824322            1 
 1901000   0.95776762   -2.8877096    1776.0041  0.077853942  0.077811439            4 
 1902000   0.94015557   -2.8930047    1778.2032  0.077909361  0.077798517            1 
 1903000   0.95335227   -2.8860702    1777.5722  0.077840785  0.077786114            1 
 1904000   0.94304768   -2.8594408    1774.1163   0.07764865  0.077773271            3 
 1905000   0.95314957   -2.8929762    1776.5865  0.077715946   0.07776013            3 
 1906000   0.96701704   -2.8965525    1778.6794  0.077766675  0.077746958            2 
 1907000   0.94791478   -2.8790738    1777.7033  0.077683242  0.077733961            5 
 1908000   0.93013664   -2.9068831    1782.5565  0.077854495   0.07772079            1 
 1909000   0.94899165   -2.8841993    1779.7097  0.077689438  0.077707902            2 
 1910000   0.94122849   -2.8878762    1781.0562  0.077707512  0.077694802            3 
 1911000   0.96158218   -2.8839727    1780.4819  0.077641806  0.077681776            2 
 1912000   0.96656421   -2.8867549    1778.9126  0.077532803   0.07766883            2 
 1913000   0.91691282   -2.9084269    1781.7158  0.077614382   0.07765579            3 
 1914000   0.95376603   -2.9111096     1786.214  0.077769678  0.077643003            4 
 1915000   0.96304833   -2.9004761    1785.2936  0.077689018  0.077630104            4 
 1916000   0.94438509   -2.9035263    1789.5176  0.077832184  0.077617099            2 
 1917000   0.94144135   -2.9002431    1778.8331   0.07732712  0.077604196            3 
 1918000   0.94732739    -2.896138    1787.9158  0.077681431  0.077591432            5 
 1919000   0.96282441   -2.9120295    1781.2695  0.077352333  0.077578741            2 
 1920000   0.95286577   -2.9064354    1789.9877  0.077690439  0.077565741            3 
 1921000   0.94312422   -2.8939611    1790.6502  0.077678735  0.077553148            3 
 1922000   0.96069682   -2.8858442    1793.2088  0.077749256  0.077540503            2 
 1923000   0.95173295    -2.917839    1792.0381  0.077658092  0.077527854            4 
 1924000    0.9399991   -2.8982881    1793.0458  0.077661373   0.07751494            8 
 1925000   0.95414412    -2.886737    1787.7523  0.077391873  0.077502004            3 
 1926000   0.93741188   -2.9076259    1787.6763  0.077348401  0.077489024            3 
 1927000   0.94912462   -2.9267355    1795.8661  0.077662431  0.077475997            3 
 1928000    0.9388895   -2.8727779    1790.2838   0.07738087  0.077462899            3 
 1929000   0.94457701   -2.8724553    1792.0172  0.077415637  0.077449802            2 
 1930000   0.95717524   -2.9060381    1794.1642  0.077468231  0.077436692            3 
 1931000   0.94553695   -2.9383448    1795.2051  0.077473033  0.077423742            3 
 1932000   0.93085655   -2.8698681    1797.0377  0.077511978  0.077410559            3 
 1933000   0.93883148   -2.8911196    1792.6989   0.07728483  0.077397503            3 
 1934000   0.95140516     -2.88753    1797.2409  0.077440577  0.077384568            2 
 1935000    0.9471598   -2.8950912    1795.1321  0.077309738   0.07737157            4 
 1936000   0.94240531   -2.9055659    1801.6067    0.0775485  0.077358678            5 
 1937000   0.92697506   -2.8906838      1802.88  0.077563243  0.077345974            1 
 1938000   0.94973811   -2.8800551    1796.8784  0.077265154   0.07733305            4 
 1939000   0.94532774   -2.9227128    1794.3615  0.077117137  0.077320216            4 
 1940000   0.94522903   -2.9087478    1797.7003  0.077220804  0.077307021            1 
 1941000   0.92741473    -2.922179    1797.0855  0.077154623  0.077293744            2 
 1942000   0.93173366   -2.8952745    1805.5879  0.077479741  0.077280715            3 
 1943000   0.94291272   -2.9002015    1801.4306  0.077261564  0.077267812            2 
 1944000   0.93914772   -2.9125118    1796.7642  0.077021783  0.077254704            4 
 1945000   0.90768842   -2.9182926    1808.8831   0.07750142  0.077241641            2 
 1946000   0.95814346   -2.8790255    1805.7403  0.077327007  0.077228578            6 
 1947000   0.94592124   -2.9027026    1809.0883   0.07743059  0.077215566            2 
 1948000   0.93467484   -2.8939506    1803.1632  0.077137373   0.07720247            3 
 1949000   0.92917178   -2.9156997    1809.1893  0.077355451  0.077189316            3 
 1950000   0.95688079   -2.8669388    1807.8543  0.077258732  0.077176292            4 
 1951000   0.95536054   -2.9024516    1806.5539  0.077163587  0.077163322            3 
 1952000   0.94524065   -2.9096072    1799.7008  0.076831488  0.077149653            2 
 1953000   0.90988781   -2.9150694    1807.1087  0.077108238  0.077136309            6 
 1954000   0.94250889   -2.9145073    1814.3295  0.077376725  0.077122997            7 
 1955000   0.94573685   -2.8983153     1803.304  0.076867179  0.077109784            4 
 1956000   0.93795768   -2.8854462    1809.4332  0.077089009  0.077096649            2 
 1957000   0.94809588   -2.9044085    1807.4386  0.076964681   0.07708315            3 
 1958000   0.92062813   -2.8958412     1808.717  0.076979786   0.07706974            1 
 1959000   0.93519468   -2.8899426    1812.3719  0.077095964  0.077056183            9 
 1960000   0.94206309   -2.9167418    1810.9607  0.076996627  0.077042907            3 
 1961000   0.92621414   -2.9148915    1810.3229  0.076930262   0.07702986            2 
 1962000    0.9411416   -2.9393795    1807.6691  0.076778335  0.077016638            2 
 1963000   0.95195368   -2.8950286    1813.1261  0.076970881  0.077003618            2 
 1964000    0.9148433   -2.9157322    1808.2764  0.076725915  0.076990395            2 
 1965000   0.93829162   -2.8870125    1812.7582  0.076876936   0.07697718            2 
 1966000   0.95502821   -2.9007209    1810.9797  0.076762448  0.076964036            3 
 1967000   0.93492095   -2.9078467    1822.7376  0.077221555  0.076950864            3 
 1968000   0.92625824   -2.8950464    1815.4994  0.076875823  0.076937965            3 
 1969000    0.9403406   -2.9196527    1821.4128  0.077087049  0.076924656            2 
 1970000   0.93501135   -2.8847711     1820.414   0.07700567  0.076911449            4 
 1971000     0.945363   -2.9087086     1816.303  0.076792786  0.076898324            5 
 1972000    0.9585894   -2.8991768    1819.8081  0.076901966  0.076885083            3 
 1973000   0.93222632   -2.9117573    1822.5189  0.076977482  0.076872162            4 
 1974000   0.92395311   -2.9127425     1819.199  0.076798335  0.076858961            5 
 1975000   0.94043443   -2.9154012    1813.5818  0.076522439  0.076846073            2 
 1976000   0.93157912   -2.9139212    1823.9781  0.076922154  0.076833209            2 
 1977000   0.91900717   -2.9127346    1823.7561  0.076873886  0.076820241            2 
 1978000   0.93775561   -2.9080261    1821.4777  0.076739032  0.076807154            4 
 1979000   0.93493298   -2.8770108    1830.0157  0.077059781  0.076794026            3 
 1980000   0.94975547   -2.9013072    1831.1189  0.077067293  0.076781332            6 
 1981000   0.91844253   -2.9123189    1831.3902  0.077039802  0.076768584            6 
 1982000   0.93007383    -2.892757     1825.046  0.076734193  0.076755893            2 
 1983000   0.93206402   -2.9003929    1829.7464  0.076893022  0.076742967            7 
 1984000    0.9389915    -2.917173    1827.6627  0.076766747  0.076730247            3 
 1985000   0.94428839   -2.8761775    1833.0656  0.076954894  0.076717453            3 
 1986000   0.92290031   -2.8896698    1827.3381   0.07667582  0.076704644            1 
 1987000   0.95210935   -2.8863221    1828.6038  0.076690313  0.076691512            2 
 1988000   0.91460641   -2.9145477    1829.9493  0.076708137  0.076678525            4 
 1989000   0.92040915   -2.9037604    1829.1225  0.076634928  0.076665521            3 
 1990000    0.9243899   -2.9005119    1828.0592  0.076551892  0.076652537            2 
 1991000   0.93224165   -2.9249674    1832.8157  0.076712528  0.076639681            3 
 1992000   0.92569381   -2.9309607    1829.5317  0.076536636   0.07662696            6 
 1993000   0.93632748   -2.8973259    1828.6535  0.076461513  0.076613911            1 
 1994000   0.95544871   -2.9289459    1833.7053  0.076634292  0.076601115            2 
 1995000    0.9077127    -2.918734    1834.8584  0.076644045  0.076588065            3 
 1996000   0.93752108   -2.9294675    1836.3866  0.076669447  0.076575177            2 
 1997000    0.9421017   -2.9116029    1837.2687  0.076667865  0.076562283            2 
 1998000   0.91204951   -2.9231217    1831.5451  0.076390772  0.076549579            3 
 1999000    0.9263949   -2.9109431    1836.5641  0.076561786  0.076536385            2 
 2000000   0.91727865   -2.9219266    1832.0305  0.076334605  0.076523264            4 
 2001000   0.92319303   -2.8789762    1840.9324  0.076667183  0.076509734            7 
 2002000   0.93465961   -2.9232114    1830.6667  0.076201578  0.076496055            3 
 2003000   0.93781409   -2.9364426    1832.9852  0.076259993  0.076482601            4 
 2004000    0.9382881   -2.9101804    1837.1859  0.076396621  0.076469145            2 
 2005000   0.92314562   -2.8970045     1841.169  0.076524065  0.076455985            3 
 2006000   0.93397314   -2.9318807    1832.3499  0.076119553  0.076442872            4 
 2007000    0.9504753   -2.9171936    1834.6371  0.076176593  0.076429744            2 
 2008000   0.93178081   -2.9087683    1835.9158  0.076191727  0.076416312            3 
 2009000   0.94470127   -2.8836588    1842.5638   0.07642956  0.076402991            4 
 2010000   0.92064746   -2.9421177    1833.7601  0.076026538  0.076389786            1 
 2011000   0.91193129   -2.9226125    1834.7694  0.076030555   0.07637612            2 
 2012000   0.93183161    -2.909248    1848.3178  0.076553919   0.07636269            2 
 2013000   0.92532301   -2.9055492    1845.9828  0.076419225  0.076349409            4 
 2014000    0.9217377    -2.899842    1846.3667  0.076397164  0.076335826            9 
 2015000   0.93935721   -2.9249195    1835.2546  0.075899692  0.076322379            2 
 2016000   0.92021302   -2.9294246    1846.0727  0.076309223  0.076309033            3 
 2017000   0.93490812    -2.904861    1843.6306  0.076170494  0.076295606            3 
 2018000   0.94608642   -2.9320784     1844.323  0.076161338  0.076282163            2 
 2019000   0.93088393   -2.9213232    1840.3735  0.075960605  0.076268739            3 
 2020000   0.92121137   -2.8867562    1845.3716  0.076129192  0.076255373            3 
 2021000   0.91868966    -2.928553    1839.1777  0.075836123  0.076241546            2 
 2022000   0.91552357   -2.9381839    1848.1087  0.076166697  0.076227727            5 
 2023000   0.91665333   -2.9108113    1843.3732  0.075933975  0.076213931            6 
 2024000   0.90008135   -2.9073861    1851.0188  0.076211249  0.076200302            4 
 2025000   0.90001446   -2.8909181     1844.871  0.075920618  0.076186461            2 
 2026000   0.93511181   -2.9138954    1847.2893  0.075982613  0.076172921            2 
 2027000    0.9298138   -2.9470051    1844.5928  0.075834271  0.076159274            3 
 2028000   0.92690574   -2.8938436     1847.226  0.075905078  0.076145708            3 
 2029000   0.91834333    -2.935772    1849.5314  0.075962356  0.076132508            4 
 2030000   0.92949298   -2.9113333    1857.1118  0.076236118  0.076118938            2 
 2031000   0.93637852   -2.9383078    1848.7891  0.075857094  0.076105731            4 
 2032000   0.92490133   -2.9354738    1853.0967  0.075996421  0.076092568            2 
 2033000   0.92624178   -2.9248537    1854.6289  0.076021843    0.0760793            2 
 2034000   0.92738974   -2.9485269    1856.1938  0.076048584  0.076066313            1 
 2035000   0.92659142   -2.9569231    1851.7201  0.075828015  0.076052857            2 
 2036000   0.93063183   -2.9314637    1853.9765  0.075883124  0.076039451            3 
 2037000   0.91856677   -2.8953719    1864.6563  0.076282782  0.076026389            7 
 2038000   0.92524977   -2.8977513    1857.6121  0.075957315  0.076013609            1 
 2039000   0.90396362   -2.9197096    1854.7393  0.075802653  0.076000669            3 
 2040000   0.91596104   -2.9300534    1863.4958  0.076123193  0.075987623            3 
 2041000   0.91538699   -2.9256857     1859.307  0.075914871  0.075974408            5 
 2042000   0.92179572   -2.9323277     1862.101  0.075991714  0.075961008            2 
 2043000   0.92107286   -2.9475901    1852.7285  0.075572218  0.075947804            6 
 2044000   0.90453594   -2.9146708    1861.2819  0.075883964  0.075934572            2 
 2045000   0.91188769   -2.9368612    1864.5471  0.075979913  0.075921702            2 
 2046000   0.92942991   -2.9325345    1868.0208  0.076084264  0.075908776            3 
 2047000   0.91913894   -2.9327069    1863.7289  0.075872369  0.075895875            2 
 2048000   0.92356414   -2.9369907     1865.187  0.075894652  0.075883174            2 
 2049000   0.92341163   -2.9489243    1859.3167  0.075618865  0.075870297            6 
 2050000   0.91555172   -2.9290824    1864.3862  0.075788056  0.075857589            5 
 2051000   0.91872652   -2.9415432    1865.3617  0.075790742  0.075844814            8 
 2052000   0.92271904   -2.9166335    1878.7702  0.076298335  0.075832094            7 
 2053000   0.92159171   -2.9254826    1874.4924   0.07608753  0.075819714            2 
 2054000   0.92398871   -2.9188358    1865.5529  0.075687799  0.075807002            3 
 2055000   0.92172601   -2.9042054    1872.9637  0.075951487  0.075794236            2 
 2056000   0.90999137   -2.9088743    1865.6999  0.075620132  0.075781631            4 
 2057000   0.92113333   -2.9631737    1868.0843  0.075679965    0.0757689            3 
 2058000   0.93242133   -2.9363782    1878.7234  0.076073996  0.075756433            1 
 2059000   0.92907326   -2.9485639    1870.5098  0.075704621  0.075744063            3 
 2060000   0.89377867   -2.9350853    1875.4375  0.075867212  0.075731166            2 
 2061000    0.8910911   -2.9362551     1879.803  0.076006914  0.075718346            1 
 2062000   0.92109746   -2.9430056    1867.4768  0.075471903  0.075705876            1 
 2063000   0.91262197   -2.9225053    1883.1517  0.076068495  0.075693204            2 
 2064000   0.91281176   -2.9239826    1877.7168  0.075812211  0.075680307            2 
 2065000   0.90447314    -2.938419    1879.7644  0.075858126  0.075667763            3 
 2066000   0.90691837   -2.9248753    1878.1812  0.075757552  0.075654918            2 
 2067000   0.92078932   -2.9266641    1870.4131  0.075407719  0.075642079            3 
 2068000   0.94969381   -2.9289961    1882.6453  0.075864174  0.075629005            3 
 2069000   0.92323693   -2.9217441    1881.6394   0.07578699  0.075616094            2 
 2070000   0.94295454   -2.9267081    1880.0148  0.075684974  0.075603159            2 
 2071000   0.89714833   -2.9138947    1874.9831  0.075445964  0.075590367            2 
 2072000   0.93035306   -2.9140837    1879.9312  0.075608558  0.075577459            1 
 2073000   0.95220033   -2.9659307    1869.4909  0.075152394  0.075564412            4 
 2074000   0.90552011   -2.9274383    1882.3164  0.075631484  0.075551409            2 
 2075000   0.92111953   -2.9276028    1879.6913  0.075489609  0.075538639            4 
 2076000   0.91978657   -2.9408027    1881.4718  0.075524719  0.075525756            6 
 2077000   0.92326969   -2.9252447    1874.3985  0.075204563  0.075512967            3 
 2078000   0.92353984   -2.9376579    1882.5962  0.075497119  0.075500011            2 
 2079000   0.93068404   -2.9160317    1879.7222  0.075345607  0.075487272            4 
 2080000   0.91626746   -2.9143157    1884.0715  0.075483635  0.075474323            5 
 2081000   0.90659996    -2.915366    1884.3408  0.075458146  0.075461377            4 
 2082000   0.92013325   -2.9453328    1887.6885  0.075555895    0.0754485            2 
 2083000   0.90805688   -2.9268669    1889.0101  0.075572496  0.075435547            2 
 2084000   0.92968451   -2.9196465    1882.3453  0.075269724  0.075422518            2 
 2085000    0.9331389   -2.9324658    1888.2745  0.075470604  0.075409553            2 
 2086000   0.91373715   -2.9254207    1892.1557  0.075589472  0.075396685            3 
 2087000   0.91925352   -2.9110989    1890.6201  0.075491937  0.075384039            1 
 2088000    0.9068398    -2.940748     1890.484   0.07545035   0.07537154            3 
 2089000   0.91868452    -2.936886    1895.4369  0.075611812  0.075358956            1 
 2090000   0.92086027   -2.9078125    1896.7055  0.075626216  0.075346446            4 
 2091000   0.91823317   -2.9485621     1888.349  0.075257014  0.075333704            3 
 2092000   0.91918478   -2.9211587    1906.2998  0.075936099  0.075321279            2 
 2093000    0.9331002   -2.9365268    1894.7626  0.075440461   0.07530892            3 
 2094000   0.91368257     -2.92369    1899.8632  0.075607419  0.075296401            3 
 2095000   0.93119714   -2.9281441     1891.201   0.07522677  0.075283882            2 
 2096000   0.90872264   -2.9406873    1901.4983  0.075600282  0.075271779            2 
 2097000   0.93595026   -2.9248953     1904.321  0.075676404  0.075259345            2 
 2098000   0.90732641   -2.9390902     1899.888  0.075464251   0.07524691            3 
 2099000   0.91371752    -2.921976    1904.1673  0.075598192  0.075234636            3 
 2100000   0.91220877   -2.9445431    1896.5398  0.075259514  0.075222431            4 
 2101000   0.89557053   -2.9258437    1901.1264  0.075405614  0.075210223            3 
 2102000    0.8996864   -2.9724815    1896.7049  0.075194456  0.075197637            3 
 2103000   0.89683043   -2.9067643    1905.1813  0.075494582   0.07518515            1 
 2104000   0.91123861   -2.9306803     1901.451  0.075310955   0.07517274            4 
 2105000   0.92461522   -2.9242494    1898.8214  0.075171079   0.07516037            3 
 2106000   0.91354023   -2.9397025    1900.2084  0.075190266   0.07514797            2 
 2107000   0.92822631   -2.9314795    1912.6476  0.075646558  0.075135534            4 
 2108000   0.90660855   -2.9187873    1902.5844  0.075212858  0.075123278            2 
 2109000   0.90609109    -2.926194    1907.9341  0.075388577  0.075110984            3 
 2110000   0.94339011   -2.9400317    1905.3976  0.075252671  0.075098956            4 
 2111000   0.92145073   -2.9198989    1909.3529  0.075373162  0.075086881            2 
 2112000   0.92324618   -2.9379247    1909.0564  0.075325772  0.075074651            3 
 2113000   0.91852583   -2.9515966    1908.9818  0.075287183  0.075062146            4 
 2114000   0.91215923   -2.9392435    1909.7043   0.07528005   0.07504987            3 
 2115000   0.92505825   -2.9539396    1907.7752  0.075168449  0.075037517            3 
 2116000   0.92697977   -2.9442424    1920.8043  0.075646043  0.075025312            3 
 2117000   0.88995663   -2.9346846    1910.3803  0.075199982  0.075013044            2 
 2118000   0.91378736   -2.9446291    1912.8088  0.075260027  0.075000666            2 
 2119000   0.91800466   -2.9129631    1909.1853  0.075082006   0.07498842            2 
 2120000   0.90961235   -2.9430105    1911.4069  0.075133921   0.07497613            3 
 2121000   0.89016084   -2.9360405    1918.2802  0.075368546  0.074964092            2 
 2122000   0.92188974    -2.919094    1912.0813  0.075089588   0.07495193            2 
 2123000   0.91758372   -2.9464295    1913.5502  0.075111879  0.074939863            7 
 2124000   0.89927645   -2.9326139    1920.3146  0.075341909  0.074927806            3 
 2125000   0.90114737   -2.9107823    1921.7835  0.075364057  0.074915677            2 
 2126000   0.90153168   -2.9510023    1922.6285   0.07536173  0.074903659            4 
 2127000   0.90977258   -2.9351073    1920.6798  0.075249952  0.074891573            2 
 2128000   0.93657969   -2.9608186    1915.7609  0.075021967  0.074879618            3 
 2129000   0.91682465   -2.9577073    1922.8139  0.075262796  0.074867509            6 
 2130000   0.92221574   -2.9297816    1916.5086  0.074980774  0.074855388            2 
 2131000    0.9405139   -2.9156328      1920.44  0.075099329  0.074843473            2 
 2132000     0.902804   -2.9289172    1922.7981  0.075156273  0.074831739            2 
 2133000   0.92377419   -2.9419756    1929.2438  0.075372865  0.074820096            2 
 2134000   0.91942112   -2.9445358    1928.8996  0.075324102   0.07480825            2 
 2135000   0.89203986    -2.920393    1930.5204  0.075352084  0.074796834            2 
 2136000   0.91267624   -2.9413281    1932.5016    0.0753941  0.074785246            3 
 2137000   0.91963965   -2.9244452    1928.8592  0.075216784  0.074773885            3 
 2138000   0.90227929   -2.9281111    1931.9515  0.075302133  0.074762129            2 
 2139000   0.91612381   -2.9385379    1933.8397   0.07534049  0.074750222            3 
 2140000   0.91075384   -2.9749263    1931.0097  0.075195082  0.074738465            2 
 2141000   0.90574161   -2.9252497    1932.2187  0.075207019  0.074727078            4 
 2142000   0.89049448   -2.9263292      1932.12  0.075168067  0.074715578            2 
 2143000   0.91174597   -2.9374348    1933.7951  0.075198128  0.074704006            4 
 2144000   0.93761764   -2.9429208    1934.7875  0.075201629  0.074692448            2 
 2145000    0.9125758    -2.950873    1934.8715  0.075169833  0.074680684            3 
 2146000   0.91086175   -2.9415759    1932.9265  0.075059275   0.07466905            3 
 2147000   0.91388173   -2.9557794    1933.6243  0.075051401   0.07465735            3 
 2148000   0.91720247   -2.9414656    1943.9336  0.075416418   0.07464572            2 
 2149000   0.91149978   -2.9254394    1935.5631  0.075056735  0.074634072            2 
 2150000   0.93109938   -2.9212094    1942.8028  0.075302433  0.074622452            2 
 2151000   0.92036513   -2.9239589     1944.411   0.07532973  0.074611185            2 
 2152000   0.92736399   -2.9709607    1931.5092  0.074795122   0.07459974            2 
 2153000   0.90152739   -2.9124654     1945.497  0.075301787  0.074588273            2 
 2154000   0.92403773   -2.9424764    1945.8887  0.075281982  0.074576589            5 
 2155000   0.90124454   -2.9315573     1938.782  0.074972234  0.074565308            9 
 2156000   0.89674734   -2.9289459     1939.028   0.07494697  0.074554136            2 
 2157000   0.91259798   -2.9256545    1950.1454  0.075341734  0.074542968            1 
 2158000   0.91295885   -2.9652154     1948.392   0.07523911  0.074531805            2 
 2159000   0.89973099   -2.9437236    1940.3078  0.074892225   0.07452085            2 
 2160000   0.92314881   -2.9558948    1949.5604  0.075214522  0.074509655            5 
 2161000    0.8947403   -2.9497232     1958.634  0.075529617  0.074498534            3 
 2162000   0.90333619   -2.9361633    1947.3889  0.075061244   0.07448764            1 
 2163000   0.91629677   -2.9554249    1950.2922  0.075138396  0.074476626            3 
 2164000   0.90371423   -2.9307451    1956.1716  0.075330082  0.074465419            3 
 2165000   0.90374672   -2.9378072    1954.5633  0.075233382  0.074454246            1 
 2166000   0.89738578   -2.9340874    1956.8767  0.075287655  0.074443359            2 
 2167000   0.90667571   -2.9456694    1954.6061  0.075165592  0.074432487            3 
 2168000    0.9253278   -2.9395006    1959.8656  0.075333087  0.074421755            5 
 2169000    0.9152074   -2.9554288    1966.2704  0.075544427  0.074410993            2 
 2170000   0.89556882   -2.9492518    1956.6401  0.075139789  0.074400041            5 
 2171000   0.90369182   -2.9180053    1954.2471  0.075013322  0.074389309            2 
 2172000   0.90819986   -2.9596411    1954.9856   0.07500712  0.074378378            3 
 2173000   0.90338494   -2.9703998    1951.3008  0.074831293  0.074367347            2 
 2174000   0.88936604   -2.9546642    1963.0737   0.07524815  0.074356307            3 
 2175000   0.91286262   -2.9548173    1964.6295   0.07527316   0.07434518            3 
 2176000   0.88133648   -2.9499571    1957.5845  0.074968768  0.074334159            1 
 2177000   0.91415305   -2.9455647    1960.0558  0.075028932  0.074323182            2 
 2178000   0.92304261   -2.9382857    1959.4934  0.074972965  0.074312137            3 
 2179000   0.87528977   -2.9413895     1961.186  0.075003289  0.074301197            3 
 2180000   0.91979566   -2.9446961     1958.405  0.074862577  0.074290117            3 
 2181000    0.8897099   -2.9585956    1959.9706  0.074888073  0.074278896            7 
 2182000   0.92115737   -2.9461895    1964.4489  0.075024781   0.07426793            3 
 2183000    0.8963117   -2.9680421     1962.785  0.074926899   0.07425686            2 
 2184000   0.90350261   -2.9254034    1961.9346  0.074860142  0.074245843            4 
 2185000   0.89817768    -2.953727    1967.0494  0.075020954  0.074234814            2 
 2186000   0.89507295   -2.9633465    1963.2153  0.074840473  0.074223601            2 
 2187000   0.88559624   -2.9576607    1963.3087  0.074809812  0.074212498            4 
 2188000   0.91681309   -2.9638576    1958.6705  0.074598967  0.074201267            2 
 2189000   0.89608409   -2.9651098    1962.5487  0.074712527  0.074190036           10 
 2190000   0.90422254   -2.9737896    1962.8511  0.074689921  0.074178994            2 
 2191000   0.88513843    -2.952599    1971.2657  0.074975875  0.074167444            4 
 2192000   0.90366454   -2.9517601    1972.4384  0.074986253  0.074156254            6 
 2193000   0.92521412   -2.9641829    1962.9213  0.074590414  0.074145164            6 
 2194000   0.88855986   -2.9647663    1973.4239   0.07495533  0.074134265            2 
 2195000   0.91075505   -2.9426214    1966.3026  0.074650819  0.074123313            3 
 2196000   0.91317895   -2.9338756    1974.8905  0.074942718  0.074112457            2 
 2197000   0.89595677   -2.9692463    1968.7744  0.074676619  0.074101703            2 
 2198000   0.88998824   -2.9497569    1977.9616  0.074990963  0.074091094            2 
 2199000   0.89885784   -2.9524943    1969.4933  0.074635943  0.074080257            3 
 2200000   0.88594867   -2.9548308    1977.6952  0.074912697   0.07406934            5 
 2201000   0.90438511   -2.9576123    1971.2394  0.074634236   0.07405834            5 
 2202000   0.91716005   -2.9538057    1980.9174  0.074966597  0.074047299            3 
 2203000   0.89211003   -2.9420391     1975.736  0.074736573  0.074036405            3 
 2204000   0.90443303   -2.9698644    1972.7935  0.074591407  0.074025135            3 
 2205000   0.89463543   -2.9289506     1976.407  0.074694142  0.074013905            2 
 2206000   0.88654211   -2.9585795    1975.9077  0.074641421  0.074002682            2 
 2207000   0.89928377   -2.9546753    1974.1686  0.074541936  0.073991522            2 
 2208000   0.90736204   -2.9625538    1982.8705  0.074836597  0.073980059            2 
 2209000   0.91049889   -2.9385382    1976.0331  0.074544784   0.07396887            4 
 2210000   0.88580715   -2.9749117    1974.9941  0.074471874  0.073957782            1 
 2211000   0.89527375   -2.9564256    1976.8157  0.074506847   0.07394653            1 
 2212000   0.89336483   -2.9323424    1979.9164  0.074589981  0.073935256            2 
 2213000   0.89465736   -2.9467962    1977.2575  0.074456149  0.073924248            5 
 2214000    0.8601671   -2.9444782    1985.1214  0.074718513  0.073913048            9 
 2215000   0.88052539   -2.9780868    1973.6656  0.074253785  0.073901798            4 
 2216000   0.90645414    -3.009457    1983.0649   0.07457374  0.073890257            3 
 2217000   0.91348752   -2.9508337    1983.2739  0.074547958  0.073879085            3 
 2218000   0.88531238   -2.9717989    1978.7797  0.074345496  0.073867899            6 
 2219000    0.9013563    -2.975793    1977.2818  0.074255737   0.07385663            6 
 2220000   0.89195464   -2.9587351    1988.0136  0.074625134  0.073845508            5 
 2221000   0.91118423   -2.9586969    1987.7553  0.074581842  0.073834442            4 
 2222000   0.87757435   -2.9459812    1993.8478  0.074776772  0.073823549            2 
 2223000   0.88005736   -2.9603693    1982.0349  0.074300303  0.073812573            5 
 2224000    0.9266219   -2.9543196    1989.6626  0.074552704  0.073801509            6 
 2225000   0.92153779   -2.9399899    1993.7224   0.07467125  0.073790521            3 
 2226000   0.88669155   -2.9656665    1988.1868  0.074430472  0.073779371            3 
 2227000   0.89134066   -2.9436615    1991.7553  0.074530582  0.073768166            2 
 2228000    0.8999972   -2.9578809    1989.4067  0.074409287  0.073756873            3 
 2229000   0.89446834   -2.9626686    1985.9174  0.074245453  0.073745448            6 
 2230000   0.89816565   -2.9567803    1993.3665  0.074490528   0.07373419            2 
 2231000   0.88227848   -2.9416575    1987.3343  0.074231821   0.07372293            2 
 2232000   0.87859697   -2.9693386    1992.7346  0.074400186  0.073711539            6 
 2233000   0.90967061   -2.9551558    1978.9568  0.073852694  0.073700399            5 
 2234000   0.88364109   -2.9608324     1988.906  0.074190763  0.073688891            4 
 2235000   0.89725299    -2.964069    1994.9708  0.074383697  0.073677821            4 
 2236000   0.90290583   -2.9477997    1988.3681  0.074104358  0.073666834            4 
 2237000    0.9006395   -2.9646851    1990.5284  0.074151707  0.073655518            7 
 2238000   0.89138981   -2.9626891    1990.4056  0.074114001  0.073644434            8 
 2239000   0.91927155   -2.9633512    1996.8046  0.074319065  0.073633258            6 
 2240000   0.88997982   -2.9598883    1995.6116  0.074241503  0.073622101            3 
 2241000   0.88606115   -2.9599482    1995.8587  0.074217563  0.073611063            4 
 2242000   0.88302084   -2.9496242    2001.1604  0.074381521   0.07359999            4 
 2243000   0.90779475   -2.9458611    1994.4262  0.074098164  0.073588996            5 
 2244000   0.89844251   -2.9480112    2002.8173  0.074376758  0.073577947            1 
 2245000   0.88264113   -2.9288947    2004.6507  0.074411683  0.073566927            2 
 2246000   0.88946886   -2.9844778    2004.0134  0.074354904  0.073556009            2 
 2247000   0.86328942   -2.9755753    1996.6621  0.074049179  0.073544709            4 
 2248000   0.89547022   -2.9773211    1997.8676  0.074060928  0.073533487            5 
 2249000   0.88178425   -2.9569241    1994.6325  0.073908127  0.073522012            3 
 2250000   0.89898809   -2.9555261    1989.4111  0.073681894   0.07351053            4 
 2251000   0.89739835   -2.9672628    2006.0124   0.07426375  0.073499013            2 
 2252000   0.88289558   -2.9636911    1997.3555  0.073910431  0.073487684            3 
 2253000   0.89035401   -3.0082526     1997.125    0.0738691  0.073476221            4 
 2254000   0.90225383   -2.9523543    1995.6903  0.073783286  0.073464629            4 
 2255000   0.89617374   -2.9544095     2006.884  0.074164229  0.073453471            2 
 2256000   0.89146282   -2.9881108    1997.9093   0.07379984  0.073441975            6 
 2257000   0.88083353   -2.9870808    2003.2124  0.073962946  0.073430651            2 
 2258000   0.90943161   -2.9663259    2001.1494  0.073854052  0.073419228            5 
 2259000    0.8834912   -2.9655802    1999.6948  0.073767698  0.073408046            7 
 2260000   0.90375165   -2.9686241    1996.1175  0.073603153  0.073396631            3 
 2261000   0.89910042   -2.9676449    2009.5646  0.074066217  0.073385339            5 
 2262000   0.87557586   -2.9652307    2000.0855  0.073684259  0.073373852            4 
 2263000   0.90011269   -2.9652187    2004.0164  0.073796451  0.073362465            2 
 2264000   0.88744179   -2.9855341    2013.6391  0.074118046  0.073351104            4 
 2265000   0.89165267   -2.9591263     2013.037   0.07406317  0.073339497            3 
 2266000   0.90828809   -2.9763292    2010.3003  0.073929842  0.073327905            3 
 2267000   0.89745392   -2.9405543    2006.9515  0.073774133  0.073316586            3 
 2268000   0.88838948   -3.0067482    2005.7421  0.073697168  0.073305122            9 
 2269000   0.87884549   -2.9613043    2014.7889  0.073996948  0.073293557            8 
 2270000   0.87614873    -2.954906    2014.9447  0.073970069  0.073282211            4 
 2271000   0.88284961   -2.9713939    2003.7721  0.073527526  0.073270892            2 
 2272000   0.87910594   -2.9639178    2010.7379  0.073750658  0.073259645            3 
 2273000   0.91368413   -2.9588028    2022.2115  0.074138857  0.073248272            4 
 2274000   0.89679238   -2.9509741    2019.4844  0.074006317  0.073236862            2 
 2275000   0.86258539   -2.9775913    2011.5794  0.073684227  0.073225265            7 
 2276000   0.89885656   -2.9609137    2011.1394  0.073635744  0.073213758            2 
 2277000   0.88186539   -2.9603352    2011.1294  0.073603037  0.073202397            2 
 2278000   0.89972004   -2.9543418    2015.6297  0.073735358  0.073191126            2 
 2279000   0.89419027   -2.9674953    2017.0327  0.073754304  0.073179687            2 
 2280000   0.88316073     -2.97071    2010.6483  0.073488606  0.073168279            2 
 2281000   0.89095128   -2.9801758    2019.0212  0.073762282  0.073156992            2 
 2282000   0.87675094   -2.9981427    2015.3614  0.073596312  0.073145616            6 
 2283000   0.88891142   -2.9578869    2018.9493  0.073695041   0.07313452            5 
 2284000   0.87905237   -2.9722638    2022.7912  0.073802948  0.073123202            4 
 2285000   0.87816214   -2.9295133    2022.8675  0.073773432  0.073111989            2 
 2286000   0.88734096   -2.9644906    2019.1223  0.073604632  0.073100806            2 
 2287000   0.86514372   -2.9599827    2028.5632  0.073916454  0.073089429            2 
 2288000   0.88365891   -2.9589248    2016.8608  0.073457924  0.073078009            2 
 2289000    0.8821973   -2.9627378    2020.5396  0.073559763  0.073066399            2 
 2290000   0.88544905   -2.9592616    2022.8517   0.07361178  0.073054976            3 
 2291000   0.86221534   -2.9798367    2015.2925  0.073304687   0.07304345            1 
 2292000   0.88966887   -2.9998199     2017.708  0.073360528  0.073031702            3 
 2293000   0.89035193   -2.9912303    2021.5264  0.073467306  0.073020097            3 
 2294000   0.89044059   -2.9801409    2016.5192  0.073253384  0.073008161            3 
 2295000   0.88603089   -3.0031459    2016.7683   0.07323051  0.072996327            6 
 2296000    0.8870569   -2.9612579    2028.4617  0.073623029  0.072984644            3 
 2297000   0.89933952   -2.9996092    2022.6974  0.073381853  0.072972939            1 
 2298000   0.90348664   -2.9735966    2028.1371  0.073547182  0.072961336            1 
 2299000   0.87267557   -2.9699289    2026.7542  0.073465066  0.072949731            3 
 2300000   0.88128601   -2.9908938    2021.9578  0.073259341  0.072937973            1 
 2301000   0.90283659   -2.9894078    2025.0606  0.073339874  0.072926337            4 
 2302000   0.89005504   -2.9637296    2022.2753  0.073207186  0.072914753            2 
 2303000   0.87816024   -2.9911747    2025.7069   0.07329957  0.072902773            3 
 2304000    0.8876555   -2.9787114    2032.0356  0.073496657  0.072891102            3 
 2305000   0.87017254   -2.9957853    2024.6345  0.073197199  0.072879225            4 
 2306000   0.88474255   -2.9727672    2034.8112  0.073533218  0.072867587            2 
 2307000   0.88563925   -2.9734471    2033.8014  0.073464867  0.072855927            2 
 2308000   0.87208721   -2.9662169    2026.3285  0.073163219  0.072844125            3 
 2309000   0.88181486   -2.9587367    2032.4926  0.073353997  0.072832593            3 
 2310000   0.88049616   -2.9743094    2031.1759  0.073274744  0.072820888            4 
 2311000   0.89259978   -2.9744265    2029.8032  0.073193538   0.07280921            2 
 2312000   0.89459795   -2.9873608    2027.2469   0.07306974   0.07279769            7 
 2313000   0.87849462   -2.9878228     2027.662  0.073053104  0.072786169            5 
 2314000   0.87505333   -2.9733593    2031.0862  0.073144852  0.072774611            1 
 2315000   0.89789999   -2.9937213    2030.2119   0.07308178  0.072763182            3 
 2316000   0.89485595   -2.9763927    2035.4401  0.073238346  0.072751607            4 
 2317000   0.88632931   -2.9926376    2033.3296  0.073130831  0.072740206            2 
 2318000    0.8823553   -2.9871459    2032.2904   0.07306192  0.072728584            3 
 2319000    0.8553508    -2.994887    2031.3807  0.072997725  0.072716879            4 
 2320000   0.86383702   -2.9693014    2031.2211   0.07296053  0.072705092            4 
 2321000    0.8712928   -2.9898547    2028.3441  0.072825797  0.072693604            1 
 2322000   0.88999774   -2.9842472    2041.2315  0.073256943  0.072681863            4 
 2323000   0.87555883   -2.9814092    2033.4131  0.072944938  0.072670198            2 
 2324000   0.88573618   -2.9747904    2031.4375  0.072842712  0.072658337            5 
 2325000   0.87371117   -2.9717109    2033.4284  0.072882739   0.07264671            1 
 2326000   0.86854342   -2.9726739    2041.5517  0.073142435  0.072634946            2 
 2327000   0.86530029   -2.9718628    2036.6271  0.072934648  0.072623156            3 
 2328000   0.89387308   -2.9602557    2034.9419  0.072842994  0.072611525            2 
 2329000   0.89251333   -3.0024235    2037.6329  0.072908003  0.072599598            2 
 2330000    0.8878524    -2.986529    2044.9199  0.073137335  0.072587956            3 
 2331000   0.88585501   -2.9793945    2040.1654  0.072935986  0.072576185            3 
 2332000   0.88092902   -2.9967391    2043.2394  0.073014557  0.072564584            2 
 2333000   0.89838182   -2.9659014    2039.4529  0.072848011   0.07255281            5 
 2334000   0.86965353   -3.0007438    2039.5339  0.072819691  0.072541004            3 
 2335000   0.88900922   -2.9743558    2043.7792  0.072940016  0.072529146            4 
 2336000   0.87675928   -2.9971311    2043.7704  0.072908474  0.072517411            1 
 2337000   0.88827484   -2.9732654    2043.2703  0.072859445  0.072505588            4 
 2338000   0.85987499   -2.9682288    2045.4685  0.072906633  0.072493973            1 
 2339000   0.87922644   -2.9766458    2044.8236  0.072852487  0.072482368            2 
 2340000   0.86998066   -2.9805991     2051.937  0.073074681  0.072470769            4 
 2341000   0.87564156   -2.9825254    2043.4675  0.072741974  0.072459111            3 
 2342000   0.85023242   -2.9771996    2049.1272  0.072912299  0.072447147            2 
 2343000   0.88127555   -3.0057632    2043.8673  0.072694099  0.072435552            4 
 2344000   0.88712421   -2.9698427    2048.6487  0.072833074  0.072423764            2 
 2345000   0.86786534   -2.9965196    2040.4306   0.07250997  0.072411751            4 
 2346000    0.8858271   -2.9921479    2048.2992  0.072758568  0.072399684            6 
 2347000   0.89088604   -3.0091928    2043.6635  0.072562969  0.072387563            5 
 2348000   0.89280603   -3.0003913     2042.137  0.072477889  0.072375338            4 
 2349000   0.87442017   -3.0134921    2047.0943    0.0726229  0.072363576            4 
 2350000   0.87338991   -2.9837297    2048.7549  0.072650882  0.072351686            3 
 2351000   0.87580774   -2.9918345    2046.7186  0.072547801  0.072340009            5 
 2352000   0.87083585   -2.9962703    2051.1968  0.072675623  0.072327948            3 
 2353000   0.87841927   -2.9736105     2048.498  0.072549156  0.072315883            4 
 2354000   0.85991789   -2.9738482    2048.0073  0.072500968  0.072303921            4 
 2355000   0.88895815   -2.9973489    2044.5013  0.072346117  0.072292054            3 
 2356000   0.88396155   -2.9704338    2049.5399   0.07249363  0.072280008            3 
 2357000   0.89198162   -2.9904751    2050.6893  0.072503511  0.072268023            4 
 2358000   0.88167889   -2.9819273    2050.0286  0.072449413  0.072256199            2 
 2359000   0.88256495   -3.0112818    2050.5695  0.072437807  0.072244415            4 
 2360000   0.88871058   -2.9750273    2056.2988  0.072609419   0.07223248            3 
 2361000   0.87990393   -3.0089614    2054.1125    0.0725015  0.072220663            2 
 2362000   0.88214668   -2.9876167    2059.0813  0.072646108  0.072209006            8 
 2363000   0.86433261   -2.9990832    2049.5294  0.072278508  0.072197119            4 
 2364000   0.87409059   -3.0098535    2053.0083   0.07237057    0.0721852            3 
 2365000   0.84977804    -3.001354    2062.0319  0.072657925  0.072173484            4 
 2366000   0.87844004   -3.0050844    2061.0427  0.072592374  0.072161703            5 
 2367000   0.86751058   -2.9996858    2059.4212  0.072504619  0.072149816            2 
 2368000   0.86855233   -2.9554438    2064.8743  0.072665902  0.072138021            5 
 2369000    0.8825378   -2.9781265    2061.6132  0.072520517  0.072126261            4 
 2370000   0.87420865    -2.974483    2054.7126  0.072247277  0.072114449            2 
 2371000    0.8690646   -2.9951454    2066.9677  0.072647535  0.072102642            4 
 2372000   0.90589623   -2.9917412    2058.2877  0.072311961  0.072090805            4 
 2373000   0.87448251   -3.0192633    2057.3094  0.072247135  0.072078672            3 
 2374000   0.87296214   -3.0090269    2063.5039  0.072434146  0.072066857            2 
 2375000   0.86380307   -3.0069516    2061.7995  0.072343844  0.072054918            3 
 2376000   0.87477708   -2.9965227    2063.1647  0.072361277  0.072043017            4 
 2377000   0.88741489   -2.9860084     2071.883  0.072636482  0.072031108            5 
 2378000   0.85981881   -2.9866274    2057.3692  0.072097322  0.072019122            5 
 2379000   0.88490415   -3.0047415    2064.2346  0.072307504  0.072007079            4 
 2380000   0.85432407   -3.0108527    2064.1156  0.072272954  0.071995046           10 
 2381000   0.86295573   -2.9591286    2068.0213  0.072379299   0.07198311            3 
 2382000   0.88563331   -2.9680536    2071.3905  0.072466782  0.071971164            3 
 2383000   0.84921534   -2.9756929    2067.8583  0.072312851    0.0719589            3 
 2384000   0.87576329   -2.9722288    2063.0478  0.072114368  0.071946984            3 
 2385000   0.89127287   -2.9878654    2071.0905  0.072365145  0.071934964            3 
 2386000   0.86892806   -2.9659436    2069.5289  0.072280277  0.071923088            3 
 2387000   0.84647958    -2.981857    2069.6452  0.072254057  0.071910997            2 
 2388000   0.85883287   -3.0087509    2063.8889  0.072022923  0.071899034            3 
 2389000   0.88404745   -2.9830578    2065.4843  0.072048426  0.071886828            3 
 2390000   0.89452387   -2.9853039     2066.854  0.072066038  0.071874726            3 
 2391000   0.86186239   -2.9976998    2064.6218  0.071958101  0.071862443            4 
 2392000   0.84009459   -2.9949677    2069.5658  0.072100257  0.071850214            4 
 2393000   0.89065023   -2.9883576     2063.736  0.071867113  0.071838059            2 
 2394000    0.8852176   -3.0154568    2068.3927  0.071999189  0.071825634            4 
 2395000   0.88365726   -3.0080648    2066.7288  0.071911233  0.071813341            5 
 2396000   0.87333648   -2.9975988    2079.5652  0.072327673  0.071800981            6 
 2397000   0.86930884   -3.0001847    2067.8914   0.07189165  0.071788811            3 
 2398000   0.86331458   -3.0097505    2067.1244  0.071835015  0.071776531            9 
 2399000   0.86550001    -2.990424    2070.8386   0.07193409  0.071764414            2 
 2400000   0.86677304   -3.0035918    2070.9031  0.071906358  0.071752059            4 
 2401000   0.88249784   -2.9995358    2073.2296  0.071957157  0.071739783            3 
 2402000   0.86434999   -3.0046323    2071.9801   0.07188385  0.071727593            2 
 2403000   0.88736881   -3.0134085    2071.3052  0.071830531  0.071715375            4 
 2404000   0.85482192   -3.0111049    2069.6455  0.071743119  0.071702984            5 
 2405000   0.87833262   -3.0068035    2075.2779  0.071908451  0.071690554            3 
 2406000   0.86111874   -2.9783663    2076.5618  0.071923034  0.071678206            2 
 2407000   0.86773865   -2.9919857     2074.015   0.07180498  0.071665777            3 
 2408000   0.87006991   -2.9966251    2063.9339  0.071426282   0.07165345            3 
 2409000   0.86345634   -3.0162759    2075.7922  0.071806843  0.071641187            1 
 2410000   0.87382701    -2.984268    2072.5556  0.071665133  0.071628884            6 
 2411000   0.85667277   -2.9962519    2077.3111  0.071799775  0.071616466            3 
 2412000   0.85533185   -3.0406045    2074.1158  0.071659613  0.071604021            2 
 2413000   0.85275623   -3.0155283    2071.3768  0.071535321  0.071591656            6 
 2414000    0.8585648   -3.0030207    2079.1199  0.071772989  0.071579233            3 
 2415000   0.85850395    -3.020966    2090.8376  0.072147606  0.071567052            2 
 2416000   0.87368296   -2.9760494    2084.2001  0.071888801  0.071554888            3 
 2417000    0.8585336   -2.9812958    2078.2326  0.071653309  0.071542677            3 
 2418000   0.85517456   -2.9946785    2078.8772   0.07164589  0.071530563            4 
 2419000   0.85962041   -3.0070091    2080.2083   0.07166213  0.071518379            4 
 2420000    0.8394302    -2.984093    2090.1507  0.071974887   0.07150611            2 
 2421000   0.85209031   -2.9961631    2085.7947  0.071795217   0.07149382            2 
 2422000   0.85225732   -2.9947315    2081.7145  0.071625189  0.071481508            5 
 2423000    0.8694686    -2.984596    2089.1745  0.071852197  0.071469173            3 
 2424000   0.84145244   -3.0111167    2082.6247  0.071597383  0.071456919            3 
 2425000   0.86368859   -2.9954608    2080.6736  0.071500809  0.071444468            1 
 2426000   0.87798678   -3.0158189    2081.6861  0.071506119   0.07143214            2 
 2427000    0.8758424   -2.9900283    2085.9485  0.071623008  0.071419657            2 
 2428000   0.86259034   -3.0218152    2082.7857  0.071484956  0.071407338            3 
 2429000   0.85262289   -3.0170112    2083.4359  0.071477835  0.071394961            2 
 2430000   0.87990288   -2.9927576    2088.6525  0.071627316  0.071382413            3 
 2431000   0.86763341    -3.030218    2091.6909  0.071702005  0.071369858            4 
 2432000   0.85831593   -3.0064146    2088.3782   0.07155901  0.071357397            3 
 2433000   0.87218794   -2.9829578    2085.2077  0.071421006  0.071345049            5 
 2434000   0.85647978   -3.0100879    2088.2909  0.071497224  0.071332502            3 
 2435000   0.86490544    -3.030986    2084.9062  0.071352027  0.071319988            4 
 2436000   0.86366708   -3.0119072    2089.3008  0.071473069  0.071307421            5 
 2437000   0.85988507   -2.9978101    2091.9511  0.071534371  0.071294945            5 
 2438000   0.85526499   -3.0229962    2088.8455  0.071398874  0.071282473            4 
 2439000   0.84766702   -2.9938379    2086.1707  0.071278211  0.071269929           13 
 2440000   0.85592625   -3.0146146    2099.5563  0.071706158  0.071257586            4 
 2441000   0.85713584   -3.0010165    2095.9688  0.071554308  0.071245169            2 
 2442000   0.86613116   -3.0161701    2087.9306  0.071250704  0.071232586            4 
 2443000   0.85461541   -3.0274504    2087.2211  0.071197336  0.071220377            5 
 2444000   0.85765365   -3.0078938    2102.4976   0.07168909   0.07120801            2 
 2445000    0.8811733    -3.021128    2090.8168   0.07126165  0.071195652            4 
 2446000   0.85185332   -3.0236502    2090.9103    0.0712357  0.071183198            2 
 2447000   0.85312629    -3.015361    2091.4797  0.071225981  0.071170644            2 
 2448000   0.87007439    -3.002668    2091.6429   0.07120244  0.071158087            3 
 2449000   0.87684704   -3.0127818    2093.8564  0.071248686  0.071145619            3 
 2450000   0.83849411   -3.0144377     2094.877  0.071254321  0.071133021            2 
 2451000   0.85899351   -3.0055995    2096.3228  0.071274405  0.071120712            3 
 2452000   0.86170351   -2.9928992     2097.882  0.071298326  0.071108513            3 
 2453000   0.84685261   -2.9965367    2100.9933  0.071374961  0.071096133            7 
 2454000   0.85710345   -3.0309727    2091.3868  0.071019657  0.071083972            2 
 2455000   0.84980846   -3.0008033    2098.5184  0.071232803  0.071071563            6 
 2456000   0.86540528   -3.0195723    2098.3467  0.071197973  0.071059156            4 
 2457000   0.87279071   -3.0125659    2094.5193  0.071039184  0.071046634            4 
 2458000   0.85224379   -3.0144653    2098.2174  0.071135659  0.071034124            1 
 2459000   0.85797428   -3.0248895    2093.9971  0.070963707  0.071021712            2 
 2460000   0.85412313   -3.0238399    2102.4074  0.071219762  0.071009268            2 
 2461000   0.87871218   -3.0155518    2102.4736  0.071193066  0.070996692            2 
 2462000   0.86923034   -3.0245969    2101.3946  0.071127627   0.07098404            3 
 2463000    0.8660009   -3.0117926    2099.9076  0.071048437  0.070971669            2 
 2464000   0.84112804   -3.0060334    2104.4939  0.071174712  0.070959016            6 
 2465000   0.86653163   -3.0251771    2099.9942  0.070993718  0.070946479            4 
 2466000   0.84900968   -3.0104837    2096.7835  0.070856431  0.070933871            2 
 2467000   0.83207145   -2.9951202    2102.8296   0.07103194  0.070921141            3 
 2468000   0.85724468   -2.9965576    2099.9799   0.07090694   0.07090864            2 
 2469000   0.85501486   -3.0183342    2101.1086  0.070916317  0.070895891            3 
 2470000   0.86743993   -2.9910592     2102.401  0.070931208  0.070883437            2 
 2471000   0.85986168   -3.0150917    2101.9925  0.070888727  0.070870697            3 
 2472000   0.84755565   -3.0138547    2109.6455  0.071118037  0.070858324            3 
 2473000   0.85887175   -3.0109665    2100.6703   0.07078684  0.070845835            5 
 2474000   0.84813995   -3.0259514    2100.5257   0.07075336  0.070833037            3 
 2475000   0.85041898   -3.0237786    2103.0238  0.070808882  0.070820393            2 
 2476000   0.84106945   -3.0073186    2105.2224  0.070854282  0.070807792            3 
 2477000   0.86438017    -2.998169     2110.217  0.070993708  0.070795376            2 
 2478000   0.86524688   -3.0145341    2103.5304  0.070740193  0.070782948            3 
 2479000   0.86170984    -3.014257    2117.4272   0.07117881   0.07077038            2 
 2480000   0.85773688    -3.001465    2110.6226  0.070921459  0.070757667            7 
 2481000   0.84126921     -3.01038    2100.9343  0.070567458  0.070744984            3 
 2482000   0.84450588   -3.0164379     2106.363  0.070721292  0.070732249            4 
 2483000   0.85140684   -3.0199653    2104.4601  0.070628948  0.070719604            5 
 2484000   0.85464522   -3.0147659    2109.2425  0.070760952  0.070706874           10 
 2485000   0.84255818   -3.0054762    2108.0769   0.07069339  0.070694261            2 
 2486000   0.86260115   -3.0218908    2109.1446  0.070700744  0.070681635            2 
 2487000   0.86419152   -3.0332871    2113.0224  0.070802251  0.070669013            4 
 2488000   0.85050375   -3.0075808     2108.139  0.070610228   0.07065608            5 
 2489000    0.8356485   -2.9796848    2113.5253  0.070762196  0.070643284            5 
 2490000   0.86294813   -3.0132283     2113.832  0.070744044  0.070630735            2 
 2491000   0.83564406    -3.041596     2115.667  0.070777032  0.070618173            4 
 2492000    0.8438564   -3.0110187    2115.6551   0.07074823  0.070605556            9 
 2493000   0.84680585   -3.0110355    2114.0998  0.070667865   0.07059303            2 
 2494000   0.84534092   -3.0221087    2113.1894  0.070609109  0.070580405            4 
 2495000   0.85415625   -3.0485914    2114.5898   0.07062758  0.070567638            3 
 2496000   0.85753004   -3.0151268    2117.0321  0.070680826  0.070554914            2 
 2497000   0.86512629   -3.0192772    2111.6551  0.070473072  0.070542447            2 
 2498000    0.8653597   -3.0018356    2118.8414  0.070684596  0.070529967            6 
 2499000   0.85116303   -2.9858732    2116.2741    0.0705707  0.070517429            6 
 2500000   0.86861431   -3.0226764    2115.6215  0.070520715  0.070504876            8 
 2501000   0.85785849   -2.9970445    2120.6367  0.070659627  0.070492327            2 
 2502000   0.86310614   -3.0306595    2111.4284  0.070324688  0.070479911            4 
 2503000   0.87469371   -3.0268268    2115.8831  0.070444902  0.070467216            5 
 2504000   0.86298936   -3.0043268    2126.3016  0.070763499  0.070454531            9 
 2505000   0.84601575   -3.0284637    2114.2287  0.070333622  0.070441806            3 
 2506000   0.85630196   -3.0103979    2113.8921  0.070294362  0.070429248            3 
 2507000   0.85115712   -3.0382455    2116.0745  0.070338869  0.070416704            3 
 2508000   0.82552505   -3.0126516     2128.181  0.070713084  0.070403963            4 
 2509000    0.8541071     -3.01067    2123.0137  0.070513277   0.07039133            4 
 2510000   0.84987451   -3.0374919    2116.1657  0.070257825  0.070378867            3 
 2511000    0.8626459    -3.022654    2117.2669  0.070266391  0.070366195            3 
 2512000   0.85416682   -3.0221584    2126.2206  0.070535448  0.070353807            5 
 2513000   0.86485098   -3.0236439    2117.1501  0.070206597  0.070341285            5 
 2514000   0.83499982   -3.0245539    2126.0944  0.070475154  0.070328699            2 
 2515000   0.83441157   -3.0423502     2123.951  0.070376111  0.070316148            3 
 2516000   0.86444644   -3.0344368    2125.0262  0.070383749  0.070303686            4 
 2517000   0.85752232   -3.0343005    2127.1546  0.070426255  0.070291109            3 
 2518000   0.85003686   -3.0239241    2129.1836  0.070465434  0.070278763            5 
 2519000   0.86212309   -3.0266287    2127.6178  0.070385662  0.070266242            3 
 2520000   0.85331108   -3.0039495    2131.4474  0.070484371  0.070254122            4 
 2521000   0.85276365   -3.0192228    2135.2944  0.070583577  0.070242063            2 
 2522000   0.84177454   -3.0046645    2132.7968  0.070473063  0.070229815            4 
 2523000   0.84568209   -3.0151309    2135.1391  0.070522495  0.070217655            2 
 2524000   0.85197627   -3.0391309    2122.3972  0.070073865  0.070205389            3 
 2525000   0.85262015   -3.0078247    2143.4071   0.07073951  0.070193231            2 
 2526000   0.85683462   -3.0253399    2130.5496  0.070287333  0.070181058            4 
 2527000   0.86484121   -3.0125568    2132.2158  0.070314463  0.070168827            2 
 2528000   0.83937703   -3.0146592    2133.3385   0.07032366  0.070156836            2 
 2529000   0.85904593   -3.0480662    2127.1545  0.070092082  0.070144672            1 
 2530000   0.84335807   -3.0301077    2140.6884  0.070510158  0.070132554            2 
 2531000   0.84609222   -3.0620216    2130.4243  0.070144354  0.070120388            6 
 2532000   0.86064089   -3.0371464    2141.6716  0.070486822  0.070108208            2 
 2533000   0.86512907    -3.014418    2133.1731  0.070179402   0.07009616            6 
 2534000   0.84032018   -3.0327365    2138.3068  0.070320532  0.070083856            4 
 2535000   0.83762798   -3.0218451    2134.3687  0.070163336   0.07007136            4 
 2536000   0.83963004   -3.0411176    2140.9698  0.070352582  0.070059029            2 
 2537000   0.84532152   -3.0403822    2137.3745  0.070206758  0.070046755            5 
 2538000    0.8476398   -3.0188887    2139.4958  0.070248746  0.070034327            2 
 2539000   0.83375537   -3.0054923    2138.9376  0.070202757  0.070021994            4 
 2540000   0.84967468   -3.0457403     2141.264  0.070251442  0.070009892            5 
 2541000   0.83140357   -3.0177977    2144.3066   0.07032358  0.069997513            4 
 2542000   0.86054476   -3.0599557    2133.2223  0.069932542  0.069985155            3 
 2543000   0.84756283   -3.0161851    2149.6718   0.07044409  0.069972854            4 
 2544000   0.83988761   -3.0081816    2146.0859  0.070298936  0.069960586            4 
 2545000   0.85067736   -3.0270412    2140.3615  0.070083874  0.069948473            4 
 2546000   0.85171429   -3.0368227    2139.3954  0.070024724  0.069936249            3 
 2547000   0.83248651   -3.0391966    2136.3784  0.069898521  0.069924021            2 
 2548000   0.82850209   -3.0617199    2143.8143  0.070114281  0.069911675            3 
 2549000   0.85346139   -3.0348816    2141.4859  0.070010653  0.069899324            3 
 2550000   0.84501723   -3.0322869    2148.4707   0.07021146  0.069887037            2 
 2551000   0.86136813   -3.0467831    2136.1796  0.069782427  0.069874602            4 
 2552000   0.84726643   -3.0554838    2147.0192  0.070109037  0.069861915            7 
 2553000   0.85073889    -3.023752    2145.4771   0.07003124  0.069849647            3 
 2554000   0.83742463   -3.0354017    2150.2393  0.070159205  0.069837453            6 
 2555000   0.82992111   -3.0248507    2146.5752  0.070012237  0.069824904            3 
 2556000   0.85684429   -3.0172984    2145.2113  0.069940379  0.069812448            6 
 2557000   0.84638643   -3.0580147    2141.4999  0.069792071  0.069800159            3 
 2558000   0.85392945   -3.0233787     2151.701  0.070097115  0.069787788            5 
 2559000   0.82282052   -2.9944943    2158.8121  0.070301293  0.069775544            4 
 2560000   0.86363489   -3.0274188    2147.0952  0.069892423   0.06976342            3 
 2561000   0.83372809   -3.0540305    2154.6451  0.070110798  0.069751123            2 
 2562000    0.8305508   -3.0364314    2144.8664  0.069765365  0.069738776            2 
 2563000   0.84581455   -3.0137755    2152.2521  0.069978285  0.069726607            2 
 2564000   0.83910533   -3.0326323    2154.2685  0.070016528  0.069714405            3 
 2565000   0.84856814   -3.0300082    2148.9229  0.069815559   0.06970229            2 
 2566000   0.85309137   -3.0422293     2150.893  0.069852333  0.069690173            4 
 2567000    0.8482975   -3.0942371    2153.0372  0.069894728  0.069677853            5 
 2568000   0.83796132   -3.0206818     2148.438  0.069718262  0.069665547            2 
 2569000   0.83644884   -3.0356265    2153.1232  0.069843103  0.069653144            5 
 2570000   0.82575207   -3.0470494    2153.0746  0.069814351  0.069640871            3 
 2571000   0.83695799   -3.0456748    2150.9496  0.069718318  0.069628587            6 
 2572000   0.83001649   -3.0184044    2152.3596  0.069736897  0.069616147            2 
 2573000   0.85460069    -3.022475    2155.9856  0.069827232  0.069603771            4 
 2574000    0.8511899   -3.0305031    2161.3939  0.069975197  0.069591452            7 
 2575000   0.82276564   -3.0250554    2156.1242  0.069777483  0.069578992            4 
 2576000   0.84429368   -3.0455105    2151.7958  0.069610372  0.069566534            4 
 2577000   0.83086507   -3.0256274    2161.1577  0.069886099  0.069554162            5 
 2578000   0.86077253   -3.0407539    2158.7477  0.069781086   0.06954199            6 
 2579000   0.81297672   -3.0322217    2163.6811  0.069913439  0.069529623            3 
 2580000   0.84458496   -3.0368281    2161.0312  0.069800749  0.069517441            3 
 2581000   0.82337766   -3.0525152    2161.3851  0.069785131   0.06950522            4 
 2582000   0.84684231    -3.029928    2158.1073  0.069652313  0.069493087            3 
 2583000   0.83997151   -3.0335893    2163.6043  0.069802694  0.069480796            4 
 2584000   0.84817558   -3.0482396    2159.0323  0.069628236  0.069468506            3 
 2585000   0.82320967   -3.0496347    2161.7273  0.069688178  0.069456276            4 
 2586000   0.83477777   -3.0723072    2152.6314  0.069368117   0.06944384            2 
 2587000   0.85655586   -3.0545782    2156.7742   0.06947475  0.069431502            2 
 2588000   0.82931775   -3.0194269    2157.2755  0.069464048  0.069419271            6 
 2589000   0.82476166   -3.0681825    2163.9749  0.069652854  0.069406871            4 
 2590000   0.85609947   -3.0407682    2164.2583  0.069635082  0.069394399            3 
 2591000   0.83823303   -3.0461634    2162.1728   0.06954113  0.069382075            4 
 2592000   0.82817584   -3.0584888    2158.2711  0.069388861  0.069369729            5 
 2593000   0.83840524   -3.0271001    2172.6538  0.069824328  0.069357553            3 
 2594000   0.84088072   -3.0433956    2163.9418  0.069517534  0.069345415            5 
 2595000   0.82898598   -3.0595634    2162.1847  0.069434321  0.069333209            5 
 2596000   0.82350661   -3.0443749    2164.6067  0.069485321  0.069320766            4 
 2597000   0.83547989   -3.0485452    2169.9778  0.069630915  0.069308595            5 
 2598000   0.83766582   -3.0601189    2169.7569  0.069597028   0.06929635            4 
 2599000   0.83970964   -3.0454715    2163.6454  0.069374293  0.069284113            2 
 2600000   0.85865542    -3.037308    2162.8875  0.069323318  0.069271777            2 
 2601000    0.8452211   -3.0435838      2172.43  0.069602395  0.069259515            3 
 2602000   0.83574246    -3.029865    2178.8829  0.069782311  0.069247223            8 
 2603000   0.83109403   -3.0392333    2168.6374  0.069427501   0.06923485            1 
 2604000   0.81600395   -3.0467082     2174.189  0.069578501  0.069222496            3 
 2605000   0.82561394   -3.0481802      2162.09  0.069164748  0.069210088           12 
 2606000   0.83170299   -3.0457526    2172.8326  0.069481729  0.069197779            3 
 2607000   0.82929974   -3.0727642    2171.7351  0.069419993   0.06918566            3 
 2608000   0.81772204   -3.0406944    2177.6739  0.069583139  0.069173525            4 
 2609000   0.83201762     -3.03997    2171.7278  0.069366545  0.069161499            3 
 2610000    0.8476488   -3.0366577    2176.7461  0.069500193  0.069149305            3 
 2611000   0.82254833   -3.0313112    2168.9872  0.069225943  0.069137099            5 
 2612000   0.82500891   -3.0658193    2172.9548   0.06932602  0.069124745            4 
 2613000   0.85312838    -3.036929    2172.1212  0.069272904  0.069112489            1 
 2614000   0.82431847   -3.0671114    2165.7058  0.069041883  0.069100103            2 
 2615000   0.83596366   -3.0270189    2175.5138  0.069328037  0.069087855            5 
 2616000    0.8424874   -3.0183967    2174.3901  0.069265738  0.069075682            2 
 2617000    0.8328673   -3.0333526    2176.1479  0.069295247  0.069063344            4 
 2618000   0.83783648   -3.0393732    2177.0682   0.06929807  0.069051195            3 
 2619000    0.8223071   -3.0492317    2178.3221  0.069311509  0.069039002            1 
 2620000   0.84180563   -3.0431313    2176.9105  0.069240155  0.069026725            3 
 2621000   0.84084401   -3.0466471    2179.1966  0.069286424   0.06901459            3 
 2622000   0.83423932   -3.0564716    2185.6171  0.069464057  0.069002481            3 
 2623000   0.83791297   -3.0378504    2175.2819  0.069109224  0.068990392            2 
 2624000   0.85077717   -3.0455388    2178.6626  0.069190251  0.068978425            4 
 2625000   0.82421355   -3.0567905     2175.598  0.069066604  0.068966205            4 
 2626000   0.84217154   -3.0475397    2187.8702  0.069429748  0.068954149            5 
 2627000   0.83581107   -3.0560899    2178.6759  0.069111658  0.068942303            4 
 2628000   0.82556069   -3.0325177    2185.3481  0.069296934  0.068930412            4 
 2629000   0.82830525   -3.0557418    2186.2057   0.06929776  0.068918421            6 
 2630000   0.82808984   -3.0744479    2179.0587  0.069044951  0.068906403            2 
 2631000   0.82873554   -3.0601015    2181.9405  0.069109987  0.068894459            6 
 2632000   0.83168987    -3.060279    2184.6553  0.069169684  0.068882447            5 
 2633000   0.83985378   -3.0567514    2179.3111  0.068974271  0.068870492            3 
 2634000   0.82604563   -3.0379318    2188.7639   0.06924715  0.068858524            6 
 2635000   0.82946273    -3.029943    2193.6121  0.069374197  0.068846665            2 
 2636000   0.82890354   -3.0638639    2180.8585  0.068944692  0.068834644            8 
 2637000   0.82750668   -3.0337206    2186.5136  0.069097257  0.068822767            4 
 2638000   0.80085736   -3.0666559    2183.5277   0.06897674  0.068810737           11 
 2639000   0.83179647   -3.0743319    2187.5469   0.06907752  0.068798822            3 
 2640000   0.84381894     -3.05498    2187.3743  0.069045907  0.068786814            4 
 2641000   0.82470482   -3.0439431    2189.1934  0.069077162  0.068774939            5 
 2642000   0.81870662   -3.0725513    2190.7073  0.069098766  0.068762943            4 
 2643000   0.82780706   -3.0606664    2196.0247  0.069240278  0.068750988            2 
 2644000   0.81643485   -3.0643322     2189.866  0.069019984  0.068738984            4 
 2645000   0.82587986   -3.0483291    2193.6684  0.069113688  0.068727133            3 
 2646000   0.84799048   -3.0439096    2194.6611  0.069118832  0.068715184            4 
 2647000   0.82402679   -3.0548755    2201.4658  0.069306944  0.068703312            2 
 2648000   0.83324267   -3.0614107    2200.2636  0.069242939  0.068691358            4 
 2649000   0.83980373   -3.0480422    2195.0732  0.069053518  0.068679349            2 
 2650000   0.82597474    -3.031663    2189.7759  0.068860876  0.068667359           13 
 2651000   0.81924818   -3.0729091      2192.22  0.068911733  0.068655544            2 
 2652000    0.8294636   -3.0540819    2189.6088  0.068803695  0.068643496            3 
 2653000   0.82546891   -3.0342955    2195.6757  0.068968328  0.068631543            5 
 2654000   0.81742744   -3.0605917    2195.7421  0.068944427  0.068619651            4 
 2655000   0.81446788   -3.0293695    2197.6677  0.068978898  0.068607777            2 
 2656000    0.8041836     -3.02703    2201.7316  0.069080434  0.068595862            3 
 2657000   0.83088815   -3.0589376    2202.8122  0.069088326  0.068584154            6 
 2658000   0.81042145   -3.0753379    2196.3159  0.068858664  0.068572009            4 
 2659000   0.81583043    -3.056537    2198.6677  0.068906471  0.068560292            3 
 2660000   0.83252137   -3.0503522     2200.968  0.068952631  0.068548523            5 
 2661000   0.82783193   -3.0607819    2202.5751   0.06897705  0.068536821            7 
 2662000   0.81964487    -3.044116    2203.6062  0.068983414  0.068524977            2 
 2663000   0.82308981   -3.0576463    2200.1198   0.06884841  0.068513113            3 
 2664000   0.82185464   -3.0434922    2196.0394  0.068694927  0.068501195            5 
 2665000   0.82611246   -3.0604583    2204.0312  0.068919049  0.068489258            8 
 2666000   0.83608829   -3.0764684    2204.4602  0.068906608   0.06847742            5 
 2667000   0.82990693   -3.0455535     2202.225  0.068810931  0.068465487            1 
 2668000    0.8172514   -3.0511669    2200.8617  0.068742556  0.068453444            3 
 2669000   0.83263181   -3.0590224    2207.6485  0.068928703  0.068441384            3 
 2670000   0.81125079   -3.0728247    2204.3348  0.068799462  0.068429285            4 
 2671000   0.82831479   -3.0605192    2194.4664  0.068465817  0.068417093            6 
 2672000   0.81136416   -3.0513506    2204.3251  0.068747665  0.068404903            2 
 2673000   0.83680419   -3.0560559    2211.0336  0.068931088  0.068392762            4 
 2674000   0.82304988   -3.0737247    2204.0483  0.068687617  0.068380747            4 
 2675000   0.81159033   -3.0690478    2206.6078  0.068741677  0.068368611            2 
 2676000   0.81956779   -3.0611245    2197.4629  0.068431206  0.068356373            4 
 2677000    0.8235106   -3.0553404    2209.4357   0.06877835  0.068344284            3 
 2678000   0.82690961   -3.0578256    2202.1936   0.06852731  0.068332186            9 
 2679000   0.81189611   -3.0612287    2215.8828  0.068927547  0.068320121            2 
 2680000   0.82479307   -3.0570659    2206.4466  0.068608414  0.068308108            2 
 2681000   0.82371431   -3.0602644    2202.5862   0.06846283  0.068296088            3 
 2682000   0.80594462   -3.0379219     2199.605  0.068344675  0.068284015            5 
 2683000   0.83461567   -3.0835473    2208.6294  0.068599497  0.068272086            3 
 2684000   0.82343525   -3.0687006    2206.2683  0.068500631  0.068260047            4 
 2685000    0.8198987   -3.0630038       2210.8  0.068615766  0.068247925            3 
 2686000   0.82900461   -3.0436052     2202.629  0.068336715  0.068235966            3 
 2687000   0.82443203   -3.0574497    2208.3714  0.068489375  0.068224077            3 
 2688000   0.81069513   -3.0543741    2209.9603  0.068513154  0.068212055            3 
 2689000   0.83844121   -3.0724556    2208.4062  0.068439513  0.068199964            3 
 2690000   0.82940988   -3.0618317     2206.481  0.068354429   0.06818806            3 
 2691000   0.83719087   -3.0276151    2215.0095  0.068593134  0.068176099            7 
 2692000   0.79712241   -3.0600522    2202.9716  0.068195009  0.068164014            5 
 2693000   0.80763176   -3.0631884    2210.6563  0.068407484  0.068151787            3 
 2694000   0.82217427   -3.0763332    2212.3027  0.068433022  0.068139833            5 
 2695000   0.83002287   -3.1020044    2210.7739  0.068360355  0.068127639            4 
 2696000   0.82688136   -3.0390366    2216.3459  0.068507229  0.068115582            3 
 2697000   0.83552463   -3.0756157    2208.3985  0.068236267  0.068103778            6 
 2698000   0.82344134   -3.0489045    2221.6838  0.068621319  0.068091989            3 
 2699000    0.8196893   -3.0449208    2216.3445   0.06843104  0.068080106            5 
 2700000    0.8134785   -3.0570916    2220.4332   0.06853189  0.068068457            2 
 2701000   0.79213313   -3.0703551    2214.6024  0.068326619  0.068056625            3 
 2702000     0.822795    -3.049257    2223.9824  0.068590624  0.068044693            4 
 2703000   0.82592454   -3.0729226    2224.1054  0.068569041  0.068032897            4 
 2704000   0.80888727   -3.0960606    2220.7148  0.068439188  0.068021206            3 
 2705000    0.8171501   -3.0513359    2213.7906  0.068200572  0.068009411            4 
 2706000   0.81242775   -3.0640825    2224.0483  0.068491262  0.067997583            6 
 2707000   0.82446293   -3.0680884    2219.7062  0.068332293  0.067985713            3 
 2708000   0.79599356    -3.077891    2223.7156   0.06843044  0.067973751            5 
 2709000   0.80761211   -3.0471622    2217.5374  0.068215128  0.067961927            5 
 2710000   0.81390629   -3.0882263    2214.5162  0.068097055  0.067949953            7 
 2711000   0.81282727   -3.0705504    2213.9769  0.068055357   0.06793812            3 
 2712000   0.82760623   -3.0883007    2214.7442  0.068053842   0.06792611            7 
 2713000   0.81772897   -3.0592777     2225.812  0.068368718     0.067914            6 
 2714000   0.82836206   -3.0819832    2227.0349  0.068381076  0.067901935            4 
 2715000   0.83512975   -3.0533717      2229.34  0.068426642   0.06789015            4 
 2716000    0.7975207   -3.0341813    2223.6172   0.06822586  0.067878247            4 
 2717000   0.81811713   -3.0598006    2218.3277  0.068038513  0.067866436            1 
 2718000    0.8007835   -3.0626709    2219.9974  0.068064672  0.067854244            4 
 2719000   0.81823231   -3.0957714    2217.4284  0.067960905  0.067842286            4 
 2720000   0.80611295    -3.061373    2228.8012   0.06828435  0.067830473            3 
 2721000   0.84119026   -3.0492929    2226.3718  0.068184852   0.06781846            4 
 2722000   0.82402784    -3.051136    2221.9502  0.068024438  0.067806426            4 
 2723000   0.80675382   -3.0501504    2222.0234  0.068001695  0.067794409            4 
 2724000    0.8201152   -3.0510053    2230.3286  0.068230806  0.067782495            2 
 2725000   0.83387219   -3.0820442    2222.2099  0.067957488  0.067770666            3 
 2726000   0.82015178   -3.0895833     2223.883  0.067983705  0.067758509            7 
 2727000   0.80877705   -3.0622015    2220.9242  0.067868359  0.067746425            3 
 2728000   0.79214701   -3.0891265    2239.8355  0.068421171  0.067734604            3 
 2729000   0.81759451   -3.0758106    2228.3192  0.068044436  0.067722752            3 
 2730000   0.79812157   -3.0571026    2229.1011  0.068043378  0.067710692            4 
 2731000   0.82183628   -3.0683795    2228.7655  0.068008224  0.067698805            4 
 2732000   0.82045777   -3.0903943    2229.9412  0.068019192  0.067686698            3 
 2733000   0.80869643   -3.0717207    2236.4942  0.068194116  0.067674802            2 
 2734000    0.8195968   -3.0899718    2232.2447  0.068039647  0.067662901            3 
 2735000   0.81190048   -3.0972937    2225.6184   0.06781287  0.067650907            4 
 2736000   0.79475693   -3.0436887    2228.1479  0.067865128  0.067638986            4 
 2737000   0.81731819    -3.089113    2235.5785  0.068066573  0.067627119            5 
 2738000   0.83363719   -3.0849077    2227.4087  0.067793057  0.067615353            3 
 2739000   0.80108068   -3.0741171    2226.1048  0.067728637  0.067603278            6 
 2740000    0.8293135   -3.0744349    2236.4782   0.06801941  0.067591491            4 
 2741000   0.83007067   -3.0622503    2239.8188  0.068096159  0.067579654            2 
 2742000   0.82693913   -3.0702579    2233.1341  0.067868164  0.067567667            3 
 2743000   0.82729993    -3.088316    2232.0593   0.06781077  0.067555756            6 
 2744000   0.81178909   -3.1003048    2227.0865  0.067635038  0.067543609            5 
 2745000   0.80991641   -3.0388559    2231.0537  0.067730836  0.067531684            3 
 2746000   0.80723642    -3.073567    2230.6865  0.067695027  0.067519758            5 
 2747000   0.79635244   -3.0483045    2228.2499  0.067596465  0.067507719            2 
 2748000   0.82058271   -3.0668143    2232.3498  0.067696198  0.067495785            3 
 2749000   0.80784434   -3.0899766    2236.5267  0.067798189  0.067483723            3 
 2750000   0.84033431   -3.0812912    2233.7429  0.067689179  0.067471723            4 
 2751000    0.8185434   -3.0554677    2234.0799  0.067674782  0.067459702            7 
 2752000   0.81685736   -3.0632756    2250.4562  0.068146081  0.067447684            2 
 2753000   0.82891843    -3.070054    2240.9028  0.067832145  0.067435785            4 
 2754000   0.80572754   -3.0773431    2239.0434  0.067751253  0.067423948            5 
 2755000   0.83197788   -3.0838752    2237.8926   0.06769185  0.067411834            2 
 2756000   0.81373043   -3.0740499    2237.6266  0.067659247   0.06739991            3 
 2757000   0.78787866   -3.0559001    2245.7367  0.067879842  0.067388183            5 
 2758000   0.80561716   -3.0902155    2243.2228  0.067779273   0.06737632            5 
 2759000   0.81509162   -3.1015556    2240.2232  0.067664104  0.067364564            4 
 2760000    0.8184959   -3.0886196    2241.2613  0.067670934  0.067352704            2 
 2761000    0.8176943   -3.0941524    2238.7392  0.067570301  0.067340763            2 
 2762000   0.83254932   -3.0492055    2238.2062  0.067529755  0.067328812            6 
 2763000   0.81311312   -3.0613205    2250.4038    0.0678732  0.067317078            3 
 2764000   0.80661762   -3.0691038    2239.8688  0.067531019  0.067305268            4 
 2765000   0.79446984   -3.0819169    2252.1398  0.067876424   0.06729338            3 
 2766000   0.81789006   -3.1027372    2234.4626  0.067319312   0.06728137            3 
 2767000   0.80817504    -3.072331    2246.7302  0.067664444  0.067269376            4 
 2768000   0.81238132   -3.0970994    2242.8437  0.067522991  0.067257427            6 
 2769000   0.81005722     -3.07326    2248.9566  0.067682574  0.067245608            6 
 2770000   0.80269078   -3.0780489    2242.9518  0.067477491  0.067233702            4 
 2771000   0.81991527   -3.0842768    2237.3703  0.067285285  0.067221761            3 
 2772000   0.80297763   -3.0917078    2241.5229  0.067385849  0.067209753            8 
 2773000   0.83511916   -3.0891547    2248.8832  0.067582737  0.067197867            2 
 2774000   0.80289168   -3.1153157    2244.0282  0.067412528  0.067185941            8 
 2775000   0.81405098   -3.0685527    2249.4058  0.067549723  0.067174194            2 
 2776000   0.79954185   -3.0886574    2254.5702  0.067680422  0.067162368            5 
 2777000   0.81247316     -3.07684    2246.0144  0.067399305  0.067150652            6 
 2778000   0.81821126   -3.0917443    2252.2651  0.067562548   0.06713878            2 
 2779000   0.79528238   -3.0630302    2255.1374  0.067624366  0.067127035            2 
 2780000   0.81549097   -3.0894465    2258.3588  0.067696607  0.067115382            6 
 2781000     0.809343   -3.0844212    2251.2361  0.067458831  0.067103439            3 
 2782000   0.78816545   -3.0827959     2254.943  0.067545622  0.067091738            6 
 2783000   0.82511372   -3.1006603    2249.4087  0.067355634  0.067079771            3 
 2784000   0.81830229   -3.0909072    2250.8325  0.067374058  0.067067865            2 
 2785000    0.7977708   -3.0880983    2256.3447  0.067514804  0.067055949            3 
 2786000   0.79846584    -3.100973    2247.3197  0.067220617  0.067044126            5 
 2787000   0.82890656   -3.0869578    2253.3207  0.067375934  0.067032305            4 
 2788000   0.80275088   -3.0713758    2253.4425  0.067355406  0.067020539            5 
 2789000   0.80220845   -3.0932669    2255.1219  0.067381435  0.067008836            4 
 2790000   0.83001979   -3.0693819     2251.912  0.067261409  0.066996896            3 
 2791000   0.80049114   -3.0797205    2254.7538   0.06732216   0.06698519            6 
 2792000   0.81825228   -3.0810784    2257.3263  0.067374831  0.066973192            3 
 2793000   0.81332234    -3.070011     2259.496  0.067415443  0.066961371            6 
 2794000   0.79772392    -3.078333    2260.4612  0.067420104  0.066949571            4 
 2795000   0.80947411   -3.0796701      2252.06  0.067145497  0.066937632            6 
 2796000   0.80389702   -3.0874825    2248.6067  0.067018559  0.066925659            5 
 2797000   0.80301097    -3.096313    2252.0066  0.067095894  0.066913579            7 
 2798000   0.80552735   -3.0940294    2258.2086  0.067256629  0.066901776            2 
 2799000   0.81166531   -3.0921876    2259.6101  0.067274328  0.066889927            2 
 2800000   0.78671974   -3.0709559    2255.8659  0.067138867  0.066878021            7 
 2801000   0.81008984   -3.0645203    2262.2129  0.067303728  0.066866197            3 
 2802000   0.81755515   -3.0794515    2258.6175  0.067172779  0.066854291            2 
 2803000   0.78381365   -3.0883149    2263.6693  0.067299005  0.066842422            8 
 2804000   0.79204916    -3.104692      2262.52  0.067240845   0.06683041           10 
 2805000   0.80820707    -3.078832    2261.9322  0.067199411  0.066818452            2 
 2806000    0.7965998   -3.1122128    2256.8919  0.067025775  0.066806574            3 
 2807000   0.80309557   -3.0646375    2269.3163  0.067370749  0.066794769            5 
 2808000   0.80701568   -3.1167872    2265.4989  0.067233466  0.066782991            4 
 2809000   0.80603688   -3.0903662    2258.2018  0.066993054  0.066771168            4 
 2810000   0.81574725   -3.1019983    2264.6682   0.06716098  0.066759423            3 
 2811000   0.80340079   -3.1218271     2270.318  0.067304576  0.066747783            3 
 2812000   0.78757905   -3.0699787    2268.1989  0.067217843  0.066735958            4 
 2813000   0.80481125    -3.083358    2269.1959  0.067223483  0.066724149            4 
 2814000   0.80827442   -3.0661554    2274.2974  0.067350668  0.066712567            4 
 2815000   0.80711379   -3.1027953    2261.1816  0.066938473  0.066700897            5 
 2816000   0.80931548   -3.0794088    2266.0179  0.067057821  0.066689162            5 
 2817000   0.79802955   -3.1137889    2262.4341     0.066928  0.066677414            3 
 2818000   0.80984671   -3.0882618    2263.6539  0.066940321  0.066665567            6 
 2819000   0.78863194   -3.0930979    2267.3284  0.067025199  0.066653695            3 
 2820000   0.80056844   -3.0855855    2274.2903  0.067207161  0.066642161            2 
 2821000   0.81688316    -3.053415    2277.3055  0.067272405  0.066630486            7 
 2822000   0.78770733   -3.0826337    2271.8243  0.067086708  0.066618866            4 
 2823000   0.79355492   -3.0878862     2259.385  0.066695743  0.066607044            4 
 2824000   0.78322295   -3.1073878    2261.8015  0.066743435  0.066595211            4 
 2825000   0.78821778   -3.1153665    2266.9876  0.066872791  0.066583459            4 
 2826000   0.80756797   -3.1048472    2275.6447  0.067104409  0.066571667            4 
 2827000    0.7981832   -3.0907648    2273.5115   0.06701779  0.066559888            5 
 2828000   0.79267253   -3.0845908    2269.6462  0.066880191  0.066548183            3 
 2829000   0.79660498   -3.0744969    2267.7506  0.066800713  0.066536412            4 
 2830000   0.80426975   -3.0957782    2277.5053   0.06706435  0.066524754            3 
 2831000   0.79432481   -3.0776639    2273.8189  0.066932146  0.066513045            2 
 2832000   0.79786212   -3.1184811    2279.7255  0.067082317  0.066501347            3 
 2833000   0.80167568   -3.0938343    2268.7803  0.066736683  0.066489747            3 
 2834000   0.79439185   -3.0804272    2277.9451  0.066982625  0.066478132            5 
 2835000   0.79924423   -3.0866744    2281.3883  0.067060209  0.066466559            4 
 2836000    0.8021542   -3.0927713    2281.9675  0.067053583  0.066454896            4 
 2837000   0.79410563   -3.1045688    2276.9389  0.066882239  0.066443263            6 
 2838000   0.80876073   -3.0675212    2276.7497  0.066853116  0.066431568            4 
 2839000   0.79213805   -3.0927507    2279.9851  0.066924535  0.066419885            3 
 2840000   0.79561733   -3.1054361    2268.5942   0.06656673  0.066408103            4 
 2841000   0.79464491   -3.0889194    2276.0353  0.066761565  0.066396257            5 
 2842000   0.79860249   -3.0918373    2278.6586  0.066814997   0.06638448            2 
 2843000   0.80376185   -3.0992838    2275.0052  0.066684405   0.06637265            2 
 2844000   0.79728021   -3.1107657    2277.3981  0.066731073  0.066360952            5 
 2845000    0.8025559   -3.0917326    2275.7712  0.066659965   0.06634903           12 
 2846000   0.78627378   -3.1048908    2283.7895  0.066871325  0.066337164            6 
 2847000   0.79988726   -3.1050939    2272.9104  0.066529399  0.066325295            5 
 2848000   0.80878289   -3.1204299    2278.2502  0.066662282  0.066313574            2 
 2849000    0.7875794   -3.1143261     2271.478  0.066440799  0.066301677            5 
 2850000   0.78287837   -3.0716359    2273.7656  0.066484375  0.066289704            7 
 2851000   0.77858013   -3.1128942    2282.1727  0.066706791  0.066277867            4 
 2852000    0.8052816   -3.1050778    2274.4347  0.066457301   0.06626618            6 
 2853000   0.78014223   -3.0673166       2285.7  0.066763056  0.066254569            4 
 2854000   0.79724003   -3.1335438    2283.8642   0.06668606  0.066242722            6 
 2855000   0.79953804   -3.0992487    2279.7655  0.066543067  0.066231123            2 
 2856000   0.80340076   -3.1127179    2298.5264   0.06706718  0.066219224            5 
 2857000   0.80543985   -3.0991961    2292.6309  0.066871744  0.066207509            5 
 2858000   0.79831907   -3.1047565    2278.7439  0.066443432  0.066195665            3 
 2859000   0.77861379   -3.1005395    2282.9379  0.066542437  0.066183702            3 
 2860000   0.78555746   -3.1049114    2281.0542  0.066464282  0.066171781            4 
 2861000   0.80157283   -3.1130585    2279.6321  0.066399631  0.066159838            5 
 2862000   0.79795927   -3.1247824    2280.8749  0.066412615  0.066147799            6 
 2863000   0.78652879   -3.1074168     2286.909  0.066565055  0.066135767            3 
 2864000   0.80209064   -3.1084912    2284.9662  0.066485284  0.066123822            3 
 2865000   0.78187529   -3.1136485    2288.9312  0.066577404  0.066112077            4 
 2866000   0.77997151   -3.1384393    2285.5727  0.066456521  0.066100182            3 
 2867000   0.80222469    -3.101419    2290.3704  0.066572794  0.066088525            4 
 2868000   0.79647498   -3.1177125    2279.7526  0.066241068  0.066076764            4 
 2869000    0.7963287   -3.0942667    2286.9869  0.066428107  0.066064771            3 
 2870000   0.78951352   -3.1089049    2284.1583   0.06632283   0.06605292            5 
 2871000   0.78715022   -3.0839048    2287.1545  0.066386697  0.066041038            7 
 2872000   0.80351071   -3.1105725    2291.4993  0.066489651  0.066029277            2 
 2873000   0.78206983   -3.0887001    2292.2756  0.066489024  0.066017473            5 
 2874000   0.80226553   -3.1140206    2291.3765  0.066439819  0.066005948            3 
 2875000   0.79029867   -3.1161136    2288.5728  0.066335444  0.065994309            3 
 2876000    0.7709757   -3.1031044    2293.0947  0.066443401  0.065982499            3 
 2877000   0.78910779   -3.1349445    2281.8436  0.066094414  0.065970745            7 
 2878000   0.81534355   -3.0835963    2291.9947  0.066365377  0.065958877            4 
 2879000    0.8189515   -3.1400348     2292.524  0.066357649  0.065946994            6 
 2880000   0.79379658   -3.1033914    2289.8097  0.066256068  0.065935211            3 
 2881000   0.77154848   -3.1170306    2286.7446  0.066144411    0.0659235            6 
 2882000   0.79912426   -3.1023374    2290.3156  0.066224715  0.065911668            2 
 2883000   0.79355377    -3.096382    2297.1761  0.066400048  0.065899927            6 
 2884000   0.78688926   -3.0790203    2292.3001  0.066236133  0.065887956            5 
 2885000   0.80265676    -3.112469    2283.2386  0.065951433  0.065876202            2 
 2886000   0.78396461   -3.0896233    2293.3418   0.06622031  0.065864273            2 
 2887000   0.79024193   -3.1044812    2289.3417   0.06608191  0.065852676            4 
 2888000   0.80000103   -3.1061923    2293.2485  0.066171761   0.06584091            8 
 2889000   0.79283877   -3.1122558    2291.1095  0.066087155  0.065829139            5 
 2890000    0.7898803   -3.1001368    2291.3383  0.066070884  0.065817274            4 
 2891000   0.78419646   -3.1141494    2292.4134  0.066079021  0.065805431            2 
 2892000   0.78521187   -3.1049744    2295.7817  0.066153229  0.065793563            2 
 2893000   0.77885978   -3.1270958    2287.5147  0.065892231  0.065781595            7 
 2894000    0.7924432   -3.1325509    2287.9363  0.065881604  0.065769574            4 
 2895000    0.7782705   -3.1011641    2292.5709  0.065992254  0.065757538            5 
 2896000   0.80691665   -3.1235845    2291.4237  0.065936457  0.065745688            4 
 2897000   0.79683048   -3.1409544    2292.5982  0.065947479  0.065733706            3 
 2898000   0.78790339   -3.0950755     2294.072  0.065967104  0.065721774            4 
 2899000   0.80054155   -3.1319822    2303.7003   0.06622112  0.065709827            5 
 2900000   0.78557306   -3.1079666    2296.3358  0.065986662  0.065698021            3 
 2901000   0.77956365   -3.1119257    2299.3624  0.066050856  0.065686149            2 
 2902000   0.77707091    -3.120871    2300.7388  0.066067619  0.065674053            6 
 2903000   0.78831973   -3.1185753    2303.3415  0.066119575   0.06566223            5 
 2904000   0.77425104   -3.1155604    2306.6102  0.066190604  0.065650271           12 
 2905000   0.77879801   -3.1147355    2294.9311  0.065832792   0.06563836            3 
 2906000    0.7926517    -3.108032     2293.989  0.065783121  0.065626495            6 
 2907000   0.79129416   -3.1004952    2293.2144  0.065738287  0.065614516            4 
 2908000   0.79541243   -3.1231091    2295.5287  0.065782001  0.065602486            4 
 2909000   0.76257427   -3.1018131    2299.4143  0.065870699   0.06559054            3 
 2910000   0.78024224   -3.1162788    2300.6518  0.065883498  0.065578539            5 
 2911000   0.78500305   -3.1273458    2291.4916  0.065598637  0.065566465            2 
 2912000   0.76461742   -3.0845244    2314.7099  0.066240553  0.065554452            2 
 2913000   0.76357315    -3.100059     2298.529  0.065754921  0.065542292            4 
 2914000   0.79108205   -3.1195645     2293.759  0.065595945  0.065530144            3 
 2915000   0.79677173   -3.1098507    2295.8437   0.06563304  0.065517883            4 
 2916000   0.80615363   -3.1192841    2296.8408  0.065639026  0.065505644            9 
 2917000   0.79403823   -3.0959652    2308.2508  0.065942486   0.06549353            2 
 2918000   0.80872766   -3.1274142    2301.3882  0.065723903  0.065481467            2 
 2919000   0.78284668   -3.0965781     2297.046  0.065577423  0.065469366            4 
 2920000   0.78528345   -3.0912751    2298.7212  0.065602773  0.065457377            4 
 2921000   0.80061588   -3.1025657    2293.9978   0.06544556  0.065445179            9 
 2922000   0.78527189   -3.1252084    2299.5273   0.06558086  0.065432988            5 
 2923000   0.80036505   -3.1092763    2297.5746  0.065502754  0.065421038            6 
 2924000   0.77924682   -3.1126274    2306.2408  0.065727337  0.065408965            7 
 2925000   0.79267427   -3.1318332    2299.5099  0.065513103  0.065396922            4 
 2926000   0.76879727   -3.1160906     2297.905  0.065445006  0.065384962            5 
 2927000   0.77285179   -3.1050069    2310.1567  0.065771458  0.065372993            2 
 2928000   0.78688512   -3.1091882    2298.7508  0.065424374  0.065360877            4 
 2929000    0.7736099   -3.1078482     2308.175  0.065670167  0.065348921            3 
 2930000   0.78715581   -3.1192777    2302.5497  0.065487761  0.065336819            7 
 2931000   0.77701981   -3.1190493    2309.3329  0.065658276  0.065324808            4 
 2932000   0.78048646    -3.112201    2307.9223  0.065595791  0.065312557            3 
 2933000   0.78292102   -3.1317245    2307.5669  0.065563328  0.065300443            2 
 2934000   0.79679546   -3.0864868    2304.8709  0.065464409  0.065288371            3 
 2935000   0.77867811    -3.140927    2299.1874  0.065280734  0.065276284            3 
 2936000   0.78924254   -3.1179223    2305.6413  0.065441682  0.065264097            3 
 2937000   0.78655668   -3.1208923    2297.2612  0.065181625  0.065251899            8 
 2938000   0.79838938   -3.1029236    2310.0984  0.065523552  0.065239704            4 
 2939000   0.77811904   -3.1087489    2310.1667  0.065503196  0.065227572            3 
 2940000    0.7888453   -3.1021695       2307.9  0.065416666  0.065215328            4 
 2941000   0.77704431   -3.1122394    2310.7872  0.065476233   0.06520325            5 
 2942000   0.78066762   -3.1098815    2300.6357  0.065166433  0.065190961            4 
 2943000    0.7739883   -3.1419378    2312.1223  0.065469539  0.065178706            4 
 2944000   0.77458133   -3.1061724      2310.06  0.065388926  0.065166483            2 
 2945000   0.78286655   -3.1223482    2308.6627  0.065327184  0.065154388            4 
 2946000   0.80001764   -3.1050812    2307.8445  0.065281866  0.065142177            5 
 2947000   0.77506149   -3.1177093     2305.729  0.065199892  0.065130009            4 
 2948000   0.78291142   -3.1178064    2308.9271  0.065268178   0.06511792            8 
 2949000   0.77407863   -3.1233175    2312.8476  0.065356833  0.065105545            2 
 2950000   0.78046776   -3.1220504    2312.9772  0.065338338  0.065093333            6 
 2951000   0.77959741   -3.1208457    2301.7885  0.065000239   0.06508112            5 
 2952000   0.77356037    -3.113284    2314.6834  0.065342237  0.065068884            6 
 2953000   0.77177472   -3.1171158    2314.0021  0.065300883  0.065056844            2 
 2954000   0.76489478   -3.1444395    2312.4543  0.065235114  0.065044608            5 
 2955000   0.76088861   -3.1237106    2305.7487  0.065023934  0.065032273            8 
 2956000   0.77243225   -3.1083621    2306.3151  0.065017905  0.065019877            2 
 2957000   0.79379823   -3.1227047    2314.7249  0.065232919  0.065007602            2 
 2958000    0.7799432   -3.1091438    2311.9154  0.065131716  0.064995263            7 
 2959000   0.77384538   -3.1217565    2308.1471   0.06500358  0.064983104            6 
 2960000    0.7655047   -3.1258706    2314.5527  0.065161956  0.064970856            6 
 2961000   0.79208938   -3.1081489     2312.651  0.065086428  0.064958668            5 
 2962000   0.77113611   -3.1204915    2313.5736  0.065090412  0.064946357            2 
 2963000   0.80067068   -3.1058964    2319.5326  0.065236039  0.064933975            4 
 2964000    0.7681732   -3.1298305    2317.7026  0.065162579  0.064921695            5 
 2965000    0.7878069   -3.1061622    2316.8347  0.065116209  0.064909396            4 
 2966000    0.7718907   -3.0926645    2308.7904  0.064868239  0.064897096            6 
 2967000   0.75457844   -3.1363342    2310.0626   0.06488211  0.064884712            3 
 2968000   0.76557286   -3.1108125     2322.128  0.065199013  0.064872277            6 
 2969000   0.76243331   -3.1485208    2322.1228  0.065176906  0.064859899            4 
 2970000   0.76498989   -3.1283715     2309.308  0.064795399  0.064847375            3 
 2971000   0.78750638    -3.115609    2315.1536  0.064937552  0.064834887            7 
 2972000   0.77355746   -3.1415032     2316.612  0.064956595   0.06482244            6 
 2973000   0.78035788   -3.1504874    2317.8764  0.064970186  0.064809959            5 
 2974000    0.7761697   -3.1336044    2307.1617  0.064648109  0.064797347            3 
 2975000   0.78490574   -3.1237026    2315.2179  0.064852041  0.064784977            2 
 2976000   0.76775314   -3.1261973     2312.021  0.064740733  0.064772384            6 
 2977000   0.78286859   -3.1236806    2312.4488  0.064730959  0.064759854           16 
 2978000    0.7752785   -3.1434536    2307.7931  0.064578943  0.064747342            5 
 2979000   0.78638642   -3.1167028    2317.7866  0.064836818  0.064734729            7 
 2980000   0.75946287   -3.1184239    2313.9128  0.064706733  0.064722299            3 
 2981000   0.77748638   -3.1550869    2318.3885  0.064810145  0.064709816            7 
 2982000   0.78149598   -3.1372777    2322.5606  0.064905003   0.06469739            3 
 2983000   0.75986159    -3.148676    2303.1818  0.064341876  0.064684869            4 
 2984000   0.76633894   -3.1290636    2315.6211  0.064667703  0.064672192            6 
 2985000   0.76817667   -3.1260376    2320.6715  0.064787033  0.064659596            5 
 2986000    0.7630567   -3.1157201    2330.1166   0.06502893  0.064647091            3 
 2987000   0.77225823   -3.1129657    2321.1962  0.064758291  0.064634684            4 
 2988000   0.75753273   -3.1318188      2323.64  0.064804773  0.064622119            5 
 2989000   0.80367629   -3.1096632    2315.6049  0.064559076  0.064609651            6 
 2990000   0.77496617    -3.143643     2311.602  0.064425918  0.064597079            4 
 2991000   0.77823421   -3.1386179    2303.4896  0.064178357  0.064584346            4 
 2992000   0.77572427   -3.1371743    2315.6314  0.064495082  0.064571488            4 
 2993000   0.78253969   -3.1406211    2320.8229   0.06461808  0.064558565            4 
 2994000   0.78410059   -3.1151607    2315.8989  0.064459444   0.06454575            3 
 2995000   0.76819617   -3.1277305     2316.805  0.064463133  0.064532951            7 
 2996000   0.76983095    -3.146594    2315.4565  0.064404109  0.064520087            2 
 2997000   0.77382791   -3.1490367    2311.2836  0.064266588  0.064507316            4 
 2998000   0.78796835   -3.1435235    2320.8203  0.064510236  0.064494701            4 
 2999000   0.76345596   -3.1272319    2320.9333  0.064491868  0.064481881            4 
 3000000   0.76256493   -3.1301334    2320.1111   0.06444753  0.064469076            7 
 3001000   0.75972422   -3.1417674    2318.7445  0.064388107  0.064456347            3 
 3002000   0.77226387   -3.1191437    2319.9053  0.064398881  0.064443567            6 
 3003000   0.77502861   -3.1463377    2318.9762  0.064351655  0.064430845            4 
 3004000   0.78243647   -3.1458998     2319.164  0.064335442  0.064418105            3 
 3005000   0.76660131   -3.1226932    2326.7563   0.06452458  0.064405396            5 
 3006000   0.77237137   -3.1353977     2319.122  0.064291473  0.064392746            4 
 3007000   0.76534097   -3.1346283    2324.1708   0.06441001  0.064380057            3 
 3008000   0.77790847   -3.1344446    2316.9719  0.064189158  0.064367427            4 
 3009000   0.75207342   -3.1580554    2318.7481  0.064217018  0.064354747            4 
 3010000   0.76674371   -3.1332977    2321.6589  0.064276271  0.064342093            5 
 3011000   0.77723704   -3.1281087    2323.9388  0.064318022  0.064329508            4 
 3012000   0.75479539   -3.1311848    2329.3029  0.064445078  0.064316896            4 
 3013000   0.77400468   -3.1429353    2318.2845  0.064118943  0.064304135            3 
 3014000   0.76586105   -3.1270543    2324.5354    0.0642705  0.064291543            4 
 3015000   0.77608455   -3.1396384    2322.4614  0.064191856  0.064278843            4 
 3016000   0.76477172   -3.1391727    2327.2845  0.064303838  0.064266274            5 
 3017000   0.77985266   -3.1286445    2322.5213  0.064150958  0.064253528            6 
 3018000   0.78506193   -3.1287214    2329.3301  0.064317709  0.064240889            3 
 3019000    0.7676928   -3.1563799    2326.7705  0.064225752  0.064228305            4 
 3020000   0.75996938   -3.1671056    2323.0087  0.064100681  0.064215589            6 
 3021000   0.76617306   -3.1534456    2317.0405  0.063914831  0.064203018            2 
 3022000   0.76739274    -3.135536    2327.9201  0.064193694  0.064190424            3 
 3023000   0.76887369   -3.1280321    2329.7368  0.064222538  0.064177734            5 
 3024000   0.77320585   -3.1356723     2322.592  0.064004409  0.064165166            7 
 3025000   0.76644611   -3.1585153    2329.1466  0.064163818   0.06415254            2 
 3026000   0.75713729   -3.1296364    2326.9006  0.064080762  0.064140065            3 
 3027000   0.76105285   -3.1381942    2333.9506  0.064253678  0.064127462            4 
 3028000   0.75394613    -3.144942     2330.702  0.064143055  0.064114846            3 
 3029000   0.76769517   -3.1408639    2341.1564  0.064409497  0.064102228            2 
 3030000   0.76835251   -3.1350048    2330.4169  0.064092874  0.064089554            4 
 3031000   0.77216081   -3.1153796    2337.9318  0.064278339  0.064076962            3 
 3032000   0.77110358   -3.1325887    2332.6098  0.064110866  0.064064332            9 
 3033000   0.75816843    -3.143207    2327.2717  0.063943064  0.064051572            5 
 3034000   0.76215363   -3.1524011    2337.2835  0.064196976  0.064038869            4 
 3035000   0.76978293   -3.1264803    2328.8684  0.063944767  0.064026089            2 
 3036000   0.76280821   -3.1486877    2323.3865  0.063773235  0.064013415            4 
 3037000   0.75811218   -3.1301481    2326.7397  0.063844246  0.064000721            7 
 3038000   0.77164962   -3.1399503    2330.9104  0.063937634   0.06398807            5 
 3039000   0.75482747   -3.1671389    2335.2029  0.064034301   0.06397536            3 
 3040000   0.78077036   -3.1379272    2336.3825  0.064045572  0.063962666            3 
 3041000   0.76854685   -3.1242478    2331.9052  0.063901821  0.063950166            4 
 3042000   0.77482913   -3.1437762    2333.2665  0.063918104  0.063937557            4 
 3043000   0.76813655   -3.1473876    2334.4182  0.063928638   0.06392472            4 
 3044000   0.76904048   -3.1294957    2326.0292  0.063677978  0.063912061            7 
 3045000   0.76978859   -3.1351984    2337.9066  0.063982117  0.063899444            5 
 3046000   0.76406288   -3.1614399    2333.1583  0.063831208  0.063886766            3 
 3047000   0.76855911   -3.1568101    2338.6808  0.063961296  0.063874149            5 
 3048000   0.75568461   -3.1385929     2329.768  0.063696633  0.063861593            2 
 3049000   0.75728674   -3.1426643    2340.5828  0.063971325  0.063849045            5 
 3050000   0.77162065   -3.1390692    2339.9863  0.063934052  0.063836461            6 
 3051000   0.74657789      -3.1295     2340.944  0.063939254  0.063823988            9 
 3052000   0.74378282   -3.1364365    2334.4131  0.063739983  0.063811348            5 
 3053000   0.77824632   -3.1335305    2341.5502  0.063913917  0.063798835            1 
 3054000   0.76284565   -3.1543006    2341.2336  0.063884347  0.063786211            3 
 3055000   0.76417108   -3.1539223     2337.114  0.063751063  0.063773499            6 
 3056000   0.75310746   -3.1525523    2345.4367  0.063957153  0.063760975            6 
 3057000   0.74309052   -3.1347028    2342.6996  0.063861618  0.063748395            4 
 3058000   0.76591504     -3.14557    2334.8437  0.063626654   0.06373568            9 
 3059000   0.77824314   -3.1480947     2339.445  0.063731202  0.063723042            3 
 3060000    0.7683584   -3.1267691     2346.363  0.063898774  0.063710515            5 
 3061000   0.75541025   -3.1515829     2337.294  0.063631003  0.063698069            7 
 3062000   0.78031958   -3.1404089    2339.5034  0.063670351  0.063685483            7 
 3063000    0.7621287   -3.1652856    2339.7993  0.063657614  0.063672824            6 
 3064000   0.76121604   -3.1401295     2340.496  0.063655788  0.063660256            2 
 3065000   0.75101747   -3.1363796    2339.5443  0.063609145  0.063647726            2 
 3066000   0.77166736   -3.1703729    2339.8815  0.063597562  0.063635153            5 
 3067000   0.77822393   -3.1443871    2341.4624   0.06361978  0.063622481            3 
 3068000   0.76800452   -3.1630669    2348.5526   0.06379163  0.063609925            6 
 3069000   0.76083685   -3.1521241    2342.2775  0.063600454  0.063597345            2 
 3070000   0.76717988   -3.1276559    2339.2193  0.063496723  0.063584856            5 
 3071000   0.75287008   -3.1563078    2344.8312  0.063628329  0.063572187            2 
 3072000   0.78156684    -3.167739     2341.038   0.06350472  0.063559511            4 
 3073000   0.76166489   -3.1623709    2338.7932  0.063423179  0.063546828            6 
 3074000   0.75676669   -3.1546597    2342.7297  0.063509264  0.063534219            3 
 3075000   0.77007526    -3.154798    2337.3201  0.063342008  0.063521605           10 
 3076000   0.76605237   -3.1618912    2340.6317  0.063411132  0.063509039            4 
 3077000   0.77586172   -3.1471469    2339.1642   0.06335078  0.063496527            7 
 3078000   0.77007657   -3.1586418    2342.2698  0.063414278   0.06348385            4 
 3079000   0.75873569   -3.1409305    2350.1107  0.063605897  0.063471294            3 
 3080000   0.75929292   -3.1587069    2347.7685  0.063521874  0.063458666            4 
 3081000   0.75819871   -3.1550094    2339.2266   0.06327022   0.06344608            5 
 3082000   0.76658914   -3.1635977    2343.5478  0.063366532  0.063433371            8 
 3083000   0.75800209   -3.1536816    2344.0361  0.063359176  0.063420764            2 
 3084000   0.76754618   -3.1551197    2340.1342  0.063233198  0.063407964            6 
 3085000   0.76093444    -3.158988    2344.3612  0.063326882  0.063395203            2 
 3086000   0.75517458   -3.1511969    2347.0782  0.063379732  0.063382497            3 
 3087000   0.74743787   -3.1501697    2342.4673  0.063234728  0.063369943            8 
 3088000   0.75870383    -3.151709    2348.7826  0.063384678  0.063357333            3 
 3089000   0.75287395   -3.1545476    2338.5445  0.063087959  0.063344761            7 
 3090000   0.77885085   -3.1754485    2344.5095  0.063228411  0.063332222            4 
 3091000    0.7697701   -3.1605533    2347.9934  0.063301881    0.0633196            6 
 3092000   0.74845089    -3.156289    2348.9387  0.063306886  0.063307126            6 
 3093000    0.7505209   -3.1389757     2356.716  0.063495959  0.063294478            3 
 3094000   0.76693412   -3.1519434    2354.1308  0.063405807  0.063281958            3 
 3095000   0.75665738   -3.1585047    2346.4253  0.063177849  0.063269248            3 
 3096000   0.76100243   -3.1461589     2358.052  0.063470391   0.06325661            3 
 3097000   0.74574195   -3.1533128    2343.6116  0.063061338  0.063244006            2 
 3098000   0.74833229   -3.1432639    2351.2347  0.063246038  0.063231406            2 
 3099000    0.7601425   -3.1508287    2351.2087  0.063224929  0.063218673            5 
 3100000   0.75542999   -3.1626104    2347.9932  0.063118096   0.06320599            4 
 3101000   0.76610505   -3.1417524    2354.0936  0.063261678  0.063193172            5 
 3102000    0.7632841   -3.1333017    2358.5574  0.063361202  0.063180601            9 
 3103000   0.75128095   -3.1603201    2354.8096  0.063240133  0.063167986            6 
 3104000    0.7588041   -3.1517945    2347.0484  0.063011393  0.063155376            3 
 3105000   0.76178884   -3.1509981    2353.1863  0.063155832  0.063142815            4 
 3106000   0.74982103   -3.1799969    2349.4878  0.063036268  0.063130203            6 
 3107000   0.74465248   -3.1383309    2362.2296  0.063357729  0.063117688            6 
 3108000   0.76439647   -3.1802429    2359.1078  0.063253641  0.063105165            7 
 3109000   0.74712666   -3.1582945    2348.4566  0.062947803  0.063092516            3 
 3110000   0.75670171   -3.1543545    2357.2982  0.063164474  0.063079904            2 
 3111000   0.76500173   -3.1736262    2348.4581  0.062907375  0.063067304            7 
 3112000   0.77686304   -3.1781792    2358.8629  0.063165782  0.063054632            4 
 3113000   0.74931204    -3.167136    2352.2339  0.062968036  0.063041926            3 
 3114000   0.75170649   -3.1921269    2351.9546  0.062940339  0.063029342            3 
 3115000   0.74946497   -3.1603359    2359.0563  0.063110121  0.063016811            3 
 3116000   0.76630642   -3.1599898     2354.747   0.06297462  0.063004244            4 
 3117000   0.75198275   -3.1804074    2350.7088  0.062846454  0.062991621            6 
 3118000   0.76647925   -3.1640825    2360.2621  0.063081624   0.06297917            2 
 3119000    0.7383767    -3.145618    2355.3416  0.062929934  0.062966684            3 
 3120000   0.74732309   -3.1646822    2355.0758  0.062902665  0.062954172            6 
 3121000   0.75563688   -3.1759832    2355.6068  0.062896689  0.062941726            7 
 3122000   0.75474452    -3.161264    2360.4836  0.063006716  0.062929166            6 
 3123000   0.74709511   -3.1523139    2364.0847  0.063082631  0.062916643           11 
 3124000   0.75386819   -3.1719227    2350.0323  0.062687588  0.062904082            6 
 3125000   0.73947159   -3.1679308    2356.7078  0.062845542  0.062891416            3 
 3126000   0.73078275   -3.1548558    2354.9374  0.062778241  0.062878875            7 
 3127000   0.74840651   -3.1700181    2367.5274  0.063093685  0.062866375           12 
 3128000   0.76464598   -3.1583724      2366.89  0.063056533  0.062853985            4 
 3129000   0.74734959   -3.1636797    2360.1069  0.062855729  0.062841493            7 
 3130000   0.73977586   -3.1482139    2361.1054  0.062862231  0.062829042            3 
 3131000   0.75153869   -3.1602893     2354.069  0.062654877  0.062816578            4 
 3132000   0.74556201   -3.1552295    2365.0383  0.062926732  0.062804049            4 
 3133000   0.74409183   -3.1729584    2356.1991  0.062671537  0.062791509            3 
 3134000   0.74088609   -3.1590308    2358.7382  0.062719054  0.062778936            3 
 3135000   0.74026584   -3.1970799     2358.604  0.062695482  0.062766443            8 
 3136000   0.74422918    -3.164865    2362.9411  0.062790739  0.062753904            5 
 3137000    0.7374072    -3.167277    2360.8792  0.062715949  0.062741329            7 
 3138000   0.72369417   -3.1666415      2368.71  0.062903919  0.062728932            5 
 3139000   0.76002824   -3.1607667    2369.2791  0.062898989  0.062716608            5 
 3140000   0.75498981    -3.174527    2365.4505  0.062777348  0.062704272            4 
 3141000   0.74809188   -3.1702902    2360.8666  0.062635748  0.062691818            7 
 3142000   0.75569576   -3.1565555    2375.0755  0.062992666  0.062679486            4 
 3143000   0.74577318   -3.1793465     2377.043  0.063024789  0.062667117            3 
 3144000   0.74289512   -3.1888285    2366.2419  0.062718455  0.062654683            6 
 3145000    0.7424165    -3.175301    2369.3689  0.062781369   0.06264231            7 
 3146000   0.75503477   -3.1582875    2364.3324  0.062628003  0.062630073            8 
 3147000   0.74835833   -3.1791132    2367.8626  0.062701582  0.062617736            3 
 3148000   0.74617159   -3.1746025    2376.6654  0.062914691  0.062605367            4 
 3149000   0.72829427   -3.1900814    2382.0217   0.06303646  0.062593064            3 
 3150000   0.73951871   -3.1754238    2367.7447  0.062638749  0.062580773            4 
 3151000   0.75071608   -3.1863142    2368.5615  0.062640472   0.06256855            4 
 3152000   0.75724086   -3.1741172    2369.9776  0.062658038   0.06255635            5 
 3153000   0.74915229   -3.1981109    2372.0706  0.062693481  0.062544107            7 
 3154000   0.74474949   -3.1650565    2363.9268  0.062458433  0.062531755            4 
 3155000   0.74996329   -3.1612909    2369.9602  0.062597998  0.062519423            7 
 3156000   0.74584714   -3.1897841    2367.6682  0.062517644  0.062507122            4 
 3157000   0.76629896   -3.1901921    2371.2852  0.062593316  0.062494822            5 
 3158000   0.73981351   -3.1690127    2370.2721  0.062546762  0.062482514            4 
 3159000   0.75041249   -3.1574574    2374.5774  0.062640535  0.062470196            4 
 3160000   0.74863031   -3.1567353    2374.4255  0.062616707  0.062457919            2 
 3161000    0.7349497   -3.1744029    2374.6096  0.062601749  0.062445616            3 
 3162000   0.74186224   -3.1612725    2373.5445  0.062553882  0.062433305            4 
 3163000   0.74163492   -3.1989731    2377.1075  0.062627978  0.062420956            6 
 3164000   0.74348785   -3.1761783    2375.0173  0.062553131  0.062408732            5 
 3165000   0.74814843   -3.1579577    2374.4838  0.062519319  0.062396477            3 
 3166000   0.74565452   -3.1690312    2380.3819  0.062654819  0.062384278            6 
 3167000   0.73647787   -3.1734301    2372.7966  0.062435444  0.062372036            4 
 3168000   0.75200679   -3.1503536    2385.2114  0.062742304  0.062359811            5 
 3169000   0.75361849   -3.1983165    2371.2131    0.0623544  0.062347541            2 
 3170000   0.73822565   -3.1624598    2377.4269  0.062498078   0.06233516            3 
 3171000   0.76623662   -3.1754451    2379.0729  0.062521625  0.062322875            4 
 3172000   0.74652078   -3.1893045    2384.3176  0.062639701  0.062310587            3 
 3173000   0.75767186   -3.1732272    2375.4968  0.062388298  0.062298235            4 
 3174000   0.74581262   -3.1824577    2378.8178  0.062455834   0.06228589            4 
 3175000   0.74898611   -3.1758373    2385.6142  0.062614547  0.062273522            5 
 3176000   0.74148959   -3.1477119    2383.0464  0.062527457  0.062261262            5 
 3177000   0.72480958   -3.1444254    2376.2308  0.062328999  0.062248989            3 
 3178000    0.7534239   -3.1776387    2382.0767  0.062462679  0.062236568            3 
 3179000   0.74783874   -3.1745043    2379.5721  0.062377376  0.062224467            3 
 3180000   0.74691527   -3.1750713     2385.181  0.062504742  0.062212292            3 
 3181000   0.73752652   -3.2051042    2368.1491  0.062038904  0.062200013            6 
 3182000   0.75357416   -3.1490831    2382.3106  0.062390284  0.062187712            3 
 3183000    0.7409953   -3.1607339    2384.7766  0.062435245  0.062175468            6 
 3184000    0.7428258    -3.142987    2383.5985  0.062384801  0.062163321            4 
 3185000   0.74893254   -3.1636979    2383.2313  0.062355607  0.062151134            5 
 3186000   0.74178896   -3.1758507    2377.5757  0.062188107  0.062139025            8 
 3187000    0.7425603   -3.1475783    2382.0648  0.062285975   0.06212687            7 
 3188000    0.7430354   -3.1822239    2382.5532  0.062279203  0.062114851            5 
 3189000   0.74551208   -3.1696022    2378.2482  0.062147177  0.062102634            5 
 3190000   0.72460889   -3.1619539     2392.498  0.062499949   0.06209048            5 
 3191000   0.74735006   -3.1999197     2377.969  0.062100935  0.062078259            7 
 3192000   0.72640269   -3.1893653     2378.229  0.062088268  0.062065902            2 
 3193000   0.73998085   -3.1917233    2379.2237  0.062094783  0.062053564            3 
 3194000   0.74069719   -3.1659815    2383.8749  0.062196694  0.062041192            5 
 3195000   0.76182708   -3.1785104    2377.5977  0.062013503  0.062028795            3 
 3196000    0.7321094   -3.1692464    2378.0018  0.062004636  0.062016288            3 
 3197000   0.75620239    -3.173153    2377.1583  0.061963254  0.062003875            4 
 3198000   0.74345787   -3.1795309    2379.1661  0.061996198  0.061991429            3 
 3199000   0.74716895   -3.1981439    2383.2499  0.062083201  0.061979078           10 
 3200000   0.73594362   -3.1694794    2385.9904  0.062135167  0.061966723            3 
 3201000   0.74123002   -3.1811075    2381.1016  0.061988482  0.061954562            3 
 3202000   0.73706387   -3.1928892     2385.305  0.062078519  0.061942241            3 
 3203000   0.73835198   -3.1758236    2381.2449  0.061953506  0.061929772            8 
 3204000   0.74925428   -3.1784734    2376.7798  0.061818035  0.061917298            7 
 3205000   0.74853095   -3.1736839    2381.5237  0.061922094  0.061905053            5 
 3206000   0.73072664   -3.1693919    2393.4982   0.06221403  0.061892648           11 
 3207000   0.73139607    -3.167214    2381.1246  0.061873106  0.061880239            9 
 3208000   0.73308075   -3.1782262    2385.5526  0.061968843  0.061867847            6 
 3209000    0.7502263   -3.1753387    2382.5829  0.061872414  0.061855459            5 
 3210000   0.74719636   -3.1838469    2383.8209  0.061885277  0.061843172            4 
 3211000    0.7352677   -3.1628381    2392.1034  0.062080955  0.061830907            3 
 3212000   0.73743632   -3.1915164    2394.5557  0.062125252  0.061818564            3 
 3213000   0.72707756   -3.1622057    2388.3275   0.06194438  0.061806199            7 
 3214000    0.7397912    -3.163244    2389.5606  0.061957079  0.061793803            5 
 3215000   0.74100624   -3.1888805    2387.2981  0.061879162  0.061781432            4 
 3216000   0.72688812   -3.1843446    2386.1603  0.061830438  0.061768943            8 
 3217000   0.74143791    -3.184252    2387.1604  0.061837126  0.061756582            6 
 3218000   0.72735388   -3.1894682    2381.2532  0.061664937  0.061744149            5 
 3219000   0.75513975   -3.1909272    2389.4321  0.061857515  0.061731647            2 
 3220000   0.73137304   -3.1887188    2383.4388  0.061683198  0.061719102            4 
 3221000   0.73499356   -3.1789999    2389.2672  0.061814841  0.061706506            3 
 3222000   0.72740436   -3.1914401    2389.9477  0.061813255  0.061694016            4 
 3223000   0.71966842   -3.1796325    2394.2174  0.061904472  0.061681563            8 
 3224000   0.74770354    -3.160698    2386.1221  0.061676027  0.061669052            7 
 3225000   0.74472013   -3.1832082    2394.7512  0.061879876  0.061656563            3 
 3226000   0.73654516   -3.1740639    2393.9734  0.061840603  0.061644118            4 
 3227000   0.72332547   -3.2173754    2382.2816  0.061519512  0.061631618            4 
 3228000   0.73082078   -3.1942392    2394.7497  0.061822329    0.0616192            4 
 3229000   0.74242595   -3.1838384    2388.8207  0.061650169  0.061606893           17 
 3230000   0.73892844   -3.1854133    2389.6372  0.061652147  0.061594488            7 
 3231000   0.75064983    -3.190964    2388.9686   0.06161582  0.061581899            4 
 3232000   0.72585698   -3.1915058     2391.059  0.061650654  0.061569366            5 
 3233000   0.74590107   -3.1719628    2388.9661  0.061577641  0.061557005            5 
 3234000   0.74472782   -3.1910952    2390.3134  0.061593317  0.061544531            5 
 3235000   0.73316705   -3.1832268    2386.1036  0.061465833  0.061532038            7 
 3236000    0.7278862   -3.1847587    2387.4583  0.061481724  0.061519462            6 
 3237000   0.72220994   -3.1935576    2390.7898  0.061548498  0.061506915            5 
 3238000    0.7410526    -3.211502    2385.2527  0.061386986  0.061494334            3 
 3239000   0.73259017   -3.2096116     2385.281  0.061368762  0.061481932            5 
 3240000   0.72607707   -3.2092986    2392.2857  0.061529983  0.061469549            7 
 3241000   0.73828662   -3.1816173     2395.367  0.061590223  0.061457143            5 
 3242000   0.74251935   -3.2229488    2388.0561  0.061383305  0.061444718            5 
 3243000   0.72346778    -3.202541    2391.9141  0.061463513   0.06143208            4 
 3244000    0.7305857   -3.2007057    2393.6515  0.061489198  0.061419604            3 
 3245000   0.73168723   -3.2113257    2399.1624  0.061611772    0.0614072            5 
 3246000   0.72340533   -3.1842896    2399.2903  0.061596076  0.061394712            7 
 3247000   0.74471863   -3.1938107    2385.4895  0.061222911  0.061382348            3 
 3248000   0.72727152   -3.1560662    2404.6109  0.061694656  0.061369953            7 
 3249000   0.71679627   -3.1910772    2390.0621  0.061302507  0.061357547            4 
 3250000   0.74093801   -3.1881746    2397.9955  0.061487065  0.061345142            3 
 3251000   0.74166748   -3.1734482     2404.956  0.061646571  0.061332743            7 
 3252000     0.716988   -3.1940265    2388.9128  0.061216504  0.061320306            4 
 3253000    0.7194197   -3.1917449    2392.5792  0.061291609  0.061307871            3 
 3254000   0.71979109   -3.2032949    2392.6646   0.06127496  0.061295379            6 
 3255000    0.7239955    -3.224766    2395.0582  0.061317413  0.061282825            3 
 3256000   0.73468956   -3.2192468    2392.4301  0.061231318  0.061270368            3 
 3257000   0.72368641   -3.2038525    2386.6169  0.061063784  0.061257742            3 
 3258000   0.71891956     -3.18047    2393.9635  0.061232953  0.061245264            6 
 3259000   0.73595568   -3.2102277    2400.8041   0.06138908  0.061232933            4 
 3260000   0.73227941   -3.2036804    2391.7273  0.061138224  0.061220329            7 
 3261000   0.69406254   -3.1741846    2399.2767  0.061312396  0.061207749            6 
 3262000   0.74208701   -3.1795111    2401.4588  0.061349346  0.061195357            6 
 3263000   0.72503196   -3.1805714     2404.488  0.061407906  0.061182889           11 
 3264000   0.71922071    -3.202458    2401.8728  0.061322323   0.06117038            5 
 3265000   0.73251532   -3.1897051    2397.0591  0.061180681  0.061157922            4 
 3266000   0.71721657   -3.1918778    2397.2966  0.061168009  0.061145381            3 
 3267000    0.7369507   -3.1875009    2393.5134  0.061052785  0.061132776            4 
 3268000   0.71693287   -3.1948204    2393.8689  0.061043169   0.06112011            4 
 3269000   0.72696723    -3.206697    2394.9131  0.061051115  0.061107539            3 
 3270000   0.71018067   -3.2057877    2397.6317  0.061101725  0.061095045            7 
 3271000   0.72639653   -3.1851854    2396.9608  0.061065954  0.061082481            3 
 3272000   0.74157357   -3.1792279    2406.7561  0.061296763  0.061070072            5 
 3273000   0.73253428   -3.2067446    2401.1361  0.061134946  0.061057659            5 
 3274000   0.73070691   -3.1624863     2400.399  0.061097511  0.061045087            3 
 3275000   0.72775493   -3.2035547    2402.0353  0.061120491  0.061032593            7 
 3276000   0.71001934   -3.1958767    2404.4012  0.061162017    0.0610201            8 
 3277000   0.72859394   -3.1964653    2400.5616  0.061045713  0.061007633            2 
 3278000   0.72913607   -3.1992087    2402.6957  0.061081342  0.060995177            4 
 3279000   0.72378747   -3.1988673    2410.1748   0.06125279  0.060982806            5 
 3280000   0.73791304   -3.1814017    2406.1116  0.061130884  0.060970406            3 
 3281000   0.71920423   -3.2040026    2406.8493  0.061130989  0.060958016            4 
 3282000   0.74301436   -3.1951377    2403.8803  0.061036978  0.060945619            5 
 3283000   0.72708723   -3.2148706    2406.9423  0.061096109  0.060933294            6 
 3284000   0.72392784    -3.206986    2408.7041  0.061122211  0.060920854            4 
 3285000   0.73607475   -3.2028627     2402.698  0.060951242  0.060908393            5 
 3286000   0.72799172   -3.2135313    2407.5686  0.061056214  0.060895983            5 
 3287000   0.71702913   -3.2086181     2405.899  0.060995311  0.060883512            4 
 3288000   0.73313089    -3.189514     2406.883  0.061001698   0.06087105            4 
 3289000   0.71731539   -3.1925952    2404.8339  0.060931232  0.060858807            7 
 3290000   0.72644586   -3.2069008     2401.378  0.060825176  0.060846479            5 
 3291000   0.71057318   -3.2117955    2418.7769  0.061247263   0.06083418            3 
 3292000   0.72147522   -3.2012232    2407.3585  0.060939614   0.06082192            5 
 3293000    0.7113745   -3.1944233    2404.5231  0.060849356  0.060809602            6 
 3294000   0.72184239    -3.207526    2401.6966  0.060759375   0.06079721            8 
 3295000   0.72806983   -3.2002873    2405.8219  0.060845267  0.060784925            5 
 3296000   0.72512927   -3.1820741    2412.8767  0.061005176  0.060772662            5 
 3297000   0.72514332   -3.1991063    2405.6004   0.06080276  0.060760313            5 
 3298000   0.73316371   -3.2046753    2405.3116  0.060777026  0.060747958            7 
 3299000   0.71285424   -3.1929501    2406.1922  0.060780847  0.060735713            5 
 3300000   0.71665679   -3.2098639    2411.0992  0.060886344  0.060723308            5 
 3301000   0.72980891   -3.2071231    2402.2652  0.060644885  0.060711036            8 
 3302000   0.71282856    -3.213246     2411.855  0.060868539  0.060698705            4 
 3303000   0.70336566   -3.1973857    2412.8611  0.060875494  0.060686282            6 
 3304000   0.73861454   -3.2035467    2407.5996  0.060724364  0.060673882            3 
 3305000   0.71753645   -3.2086519    2421.4985  0.061056443  0.060661604            7 
 3306000   0.71787735   -3.1950512    2411.1693   0.06077761  0.060649371            4 
 3307000   0.71785852   -3.1774335    2410.4927  0.060742182  0.060637046            7 
 3308000   0.73075871   -3.2045772    2410.9463  0.060735246    0.0606247            4 
 3309000   0.71727654     -3.21751    2408.3936  0.060652604  0.060612385            4 
 3310000   0.71834092   -3.2287442     2411.584  0.060714602  0.060600034            3 
 3311000   0.72114158   -3.2205324    2420.7384  0.060926669  0.060587823            7 
 3312000   0.71220586   -3.2119365    2411.4682  0.060675025   0.06057563            3 
 3313000   0.72603063   -3.2202169    2407.6191  0.060559893  0.060563272            8 
 3314000   0.73307106   -3.1936294     2419.534  0.060841229  0.060550974            5 
 3315000   0.70042271    -3.212978    2410.6837  0.060600394  0.060538664            4 
 3316000    0.7269088   -3.2080217    2418.9836  0.060790702  0.060526355            8 
 3317000    0.7091502   -3.2058905    2419.2354  0.060778701   0.06051396            4 
 3318000   0.71650243   -3.1940006    2410.4291  0.060539209  0.060501578            5 
 3319000   0.72968934   -3.2046453    2403.1682  0.060338661  0.060489217            5 
 3320000   0.72276076      -3.2342    2414.4025  0.060602472   0.06047675            7 
 3321000    0.7037366   -3.2302984     2409.605  0.060463842  0.060464268            5 
 3322000   0.71737754   -3.2073839    2420.3859  0.060716083  0.060451842            4 
 3323000   0.72909498   -3.1913796    2422.3037  0.060745905  0.060439478            6 
 3324000   0.71920894   -3.2071473    2416.3845  0.060579235  0.060427194            5 
 3325000   0.71807621   -3.2057627    2415.8379  0.060547315   0.06041483            7 
 3326000   0.70204553   -3.2147732    2419.7036  0.060625967  0.060402485            4 
 3327000   0.71296343   -3.2205402     2413.331  0.060448125    0.0603901            6 
 3328000    0.7214596   -3.2034299    2419.0293   0.06057265   0.06037768            3 
 3329000   0.72025504   -3.2210151    2418.8316  0.060549505  0.060365316            9 
 3330000   0.70818122    -3.207059    2416.0392  0.060461441  0.060352929            5 
 3331000   0.71740421   -3.2152699    2416.8479  0.060463522  0.060340608            4 
 3332000   0.72766039   -3.2172437    2423.7741  0.060618601  0.060328231            4 
 3333000   0.71645904   -3.1972102    2424.9082  0.060628768  0.060315997            5 
 3334000    0.7091843   -3.2198084    2423.1461  0.060566539  0.060303743            8 
 3335000   0.70562243   -3.2064256    2419.0552  0.060446157  0.060291582            3 
 3336000   0.71586616    -3.228003    2416.5358  0.060365104   0.06027939            7 
 3337000   0.71029244   -3.2377771    2422.2443   0.06048957  0.060267221            3 
 3338000   0.70407362    -3.191284    2434.4651  0.060776541  0.060255023            3 
 3339000   0.71190655   -3.2154327    2420.8257  0.060417931  0.060242872            5 
 3340000   0.69522128   -3.2178521     2416.167  0.060283608  0.060230707            5 
 3341000   0.73602825   -3.2241401     2416.704  0.060278958  0.060218499            5 
 3342000   0.72812171      -3.2225    2426.0247  0.060493336  0.060206288            4 
 3343000   0.72902054   -3.2291834    2423.9102   0.06042253  0.060194062            5 
 3344000   0.71348845    -3.224212     2425.372   0.06044089   0.06018184            2 
 3345000   0.70908671   -3.1919155    2424.9431  0.060412134  0.060169646            4 
 3346000   0.72374447   -3.2058704    2420.8935  0.060293222  0.060157354            9 
 3347000   0.71428502   -3.2186935    2425.3497   0.06038616  0.060145255            3 
 3348000   0.72033087    -3.207902    2433.4712  0.060570271  0.060133176            7 
 3349000   0.72343654   -3.2141655    2423.5959  0.060306458   0.06012098            5 
 3350000   0.70788148   -3.2134389    2421.3577  0.060232777  0.060108876            8 
 3351000   0.70532619   -3.1997654    2429.8411  0.060425772  0.060096707            5 
 3352000   0.70710342   -3.2125982    2425.4102  0.060297588   0.06008452            3 
 3353000   0.72343465   -3.2031673     2431.588  0.060433144  0.060072405            9 
 3354000   0.71669899   -3.2094582    2427.7985  0.060320972  0.060060289            8 
 3355000   0.71151578    -3.247351    2427.3784   0.06029256  0.060048002            8 
 3356000   0.74650374   -3.2179196    2425.4757  0.060227347  0.060035735            5 
 3357000   0.71005323   -3.2234432    2426.2758  0.060229268  0.060023511            6 
 3358000   0.72382286   -3.2197212     2429.792  0.060298589  0.060011184            6 
 3359000   0.71619232   -3.2166309    2423.2154  0.060117481  0.059999019            4 
 3360000   0.71904307   -3.2384539    2422.2636  0.060075981  0.059986756            5 
 3361000   0.71226713   -3.2037644     2426.524  0.060163742  0.059974532            4 
 3362000    0.7070194   -3.2263746    2425.7202  0.060125921  0.059962461            8 
 3363000   0.72991267   -3.2105947    2422.2103  0.060021071  0.059950273            4 
 3364000   0.70194449   -3.2027176    2424.4845  0.060059564  0.059938054            3 
 3365000   0.71880455   -3.2281616    2423.2736   0.06001173  0.059925733            3 
 3366000    0.7174315   -3.2075357    2422.3069  0.059969968  0.059913456            5 
 3367000   0.71780917   -3.2172399    2420.8665  0.059916507  0.059901156            6 
 3368000   0.70759196   -3.2237661    2419.2116   0.05985777  0.059888755            5 
 3369000   0.71514979    -3.223292    2423.1659  0.059937812  0.059876361            3 
 3370000   0.70665194   -3.2131373     2422.232  0.059896934   0.05986404            5 
 3371000   0.72176501   -3.2401957    2425.8161  0.059967766  0.059851715            4 
 3372000   0.70186761   -3.2270419    2421.6273  0.059846462  0.059839302            8 
 3373000   0.71875665     -3.21294    2424.8193  0.059907582  0.059826917            3 
 3374000   0.71209805   -3.2609378    2420.2837  0.059777804  0.059814518            6 
 3375000    0.7164502   -3.2211437    2423.7686  0.059846138  0.059801995            5 
 3376000   0.70343294   -3.2310622    2425.6751  0.059875471  0.059789627            7 
 3377000   0.69745052   -3.2301696    2426.5235  0.059878678  0.059777375            4 
 3378000   0.71972936   -3.2115425    2431.3441  0.059979873  0.059765164            4 
 3379000   0.69046148   -3.2050571    2432.5429  0.059991687  0.059752928            8 
 3380000   0.70847984   -3.2181627     2431.263  0.059942381  0.059740634            5 
 3381000   0.72548829   -3.2096865    2432.7983  0.059962494  0.059728344            5 
 3382000   0.71218886   -3.2403544    2429.2719  0.059857873  0.059716061            7 
 3383000   0.71992584   -3.2229967    2431.7432  0.059901055  0.059703687            7 
 3384000   0.69260061   -3.2034226    2429.9511  0.059839221  0.059691446            6 
 3385000   0.71825921   -3.2227138    2425.3811  0.059709037  0.059679119            3 
 3386000   0.70270904    -3.235448     2427.284  0.059738235  0.059666676            7 
 3387000   0.70894052   -3.2259763    2429.1615  0.059766793  0.059654161            5 
 3388000   0.71269395   -3.2023871    2430.1834  0.059774286  0.059641693            8 
 3389000   0.71693825   -3.2101372    2433.0361  0.059826795  0.059629356           12 
 3390000   0.70537255   -3.2367813    2425.8828  0.059633303   0.05961689            8 
 3391000   0.71534948   -3.2165081    2433.7831  0.059809868  0.059604522            6 
 3392000   0.72974453   -3.2299913     2424.005  0.059552009  0.059592041            4 
 3393000   0.70914346   -3.2175179    2428.5159  0.059645249  0.059579484            3 
 3394000   0.71459339   -3.2278293    2432.1241  0.059716266  0.059567051            8 
 3395000   0.71445427   -3.2079354    2432.6141  0.059710704  0.059554639            4 
 3396000   0.71686778   -3.2448948    2427.3296  0.059563447  0.059542222            8 
 3397000   0.70005741   -3.2228876    2445.8134  0.059999348  0.059529867            6 
 3398000    0.6905154   -3.2081789    2428.6995  0.059561984  0.059517442            6 
 3399000   0.72130788   -3.2264777    2428.9498  0.059550599  0.059505042            3 
 3400000   0.70287761   -3.2147612    2432.9184  0.059630353  0.059492615            3 
 3401000   0.71959281   -3.2189315     2427.933  0.059490664  0.059480094            2 
 3402000   0.71641863   -3.2182302      2429.07   0.05950103   0.05946772            6 
 3403000   0.71699679   -3.2436704     2434.446  0.059615192  0.059455261            5 
 3404000   0.70498571   -3.2358263    2435.3487  0.059619777  0.059442867            5 
 3405000   0.72422713   -3.2339676    2422.1237  0.059278602  0.059430303            6 
 3406000    0.7038352   -3.2350872    2428.4385    0.0594157  0.059417745            3 
 3407000   0.69373213   -3.2399883    2431.1662  0.059464979  0.059405214            9 
 3408000   0.70396391   -3.2281673    2420.4381  0.059185205   0.05939262            2 
 3409000    0.7059317   -3.2365497    2430.4224  0.059411909   0.05938006            6 
 3410000   0.72280669   -3.2405645      2423.39   0.05922263  0.059367468            5 
 3411000   0.70287451   -3.2303271    2431.0557  0.059392547  0.059354895            3 
 3412000   0.71638488   -3.2317856    2429.6224  0.059340132  0.059342462            8 
 3413000   0.71562732   -3.2130328    2429.7449  0.059325738  0.059329929            5 
 3414000   0.71223049   -3.2294398    2426.9881  0.059241068  0.059317494            7 
 3415000   0.69947817   -3.2163244     2431.279  0.059328427  0.059305029            8 
 3416000   0.69203122   -3.2421817    2431.9975  0.059328589  0.059292623            5 
 3417000    0.6910809   -3.2398501    2435.3999  0.059394202  0.059280214            3 
 3418000    0.7129237   -3.2508341    2435.6156  0.059382085  0.059267727            7 
 3419000   0.70429948   -3.2562405    2430.7788  0.059246826   0.05925526            5 
 3420000   0.71098119   -3.2184898    2435.6429  0.059348025  0.059242877            6 
 3421000   0.71018772   -3.2289269    2435.8677  0.059336152  0.059230474            5 
 3422000   0.69375486   -3.2538872    2440.0186  0.059419895   0.05921805            4 
 3423000   0.70974089   -3.2492678    2433.0988  0.059234072  0.059205633            4 
 3424000   0.71595787   -3.2309256     2441.493  0.059421071  0.059193215            4 
 3425000   0.70065608   -3.2417225    2435.2542  0.059251928  0.059180799            5 
 3426000   0.68240105   -3.2389387    2440.9334  0.059372772  0.059168291            4 
 3427000   0.70252563   -3.2405587    2433.1001  0.059164966  0.059155844            9 
 3428000   0.70973918   -3.2340462    2431.1487  0.059100269  0.059143372           10 
 3429000   0.70472582   -3.2468859    2429.2817  0.059037662  0.059130933            4 
 3430000   0.70866874   -3.2122156    2435.7566  0.059177761   0.05911857            9 
 3431000   0.70304451   -3.2244147    2435.9106  0.059164253  0.059106175            5 
 3432000    0.7097282   -3.2229442     2438.649  0.059213506  0.059093729            9 
 3433000   0.69845988   -3.2132133     2435.243   0.05911358  0.059081271            7 
 3434000   0.69985835   -3.2205884    2433.6178  0.059056925  0.059068848            3 
 3435000   0.71341435   -3.2242175    2434.9906  0.059073037  0.059056495            5 
 3436000   0.70907757   -3.2297513    2445.7199  0.059316063  0.059044159            3 
 3437000   0.70673584   -3.2427798    2439.0183  0.059136318  0.059031828            5 
 3438000    0.7016511   -3.2383997     2443.525  0.059228354  0.059019427            5 
 3439000   0.68019908   -3.2533022    2432.8614  0.058952733   0.05900696            3 
 3440000   0.70300568   -3.2609372    2441.4919  0.059144667  0.058994504            5 
 3441000   0.70101378   -3.2367712    2437.9524  0.059041762  0.058982102            5 
 3442000   0.68481787   -3.2548627    2438.7647  0.059044275   0.05896967            6 
 3443000   0.71196082   -3.2440548    2438.0718  0.059010353  0.058957222            9 
 3444000   0.70696876   -3.2325054    2440.5468  0.059053107  0.058944798            5 
 3445000   0.69470959    -3.237807    2444.2792  0.059126252  0.058932491            8 
 3446000   0.69974008   -3.2368683    2434.0877  0.058862636  0.058920198            6 
 3447000   0.69927459   -3.2515946    2433.4114  0.058829209  0.058907774           12 
 3448000   0.70480938   -3.2345033    2447.0995  0.059142968  0.058895324            5 
 3449000   0.68245499   -3.2707881    2437.6471  0.058897436  0.058882899            6 
 3450000   0.69908527   -3.2359669    2438.3921  0.058898359  0.058870411            4 
 3451000   0.69505842   -3.2269168    2445.2041  0.059045786  0.058857971            4 
 3452000   0.69655924   -3.2299676    2440.1976  0.058907822  0.058845545            4 
 3453000   0.69932911   -3.2338808    2442.3767  0.058943352  0.058833118            3 
 3454000   0.70663128   -3.2744987    2440.2352  0.058874618  0.058820606            8 
 3455000   0.70270993    -3.231599    2444.5764  0.058962286  0.058808147            5 
 3456000   0.70701269   -3.2363735    2439.1558  0.058814521  0.058795746            3 
 3457000   0.68623706   -3.2486528    2447.5041   0.05899875  0.058783377            7 
 3458000   0.68931637   -3.2599577    2448.3648  0.059002428  0.058771062           10 
 3459000    0.7063939   -3.2501673    2446.8518  0.058948921  0.058758586            4 
 3460000   0.70425925   -3.2731565    2444.9672  0.058886492  0.058746096            5 
 3461000   0.69546289   -3.2461098    2439.3377  0.058733932  0.058733645            7 
 3462000   0.69348086   -3.2365048    2446.5438  0.058890423  0.058721361            5 
 3463000    0.6914415   -3.2692382    2437.5677  0.058657418  0.058708926           14 
 3464000    0.6986248   -3.2402404    2443.3909  0.058780575  0.058696574            9 
 3465000   0.69551433   -3.2568538    2437.1294  0.058613021  0.058684131            4 
 3466000   0.68950458   -3.2423452    2446.5641  0.058822948  0.058671723            4 
 3467000   0.68815259    -3.240004    2443.0712  0.058722027  0.058659319            9 
 3468000   0.68052238   -3.2358585    2447.3913  0.058808904  0.058646953            4 
 3469000   0.69914918   -3.2560484    2444.6829  0.058726887  0.058634547            6 
 3470000   0.69886508   -3.2513453    2443.5576  0.058682939  0.058622127            7 
 3471000   0.68088857   -3.2533252    2442.8595  0.058649274  0.058609705            9 
 3472000   0.69439977   -3.2437441    2451.8286  0.058847653  0.058597289            6 
 3473000   0.69275896   -3.2599179    2448.5358  0.058751699  0.058584905            5 
 3474000   0.69285367   -3.2554994    2442.9304  0.058600327   0.05857254            7 
 3475000   0.69859989   -3.2439486    2438.6226  0.058480159  0.058560096            7 
 3476000   0.70430334   -3.2521113    2444.0058   0.05859239  0.058547689            4 
 3477000   0.68914652   -3.2588172    2444.6238  0.058590351  0.058535307            8 
 3478000   0.69700352    -3.253141    2442.6777  0.058526877  0.058522882            9 
 3479000   0.70380154   -3.2634923    2448.8223  0.058657236  0.058510492           10 
 3480000   0.68953235   -3.2436391     2443.801  0.058520139  0.058498063            2 
 3481000   0.69437162   -3.2430444    2448.4461  0.058614529  0.058485601            6 
 3482000     0.705497   -3.2553225    2443.1857  0.058471801  0.058473244            6 
 3483000   0.69317678   -3.2461209    2450.4003  0.058627628  0.058460772            7 
 3484000   0.70499446   -3.2664949    2441.8684  0.058406727  0.058448312            7 
 3485000   0.68681314   -3.2531364    2445.9989  0.058488736    0.0584358            7 
 3486000   0.69224131   -3.2501454    2452.2555  0.058621522  0.058423377            3 
 3487000   0.71398982   -3.2377595    2454.7195  0.058663596  0.058411011            5 
 3488000   0.68493798   -3.2418609    2444.8905  0.058411947  0.058398639           13 
 3489000   0.70911971   -3.2718312    2446.7592  0.058439839  0.058386175            5 
 3490000   0.68622541   -3.2721633    2444.5573  0.058370518  0.058373765            5 
 3491000   0.68648039   -3.2407456     2455.682  0.058619355  0.058361369            4 
 3492000    0.6993054   -3.2628415    2450.8243  0.058486642  0.058349076            7 
 3493000   0.69739518   -3.2562514    2446.4788  0.058366228  0.058336796            5 
 3494000   0.70005118   -3.2510542    2454.2118  0.058533959   0.05832444            3 
 3495000   0.69269359   -3.2512321    2447.9018  0.058366757   0.05831202           12 
 3496000   0.68866087   -3.2463917    2451.2463  0.058429783  0.058299781            5 
 3497000   0.68750448   -3.2443162    2455.3485   0.05851083  0.058287353            6 
 3498000   0.68698834   -3.2535761    2449.9791  0.058366187  0.058274898            7 
 3499000     0.693388   -3.2474577    2450.6954  0.058366567  0.058262526            5 
 3500000   0.70138049   -3.2488137    2447.3027  0.058269112  0.058250284            5 
 3501000    0.6858381   -3.2612358    2455.5871   0.05844966  0.058237947            5 
 3502000   0.69019656   -3.2763893    2449.4794   0.05828763  0.058225575            5 
 3503000   0.67896659   -3.2317736    2460.3685  0.058530034  0.058213315            7 
 3504000   0.68602146   -3.2515908    2449.1237  0.058245901  0.058201041            7 
 3505000    0.6902269   -3.2572268    2448.0955  0.058204838  0.058188673            4 
 3506000   0.68867334   -3.2367642    2447.7726  0.058180562  0.058176334            5 
 3507000   0.68707606   -3.2444546    2453.5534  0.058301335  0.058164018            6 
 3508000    0.6968891   -3.2369221    2453.0423  0.058272576  0.058151714            7 
 3509000   0.68367247   -3.2514192    2456.0623  0.058327689  0.058139358            5 
 3510000   0.69860736   -3.2661304    2459.4313  0.058391056    0.0581271            4 
 3511000   0.68537497     -3.27486     2460.495  0.058399673  0.058114846            7 
 3512000   0.67892341   -3.2513428    2453.6105  0.058219687  0.058102671            9 
 3513000   0.70469892   -3.2644925    2458.6749  0.058323248  0.058090399            4 
 3514000     0.701716   -3.2619778    2454.8163  0.058215146  0.058078078            3 
 3515000   0.68471016   -3.2574723    2456.8297  0.058246318  0.058065751            6 
 3516000   0.69019068    -3.273212    2452.7795  0.058133758  0.058053472            7 
 3517000   0.67594103   -3.2551022    2454.1774   0.05815035  0.058041127            4 
 3518000   0.68307192    -3.248723    2457.7232  0.058217813  0.058028893            6 
 3519000    0.6819059   -3.2882684    2462.4148  0.058312371  0.058016589           15 
 3520000   0.69936771   -3.2595494     2455.989  0.058143678  0.058004289            4 
 3521000   0.68798335   -3.2634221     2456.735  0.058144822  0.057992002            5 
 3522000   0.67971851   -3.2708339    2461.8216  0.058248666  0.057979704            4 
 3523000   0.70003605   -3.2607425    2453.9467  0.058045857  0.057967386            4 
 3524000   0.68394588    -3.240302    2453.5894  0.058020937  0.057955087            8 
 3525000   0.69522572   -3.2546723    2460.6319  0.058170966  0.057942844            4 
 3526000   0.70562189   -3.2676247    2462.6531  0.058202238  0.057930432            2 
 3527000   0.69888569   -3.2735358    2451.7204  0.057927428  0.057918027            4 
 3528000   0.69278459   -3.2565299    2449.4254  0.057856797  0.057905623            7 
 3529000   0.69420035   -3.2711534    2461.9688  0.058136602  0.057893283            7 
 3530000   0.69806509   -3.2659434    2456.5428  0.057992041  0.057880862            3 
 3531000    0.6919801   -3.2823592    2458.0496  0.058011177  0.057868529            6 
 3532000   0.68240623   -3.2507457    2456.5786  0.057960046  0.057856156            8 
 3533000   0.68492552    -3.248288    2455.0863  0.057908441  0.057843905            3 
 3534000   0.68243315   -3.2517481    2459.2672  0.057990642  0.057831575            6 
 3535000   0.69212203   -3.2642992    2455.8146  0.057892848  0.057819311            4 
 3536000   0.70259223   -3.2434815    2464.7535  0.058087139  0.057806967            5 
 3537000   0.69006878   -3.2530229    2469.2211  0.058175976  0.057794785            6 
 3538000   0.69448498   -3.2658567    2460.6326  0.057957241   0.05778251            5 
 3539000   0.70396896   -3.2267478    2462.9383  0.057995157  0.057770274            4 
 3540000   0.68008966    -3.255304    2450.5555  0.057687276  0.057758023            6 
 3541000   0.67991265    -3.280253    2460.9807  0.057916329  0.057745761            6 
 3542000   0.69431685   -3.2529704    2459.7464  0.057870938   0.05773342            5 
 3543000   0.68330716   -3.2627778    2462.6397  0.057922658  0.057721191            3 
 3544000   0.68097492   -3.2734911    2462.0058  0.057891409  0.057708928            3 
 3545000   0.68431247    -3.272529    2464.8835  0.057942726  0.057696524            9 
 3546000   0.68629559   -3.2692097    2465.1116  0.057931744  0.057684181           16 
 3547000   0.68990046   -3.2590287    2467.4823  0.057971109  0.057671956            8 
 3548000   0.68715658    -3.237572    2458.5214  0.057744302  0.057659675            2 
 3549000   0.68180151   -3.2859765    2467.2883  0.057933886  0.057647488            5 
 3550000   0.69007406   -3.2636811    2461.0754  0.057771722  0.057635278            3 
 3551000   0.68298512   -3.2717549     2464.339  0.057832042  0.057622927            6 
 3552000   0.67809063   -3.2650482    2464.9389  0.057829835  0.057610628            6 
 3553000   0.68019758   -3.2667133    2455.9951  0.057603788  0.057598325            5 
 3554000   0.69101471   -3.2837927    2460.1034  0.057683909  0.057585971            9 
 3555000   0.67541616   -3.2841062    2460.8609  0.057685441  0.057573641            7 
 3556000   0.66362182   -3.2417766    2470.0176  0.057883801  0.057561357            7 
 3557000   0.70012553   -3.2615885    2461.3147  0.057663637   0.05754911            7 
 3558000    0.6910043   -3.2778286    2469.2384  0.057833014  0.057536871            6 
 3559000   0.68701964   -3.2525466    2466.9567  0.057763339  0.057524633            8 
 3560000   0.69177774    -3.270342    2454.7997  0.057462539  0.057512475            5 
 3561000   0.70186967   -3.2601836    2466.3011  0.057715554  0.057500212            5 
 3562000   0.69192236   -3.2902273    2464.2629  0.057651669  0.057487945           10 
 3563000   0.68201067   -3.2761376    2461.5415  0.057571837  0.057475664           13 
 3564000   0.67834197   -3.2680144    2461.8683  0.057563325  0.057463413           12 
 3565000   0.68379863   -3.2647052    2472.7984  0.057802673  0.057451177            5 
 3566000   0.66583771   -3.2644815    2463.8547   0.05757746  0.057438926            7 
 3567000   0.67803969   -3.2536937    2463.3032  0.057548434  0.057426668            8 
 3568000    0.6934913    -3.287319    2463.9848  0.057548225  0.057414507            5 
 3569000   0.68670088   -3.2622575    2481.5195  0.057941521  0.057402249            3 
 3570000   0.66958733   -3.2737493    2465.2632  0.057545826  0.057390033            7 
 3571000    0.6774582   -3.2674105    2467.8579  0.057590263  0.057377799            6 
 3572000   0.67712667   -3.2804224    2466.0348  0.057531607  0.057365482            5 
 3573000   0.67453251    -3.281918    2469.5386  0.057597225  0.057353126            5 
 3574000   0.66525515   -3.2664913    2467.8271  0.057541202  0.057340856            8 
 3575000   0.66566724   -3.2635778    2473.4489  0.057656151  0.057328664            5 
 3576000   0.68259268   -3.2603428    2466.7451  0.057483806  0.057316513            3 
 3577000   0.67696389   -3.2808807    2471.4938  0.057578366  0.057304375            4 
 3578000   0.68828639   -3.2554271    2470.2158  0.057532508  0.057292276            3 
 3579000   0.68553565   -3.2902917    2469.1237  0.057491004  0.057279981            3 
 3580000   0.66532988   -3.2796147    2470.2775  0.057501804  0.057267677            6 
 3581000   0.67894612   -3.2778623    2464.6634  0.057355102  0.057255377           10 
 3582000   0.69491077   -3.2744446    2463.0082  0.057300581  0.057243059            3 
 3583000   0.67874208   -3.2644721    2473.1298  0.057519998  0.057230771            4 
 3584000   0.67110363   -3.2694481    2476.9082  0.057591802  0.057218566            5 
 3585000   0.67822361   -3.2607531    2465.7027  0.057315264  0.057206354            3 
 3586000    0.6831312   -3.2632621    2461.6253  0.057204529  0.057194097            5 
 3587000   0.67239208   -3.2787389    2467.5614  0.057326489   0.05718186           13 
 3588000   0.66273457   -3.2812992    2469.3874  0.057352921  0.057169657            5 
 3589000   0.67338104   -3.2791235    2476.1389  0.057493706  0.057157426            6 
 3590000   0.68136383   -3.2673687    2479.3129  0.057551367  0.057145206            5 
 3591000   0.68452586   -3.2970893    2467.4454  0.057259941  0.057132995            6 
 3592000   0.68286133   -3.2647653    2470.3811  0.057312108    0.0571208            8 
 3593000   0.67086772   -3.2565264     2479.618  0.057510391  0.057108621            3 
 3594000   0.67296142   -3.2844698    2466.2071  0.057183433  0.057096368            4 
 3595000   0.67095444   -3.2787008    2474.3288   0.05735579  0.057084174            3 
 3596000   0.68549852   -3.2977348    2466.5029  0.057158485  0.057071918            4 
 3597000   0.68050632   -3.2902074    2474.2406  0.057321857  0.057059678            4 
 3598000    0.6770292   -3.2652959    2474.2307  0.057305696  0.057047387            7 
 3599000   0.67905048     -3.25378    2473.3684  0.057269806  0.057035153            5 
 3600000   0.66393426   -3.2840261    2472.8633  0.057242207  0.057022867            9 
 3601000   0.66868723   -3.2703242     2472.916   0.05722753  0.057010558            3 
 3602000    0.6643908   -3.2777331    2463.1642  0.056986032  0.056998329            6 
 3603000   0.68359811   -3.2737158    2474.3706  0.057229405  0.056986127            7 
 3604000   0.66912442   -3.2832119     2469.297  0.057096212  0.056973788            4 
 3605000   0.66010757   -3.2658815    2478.1256  0.057284457  0.056961586            7 
 3606000   0.66747176   -3.2725525      2479.28  0.057295248  0.056949278            9 
 3607000   0.66156834   -3.2748015    2471.8327  0.057107307  0.056936996            7 
 3608000    0.6790242    -3.278322    2470.7165    0.0570657  0.056924676            4 
 3609000   0.67576785   -3.2923609    2465.3402  0.056925745  0.056912235           11 
 3610000   0.68310391    -3.277353    2464.5743  0.056892296   0.05689985            5 
 3611000   0.67629107   -3.2810908    2465.5869   0.05689991  0.056887502            3 
 3612000   0.66804361   -3.2910626     2466.275  0.056900033  0.056875119            6 
 3613000   0.68960981   -3.3140529    2467.2802  0.056907468  0.056862723            6 
 3614000   0.67981979   -3.2860875    2469.4429  0.056941591  0.056850252            4 
 3615000   0.66771032    -3.280118    2472.7658  0.057002438  0.056837842            9 
 3616000   0.66306428    -3.284005    2468.2496  0.056882597  0.056825366            4 
 3617000   0.68827797   -3.2859783    2466.4162  0.056824628  0.056812931            2 
 3618000   0.67324721   -3.2879029    2465.3696  0.056784816  0.056800465            7 
 3619000   0.67607682   -3.2821187    2464.5473  0.056750191  0.056787989            4 
 3620000   0.66228327   -3.2881528    2471.3585   0.05689131  0.056775599            6 
 3621000   0.67023084   -3.2779241    2472.7313  0.056907192  0.056763206            4 
 3622000    0.6606867   -3.2680674    2469.5669  0.056818676    0.0567508            7 
 3623000   0.68965288   -3.3030341     2470.154  0.056816496  0.056738397            4 
 3624000    0.6719076   -3.2649348    2475.3842  0.056921087  0.056725918            5 
 3625000   0.65151177   -3.2871808    2466.0908  0.056691742  0.056713475            9 
 3626000   0.67491367   -3.3082427     2460.516  0.056547987  0.056700986            4 
 3627000    0.6619966   -3.2784482    2471.1831  0.056777481  0.056688508            8 
 3628000    0.6673109   -3.2740546    2470.9758  0.056757071  0.056676086            6 
 3629000   0.67545171   -3.2730626    2469.3364  0.056703785  0.056663648            4 
 3630000    0.6735909   -3.2863808    2467.9505  0.056656348  0.056651241            9 
 3631000   0.67785087   -3.2849269    2473.8817  0.056776868  0.056638894            4 
 3632000   0.67039222   -3.2666032    2472.0153  0.056718412  0.056626517            7 
 3633000   0.66130208   -3.2847757    2471.6847  0.056695217  0.056614167            5 
 3634000   0.65361655    -3.272864    2470.1921  0.056645388  0.056601834            8 
 3635000   0.66842249   -3.2767223    2472.0388  0.056672142  0.056589499           14 
 3636000   0.67450539   -3.2953612     2475.117  0.056727103  0.056577112           10 
 3637000   0.65936582   -3.2791239    2472.0762  0.056641833  0.056564648            9 
 3638000   0.67755688   -3.3020253    2477.7831  0.056756989  0.056552297            5 
 3639000   0.67213797   -3.2795951     2471.216  0.056591005  0.056539892            3 
 3640000   0.67728372   -3.2815162    2470.9899  0.056570282  0.056527528            4 
 3641000   0.66893099   -3.3063176    2470.9408   0.05655362  0.056515072            3 
 3642000   0.66367946    -3.298147    2472.4307  0.056572184  0.056502673            3 
 3643000   0.66438934   -3.2986493    2474.0578  0.056593875  0.056490247            7 
 3644000   0.67333474   -3.2999152     2469.881  0.056482827  0.056477811            8 
 3645000   0.67033561   -3.2803764    2481.8618   0.05674124  0.056465442            7 
 3646000   0.66273204   -3.2618012    2481.6701  0.056721294   0.05645309            6 
 3647000   0.67515808   -3.2715355    2475.6207  0.056567515  0.056440906            3 
 3648000   0.67108972   -3.2861089    2478.8089  0.056624839  0.056428582            8 
 3649000   0.65058373   -3.2762872    2476.6049  0.056558987  0.056416274            4 
 3650000   0.66817251   -3.2578229    2472.7967  0.056456546  0.056403992            6 
 3651000   0.67401472   -3.2912632    2480.7876  0.056623473  0.056391696            7 
 3652000   0.66811416   -3.3044746    2476.5321  0.056510863  0.056379433            5 
 3653000   0.67495526   -3.2977874    2472.1216  0.056394781  0.056367129            7 
 3654000   0.67648055   -3.2913249    2481.6611  0.056596904  0.056354769            6 
 3655000   0.66617438   -3.2857945      2480.89  0.056563838   0.05634242            6 
 3656000   0.66502141   -3.2925762    2475.4919  0.056425326  0.056330064            7 
 3657000   0.65121251   -3.3000015    2476.1357  0.056424568  0.056317729            4 
 3658000   0.65095999   -3.3005188    2476.8016  0.056424311   0.05630538           10 
 3659000   0.67568853   -3.2638759    2476.2544  0.056396429  0.056293083           12 
 3660000   0.66084156   -3.3090437     2474.945  0.056351208   0.05628065            8 
 3661000   0.67963731   -3.2984667    2477.9084  0.056403268  0.056268332            3 
 3662000   0.66132178   -3.3038226    2474.4234  0.056308561  0.056255962            3 
 3663000   0.65605286   -3.2989261    2479.3598  0.056405492  0.056243657            6 
 3664000   0.66765002   -3.2978896    2479.4581  0.056392332  0.056231285            4 
 3665000   0.65142581   -3.2981856    2478.1782  0.056347845  0.056219007            6 
 3666000   0.65191339   -3.3037637    2486.7125   0.05652647  0.056206711            9 
 3667000     0.669745   -3.2903427    2481.2931  0.056387898  0.056194431            6 
 3668000   0.67673111   -3.2953172    2479.2546  0.056326213  0.056182166            4 
 3669000   0.64871231   -3.3052989    2478.6407  0.056296918  0.056169738            4 
 3670000   0.67511626   -3.2993309    2479.3316  0.056297266  0.056157358            7 
 3671000   0.67278587   -3.2889284    2482.5497  0.056354983  0.056145075            2 
 3672000   0.66894222   -3.3001054    2482.0583  0.056328483  0.056132768            8 
 3673000   0.66077147   -3.3027541    2484.4311  0.056366982  0.056120413            6 
 3674000   0.66749151   -3.2844171    2480.1889  0.056255419  0.056108122            5 
 3675000   0.67106987   -3.3014804    2474.8888  0.056119928  0.056095842            5 
 3676000   0.66340504   -3.3180875    2479.2115  0.056202654  0.056083541            4 
 3677000   0.68014642    -3.313987    2475.1077  0.056094363  0.056071274           10 
 3678000   0.66466329   -3.2922561    2486.2103  0.056330667  0.056058915            3 
 3679000   0.66446991   -3.2789876    2486.6772  0.056325932  0.056046713            8 
 3680000   0.66983337   -3.2892623    2481.7044  0.056198016  0.056034437            8 
 3681000   0.65718653   -3.2967707    2476.0959  0.056055779  0.056022181            7 
 3682000   0.65306677   -3.2890217    2482.0595  0.056175528  0.056009885            3 
 3683000   0.67016671   -3.3100204    2487.0704  0.056273654  0.055997607            5 
 3684000   0.65995144   -3.3043022    2483.3187  0.056173515   0.05598529            5 
 3685000   0.64846134   -3.2970621    2484.0632  0.056175107   0.05597304            5 
 3686000   0.65858612    -3.303033    2479.2898  0.056051949   0.05596079           11 
 3687000    0.6604566    -3.295437     2484.447  0.056153309  0.055948503            3 
 3688000   0.65886876   -3.3152243    2482.5936  0.056096205  0.055936201            6 
 3689000   0.66945464   -3.2926092    2490.0211  0.056248781  0.055923921            4 
 3690000   0.65429108    -3.300952     2475.957  0.055915922  0.055911679            8 
 3691000   0.66068739   -3.2981326    2484.2032  0.056086951  0.055899338            3 
 3692000   0.66610909   -3.3083471    2481.3988  0.056008459  0.055887053            5 
 3693000    0.6538915   -3.3140731    2484.1238  0.056054784  0.055874782            6 
 3694000   0.65695781   -3.3068517    2487.8278  0.056123168  0.055862493            7 
 3695000   0.67079629   -3.2922177    2486.3273  0.056074139  0.055850285            6 
 3696000     0.652736   -3.2822941    2487.0282   0.05607477  0.055838013            6 
 3697000   0.66073605   -3.3064051    2485.9498  0.056035295  0.055825889            7 
 3698000   0.66019476   -3.2845496     2483.788  0.055971427  0.055813718            4 
 3699000   0.65899538   -3.3188203    2488.2166  0.056056064  0.055801599            6 
 3700000   0.66891667   -3.3013188    2485.4804  0.055979288  0.055789346            8 
 3701000   0.66404067   -3.3226631    2487.1003  0.056000638  0.055777189            3 
 3702000   0.66586802   -3.3027257     2484.378   0.05592423   0.05576495            5 
 3703000   0.66580278   -3.3041147    2484.4904  0.055911657  0.055752718            4 
 3704000   0.66783035   -3.3146802    2481.6122  0.055831809  0.055740466            3 
 3705000   0.65445641   -3.2920477    2483.6364  0.055862267  0.055728256            4 
 3706000   0.65870238   -3.3153548    2482.0334   0.05581115  0.055716028            3 
 3707000   0.66418895   -3.3178961    2489.2753  0.055958891  0.055703886            5 
 3708000   0.66773875   -3.2994927    2486.4659  0.055880662  0.055691758            4 
 3709000   0.65593614   -3.2974963    2497.3967  0.056111187  0.055679665            2 
 3710000   0.65676492    -3.301264    2491.3688  0.055960665  0.055667569            7 
 3711000   0.65887298    -3.286123    2496.6279  0.056063682  0.055655417            5 
 3712000   0.66079018   -3.3164352    2479.9017   0.05567308  0.055643207           10 
 3713000   0.65971114   -3.2854042    2486.9473  0.055816215  0.055630916            8 
 3714000   0.65632246   -3.2928337    2486.0184  0.055780344  0.055618697            7 
 3715000   0.65951515   -3.2962827    2490.1097  0.055857103  0.055606469           11 
 3716000    0.6494571   -3.3324644     2487.688  0.055787766  0.055594249            6 
 3717000   0.66816466   -3.2925071    2497.6529  0.055996164  0.055581992            4 
 3718000   0.66053188   -3.3221257      2488.69  0.055780214  0.055569786            4 
 3719000   0.65066283   -3.3052008     2493.703  0.055877543  0.055557559            5 
 3720000   0.66492772   -3.3335459    2496.1224  0.055916721  0.055545313            6 
 3721000   0.65630995   -3.3035063    2496.5114  0.055910406   0.05553311            5 
 3722000   0.65355591   -3.3132228     2484.097  0.055617432  0.055520945            7 
 3723000   0.67235744   -3.3291525    2482.3531  0.055563459  0.055508686           10 
 3724000   0.64341539   -3.3139396    2489.9541  0.055718628  0.055496361            4 
 3725000   0.65360318   -3.2926973    2488.6825  0.055675223  0.055484186            2 
 3726000   0.65098973   -3.3213644    2489.8093  0.055685483   0.05547202           10 
 3727000   0.64653247   -3.3218203    2484.1226  0.055543391  0.055459756            5 
 3728000   0.65629153   -3.3181318    2484.5231  0.055537444  0.055447523            4 
 3729000   0.66749459   -3.3089058    2488.8996  0.055620355  0.055435297            4 
 3730000   0.64555616   -3.3137157    2484.8348  0.055514629  0.055423019           10 
 3731000   0.66150065   -3.3085097    2485.2222  0.055508403  0.055410783            6 
 3732000   0.66111332   -3.3006251    2495.3222  0.055719057  0.055398536            4 
 3733000   0.67131447   -3.3027811    2487.6994  0.055533963  0.055386248            8 
 3734000   0.64941069   -3.3154472    2486.0432  0.055482128  0.055374004            7 
 3735000   0.66287628   -3.3015651    2498.1072  0.055736439  0.055361781            4 
 3736000   0.64690689   -3.3301776    2488.7821  0.055513519   0.05534958            5 
 3737000   0.65007806   -3.3137396    2490.4255  0.055535312  0.055337356            5 
 3738000   0.66777971   -3.3242963    2486.3211  0.055428953  0.055325086           12 
 3739000    0.6579305   -3.3174111    2490.5358  0.055508064  0.055312846            7 
 3740000    0.6536317   -3.3172079    2490.6576  0.055495936  0.055300546            7 
 3741000   0.65533095   -3.3096206    2496.1926  0.055604398  0.055288419            6 
 3742000   0.64451254   -3.2919387    2492.8228  0.055514493  0.055276148            6 
 3743000   0.65985454   -3.3079392    2488.1475  0.055395572  0.055263961            5 
 3744000   0.64441472   -3.3190585    2490.6454  0.055436373  0.055251694            4 
 3745000   0.65266471   -3.3121419    2488.7938   0.05538037  0.055239415            7 
 3746000   0.65022905   -3.3180203    2492.8963   0.05545685   0.05522714            6 
 3747000    0.6720052   -3.3069093    2488.5496  0.055345379  0.055214897            5 
 3748000   0.66067339   -3.3370384    2483.7479   0.05522385  0.055202595           16 
 3749000   0.64542137   -3.3261133    2482.7455  0.055186839  0.055190248            6 
 3750000   0.64720803   -3.3135215    2490.7009  0.055348909  0.055177802            6 
 3751000   0.66220974    -3.333604    2491.8203  0.055359023  0.055165468           21 
 3752000     0.652836   -3.3096293    2487.7418  0.055253682  0.055153136            7 
 3753000   0.64804737   -3.3268343    2488.6573  0.055259289   0.05514075            5 
 3754000   0.65396214   -3.3090131    2486.9817  0.055207373  0.055128482           13 
 3755000   0.64085797   -3.3130173    2489.0875  0.055239402  0.055116177            8 
 3756000   0.64581292   -3.3094871    2498.3848  0.055430973  0.055103848            8 
 3757000   0.65706045   -3.3250968    2489.9717  0.055229609   0.05509153            6 
 3758000   0.64492776   -3.3454914    2485.9219   0.05512511  0.055079266           11 
 3759000   0.65378053   -3.3317728    2491.1701  0.055226792  0.055066895            7 
 3760000   0.65920745   -3.3225195    2495.4315  0.055306548  0.055054509            4 
 3761000   0.64952348   -3.3362054    2487.0704  0.055106586   0.05504213            4 
 3762000    0.6461393   -3.3152595    2490.7242  0.055172874  0.055029932            4 
 3763000   0.64268278   -3.2979537    2487.0334  0.055076477  0.055017552            3 
 3764000   0.64564447   -3.3154777    2491.1973  0.055154033   0.05500519            7 
 3765000   0.65308758   -3.3380985    2490.5585  0.055125243  0.054992881            5 
 3766000   0.65757937   -3.3058591    2491.2765  0.055126493  0.054980567            5 
 3767000   0.64084352   -3.3145024     2488.648  0.055053713  0.054968284            6 
 3768000   0.64786982   -3.3326741    2489.0429  0.055047836  0.054955937            6 
 3769000   0.65460938   -3.3058358     2494.628  0.055156716  0.054943558            7 
 3770000   0.64666342   -3.3213574    2489.3235  0.055024835  0.054931316            7 
 3771000   0.63604468   -3.3430255    2488.5908   0.05499405  0.054918962            6 
 3772000   0.64792391   -3.3232493    2491.4114  0.055041787  0.054906609           10 
 3773000   0.65463571   -3.3080156     2500.357  0.055224777  0.054894361            4 
 3774000   0.65595168   -3.3363022    2488.6845  0.054952406  0.054882043            4 
 3775000   0.65010297   -3.3367646     2492.752  0.055027638  0.054869668            5 
 3776000   0.64524052   -3.3226433    2496.7289  0.055100831   0.05485735            8 
 3777000   0.65575696   -3.3325418    2495.6759   0.05506301  0.054845082           18 
 3778000   0.65018911   -3.3205922     2496.326  0.055062776  0.054832686           12 
 3779000   0.64050964   -3.3352047    2493.5038   0.05498597  0.054820368            5 
 3780000   0.65464335   -3.3283825    2494.9493  0.055003292  0.054808096            7 
 3781000    0.6556946   -3.3119054    2489.8918  0.054877276  0.054795778            5 
 3782000    0.6424603   -3.3199684    2488.8679  0.054840206  0.054783444            6 
 3783000   0.64739174   -3.3248599    2493.0696  0.054918266  0.054771092            6 
 3784000   0.64729097   -3.3239829    2490.4404   0.05484585  0.054758722            4 
 3785000   0.62936827   -3.3404784    2494.0295   0.05491038  0.054746352            3 
 3786000   0.62932622    -3.305293    2503.6433  0.055107485  0.054734013            7 
 3787000   0.63573056   -3.3254197    2491.4204  0.054823968  0.054721653            9 
 3788000   0.65161755   -3.3408839    2500.6011  0.055011465  0.054709285            8 
 3789000   0.65189829    -3.339187    2497.3471  0.054925379  0.054696965            7 
 3790000   0.65296725   -3.3306895    2486.1146  0.054663909  0.054684713            6 
 3791000    0.6459811   -3.3156306    2503.1576  0.055024128  0.054672475            3 
 3792000   0.63564937   -3.3278347    2494.1404  0.054811454  0.054660222           10 
 3793000   0.65317679   -3.3230895    2497.1796  0.054863774  0.054647921            4 
 3794000   0.65563689   -3.3173149    2494.4413   0.05478917  0.054635615           11 
 3795000   0.65456901   -3.3195627    2497.3206  0.054837958  0.054623295           14 
 3796000   0.64180857   -3.3194227    2490.3327  0.054670106  0.054611054            8 
 3797000   0.64878764   -3.3380179    2490.9102  0.054668384  0.054598821            8 
 3798000   0.64311361   -3.3291265    2495.3504  0.054751413  0.054586565           12 
 3799000   0.65207719   -3.3436408    2493.8657  0.054704433  0.054574218            6 
 3800000   0.64383318   -3.3152006    2491.5083   0.05463834   0.05456177            9 
 3801000   0.63381731   -3.3511332    2481.1731  0.054397376  0.054549465            9 
 3802000   0.65068814   -3.3214534    2491.5476   0.05461046  0.054537025            8 
 3803000   0.64908814   -3.3268252    2490.7574  0.054578785  0.054524744           10 
 3804000   0.64997216   -3.3051615    2493.0308   0.05461424   0.05451239            6 
 3805000    0.6397908   -3.3401133    2493.4825   0.05460978  0.054500039           19 
 3806000    0.6532082   -3.3523853     2495.303  0.054635291  0.054487634            6 
 3807000   0.65886526   -3.3152648    2499.2997  0.054708425  0.054475311            7 
 3808000   0.63625112   -3.3624074    2495.1003  0.054602159  0.054463092            9 
 3809000   0.63499817   -3.3270786    2498.9192  0.054671375  0.054450777            6 
 3810000    0.6437887   -3.3272498    2498.3853  0.054645349  0.054438464            7 
 3811000   0.64519942   -3.3181751    2493.7293  0.054529198  0.054426149           12 
 3812000   0.65643304   -3.3279482    2492.9679  0.054498248  0.054413839            9 
 3813000   0.63187966   -3.3525636    2490.5582  0.054431291  0.054401463            2 
 3814000   0.64172001   -3.3530249    2496.6997  0.054551208  0.054389108            6 
 3815000   0.63751778   -3.3250676    2503.1491  0.054677788  0.054376864            6 
 3816000   0.64338215   -3.3326607    2493.7009   0.05445713  0.054364592            3 
 3817000   0.63578272   -3.3228371    2495.1364  0.054474204  0.054352334            7 
 3818000   0.64783829   -3.3231869    2493.6839  0.054428233  0.054340042            5 
 3819000   0.64854062   -3.3459908    2497.7634  0.054502997  0.054327852           10 
 3820000   0.64193798   -3.3506948     2499.354  0.054523429  0.054315563            9 
 3821000   0.63283212   -3.3367585    2499.2513  0.054506919  0.054303248            8 
 3822000   0.63106382   -3.3529505    2494.3159  0.054385048  0.054290942           11 
 3823000   0.62959823   -3.3074396    2497.4882  0.054439974  0.054278729            9 
 3824000   0.64144344    -3.330964    2489.1988  0.054245092  0.054266476            8 
 3825000    0.6414003   -3.3346117    2502.7665  0.054526503  0.054254174            7 
 3826000   0.64764317   -3.3454179    2491.2947  0.054262388  0.054241819            9 
 3827000   0.65082515   -3.3474977    2502.2184  0.054486072  0.054229554           10 
 3828000   0.63336131   -3.3385582    2501.4683  0.054455509   0.05421737            6 
 3829000   0.64059575   -3.3418953    2502.6711  0.054467465  0.054205104            6 
 3830000   0.63777256   -3.3393958    2501.0228  0.054417381  0.054192812            4 
 3831000   0.64744746   -3.3504144    2497.1286  0.054318468  0.054180565            6 
 3832000   0.64149347   -3.3470584     2500.149  0.054369976  0.054168222            4 
 3833000   0.63976977   -3.3657412    2505.8925   0.05448066  0.054155974            9 
 3834000   0.64415576   -3.3517155    2494.8037  0.054225433  0.054143677           11 
 3835000    0.6567789   -3.3406644    2497.6426  0.054272982  0.054131376            9 
 3836000   0.63100442   -3.3379387    2496.0309   0.05422382  0.054119092            3 
 3837000   0.64548081   -3.3427373    2501.5829  0.054330268   0.05410681            6 
 3838000   0.63451418   -3.3370623    2504.1234  0.054371274  0.054094496            6 
 3839000   0.63100686   -3.3550364    2492.5301  0.054105456  0.054082189           10 
 3840000   0.63119627   -3.3376977     2498.881  0.054229188  0.054069912            6 
 3841000   0.63543793      -3.3245    2501.6337  0.054274791  0.054057616           12 
 3842000   0.62872252   -3.3415768    2496.1513   0.05414175    0.0540454            8 
 3843000    0.6399132   -3.3367671    2500.9114  0.054230882  0.054033057            6 
 3844000   0.63845028   -3.3476687    2498.7916  0.054170821  0.054020707            6 
 3845000   0.64721204   -3.3371279     2500.184  0.054186909  0.054008432            4 
 3846000   0.63931988   -3.3419011    2505.9688  0.054298163  0.053996058            4 
 3847000   0.64049273   -3.3536012     2491.688    0.0539747  0.053983722            7 
 3848000    0.6280383   -3.3136129    2507.8402  0.054310469  0.053971434            7 
 3849000   0.63861103   -3.3515429    2497.7825  0.054078602  0.053959204            5 
 3850000   0.63511256   -3.3477285    2502.3002  0.054162341  0.053946954           15 
 3851000   0.63878297   -3.3479406    2493.9162  0.053966854  0.053934578           10 
 3852000   0.62906373   -3.3447046    2491.6585  0.053903999  0.053922189           13 
 3853000    0.6313347   -3.3339674    2500.6663  0.054084833  0.053909833            7 
 3854000   0.63997136   -3.3564587    2490.5395  0.053851831  0.053897541            4 
 3855000   0.62230169   -3.3520997    2502.0823  0.054087381    0.0538852            7 
 3856000   0.62893389   -3.3490997    2496.8144  0.053959508  0.053872877            9 
 3857000   0.63290408   -3.3474904    2495.1583  0.053909738  0.053860497            3 
 3858000   0.63389727   -3.3365393    2506.8845  0.054149051  0.053848105            5 
 3859000   0.64863822   -3.3487687    2503.3294   0.05405825  0.053835766           10 
 3860000   0.64051214   -3.3335717    2508.2526  0.054150531  0.053823426            5 
 3861000    0.6413388   -3.3435764    2503.4803  0.054033505   0.05381121            9 
 3862000   0.62703566   -3.3450931     2501.067  0.053967439  0.053798857            7 
 3863000   0.64468622   -3.3787173     2498.462  0.053897273  0.053786528            9 
 3864000   0.64580305   -3.3443103    2504.8093  0.054020215  0.053774177            5 
 3865000   0.63563715   -3.3356839    2504.9206  0.054008638  0.053761913            3 
 3866000   0.63506511   -3.3293103    2497.7391  0.053839868  0.053749679            8 
 3867000   0.64040773   -3.3479398    2501.0047  0.053896318  0.053737434            9 
 3868000   0.64747622   -3.3466442    2504.3773  0.053955044  0.053725163            5 
 3869000   0.62382972   -3.3439832    2501.4684  0.053878443  0.053712936            7 
 3870000   0.63678471   -3.3875333    2506.8635  0.053980695  0.053700706           15 
 3871000   0.63079377   -3.3573049    2508.3532  0.053998821  0.053688518            6 
 3872000   0.62531514   -3.3414996    2507.5138  0.053966808  0.053676266            3 
 3873000    0.6384343   -3.3549919    2506.0269  0.053920881  0.053664022           11 
 3874000   0.64002119   -3.3677402    2498.8263  0.053752072  0.053651741            6 
 3875000   0.63006644    -3.348375    2498.7604  0.053736782  0.053639464           10 
 3876000   0.64990394   -3.3276658    2506.4959   0.05388923  0.053627239           15 
 3877000    0.6309079      -3.3542    2504.5054  0.053832547  0.053615089            4 
 3878000   0.63462743   -3.3505936    2505.2526  0.053834722  0.053602824            3 
 3879000   0.64203141   -3.3573739    2506.6695  0.053851282  0.053590555           11 
 3880000   0.61590847   -3.3374615    2498.7946  0.053668269   0.05357832            3 
 3881000   0.63038134   -3.3785563    2508.0476  0.053853123  0.053566067            3 
 3882000   0.63195243    -3.368568    2503.3503  0.053738414  0.053553768            6 
 3883000   0.62445007   -3.3380312    2509.4635  0.053855771  0.053541561            8 
 3884000   0.61652662    -3.346987     2492.158  0.053470605   0.05352931           16 
 3885000   0.63671696   -3.3565791     2503.595  0.053702167   0.05351698            5 
 3886000   0.62022387   -3.3485244    2504.0238  0.053697543  0.053504673           12 
 3887000   0.63639655   -3.3230385    2505.7351  0.053720415  0.053492423           14 
 3888000   0.62626309   -3.3582698    2503.6198  0.053661261  0.053480284            6 
 3889000   0.62448183   -3.3408046    2510.1779   0.05378799  0.053468111            6 
 3890000   0.62678229   -3.3643554    2504.8455   0.05365993  0.053455823            6 
 3891000   0.62254749   -3.3430356    2507.7387  0.053708102  0.053443624            3 
 3892000   0.63742972   -3.3368363    2502.3082  0.053578028  0.053431432            7 
 3893000   0.62032036   -3.3562131    2513.6629  0.053807322  0.053419225            5 
 3894000   0.61889808   -3.3605612    2503.3797   0.05357344   0.05340707            3 
 3895000   0.63046071   -3.3528966    2513.4272  0.053774651  0.053394987            9 
 3896000   0.61337896   -3.3404207    2511.5727  0.053721182  0.053382882            8 
 3897000   0.64844661   -3.3578068    2502.8591  0.053521064  0.053370802            8 
 3898000    0.6176798   -3.3597927    2508.4341  0.053626519  0.053358695            5 
 3899000   0.63269636   -3.3654632    2512.5385   0.05370049  0.053346557            6 
 3900000   0.62139644    -3.382403    2511.7669  0.053670232   0.05333446            5 
 3901000    0.6240143   -3.3597846    2507.5537  0.053566471  0.053322317            5 
 3902000    0.6231133   -3.3725121    2504.4172   0.05348576  0.053310153            7 
 3903000    0.6226932    -3.368973    2505.6677  0.053498755  0.053298041           19 
 3904000    0.6264305   -3.3560212    2512.3734   0.05362819  0.053285962            6 
 3905000   0.62729819   -3.3752804    2509.5191  0.053553545  0.053273857            7 
 3906000    0.6133697   -3.3613778    2505.1265   0.05344612  0.053261755            7 
 3907000   0.61356475   -3.3685922    2506.7515    0.0534671  0.053249628            8 
 3908000   0.62512777   -3.3516952    2512.0856  0.053567161  0.053237463            8 
 3909000   0.62754441   -3.3663849    2520.0072  0.053722334  0.053225409            5 
 3910000   0.62648621   -3.3388463    2513.4562  0.053568973  0.053213362            4 
 3911000    0.6139257   -3.3451034    2511.9502  0.053523188  0.053201327            6 
 3912000   0.62725334   -3.3345995    2501.4795  0.053286458  0.053189246            7 
 3913000   0.62007288   -3.3773719    2504.8008  0.053343572  0.053177116           18 
 3914000   0.63215481   -3.3557971    2513.0155  0.053504843  0.053164987           12 
 3915000   0.63312814   -3.3543573     2520.664  0.053653979  0.053152978            7 
 3916000   0.62356193   -3.3578183    2511.3393  0.053441848  0.053140982            4 
 3917000   0.63101807    -3.350152    2510.3564  0.053407292  0.053128999            5 
 3918000   0.64300184   -3.3796574    2511.3836   0.05341551  0.053116965            7 
 3919000   0.62015459   -3.3480575    2511.5081  0.053404527  0.053104994            5 
 3920000   0.63012346   -3.3757475    2509.9223  0.053357191  0.053093057            9 
 3921000   0.63225051   -3.3556455     2513.734  0.053424594  0.053081115           10 
 3922000   0.61789574   -3.3701411    2516.1021  0.053461289  0.053069122            7 
 3923000   0.63194239   -3.3613593    2516.8819  0.053464226  0.053057154            4 
 3924000   0.62744756   -3.3643605    2508.7955  0.053278872   0.05304507            8 
 3925000     0.628514   -3.3559721    2511.4824  0.053322345  0.053032986            9 
 3926000   0.62988439   -3.3704755    2507.5415  0.053225113  0.053020973            6 
 3927000   0.63435912    -3.371709    2515.6158  0.053382901  0.053008978            7 
 3928000   0.62726255   -3.3738075     2519.179  0.053444905   0.05299697            8 
 3929000   0.62576368   -3.3752756    2515.6861  0.053357217   0.05298498           19 
 3930000   0.62408616   -3.3821442    2504.0798  0.053097537  0.052972924            9 
 3931000   0.62702091   -3.3746411    2517.7543  0.053373914  0.052960778            7 
 3932000   0.61859636   -3.3606846    2514.7001  0.053295612  0.052948836            8 
 3933000   0.61105373   -3.3614724    2513.1856   0.05324997  0.052936843           15 
 3934000   0.61421385   -3.3484989    2514.4145  0.053262466  0.052924801            6 
 3935000   0.61768246   -3.3855282      2506.27  0.053076451  0.052912721            3 
 3936000   0.61833072   -3.3463828    2513.1319  0.053208247  0.052900626            6 
 3937000   0.60287302   -3.3679187    2514.6244  0.053226322  0.052888567            3 
 3938000   0.63225145   -3.3791375    2514.2241  0.053204336  0.052876565           12 
 3939000   0.63527192   -3.3782043    2509.0286  0.053080914  0.052864526            3 
 3940000   0.62795227   -3.3846365    2512.9605  0.053150602  0.052852497            3 
 3941000   0.62263033   -3.3550929    2511.6836  0.053110115  0.052840411           11 
 3942000   0.63002707   -3.3520275    2517.9635  0.053229398  0.052828383            6 
 3943000   0.61109967   -3.3538446    2525.9078  0.053383799  0.052816454           10 
 3944000   0.63288335   -3.3882158     2511.533  0.053066535  0.052804365           16 
 3945000    0.6113679   -3.3619279    2515.2983  0.053132621  0.052792301            4 
 3946000   0.62793244    -3.366672    2518.8906  0.053195021  0.052780325            4 
 3947000   0.62302001   -3.3576457    2519.9216   0.05320331   0.05276839            7 
 3948000   0.62826946   -3.3690963     2517.915  0.053147479  0.052756363            9 
 3949000   0.62716409    -3.373578    2519.7298  0.053172318  0.052744362           10 
 3950000   0.61605857   -3.3716448    2515.3902  0.053067305  0.052732411           13 
 3951000    0.6293472   -3.3819129    2520.4106  0.053159762  0.052720423            4 
 3952000   0.62938321    -3.361712    2517.9128  0.053093641  0.052708447            7 
 3953000   0.62338485   -3.3559018    2519.5161  0.053114008  0.052696492           10 
 3954000   0.62392877    -3.380764     2510.929  0.052919597  0.052684474            7 
 3955000   0.61228894   -3.3685283    2519.4904  0.053086608  0.052672429            8 
 3956000   0.62715658   -3.3592065    2509.1694  0.052855776  0.052660479            7 
 3957000    0.6053152   -3.3878572    2518.2606  0.053033877   0.05264845            5 
 3958000   0.61247271    -3.360476    2524.6733  0.053155492  0.052636429            9 
 3959000   0.62224016   -3.3691724    2516.3033  0.052965885  0.052624468           11 
 3960000   0.61883697   -3.3743643    2513.8825  0.052901567  0.052612546            7 
 3961000   0.61400659   -3.3382623    2516.3819  0.052940796   0.05260062            8 
 3962000   0.62599696   -3.3870683    2513.8926  0.052875075  0.052588624           11 
 3963000   0.60834252   -3.3853909    2524.1072  0.053076524  0.052576659            6 
 3964000   0.61647543   -3.3787949    2513.8604  0.052847721  0.052564668            5 
 3965000    0.6187825   -3.3532294    2521.7778  0.053000795  0.052552686            8 
 3966000   0.60858245   -3.3787873    2521.0322  0.052971764  0.052540744            7 
 3967000   0.62409174   -3.3561898    2512.6098  0.052781485  0.052528778            7 
 3968000   0.61919954   -3.3743943    2517.6781  0.052874623  0.052516807            9 
 3969000   0.63219696   -3.3618333    2509.8276  0.052696473  0.052504745            5 
 3970000   0.62319276    -3.380871     2521.815  0.052934823  0.052492683            6 
 3971000   0.61550619   -3.3855025    2513.7673  0.052752608   0.05248066            6 
 3972000   0.61808554   -3.3738027    2520.5066   0.05288072    0.0524687            5 
 3973000    0.6101759   -3.3996399    2518.8447   0.05283255  0.052456652           11 
 3974000   0.60754823   -3.3591938    2512.1342  0.052678539  0.052444647            4 
 3975000   0.61132649   -3.3863481    2520.9978  0.052851106  0.052432667            9 
 3976000   0.61380004   -3.3777494    2516.8043  0.052749923  0.052420695            8 
 3977000   0.62550921   -3.3618216    2510.1303  0.052596813  0.052408742           10 
 3978000   0.59607698   -3.3810986    2519.3924  0.052777618   0.05239673            7 
 3979000   0.63002597   -3.3632924    2521.2843  0.052803977  0.052384792            5 
 3980000   0.61157672    -3.363702    2522.2481  0.052810891  0.052372905            4 
 3981000   0.62764501   -3.3764634    2519.1311  0.052732377  0.052360924            6 
 3982000   0.61385698   -3.3608046    2513.2408  0.052595864   0.05234892           10 
 3983000   0.60619155   -3.3686749    2517.5923  0.052673703  0.052336918            5 
 3984000   0.62194925   -3.3716162    2526.4849  0.052846487  0.052325024           10 
 3985000   0.61688769   -3.3685242    2513.5875   0.05256352  0.052313077           21 
 3986000   0.60492252   -3.3709044    2517.7597  0.052637558  0.052301077            6 
 3987000   0.62176623   -3.3883298    2514.7155  0.052560729  0.052289048           15 
 3988000   0.61740227   -3.3960089    2507.9513  0.052406203  0.052276956            7 
 3989000   0.62174207   -3.3882225    2518.0526  0.052604091  0.052264858            8 
 3990000   0.60952402   -3.3695142    2532.3121  0.052888724  0.052252807           16 
 3991000   0.61681151   -3.3731217    2514.3373  0.052500153  0.052240861            5 
 3992000   0.62045706   -3.3761485     2522.924   0.05266625  0.052228872            6 
 3993000   0.61471935   -3.3783921    2524.7144  0.052690425  0.052216889            6 
 3994000   0.61100962   -3.3814907    2518.5948  0.052549549  0.052204935            9 
 3995000   0.62104321   -3.3761729    2511.8151  0.052394975  0.052192945           15 
 3996000   0.63198005   -3.3789369    2523.5241  0.052626045  0.052180977            7 
 3997000   0.61738388   -3.3851652    2512.7014  0.052387237  0.052169014            4 
 3998000   0.60410365   -3.3747057     2521.319  0.052553755  0.052156987            6 
 3999000   0.61459629     -3.37584     2517.947  0.052470347  0.052145029           19 
 4000000   0.60557978   -3.3633762    2520.7295  0.052515198  0.052133056            8 
 4001000   0.60704215   -3.4058188    2519.0355   0.05246679  0.052121065            9 
 4002000   0.60605499   -3.3799702    2519.8913  0.052471499  0.052109018           19 
 4003000   0.61631371   -3.3902983    2518.5138  0.052429715  0.052097032            8 
 4004000   0.60783546   -3.3971528    2517.8389  0.052402574  0.052085097            5 
 4005000   0.60721316   -3.3866716    2522.1652   0.05247951  0.052073187            4 
 4006000   0.62662062   -3.3919729    2518.6466  0.052393215  0.052061228            6 
 4007000   0.59966285   -3.3894414    2521.8931  0.052447657  0.052049287            6 
 4008000   0.60980389   -3.3591847    2529.7062  0.052597018  0.052037489            4 
 4009000   0.61315475   -3.3850402    2519.9677  0.052381469  0.052025543            5 
 4010000   0.61238244   -3.3873155    2518.3493  0.052334773   0.05201362            5 
 4011000   0.59938276   -3.3595607    2531.0755  0.052586128  0.052001758            6 
 4012000   0.59978346   -3.3972786    2519.9595   0.05234213  0.051989857            5 
 4013000   0.60765351   -3.3752833    2524.6009  0.052425469  0.051977927            8 
 4014000   0.60735859    -3.373221    2526.4526  0.052450851  0.051966048            6 
 4015000   0.62856807   -3.3686899    2520.3302  0.052310715  0.051954138            8 
 4016000   0.61185538   -3.4024667    2517.7065  0.052243245  0.051942196            8 
 4017000   0.61432056   -3.3850163    2525.2833  0.052387422  0.051930194           16 
 4018000   0.60626836    -3.394483    2522.3044  0.052312601  0.051918295            3 
 4019000   0.60906511   -3.4187643    2517.8126  0.052206449  0.051906354           12 
 4020000   0.61012438    -3.391923     2518.032   0.05219801   0.05189438           11 
 4021000   0.59955911   -3.3796398    2525.1084  0.052331685  0.051882458            6 
 4022000   0.62046501   -3.3717212    2521.6527  0.052247073  0.051870581           12 
 4023000   0.60049953   -3.3940572    2524.7336  0.052297904  0.051858673           13 
 4024000   0.60685703   -3.3839666    2522.5459  0.052239601  0.051846738           11 
 4025000   0.59789954   -3.3993999    2527.8675  0.052336802  0.051834826            9 
 4026000   0.60656278   -3.3936771     2529.374  0.052354985  0.051822887           10 
 4027000   0.61220722   -3.3876866     2521.733  0.052183864  0.051811041           19 
 4028000   0.60971468   -3.3923475    2524.9404  0.052237265  0.051799174            9 
 4029000   0.61565046    -3.384953    2522.3496  0.052170713  0.051787255            9 
 4030000   0.59396398   -3.3923535    2521.4338  0.052138829  0.051775376           12 
 4031000   0.60196234   -3.3835002    2522.5937  0.052149875  0.051763496            7 
 4032000   0.60291249   -3.3775667    2518.1144  0.052044361  0.051751569            7 
 4033000   0.59984585   -3.3905223    2524.9055  0.052171781  0.051739777           13 
 4034000   0.60210618   -3.3923132    2529.6126  0.052256086  0.051727981           12 
 4035000   0.59547289   -3.3745203    2532.2999  0.052298634  0.051716181            5 
 4036000   0.60963433   -3.3907659    2526.8846  0.052173864   0.05170437           10 
 4037000   0.62422894   -3.3800852     2523.578  0.052092684  0.051692579           11 
 4038000   0.59659237   -3.3929601    2529.6257  0.052204592  0.051680817            3 
 4039000   0.59726944   -3.4054547    2523.2568  0.052060262  0.051669022            8 
 4040000   0.59543369   -3.3849609    2527.3864  0.052132558  0.051657231            8 
 4041000   0.60067195   -3.3934224    2522.8826   0.05202678   0.05164545            7 
 4042000   0.60160562     -3.38743    2530.7246  0.052175585  0.051633634           11 
 4043000   0.60416121   -3.3909777    2527.2212   0.05209047  0.051621825           13 
 4044000   0.60615498   -3.3935092    2524.5646  0.052022844  0.051609954            6 
 4045000   0.61009632    -3.380349    2528.0449  0.052081684  0.051598149           12 
 4046000   0.59444806   -3.3964033     2519.123  0.051885051  0.051586392            7 
 4047000   0.58950385   -3.4170336    2531.5221  0.052127546  0.051574532           11 
 4048000   0.58768064   -3.4023164    2526.9827  0.052021218  0.051562714            8 
 4049000   0.59331894   -3.4014874     2518.397  0.051831667   0.05155083           15 
 4050000   0.60166654   -3.3943852     2523.114  0.051915926  0.051538927            8 
 4051000   0.59174133   -3.4084193    2524.8776  0.051939389  0.051527065            5 
 4052000   0.60588281   -3.4024501     2525.623  0.051941901   0.05151516            5 
 4053000   0.58502965   -3.3783822    2527.8459   0.05197479  0.051503345            9 
 4054000   0.60653883   -3.4009658    2517.7587  0.051754619  0.051491554            4 
 4055000   0.60904169   -3.4168066    2523.1445  0.051852538  0.051479716            7 
 4056000   0.60062037   -3.4154711     2532.335  0.052028579  0.051467873            4 
 4057000   0.60795693   -3.3978698    2527.1135  0.051908503  0.051456022            7 
 4058000    0.6068579   -3.3911905    2527.5601  0.051904881  0.051444147            9 
 4059000   0.60538516   -3.3914453    2528.2426  0.051906107  0.051432319            6 
 4060000   0.60639254   -3.4068765    2524.4393  0.051815256  0.051420477            9 
 4061000   0.61375471   -3.3978684     2528.357   0.05188289  0.051408609            9 
 4062000   0.61281649   -3.4052813    2516.0558  0.051617754  0.051396749            6 
 4063000   0.59665624   -3.3866648    2526.1605  0.051812301  0.051384915           20 
 4064000   0.61230067    -3.413113     2522.664  0.051727854  0.051373131            9 
 4065000   0.59117163   -3.3926396    2529.8293  0.051862019  0.051361309            6 
 4066000   0.60004173   -3.3974072    2531.9012  0.051891729  0.051349536           12 
 4067000   0.58094925   -3.4111486    2535.2337  0.051947253  0.051337755           11 
 4068000   0.61401489   -3.4211546    2531.3913  0.051855771  0.051325898            7 
 4069000   0.60478497   -3.4006344    2532.0986  0.051857512  0.051314002            7 
 4070000   0.60256095   -3.3859831    2529.8284  0.051798288  0.051302173           13 
 4071000    0.5973613   -3.4081281     2533.935  0.051869627    0.0512904            4 
 4072000   0.59726797   -3.4031708      2529.04  0.051756712  0.051278536           19 
 4073000   0.60004164   -3.4224376    2529.1922   0.05174712   0.05126672           12 
 4074000   0.59985376   -3.4075193    2528.2216  0.051714564   0.05125485           17 
 4075000   0.59731811   -3.3750831    2537.1986  0.051885453  0.051243065            6 
 4076000   0.58561513   -3.4146437    2517.1342  0.051462507  0.051231216            9 
 4077000   0.59333259   -3.4096487    2525.3829  0.051618488  0.051219378            8 
 4078000   0.60087738   -3.3939658    2519.0775  0.051476981  0.051207546           18 
 4079000   0.60017682   -3.4064717     2524.513  0.051575407  0.051195665            4 
 4080000    0.6015104   -3.4026578    2523.7123  0.051546412  0.051183799           10 
 4081000    0.5921464   -3.4215362    2526.5557  0.051591842  0.051172006            8 
 4082000   0.59449903   -3.4166014     2531.662  0.051683448  0.051160183            6 
 4083000   0.60426941   -3.4015899    2529.9198  0.051635231  0.051148371            9 
 4084000   0.60612838   -3.4076823    2530.7353  0.051639228  0.051136557           19 
 4085000   0.60600275   -3.4189525    2522.6254  0.051461146  0.051124731            9 
 4086000   0.60385125   -3.3887559      2532.12  0.051642194  0.051112928           14 
 4087000   0.60575368   -3.4078633    2527.9149  0.051543817  0.051101152            5 
 4088000   0.57418341   -3.4195217    2525.4611  0.051481186  0.051089306            8 
 4089000   0.60555893   -3.4140116    2532.7885  0.051617927  0.051077519            5 
 4090000   0.60224071   -3.4103176    2535.8794  0.051668284  0.051065791           14 
 4091000   0.59888666   -3.4107777    2534.8185  0.051634044  0.051054064           26 
 4092000   0.61291914   -3.4147395    2526.6301  0.051454669  0.051042348           16 
 4093000   0.59105822   -3.4031951    2531.6223  0.051543739  0.051030543            5 
 4094000   0.60358388   -3.4112815    2535.4698  0.051609465  0.051018846           10 
 4095000   0.60137687   -3.4023257    2524.7409  0.051378529  0.051007115            3 
 4096000   0.59024816   -3.4224757     2528.144  0.051435222  0.050995324            9 
 4097000   0.59889292   -3.4226201    2527.3896  0.051407323  0.050983526           14 
 4098000   0.58118766   -3.3874843    2525.3385  0.051353069  0.050971683            7 
 4099000    0.5929279   -3.4249647    2533.2523   0.05150143  0.050959928            5 
 4100000   0.60371235   -3.4465642    2523.8545  0.051297856  0.050948077           15 
 4101000   0.59435635   -3.4247305    2525.1927   0.05131254  0.050936246           12 
 4102000   0.59885711   -3.4328283    2530.1126   0.05139998  0.050924427           22 
 4103000   0.59624586   -3.4188211    2533.1832  0.051449817  0.050912657           10 
 4104000   0.58468841   -3.3945975    2527.0743  0.051313237  0.050900877            4 
 4105000   0.59322886   -3.3938591    2529.6396  0.051352814  0.050889111            9 
 4106000   0.61068691   -3.4220731    2526.9026  0.051284758   0.05087735            7 
 4107000   0.58388376   -3.3967791    2528.5656  0.051306014  0.050865613            7 
 4108000   0.58615861   -3.4175817    2528.9947  0.051302229  0.050853807           12 
 4109000   0.58293023   -3.3968636    2534.9903  0.051411339  0.050842078            5 
 4110000   0.58314226   -3.4023773    2531.7966  0.051334075   0.05083033            9 
 4111000   0.59456689   -3.4113903    2530.2448  0.051290133  0.050818582            8 
 4112000   0.60052579   -3.4011366    2538.2015  0.051438908  0.050806908            4 
 4113000   0.58756803   -3.4016156    2526.7857  0.051195107  0.050795196            9 
 4114000   0.58532913   -3.4112765    2528.2936  0.051213207  0.050783509            4 
 4115000   0.59653976   -3.4301216     2530.907  0.051253686  0.050771811            6 
 4116000   0.59883986   -3.4090575    2535.8394  0.051341096  0.050760101            3 
 4117000   0.60554284   -3.4360236    2533.3753  0.051278748  0.050748352            3 
 4118000   0.59108249   -3.4261296    2529.5069  0.051188014   0.05073658           12 
 4119000   0.59378679   -3.4320313    2531.7775  0.051221524  0.050724861           11 
 4120000    0.5916857   -3.4246008    2535.0601  0.051275487  0.050713182            5 
 4121000   0.58159094   -3.4215669    2527.5463  0.051111104  0.050701445            9 
 4122000   0.58161189   -3.4034073    2532.6525  0.051201934  0.050689719            7 
 4123000   0.57277056   -3.4111099    2525.5601  0.051046166  0.050677998            8 
 4124000   0.58778947    -3.407742    2534.3936  0.051212286  0.050666272           11 
 4125000   0.58564737    -3.418032    2530.3951  0.051119094   0.05065453           11 
 4126000   0.60596747   -3.4227395    2532.2185  0.051143531  0.050642769           11 
 4127000   0.59276243   -3.4118478    2545.5448  0.051400226  0.050631124           30 
 4128000   0.59291376   -3.3915504    2535.0249  0.051175405  0.050619469           16 
 4129000    0.5958139   -3.4055798    2535.5059  0.051172719  0.050607857           17 
 4130000   0.57902704   -3.4090286    2533.3086  0.051115992  0.050596185            7 
 4131000   0.59282807   -3.4063042    2535.8231  0.051154343  0.050584492            7 
 4132000   0.59182705   -3.4119234    2535.8285  0.051142072   0.05057289            8 
 4133000   0.58495496   -3.4233732    2542.8508  0.051271287  0.050561312            7 
 4134000   0.58320356   -3.4070002    2536.4859  0.051130582  0.050549683            8 
 4135000   0.59180743   -3.4196628    2536.1058  0.051110557  0.050538035           13 
 4136000   0.58430693   -3.4210591    2532.8857   0.05103332  0.050526401           10 
 4137000   0.57928818   -3.4301124    2534.6521  0.051056564  0.050514689           13 
 4138000   0.58263423   -3.4137485    2533.3189  0.051017377   0.05050305            5 
 4139000   0.58668872   -3.4156771    2538.4538  0.051108435  0.050491422            3 
 4140000   0.60247026   -3.4141859    2540.7547  0.051142405  0.050479877            8 
 4141000   0.59260886   -3.4153313     2533.341  0.050980862  0.050468293           17 
 4142000   0.58571201   -3.3950005    2535.6539  0.051015088  0.050456711            8 
 4143000   0.59797882   -3.4112182    2535.1127  0.050991888  0.050445154            6 
 4144000   0.58297324   -3.4226155    2536.8492  0.051014503  0.050433565            9 
 4145000   0.57478535   -3.4130959     2540.152  0.051068597  0.050421938           12 
 4146000   0.57843822   -3.4291404    2541.9324  0.051092064  0.050410373            6 
 4147000   0.59385263   -3.4095782    2534.6129  0.050932661  0.050398886            9 
 4148000   0.59522027    -3.429291    2537.8316  0.050985045  0.050387324            9 
 4149000   0.59523511   -3.4299102    2537.7176  0.050970468  0.050375778           10 
 4150000   0.59181726   -3.4248412    2542.6896  0.051058025  0.050364301            7 
 4151000   0.60792014   -3.4232868    2540.6022  0.051003819  0.050352784            8 
 4152000   0.58060926   -3.4199876    2535.2688   0.05088449  0.050341253            9 
 4153000   0.58804727   -3.4215349    2538.6853  0.050940791  0.050329731           14 
 4154000    0.5881002   -3.4265423    2540.1908  0.050958731  0.050318275            7 
 4155000    0.5815791   -3.4284375    2540.1051  0.050944748  0.050306767            9 
 4156000   0.58339038   -3.4135195    2540.5849   0.05094211  0.050295238            6 
 4157000   0.58506755    -3.424387    2549.4075  0.051106718  0.050283798            6 
 4158000   0.58716385   -3.4250107     2544.144  0.050988937  0.050272353            5 
 4159000   0.58939735   -3.4402184    2540.6716    0.0509071  0.050260855           11 
 4160000   0.58985121   -3.4221097    2552.6699  0.051135215  0.050249357           20 
 4161000   0.60201746   -3.4341713    2548.5874  0.051041165  0.050237979           30 
 4162000   0.58211294   -3.4391172    2537.5439  0.050807783  0.050226524           14 
 4163000   0.59683486   -3.4398621    2542.2362  0.050889506  0.050215024            8 
 4164000   0.58773817   -3.4221866    2543.9389  0.050911361  0.050203552            6 
 4165000   0.58454884   -3.4173406    2537.6419  0.050773147  0.050192088           10 
 4166000   0.58016302    -3.434234    2538.1985  0.050772094  0.050180628            3 
 4167000   0.58148892   -3.4279426    2546.3392   0.05092271  0.050169128            9 
 4168000   0.58275853   -3.4372822    2544.0326  0.050864374  0.050157686            6 
 4169000   0.58505754   -3.4258668    2536.5986  0.050703578  0.050146198            5 
 4170000   0.58446095   -3.4072117    2540.5738  0.050770859   0.05013477           10 
 4171000   0.58017407   -3.4252806    2544.6797   0.05084072   0.05012333           10 
 4172000   0.60689301   -3.4298008    2540.9767  0.050754567  0.050111898            5 
 4173000   0.57383593   -3.4331143    2541.2296  0.050747456  0.050100368            9 
 4174000   0.58169655   -3.4229724    2548.1455  0.050873372  0.050088884           19 
 4175000   0.58717282   -3.4506722    2537.1087  0.050640893  0.050077404           11 
 4176000   0.58152795    -3.437551    2529.4977  0.050476886  0.050065825           13 
 4177000   0.58360393   -3.4326104    2543.4844  0.050743843  0.050054353           17 
 4178000   0.58430849   -3.4301282    2550.1882  0.050865409  0.050042925           11 
 4179000   0.58518241   -3.4425181    2537.2835  0.050595905  0.050031527           14 
 4180000   0.58197496   -3.4390599    2545.9926  0.050757429  0.050020059           18 
 4181000   0.57875405   -3.4427282    2536.7609  0.050561287  0.050008527           12 
 4182000   0.58016454   -3.4227564    2544.8163  0.050709714  0.049997075            8 
 4183000   0.58168203    -3.424302     2553.251  0.050865627  0.049985688           13 
 4184000   0.58362972   -3.4456199    2549.7303  0.050783347  0.049974284            6 
 4185000   0.58478303   -3.4191203    2553.1278  0.050838865  0.049962851           23 
 4186000   0.57917229   -3.4411608    2546.2284   0.05068937  0.049951456            9 
 4187000     0.586185    -3.435265    2536.7523  0.050488662  0.049939994           14 
 4188000   0.58548472   -3.4405336    2541.4467  0.050570015  0.049928529            7 
 4189000   0.56880423   -3.4385136    2542.7718  0.050584303  0.049917015           10 
 4190000   0.58391051   -3.4468086    2547.1462  0.050659232  0.049905541           12 
 4191000   0.58848219   -3.4473244    2544.5031  0.050594589  0.049894072           29 
 4192000   0.59938452   -3.4360935    2552.8471  0.050748393  0.049882672           13 
 4193000   0.57568802   -3.4296034    2534.9838  0.050381266  0.049871318            6 
 4194000   0.57798922   -3.4420339    2547.0639  0.050609281  0.049859916            4 
 4195000   0.59282139   -3.4217821    2544.6607  0.050549477  0.049848516            8 
 4196000   0.56491244   -3.4350568    2541.8255  0.050481122  0.049837086           16 
 4197000   0.58376804    -3.421201    2543.9154  0.050510591  0.049825696            9 
 4198000   0.58592841   -3.4216565    2542.7335  0.050475097  0.049814286           28 
 4199000   0.58134315   -3.4317376    2546.9018    0.0505458  0.049802881            7 
 4200000   0.58200468    -3.442361    2545.0846  0.050497709  0.049791484           15 
 4201000   0.58956228   -3.4308367    2550.5212  0.050593533  0.049780138            7 
 4202000   0.58160634   -3.4484905    2547.6752  0.050525051   0.04976879            6 
 4203000   0.58374045   -3.4493697    2549.1732  0.050542731  0.049757429           10 
 4204000   0.58526691   -3.4370776    2546.7069   0.05048182   0.04974599            6 
 4205000   0.59018551   -3.4217172     2543.604  0.050408324  0.049734596            4 
 4206000   0.58274701   -3.4306601     2550.016  0.050523379  0.049723287            7 
 4207000   0.58961051   -3.4252871    2552.7938  0.050566393  0.049711957            4 
 4208000   0.56970394   -3.4469512    2540.6635  0.050314154   0.04970057            4 
 4209000   0.58601191   -3.4430072    2552.1015  0.050528659  0.049689188           13 
 4210000   0.59078948   -3.4169783    2546.6302  0.050408357  0.049677863            5 
 4211000   0.57015276   -3.4367112    2541.4559   0.05029399  0.049666514           13 
 4212000   0.57520034   -3.4250678    2542.5461  0.050303619  0.049655117            9 
 4213000   0.57852819   -3.4555429    2543.3985  0.050308539  0.049643671           10 
 4214000   0.57294679   -3.4408181    2543.1243  0.050291178   0.04963229            4 
 4215000   0.56487748   -3.4374168    2549.4854   0.05040501   0.04962092            6 
 4216000   0.57964665   -3.4428173    2551.7802  0.050438413  0.049609593            7 
 4217000   0.57656467   -3.4537315    2546.5097    0.0503223  0.049598214           25 
 4218000   0.57152039   -3.4412334    2545.3129  0.050286725   0.04958685           10 
 4219000   0.56661441   -3.4491918    2546.1006  0.050290365  0.049575482            9 
 4220000    0.5697689   -3.4435981    2544.9659  0.050256041  0.049564121            6 
 4221000   0.56771521   -3.4607049    2548.1873  0.050307734  0.049552781            9 
 4222000   0.57089338   -3.4397495    2547.6556  0.050285323  0.049541418            9 
 4223000   0.56947159   -3.4582493      2542.87   0.05017898  0.049530113            7 
 4224000   0.57802943   -3.4343639     2549.296  0.050293875  0.049518768           11 
 4225000      0.57485   -3.4393234    2551.6745  0.050328885  0.049507454            8 
 4226000   0.57213635   -3.4359645    2548.1531  0.050247538  0.049496206            7 
 4227000   0.57904027   -3.4475058    2551.7545   0.05030665  0.049484861            8 
 4228000   0.57612692   -3.4656333    2557.9904   0.05041766  0.049473552            7 
 4229000   0.56996232   -3.4622828    2555.9774  0.050366072  0.049462229            6 
 4230000   0.57464909   -3.4508788    2550.4831  0.050245924   0.04945085           10 
 4231000   0.57607514   -3.4356502    2549.4243  0.050213195  0.049439493            3 
 4232000   0.56941628    -3.444459    2545.4682  0.050123429  0.049428195            6 
 4233000   0.57599462   -3.4500576    2544.2638  0.050087876  0.049416907           14 
 4234000   0.56967135   -3.4494606    2554.6795  0.050281049  0.049405654            3 
 4235000   0.57458691   -3.4464254     2555.016  0.050275796  0.049394382            6 
 4236000   0.57443437   -3.4376631    2542.7152  0.050021939   0.04938306           14 
 4237000   0.57631382   -3.4584323    2551.2683  0.050178355  0.049371749            6 
 4238000   0.57463498   -3.4428171    2551.1399   0.05016399  0.049360431            8 
 4239000   0.56270892   -3.4367013    2552.5774  0.050180417   0.04934913            5 
 4240000   0.57180311   -3.4502694    2548.8326   0.05009498  0.049337857           10 
 4241000   0.57092092   -3.4435333    2544.8454  0.050004822  0.049326639            7 
 4242000   0.58028008    -3.441942    2558.1915  0.050255217  0.049315381            9 
 4243000   0.58225082   -3.4335938    2550.5718  0.050093718  0.049304172           11 
 4244000   0.57200165   -3.4199182    2558.6253  0.050240051  0.049292953           10 
 4245000   0.58674275   -3.4385927     2551.966  0.050097487  0.049281725            7 
 4246000    0.5880711   -3.4642149    2551.4303  0.050075174  0.049270478           27 
 4247000   0.56197481   -3.4679409    2551.3436  0.050061683  0.049259115           23 
 4248000    0.5791028   -3.4616448    2549.8137  0.050019886  0.049247723           14 
 4249000   0.57753224   -3.4587588    2548.3706  0.049979811  0.049236402           20 
 4250000   0.57717332   -3.4397754    2550.7793   0.05001528  0.049225131            5 
 4251000   0.57849046   -3.4490695    2557.6393  0.050137993  0.049213875            8 
 4252000   0.56970198   -3.4635403    2551.3483  0.050002906  0.049202621           11 
 4253000   0.56568303   -3.4442634    2552.1663  0.050007177  0.049191382           10 
 4254000   0.57856083   -3.4535236    2556.0014  0.050070549  0.049180176            8 
 4255000   0.58420511   -3.4561808    2556.2063  0.050062795  0.049168893            8 
 4256000   0.57054149    -3.456005    2559.5909  0.050117303  0.049157571           21 
 4257000   0.55694141   -3.4512853    2549.1807  0.049901744  0.049146237           14 
 4258000   0.56342886   -3.4280402    2550.7202  0.049920155  0.049134993           21 
 4259000   0.57058693   -3.4591401    2551.9187  0.049931883  0.049123702            8 
 4260000   0.56609541   -3.4451189    2554.9557  0.049979571  0.049112371           10 
 4261000   0.57009439   -3.4381811    2555.8274   0.04998489  0.049101051           30 
 4262000   0.56926348   -3.4379236    2551.3308  0.049885242  0.049089763            8 
 4263000   0.57626643   -3.4577462    2554.6487  0.049938397  0.049078423           13 
 4264000   0.56090261   -3.4527575    2548.1299  0.049799286  0.049067134           15 
 4265000   0.57351142   -3.4519818    2547.8959  0.049783038  0.049055833            5 
 4266000   0.57683745    -3.477409    2545.4191  0.049722986  0.049044493           24 
 4267000   0.56238522   -3.4485738    2551.2954  0.049826096  0.049033185           17 
 4268000    0.5732259   -3.4489497     2551.465  0.049817732  0.049021942            5 
 4269000    0.5642729   -3.4611298     2539.608  0.049574608  0.049010618           11 
 4270000   0.56504965   -3.4549837    2552.0644  0.049806096  0.048999355            8 
 4271000   0.57369804   -3.4458001     2554.234  0.049836766  0.048988113           13 
 4272000    0.5690028   -3.4459895     2547.791  0.049699419  0.048976856            7 
 4273000    0.5614902   -3.4529138    2558.4911  0.049896463  0.048965583           12 
 4274000   0.55904129   -3.4671294    2553.1025  0.049779724  0.048954358            6 
 4275000    0.5668953   -3.4578297    2547.5132  0.049659126  0.048943048            4 
 4276000   0.54943408   -3.4481964    2547.6959  0.049651074  0.048931763           21 
 4277000   0.56772867   -3.4264302    2558.2726  0.049845543  0.048920536            8 
 4278000   0.56534103   -3.4626117    2553.1257   0.04973363  0.048909292            8 
 4279000   0.56787136    -3.457776    2552.4764  0.049709363  0.048897973            9 
 4280000   0.56802761   -3.4576397    2559.6074  0.049836593  0.048886701            8 
 4281000   0.56075231   -3.4754295    2548.4166  0.049607112  0.048875407           13 
 4282000   0.57034131   -3.4379202      2552.76  0.049680056  0.048864046            6 
 4283000   0.56039631   -3.4613873    2545.6989  0.049531071  0.048852735           10 
 4284000   0.56370775   -3.4760516    2551.5926  0.049634154  0.048841379           21 
 4285000    0.5641164   -3.4674427    2540.9713  0.049416011   0.04882992            8 
 4286000   0.58140893   -3.4685946    2553.0439  0.049639212  0.048818494           24 
 4287000   0.55876309   -3.4805901    2544.9532  0.049470359  0.048807128           24 
 4288000   0.56155599   -3.4743949    2549.4612  0.049546432  0.048795766            7 
 4289000   0.57122576   -3.4599464    2547.9664  0.049505836  0.048784502            9 
 4290000   0.56944767   -3.4566346    2549.0363   0.04951508  0.048773189           16 
 4291000   0.56123046   -3.4475893    2547.8648   0.04948079  0.048761889           13 
 4292000   0.54951716   -3.4813125    2542.9969  0.049374745  0.048750505           11 
 4293000   0.55824873   -3.4701391    2555.1644  0.049599433  0.048739162            8 
 4294000   0.55353064   -3.4477149    2548.1952  0.049452631  0.048727843           11 
 4295000   0.55699549   -3.4575219    2548.8178  0.049453198   0.04871652            8 
 4296000   0.57447167   -3.4890775    2547.2578  0.049411424  0.048705178            4 
 4297000   0.56108462   -3.4621923    2546.1067  0.049377602   0.04869383           12 
 4298000   0.55676248   -3.4497694    2550.6695  0.049454581  0.048682517           13 
 4299000    0.5565651   -3.4534858     2548.196  0.049395132   0.04867119            6 
 4300000   0.56376993   -3.4602992    2552.6256  0.049469488  0.048659915           18 
 4301000   0.56040073   -3.4639406     2559.534   0.04959184  0.048648605            7 
 4302000   0.56710652   -3.4598263    2547.7256  0.049351573  0.048637252            7 
 4303000   0.56460783   -3.4465512    2548.5311  0.049355702  0.048625872            8 
 4304000   0.55668188   -3.4634683    2545.6768  0.049288972  0.048614519           10 
 4305000    0.5610743   -3.4703078    2554.0322  0.049439261  0.048603181            9 
 4306000   0.55504347   -3.4589006    2553.3258  0.049414108  0.048591861           15 
 4307000   0.57057465   -3.4717204    2556.3205  0.049460578  0.048580583            5 
 4308000   0.55368669   -3.4536011    2550.8678  0.049343621   0.04856931           15 
 4309000   0.54903129   -3.4578969    2549.8263  0.049312027  0.048557992            4 
 4310000   0.55720937   -3.4670886    2552.7374  0.049356872   0.04854671            7 
 4311000   0.56520327   -3.4678063    2549.4762  0.049282383  0.048535372            8 
 4312000    0.5604251   -3.4616784    2559.3138  0.049461075  0.048524091            7 
 4313000   0.56996099   -3.4698812    2554.2199  0.049351185  0.048512814           16 
 4314000   0.56479446   -3.4838633    2550.2246  0.049262567  0.048501504            9 
 4315000   0.56304697   -3.4636716    2553.4683  0.049313795  0.048490207           13 
 4316000   0.56539469   -3.4781925     2547.827  0.049193447  0.048478909            9 
 4317000   0.55963434   -3.4661326    2549.5866  0.049216018  0.048467532           11 
 4318000   0.56477783    -3.455835     2556.521  0.049338448  0.048456216            7 
 4319000   0.56562033   -3.4547196    2551.4568  0.049229313  0.048444975            7 
 4320000   0.55828783   -3.4753339    2551.5905  0.049220495  0.048433731           10 
 4321000   0.56118314   -3.4798746    2555.1882  0.049278489  0.048422503            7 
 4322000   0.55674285   -3.4679741    2557.5595  0.049312809   0.04841123           11 
 4323000    0.5703272   -3.4687974    2552.4894  0.049203667  0.048400002           14 
 4324000   0.57763619   -3.4671809     2550.317  0.049150419  0.048388744           25 
 4325000   0.55316812   -3.4627097    2554.2929  0.049215663  0.048377598            8 
 4326000    0.5673563   -3.4561966    2555.0759  0.049219369  0.048366367            5 
 4327000   0.55666626    -3.478255     2550.692  0.049123566  0.048355112           12 
 4328000   0.56705599   -3.4702231    2556.1049  0.049216438  0.048343775           14 
 4329000   0.56494227   -3.4704482    2556.3544  0.049209872  0.048332517           13 
 4330000   0.56906007   -3.4913678    2546.6842  0.049012398  0.048321225           11 
 4331000   0.54378367   -3.4795354    2551.6363  0.049096365  0.048309947            7 
 4332000   0.56718256   -3.4532622    2554.6289  0.049142599    0.0482987            9 
 4333000   0.54848369   -3.4825216    2556.4312  0.049165921  0.048287419           10 
 4334000   0.56227163   -3.4715255     2554.393  0.049115387  0.048276142            7 
 4335000   0.55299372   -3.4931279    2553.7771  0.049092216  0.048264815           11 
 4336000   0.57215474   -3.4672879     2559.418  0.049189307  0.048253548            9 
 4337000   0.55315334   -3.4616839    2548.6467  0.048970999  0.048242262           14 
 4338000   0.56051257   -3.4814181    2546.7074  0.048922456  0.048231004            6 
 4339000   0.57189487   -3.4680955    2551.8668  0.049010272  0.048219695           37 
 4340000   0.56168629   -3.4746822    2553.1935  0.049024452   0.04820844           12 
 4341000   0.54900955   -3.4737914    2545.8812  0.048872786  0.048197144           10 
 4342000   0.56044047   -3.4717445    2550.2894  0.048946135  0.048185882           21 
 4343000   0.55864284   -3.4749538    2549.9228   0.04892783  0.048174577           13 
 4344000   0.56167655   -3.4804426    2550.9015  0.048935342  0.048163302            7 
 4345000    0.5616377   -3.4588653    2554.4237  0.048991632  0.048152025            9 
 4346000   0.55061396   -3.4765103    2547.4997  0.048847593  0.048140749            8 
 4347000   0.56047224   -3.4679721    2551.1435  0.048906209  0.048129443           12 
 4348000   0.56094666    -3.478906    2553.2587    0.0489355  0.048118133            9 
 4349000   0.56567232   -3.4902624    2548.0228  0.048823922  0.048106795            4 
 4350000   0.54892998   -3.4858838    2548.6939  0.048825554  0.048095472           17 
 4351000   0.56454382    -3.482782    2553.2777  0.048902124  0.048084224            9 
 4352000   0.55010838   -3.4510892    2553.0033  0.048885632  0.048073016           10 
 4353000   0.55920705   -3.4616928    2554.7863  0.048908536   0.04806184            8 
 4354000   0.57478117   -3.4901055    2553.3906   0.04887059  0.048050564           11 
 4355000   0.54773331   -3.4759369     2552.761  0.048847322  0.048039318            9 
 4356000   0.55935389   -3.5073065    2548.3516  0.048751752  0.048028027           16 
 4357000   0.55511089   -3.4665402    2551.6088  0.048802861  0.048016771           13 
 4358000   0.54790657   -3.4774423    2550.2364  0.048765421  0.048005547           16 
 4359000   0.54747479   -3.4929161    2554.1978  0.048829964  0.047994249           12 
 4360000   0.55011119   -3.4862859    2550.5218  0.048748505  0.047982967           15 
 4361000   0.56360084   -3.4723011    2554.9367   0.04882169  0.047971667            9 
 4362000   0.56088023   -3.4729131    2549.4323  0.048705339  0.047960442           10 
 4363000   0.54952185   -3.4753085    2556.3862  0.048826997  0.047949151           12 
 4364000   0.55081099   -3.4866276    2553.2858  0.048756603  0.047937907           10 
 4365000   0.55258599   -3.4790008    2547.9217  0.048643026  0.047926669           11 
 4366000   0.55162203   -3.4733039    2556.6631   0.04879873  0.047915395           11 
 4367000   0.55054778   -3.4992042    2551.1845  0.048683011  0.047904132            9 
 4368000   0.54898561    -3.494972     2557.839   0.04879882   0.04789285           18 
 4369000   0.54932604   -3.4788522    2554.3213  0.048720556  0.047881578           15 
 4370000   0.56225967   -3.4808304    2556.1026  0.048743376  0.047870337            6 
 4371000   0.54505731   -3.4720651    2547.5729  0.048569604  0.047859113           12 
 4372000   0.55024607   -3.4862112    2551.2061  0.048627746  0.047847853           19 
 4373000   0.55541251   -3.4776967    2553.7528  0.048665157  0.047836568           12 
 4374000   0.54778659   -3.4963871    2551.3054  0.048607405  0.047825267           15 
 4375000   0.54747754   -3.4711858    2552.5873   0.04862071  0.047813988            7 
 4376000   0.54746083   -3.4816406    2551.8018  0.048594642  0.047802665            9 
 4377000   0.55978707   -3.4726208    2548.3487  0.048517795  0.047791385            6 
 4378000    0.5524314   -3.5017873     2554.747  0.048628502   0.04778011            8 
 4379000   0.53444884   -3.4839521    2550.9868   0.04854584  0.047768817           17 
 4380000   0.55251528   -3.4630165    2554.3103   0.04859799   0.04775751            4 
 4381000   0.54353731   -3.4784147    2549.3647  0.048492824  0.047746236            9 
 4382000   0.55387759   -3.5090589    2546.4776  0.048426853  0.047734919            5 
 4383000   0.55251537   -3.4960595     2549.484  0.048472963  0.047723555           12 
 4384000   0.56032124    -3.490375    2549.3441  0.048459247  0.047712227           20 
 4385000   0.55395493   -3.5019016    2549.6451  0.048453917    0.0477009           14 
 4386000   0.54396401   -3.4780849    2547.3329  0.048398939  0.047689521           11 
 4387000   0.54349197   -3.4787752    2549.6482  0.048431886  0.047678238           12 
 4388000   0.54903629   -3.4769195    2550.2319  0.048431935  0.047666929           23 
 4389000   0.56039388   -3.4900171    2550.3583  0.048423299  0.047655614           30 
 4390000   0.55068934   -3.4828807    2556.6626  0.048531941   0.04764437           10 
 4391000   0.55137512   -3.4721283    2558.4108  0.048554065  0.047633189           16 
 4392000   0.55053001   -3.4759902    2549.8261  0.048380126  0.047621943           23 
 4393000   0.55315649   -3.4979066    2550.3273  0.048378619  0.047610746           18 
 4394000   0.55258002   -3.5017683    2557.4258  0.048502233  0.047599468           10 
 4395000   0.55164663   -3.4910353     2553.979  0.048425843  0.047588214            9 
 4396000   0.54456634   -3.4806994    2558.4795  0.048500141  0.047576944           13 
 4397000   0.54595309   -3.4919129    2554.1347  0.048406767  0.047565699           20 
 4398000   0.55166948   -3.4761845    2547.5906  0.048271764  0.047554451            8 
 4399000   0.54520092   -3.5018281    2550.9236   0.04832393  0.047543182            6 
 4400000   0.54521525   -3.4938606    2552.2263   0.04833762  0.047531937            7 
 4401000   0.55137316   -3.4846474    2551.3711  0.048310443  0.047520707           19 
 4402000   0.54021054   -3.4998857    2553.9175  0.048347673  0.047509507            5 
 4403000   0.54664318   -3.5047419    2550.2733  0.048267721  0.047498252            9 
 4404000   0.55281608   -3.4990875     2554.225  0.048331536  0.047486956           24 
 4405000   0.54496759   -3.5064966    2551.8869  0.048276332  0.047475718            9 
 4406000   0.53929717   -3.5202083    2554.8716  0.048321827  0.047464411           19 
 4407000   0.55190132   -3.4950346    2551.9579  0.048255766  0.047453148           13 
 4408000   0.55746792   -3.4914131    2551.5355  0.048236833  0.047441906           12 
 4409000   0.55194611     -3.49849    2551.1378  0.048218376   0.04743066           16 
 4410000   0.54427542   -3.4895115    2553.5127  0.048252318  0.047419478            9 
 4411000   0.55337566   -3.4937554    2548.1492  0.048140051  0.047408167           25 
 4412000   0.54642315   -3.5211783    2551.6454  0.048195176  0.047396845           14 
 4413000   0.54285289   -3.4772723    2552.2025  0.048194774  0.047385573           20 
 4414000   0.54525852   -3.5076053    2555.7704  0.048251216  0.047374366           12 
 4415000   0.54642451   -3.5198875     2552.975  0.048187524  0.047363143            9 
 4416000   0.54469162   -3.5111705    2542.5732  0.047980322  0.047351834           12 
 4417000   0.53742393   -3.4891392    2551.3783  0.048135581  0.047340558            9 
 4418000   0.54532862   -3.5093101     2551.535   0.04812764  0.047329352           10 
 4419000   0.55015645   -3.4964388    2546.7721  0.048026931  0.047318091            8 
 4420000   0.54135912   -3.4884195     2548.395  0.048046663  0.047306851           18 
 4421000   0.53498384   -3.5130852    2548.0864  0.048029979  0.047295598           11 
 4422000   0.55009804   -3.4975789    2552.0971  0.048094698  0.047284316           12 
 4423000   0.54153738   -3.5072418    2558.8967  0.048211935   0.04727313           16 
 4424000   0.53863433   -3.5026816    2553.1627  0.048093029  0.047261962           33 
 4425000   0.55024553   -3.5118994    2554.1133  0.048100062  0.047250759           14 
 4426000   0.54649426   -3.4798476    2556.4304  0.048132822  0.047239528            8 
 4427000    0.5498907   -3.5033059    2553.0908  0.048059085  0.047228275            7 
 4428000   0.54101347   -3.5018527    2557.2076  0.048125707  0.047217044           31 
 4429000   0.53356038   -3.5001867    2549.2147  0.047964452  0.047205819            9 
 4430000   0.55995767   -3.4965505    2551.0801  0.047988715  0.047194561            7 
 4431000   0.54053243   -3.4944749    2554.3986  0.048040297  0.047183366           18 
 4432000   0.53812341   -3.5026092    2544.6141  0.047845482  0.047172121           10 
 4433000   0.54354152   -3.4939357    2552.7438  0.047987514   0.04716089           19 
 4434000    0.5448809   -3.4712765    2559.2551  0.048099066  0.047149647           10 
 4435000   0.54575025   -3.5134273    2550.4413   0.04792261  0.047138453           46 
 4436000   0.54045044   -3.4998604     2551.945  0.047940056  0.047127183           12 
 4437000   0.53678644    -3.505089    2547.5127  0.047846005  0.047115987           11 
 4438000   0.53505638   -3.5013352    2549.0754  0.047864568  0.047104753            8 
 4439000    0.5389096   -3.4990548    2551.2043  0.047893751  0.047093534           22 
 4440000   0.54667255   -3.5072554    2558.3509  0.048017097  0.047082305            8 
 4441000   0.54333533   -3.5182784    2553.9121  0.047922992  0.047071088           13 
 4442000   0.52819564   -3.5086143    2549.6146  0.047831582  0.047059893            8 
 4443000   0.55212932   -3.5040056    2551.7345  0.047860576  0.047048674            8 
 4444000   0.54955863   -3.4861771    2557.5794   0.04795941  0.047037565            6 
 4445000   0.54132305   -3.5079881    2554.9645  0.047899598  0.047026447            5 
 4446000    0.5379505   -3.5102682    2557.4423  0.047935265  0.047015268            7 
 4447000   0.53794689   -3.5197582    2551.0368  0.047804452  0.047004052           16 
 4448000   0.54492629   -3.5086039    2559.6137  0.047954393  0.046992895            5 
 4449000   0.54454025   -3.4981308    2553.3621  0.047826518  0.046981724           14 
 4450000   0.53219371   -3.4978428    2557.0623  0.047885062   0.04697054           12 
 4451000   0.54769813   -3.4934411    2557.3281  0.047879279  0.046959402           14 
 4452000   0.52707253   -3.5094521    2558.5862  0.047892075  0.046948237           10 
 4453000   0.54495518   -3.5101052    2552.6232  0.047769728  0.046937027            6 
 4454000    0.5405421   -3.5058034    2553.6713  0.047778613  0.046925842            5 
 4455000   0.53688355   -3.5062697    2559.8993  0.047884387  0.046914719            8 
 4456000   0.53874027   -3.4958291    2553.7933   0.04775945  0.046903624            8 
 4457000   0.53662617   -3.5032114    2549.9946  0.047677709  0.046892553           17 
 4458000   0.55513112   -3.5188456    2554.8076  0.047756984  0.046881428           10 
 4459000   0.55120169   -3.5291254    2547.7513  0.047614399  0.046870343            9 
 4460000   0.53362218    -3.530128     2553.982  0.047720143  0.046859174           24 
 4461000   0.54327519   -3.5272939    2553.8035   0.04770611   0.04684806           13 
 4462000   0.53300757   -3.5038851     2554.813  0.047714273   0.04683697           31 
 4463000   0.53510834   -3.5124343    2560.3316  0.047806624  0.046825908           15 
 4464000   0.54515655   -3.5047931    2565.6892  0.047895931  0.046814848            7 
 4465000   0.53492723   -3.5233494    2559.2767  0.047765522  0.046803807            8 
 4466000   0.54228351   -3.4927547     2554.218  0.047660434  0.046792785            8 
 4467000   0.53495058   -3.5042252    2566.1669  0.047872676  0.046781819           16 
 4468000   0.54000768   -3.5132829    2558.9421   0.04772721  0.046770833           10 
 4469000   0.54079694   -3.4964479    2560.9798  0.047754528  0.046759824           12 
 4470000    0.5290087   -3.5098711     2558.273  0.047693383  0.046748831            8 
 4471000   0.54440201   -3.5123637    2560.1954  0.047718546  0.046737807            8 
 4472000   0.52942042   -3.5199556    2559.0582  0.047686683  0.046726763            8 
 4473000   0.55330248   -3.4933292    2557.8157  0.047652874  0.046715776            8 
 4474000   0.52884384   -3.5124152    2561.6158  0.047713005  0.046704798            9 
 4475000   0.52580326   -3.5004104    2559.6744  0.047666191  0.046693813            9 
 4476000   0.53436432   -3.5125069     2557.633  0.047617534  0.046682843           16 
 4477000   0.52438034   -3.5051522    2564.0143  0.047725678  0.046671833            6 
 4478000   0.53827184   -3.5269712    2560.7125  0.047653575   0.04666089            5 
 4479000    0.5310587   -3.5099331    2558.6735  0.047604999  0.046649931            9 
 4480000    0.5289885     -3.52382    2567.5616  0.047759702  0.046639003           27 
 4481000   0.54540383   -3.5291635    2560.9937  0.047626901  0.046628006           15 
 4482000   0.53438697   -3.5175753    2567.8163  0.047743126  0.046617057           16 
 4483000   0.52599663   -3.5292375    2558.9669  0.047567978    0.0466061           10 
 4484000   0.55089535   -3.5150233    2568.0232  0.047725676  0.046595087           22 
 4485000   0.52633844   -3.5281918    2557.1887  0.047513725  0.046584133           22 
 4486000   0.52651717   -3.5094998    2551.9078  0.047405034  0.046573154           16 
 4487000   0.53348669   -3.5176038    2556.0828  0.047472008  0.046562186           18 
 4488000   0.53405187   -3.5043595    2562.0217  0.047571705  0.046551208           11 
 4489000   0.53562813   -3.5312229      2565.39  0.047623635  0.046540234            8 
 4490000   0.53114403   -3.5156204    2555.3725  0.047427106  0.046529279           21 
 4491000   0.52797874    -3.526684    2562.6091  0.047550826  0.046518294           10 
 4492000   0.52789667   -3.5232784    2559.9726  0.047491329  0.046507338           14 
 4493000   0.52754174   -3.5015781    2560.8794  0.047497578  0.046496412           13 
 4494000   0.51871985   -3.5214242     2555.336  0.047384216  0.046485431            9 
 4495000   0.54015198   -3.5288072    2563.7926  0.047530453  0.046474466            9 
 4496000     0.521888   -3.5377887    2558.4263  0.047420416  0.046463482           28 
 4497000   0.52872058   -3.5309835    2563.0608  0.047495752  0.046452478           25 
 4498000   0.53619246   -3.5249479    2560.1812  0.047431844  0.046441527           12 
 4499000   0.53847011   -3.5354882    2555.8067  0.047340274  0.046430611           17 
 4500000   0.52230229   -3.5302645    2556.7456  0.047347141  0.046419687           25 
 4501000   0.52668314   -3.5193464    2558.3338  0.047366027  0.046408754           24 
 4502000   0.54550621   -3.5230162    2563.8645   0.04745788  0.046397867           21 
 4503000   0.53610276   -3.5200348    2562.5395  0.047422821  0.046386959           17 
 4504000   0.53813616   -3.5423224    2558.0894  0.047329954  0.046376076           12 
 4505000   0.53720833   -3.5196913    2572.7048  0.047589804  0.046365207            8 
 4506000   0.53603274   -3.5290894    2563.9574  0.047417469  0.046354381           17 
 4507000   0.53116269   -3.5218151     2566.276  0.047449818  0.046343582           15 
 4508000   0.52255308   -3.5218136    2566.6084  0.047445437  0.046332736           11 
 4509000   0.52381358   -3.5160676    2562.1228  0.047352015  0.046321835           10 
 4510000   0.52480733   -3.5193375    2558.2005  0.047269041  0.046310961            5 
 4511000   0.53550372   -3.5319168    2555.7343  0.047213003    0.0463001           12 
 4512000   0.52022088   -3.5059347    2572.6906   0.04751571  0.046289277           15 
 4513000   0.53116097    -3.527063    2566.9893  0.047399906  0.046278478           13 
 4514000   0.52782626   -3.5165552    2566.8073  0.047386044  0.046267668           34 
 4515000   0.53814799   -3.5173249    2562.4712  0.047295519   0.04625684            8 
 4516000   0.52543993   -3.5293741    2568.8719  0.047403157  0.046245999           17 
 4517000   0.52792986   -3.5325957    2564.8625  0.047318694  0.046235217            9 
 4518000   0.52829408   -3.5243637    2570.2776  0.047408101  0.046224433            9 
 4519000   0.53441779   -3.5154072    2562.3148   0.04725077  0.046213661           14 
 4520000    0.5240553   -3.5343437    2568.2885  0.047350452   0.04620292           23 
 4521000   0.51623238   -3.5206507    2565.1774  0.047282633  0.046192173           13 
 4522000   0.51935665   -3.5192678    2573.8994  0.047432909   0.04618143           17 
 4523000   0.52921511   -3.5337871    2571.8188   0.04738409  0.046170643           15 
 4524000   0.53358072     -3.53027    2566.4148  0.047274072  0.046159902           19 
 4525000   0.53829806   -3.5268405    2578.2086  0.047480821  0.046149148           16 
 4526000   0.53058302   -3.5209629    2571.7264  0.047350979  0.046138368           19 
 4527000   0.52595229    -3.519381    2573.9087  0.047380692   0.04612764           10 
 4528000   0.52647972    -3.516487    2569.0033  0.047279949  0.046116915           20 
 4529000   0.52811339   -3.5144827    2577.1394  0.047419213  0.046106157           11 
 4530000   0.51720882   -3.5309861    2568.1282  0.047242977  0.046095393           16 
 4531000   0.52465734   -3.5406207    2572.8555  0.047319494  0.046084716            5 
 4532000   0.51643433   -3.5264923    2570.5482  0.047266626  0.046074009            6 
 4533000   0.52816025   -3.4995331    2573.4759  0.047310021  0.046063306           19 
 4534000   0.52766529   -3.5323852    2566.2572  0.047166909  0.046052569            9 
 4535000   0.52295207   -3.5248746    2565.7661  0.047147484  0.046041849           29 
 4536000   0.53126594   -3.5280042    2566.2731  0.047146404  0.046031092           11 
 4537000   0.52879146   -3.5241236    2566.9317   0.04714811  0.046020343            9 
 4538000   0.51277212   -3.5337299    2568.1826  0.047160692  0.046009544           12 
 4539000   0.52563054    -3.526829    2572.0677   0.04722163   0.04599874           18 
 4540000   0.52218217   -3.5244096      2571.55  0.047201725  0.045987954            7 
 4541000   0.50767476   -3.5325787     2563.938  0.047051641  0.045977202            7 
 4542000   0.53586206   -3.5378551    2567.9182  0.047114308  0.045966483            6 
 4543000   0.52923167   -3.5029474    2571.8599   0.04717624  0.045955761           15 
 4544000   0.52725007    -3.535877    2571.2167  0.047154061  0.045945047            7 
 4545000   0.52179903   -3.5216887    2566.0664  0.047049255  0.045934329           10 
 4546000   0.50417864   -3.5495711    2565.4369  0.047027367  0.045923572            7 
 4547000   0.52277546   -3.5171977     2565.032  0.047009604  0.045912844           14 
 4548000   0.52888034   -3.5217475    2576.7508  0.047213992  0.045902128           14 
 4549000   0.52047761   -3.5464049    2570.7442  0.047093578  0.045891486           17 
 4550000   0.53241952   -3.5124166    2579.7419   0.04724802  0.045880835            6 
 4551000   0.53279802   -3.5254917    2567.9859  0.047022374  0.045870179           12 
 4552000   0.51543303    -3.524677    2574.7587  0.047136033  0.045859574           11 
 4553000   0.52149988   -3.5386095     2570.858  0.047054286  0.045848893           15 
 4554000   0.51738702   -3.5184543    2570.2158  0.047032202  0.045838189           13 
 4555000   0.52274546    -3.540239    2569.3685  0.047006376  0.045827511           13 
 4556000   0.52361231   -3.5403976    2576.6368  0.047129002  0.045816811           15 
 4557000   0.51302403   -3.5356686    2571.5988   0.04702653  0.045806169           10 
 4558000   0.52935127   -3.5355523     2570.219  0.046990986  0.045795476           15 
 4559000   0.52126849   -3.5312342      2572.11  0.047015244  0.045784801            5 
 4560000   0.51919941   -3.5288838    2572.6493  0.047014789  0.045774147           26 
 4561000   0.52530534   -3.5295056    2565.6039  0.046875756  0.045763448           13 
 4562000   0.52435188    -3.549157    2568.2812  0.046914387  0.045752735            7 
 4563000   0.51101258   -3.5365993    2567.7944  0.046895215  0.045742039           20 
 4564000   0.53263923   -3.5233962    2572.5501  0.046971774  0.045731357           14 
 4565000   0.52187645   -3.5484545    2559.2727  0.046719107   0.04572069            9 
 4566000   0.51155392   -3.5145901    2571.8563  0.046938537  0.045710018           19 
 4567000   0.50108599   -3.5346086    2563.0966  0.046768422  0.045699376            9 
 4568000    0.5303793   -3.5253003    2571.0944  0.046904087  0.045688686           18 
 4569000     0.520522    -3.533518    2568.0946  0.046839107   0.04567802           11 
 4570000   0.50826789   -3.5286643    2570.2329  0.046867851   0.04566734            9 
 4571000   0.51015764   -3.5582617    2567.8568  0.046814278   0.04565666           11 
 4572000   0.52019124   -3.5511804     2569.837  0.046840131  0.045645937           12 
 4573000   0.51630045   -3.5491454    2570.4178  0.046840473  0.045635258            8 
 4574000   0.52354062   -3.5433634    2572.8564  0.046874662   0.04562456            8 
 4575000   0.53013472    -3.526917    2566.9461   0.04675676  0.045613858           18 
 4576000   0.53157716   -3.5376714    2566.2235  0.046733382  0.045603173           16 
 4577000    0.5235918   -3.5352882    2575.4582  0.046891307  0.045592488           16 
 4578000   0.52279409   -3.5325483    2571.4767   0.04680859  0.045581819           10 
 4579000   0.53456984   -3.5329454    2579.0192  0.046935634  0.045571218           25 
 4580000    0.5331698   -3.5534966    2570.0984  0.046763071  0.045560626           20 
 4581000   0.52341338   -3.5320197    2573.9592  0.046823095  0.045549962           13 
 4582000    0.5257343   -3.5567838    2568.9487  0.046721751  0.045539285           33 
 4583000   0.53299078   -3.5353465    2568.1473  0.046696984  0.045528621           32 
 4584000   0.54398861   -3.5382159    2568.6193  0.046695378  0.045517967            8 
 4585000   0.51925719    -3.541453    2571.0059   0.04672857   0.04550727           13 
 4586000   0.50835899   -3.5605051    2572.0019  0.046736478  0.045496568           17 
 4587000   0.51306354   -3.5506651    2570.5821  0.046700496  0.045485913           18 
 4588000   0.51372566   -3.5533661    2574.0414   0.04675315  0.045475269           23 
 4589000   0.51073859   -3.5545883    2568.6053  0.046644245  0.045464584           30 
 4590000   0.51216038   -3.5473935    2569.2181  0.046645209  0.045453859           12 
 4591000   0.52649666   -3.5374072    2571.5842  0.046677996  0.045443198           13 
 4592000     0.519587   -3.5486522    2576.2489  0.046752484  0.045432548           16 
 4593000   0.51194689   -3.5582882    2572.0188  0.046665557  0.045421879           25 
 4594000   0.51544558   -3.5554499    2572.8658  0.046670763  0.045411246            9 
 4595000    0.5129213   -3.5457346    2569.4246  0.046598197  0.045400575           21 
 4596000   0.53017342   -3.5631717    2570.9124  0.046615035  0.045389939           30 
 4597000   0.51047744   -3.5553789    2572.1814  0.046627898  0.045379308            6 
 4598000   0.51553423   -3.5409861    2568.9683  0.046559525   0.04536871            9 
 4599000   0.51877508    -3.554045    2573.9071  0.046638892  0.045358142           43 
 4600000   0.52492129   -3.5462741    2570.5217  0.046567422  0.045347508            9 
 4601000   0.51452161   -3.5461738    2570.8305  0.046562894  0.045336823           15 
 4602000   0.51351123   -3.5497738    2571.3213  0.046561663  0.045326177           24 
 4603000   0.52085566   -3.5494079    2568.3685  0.046498091   0.04531556           10 
 4604000   0.51991191   -3.5612281    2574.0157  0.046590207  0.045304939           29 
 4605000   0.51523443   -3.5561903    2570.0695  0.046508678  0.045294313           11 
 4606000   0.51803712   -3.5543193    2570.6302  0.046508723  0.045283647           12 
 4607000   0.51097884   -3.5612561     2565.041  0.046397529  0.045272959           20 
 4608000   0.51194214   -3.5392146    2571.8727  0.046511009  0.045262324           10 
 4609000   0.52286599   -3.5584981    2563.1888  0.046343906   0.04525169           13 
 4610000   0.50532763   -3.5567302    2564.6366  0.046360025  0.045241041           15 
 4611000   0.51336264   -3.5610835    2576.0862  0.046556896  0.045230411           11 
 4612000   0.50741413   -3.5504014    2577.1484  0.046565994  0.045219798           15 
 4613000    0.5089984   -3.5554111    2575.0678  0.046518314  0.045209212           30 
 4614000    0.5030514   -3.5552666    2567.0235  0.046362945  0.045198578            8 
 4615000   0.50847075   -3.5425022    2569.7883  0.046402822   0.04518794           17 
 4616000   0.50879074   -3.5332731    2572.3857   0.04643966  0.045177349            7 
 4617000   0.49921944   -3.5503456     2575.442  0.046484767  0.045166694            8 
 4618000   0.51363375   -3.5448679     2569.944  0.046375488  0.045156064            7 
 4619000   0.51318244   -3.5491505    2572.7832   0.04641667  0.045145438           12 
 4620000   0.50100922   -3.5574574    2573.2416  0.046414892  0.045134803           22 
 4621000   0.51803246   -3.5484818      2571.78   0.04637849  0.045124154           11 
 4622000   0.52176525    -3.556358    2568.8632  0.046315867  0.045113507           12 
 4623000    0.5200593   -3.5521785    2564.5557  0.046228202  0.045102857           19 
 4624000   0.50953028   -3.5610409    2563.2605  0.046194862  0.045092206            8 
 4625000   0.51374311   -3.5520432    2567.1478  0.046254916  0.045081527            9 
 4626000    0.5040631   -3.5566193    2565.5632  0.046216372  0.045070909           12 
 4627000   0.51322671   -3.5528182    2568.6923  0.046262739  0.045060272           16 
 4628000   0.51199263   -3.5734268    2569.1876  0.046261661  0.045049653           16 
 4629000   0.50211957   -3.5591746     2570.918  0.046282819  0.045039039           11 
 4630000   0.51607675   -3.5421162    2571.8244  0.046289135  0.045028426           27 
 4631000   0.49758973   -3.5444497    2568.6576  0.046222155  0.045017853           67 
 4632000   0.51329226   -3.5513728    2575.0537  0.046327247  0.045007248           35 
 4633000   0.51068808   -3.5359673    2575.5407  0.046326008  0.044996634           19 
 4634000   0.52008758   -3.5337351    2566.2529  0.046148988  0.044986043           10 
 4635000   0.51807595   -3.5551016    2569.7033  0.046201066  0.044975429           10 
 4636000   0.50942559   -3.5600083    2574.2874  0.046273501  0.044964847           11 
 4637000   0.49870155   -3.5547918    2566.4938  0.046123461  0.044954243            4 
 4638000   0.51240198   -3.5525735    2566.0876  0.046106216  0.044943568           20 
 4639000   0.50538045   -3.5504885    2564.8123  0.046073369  0.044932947           21 
 4640000   0.49465062   -3.5669385     2568.504  0.046129741  0.044922305            6 
 4641000   0.50039659   -3.5594249    2575.8933  0.046252484  0.044911756           11 
 4642000   0.50566771   -3.5623201    2569.9184  0.046135257  0.044901206           25 
 4643000   0.51416568   -3.5710896     2571.117  0.046146833  0.044890598           12 
 4644000   0.50590183   -3.5574929    2573.2215  0.046174661  0.044879982           10 
 4645000   0.50511651   -3.5599338    2568.5508  0.046080925  0.044869385           24 
 4646000   0.49391671   -3.5579322    2571.4528  0.046123059  0.044858767            8 
 4647000   0.51400838   -3.5514582     2572.357  0.046129348  0.044848136           22 
 4648000   0.50070628   -3.5828971    2564.9973  0.045987473  0.044837551           19 
 4649000   0.51903772   -3.5718034    2570.1377  0.046069723  0.044826954           13 
 4650000   0.51617323   -3.5675207    2567.3859    0.0460105  0.044816334            7 
 4651000   0.50279315   -3.5549128    2572.9043  0.046099482  0.044805724            8 
 4652000    0.5087682   -3.5608901    2567.3882  0.045990761  0.044795095            8 
 4653000   0.51028269   -3.5651266    2573.8503   0.04609661  0.044784461           25 
 4654000   0.50602129   -3.5668175     2566.907  0.045962379  0.044773813           28 
 4655000   0.50277658   -3.5688025    2562.8989  0.045880753  0.044763154           26 
 4656000   0.50864985   -3.5587963    2565.8351  0.045923451  0.044752541           25 
 4657000   0.49805136   -3.5792723    2565.3779  0.045905409  0.044741894           10 
 4658000   0.50545809   -3.5810327    2568.2882   0.04594762  0.044731264           33 
 4659000   0.51975279   -3.5501419    2567.1614  0.045917603  0.044720648            9 
 4660000   0.50595629   -3.5542948    2571.7038   0.04598898  0.044710091           22 
 4661000   0.51248302   -3.5677558    2575.1153  0.046040108  0.044699488           15 
 4662000   0.51284858   -3.5623107    2571.2909  0.045961871  0.044688903           30 
 4663000   0.50268466   -3.5569969    2567.7343  0.045888453  0.044678311           26 
 4664000   0.49992795   -3.5608615    2567.0697  0.045866741  0.044667756           26 
 4665000   0.50690632   -3.5633661    2566.1166  0.045839883  0.044657156           11 
 4666000   0.50883606   -3.5613513    2572.6067  0.045945969  0.044646583            5 
 4667000   0.50700593   -3.5608029    2576.5647  0.046006797  0.044636024           14 
 4668000   0.50445041   -3.5753228    2577.3752  0.046011412  0.044625448           18 
 4669000   0.50090519    -3.566017    2570.6544  0.045881603  0.044614884           15 
 4670000    0.5031777   -3.5828422     2570.101  0.045861903  0.044604256           11 
 4671000   0.50235528   -3.5870847    2567.1918  0.045800182  0.044593593           11 
 4672000   0.50124977   -3.5759545    2572.2645  0.045880859  0.044582945           13 
 4673000   0.50235992   -3.5713866    2565.5365  0.045751061  0.044572411           12 
 4674000   0.50958144   -3.5637533    2573.2847  0.045879417  0.044561873           11 
 4675000   0.50875157   -3.5556277    2571.7775  0.045842736  0.044551338           12 
 4676000   0.50167125   -3.5746812    2568.5618  0.045775623  0.044540788            4 
 4677000   0.50845297   -3.5728822     2573.319  0.045850599  0.044530249           14 
 4678000   0.50524817   -3.5661822    2566.1155  0.045712475  0.044519676           14 
 4679000   0.49891397   -3.5555639    2569.2069  0.045757764   0.04450914           12 
 4680000   0.49716702   -3.5881655    2575.8109  0.045865579  0.044498579           10 
 4681000   0.48733291   -3.5563397    2570.0498  0.045753219  0.044487991            6 
 4682000   0.50551646   -3.5820435    2566.3992  0.045678472  0.044477408           22 
 4683000   0.50770461   -3.5694173    2569.8059  0.045729338  0.044466793           14 
 4684000   0.51305439   -3.5758908    2573.0015  0.045776429  0.044456216           11 
 4685000   0.50796069    -3.578647    2569.1356  0.045697893   0.04444564           19 
 4686000   0.50351305   -3.5755106    2564.4469  0.045604761  0.044435052           16 
 4687000   0.50497239   -3.5752339    2567.2579  0.045645009   0.04442443           26 
 4688000   0.50525002   -3.5788149    2565.1711  0.045598178  0.044413816           14 
 4689000   0.50959791   -3.5737497    2566.9124    0.0456194  0.044403217            8 
 4690000   0.48844259   -3.5690328    2572.2525  0.045704558  0.044392602           30 
 4691000   0.50952355   -3.5740401    2565.3265  0.045571778  0.044381967           39 
 4692000    0.5047371   -3.5742864    2566.5692  0.045584136  0.044371345           24 
 4693000   0.49131543   -3.5833874    2570.6402  0.045646712  0.044360755           24 
 4694000   0.50434236   -3.5742593    2571.1377   0.04564582  0.044350194           13 
 4695000   0.50122347   -3.5768691    2567.9343  0.045579238  0.044339593           12 
 4696000   0.50513161    -3.567143    2569.1205  0.045590583  0.044329043           11 
 4697000   0.50307394   -3.5648239    2571.6801  0.045626288  0.044318494           13 
 4698000   0.49734994   -3.5813217    2568.7714  0.045564982  0.044307943           18 
 4699000   0.49947648   -3.5788672      2566.42  0.045513584  0.044297323           12 
 4700000   0.50166638   -3.5734803    2570.1024  0.045569192  0.044286783           17 
 4701000   0.49982654   -3.5759141     2568.709  0.045534797  0.044276285           25 
 4702000   0.49761078   -3.5694496    2570.2734  0.045552839   0.04426575           26 
 4703000   0.50403519   -3.5894652    2574.2484  0.045613587  0.044255219           23 
 4704000   0.49648822   -3.5882125    2567.1116  0.045477459  0.044244657           12 
 4705000   0.51252967   -3.5738768    2569.0256  0.045501693   0.04423413           20 
 4706000   0.49413352   -3.5680874    2572.7667  0.045558271  0.044223582            8 
 4707000   0.51592492    -3.589766    2566.1192  0.045430904  0.044213035           12 
 4708000   0.50047628   -3.5795602     2570.497  0.045498742  0.044202489           12 
 4709000   0.48913562   -3.5750997     2573.824  0.045547958  0.044191971           31 
 4710000   0.50197229   -3.5934038    2571.9597  0.045505303   0.04418146           18 
 4711000   0.49165477   -3.5708833    2573.8699  0.045529432  0.044170987            8 
 4712000   0.50788627   -3.5766031    2567.4243  0.045405777  0.044160518           13 
 4713000   0.51209119   -3.5632864    2570.0788   0.04544308  0.044150028           10 
 4714000   0.48908652    -3.577906    2574.5958   0.04551329  0.044139554           25 
 4715000   0.49999777   -3.5942184    2567.3164   0.04537498  0.044129049           28 
 4716000   0.49236459     -3.55722    2572.9603  0.045465088  0.044118605           19 
 4717000   0.50035492   -3.5679382    2574.9186  0.045490046  0.044108161            6 
 4718000   0.49194549   -3.5643615    2572.2084  0.045432535  0.044097729           11 
 4719000   0.49848764   -3.5796328    2567.5933  0.045341409  0.044087247            8 
 4720000    0.5040235    -3.569155    2567.2927  0.045326495  0.044076784           29 
 4721000   0.50033226   -3.5735223    2567.1689  0.045314708   0.04406629           34 
 4722000   0.49682284   -3.5936909    2566.0888   0.04528605  0.044055778           33 
 4723000   0.50221939   -3.5892541    2568.8233   0.04532471  0.044045236           23 
 4724000   0.49642087   -3.5911472    2560.3227  0.045165163  0.044034717           10 
 4725000   0.50679916   -3.5834978    2569.0043  0.045308717  0.044024164           43 
 4726000   0.51153012   -3.5926574    2567.5419  0.045273344  0.044013621           11 
 4727000   0.50535195   -3.5623033    2569.1156  0.045291509  0.044003122           36 
 4728000   0.49731719    -3.594598    2570.4771  0.045305928  0.043992643           17 
 4729000   0.48930908   -3.5633329    2567.9512  0.045251836  0.043982166           19 
 4730000   0.49619177   -3.5855829    2569.4335  0.045268384  0.043971665            7 
 4731000   0.50490623   -3.5868503    2568.8349  0.045248273   0.04396116            9 
 4732000   0.49057394   -3.5844613    2569.9245  0.045257899  0.043950639           17 
 4733000   0.49616902   -3.5732542    2561.3768  0.045097838  0.043940127           15 
 4734000   0.49570864   -3.5959324    2565.8799   0.04516758  0.043929632           21 
 4735000   0.48645623   -3.6009753    2570.0484  0.045231405  0.043919123           14 
 4736000   0.49379688   -3.5801735     2567.563  0.045178121  0.043908613           11 
 4737000   0.49406747   -3.5692013     2566.066  0.045142249  0.043898138           17 
 4738000   0.50148995   -3.5952544    2572.3525   0.04524329  0.043887711            9 
 4739000   0.48714058   -3.5722268    2573.9501  0.045261836  0.043877293            4 
 4740000   0.50106405   -3.5774043    2571.1638  0.045203302  0.043866858           14 
 4741000   0.49710556   -3.5827678    2572.8957  0.045224208  0.043856421           15 
 4742000   0.49180658   -3.5991543     2570.878  0.045179214  0.043845922           18 
 4743000   0.48956978   -3.5908713    2570.0725  0.045155536  0.043835415           29 
 4744000   0.49105768   -3.5976182     2571.536  0.045171726  0.043824921           30 
 4745000   0.48172758    -3.593532    2573.9107  0.045203912  0.043814474           33 
 4746000   0.49215233    -3.589192    2570.2485  0.045130082   0.04380399           22 
 4747000   0.49905326    -3.577254    2574.2681  0.045191139  0.043793508           18 
 4748000   0.50803651    -3.577059    2570.4147  0.045113991  0.043783035           30 
 4749000   0.49752732   -3.5841319    2563.4236  0.044981813  0.043772541           71 
 4750000     0.500366   -3.5933934    2566.0842  0.045019021  0.043762035           54 
 4751000   0.48563494   -3.5887232    2567.2861  0.045030627  0.043751543           21 
 4752000   0.48684427   -3.6029171    2569.5947  0.045061635  0.043741032           25 
 4753000    0.4964022   -3.5914781    2568.6434  0.045035475  0.043730548           16 
 4754000   0.48713634   -3.5860299    2567.8164  0.045011506  0.043720077           47 
 4755000   0.48607041    -3.598475    2569.6907  0.045034887   0.04370961           22 
 4756000    0.4893994   -3.5942308    2562.8517  0.044905588  0.043699154           42 
 4757000   0.49213476   -3.5794501    2566.9525  0.044967985  0.043688746            9 
 4758000   0.48256189   -3.5869222    2567.0737  0.044960657  0.043678304           11 
 4759000   0.48418241   -3.6041783    2573.6578  0.045066503  0.043667815           40 
 4760000   0.48076185   -3.5988422    2569.6562  0.044986979  0.043657345           11 
 4761000   0.48933285   -3.5899745    2569.6435  0.044977307  0.043646878           31 
 4762000    0.4947043   -3.5950189    2570.8711  0.044989345  0.043636438           10 
 4763000   0.48795801   -3.5999373    2566.8752  0.044909986   0.04362602           16 
 4764000   0.48740511   -3.6039163    2573.2166  0.045011486  0.043615571           17 
 4765000   0.48747198   -3.6035114    2574.1522  0.045018401  0.043605155           24 
 4766000   0.48738581     -3.59884    2573.5895  0.044999117  0.043594708           16 
 4767000   0.49645466   -3.5919123    2567.4359  0.044882104   0.04358425            8 
 4768000   0.48738638   -3.5902665    2570.1686  0.044920452  0.043573811           14 
 4769000    0.4874987   -3.6080054     2567.482  0.044864088  0.043563383           19 
 4770000   0.50413302   -3.5829266    2567.9238  0.044862401  0.043552949            7 
 4771000     0.497545    -3.590603    2572.6686  0.044935872  0.043542512            8 
 4772000   0.48093882   -3.6006461    2571.0709  0.044898556   0.04353211           29 
 4773000   0.49105278    -3.594812    2573.2639  0.044927437  0.043521691           26 
 4774000    0.4831704   -3.5868674    2568.6723  0.044837877  0.043511223           14 
 4775000   0.47960918   -3.5788806    2569.5588  0.044843957  0.043500778           30 
 4776000   0.49681943    -3.580609    2568.8589  0.044822357  0.043490322           12 
 4777000   0.49199478   -3.6054758    2567.9143  0.044796495  0.043479863           13 
 4778000   0.48086639   -3.6048544    2575.4038  0.044917745  0.043469388           22 
 4779000   0.48879645   -3.6082689    2569.9674  0.044813548  0.043458969           22 
 4780000   0.48948723   -3.5896467    2572.0988  0.044841332  0.043448542           17 
 4781000    0.4912649   -3.5982829    2572.8625  0.044845265  0.043438123           15 
 4782000   0.48403355   -3.5992143     2568.638  0.044762268  0.043427686           13 
 4783000   0.49103123   -3.6140036    2567.4173  0.044731641  0.043417233           20 
 4784000   0.47517516   -3.5976964     2573.446  0.044827306  0.043406755           30 
 4785000   0.47952369   -3.6122246    2565.9498  0.044687388  0.043396267           10 
 4786000   0.48897602   -3.5996477    2563.5072   0.04463552  0.043385747           16 
 4787000   0.48792368   -3.6234533    2565.7484  0.044665211  0.043375307           10 
 4788000   0.49491353   -3.5938828    2567.9466  0.044694142  0.043364841           11 
 4789000   0.49163628   -3.6095286    2568.4894  0.044694255  0.043354386           19 
 4790000   0.48776961   -3.6074071    2565.1257  0.044626404  0.043343859           16 
 4791000   0.48990353    -3.586209    2566.3605  0.044638567  0.043333377           57 
 4792000   0.48357701   -3.5874899    2561.5439  0.044545491  0.043322938           24 
 4793000   0.48014135   -3.6066426    2561.5366  0.044536071  0.043312449           19 
 4794000   0.49490373   -3.5922696    2570.2635  0.044678479  0.043301992           10 
 4795000   0.48491639   -3.5943355    2568.8847  0.044645199  0.043291546           12 
 4796000   0.47925327   -3.6039848      2568.12  0.044622602  0.043281121           14 
 4797000   0.48003942   -3.5962211    2570.3309  0.044651708  0.043270711           19 
 4798000   0.48722499   -3.6086955    2574.9335  0.044722342  0.043260358           38 
 4799000   0.48074147    -3.595101    2571.9309  0.044660883  0.043249966           11 
 4800000   0.48566369   -3.5993869    2570.4182  0.044625317  0.043239576           15 
 4801000   0.46822696   -3.6090692    2566.2275   0.04454328  0.043229192           39 
 4802000   0.48249581   -3.6111679    2565.7418  0.044525576  0.043218788           30 
 4803000   0.49049007    -3.612682    2574.7412  0.044672447  0.043208394           24 
 4804000   0.47502748   -3.5954437    2571.4718  0.044606435  0.043198009           19 
 4805000   0.47609372    -3.608959    2565.9066  0.044500635  0.043187611           23 
 4806000   0.47988775   -3.6011189    2567.7726  0.044523731    0.0431772           11 
 4807000   0.48345497   -3.5970246    2574.0897  0.044623981  0.043166813           14 
 4808000   0.47360303   -3.6091213    2571.4832  0.044569524  0.043156393           31 
 4809000   0.47862676   -3.6236715    2563.2142  0.044416965  0.043145971           13 
 4810000   0.48997494   -3.6154309    2559.2227  0.044338577  0.043135539           11 
 4811000   0.48088521   -3.6085587    2562.0274  0.044377943  0.043125094            9 
 4812000   0.48129063   -3.6171511    2566.5957  0.044447834  0.043114659           17 
 4813000   0.48302902   -3.6142867    2567.4669  0.044453683  0.043104222           17 
 4814000    0.4820277   -3.6072373     2566.014  0.044419297  0.043093814           10 
 4815000   0.48885694   -3.6070037    2565.1077  0.044394387  0.043083388           12 
 4816000    0.4739942   -3.6035671    2568.1909  0.044438519   0.04307297           31 
 4817000   0.48545253    -3.614707    2567.9511  0.044425144  0.043062557           34 
 4818000   0.46676928   -3.5970454    2570.1413  0.044453807  0.043052185           31 
 4819000   0.48695068   -3.6057215    2564.9107  0.044354131  0.043041751           19 
 4820000    0.4802753   -3.6225313    2562.1219  0.044296714  0.043031338           16 
 4821000   0.47430883    -3.607482    2561.5682  0.044277955  0.043020894           31 
 4822000   0.47700588   -3.6254318    2563.2127  0.044297192  0.043010441           29 
 4823000   0.47646253   -3.6115458    2566.1278  0.044338375  0.042999968           74 
 4824000   0.47841798   -3.6188788    2569.6597  0.044390196  0.042989521           38 
 4825000   0.48775143    -3.622702    2558.5579  0.044189256   0.04297907           34 
 4826000   0.49390435   -3.6131507    2564.2298  0.044278038   0.04296862           33 
 4827000   0.47396882   -3.6185843    2567.5079  0.044325459  0.042958179            9 
 4828000   0.48814407   -3.5982037     2572.535  0.044403048  0.042947774            8 
 4829000   0.47660263   -3.6212567    2570.5333   0.04435931  0.042937343           15 
 4830000   0.48678481   -3.6157653    2564.1597  0.044240161  0.042926922           18 
 4831000   0.47706178   -3.6186933    2563.5066  0.044219737  0.042916507           14 
 4832000   0.47301453   -3.6173412    2569.3693  0.044311694  0.042906122           10 
 4833000   0.48459156   -3.6203438     2561.216  0.044161942  0.042895719           30 
 4834000   0.47349058   -3.6119321     2565.193  0.044221366  0.042885306           15 
 4835000   0.47467051   -3.6161937    2566.8722  0.044241161   0.04287489           15 
 4836000    0.4779098   -3.6227564    2556.6812  0.044056403  0.042864466           17 
 4837000    0.4837641   -3.6181565    2563.4041  0.044163119  0.042854071           14 
 4838000   0.47164553   -3.6384042    2568.5933  0.044243374  0.042843667           32 
 4839000   0.48068628   -3.6236527    2570.8218  0.044272608  0.042833246           29 
 4840000    0.4727174   -3.6259112     2567.181  0.044200775  0.042822815           22 
 4841000    0.4820245   -3.6217937    2560.2265   0.04407193  0.042812409           27 
 4842000   0.48204419   -3.6284293    2558.5394  0.044033792  0.042802023           18 
 4843000    0.4816445   -3.6347687    2570.3751  0.044228356  0.042791647           27 
 4844000   0.47917884   -3.6182847    2571.4849  0.044238316  0.042781261           32 
 4845000   0.47492478   -3.6115722    2571.3572   0.04422699  0.042770899           32 
 4846000    0.4797511   -3.6168938    2567.4143  0.044150059  0.042760524           40 
 4847000   0.47981021   -3.6100004    2563.5701   0.04407486  0.042750186           13 
 4848000   0.47525048   -3.6076035    2566.8679  0.044122455  0.042739805           14 
 4849000   0.48198661   -3.6108346    2569.0855  0.044151466  0.042729469            8 
 4850000   0.48055571   -3.6119289      2571.41  0.044182302  0.042719141            8 
 4851000    0.4676899   -3.6219512    2568.7977  0.044128319  0.042708818           19 
 4852000   0.47776582   -3.6272079    2570.5389  0.044149129  0.042698498           36 
 4853000   0.47663546   -3.6066798    2567.5788  0.044089203  0.042688157           16 
 4854000   0.47434653   -3.6227042    2571.2668  0.044143435   0.04267783           13 
 4855000   0.47515208   -3.6277428    2566.9737  0.044060653  0.042667488           17 
 4856000   0.47695354   -3.6161977    2562.5529  0.043975716  0.042657131           24 
 4857000   0.47353963   -3.6184761    2568.6707  0.044071627  0.042646784           21 
 4858000   0.46337023   -3.6140116    2567.2678  0.044038489  0.042636456           19 
 4859000   0.47340572   -3.6117983     2565.677  0.044002145  0.042626123           33 
 4860000   0.47265583   -3.6135478    2567.6587  0.044027069  0.042615785           23 
 4861000   0.47900632   -3.6156656    2565.0774  0.043973761  0.042605434           14 
 4862000   0.47505146    -3.622369     2565.811  0.043977289  0.042595036           23 
 4863000   0.47192149   -3.6321463    2562.1879   0.04390616  0.042584647           24 
 4864000   0.46440164   -3.6433475    2565.0704  0.043946519  0.042574239           30 
 4865000   0.46521214   -3.6487911    2560.3205  0.043856124  0.042563859           20 
 4866000   0.47289277   -3.6356817     2565.068  0.043928415  0.042553494           29 
 4867000   0.47210271    -3.631741    2563.5286  0.043893032  0.042543117           19 
 4868000    0.4754387   -3.6355697    2570.6201  0.044005411  0.042532779           14 
 4869000   0.47077953    -3.621414    2565.7522  0.043913059  0.042522432           17 
 4870000   0.47546784   -3.6274159    2562.6815  0.043851497  0.042512082           39 
 4871000   0.46604147   -3.6243705    2564.2478  0.043869291  0.042501752           26 
 4872000   0.47234054   -3.6179387    2568.2196  0.043928223  0.042491437           26 
 4873000   0.47789165   -3.6271195    2562.7103  0.043824994  0.042481112           37 
 4874000   0.47039795   -3.6268576    2564.7673  0.043851171  0.042470783            8 
 4875000   0.47987719   -3.6199034    2566.3002   0.04386838  0.042460462            9 
 4876000    0.4683543   -3.6451078    2566.4442  0.043861843  0.042450162           13 
 4877000   0.46934233   -3.6316774    2567.4612  0.043870227  0.042439826           20 
 4878000   0.47291775   -3.6351108    2572.0992  0.043940468  0.042429509           11 
 4879000   0.47434257   -3.6289385    2565.3022  0.043815369  0.042419205           11 
 4880000   0.46508392   -3.6353675    2571.7267  0.043916098  0.042408923           31 
 4881000   0.46787342   -3.6063998     2570.221  0.043881395  0.042398644           14 
 4882000   0.46381305   -3.6389411    2566.6032  0.043810652  0.042388304           33 
 4883000   0.45937377   -3.6286158    2567.5849  0.043818432  0.042378016           48 
 4884000   0.47394729   -3.6308345     2564.298  0.043753378  0.042367707           36 
 4885000   0.46874616    -3.638874    2567.9925  0.043807446  0.042357423           36 
 4886000   0.46472575   -3.6370574    2569.1964  0.043819014   0.04234712           26 
 4887000   0.45855081   -3.6323104    2572.3968  0.043864621  0.042336786           50 
 4888000   0.48080124   -3.6304078    2566.8045  0.043760306  0.042326479           22 
 4889000   0.47802266   -3.6374831    2564.0987  0.043705235  0.042316166           22 
 4890000     0.463193   -3.6293282    2565.3677  0.043717923  0.042305881           20 
 4891000   0.46051827   -3.6224258    2565.6258  0.043713382  0.042295579           13 
 4892000   0.47665227   -3.6287493    2557.0527  0.043558407  0.042285235           27 
 4893000   0.48043385   -3.6322754    2566.4658   0.04370982  0.042274954           31 
 4894000   0.46089189   -3.6257927    2565.6112  0.043686337  0.042264652           22 
 4895000    0.4587276   -3.6295184    2563.4748  0.043641043  0.042254338           20 
 4896000   0.46597152   -3.6308294    2567.3939  0.043698835  0.042244057           37 
 4897000   0.47154531      -3.6391    2566.5069  0.043674817  0.042233774           20 
 4898000    0.4744005   -3.6584965    2572.7432  0.043772002  0.042223461           30 
 4899000   0.46901928   -3.6297468    2560.8014  0.043559934  0.042213162           26 
 4900000   0.45676059   -3.6388789    2564.6329  0.043616206  0.042202895           24 
 4901000   0.46933155   -3.6358754    2572.1488  0.043735101  0.042192605           33 
 4902000   0.46894451   -3.6316289    2566.5974  0.043631807  0.042182348           25 
 4903000   0.46576382   -3.6397792    2570.0058  0.043680838  0.042172086           38 
 4904000    0.4649022   -3.6150462    2567.8332  0.043635012  0.042161832           44 
 4905000   0.46500688   -3.6421543    2562.0599  0.043528031  0.042151549           10 
 4906000    0.4714894   -3.6425584    2561.7501  0.043513896  0.042141251           21 
 4907000   0.47251553   -3.6397357    2563.9901   0.04354307   0.04213097           11 
 4908000   0.46668274   -3.6404028    2561.4257  0.043490657  0.042120685           27 
 4909000   0.46595969   -3.6441493    2564.1494  0.043528034  0.042110398           21 
 4910000   0.45335879   -3.6574196    2566.6663  0.043561886  0.042100095           20 
 4911000   0.46107584   -3.6385086    2559.1021   0.04342466  0.042089807           14 
 4912000    0.4541825   -3.6331571    2565.7422  0.043528472  0.042079528           18 
 4913000    0.4659145   -3.6407807    2568.1676   0.04356075  0.042069264           14 
 4914000   0.46273576   -3.6548874    2561.8013  0.043443924   0.04205897           15 
 4915000   0.47390771   -3.6351892    2566.5979  0.043516411   0.04204871           41 
 4916000     0.457953   -3.6394546    2566.8617  0.043512031  0.042038477           37 
 4917000    0.4680617    -3.638195    2566.0534  0.043489482  0.042028248           25 
 4918000   0.46390455   -3.6446103    2573.4358  0.043605731  0.042018019           29 
 4919000   0.46879051   -3.6366875    2570.8006  0.043552223  0.042007777           40 
 4920000   0.45470011    -3.654369    2567.2232  0.043482778  0.041997525           28 
 4921000   0.46737508   -3.6457514    2564.7951  0.043432824  0.041987262           37 
 4922000   0.47034892   -3.6559403    2568.3139  0.043483575  0.041976998           19 
 4923000   0.46023538    -3.654863    2568.5333  0.043478457  0.041966755           15 
 4924000   0.46860575   -3.6446479    2564.0357   0.04339351  0.041956497           16 
 4925000   0.46966229   -3.6411237    2560.7228  0.043328644  0.041946259           36 
 4926000    0.4687081   -3.6367877    2559.8591  0.043305236   0.04193604           30 
 4927000   0.45663262   -3.6337292    2562.4143  0.043339665  0.041925817           21 
 4928000   0.45791203   -3.6499296    2566.4042   0.04339834  0.041915566           18 
 4929000   0.45956081   -3.6433561    2575.0886   0.04353636  0.041905342           12 
 4930000   0.46870187   -3.6475064    2567.6981  0.043402605  0.041895129           71 
 4931000   0.46250977   -3.6375501    2567.3046  0.043387153  0.041884923           30 
 4932000   0.45870978   -3.6537382    2566.8794  0.043371171   0.04187471           22 
 4933000   0.45267805   -3.6420535    2567.7202  0.043376584  0.041864527           12 
 4934000    0.4602496   -3.6386952    2567.1593  0.043358318  0.041854302           36 
 4935000   0.45939496   -3.6220234    2569.7277  0.043392902   0.04184412           42 
 4936000   0.46687256   -3.6310254    2568.7199  0.043367097  0.041833983           38 
 4937000   0.45810797   -3.6346399    2565.0555  0.043296461  0.041823834           26 
 4938000   0.46662926   -3.6402238    2566.4908  0.043311915  0.041813693           24 
 4939000   0.45195223   -3.6345981    2569.9241  0.043361074  0.041803557           39 
 4940000   0.46403275   -3.6322167    2567.5791  0.043312737  0.041793411           22 
 4941000    0.4642357   -3.6422875      2569.47  0.043335864  0.041783244           55 
 4942000   0.45619717   -3.6417312    2563.7954  0.043231408   0.04177304           22 
 4943000   0.46148106   -3.6518472    2564.1867  0.043229259   0.04176286           40 
 4944000   0.46067241   -3.6457388    2564.9794  0.043233875  0.041752665           23 
 4945000   0.46626751   -3.6482244    2565.8283  0.043239438  0.041742475           29 
 4946000   0.45504198   -3.6468201    2563.4791  0.043191116   0.04173227           27 
 4947000   0.45471825   -3.6616427    2565.9425  0.043223882  0.041722076           51 
 4948000   0.46103486   -3.6605649    2561.7668  0.043144819  0.041711862           26 
 4949000   0.46717906    -3.661787    2559.7767  0.043102591   0.04170164           54 
 4950000   0.46353717   -3.6390416    2560.1833  0.043100729   0.04169142           47 
 4951000   0.45921856   -3.6569207     2563.906  0.043154682  0.041681231           20 
 4952000     0.463889   -3.6515045     2562.731  0.043126194   0.04167103           27 
 4953000   0.46254571   -3.6408133    2567.8783   0.04320409  0.041660828           38 
 4954000   0.46092262   -3.6518522    2568.0188  0.043197732  0.041650651           27 
 4955000   0.45526354   -3.6431591    2569.5622  0.043214971  0.041640476           31 
 4956000   0.45664758   -3.6545318    2565.6653  0.043140727  0.041630318           14 
 4957000   0.44848873   -3.6446266    2569.6441  0.043198913  0.041620155           15 
 4958000   0.45899024   -3.6501752    2566.9374  0.043144705   0.04161004           18 
 4959000   0.45785523   -3.6363668    2564.5275  0.043095509  0.041599903           43 
 4960000   0.45636616   -3.6540756    2570.8218  0.043192571  0.041589754           21 
 4961000   0.44686158   -3.6609786    2568.5552   0.04314579  0.041579641           16 
 4962000   0.46310089    -3.650498      2559.95  0.042992576  0.041569502           34 
 4963000     0.444187   -3.6642342    2565.0621  0.043069751  0.041559308           21 
 4964000   0.46492997   -3.6571232    2562.5862   0.04301951  0.041549143           33 
 4965000   0.45810955   -3.6462995    2565.3615  0.043057428  0.041538986           23 
 4966000   0.45480299   -3.6538711     2566.166  0.043062256  0.041528833           25 
 4967000    0.4553415    -3.662506     2563.606  0.043010637  0.041518668           28 
 4968000   0.45932338   -3.6569971    2567.9621  0.043075048    0.0415085           18 
 4969000   0.45521573   -3.6613183    2567.4099  0.043057119  0.041498357           18 
 4970000   0.46480866    -3.645967    2564.8976  0.043006331  0.041488201           17 
 4971000   0.45519981   -3.6588674    2562.4017  0.042955839  0.041478053           45 
 4972000   0.44558974   -3.6542505    2564.1928   0.04297722  0.041467934           23 
 4973000   0.45484288   -3.6731545    2571.1324  0.043084864  0.041457792           14 
 4974000    0.4608653    -3.669714    2565.5145  0.042982082  0.041447671           31 
 4975000   0.45144814   -3.6604228    2568.1245   0.04301716  0.041437522           46 
 4976000   0.45608538   -3.6708176    2564.9911   0.04295604  0.041427385           36 
 4977000   0.47091312   -3.6584783    2560.7254  0.042875986  0.041417222           16 
 4978000   0.47042939   -3.6534461    2563.9105  0.042920692  0.041407074           12 
 4979000   0.45647401   -3.6614225    2564.2859  0.042918356   0.04139695           35 
 4980000   0.45360235   -3.6558543    2571.3857  0.043028543  0.041386838           13 
 4981000   0.44508639   -3.6541897    2563.4547  0.042887216  0.041376723           17 
 4982000    0.4491884   -3.6619519    2564.5169  0.042896375  0.041366643           19 
 4983000   0.46146769   -3.6573397    2564.0717  0.042880322  0.041356536           16 
 4984000   0.45410183    -3.658148    2564.4087  0.042877352   0.04134643           28 
 4985000   0.44427562   -3.6638018    2563.3129  0.042850433  0.041336337           18 
 4986000   0.45674424   -3.6501729    2562.8582   0.04283424  0.041326255           62 
 4987000   0.45593785   -3.6770051    2563.4951  0.042836293  0.041316108           23 
 4988000   0.45114331    -3.670358    2565.8578  0.042867177  0.041305973           23 
 4989000   0.44343808   -3.6577586    2563.4988  0.042819183  0.041295858           26 
 4990000   0.46036469   -3.6626563    2565.8894  0.042850524  0.041285764           20 
 4991000   0.46116313   -3.6467981    2575.4868  0.043002184  0.041275686           37 
 4992000   0.45307814   -3.6690479    2566.2869  0.042839992  0.041265622           15 
 4993000   0.45522979    -3.652837     2562.113   0.04276175  0.041255557           17 
 4994000   0.45862466   -3.6687843    2569.2691  0.042872598   0.04124547           28 
 4995000   0.45570465   -3.6597835    2563.3981  0.042766067   0.04123536           29 
 4996000   0.45701337   -3.6713778    2565.0313  0.042784749  0.041225265           18 
 4997000   0.45225232   -3.6767475     2565.645  0.042786422   0.04121515           25 
 4998000   0.45416679    -3.673032    2562.0695  0.042718246  0.041205001           35 
 4999000   0.44996682   -3.6624658     2565.319  0.042763869  0.041194867           24 
 5000000   0.44732784    -3.666163    2566.3553  0.042772589  0.041184766           15 
 5001000    0.4492109   -3.6595178    2564.0028  0.042724835  0.041174646           28 
 5002000   0.45522708   -3.6681623    2564.5596   0.04272557  0.041164554           15 
 5003000    0.4517955   -3.6600184    2565.3054  0.042729452  0.041154468           30 
 5004000   0.44721115   -3.6460134    2563.5136  0.042691074  0.041144387           25 
 5005000    0.4575829   -3.6710511    2562.2255  0.042661097  0.041134337           24 
 5006000    0.4418423   -3.6757557    2565.0772  0.042700047  0.041124235           17 
 5007000   0.44674139   -3.6736345    2564.7963  0.042686843  0.041114128           22 
 5008000   0.44796603   -3.6505943    2560.7999   0.04261182  0.041104026           26 
 5009000   0.45152672   -3.6764155    2561.7716  0.042619479  0.041093949           29 
 5010000   0.45621079   -3.6725776    2567.2363  0.042701868  0.041083868           43 
 5011000   0.45316468   -3.6453168    2564.1149  0.042641438  0.041073818           35 
 5012000   0.45949726   -3.6674815    2563.5237  0.042623099  0.041063756           28 
Loop time of 12114.3 on 48 procs for 5000000 steps with 4000 atoms

Performance: 71320.481 tau/day, 412.734 timesteps/s
99.4% CPU use with 48 MPI tasks x no OpenMP threads

MPI task timing breakdown:
Section |  min time  |  avg time  |  max time  |%varavg| %total
---------------------------------------------------------------
Pair    | 791.3      | 848.65     | 914.33     | 104.6 |  7.01
Neigh   | 81.066     | 84.459     | 88.105     |  19.7 |  0.70
Comm    | 767.18     | 836.91     | 898.45     | 111.2 |  6.91
Output  | 14.042     | 14.047     | 14.125     |   0.3 |  0.12
Modify  | 10200      | 10224      | 10243      |   9.8 | 84.39
Other   |            | 106.7      |            |       |  0.88

Nlocal:        83.3333 ave          91 max          75 min
Histogram: 1 3 3 6 5 12 12 1 2 3
Nghost:        2189.52 ave        2215 max        2169 min
Histogram: 3 4 5 7 11 7 5 3 2 1
Neighs:        14502.1 ave       16468 max       12232 min
Histogram: 1 1 2 7 6 14 9 6 1 1
FullNghs:      29004.4 ave       32077 max       26000 min
Histogram: 1 2 5 7 7 9 12 2 1 2

Total # of neighbors = 1392211
Ave neighs/atom = 348.05275
Neighbor list builds = 271392
Dangerous builds = 0

#clear
#
#next RN
#
#jump SELF
Total wall time: 3:21:57
