
units lj                  # Use reduced LJ style units
atom_style atomic         # Uncharged point particles
atom_modify map hash      # Needed for indexing of clusters etc
                          # Used to be able to find where atoms are in relation to each other.

lattice fcc 1.0 spacing 1 1 1
Lattice spacing in x,y,z = 1.5874011 1.5874011 1.5874011
region box block 0 10 0 10 0 10 units lattice
create_box 2 box
Created orthogonal box = (0.0000000 0.0000000 0.0000000) to (15.874011 15.874011 15.874011)
  3 by 4 by 4 MPI processor grid
create_atoms 1 box
Created 4000 atoms
  using lattice units in orthogonal box = (0.0000000 0.0000000 0.0000000) to (15.874011 15.874011 15.874011)
  create_atoms CPU = 0.054 seconds
set type 1 type/fraction 2 0.13 78393
Setting atom values ...
  541 settings made for type/fraction
mass 1 1.0
mass 2 1.0
pair_style lj/cut  3.5
pair_modify tail  yes
pair_coeff 1  1  1.0  1.0   # Intearaction between 1 and 1 set with epsilon = 1 and sigma = 1
pair_coeff 1  2  1.5  0.8
pair_coeff 2  2  0.5  0.88

write_data data.0
System init for write_data ...
Neighbor list info ...
  update every 1 steps, delay 10 steps, check yes
  max neighbors/atom: 2000, page size: 100000
  master list distance cutoff = 3.8
  ghost atom cutoff = 3.8
  binsize = 1.9, bins = 9 9 9
  1 neighbor lists, perpetual/occasional/extra = 1 0 0
  (1) pair lj/cut, perpetual
      attributes: half, newton on
      pair build: half/bin/atomonly/newton
      stencil: half/bin/3d
      bin: standard
WARNING: Not all mixed pair coeffs generated from mixing. Use write_data with 'pair ij' option to store all pair coeffs. (../write_data.cpp:312)


#############################
#   M E L T   S Y S T E M   #
#############################

velocity all create 2.4 3143649 mom yes dist gaussian # Assign velocities
                                                    # Temperature 2.4, random number seed, zero linear momentum
                                                                                # Gaussian distribution

timestep 0.002   # simulation timestep
thermo 1000       # output thermodynamic data every 1000 steps bf 100

# Define a fix  in this case with index 1 applied to all
# particles in the simulation. This fix is for simulations
# in the anisotropic NPT ensemble. Note that we use the MTK
# correction.
fix 1 all npt temp 2.4 2.4 0.1 iso 5.68 5.68 0.5 mtk yes tchain 5 pchain 5 # Use NPT ensemble
                                                                         # Set temperature and pressure and damping
                                                                         # Numbers of thermostats in chain and in barostat
run 10000          # run for 10000 steps
Per MPI rank memory allocation (min/avg/max) = 3.642 | 3.644 | 3.648 Mbytes
Step Temp E_pair E_mol TotEng Press Volume 
       0          2.4     -7.50335            0     -3.90425   -3.2182506         4000 
    1000    2.3800387   -4.6428895            0    -1.073724    5.6983642    4742.8201 
    2000    2.3991896   -4.6774891            0   -1.0796045    5.9573465    4698.3797 
    3000    2.3991567   -4.6493881            0   -1.0515527    5.8240672    4734.9879 
    4000    2.3982939   -4.6846944            0   -1.0881529    5.6900935    4724.7924 
    5000    2.4283466   -4.6641233            0   -1.0225141    5.7442689    4734.5362 
    6000    2.3836419   -4.7339107            0   -1.1593417    5.6273977    4699.5944 
    7000     2.420722   -4.6599205            0   -1.0297453    5.6978662    4738.0131 
    8000     2.385676    -4.659009            0   -1.0813897    5.5221198     4757.936 
    9000    2.4578757   -4.7296738            0   -1.0437819    5.3309002    4748.5004 
   10000    2.4157753   -4.7148545            0   -1.0920974    5.5917497    4721.6421 
Loop time of 2.18464 on 48 procs for 10000 steps with 4000 atoms

Performance: 790976.639 tau/day, 4577.411 timesteps/s
99.6% CPU use with 48 MPI tasks x no OpenMP threads

MPI task timing breakdown:
Section |  min time  |  avg time  |  max time  |%varavg| %total
---------------------------------------------------------------
Pair    | 0.93326    | 0.98161    | 1.0717     |   3.4 | 44.93
Neigh   | 0.19158    | 0.19918    | 0.2132     |   1.0 |  9.12
Comm    | 0.65443    | 0.75437    | 0.8187     |   4.5 | 34.53
Output  | 0.00024137 | 0.00024568 | 0.00030143 |   0.0 |  0.01
Modify  | 0.20933    | 0.23495    | 0.2607     |   3.1 | 10.75
Other   |            | 0.0143     |            |       |  0.65

Nlocal:        83.3333 ave          91 max          71 min
Histogram: 1 0 1 3 3 12 8 10 7 3
Nghost:        1472.04 ave        1498 max        1447 min
Histogram: 4 3 6 7 3 4 9 7 2 3
Neighs:        8075.08 ave        9144 max        6521 min
Histogram: 1 0 1 4 7 14 5 10 4 2

Total # of neighbors = 387604
Ave neighs/atom = 96.901000
Neighbor list builds = 907
Dangerous builds = 223

# Equilibrate just above the melting temperature to avoid step fn in T

fix 1 all npt temp 1.25 1.25 0.1 iso 5.68 5.68 0.5 mtk yes tchain 5 pchain 5
run 2000
Per MPI rank memory allocation (min/avg/max) = 3.642 | 3.644 | 3.648 Mbytes
Step Temp E_pair E_mol TotEng Press Volume 
   10000    2.4157753   -4.7148545            0   -1.0920974    5.5917497    4721.6421 
   11000    1.2425932   -6.3212095            0   -4.4577857    5.4858793    3892.7049 
   12000    1.2347454   -6.2945044            0   -4.4428493    5.6125616    3888.6391 
Loop time of 0.481827 on 48 procs for 2000 steps with 4000 atoms

Performance: 717270.527 tau/day, 4150.871 timesteps/s
99.7% CPU use with 48 MPI tasks x no OpenMP threads

MPI task timing breakdown:
Section |  min time  |  avg time  |  max time  |%varavg| %total
---------------------------------------------------------------
Pair    | 0.21059    | 0.22983    | 0.25048    |   2.1 | 47.70
Neigh   | 0.030889   | 0.033231   | 0.036019   |   0.6 |  6.90
Comm    | 0.1418     | 0.16572    | 0.18895    |   2.6 | 34.39
Output  | 4.9639e-05 | 5.0635e-05 | 6.4277e-05 |   0.0 |  0.01
Modify  | 0.039584   | 0.048589   | 0.056583   |   1.8 | 10.08
Other   |            | 0.004412   |            |       |  0.92

Nlocal:        83.3333 ave          89 max          74 min
Histogram: 1 0 3 2 9 5 11 4 5 8
Nghost:        1671.50 ave        1697 max        1647 min
Histogram: 1 2 8 9 7 5 4 4 5 3
Neighs:        9810.62 ave       10732 max        8659 min
Histogram: 2 1 5 3 11 5 7 7 3 4

Total # of neighbors = 470910
Ave neighs/atom = 117.72750
Neighbor list builds = 142
Dangerous builds = 9

#############################
# L I N E A R  Q U E N C H  #
#############################

# Define solid atoms. This closely follows ten Wolde  Ruiz-Montero and Frenkel  Faraday Discuss  1996  104  93-110
# Compute components of the per-atom q6 vector
compute q6 all orientorder/atom degrees 1 6 components 6 nnn NULL cutoff 1.3 # compute the Q6 parameter.
                                                                             # Use all neighbours within 1.3 unit cell.

# get number of connections
compute coord_number all coord/atom orientorder q6 0.5

# An atom is solid if it has 8 or more connections (of a possible 14)
variable is_solid atom c_coord_number>=8
group solid dynamic all var is_solid    # Must be dynamic to update
dynamic group solid defined

# do clustering
compute cluster solid cluster/atom 1.3 # Create a cluster where all atoms within are solid and max 1.3 units from another member

# define chunks one chunk per cluster
compute clus_chunks solid chunk/atom c_cluster nchunk every compress yes  # Says which atoms are in which chunk

# count the size of each chunk
compute size_chunks solid property/chunk clus_chunks count


# Find the maximum entry in the vector of chunk sizes
variable max_n equal max(c_size_chunks)


# Thermo style which includes this variable
# thermo_style custom step temp pe vol v_max_n

thermo ${N}  # Print the thermo information every 100 steps
thermo 1000  

# Reset the npt fix at a lower temperature (below freezing)
fix 1  all npt temp  ${temp} ${temp}  0.1  iso  5.68  5.68  0.5  mtk yes tchain  5  pchain  5
fix 1  all npt temp  0.45 ${temp}  0.1  iso  5.68  5.68  0.5  mtk yes tchain  5  pchain  5
fix 1  all npt temp  0.45 0.45  0.1  iso  5.68  5.68  0.5  mtk yes tchain  5  pchain  5

dump dmp2 all dcd ${N} traj.dcd
dump dmp2 all dcd 1000 traj.dcd


compute msd all msd com yes
variable twopoint equal c_msd[4]/6/(step*dt+1.0e-6)
fix 9 all vector 10 c_msd[4]
variable fit equal slope(f_9)/6/(10*dt)
thermo_style custom step temp pe c_msd[4] v_twopoint v_fit v_max_n

fix 1 all npt temp 1.25 ${temp} 0.1 iso 5.68 5.68 0.5 mtk yes tchain 5 pchain 5
fix 1 all npt temp 1.25 0.45 0.1 iso 5.68 5.68 0.5 mtk yes tchain 5 pchain 5
run 2000000 # 5000000  # Run for this many steps
Neighbor list info ...
  update every 1 steps, delay 10 steps, check yes
  max neighbors/atom: 2000, page size: 100000
  master list distance cutoff = 3.8
  ghost atom cutoff = 3.8
  binsize = 1.9, bins = 9 9 9
  4 neighbor lists, perpetual/occasional/extra = 1 3 0
  (1) pair lj/cut, perpetual
      attributes: half, newton on
      pair build: half/bin/atomonly/newton
      stencil: half/bin/3d
      bin: standard
  (2) compute orientorder/atom, occasional
      attributes: full, newton on
      pair build: full/bin/atomonly
      stencil: full/bin/3d
      bin: standard
  (3) compute coord/atom, occasional
      attributes: full, newton on
      pair build: full/bin/atomonly
      stencil: full/bin/3d
      bin: standard
  (4) compute cluster/atom, occasional
      attributes: full, newton on
      pair build: full/bin/atomonly
      stencil: full/bin/3d
      bin: standard
Per MPI rank memory allocation (min/avg/max) = 9.756 | 9.762 | 9.768 Mbytes
Step Temp PotEng c_msd[4] v_twopoint v_fit v_max_n 
   12000    1.2347454   -6.2945044 4.2811481e-30 2.9730194e-32 8.3333333e+20            1 
   13000    1.2390013   -6.3401825   0.54709332 0.0035070083  0.044616581            1 
   14000    1.2555353   -6.3080378    1.0688706 0.0063623248  0.044379731            2 
   15000    1.2392733   -6.3410099    1.5568104 0.0086489464  0.043179554            1 
   16000    1.2827424   -6.3324463    2.1224927  0.011054649  0.043293492            3 
   17000    1.2637319   -6.3260812    2.6756654  0.013116006  0.043754049            3 
   18000    1.2363108   -6.3081285    3.2479817  0.015036952  0.044394142            3 
   19000    1.2348163   -6.2931297    3.7174256  0.016304498   0.04440223            2 
   20000     1.222347   -6.3442123    4.2256745  0.017606977  0.044208017            4 
   21000    1.2275092   -6.3455984    4.7966993   0.01903452  0.044213284            3 
   22000    1.2301072   -6.3230141    5.2641016  0.019939778   0.04422947            3 
   23000    1.2480192    -6.336698    5.8211933  0.021091279  0.044053009            4 
   24000    1.2378968   -6.3163992    6.3379316  0.022006707  0.043991321            3 
   25000    1.2507151   -6.3317266    6.8905515  0.022968504  0.044002682            3 
   26000     1.263231   -6.3073668    7.4493774  0.023876209  0.044037893            2 
   27000    1.2581772   -6.3388214    7.9979815  0.024685128  0.044162361            2 
   28000     1.250299   -6.3491085    8.5093458  0.025325434  0.044214801            1 
   29000     1.229252   -6.2720948    9.0765755  0.026082113  0.044279064            4 
   30000    1.2327474   -6.3558393     9.604114  0.026678094  0.044318803            3 
   31000    1.2292883     -6.30864    10.046195  0.027005901  0.044286936            5 
   32000    1.2582953   -6.3279569     10.42169  0.027139818  0.044141154            2 
   33000    1.2392471     -6.32803     10.87659  0.027466136  0.043923782            3 
   34000     1.223965   -6.2796217    11.371119  0.027870389  0.043663626            3 
   35000     1.245456    -6.336787    11.765451  0.028012978  0.043397841            2 
   36000     1.244548   -6.3190868    12.321924  0.028522973   0.04317449            1 
   37000    1.2208685    -6.306035    12.848914  0.028938995  0.043017696            1 
   38000    1.2483955   -6.3644696    13.301289  0.029169494  0.042862703            1 
   39000    1.2259201   -6.3455931    13.804131  0.029496006  0.042711802            1 
   40000    1.2503161   -6.3438299    14.237761  0.029662002  0.042568331            2 
   41000     1.223078   -6.3368681    14.817074  0.030116003  0.042474562            2 
   42000    1.2445881   -6.3530269    15.237035  0.030232212  0.042399234            1 
   43000    1.2488371   -6.3337888    15.807277  0.030634256  0.042305438            3 
   44000    1.2336242   -6.3389022    16.293726   0.03085933  0.042226247            2 
   45000    1.2380895    -6.333549    16.856456  0.031215659  0.042177075            1 
   46000    1.2031036   -6.3788633    17.438775  0.031591984  0.042168279            1 
   47000    1.2377179   -6.2996089    18.075909  0.032049483  0.042197128            4 
   48000    1.2390138     -6.33757    18.524596  0.032160756  0.042241988            4 
   49000    1.2259615   -6.3169543      19.0485  0.032395408  0.042269753            3 
   50000    1.2505723   -6.3489018    19.568248  0.032613746  0.042290692            4 
   51000    1.2404745   -6.3588409    20.132054  0.032895513  0.042328464            2 
   52000    1.2520535    -6.289493    20.702199  0.033176601  0.042372902            1 
   53000    1.2353542   -6.3482001    21.437222  0.033706324  0.042450581            4 
   54000    1.2237347   -6.3508565    22.015472  0.033974493  0.042570784            2 
   55000    1.2678009   -6.3365554    22.744187  0.034460889   0.04270931            3 
   56000    1.2494603    -6.352173    22.916968  0.034102631  0.042826035            1 
   57000     1.250355   -6.2897651    23.471625  0.034315241  0.042894372            3 
   58000    1.2253642   -6.3820624    23.996487  0.034477711  0.042940889            3 
   59000    1.2264915   -6.3517008    24.343861  0.034383984   0.04296806            2 
   60000    1.2297562   -6.3678493     24.86975  0.034541318   0.04299064            2 
   61000    1.2448262   -6.3312491    25.302598  0.034566391  0.042991545            4 
   62000     1.217931   -6.3754021     25.92711  0.034848265  0.042994951            1 
   63000    1.2258897   -6.3559427    26.199749  0.034655753  0.042983767            2 
   64000    1.2305373   -6.3365555    26.651523  0.034702504  0.042950576            5 
   65000    1.2279604   -6.3818781    27.044006  0.034671802  0.042907738            2 
   66000    1.2422479   -6.3690363    27.509066  0.034733669  0.042859877            2 
   67000    1.2101735   -6.3373649    28.203056  0.035078428  0.042805626            2 
   68000    1.2342775   -6.3403581    28.680637  0.035147839  0.042761767            3 
   69000    1.2148265   -6.3352613    29.097181  0.035141522   0.04271865            2 
   70000    1.2060599   -6.3269863    29.663495  0.035313684  0.042693561            2 
   71000    1.2434571   -6.3089714    30.222742  0.035472702  0.042666725            3 
   72000     1.221952   -6.3545433    30.738943   0.03557748  0.042651863            3 
   73000    1.2218097   -6.3366851    31.458913  0.035912001  0.042651996            4 
   74000     1.242283    -6.355697    32.006192  0.036043009  0.042673579            2 
   75000    1.2062329   -6.3570198    32.481555  0.036090617  0.042694069            2 
   76000    1.2238451   -6.3494476    33.012751  0.036198192  0.042699936            3 
   77000    1.2277753   -6.3575702      33.4701  0.036223051  0.042701234            4 
   78000    1.2407981   -6.3100212    34.011146  0.036336695  0.042707389            2 
   79000    1.2235205   -6.4039596    34.574907   0.03647142  0.042716314            2 
   80000    1.2342857   -6.3989936    34.948018  0.036404185  0.042715059            2 
   81000    1.2266953   -6.3311268    35.481056  0.036503144  0.042714515            2 
   82000    1.2048114   -6.3584523    36.110059  0.036697214  0.042722306            2 
   83000    1.2065177   -6.3626511    36.637077  0.036784214   0.04274116            2 
   84000     1.203054   -6.3707271    37.024127  0.036730284  0.042742467            2 
   85000    1.1941432   -6.3622146    37.606209  0.036868832  0.042756966            4 
   86000    1.2374508    -6.403425    38.178491  0.036994661  0.042764085            2 
   87000    1.2365481   -6.3543339    38.684802  0.037054408  0.042777544            2 
   88000    1.2306491   -6.3716337    39.080595  0.037008139  0.042780159            2 
   89000    1.2255092   -6.3748906    39.589844  0.037069143   0.04277926            1 
   90000    1.2094348   -6.4080507    39.925351  0.036967918  0.042763147            2 
   91000    1.2198009   -6.3560057    40.618526  0.037196452  0.042757203            2 
   92000    1.2194397    -6.366861    41.146904  0.037270746  0.042749674            2 
   93000    1.1911189   -6.3855796    41.460193   0.03715071   0.04273944            3 
   94000    1.2147879   -6.3774361    42.071929  0.037297809  0.042725627            1 
   95000    1.2008219   -6.3706041    42.436567  0.037225059  0.042714135            2 
   96000    1.1861243   -6.3316232    43.056145  0.037375126  0.042700399            1 
   97000    1.1967359   -6.3519698     43.37506  0.037263797  0.042678502            2 
   98000    1.1960838   -6.3661633    43.835768  0.037275313   0.04265182            2 
   99000    1.2085487   -6.3705034    44.143498  0.037157827  0.042619841            2 
  100000    1.2138317   -6.3823152    44.438182  0.037031818  0.042578763            1 
  101000     1.212337   -6.4009878    45.066678  0.037183728  0.042541344            2 
  102000    1.2204866   -6.3395339     45.86337  0.037470074  0.042516175            4 
  103000    1.2060753   -6.3913341    46.308747  0.037466624  0.042502574            2 
  104000    1.2304245   -6.3906242    46.937883  0.037610483  0.042492811            6 
  105000    1.2157051   -6.3257724    47.434195  0.037646187  0.042481975            2 
  106000    1.2423802   -6.4086046    47.859208  0.037625164  0.042475617            2 
  107000    1.2166715   -6.3719677    48.658795  0.037896257  0.042468831            2 
  108000    1.2098547   -6.4295286    48.791679    0.0376479  0.042461927            6 
  109000     1.216337   -6.3976617    49.285742  0.037680231   0.04245153            3 
  110000    1.1934182    -6.388644    49.823821  0.037745319  0.042439663            2 
  111000    1.2118448   -6.3677118    50.337833  0.037791166  0.042425791            3 
  112000    1.1738914   -6.4005292     50.88525  0.037861049  0.042414117            6 
  113000    1.1844249   -6.3873579    51.608266  0.038059193  0.042409062            1 
  114000    1.1943186    -6.366571    52.024221  0.038029401  0.042404742            3 
  115000    1.2180078    -6.371742    52.439815  0.037999866  0.042396554            2 
  116000    1.1871306    -6.370918    52.797195  0.037929019  0.042384553            1 
  117000    1.1934089   -6.3453698    53.312349  0.037971759  0.042368492            2 
  118000    1.2023941   -6.3987538    53.428008  0.037731644  0.042345752            1 
  119000    1.2429021   -6.3696691    53.990255  0.037808302  0.042318016            2 
  120000    1.2087562   -6.3522763    54.560137  0.037888984  0.042291443            1 
  121000    1.1944808   -6.3789494    54.913033  0.037818893  0.042264721            2 
  122000    1.2049102   -6.3574482    55.502499  0.037911543  0.042233441            4 
  123000    1.2004409   -6.3706211    55.851363  0.037839677  0.042210551            3 
  124000    1.2175914   -6.4165937    56.432931  0.037925357  0.042186503            5 
  125000    1.1999701    -6.368804    57.249015   0.03816601  0.042161139            3 
  126000    1.2066656   -6.3965644      57.5066  0.038033466   0.04214233            3 
  127000    1.1878089    -6.391785     58.38855  0.038312697  0.042129738            3 
  128000    1.1808536   -6.3831726    58.779353  0.038267808  0.042122068            2 
  129000     1.202981   -6.3838155    59.259288  0.038281193  0.042116374            3 
  130000    1.2341659   -6.3994781    59.708595   0.03827474  0.042108903            4 
  131000    1.2147031   -6.4374184    60.210954  0.038302134  0.042102961            2 
  132000    1.1699384   -6.3885257    60.989281  0.038503334   0.04209513            2 
  133000     1.200039   -6.3858448    61.136502  0.038306079  0.042087015            2 
  134000    1.1779494   -6.3831313    61.724974  0.038386178  0.042073086            3 
  135000     1.194036   -6.4135853    62.228144  0.038412434  0.042061372            3 
  136000    1.2120907   -6.4097728    62.278254  0.038160695   0.04204536            2 
  137000    1.1978074   -6.4427559    62.672413  0.038121906  0.042028741            3 
  138000    1.2117471   -6.3776296    63.604956   0.03840879  0.042011647            1 
  139000    1.1886177   -6.3865069    64.348215  0.038578066  0.042003339            3 
  140000    1.2008785   -6.4051025    64.845708  0.038598635   0.04199597            2 
  141000    1.1869048   -6.4144078    65.224846  0.038548963  0.041989241            6 
  142000    1.2300954   -6.4075952    66.078049  0.038778197  0.041989061            4 
  143000    1.1548866   -6.3937886    66.391522  0.038689698  0.041986305            2 
  144000    1.1955796   -6.4014166    67.014017   0.03878126  0.041985598            1 
  145000     1.174485   -6.4256598    67.024644   0.03851991  0.041979834            1 
  146000    1.2107693   -6.4326703    67.449274  0.038498444   0.04197079            3 
  147000     1.194256   -6.3859836    67.973057  0.038533479  0.041957106            2 
  148000    1.1872563    -6.410341    68.515973  0.038578813  0.041942906            1 
  149000    1.2118694   -6.4113434     68.69845  0.038421952  0.041923881            2 
  150000    1.1965412   -6.4060008    69.066699  0.038370388  0.041902445            2 
  151000    1.2096075   -6.4147723    69.448771  0.038327136  0.041881505            2 
  152000    1.2026265   -6.4064952    70.121071   0.03844357  0.041861459            3 
  153000    1.2145893   -6.3761634    70.488033  0.038392175  0.041840296            2 
  154000    1.2068898   -6.4228102    70.939197  0.038387011  0.041820942            3 
  155000    1.1727413   -6.3932079    71.788479  0.038595956  0.041801661            1 
  156000    1.1954319   -6.4310112    71.930944  0.038424649  0.041783516            5 
  157000    1.2081809   -6.4110466    72.243957  0.038346049  0.041761302            3 
  158000    1.2002913   -6.4206139    72.841789  0.038418665  0.041740219            2 
  159000    1.1766739   -6.4328608    73.288551   0.03841119  0.041719456            4 
  160000     1.187692   -6.4035244    73.872485  0.038475252  0.041697411            2 
  161000    1.1762346    -6.406669    74.463093  0.038541973  0.041678825            3 
  162000    1.1812181   -6.4354139    74.475766  0.038310579    0.0416593            4 
  163000    1.1939593   -6.4149962    74.996623  0.038341832  0.041640185            3 
  164000    1.2068135   -6.4732392     75.26643  0.038245137  0.041618498            2 
  165000    1.1711698   -6.4353716    76.079081  0.038423778  0.041596573            1 
  166000    1.1669866   -6.4481101    76.665948  0.038486922  0.041577186            4 
  167000    1.1541399   -6.4503512    77.209988  0.038527938   0.04156044            4 
  168000    1.1897457   -6.4412671    77.407127  0.038396392  0.041542551            3 
  169000     1.181446   -6.4174325    78.204237  0.038562247  0.041528748            3 
  170000    1.2024422   -6.4398949    78.468981  0.038465187  0.041511952            3 
  171000     1.159728   -6.3962017    78.979049  0.038488815   0.04149733            2 
  172000    1.1792232    -6.423529    79.510067  0.038522319  0.041479807            1 
  173000    1.1901948   -6.4079079    79.732758  0.038406916  0.041459331            5 
  174000    1.1976701    -6.457964    80.200695  0.038410294  0.041438435            4 
  175000    1.1930546    -6.404018    80.712512  0.038434529  0.041417719            3 
  176000    1.1812814   -6.4887283    81.069693  0.038385271  0.041395056            3 
  177000    1.1646597   -6.4353509    81.538834  0.038389281  0.041371793            2 
  178000    1.1849466   -6.4162127    81.758107  0.038276267  0.041347734            2 
  179000    1.2072278   -6.4516553    82.193181  0.038264982  0.041322367            3 
  180000    1.1957945    -6.419384    82.885524  0.038372928  0.041295223            3 
  181000    1.1560017   -6.4053652    83.282104   0.03834351  0.041270397            2 
  182000    1.1765787   -6.4392441    83.630444  0.038292328   0.04124798            4 
  183000    1.2136005   -6.4205553    84.344797  0.038408377  0.041228846            1 
  184000    1.1625458   -6.4441554    84.787814  0.038400278  0.041208574            6 
  185000    1.1946055   -6.4463834    84.866947  0.038228354  0.041186113            1 
  186000    1.1852496   -6.4460757     85.07558  0.038116299  0.041160176            5 
  187000    1.1793806   -6.4736624    85.647787  0.038167463  0.041133488            4 
  188000    1.1651069   -6.4411884    86.017699  0.038128412  0.041103945            1 
  189000    1.2037803   -6.4572276    86.625233  0.038194547  0.041074126            2 
  190000    1.1843897   -6.4021745    87.358494  0.038315129  0.041049047            2 
  191000    1.1680433   -6.4880538    87.460749   0.03815914  0.041023264            3 
  192000    1.1763637   -6.4256272     88.08044  0.038229357  0.040997361            2 
  193000    1.1577358   -6.4302228    88.504569  0.038214408  0.040973983            5 
  194000    1.1838211   -6.4500098    88.967083  0.038216101    0.0409494            3 
  195000    1.1838943   -6.4624101    89.339861  0.038179428  0.040925367            3 
  196000    1.1948992   -6.4158783    90.575544   0.03851001  0.040904378            4 
  197000    1.1640053   -6.4589479    90.834975   0.03842427  0.040889334            3 
  198000    1.1825176   -6.4361795    91.422827  0.038477621  0.040875551            2 
  199000    1.1700271   -6.4173991    91.970123  0.038513452  0.040863514            4 
  200000    1.1852965   -6.4570495    92.126654  0.038386106  0.040849496            2 
  201000    1.1770592   -6.4390279    92.644423  0.038409794  0.040834908            3 
  202000    1.1718255    -6.414784    93.292411  0.038486968  0.040821113            2 
  203000    1.1830301    -6.466888     93.38155  0.038333969  0.040804586            3 
  204000    1.1875846   -6.4652694    93.533956  0.038208315  0.040785689            2 
  205000    1.1813081   -6.4672786    93.836334  0.038144851  0.040764956            3 
  206000    1.1820835   -6.4464577    94.630211   0.03828083   0.04074267            2 
  207000    1.1647186   -6.4357961    94.921517  0.038213171  0.040720297            2 
  208000    1.1439913   -6.4334135    95.403346  0.038222494  0.040698985            2 
  209000    1.1813977   -6.4329181    95.814054  0.038203371  0.040677602            2 
  210000    1.1505951    -6.445424    96.178757  0.038166173  0.040657307            4 
  211000    1.1660209   -6.4487101    96.380943  0.038065143  0.040635259            5 
  212000    1.1824885   -6.4496141    96.954099  0.038110888  0.040614378            5 
  213000    1.1809213   -6.4746889     97.49475  0.038143486  0.040593261            2 
  214000    1.1658611    -6.472584     97.82588   0.03809419  0.040574399            3 
  215000    1.1905521   -6.4289461    98.418391  0.038146663  0.040552042            2 
  216000    1.1401732   -6.4555502    98.650292  0.038059526  0.040531376            2 
  217000    1.1747119   -6.4413494    99.777564  0.038317037  0.040511802            2 
  218000    1.1884354   -6.4050413    100.08585  0.038259116  0.040494295            4 
  219000    1.1605982    -6.477033    99.938203  0.038028235  0.040474795            4 
  220000    1.1615599   -6.4928034    100.59607  0.038104572  0.040455113            1 
  221000    1.1792264   -6.4757219    101.56204  0.038296396  0.040438385            1 
  222000    1.2107837   -6.4666137    102.07586  0.038316765  0.040420494            2 
  223000    1.1591365   -6.4407803    102.40297  0.038267179  0.040403056            5 
  224000    1.1837438   -6.4809685    102.56371  0.038156142  0.040385613            1 
  225000    1.1876903   -6.4787813    102.91761  0.038117634  0.040367537            3 
  226000    1.1795945   -6.4823206    103.01999  0.037986722  0.040347994            3 
  227000    1.1546164   -6.4790054    103.44687   0.03797609  0.040326074            2 
  228000    1.1576667    -6.452831    103.88332  0.037969049  0.040303761            2 
  229000    1.1428733   -6.4653793    104.58581  0.038058883  0.040281911            1 
  230000    1.1473839   -6.4650474    104.88052  0.038000188  0.040259484            3 
  231000    1.1895628    -6.478811     105.3225  0.037995131  0.040237312            3 
  232000    1.1708731   -6.5170683    105.70928  0.037970289   0.04021607            2 
  233000    1.1546475   -6.4421543    106.08504  0.037941716  0.040195757            2 
  234000    1.1579709   -6.4422197    106.81063  0.038037975  0.040174235            3 
  235000     1.180487    -6.456427     106.8875  0.037903367  0.040153273            2 
  236000    1.1685692   -6.4255686    107.60154  0.037994894  0.040132487            3 
  237000    1.1522668   -6.4052111    108.33875  0.038093795  0.040112019            4 
  238000    1.1560719   -6.4164032    108.49667   0.03798903  0.040092201            4 
  239000    1.1590648   -6.4751452    108.53092  0.037842021  0.040070365            2 
  240000    1.1328492   -6.4809026    109.11936  0.037888666  0.040047451            3 
  241000      1.13061   -6.5100368    109.39679  0.037827382  0.040023844            1 
  242000    1.1468255   -6.4852852    109.87249  0.037834881  0.040001023            3 
  243000    1.1669214   -6.4598313    110.69073  0.037959783  0.039978764            1 
  244000    1.1394785   -6.4395182    110.98595  0.037905038  0.039957205            3 
  245000     1.144286   -6.4983473    111.12189   0.03779656  0.039936239            9 
  246000      1.15575   -6.4523684    111.65477  0.037823432  0.039914377            1 
  247000    1.1352684   -6.4745607    111.77956  0.037712403  0.039890544            2 
  248000    1.1531026   -6.5038781    112.43223  0.037779646  0.039868426            2 
  249000    1.1653866   -6.5147585    112.75952  0.037737455   0.03984836            3 
  250000    1.1534879   -6.4868151    113.54936  0.037849788  0.039828215            3 
  251000    1.1783389   -6.4992955    114.21751  0.037920818  0.039807936            2 
  252000    1.1482744   -6.5036954    113.94875  0.037681464  0.039787385            3 
  253000    1.1743001   -6.4617904    114.64709  0.037762545  0.039767378            3 
  254000    1.1328959   -6.4672863    115.22249  0.037802653  0.039747432            4 
  255000    1.1310169   -6.4525507    115.83442  0.037854385  0.039727156            4 
  256000    1.1624487   -6.4567704    116.09599  0.037791663  0.039709019            3 
  257000    1.1607232   -6.4571531     117.0212  0.037944618  0.039692192            2 
  258000    1.1579748   -6.4640279    117.60586  0.037986387  0.039675079            3 
  259000    1.1704749   -6.4987868    117.47292  0.037796948  0.039658007            3 
  260000    1.1342261    -6.490195    117.84167  0.037769767  0.039639634            4 
  261000    1.1538197    -6.540481    118.28129  0.037765419  0.039620978            1 
  262000    1.1511113   -6.5033502    118.96168  0.037837683  0.039600856            2 
  263000    1.1672099   -6.5197759    119.09967  0.037737539  0.039581942            1 
  264000    1.1539853   -6.5006227    119.56486  0.037741433  0.039563881            2 
  265000    1.1437393   -6.4823224    120.17041  0.037789438  0.039545484            2 
  266000    1.1534374   -6.5262272    120.57539  0.037774245  0.039527808            3 
  267000    1.1438484   -6.5235197    120.61613  0.037645483  0.039510334            6 
  268000    1.1861764   -6.5250546    121.46725  0.037769667  0.039492042            3 
  269000    1.1359806   -6.4407392    121.67722  0.037694307  0.039474459            2 
  270000    1.1452078   -6.4766118    121.95145  0.037639336  0.039457711            3 
  271000    1.1213511   -6.5212253    122.58559  0.037695445   0.03943969            6 
  272000    1.1497297     -6.50549    123.13467  0.037725082  0.039422352            4 
  273000    1.1365199   -6.5335227    123.89418  0.037818736   0.03940644            4 
  274000    1.1555278   -6.5090706    123.94318  0.037695613  0.039391957            3 
  275000    1.1404417   -6.4972209    124.98203  0.037873342  0.039376241            4 
  276000    1.1608876   -6.5083727    124.95393  0.037727637  0.039361281            2 
  277000    1.1455877   -6.5042448    125.70367  0.037816988  0.039347467            2 
  278000    1.1525157    -6.483329    126.36519  0.037879253  0.039336161            2 
  279000    1.1633861   -6.5172312    126.87389  0.037895427   0.03932403            1 
  280000      1.12096   -6.5152616    126.75983  0.037726141  0.039311329            2 
  281000    1.1412653   -6.5002493    127.57811  0.037834553  0.039298162            6 
  282000    1.1299812   -6.5202643    128.28772  0.037910083  0.039285677           12 
  283000    1.1501093   -6.5395512    128.54281  0.037851239  0.039271719            5 
  284000    1.1390911    -6.478938     128.8696   0.03781385  0.039258332            2 
  285000    1.1348988   -6.5299325    128.98912  0.037716118  0.039244486            3 
  286000    1.1241334   -6.5072486    128.94545  0.037571519  0.039230708            3 
  287000    1.1476912   -6.4712958    129.98923  0.037743678  0.039215946            2 
  288000    1.1306338    -6.515849    129.87997  0.037581009  0.039199611            3 
  289000    1.1532766   -6.5355165    130.80194  0.037716821  0.039183575            2 
  290000    1.1242313   -6.5360147    130.86065  0.037603635  0.039167877            2 
  291000    1.1464889   -6.5196862     131.3317  0.037609306    0.0391513            2 
  292000    1.1257566   -6.4824697    131.84815  0.037627897   0.03913535            2 
  293000    1.1430718   -6.5186707    132.66222  0.037731008  0.039119465            2 
  294000     1.099193   -6.5202083    132.66722  0.037604087  0.039105046            2 
  295000    1.1123834   -6.5254832     132.6806  0.037480395  0.039088703            6 
  296000    1.1310849   -6.5423079    133.60016  0.037612657   0.03907291            3 
  297000    1.1333335   -6.5528529    133.68488  0.037509787  0.039058065            2 
  298000    1.1469012   -6.5245623    134.30643  0.037557725  0.039041452            2 
  299000    1.1147464   -6.5149908    134.39388  0.037456488  0.039024758            3 
  300000    1.1510841   -6.5398592    134.37072  0.037325199  0.039005208            2 
  301000    1.1385994   -6.5459737    134.42051  0.037214981  0.038984751            2 
  302000     1.126301   -6.5387298    134.68762  0.037165458  0.038963165            2 
  303000    1.1339925   -6.5690073    135.07066  0.037148146  0.038940791            2 
  304000    1.1466764   -6.5379726    135.04967  0.037020195  0.038917153            2 
  305000    1.1301677   -6.5282425    135.55486  0.037036848  0.038893889            3 
  306000    1.1354418   -6.5257063    135.78062  0.036977293  0.038868648            4 
  307000    1.1236041   -6.5168521    136.62946  0.037087259  0.038843817            3 
  308000    1.1398145   -6.5370355    136.22065  0.036856236  0.038819575            4 
  309000    1.1042578   -6.5186928    136.94724  0.036932912  0.038794888            2 
  310000    1.1181466   -6.5398163    137.84101  0.037054036  0.038771126            4 
  311000    1.1482325   -6.5137458    138.60316   0.03713911  0.038748049            4 
  312000    1.1135338   -6.4813345    139.03964  0.037136657  0.038727374            3 
  313000    1.1307717   -6.5587612    139.32951  0.037095183  0.038705611            2 
  314000    1.1235781   -6.4959629    139.65843  0.037064338  0.038683285            2 
  315000    1.1361751   -6.5190734    139.57496  0.036924593  0.038659857            3 
  316000    1.1521868   -6.5676985    140.04511  0.036931727  0.038635487            4 
  317000     1.100705   -6.5076455    140.42048  0.036913902   0.03861174            3 
  318000    1.1189022    -6.524219    141.14495   0.03698767  0.038587891            4 
  319000    1.1222726   -6.5687971    141.16128  0.036875987   0.03856529            4 
  320000    1.1325789   -6.5419901    141.97876  0.036973636  0.038543474            3 
  321000    1.1167075   -6.5147723     142.6522  0.037033282   0.03852234            4 
  322000    1.1187972   -6.5348979    142.72255  0.036936478    0.0385013            4 
  323000    1.1062269   -6.5351655    142.87333  0.036861025  0.038480548            3 
  324000    1.1127147      -6.4979    143.21583  0.036835348  0.038459612            2 
  325000    1.1377361   -6.5549606    143.50807  0.036796941  0.038437289            3 
  326000     1.127318   -6.5416735    144.11001  0.036837937  0.038414866            3 
  327000    1.1356255   -6.5783178    144.35959  0.036788887   0.03839296            4 
  328000    1.1277633   -6.5623264    144.28446  0.036657636  0.038370111            4 
  329000    1.0929386   -6.5557364    145.83286  0.036938413  0.038348397            3 
  330000    1.1220546   -6.5414405    145.70388  0.036793909  0.038328101            4 
  331000     1.140557    -6.532291    146.53557  0.036892138  0.038308339            3 
  332000    1.1433348   -6.5369806    146.71495  0.036826041  0.038288803            4 
  333000     1.140787   -6.5348504    147.76613  0.036978511  0.038270494            3 
  334000    1.1410325   -6.5625354    147.65098  0.036839068  0.038252423            2 
  335000     1.126209   -6.5832213    148.24584  0.036877074  0.038234512            3 
  336000    1.0995734   -6.5621601    148.44637  0.036817056  0.038216167            3 
  337000    1.0904537   -6.5321086    149.14716  0.036881097  0.038197229            3 
  338000    1.1373355   -6.5581441    149.53967  0.036868754  0.038179337            3 
  339000    1.1051915   -6.5514164     149.9856  0.036869617  0.038161783            3 
  340000    1.0914779   -6.5510573     150.1506  0.036801618  0.038144138            3 
  341000    1.1071714   -6.5191961    151.11631  0.036929693  0.038126693            3 
  342000    1.1362183   -6.5430321     151.6197  0.036944371  0.038109737            3 
  343000    1.1093776   -6.5304737    151.90251  0.036905371  0.038092646            4 
  344000    1.0966984   -6.5677593    151.66164  0.036739737  0.038076537            3 
  345000    1.1163179   -6.5365034    153.07371  0.036974326  0.038060144            4 
  346000    1.1081904   -6.5732508     152.3494  0.036693015  0.038043988            3 
  347000    1.1390619   -6.5425935    153.34946  0.036827439  0.038026697            2 
  348000    1.1145392   -6.5986316    153.51456   0.03676115  0.038008709            3 
  349000     1.126128   -6.5619474     154.1696  0.036812226  0.037991615            4 
  350000     1.116134   -6.5622513    154.56173  0.036800413  0.037974819            2 
  351000    1.1127813   -6.5650141     154.4576  0.036670845   0.03795776            3 
  352000    1.1391009   -6.5341782    155.27079  0.036759183   0.03794017            2 
  353000    1.1163014   -6.5610278    155.41785  0.036689766  0.037922598            3 
  354000    1.0978639   -6.5835213    155.78286  0.036672048  0.037905086            3 
  355000    1.0971804   -6.5466773    155.45783  0.036492448   0.03788633            4 
  356000    1.1117583     -6.59752     155.2012  0.036329868  0.037866602            2 
  357000    1.1104626   -6.5661547    156.41522  0.036511488  0.037846904            2 
  358000    1.0821886   -6.5715978    156.80872  0.036501098  0.037827213            4 
  359000    1.1382814   -6.5460742    157.54031  0.036569245  0.037809155            4 
  360000    1.1107833   -6.5502604    157.44531  0.036445674  0.037790904            2 
  361000    1.1265317   -6.5843011    157.75699  0.036416665  0.037772515            2 
  362000    1.1221853   -6.5696396     158.2319  0.036425392  0.037752995            3 
  363000     1.100847   -6.6021124    157.85396  0.036238282  0.037733234            4 
  364000    1.1087606   -6.5502675    158.65859  0.036322937  0.037712681            2 
  365000    1.1037509    -6.565103    159.18106  0.036342708  0.037692721            2 
  366000    1.1168638   -6.5800897     159.6192  0.036343168  0.037673604            3 
  367000      1.10244    -6.549432    160.07705  0.036348105   0.03765351            2 
  368000    1.0992601   -6.5729593    160.27001  0.036293027  0.037633589            2 
  369000    1.1057681   -6.6096737    161.34994  0.036438559  0.037612845            2 
  370000    1.0836947   -6.5450831    160.80987   0.03621844  0.037592122            3 
  371000    1.0803561    -6.610167    161.45478  0.036265674   0.03757152            3 
  372000    1.1486616   -6.5824029    162.05544  0.036302741  0.037552002            2 
  373000    1.0994163   -6.5523494    162.33731  0.036268389  0.037532174            3 
  374000    1.1057836   -6.6036556    162.17868   0.03613607  0.037510926            1 
  375000    1.1436046   -6.5818371    162.23154  0.036051453  0.037489388            3 
  376000    1.1056958   -6.5858375    163.29195  0.036190593  0.037467733            2 
  377000     1.121244   -6.5995872    163.20593  0.036075581  0.037446478            2 
  378000    1.1084589   -6.5724737     164.0256  0.036160846   0.03742585            3 
  379000    1.0872466   -6.5800657    163.83086  0.036022617   0.03740568            2 
  380000    1.1059079    -6.600162     164.4552  0.036064737  0.037385276            8 
  381000    1.1152045   -6.5941318    164.47412  0.035974216  0.037363381            4 
  382000    1.0992213    -6.564514     165.1432  0.036026003  0.037341337            3 
  383000    1.1068982   -6.5667731    165.41527  0.035991137  0.037320416            2 
  384000    1.1034185   -6.5427083    166.09125  0.036044108  0.037299085            2 
  385000     1.124531   -6.6283764    166.08658  0.035949476  0.037278218            3 
  386000    1.0823114   -6.6030333    167.19729  0.036096132  0.037258076            3 
  387000    1.1166576   -6.5875324     167.5058  0.036069293  0.037238498            3 
  388000    1.1022307   -6.5627357    167.70803  0.036019765  0.037218421            2 
  389000    1.0879995   -6.5754562    168.23555  0.036040177  0.037198773            3 
  390000    1.1064763   -6.5667399    168.25943   0.03595287  0.037179008            3 
  391000    1.0918982   -6.5960029    168.40675  0.035892316  0.037159464            3 
  392000    1.0822692   -6.5561835    168.77451  0.035878936  0.037139141            2 
  393000    1.0932869   -6.6005042     169.0299  0.035841795  0.037118679            2 
  394000    1.1033551   -6.5945315    170.08811  0.035974643  0.037098687            2 
  395000    1.0958267   -6.5888666    171.19305  0.036116677  0.037081763            3 
  396000    1.1042726   -6.6603671    170.77688  0.035937895  0.037064773            8 
  397000    1.0936923   -6.5828068    172.16757  0.036139289  0.037047675            2 
  398000    1.0794422   -6.6121878    172.26351  0.036068574  0.037031308            6 
  399000    1.1059898   -6.5823368    172.76715  0.036083364   0.03701432            6 
  400000    1.1165974    -6.598987    172.83089  0.036006435  0.036996862            2 
  401000    1.0837462   -6.6135695    173.31415  0.036017072  0.036979747            2 
  402000    1.0857008   -6.5720894    173.66253  0.035999696  0.036963618            1 
  403000    1.0918758   -6.5465896     174.5199  0.036087655  0.036947292            4 
  404000    1.0976651   -6.5866535    174.83411  0.036063142  0.036931131            4 
  405000    1.1086547   -6.6252542    174.33395  0.035871182  0.036914634            2 
  406000    1.0830389   -6.5970719    175.21408  0.035963481   0.03689768            3 
  407000     1.075518   -6.5614295      175.858  0.036006961  0.036882051            4 
  408000    1.0929074   -6.6145921     176.7276  0.036096323  0.036867017            6 
  409000     1.099932   -6.6237121    177.11458  0.036086915  0.036852154            3 
  410000    1.0712378   -6.6144081    176.89719  0.035954713  0.036838478            5 
  411000    1.0947623   -6.6454316    177.05294  0.035898812  0.036824618            5 
  412000    1.1047846   -6.6361667     177.7986    0.0359625  0.036811088            7 
  413000    1.1161935   -6.6091159    178.62387  0.036041943   0.03679689            5 
  414000    1.0732913   -6.5783089    179.23142  0.036077177  0.036782775            2 
  415000    1.0836611   -6.5929172    179.46513  0.036037174  0.036768674            3 
  416000    1.0836395    -6.582122    178.94017  0.035845386   0.03675441            3 
  417000    1.0648616   -6.6170087    178.81129   0.03573367  0.036739344            2 
  418000     1.058068   -6.6083675    179.75395  0.035836115  0.036723542            3 
  419000    1.0997904   -6.5767288    179.87707  0.035775073  0.036707268            2 
  420000    1.0932335   -6.5716366    180.23327   0.03576057  0.036691272            2 
  421000    1.0942047   -6.5871664    180.52064  0.035732511  0.036675079            2 
  422000    1.0796993    -6.604743    181.46026  0.035833385  0.036658626            4 
  423000     1.075871   -6.5977495    181.85381  0.035826204  0.036641974            1 
  424000    1.1028398   -6.5920955      181.619  0.035695558  0.036625468            2 
  425000    1.0686227   -6.6130624    182.32331  0.035749668  0.036609151            3 
  426000    1.0689431   -6.6140329    182.61392  0.035722598  0.036593272            4 
  427000    1.0931597   -6.5906565    182.86758  0.035688443  0.036576813            9 
  428000     1.114071   -6.6329191    183.18766  0.035667379  0.036561197            2 
  429000    1.0882769   -6.6209722    184.25573  0.035791712  0.036545983            5 
  430000    1.0847619   -6.6285942    184.81198  0.035816274  0.036530945            2 
  431000    1.0844807   -6.5874729    185.45227  0.035856973  0.036516923            4 
  432000    1.0842011   -6.5995779    185.78442  0.035838044  0.036503345            3 
  433000    1.0847615   -6.6355109    185.11581    0.0356266  0.036489637            6 
  434000    1.0759779   -6.6471399     185.7412  0.035664593  0.036475251            5 
  435000    1.0785154    -6.612216    186.61648  0.035750283  0.036460881            3 
  436000     1.092691   -6.6511506    186.25462  0.035599125  0.036446744            2 
  437000     1.086636   -6.6317188    187.41725  0.035739369   0.03643272            2 
  438000      1.10115   -6.6398372    188.13505   0.03579434  0.036419588            2 
  439000    1.0747367   -6.6127328    188.17129  0.035719683  0.036406198            5 
  440000    1.0674968   -6.6723207    188.35903  0.035674059  0.036392139            2 
  441000    1.0769676   -6.6287007    188.45347   0.03561101  0.036378237            3 
  442000    1.0728881   -6.6347919    189.16967  0.035665473  0.036364769            4 
  443000    1.0532474    -6.591517    190.05634  0.035751757  0.036350942            5 
  444000    1.0727695   -6.6500443    189.88835  0.035639704  0.036337619            2 
  445000    1.0664341   -6.6500227    189.94762  0.035570716  0.036324267            4 
  446000    1.0781345   -6.6694212    190.95744  0.035679641  0.036310525            3 
  447000    1.1024135   -6.6701648    190.98323  0.035604629  0.036296631            3 
  448000     1.087569   -6.6437751    190.86239  0.035502677  0.036282953            4 
  449000    1.0683798    -6.613034     192.2647  0.035683872  0.036268896            4 
  450000    1.0971456   -6.6768156    192.04129  0.035563201  0.036255222            7 
  451000    1.0845813   -6.6112985    192.77417  0.035619765  0.036241637            2 
  452000    1.1055707   -6.6251895    193.13517  0.035607516  0.036227978            6 
  453000    1.0656523    -6.644536     193.5002  0.035596063  0.036214248            3 
  454000    1.0621894    -6.618415    193.93482  0.035597433  0.036200986            3 
  455000     1.056116     -6.64044    194.13495  0.035555852  0.036187246            2 
  456000    1.0923168    -6.643772    194.71119  0.035583186  0.036173889            3 
  457000    1.0798597   -6.6646869    194.36522  0.035442236  0.036159403            2 
  458000    1.0794526    -6.647159    195.02942  0.035485701  0.036145236            3 
  459000    1.1011098    -6.616013    195.76847  0.035542568  0.036131126            4 
  460000    1.0674455   -6.6338642    195.02255  0.035330172  0.036116199            3 
  461000    1.0544051   -6.6326539    195.38603  0.035319239  0.036101337            1 
  462000    1.0865205   -6.6202266     195.3761  0.035240999  0.036086166            3 
  463000    1.0580885   -6.6400754     196.4414  0.035356623   0.03607124            3 
  464000     1.056724   -6.6811938     196.6737  0.035322145   0.03605626            4 
  465000    1.0200423   -6.6113815    197.78885   0.03544603  0.036041545            4 
  466000    1.0601239   -6.6292994    198.36558  0.035473102  0.036027575            2 
  467000     1.063757    -6.663367    198.06625  0.035343727  0.036013663            3 
  468000     1.045278   -6.6136426    198.38628  0.035325191  0.035999529            1 
  469000    1.0661886   -6.6509083    198.73373  0.035311608  0.035985218            4 
  470000    1.0734491   -6.6471599    199.09817  0.035301095  0.035970118            2 
  471000    1.0818219   -6.6330353    198.54138  0.035127632  0.035954568            2 
  472000    1.0480261   -6.6653452    198.81594  0.035101684  0.035938733            6 
  473000    1.0520257   -6.6760331    199.14167  0.035084861  0.035923685            3 
  474000    1.0534617   -6.6290815    199.36707  0.035050469  0.035908168            2 
  475000    1.0624122    -6.672598    200.19815  0.035122482  0.035891948            4 
  476000    1.0790925   -6.6769882    200.65205  0.035128161  0.035876307            3 
  477000    1.0691837   -6.6902841    200.71184  0.035064961  0.035860972            4 
  478000    1.0703313    -6.656334     201.7114  0.035165865  0.035846754            4 
  479000    1.0696293   -6.6533589    202.01066  0.035144513  0.035832044            2 
  480000    1.0409182   -6.6331703    201.94253  0.035059467  0.035816793            3 
  481000    1.0490381   -6.6386336    202.28024  0.035045087  0.035801154            2 
  482000    1.0570023   -6.6767504     203.1538  0.035123409  0.035786158            5 
  483000    1.0478311   -6.6857718    202.72236  0.034976252  0.035771394            7 
  484000    1.0525018   -6.6555827    203.60264  0.035055552  0.035756754            5 
  485000    1.0592411   -6.6579944    205.21331   0.03526002  0.035742765            3 
  486000    1.0674651   -6.6597549    204.54244  0.035072434  0.035728683            4 
  487000    1.0555933   -6.6876193    204.66743  0.035021806  0.035714571            3 
  488000    1.0658726   -6.6596995    204.96972   0.03500166  0.035700025            4 
  489000    1.0396735   -6.6941912    205.59827  0.035037196  0.035684932            2 
  490000    1.0306502   -6.6787175    205.24294  0.034905262  0.035669795            6 
  491000    1.0440121   -6.6777135     206.2249  0.035000831  0.035654642            2 
  492000    1.0627822   -6.6613083    206.16558  0.034919644  0.035639577            2 
  493000    1.0716062   -6.6807059    206.03951  0.034827503  0.035624381            3 
  494000    1.0761697   -6.6426301    206.43419  0.034823581  0.035609103            2 
  495000    1.0386101   -6.6624548    207.54414  0.034940091  0.035594032            2 
  496000     1.056506   -6.6733556    207.59134  0.034877577  0.035579257            3 
  497000    1.0392575   -6.6904366      208.426  0.034947351  0.035564223            2 
  498000    1.0529229   -6.6706903    208.93999  0.034963185   0.03554894            2 
  499000    1.0497143   -6.6531875    208.99167  0.034901748  0.035534237            3 
  500000      1.08074    -6.660035    209.28988  0.034881647  0.035519773            3 
  501000    1.0629249   -6.7241067    209.38399  0.034827676  0.035504729            3 
  502000     1.062674   -6.6880188    209.24198  0.034734724  0.035489439            2 
  503000    1.0641258   -6.6667216     209.6817  0.034738518  0.035474516            3 
  504000    1.0776441   -6.6809654    209.74027  0.034679278  0.035459268            3 
  505000    1.0460671    -6.679923    209.05564   0.03449763  0.035443451            6 
  506000    1.0657624   -6.7244025    210.34596  0.034641956  0.035427278            4 
  507000    1.0679895   -6.6915565    210.88412  0.034662083  0.035410289            2 
  508000    1.0482763   -6.6786825    210.64067  0.034553915  0.035393422            7 
  509000    1.0481207   -6.6912243    210.72202  0.034499348  0.035376181            1 
  510000    1.0620353   -6.6603845    210.92348  0.034464621  0.035358861            2 
  511000    1.0646218   -6.6768366    211.81025   0.03454179  0.035342065            4 
  512000    1.0428167   -6.6985389    211.81661   0.03447536  0.035325362            9 
  513000    1.0622684   -6.6711196    212.93079  0.034589147  0.035308456            6 
  514000    1.0621667   -6.6618404     212.6209  0.034471612  0.035291672            3 
  515000    1.0380364   -6.6917476    213.62016  0.034566368  0.035275338            4 
  516000    1.0433506    -6.700203     213.9992  0.034560594  0.035258841            3 
  517000    1.0666158   -6.6884932    214.81965  0.034625992  0.035242369            5 
  518000    1.0603637   -6.6546941    214.87276  0.034567689   0.03522664            3 
  519000    1.0516205   -6.6634538    215.05485  0.034530323  0.035210362            2 
  520000    1.0604647   -6.6778043    214.75237  0.034415445  0.035194109            3 
  521000    1.0743555   -6.7032096    214.68783  0.034339065  0.035177512            3 
  522000    1.0624799   -6.6794437    216.04211  0.034489481  0.035161099            7 
  523000    1.0339029   -6.7373782     216.3325  0.034469806  0.035144721            4 
  524000    1.0486222   -6.6924371    215.98049  0.034348043  0.035127792            4 
  525000    1.0470807   -6.7196008    216.73078   0.03440171   0.03511094            3 
  526000    1.0374789   -6.7413152    216.61473  0.034317922  0.035094259            4 
  527000    1.0314109   -6.6774109    216.34878  0.034210749  0.035077008            6 
  528000     1.039915   -6.6959598    217.49074   0.03432619  0.035059577            5 
  529000    1.0451844   -6.6893912    217.67231  0.034289904  0.035042679            2 
  530000    1.0292659   -6.7038563    218.04096   0.03428317  0.035026087            2 
  531000    1.0553874   -6.6432209    218.18115  0.034240607  0.035009374            6 
  532000    1.0440962   -6.6616084    218.96285  0.034298692  0.034992934            8 
  533000    1.0379022   -6.6774441    219.12034  0.034258965  0.034976332            4 
  534000    1.0392974    -6.677576    219.60926  0.034271107  0.034960017            5 
  535000    1.0471333   -6.6799934    219.44513  0.034181485    0.0349431            2 
  536000     1.034276   -6.6717514    220.19939  0.034234979  0.034926019            8 
  537000    1.0472833   -6.7169636    220.62283  0.034236939  0.034909376            3 
  538000    1.0488756   -6.7267886    219.98539  0.034074565  0.034892961            8 
  539000    1.0470628   -6.7437525    220.76698  0.034132186  0.034876382            4 
  540000    1.0209897   -6.7103683    221.15341  0.034128613  0.034860035            4 
  541000    1.0425593    -6.695075    222.05504  0.034204412   0.03484425            3 
  542000    1.0387444   -6.7386207    222.50246  0.034210096  0.034828243            3 
  543000    1.0344803   -6.7177201    222.86645  0.034202954  0.034812263            1 
  544000    1.0355474   -6.6861176    222.68323  0.034112015     0.034796            5 
  545000    1.0219083   -6.6833352    223.21247  0.034130347  0.034780242            7 
  546000    1.0462768   -6.7374258    223.22065  0.034069086  0.034764148            2 
  547000    1.0451736   -6.7366285    224.29047  0.034169785  0.034747968            4 
  548000    1.0138911   -6.7240306    223.54234  0.033993665   0.03473222            5 
  549000    1.0421309   -6.7210225    224.86935  0.034133174  0.034716518            3 
  550000    1.0449869   -6.7173919    224.88451   0.03407341  0.034700899            2 
  551000    1.0406251   -6.6742082    226.00146    0.0341805  0.034685654            2 
  552000    1.0479974   -6.7488899    225.42375  0.034031363  0.034670362            7 
  553000     1.037489   -6.7236758    226.33602  0.034107297  0.034654691            2 
  554000    1.0356158   -6.6851251    226.66314  0.034094936  0.034639544            3 
  555000    1.0081963   -6.7172529    226.52846  0.034013282  0.034624483            3 
  556000    1.0330153   -6.6840744    228.20085  0.034202765  0.034609739            3 
  557000    1.0330049    -6.731871    227.75598  0.034074802  0.034594979            3 
  558000    1.0526978   -6.7148069    227.58642  0.033988414  0.034580037            5 
  559000    1.0328791   -6.6997378    227.68888  0.033942885  0.034564953            2 
  560000    1.0359115   -6.7386775    228.05527  0.033936796  0.034549778            6 
  561000    1.0371765   -6.6895507    227.88764  0.033851403  0.034534495            5 
  562000    1.0353449   -6.7069737    229.07325  0.033966971  0.034518795            2 
  563000    1.0270259    -6.719943    228.87923  0.033877921  0.034502967            3 
  564000    1.0369281   -6.7282277    228.46097  0.033756053  0.034487123            5 
  565000    1.0209214   -6.7248024    230.01666  0.033925761  0.034471844            2 
  566000    1.0419515   -6.7014052    230.49512  0.033936266  0.034456504           10 
  567000      1.02673   -6.7720083    229.45118  0.033722984  0.034440488            3 
  568000     1.055073   -6.7143537    229.76905  0.033710248   0.03442387            2 
  569000    1.0336673   -6.7023264    230.62904  0.033776954  0.034407339            6 
  570000    1.0424665   -6.7204839    230.35736  0.033677977  0.034390977            6 
  571000    1.0282619    -6.758192     230.0581  0.033575321  0.034373663            5 
  572000    1.0414524   -6.7539933    230.67879   0.03360705  0.034356533            5 
  573000    1.0336754   -6.7183857    231.02771  0.033599143  0.034339456            4 
  574000     1.047601   -6.6969258    230.86586   0.03351711  0.034322029            3 
  575000    1.0316891   -6.7571084    230.95796  0.033472168  0.034304488            5 
  576000    1.0207017   -6.6898751     231.7108  0.033522974  0.034287031            4 
  577000    1.0033501   -6.7274495     231.9472  0.033499017   0.03426921            7 
  578000    1.0194622   -6.7071466    232.62372  0.033538599  0.034251711            3 
  579000     1.055195   -6.7382035    231.51012  0.033320398  0.034233822            2 
  580000    1.0396162   -6.7387335    233.14742  0.033498193  0.034215433            3 
  581000    1.0161508   -6.7160638    232.83304  0.033395445  0.034197256            2 
  582000    1.0460346   -6.7436662    232.26843   0.03325722  0.034178401            4 
  583000    1.0173509   -6.7390308    232.53474  0.033238242  0.034159554            3 
  584000    1.0100259   -6.7182707    233.25229  0.033283717   0.03414061            3 
  585000    1.0226178   -6.7041438     233.2098  0.033220769  0.034121185            2 
  586000    1.0145625   -6.7394486    233.27537  0.033173402  0.034102123            4 
  587000    1.0269683   -6.7644467    233.67257  0.033173277  0.034083153            2 
  588000    1.0302478   -6.7428166    233.30435  0.033064676  0.034063973            4 
  589000    1.0341173   -6.7553091    234.15374  0.033128713  0.034044789            3 
  590000    1.0319611   -6.7493927    233.99146  0.033049642  0.034025164            3 
  591000    1.0175481    -6.693476     235.5939   0.03321967  0.034006099            2 
  592000    1.0128841   -6.7999744    235.03371    0.0330847  0.033987132            5 
  593000    1.0138327   -6.7532341    235.90108  0.033150799  0.033968394            3 
  594000    1.0337062   -6.7684418     235.5606  0.033047222  0.033949616            2 
  595000    1.0109764   -6.7157401    236.97158  0.033189297  0.033931432            2 
  596000    1.0107298   -6.7169556    236.94336  0.033129664  0.033913065            3 
  597000    1.0214859   -6.7516694    236.51358  0.033014179  0.033894211            5 
  598000     1.034416   -6.7307384    236.83076  0.033003172  0.033875547            8 
  599000    1.0269034   -6.7516918    237.47409  0.033037576  0.033856585            3 
  600000    1.0216949   -6.7353582    237.87235  0.033037827  0.033837434            4 
  601000    1.0060749   -6.7544591    238.03459  0.033005351  0.033818522            3 
  602000    1.0010475   -6.7866728    237.95049  0.032938883  0.033799556            7 
  603000   0.99228923    -6.775823    237.87532   0.03287387  0.033780396            3 
  604000     1.036812   -6.7745484    239.02012   0.03297739  0.033761443            4 
  605000    1.0211552   -6.7398328    239.02224  0.032923173  0.033742837            3 
  606000    1.0148906   -6.7421326    239.57658  0.032945074  0.033724226            8 
  607000   0.99044916   -6.7344231    239.66089  0.032902374  0.033705241            2 
  608000    1.0197038    -6.726865    240.25398  0.032929548   0.03368667            8 
  609000     1.016403   -6.7499301    240.21966   0.03287078  0.033668017            3 
  610000    1.0158783   -6.7355183    241.30896  0.032965705  0.033649502            3 
  611000     1.023852   -6.7493066    240.55408  0.032808794  0.033630628            3 
  612000   0.99507903   -6.7659725    241.27498  0.032853347  0.033611255            3 
  613000     1.000301   -6.7935754    240.42991  0.032684871  0.033591757            4 
  614000   0.98752252   -6.7583187    240.45945  0.032635648  0.033572686            5 
  615000    1.0035169   -6.7757386    240.73198  0.032619509  0.033553548            3 
  616000   0.99631934   -6.7348187     241.6711  0.032693602  0.033534779            3 
  617000    1.0148232   -6.7513798     241.2213  0.032579863  0.033515979            2 
  618000     1.020592   -6.8105233    241.75317  0.032598863  0.033496212            3 
  619000    1.0008253   -6.7896684     241.0698    0.0324542  0.033475864            4 
  620000    1.0072283     -6.76823    241.66161  0.032481399  0.033455558            6 
  621000     1.003331   -6.7177132    242.93312  0.032599721  0.033435743            4 
  622000    1.0133627   -6.7598328    243.00477  0.032556909  0.033416203            2 
  623000    1.0023087   -6.7429512    243.93283  0.032628789  0.033397028            3 
  624000   0.99870507   -6.7229272    243.39267  0.032504362  0.033378294            2 
  625000     1.029538   -6.7504531    244.09596  0.032546129  0.033359286            4 
  626000    1.0323849   -6.7534402    245.53092   0.03268516   0.03334059            1 
  627000    1.0244656   -6.7375856    245.46572  0.032624364  0.033321815            4 
  628000    1.0176107   -6.7943241    244.65647   0.03246503   0.03330294            3 
  629000   0.98788295   -6.7513217    244.96649   0.03245449  0.033283933            2 
  630000   0.98172564   -6.7723355    246.22688  0.032569692  0.033265277            9 
  631000    1.0145622   -6.7221868    245.71677   0.03245071  0.033246505            3 
  632000   0.99981409   -6.7391104    246.22151  0.032465917  0.033228099            2 
  633000    1.0032158   -6.7517922    245.86636  0.032367872  0.033209416            4 
  634000   0.99437338   -6.8018767     246.6467  0.032419387  0.033190613            2 
  635000     1.006714   -6.8055736    247.08957  0.032426453  0.033171696            2 
  636000    1.0066122   -6.7406037    247.36013  0.032410918  0.033153023            2 
  637000    1.0047848   -6.7690968    247.24784  0.032345348  0.033134335            2 
  638000    1.0098347    -6.780808    248.39431  0.032444398  0.033115841            4 
  639000   0.98305697   -6.7471216    248.27506  0.032378073  0.033097438            3 
  640000   0.99130687    -6.794774    248.07867   0.03230191  0.033078821            2 
  641000    1.0117491    -6.788201    248.61089  0.032320708  0.033060169            3 
  642000    1.0046292    -6.763431    248.92533   0.03231118  0.033041044            4 
  643000   0.99850326   -6.7853833    248.68841  0.032230224  0.033022023            3 
  644000    1.0198492   -6.7834894    249.19845  0.032246176  0.033003071            4 
  645000    1.0095551   -6.7650939    249.66377  0.032256301  0.032984114            3 
  646000   0.99480446   -6.7955748    249.76526  0.032219461  0.032965345            3 
  647000    1.0094754   -6.7825645    249.63367  0.032152713  0.032946394            2 
  648000   0.98325323   -6.7767217    249.72732  0.032115139  0.032927655            3 
  649000   0.98185432   -6.7455678    251.00494  0.032229705  0.032908945            1 
  650000   0.99003942   -6.7808165     250.5204  0.032117999  0.032890601            5 
  651000   0.99455699   -6.7907833    250.90019   0.03211728  0.032872209            4 
  652000   0.98716025   -6.8084639    251.27833  0.032116351  0.032853531            1 
  653000    1.0123042   -6.7925777    251.78311  0.032131586  0.032834504            3 
  654000   0.99077204   -6.8064942    251.54113  0.032051623   0.03281515            3 
  655000     1.006131   -6.7811639    252.25804  0.032093899  0.032796308            3 
  656000   0.98652277   -6.8239827    251.78317  0.031984651  0.032777581            4 
  657000   0.99343703   -6.7836896    252.20436  0.031989391  0.032758885            4 
  658000   0.98696559   -6.8083466    252.31568  0.031954874  0.032740055            3 
  659000    1.0158797   -6.8090438     252.3622  0.031912266  0.032720929            5 
  660000    1.0088343   -6.7924924    252.67775  0.031903757  0.032701976            3 
  661000   0.98144149   -6.7932297    252.81227   0.03187245  0.032683047            5 
  662000   0.98664648   -6.7741562    253.85398  0.031955436  0.032663878            5 
  663000   0.99130053   -6.7894142    253.55755  0.031869979  0.032644498            3 
  664000   0.98377587   -6.7797182    253.80451  0.031852976  0.032625308            5 
  665000   0.97643734   -6.7824049    254.56683  0.031900605  0.032606074            4 
  666000   0.99477524   -6.8084353    254.42368  0.031834795  0.032586878            2 
  667000    1.0034462   -6.7557829    255.10763  0.031872517  0.032567828            3 
  668000    1.0168855   -6.7813918    255.63994   0.03189121  0.032549126           14 
  669000   0.99403963   -6.8145198    255.34468  0.031806761  0.032530353            9 
  670000    1.0030424   -6.8098538    255.19889  0.031741155  0.032511334            2 
  671000    1.0024296   -6.8319687    256.08836  0.031804317  0.032492326            6 
  672000   0.97395549    -6.781158    256.57767  0.031817667   0.03247346            7 
  673000   0.97102867    -6.771752    256.67018  0.031781845   0.03245472            2 
  674000   0.97403419   -6.8137978    256.45259  0.031707787  0.032435864            3 
  675000    1.0019999   -6.7822527    256.91271  0.031717618  0.032416985            3 
  676000    0.9985131   -6.7794166    256.54505  0.031625375  0.032397915            6 
  677000   0.98355947   -6.7575185    256.68104  0.031595402  0.032378485            3 
  678000   0.99047999   -6.8289478    256.70745  0.031552046  0.032359181            2 
  679000    1.0069089   -6.7881916    256.96411  0.031537078  0.032339866            3 
  680000   0.98243121    -6.800919    257.38102  0.031541792  0.032320752            2 
  681000   0.97582932   -6.8307859    257.41354  0.031499454  0.032301527            2 
  682000   0.98284797   -6.8140181    259.08641  0.031657675  0.032282211           11 
  683000    0.9754368   -6.7884212     258.1065  0.031491765  0.032262919            4 
  684000    0.9942882   -6.8256124    258.04152  0.031437806  0.032243744            3 
  685000   0.97254883   -6.7993914    258.59345  0.031459057    0.0322244            4 
  686000    1.0165816   -6.8230621    259.50428  0.031523843  0.032204893            5 
  687000   0.96838589   -6.8276648    258.87857  0.031402059  0.032185524            2 
  688000   0.97931029   -6.8082935    258.91233  0.031360505  0.032165834            4 
  689000   0.95930975   -6.8227985    259.47038  0.031382484  0.032146284            6 
  690000   0.96183475   -6.8149862    259.42851  0.031331946  0.032126659            2 
  691000    0.9789324   -6.8156826    259.83048  0.031335079  0.032107503            4 
  692000   0.98061728   -6.8426303    260.06962  0.031318596  0.032088058            3 
  693000   0.98175157   -6.8506215    260.34977  0.031307091  0.032068695            3 
  694000   0.97052523   -6.8058059    260.24712  0.031249654  0.032049325            3 
  695000   0.96708269    -6.795249    260.44952  0.031228959  0.032030057            5 
  696000   0.99033187   -6.8195431    261.19752  0.031273649  0.032010818            7 
  697000   0.97921266   -6.8040135    260.64849  0.031163138  0.031991179            3 
  698000   0.97902358   -6.8296798    261.12092  0.031174895  0.031971607            2 
  699000    0.9608161    -6.841246    260.85398  0.031098471  0.031951662           10 
  700000   0.99931057   -6.8358359    260.81245  0.031049101  0.031931785            2 
  701000   0.97319154   -6.8016316    261.90632  0.031134845  0.031912064            5 
  702000   0.97545807    -6.907817    261.35011  0.031024467  0.031892171            5 
  703000   0.98378229    -6.828587    262.01848  0.031059564  0.031871801            8 
  704000    0.9765683   -6.8715509    262.29408  0.031048069  0.031852117            4 
  705000    0.9715197   -6.8119922    263.35456   0.03112938  0.031832258            3 
  706000   0.96961957   -6.8291234    263.59054  0.031113143   0.03181227            4 
  707000   0.96169264   -6.8328265    262.42911  0.030932238  0.031792451            3 
  708000   0.97493306   -6.8157243    262.50697  0.030897713  0.031772547            5 
  709000   0.95953667   -6.8352974     263.3948  0.030958486  0.031752856            4 
  710000   0.97267299   -6.8269579    263.85942  0.030969415   0.03173314            9 
  711000   0.97950805   -6.7930983    264.51599  0.031002812  0.031713513            4 
  712000   0.96824081   -6.8420129    263.38955  0.030827429  0.031693853            3 
  713000   0.96967814    -6.844579    264.61496  0.030927415  0.031674015            4 
  714000   0.95933067   -6.8189297    264.44167  0.030863874  0.031653966            4 
  715000   0.96754602    -6.812076    264.61049  0.030840383  0.031634042            5 
  716000   0.98224015   -6.8650076    264.26114   0.03075665  0.031613964            8 
  717000   0.96437236    -6.838289    264.54879  0.030747186  0.031593699            4 
  718000   0.98303488   -6.8822734    265.47868  0.030812289   0.03157382            5 
  719000     0.961223   -6.8267202    265.75935  0.030801965  0.031553932            6 
  720000   0.97565155   -6.8436828     265.8794  0.030773078  0.031533672            1 
  721000   0.95024022   -6.8506219    264.74131  0.030598857  0.031513232            4 
  722000   0.96192765   -6.8327641     265.5413  0.030648811  0.031492974            3 
  723000    0.9867265   -6.8373288    266.52605  0.030719922  0.031472847            4 
  724000   0.96265281   -6.8440589     265.7358  0.030586533  0.031452504            6 
  725000   0.96156627   -6.8359117    266.27118  0.030605883  0.031432273            8 
  726000   0.97454301   -6.8627461    266.25457  0.030561819  0.031411984            3 
  727000   0.96768764   -6.8638058    265.95209  0.030485108  0.031391402            5 
  728000   0.97321271   -6.8659701    266.56081  0.030512914  0.031370826            1 
  729000   0.96755082   -6.8534714    266.69158  0.030486006  0.031350648            4 
  730000   0.96248705   -6.8573554    267.46569  0.030532612   0.03133041            6 
  731000    0.9534689   -6.8409474    268.06639  0.030559324  0.031310105           10 
  732000   0.93544764   -6.8606517    267.97868  0.030507591  0.031289827            3 
  733000    0.9705501   -6.8799164    267.29902  0.030388702  0.031269427            7 
  734000   0.98133743   -6.8463931    268.25461  0.030455791  0.031249137            6 
  735000   0.97042349   -6.8831317    267.89919  0.030374058  0.031228522            4 
  736000   0.95762081   -6.8373026     268.4633  0.030396659  0.031208177            7 
  737000    1.0025071   -6.8547583     269.0155  0.030417854  0.031188161            6 
  738000   0.96212487   -6.8690028    270.02543  0.030490676  0.031168049            3 
  739000   0.95068891   -6.9102955     267.6408  0.030180515  0.031147744            4 
  740000   0.96118617   -6.8946708    269.26691  0.030322851   0.03112717            6 
  741000   0.95224448   -6.8576421    270.09994  0.030375612  0.031106571           11 
  742000    0.9665947   -6.8750693    270.14548  0.030339789  0.031086324            5 
  743000   0.95865401   -6.8188168     270.1562  0.030300157  0.031066299            3 
  744000   0.96187869   -6.8078311    271.03744  0.030358136  0.031046257            2 
  745000   0.93997319   -6.8541121    270.53534  0.030261224  0.031026422            4 
  746000   0.96773051   -6.8501277    271.06791  0.030280151   0.03100646            2 
  747000   0.94412629   -6.8472035    271.58824  0.030297662  0.030986432            4 
  748000   0.94133565   -6.8759744    271.03028  0.030194996  0.030966498            4 
  749000   0.96760458   -6.9083928    271.46032  0.030202528  0.030946435            2 
  750000   0.95932233   -6.8641647    270.97224  0.030108026  0.030926103            4 
  751000   0.94984931   -6.8808069    271.66544  0.030144855  0.030906064            5 
  752000   0.94516446   -6.8801586    272.30785  0.030175959  0.030886392            4 
  753000   0.95036859   -6.8805627    272.73696  0.030183374  0.030866629            2 
  754000   0.95971208   -6.8705396    272.58112  0.030126119  0.030846763            4 
  755000   0.96309882   -6.8763528    273.39301  0.030175829  0.030826931            3 
  756000    0.9327566   -6.8731595     273.6406  0.030163206   0.03080744            7 
  757000   0.92844253   -6.8955868    273.47654    0.0301053  0.030787976            4 
  758000   0.94294811   -6.9008862    273.96507  0.030119291  0.030768265           10 
  759000   0.96810999    -6.901892    273.59563  0.030039046  0.030748582            4 
  760000    0.9385539   -6.8864778    274.11635  0.030056618  0.030729012            4 
  761000   0.94574005   -6.8883292    275.01405  0.030115424  0.030709825            7 
  762000   0.93613575   -6.8575732    274.78251   0.03005058  0.030690677            7 
  763000   0.94076838   -6.9061664    275.12218  0.030048293  0.030671428            3 
  764000   0.95757507   -6.8559188    275.20369  0.030017854    0.0306526            4 
  765000   0.95538635   -6.8986512    275.28344  0.029987303  0.030633637            5 
  766000   0.96171068    -6.873248     275.9795   0.03002388  0.030614772            4 
  767000   0.93099587   -6.8861888    276.25128  0.030014264  0.030595868            5 
  768000   0.96279383    -6.880972    276.19755  0.029969352  0.030577036            6 
  769000   0.93467625   -6.8847443    276.28056  0.029939375  0.030558105            3 
  770000   0.96650077   -6.8830295    277.40295  0.030021964  0.030539175            5 
  771000   0.93820318   -6.8678888    277.38072  0.029980622  0.030520539            3 
  772000   0.94520445   -6.8902472    277.82136  0.029989352  0.030502008            6 
  773000    0.9678378   -6.8678213    277.44571  0.029910059   0.03048309            8 
  774000   0.93507897   -6.9018589    278.55137  0.029990457  0.030464396            5 
  775000    0.9557603   -6.8672681    279.26842  0.030028863  0.030446036            3 
  776000   0.92843797   -6.8663953    277.60152   0.02981116  0.030427596            4 
  777000   0.96024014   -6.9133191    278.44158  0.029862889  0.030409077           10 
  778000    0.9466276   -6.8824265    278.92145  0.029875905  0.030390562            4 
  779000   0.93567925   -6.9037158    278.47911  0.029790234  0.030371963            4 
  780000   0.94586369   -6.8753531     279.1505  0.029823771  0.030353223            3 
  781000   0.92791059   -6.9113935    279.31051  0.029802658  0.030334725            8 
  782000   0.93337433   -6.8840685    280.58554   0.02990042  0.030316409            6 
  783000   0.93832447   -6.9227888    279.88665  0.029787851  0.030298162            5 
  784000   0.93300267   -6.9378407    280.00528  0.029762466  0.030279873            5 
  785000   0.93687285   -6.9222517    280.74666  0.029803255  0.030261651            4 
  786000   0.95085051   -6.9243301    280.16048  0.029703189  0.030243157            5 
  787000   0.96186547   -6.8867946     280.9234   0.02974623  0.030224323            6 
  788000   0.95654513   -6.9102409    280.29266  0.029641778  0.030205475            5 
  789000   0.93658991   -6.9014224    280.55293    0.0296317  0.030186721            7 
  790000   0.92933064    -6.899318    280.73904  0.029613823  0.030167848            5 
  791000   0.94530716   -6.8997633    281.02207  0.029606202  0.030148924           12 
  792000   0.90533503   -6.8830664     280.8199  0.029547549   0.03013003            3 
  793000   0.94744066   -6.9148161    281.54643  0.029586636  0.030110986            2 
  794000   0.94579172   -6.9137249    281.58606  0.029553532  0.030092041            2 
  795000   0.93719427   -6.9117339     282.0482  0.029564801     0.030073            3 
  796000    0.9579698   -6.8852149    282.72007  0.029597997  0.030054191            2 
  797000   0.95115547   -6.9256931    281.64359  0.029448305  0.030035201            4 
  798000   0.93803548   -6.9260101    282.03357  0.029452127  0.030016083            5 
  799000    0.9297564   -6.9046226    282.28563  0.029441555  0.029997231            3 
  800000   0.94780996   -6.8834702    282.22009  0.029397926  0.029978553            4 
  801000   0.93799456   -6.9327006    283.06265  0.029448881  0.029959727            4 
  802000   0.93171699   -6.9205449    282.84669  0.029389722  0.029940878            3 
  803000   0.93364917   -6.9420922    283.23608  0.029393533  0.029922293            8 
  804000   0.92166057    -6.936173    282.71955  0.029303436  0.029903443            3 
  805000   0.93234451   -6.8930134    284.06534  0.029406349  0.029884795            4 
  806000   0.91955571   -6.9224549    283.66741  0.029328723  0.029866162            4 
  807000    0.9222985   -6.9515314    284.06881   0.02933383  0.029847315            6 
  808000   0.94354989   -6.9377448    283.30212  0.029218453  0.029828496            4 
  809000   0.92854291   -6.9079151    284.12868  0.029267478  0.029809702            3 
  810000   0.92498778    -6.916975    284.03178  0.029221377  0.029790996            3 
  811000   0.93215401   -6.9350123    284.49598  0.029233043   0.02977225            3 
  812000   0.93687631     -6.92717    284.93861  0.029242468  0.029753516            2 
  813000   0.92960871   -6.8778642     286.0221  0.029317558  0.029734999            8 
  814000   0.92098153   -6.9182952    285.27046  0.029204593  0.029716359            6 
  815000   0.93569521   -6.9077306    286.13745  0.029257408  0.029697908            4 
  816000   0.92007032   -6.8895687    286.12599  0.029220383  0.029679517            6 
  817000   0.92829168   -6.9296894    285.42846   0.02911347  0.029660711            3 
  818000   0.93533027   -6.9156309    285.39123  0.029074086  0.029641898            3 
  819000   0.91065277   -6.9568169    285.43058   0.02904259  0.029623005            5 
  820000   0.91827687    -6.976716    284.82743  0.028945877  0.029603888            2 
  821000   0.94203704    -6.912086    286.27761  0.029057817  0.029584995            2 
  822000   0.91343084   -6.9328479    286.45465  0.029040414   0.02956615            5 
  823000   0.92624777   -6.8908409    287.35864  0.029096662  0.029547354            4 
  824000   0.93158097   -6.9156239    286.93316  0.029018322  0.029528347            7 
  825000   0.94092222   -6.9461134    286.60391   0.02894989  0.029509105            5 
  826000   0.93434919   -6.9347848    287.46105  0.029001316  0.029490094            5 
  827000   0.92645938   -6.9221018    287.46638  0.028966785  0.029470986            4 
  828000   0.91629078   -6.9393481    286.94485  0.028879312  0.029452111            5 
  829000   0.92823846    -6.939827    287.73256  0.028923659  0.029433149            3 
  830000   0.93109122   -6.9478439    287.87201  0.028902812  0.029414421            3 
  831000   0.90885725   -6.9148306    289.16293  0.028997486  0.029395911            8 
  832000   0.91606973   -6.9673455    288.23971  0.028870163  0.029377295            7 
  833000   0.92370312   -6.9207022    288.68789  0.028880341  0.029358949            4 
  834000   0.91371405   -6.9609626    289.18366   0.02889525  0.029340501            5 
  835000   0.91260413   -6.9337588    289.21248   0.02886352  0.029322299           12 
  836000   0.90207205   -6.9021897    289.17345  0.028825105  0.029304072            5 
  837000   0.90880352   -6.9328291    288.82841  0.028756313  0.029285589            5 
  838000   0.91836596   -6.9204374    289.86368  0.028824948    0.0292672            3 
  839000    0.9293988   -6.9649427    289.28805  0.028733417  0.029248734            6 
  840000    0.9167962   -6.9735274    289.94768  0.028764651  0.029230142            2 
  841000   0.91179005   -6.9426422    290.68409  0.028803418  0.029211877            6 
  842000   0.93083104   -6.9451156     291.0119  0.028801653  0.029193761            6 
  843000    0.9227547   -6.9499106    291.88838   0.02885413  0.029175755            4 
  844000   0.93344129   -6.9282635    291.93057  0.028824108  0.029157899            2 
  845000   0.91437038   -6.9636753    290.79241  0.028677753  0.029139952            3 
  846000   0.91782066    -6.965433    291.42079  0.028705751  0.029121973            3 
  847000   0.90478809   -6.9443814    291.32483  0.028662419  0.029103942            4 
  848000   0.91812521   -6.9916857    292.50793  0.028744883  0.029085828            6 
  849000   0.91316036    -6.972064    292.27684  0.028688343  0.029067951            7 
  850000   0.91571423    -6.946828    292.50079  0.028676548  0.029050243            4 
  851000   0.90935905   -6.9348348    292.71332  0.028663663  0.029032585            5 
  852000   0.90286068   -6.9644784    292.76252  0.028634832  0.029014716            5 
  853000   0.91163243   -6.9452423    292.93929  0.028618531  0.028996731            4 
  854000   0.91093655   -6.9553345    293.05035  0.028595858  0.028978902            8 
  855000   0.90825236   -6.9293936    293.72673  0.028628336  0.028961228            4 
  856000   0.90678618   -6.9378995     292.9255  0.028516891  0.028943382            3 
  857000   0.91766269   -6.9925231     293.5413  0.028543495  0.028925433            3 
  858000   0.89066437   -6.9448025    294.15999  0.028570318  0.028907427            9 
  859000   0.91141577   -6.9519134    293.04049  0.028428453  0.028889332            6 
  860000   0.88539165   -6.9480605    294.24515  0.028512127    0.0288712           10 
  861000   0.92539586   -6.9811027    294.03494  0.028458666     0.028853            4 
  862000   0.91083871   -6.9145174    294.80284  0.028499887  0.028835159            4 
  863000    0.9108402   -6.9412685    295.19738  0.028504961  0.028817255            3 
  864000   0.90529688   -7.0101253    294.25178  0.028380766  0.028799023            5 
  865000   0.89502356    -6.982148    294.59566  0.028381085  0.028780866            8 
  866000   0.91182468   -6.9669904    294.98584  0.028385858  0.028762765            4 
  867000   0.93006287   -6.9874116    295.49344  0.028401907  0.028744696            3 
  868000    0.9128373   -6.9785132    295.91496  0.028409655  0.028726781            4 
  869000   0.91130627   -6.9919659    295.02891  0.028291994  0.028708776            7 
  870000   0.92696868   -6.9578712    294.95724  0.028252609  0.028690693            4 
  871000    0.9001519   -6.9967116     295.5057  0.028272646   0.02867247            4 
  872000    0.9103168   -6.9507765    295.37665   0.02822789   0.02865426            3 
  873000   0.89990082   -7.0010156    294.67242  0.028128333  0.028635878            3 
  874000   0.91038939   -6.9901363     295.5658  0.028181331  0.028617443            4 
  875000   0.90261929   -6.9428324    295.57188  0.028149703  0.028599207            4 
  876000   0.90863386   -6.9729471    296.34093  0.028190728  0.028580732            5 
  877000   0.92632004   -6.9716494    296.60644  0.028183812  0.028562426           13 
  878000   0.91305209   -6.9473229    298.07865  0.028291443  0.028544416            2 
  879000   0.90313085   -7.0142707    296.20938  0.028082042  0.028526321            5 
  880000   0.89838859   -6.9522555     296.7258  0.028099034  0.028508206            3 
  881000   0.91264486   -6.9762242    297.39319  0.028130268  0.028490096            3 
  882000   0.88966417   -6.9842691    296.61149  0.028024517  0.028471824            5 
  883000   0.90143947   -6.9742866    297.37857  0.028065173  0.028453537            6 
  884000   0.90074972   -6.9891222    297.36249  0.028031909  0.028435278           10 
  885000   0.91550433   -6.9818588    298.64172   0.02812069  0.028417141            7 
  886000   0.90278255   -6.9720248    298.48928  0.028074613  0.028399287            4 
  887000   0.89802323   -6.9770274    297.88233  0.027985938  0.028381391            6 
  888000   0.88209435   -6.9723637    298.62347  0.028023974  0.028363338            6 
  889000   0.91626486   -7.0056936    298.04478  0.027938206  0.028345192            5 
  890000   0.91297737   -6.9957903    298.40368   0.02794042  0.028327311            3 
  891000   0.87773306   -6.9920318    299.07699  0.027972034  0.028309436            4 
  892000   0.89513453   -7.0077924    299.03231  0.027936501   0.02829173            6 
  893000   0.88543447   -7.0087766     298.9575  0.027898236  0.028273805            4 
  894000   0.89331105   -6.9787555    299.69573  0.027935844  0.028256218            3 
  895000   0.88222497   -6.9579267    299.96183  0.027929407  0.028238676            7 
  896000   0.90385928   -7.0027862    301.00517  0.027995273   0.02822109            5 
  897000   0.88679162   -6.9825017     300.6669  0.027932636   0.02820356            4 
  898000   0.91032781   -6.9909283    300.47502  0.027883725  0.028185988            5 
  899000   0.87762232   -6.9959119    301.03449  0.027904569  0.028168291            5 
  900000   0.91374898   -6.9716976    300.50376  0.027824422  0.028150488           10 
  901000   0.87775226   -7.0000185    300.44491  0.027788097  0.028132616           10 
  902000   0.88419349   -7.0204928    300.56317  0.027768216  0.028114863            6 
  903000   0.90805266   -7.0228056    300.06634  0.027691615  0.028097079            4 
  904000   0.89512784   -6.9946508    301.10228  0.027756478   0.02807917            5 
  905000   0.88979388   -6.9761461    300.75135  0.027693494  0.028061219            8 
  906000   0.87524009   -6.9971108    301.72333   0.02775233  0.028043267            5 
  907000   0.89834565   -7.0195101    301.79473  0.027728292  0.028025679            8 
  908000   0.88897722   -7.0082482    302.21349  0.027736186  0.028008106            5 
  909000   0.89195201   -6.9939114    302.34217  0.027717471  0.027990432            8 
  910000   0.88664246    -6.979997     302.4635  0.027698122  0.027972872            6 
  911000   0.89911282   -7.0283921    302.33277   0.02765576  0.027955323           12 
  912000   0.88789997   -6.9971365    302.69082  0.027658152  0.027937641            3 
  913000   0.89313315   -6.9821913    302.34006  0.027595844   0.02791999            3 
  914000   0.88690787   -6.9941334    303.09835  0.027634787  0.027902304            5 
  915000   0.89166191   -7.0095777    302.54076  0.027553804  0.027884656            5 
  916000   0.88745211   -7.0109807    303.52991  0.027613711  0.027866946            3 
  917000   0.86571374   -7.0337915    302.62642  0.027501492  0.027849265            3 
  918000   0.88870016   -7.0142069    303.15865  0.027519849  0.027831241            2 
  919000   0.89399859   -7.0395595    302.53347  0.027433212  0.027813262            8 
  920000   0.88336663   -7.0288401    303.06498  0.027451538  0.027795301           16 
  921000   0.88458615   -7.0007638     302.7804  0.027395983  0.027777244            3 
  922000   0.90543157   -7.0162252    302.93585  0.027380319  0.027759365            3 
  923000   0.88974129    -7.044015    302.76827  0.027335525  0.027741386            3 
  924000   0.88306592    -7.049111    303.12764  0.027338351  0.027723343           16 
  925000   0.90843703   -7.0121349    303.68844  0.027359318  0.027705427            7 
  926000   0.85632892    -7.021458    303.62952  0.027324471  0.027687313            6 
  927000   0.88121097   -7.0045753    304.31451  0.027356572  0.027669244            5 
  928000   0.87048777   -7.0043373     303.7634  0.027277604   0.02765118            8 
  929000   0.87306965    -6.997925    303.68751  0.027241435  0.027632959            3 
  930000   0.87590605   -6.9986715    303.78682  0.027221041  0.027614908            8 
  931000   0.89799293   -7.0576467    303.69061  0.027183191  0.027596686            3 
  932000   0.86009245   -7.0183177     304.1431  0.027194483  0.027578472            2 
  933000   0.86407416   -7.0385939    304.58452  0.027204762  0.027560338            4 
  934000   0.88265187   -7.0189685     304.4003  0.027159198  0.027542194            3 
  935000    0.9078019   -7.0315313    304.20494   0.02711274  0.027523911            8 
  936000   0.89095949   -7.0405536    305.46953  0.027196361  0.027505668            3 
  937000   0.89084418   -7.0373179     305.2613  0.027148817  0.027487606            4 
  938000   0.86825192    -7.027882    305.36174  0.027128797  0.027469451            8 
  939000   0.89422678   -7.0284903    305.66556  0.027126869  0.027451525            6 
  940000   0.87006135   -7.0332271    305.85571  0.027114868  0.027433468            4 
  941000   0.87068015   -7.0432791    304.90754  0.027002084    0.0274154            5 
  942000    0.8923519   -7.0231899    305.45262   0.02702164  0.027397361            8 
  943000   0.87258537   -7.0137045    306.69264  0.027102567  0.027379403            4 
  944000   0.88851174   -7.0423305    306.87843  0.027090257  0.027361493            4 
  945000   0.86566789   -7.0282907    305.96737   0.02698125  0.027343391            6 
  946000   0.87373225   -7.0301243    305.39498  0.026902306  0.027325244            4 
  947000   0.87947358   -7.0258691    306.42938  0.026964923  0.027307244            7 
  948000   0.87602541   -7.0179745    306.86823  0.026975055  0.027289037            5 
  949000   0.86370877   -7.0176623    307.19387  0.026975225  0.027271193            5 
  950000   0.88206542   -7.0158196    306.55797   0.02689105  0.027253071            5 
  951000   0.86578113   -7.0254342    306.79962  0.026883949   0.02723499            5 
  952000   0.86803022   -7.0089533    306.74097  0.026850575  0.027216943            5 
  953000   0.87089853   -7.0395742    306.89584  0.026835942  0.027198862            4 
  954000   0.86700691   -7.0269555    308.34297  0.026934222   0.02718088            5 
  955000   0.88799883   -7.0219325    307.18727  0.026805172  0.027162848           19 
  956000   0.86734664   -7.0517794    308.44171  0.026886481  0.027144908           12 
  957000   0.87078142   -7.0497495    308.20144  0.026837464   0.02712695            4 
  958000   0.87681232   -7.0953601    307.55169  0.026752931   0.02710898            6 
  959000   0.86714906   -7.0140513    307.98251  0.026762471  0.027091135            4 
  960000    0.8611418   -7.0274169    308.64523  0.026792121  0.027073239            7 
  961000   0.86081095   -7.0258259    308.26422  0.026731202  0.027055312            3 
  962000   0.86001962   -7.0350912    308.99044  0.026766324  0.027037383            4 
  963000   0.86370827   -7.0176279    309.27217  0.026762909  0.027019771            6 
  964000   0.83847866   -7.0242747    308.70645  0.026686243  0.027002119           13 
  965000   0.86569717   -7.0636838    309.03819  0.026687236  0.026984495            4 
  966000   0.85071645   -7.0721303    309.21286  0.026674678  0.026966816            8 
  967000   0.87552292   -7.0385613    309.86721  0.026703482   0.02694908            4 
  968000   0.86275273   -7.0553864    309.47932  0.026642504  0.026931481            4 
  969000   0.86963982   -7.0649624    310.28743  0.026684506  0.026914008            6 
  970000    0.8716914   -7.0437994    310.19164  0.026648766  0.026896562            7 
  971000   0.87029582   -7.0341004    310.23412  0.026624968  0.026878868            5 
  972000   0.85490812   -7.0444705    310.67099   0.02663503  0.026861194            8 
  973000   0.86337682   -7.0602481    310.77633  0.026616678   0.02684333            6 
  974000    0.8558811   -7.0457872    309.41546  0.026472917  0.026825521            3 
  975000   0.88931071   -7.0860871    309.42679  0.026446734  0.026807556            4 
  976000   0.84948135   -7.0394136    310.09342  0.026476556  0.026789681            4 
  977000   0.85567325   -7.0517001    310.94436  0.026522036   0.02677181            4 
  978000   0.85671886   -7.0720872    310.80627  0.026483152    0.0267541            2 
  979000   0.86751291   -7.0498843    310.75314  0.026451578   0.02673635            4 
  980000   0.85916966   -7.0545451     310.3884  0.026393571  0.026718623            4 
  981000   0.86420341   -7.0516183    311.07946   0.02642537   0.02670083            5 
  982000   0.86735538   -7.0736432    310.72889  0.026368711  0.026682916            7 
  983000     0.850044   -7.0515136    311.30689  0.026390886  0.026664916           10 
  984000   0.88563803   -7.0714102    310.64304  0.026307845   0.02664682            5 
  985000   0.87091443   -7.0809542    311.38069  0.026343544  0.026628804           16 
  986000   0.86059618   -7.0466543    311.40462  0.026318849  0.026610924           10 
  987000   0.85609518   -7.0354534    312.04542  0.026346287  0.026593045            4 
  988000   0.86456825   -7.0674901    311.08221  0.026238378  0.026575054            5 
  989000   0.84677883   -7.0534974    311.64868  0.026259579  0.026557047            4 
  990000   0.85841481   -7.0823539    311.56904   0.02622635  0.026539131            9 
  991000   0.84939445   -7.0791579    312.51849  0.026279725  0.026521186            7 
  992000    0.8467909   -7.0966736    312.63988  0.026263431  0.026503096            4 
  993000   0.85150463   -7.1068878    312.36591   0.02621399  0.026485038           11 
  994000   0.86864388   -7.1053082     312.4031  0.026190736  0.026466987            5 
  995000   0.85986872   -7.0667362    313.01436  0.026215608  0.026448901            3 
  996000   0.86341872   -7.0810686    313.32244  0.026215063  0.026430998            4 
  997000   0.85297605   -7.0592176    312.43114  0.026114271  0.026413255            5 
  998000   0.85199241   -7.0612811    313.28099  0.026159067  0.026395477            4 
  999000   0.86288211   -7.0953186    313.18234  0.026124653  0.026377713            5 
 1000000   0.87333683   -7.0454443     313.6144  0.026134534  0.026360058           13 
 1001000   0.85027272   -7.0839587    312.85804  0.026045458  0.026342368            6 
 1002000   0.84342666   -7.0467014    313.03457  0.026034146  0.026324613            6 
 1003000   0.83435066   -7.0743817    313.31064  0.026031126  0.026306845            4 
 1004000   0.87919347    -7.062013    313.29498    0.0260039  0.026289049            3 
 1005000   0.85620054   -7.0860203    313.23776  0.025973281  0.026271105            5 
 1006000   0.84672158   -7.1031142    312.61687   0.02589603  0.026253099            4 
 1007000   0.82881776    -7.111462    313.16747  0.025915878   0.02623506            8 
 1008000   0.85360793   -7.0923999    314.54986  0.026004453  0.026217037            8 
 1009000   0.83562585   -7.0986443    313.71645  0.025909849   0.02619905           13 
 1010000    0.8392442   -7.0766076    314.60169  0.025957235  0.026181209            6 
 1011000   0.85728423   -7.0722476    314.31125   0.02590762  0.026163389            5 
 1012000   0.84885966   -7.0750118    314.82297  0.025924157  0.026145682            3 
 1013000   0.85358533   -7.0957235    313.92819  0.025824958   0.02612782            4 
 1014000   0.85512742   -7.1041854    314.43445  0.025841095  0.026109956            6 
 1015000   0.86922531   -7.0854194    314.77447  0.025843553  0.026092079            2 
 1016000   0.85341371   -7.1061524    314.46646  0.025792853  0.026074388            4 
 1017000   0.86119262   -7.0447032    315.20807  0.025828259  0.026056815            4 
 1018000   0.86135051   -7.1091589    315.69295   0.02584258  0.026039119            5 
 1019000   0.85897586   -7.1050098    315.12248  0.025770566  0.026021455            6 
 1020000   0.84133423   -7.1189665    314.52422  0.025696424   0.02600374            9 
 1021000   0.84645729   -7.0912225    315.19474  0.025725982  0.025986007            7 
 1022000    0.8658352   -7.1040055    315.32758  0.025711642  0.025968237           10 
 1023000   0.83977882   -7.0754791    315.97632  0.025739355   0.02595052            9 
 1024000   0.85793451   -7.0912293    315.73004  0.025694177  0.025932805            8 
 1025000   0.83726543   -7.1031176    315.41189  0.025643243  0.025915058            5 
 1026000    0.8427792   -7.1169813    314.95443  0.025581094  0.025897095            6 
 1027000   0.84579661   -7.0890316    316.05223  0.025645264  0.025879249            9 
 1028000   0.85775888   -7.1117338    315.86457  0.025605104  0.025861404            8 
 1029000    0.8526205   -7.0892081    315.98374  0.025589872    0.0258435            6 
 1030000   0.82033535   -7.1231032    315.80775  0.025550789  0.025825596            7 
 1031000   0.85599542   -7.1059976    316.57396  0.025587937  0.025807799            5 
 1032000   0.83729672   -7.0936919    316.10205  0.025525036  0.025790061            8 
 1033000   0.85623165    -7.076909    316.80395   0.02555695  0.025772413            6 
 1034000   0.83050602   -7.0903089    315.66827  0.025440705  0.025754658            4 
 1035000   0.85131247   -7.0912384     316.7867  0.025506175  0.025736921            5 
 1036000    0.8374062    -7.101311    317.35615  0.025527361  0.025719179            4 
 1037000   0.84481854   -7.0935573     317.0132  0.025475185  0.025701513            4 
 1038000   0.82456771   -7.1010705    318.18519  0.025544733  0.025683829            3 
 1039000   0.83782667   -7.1065143    317.59887  0.025473121  0.025666225            6 
 1040000   0.84145127   -7.1037922    317.37347  0.025430566  0.025648596            3 
 1041000   0.85439484    -7.116751    316.82848   0.02536251  0.025630962            4 
 1042000   0.84375582   -7.1274078       317.59  0.025399072  0.025613254            6 
 1043000   0.83616104   -7.1116187    317.17675  0.025341703  0.025595556            8 
 1044000   0.82396456   -7.1303813     318.5605  0.025427881  0.025577873            5 
 1045000   0.83401252   -7.1252171    317.71537  0.025336154  0.025560278            5 
 1046000   0.84496683    -7.139404    319.29641  0.025437891  0.025542829            3 
 1047000   0.83465488   -7.0803099    318.27971  0.025332673  0.025525453            6 
 1048000   0.82093805   -7.1303663    318.70455  0.025342283  0.025508191            4 
 1049000   0.86033851    -7.112867    318.47352  0.025299771  0.025490798            6 
 1050000    0.8245503    -7.112851    318.56456  0.025282902   0.02547347           10 
 1051000   0.84794762   -7.0995837    318.98407  0.025292108  0.025456162            7 
 1052000   0.82632356   -7.1470471    318.77226  0.025251288  0.025438988            5 
 1053000   0.82952146   -7.1194292     320.1068  0.025332922  0.025421784            4 
 1054000   0.84014482   -7.1540588    318.86043  0.025210344  0.025404589            4 
 1055000     0.833659   -7.1186464     319.3974  0.025228863  0.025387333            9 
 1056000   0.83550097   -7.1440446     319.3106  0.025198122  0.025370122            6 
 1057000   0.82917753   -7.1208252    320.07882  0.025234848  0.025352903            6 
 1058000   0.82588157   -7.1337568    319.75117   0.02518519  0.025335682            8 
 1059000    0.8250351   -7.1208679    320.03988  0.025184126  0.025318493            6 
 1060000   0.82975923    -7.103041    319.89796  0.025149211  0.025301266            5 
 1061000   0.82166852   -7.1509095     319.6343  0.025104799  0.025284055            7 
 1062000    0.8343645   -7.1510159    320.15163  0.025121753   0.02526669           16 
 1063000   0.83215246   -7.1250845     319.4334  0.025041816   0.02524941            7 
 1064000   0.82504592   -7.1255124    319.84774  0.025050731  0.025232231           11 
 1065000   0.81482468   -7.1461273    320.06555  0.025044253  0.025214949            5 
 1066000   0.82050249   -7.1483649    320.64628  0.025066157  0.025197822            8 
 1067000   0.82199118   -7.1473764    320.76705  0.025052097   0.02518075            9 
 1068000   0.83105421   -7.0833117    320.90899  0.025039715  0.025163696            5 
 1069000   0.84056061    -7.129191    321.03561  0.025026162  0.025146671            6 
 1070000   0.83587656   -7.1459927    320.66949   0.02497426  0.025129575            4 
 1071000   0.82819154   -7.1255776    320.79087  0.024960385  0.025112473            9 
 1072000   0.83462968   -7.1160015    320.54856  0.024918265  0.025095243            4 
 1073000   0.84383173   -7.1503725    321.61742  0.024978054   0.02507796            9 
 1074000   0.81945182   -7.1161108    321.49329  0.024945165  0.025060745            5 
 1075000   0.81410932   -7.1386298    321.01179  0.024884635  0.025043558            5 
 1076000   0.81146528   -7.1495263    322.11936  0.024947286  0.025026497           10 
 1077000   0.82546932   -7.1207603    321.70872  0.024892349  0.025009362            4 
 1078000   0.84243217   -7.1246433    321.49535  0.024852764   0.02499241            4 
 1079000   0.81878657   -7.1334274    321.79796  0.024853102  0.024975384            8 
 1080000   0.80858567   -7.1232173    322.05685  0.024850066  0.024958289            2 
 1081000   0.83502863   -7.1419758    321.99809  0.024822548  0.024941283            9 
 1082000   0.82030253   -7.1482733    322.30977  0.024823611  0.024924307           11 
 1083000   0.82143852    -7.149396    321.68476  0.024752598  0.024907234           12 
 1084000   0.82008842   -7.1335113    321.76621  0.024736025  0.024890216            5 
 1085000   0.80320931   -7.1417962    322.73755  0.024787831  0.024873236            9 
 1086000   0.80996964   -7.1209286    322.35924  0.024735976  0.024856203            6 
 1087000   0.81141464   -7.1415227    322.69492  0.024738954  0.024839169            7 
 1088000   0.80730651   -7.1548094    322.57712  0.024707194  0.024822095            5 
 1089000   0.81015784   -7.1370928    322.50367  0.024678885  0.024804973           10 
 1090000   0.81787216   -7.1453674    323.54861  0.024736132  0.024787754            3 
 1091000   0.82094457    -7.123395    323.14216  0.024682414  0.024770655            4 
 1092000   0.83277423   -7.1436304    323.20422  0.024664547    0.0247537            6 
 1093000   0.83353248   -7.1445627    321.93676  0.024545346  0.024736616            4 
 1094000   0.82296491   -7.1355303    322.99931  0.024603848  0.024719422            7 
 1095000   0.81252919   -7.1727045    322.22044  0.024522104  0.024702234            4 
 1096000   0.78750012   -7.1539746    322.36856  0.024510991  0.024685019            7 
 1097000   0.80722002   -7.1626893    323.31297   0.02456039  0.024667816            7 
 1098000   0.82078226   -7.1462508    322.98926  0.024513453  0.024650623            4 
 1099000   0.81802901   -7.1714741    323.33992  0.024517737  0.024633477            4 
 1100000   0.81971235   -7.1642116    323.10686  0.024477793  0.024616279           10 
 1101000   0.80525421   -7.1961199    323.52912   0.02448752   0.02459909            6 
 1102000   0.82009909   -7.1662723    323.00014  0.024425298  0.024581921           12 
 1103000   0.81172587   -7.1643099    323.68375  0.024454802  0.024564887           12 
 1104000   0.81539828    -7.155916    323.72924  0.024436084  0.024548043            7 
 1105000   0.80754528   -7.1836941    324.18817   0.02444858  0.024531234            8 
 1106000   0.82887235   -7.1501789    324.43412  0.024445006  0.024514389            4 
 1107000   0.80318203   -7.1523875    325.05337   0.02446954  0.024497642            2 
 1108000    0.8093757   -7.1607291     325.4299  0.024475775  0.024480989            5 
 1109000   0.80951091   -7.1919931    325.00649  0.024421888  0.024464377            7 
 1110000   0.81224675   -7.1670236    324.57139  0.024367221  0.024447755            7 
 1111000    0.8123492   -7.1385412    324.87684    0.0243682  0.024431096            6 
 1112000   0.80103826   -7.1550191    326.22126  0.024447037  0.024414506           12 
 1113000   0.79640185   -7.1808783    326.06598  0.024413446  0.024397882            4 
 1114000   0.80507654   -7.1946395    326.12387  0.024395861  0.024381249            8 
 1115000   0.81541681    -7.197929    325.28396  0.024311208  0.024364663            5 
 1116000    0.8159471   -7.1674317    325.77671  0.024326218  0.024348105            4 
 1117000   0.81581728    -7.178692    326.34213  0.024346623  0.024331624            4 
 1118000   0.80732813   -7.1926488    326.50422  0.024336927  0.024315108            6 
 1119000   0.82287985    -7.172809    325.55645  0.024244597  0.024298604            8 
 1120000   0.80740265    -7.183646    326.50414  0.024293463    0.0242821            4 
 1121000   0.81808974   -7.1636082    326.65585  0.024283069   0.02426562            5 
 1122000   0.80511663   -7.1985722    326.59741  0.024257086  0.024249101            5 
 1123000   0.81722218   -7.1856181    326.58295  0.024234413  0.024232712            4 
 1124000   0.80214886   -7.1753926    327.14123  0.024254243  0.024216361            6 
 1125000   0.82603309   -7.1759147    327.07563  0.024227825  0.024200024            6 
 1126000    0.8091377   -7.2130334     326.6771  0.024176813  0.024183644            3 
 1127000   0.79796897   -7.2149057    326.59612  0.024149373   0.02416719            4 
 1128000   0.80238155   -7.2146506    327.08645  0.024164188  0.024150835            5 
 1129000   0.80965001   -7.1797788    327.08671  0.024142804  0.024134542            3 
 1130000   0.80961952   -7.1803968    326.99932  0.024114994  0.024118128            6 
 1131000   0.81163695   -7.1666958    327.88906  0.024159229  0.024101757            3 
 1132000   0.79600016    -7.169964    327.54411  0.024112493  0.024085551            5 
 1133000    0.8054844    -7.194449    327.68505  0.024101577  0.024069375           10 
 1134000   0.79274822   -7.1651428     328.1431  0.024113985  0.024053131            3 
 1135000   0.79952576   -7.1993272    328.15967  0.024093955  0.024036929            5 
 1136000   0.80509695   -7.1948174    328.34868  0.024086611  0.024020761            5 
 1137000   0.81054007   -7.1960266    327.88979  0.024031793  0.024004462            9 
 1138000   0.80691787    -7.183086    327.60609  0.023989901   0.02398817            9 
 1139000   0.79119392   -7.2054465    328.53508  0.024036807  0.023971986            7 
 1140000   0.81306122   -7.2355301    328.59012  0.024019745  0.023955726            6 
 1141000   0.80274775   -7.2102346    328.28789  0.023976621  0.023939386           10 
 1142000   0.79796829   -7.2313991    328.25591  0.023953291  0.023923103            9 
 1143000   0.81638381    -7.177233    329.05009  0.023990237  0.023906785            7 
 1144000   0.78621906   -7.1992415    328.90666  0.023958818   0.02389062           15 
 1145000   0.78164028   -7.2068131    327.64201  0.023845852  0.023874414           15 
 1146000   0.80749239   -7.2205045    328.87412   0.02391464  0.023858166           10 
 1147000   0.80287805   -7.1855976      329.032   0.02390526  0.023842027            5 
 1148000    0.7889637   -7.1651267    329.93997  0.023950346  0.023826012            8 
 1149000   0.77979581   -7.1806958    329.39375  0.023889886  0.023810086            5 
 1150000    0.8085622   -7.1981486    330.19742  0.023927349   0.02379409           10 
 1151000   0.80452078   -7.1982854    329.79941  0.023877745  0.023778013            5 
 1152000   0.80173551    -7.193492     329.7055  0.023850224  0.023761941            6 
 1153000   0.79707367   -7.2215657    329.20683  0.023793497  0.023745851            4 
 1154000   0.78549778   -7.2304405    328.95867  0.023754959  0.023729729            9 
 1155000    0.7723362   -7.1928266     330.0284  0.023811573  0.023713611            9 
 1156000   0.78500311   -7.1860583    329.99774  0.023788765  0.023697538           13 
 1157000    0.7824981   -7.2006622      329.547  0.023735739  0.023681421            7 
 1158000   0.78988963   -7.2117248    330.58773  0.023790136  0.023665242            5 
 1159000    0.7896523    -7.209181    329.40452  0.023684536  0.023649153           14 
 1160000   0.79627722   -7.2098076    329.67047  0.023683224  0.023633062            6 
 1161000   0.78962863   -7.2286271    330.49705  0.023722154  0.023617004            7 
 1162000   0.78801683   -7.2289106    329.89707  0.023658711  0.023600839            5 
 1163000   0.78819209   -7.2011209    330.27818  0.023665677  0.023584708           17 
 1164000   0.78764599   -7.2082364    329.81148  0.023611933   0.02356853            4 
 1165000   0.79198055    -7.249851    330.18551   0.02361842  0.023552356           14 
 1166000   0.78641496   -7.2295534    330.26004  0.023603491  0.023536294            7 
 1167000   0.77003104   -7.2227323    330.67855   0.02361315  0.023520202           10 
 1168000   0.80007036   -7.2137576    330.75413  0.023598325  0.023504107           11 
 1169000   0.77449784   -7.2017899    330.39852  0.023552788  0.023487971            8 
 1170000   0.79543478   -7.2176247    330.69583  0.023553834  0.023471902            8 
 1171000   0.78251373   -7.2032517    331.41135  0.023584639  0.023455974           11 
 1172000   0.77715809    -7.180695    331.19182  0.023548906  0.023440031           12 
 1173000   0.76778603    -7.203272     331.2127  0.023530314  0.023424123           12 
 1174000   0.79764883    -7.241328    331.20249  0.023509547  0.023408215            4 
 1175000   0.76863538   -7.2272687     331.1819  0.023488078  0.023392261            4 
 1176000   0.79436744   -7.2474812    331.34159  0.023479421  0.023376268           10 
 1177000   0.77617633   -7.2409013     331.6897   0.02348412  0.023360263            4 
 1178000   0.80042218   -7.2501789    331.52302  0.023452393  0.023344314            7 
 1179000    0.7941372   -7.2205491     331.1099  0.023403301  0.023328317            6 
 1180000    0.7745628      -7.1788    331.74218   0.02342812   0.02331238            2 
 1181000    0.7780626   -7.2251046     331.3973  0.023383947  0.023296507            3 
 1182000   0.78834678   -7.2216936    331.98614  0.023405679  0.023280629            5 
 1183000   0.78478419   -7.2165985    330.73972  0.023298092  0.023264716            6 
 1184000   0.77316977   -7.2123373    332.34646  0.023391502   0.02324883            6 
 1185000   0.77763725   -7.2077027    331.60716  0.023319772  0.023232897           10 
 1186000   0.78078687    -7.243089     332.7413  0.023379799  0.023216912            9 
 1187000   0.77183436   -7.2208893    332.06821  0.023312848  0.023200983            4 
 1188000   0.77671141   -7.2269498     331.6222  0.023261939  0.023185047            8 
 1189000   0.77637847   -7.2259956    332.08612  0.023274889  0.023169098            9 
 1190000   0.76896917     -7.24817    332.85717  0.023309326  0.023153114            6 
 1191000   0.79004744   -7.2535677     332.5377  0.023267401  0.023137256            9 
 1192000   0.77189295   -7.2516069    332.25566  0.023228164  0.023121251            8 
 1193000   0.79333651   -7.2229722    332.69499  0.023239382  0.023105313            3 
 1194000   0.78929529   -7.2362897    332.75478  0.023224091  0.023089425            8 
 1195000   0.78621496   -7.2673296    332.29301  0.023172455  0.023073577            9 
 1196000    0.7565381   -7.2082072    332.26157   0.02315089  0.023057774            4 
 1197000   0.78392446   -7.2551499    333.76157  0.023235977  0.023041942            9 
 1198000   0.76834228   -7.2581127    333.28416  0.023183372  0.023026076            7 
 1199000   0.76538965   -7.2384413    333.07093  0.023149217  0.023010305            6 
 1200000    0.7580579   -7.2216316    332.61535  0.023098288  0.022994536           11 
 1201000   0.76923355   -7.2221333    333.50162  0.023140551  0.022978711            4 
 1202000   0.77109414   -7.2382936    332.95539   0.02308343  0.022962949           12 
 1203000   0.76276296   -7.2143964    333.57318  0.023107037  0.022947157            4 
 1204000   0.77369996   -7.2358508    333.75751  0.023100603  0.022931379            2 
 1205000   0.77453335   -7.2386154     332.9893  0.023028306  0.022915647            5 
 1206000   0.76354118   -7.2509908    332.53179  0.022977598  0.022899832            5 
 1207000    0.7523176   -7.2505633    334.40462  0.023087864   0.02288404            9 
 1208000    0.7600742   -7.2408728    334.15498   0.02305153  0.022868283            7 
 1209000   0.78836829   -7.2370409    334.24159  0.023038434  0.022852528           15 
 1210000    0.7752347   -7.2617294    333.19586  0.022947373  0.022836824            9 
 1211000   0.77610315   -7.2517334       334.29  0.023003716  0.022821089            7 
 1212000   0.77262008   -7.2842119    333.95913  0.022961987  0.022805476            8 
 1213000   0.74895567   -7.2591202    334.41641  0.022974472  0.022789781            7 
 1214000    0.7608803   -7.2523017    335.29665   0.02301597  0.022774233           15 
 1215000   0.77766533   -7.3009221    334.44888  0.022938881  0.022758725            5 
 1216000   0.77502141   -7.2586739     334.7839  0.022942976  0.022743136            5 
 1217000   0.78739773   -7.2712266    335.26557  0.022957106  0.022727608           14 
 1218000    0.7686168   -7.2481824    333.67574  0.022829484   0.02271208            4 
 1219000   0.75899326   -7.2495524    334.96393   0.02289882  0.022696568            5 
 1220000   0.75501156   -7.2923808    334.77347   0.02286704  0.022681115           21 
 1221000    0.7819991    -7.267142    334.56242  0.022833908   0.02266574           11 
 1222000   0.76556835   -7.2547681    335.07529  0.022850197  0.022650359           13 
 1223000   0.78148202   -7.2719082    335.47869     0.022859  0.022634933           10 
 1224000   0.75261818   -7.2809747    334.91334  0.022801834  0.022619486            8 
 1225000   0.76159967   -7.2824079    335.03916   0.02279178   0.02260398           13 
 1226000   0.77794218   -7.2551867    336.01006  0.022839183  0.022588504           14 
 1227000   0.76131098   -7.2836011    335.71272  0.022800375  0.022573143            8 
 1228000   0.75325906   -7.2690659    335.60069  0.022774206   0.02255769            5 
 1229000   0.75875367   -7.2777023    336.00718  0.022783237  0.022542294            7 
 1230000   0.76265637   -7.2830232    335.42667  0.022725384  0.022526875           11 
 1231000   0.76488075   -7.2478351    335.71413  0.022726383  0.022511479            5 
 1232000   0.75474009    -7.274571    336.03212  0.022729446  0.022496181            5 
 1233000   0.77427453    -7.272296    336.71791  0.022757361  0.022480911            6 
 1234000   0.75590068   -7.2492414    336.19267  0.022703449  0.022465685            9 
 1235000   0.77088892   -7.2901024    335.94963  0.022668666  0.022450423            4 
 1236000   0.76237311   -7.2650807    336.38575   0.02267973  0.022435151            4 
 1237000   0.76794511   -7.3092896    336.17026  0.022646878  0.022419987            7 
 1238000   0.76102853   -7.2954642    336.84152  0.022673769  0.022404741            6 
 1239000   0.76767795   -7.2908946    336.25408  0.022615959  0.022389502            5 
 1240000   0.76909036   -7.2905239    336.87633  0.022639538  0.022374249           10 
 1241000   0.77014884   -7.2782827    336.32769  0.022584454     0.022359            8 
 1242000   0.75132309   -7.3191824    335.81037   0.02253156  0.022343624           11 
 1243000    0.7567675   -7.3028499    337.02257  0.022594702  0.022328312           13 
 1244000   0.73911801   -7.2894681    336.75551  0.022558649  0.022313101           15 
 1245000   0.77048859   -7.3126949    337.12128  0.022565012  0.022297845            6 
 1246000   0.77313435   -7.2794428    336.49713  0.022505158  0.022282607           13 
 1247000   0.76368329   -7.2879846    336.58708  0.022493122  0.022267364            9 
 1248000   0.74854813   -7.2593115    337.55766  0.022539908  0.022252187            5 
 1249000   0.75448045   -7.2859951    337.16581  0.022495717  0.022236967            5 
 1250000   0.74689723   -7.3047314    337.16936  0.022477957  0.022221761            6 
 1251000    0.7538521   -7.2944376    337.62426  0.022490292   0.02220652           11 
 1252000   0.75004509   -7.3135237    336.96487  0.022428439  0.022191282           15 
 1253000   0.76400988   -7.2712219    337.02866  0.022414782  0.022176151            6 
 1254000   0.76344692   -7.2953934    337.74905   0.02244478  0.022161018           11 
 1255000   0.76545166   -7.2926892    337.42941  0.022405671  0.022145915           12 
 1256000   0.73276615   -7.2810757    337.25067  0.022375973  0.022130752           14 
 1257000   0.75404401   -7.2973976    337.82546  0.022396278  0.022115592           11 
 1258000   0.74806889    -7.293535    337.34584  0.022346704  0.022100429            9 
 1259000   0.73514223   -7.2902016    337.82606   0.02236074  0.022085268           12 
 1260000   0.75768649    -7.329485    337.85469  0.022344887   0.02207005            8 
 1261000   0.74550948   -7.3238883     337.7375  0.022319422  0.022054857           11 
 1262000   0.75016289   -7.2904417    337.86229  0.022309977  0.022039639            7 
 1263000   0.73611837   -7.3049619    337.78536  0.022287237  0.022024474            8 
 1264000   0.73868639   -7.2883174    338.33284  0.022305699  0.022009283           14 
 1265000   0.74562856   -7.3038791    337.36246  0.022224141  0.021994017            8 
 1266000   0.75121183   -7.3184024    337.33493  0.022204774  0.021978777           15 
 1267000   0.75700027   -7.3168077     337.3438  0.022187832  0.021963545            6 
 1268000   0.75622398   -7.2898897    337.00571  0.022148114  0.021948224           13 
 1269000   0.74372556   -7.2841493    337.79309  0.022182368  0.021932944            8 
 1270000   0.74306333   -7.3040857      338.245  0.022194554  0.021917616           22 
 1271000   0.74955818   -7.3287065    337.27129   0.02211325  0.021902293           11 
 1272000   0.73927924   -7.3343368    337.52072  0.022112206  0.021886948            8 
 1273000   0.74672742   -7.3349931    337.33993  0.022083002  0.021871544            8 
 1274000   0.73287162   -7.3292933    337.00825  0.022043973  0.021856224            9 
 1275000   0.74252263   -7.3282991    337.07818  0.022031253  0.021840932           10 
 1276000    0.7497625   -7.3210895    337.57679  0.022046551  0.021825533            7 
 1277000    0.7528022   -7.3352109    337.24969  0.022007941  0.021810215            9 
 1278000   0.71704136   -7.3456719    337.29861   0.02199391  0.021794862            8 
 1279000   0.73708963   -7.3217536    338.01207    0.0220232  0.021779538            5 
 1280000   0.75410193   -7.3132798    337.79094  0.021991598  0.021764283           23 
 1281000   0.73016701   -7.3172607    337.95384  0.021985027  0.021749063           11 
 1282000   0.72776866   -7.3134575    338.23117  0.021985906  0.021733802            7 
 1283000   0.73462356   -7.3268733    338.30096  0.021973302   0.02171863            8 
 1284000   0.73393413   -7.3250896    337.08971  0.021877577  0.021703375            8 
 1285000   0.74824433   -7.3119884    338.23426  0.021934777   0.02168811            9 
 1286000   0.74372691   -7.3369919    336.84525  0.021827712  0.021672782           10 
 1287000   0.74824576   -7.3218122    338.50416  0.021918166  0.021657505           10 
 1288000   0.73446874   -7.3414543    337.25636  0.021820417  0.021642159            7 
 1289000   0.74078813   -7.3207884    337.98504  0.021850597  0.021626841            8 
 1290000   0.72557686   -7.3321158    338.10614  0.021841482  0.021611512           13 
 1291000   0.73795855   -7.3368877    338.92301  0.021877292  0.021596236            7 
 1292000   0.74842612   -7.3198325    338.85653  0.021856071  0.021580979            9 
 1293000   0.71524271   -7.3351921    338.04872  0.021787105  0.021565678           10 
 1294000   0.73489199   -7.3449241    338.25956  0.021783846  0.021550392            9 
 1295000   0.73365817   -7.3086261    337.88734  0.021743072   0.02153521            6 
 1296000   0.74086033   -7.3277717    338.63935   0.02177465  0.021520056            8 
 1297000   0.71296121   -7.3422489     338.3632  0.021740118  0.021504791           11 
 1298000   0.73715222    -7.352983    338.55965  0.021735982  0.021489572           16 
 1299000   0.72717743   -7.3412072    338.85485  0.021738187  0.021474389            5 
 1300000   0.73262531     -7.33642    339.10148  0.021737274  0.021459238           13 
 1301000   0.73719404   -7.3557448     338.1312  0.021658416  0.021444121           13 
 1302000   0.73732219   -7.3351649    339.11545  0.021704778  0.021428916           14 
 1303000   0.73371382   -7.3461354     338.9193  0.021675576  0.021413738           18 
 1304000   0.72813706   -7.3298854    339.25999  0.021680726  0.021398535            7 
 1305000   0.73981837   -7.3231797    339.03439  0.021649705  0.021383366            7 
 1306000   0.72295239   -7.3275848    337.93025  0.021562675  0.021368161            5 
 1307000   0.73218477    -7.331185    338.82098   0.02160297  0.021352928            7 
 1308000   0.73771982   -7.3287978    338.54485  0.021568861  0.021337684            5 
 1309000   0.73235625   -7.3185472     338.5141  0.021550426  0.021322438           10 
 1310000   0.73352073   -7.3626184    338.90755  0.021559004  0.021307229           18 
 1311000   0.73217547   -7.3746086     338.8685  0.021540077  0.021292009           23 
 1312000   0.73713727   -7.3335409    339.54648  0.021566723  0.021276901            6 
 1313000   0.73708363   -7.3559547    339.41962  0.021542245  0.021261794            8 
 1314000   0.74233412   -7.3409251    338.68072  0.021478991  0.021246587           14 
 1315000   0.72593328   -7.3533449    338.86439  0.021474296  0.021231311            3 
 1316000   0.73877559   -7.3648806    339.14915   0.02147601  0.021216069            7 
 1317000   0.71760842   -7.3323792    339.10951  0.021457195  0.021200875            7 
 1318000    0.7449231   -7.3260962    338.42404  0.021397575  0.021185686           10 
 1319000    0.7324434   -7.3418549    339.55132  0.021452572  0.021170535            6 
 1320000   0.73538153   -7.3415573    339.88721  0.021457526  0.021155378            2 
 1321000   0.73652307   -7.3460955    339.92307  0.021443545   0.02114018           14 
 1322000   0.71794288   -7.3231693    339.30504  0.021388366  0.021125004           15 
 1323000   0.73249637   -7.3388337    338.97765  0.021351578  0.021109769           13 
 1324000   0.74192502    -7.354634    338.90801  0.021331068  0.021094516            8 
 1325000   0.72574602    -7.359239    338.45573  0.021286524    0.0210793            5 
 1326000   0.72106282   -7.3503171    339.16849  0.021315264  0.021064096           10 
 1327000   0.71585046   -7.3636914    339.61118  0.021327002  0.021048871           10 
 1328000   0.72118591   -7.3167632    340.19949   0.02134786  0.021033737            6 
 1329000   0.73954046   -7.3528988    340.58861  0.021356196  0.021018663            3 
 1330000   0.73397942   -7.3548242    339.58696  0.021277378   0.02100358            5 
 1331000    0.7307727   -7.3616162    339.46559  0.021253794  0.020988524            7 
 1332000   0.70763224   -7.3677325    340.00891  0.021271829  0.020973457            4 
 1333000   0.70915474   -7.3543906    339.47358  0.021222404  0.020958404            4 
 1334000   0.71975316   -7.3683174    339.38999  0.021201274  0.020943301            8 
 1335000   0.71180327   -7.3480314     339.4993  0.021192216  0.020928221            6 
 1336000   0.72033489   -7.3777046    340.31762  0.021227396  0.020913215            7 
 1337000   0.72611183   -7.3497694    340.11757  0.021199051  0.020898173           11 
 1338000   0.72063032   -7.3575891    339.58708  0.021150167   0.02088314           11 
 1339000   0.73088306   -7.3606983     339.7509  0.021144567  0.020868118            6 
 1340000   0.75146125   -7.3761652    339.47424  0.021111582  0.020853065           14 
 1341000   0.72366461   -7.3991025     340.0648  0.021132538  0.020837962           10 
 1342000   0.71800424   -7.3701867    340.27693  0.021129964  0.020822861            9 
 1343000   0.71490419   -7.3794985    339.41836  0.021060956  0.020807794            6 
 1344000   0.71608921   -7.3718651    339.24767  0.021034702  0.020792683           10 
 1345000   0.70931854   -7.3741946    339.40811  0.021029003  0.020777597           14 
 1346000   0.72021711   -7.3760435    339.73439   0.02103358  0.020762481           18 
 1347000    0.7180235   -7.3767721    340.09559  0.021040311  0.020747294           23 
 1348000   0.71402879   -7.3774069      339.064   0.02096093  0.020732128           30 
 1349000   0.71322602   -7.3518085    340.22095  0.021016861  0.020717016           12 
 1350000   0.70457516   -7.3585739    340.65149   0.02102787  0.020701934           14 
 1351000   0.72739407   -7.3571151     339.8518  0.020962978  0.020686878           14 
 1352000   0.71094492   -7.3824696    340.75529  0.021003162  0.020671795            9 
 1353000   0.70693229   -7.3894186    340.47858  0.020970595  0.020656811            9 
 1354000   0.73307533   -7.3749979    340.10104  0.020931871  0.020641778           13 
 1355000   0.70205064   -7.3752303    340.15971  0.020920032  0.020626731            7 
 1356000   0.71894216   -7.3986997    340.36615  0.020917291  0.020611716           12 
 1357000   0.72628644   -7.3824954    340.31293  0.020898608  0.020596734           24 
 1358000   0.71743752   -7.3655984    339.69435   0.02084526  0.020581761           13 
 1359000   0.71605824   -7.3831727    340.31258   0.02086783  0.020566825           19 
 1360000   0.71534723   -7.3925411     340.2805  0.020850521  0.020551877           14 
 1361000   0.70513476   -7.3825674    339.30474  0.020775456  0.020536946            9 
 1362000   0.70989984   -7.3625119    340.54345  0.020835992  0.020521964            9 
 1363000   0.70944579   -7.3749393     339.6537  0.020766306  0.020507004           10 
 1364000     0.711431   -7.3819833    339.86674  0.020764097     0.020492           14 
 1365000   0.70828781   -7.3980434    340.62822  0.020795373  0.020477077            5 
 1366000   0.69882289   -7.3930767    340.28751  0.020759365   0.02046217            9 
 1367000   0.70917235   -7.4168315    340.11342  0.020733566  0.020447224           12 
 1368000   0.69967512   -7.3837477    340.16759   0.02072171  0.020432267           20 
 1369000   0.69145059    -7.395279    341.44727   0.02078447  0.020417311           10 
 1370000   0.68881604   -7.3789426    341.32249  0.020761709  0.020402439           14 
 1371000   0.69944645   -7.3934041    339.91688  0.020661128  0.020387581           10 
 1372000   0.69316921   -7.3952013    340.69137   0.02069311  0.020372711            9 
 1373000   0.73043014   -7.3715668    341.24823  0.020711837  0.020357853            8 
 1374000   0.69843666   -7.3830209    340.60613  0.020657819  0.020342976           13 
 1375000   0.71697311   -7.3952341    340.99564  0.020666402  0.020328104            8 
 1376000   0.70501521   -7.3827431     340.7174  0.020634532  0.020313291            9 
 1377000   0.70994333   -7.3994786    340.90108  0.020630663  0.020298429           11 
 1378000   0.71052887     -7.42381    340.85153  0.020612695  0.020283561            9 
 1379000   0.70909472    -7.410513    340.30976  0.020565008   0.02026868           35 
 1380000   0.71022443    -7.404748     340.7702  0.020577911  0.020253855           14 
 1381000   0.69993966   -7.4049342    340.51594  0.020547667  0.020238993           15 
 1382000   0.70909929   -7.4142804    341.52681  0.020593754  0.020224218            4 
 1383000   0.69218609    -7.398028     340.8248  0.020536563  0.020209448            5 
 1384000   0.71517932   -7.4055305    341.37658  0.020554948  0.020194686           11 
 1385000   0.69502824    -7.396466    340.58237  0.020492321  0.020179867           10 
 1386000   0.71016177   -7.4195344    341.12684  0.020510272  0.020165042            7 
 1387000   0.70008271   -7.4061714     341.5949  0.020523606  0.020150312            9 
 1388000   0.69763224   -7.3881453    341.68052   0.02051396  0.020135576            8 
 1389000   0.70527994   -7.3952842    340.96675  0.020456369  0.020120851            9 
 1390000   0.69844501   -7.4170579    341.31767   0.02046269  0.020106091           13 
 1391000   0.70565138   -7.4013789    341.08026  0.020433756   0.02009134           12 
 1392000    0.7046084   -7.4166416    341.49824  0.020444099  0.020076663            7 
 1393000   0.71904181   -7.3904567     341.3324  0.020419502  0.020061939           12 
 1394000   0.71453565   -7.4190272    341.14379  0.020393579  0.020047291           15 
 1395000   0.69308578   -7.4191656    341.33073  0.020390127  0.020032639           13 
 1396000   0.69366591   -7.4141947    341.90156  0.020409597  0.020017982           13 
 1397000   0.69192357   -7.4130808    341.12111  0.020348432  0.020003346            7 
 1398000   0.69233099   -7.4178716    342.55074  0.020419095  0.019988717            8 
 1399000   0.69953483    -7.411885    342.05805  0.020375152  0.019974135            7 
 1400000   0.68065773   -7.4208267    341.17403  0.020307978  0.019959545            8 
 1401000   0.69415465   -7.4143791    341.46347  0.020310699  0.019944924           10 
 1402000    0.6788671    -7.433283     341.4204  0.020293652  0.019930346           17 
 1403000   0.69910758   -7.4330167    341.88366  0.020306703  0.019915699           12 
 1404000   0.69886847   -7.4481778    341.85815  0.020290726  0.019901035           10 
 1405000   0.68507385    -7.456103    341.69338  0.020266511   0.01988637            8 
 1406000   0.69081614   -7.4376685    340.44904  0.020178345  0.019871709           19 
 1407000   0.68320764   -7.4081174    341.17676  0.020207105  0.019857057            8 
 1408000   0.69897371    -7.437251    341.65759  0.020221211  0.019842396           24 
 1409000   0.69679851   -7.4305312    341.58751  0.020202715  0.019827723           15 
 1410000   0.70092916   -7.4494579    341.43713    0.0201795   0.01981315            6 
 1411000   0.69764836   -7.4145013    342.06363  0.020202199  0.019798569           12 
 1412000   0.67638327    -7.412934    342.29143  0.020201336  0.019784003            6 
 1413000   0.69643066   -7.4554857    341.20255  0.020122821  0.019769449           11 
 1414000   0.68407989   -7.4474698    341.75985  0.020141434  0.019754891           14 
 1415000   0.70280984   -7.4397514    340.83003   0.02007244  0.019740293           11 
 1416000   0.67799044   -7.4199247    342.12778  0.020134639    0.0197257            9 
 1417000   0.68508326   -7.4321178    341.81868  0.020102252  0.019711133           14 
 1418000   0.67898764   -7.4296482    341.16415  0.020049609    0.0196966           34 
 1419000      0.68733   -7.4178125    341.67005   0.02006519  0.019682027            7 
 1420000    0.6868183   -7.4136695    341.00442  0.020011996  0.019667457           11 
 1421000   0.68983013   -7.4454236    341.32966  0.020016987  0.019652937           12 
 1422000   0.67196677   -7.4559667    341.53703  0.020015063  0.019638404           14 
 1423000   0.67500293   -7.4279719    342.23672  0.020041973  0.019623933           12 
 1424000   0.69011454   -7.4324797    341.97936  0.020012837   0.01960947           17 
 1425000   0.69196761   -7.4460357    342.03604  0.020002108  0.019594974           10 
 1426000   0.67384432   -7.4216656    341.72678  0.019970008  0.019580503           10 
 1427000   0.67491769   -7.4420343    342.01947  0.019973106  0.019566066           22 
 1428000   0.69017239   -7.4592257    341.85016  0.019949239  0.019551603            9 
 1429000   0.67133293   -7.4309605    341.77285   0.01993077    0.0195371            6 
 1430000   0.69384901   -7.4557536    341.85855  0.019921827  0.019522608           16 
 1431000   0.68272673   -7.4562475    342.40462  0.019939705  0.019508134            7 
 1432000    0.6919901   -7.4770767    342.69537  0.019942701  0.019493652            9 
 1433000    0.6855427   -7.4599623    342.15651  0.019897448  0.019479178           15 
 1434000   0.66986418   -7.4521554    341.97716   0.01987315  0.019464772            8 
 1435000    0.6804099   -7.4509121    341.65448  0.019840562  0.019450361            7 
 1436000   0.69597584   -7.4549856    342.74792    0.0198902  0.019436036           18 
 1437000   0.67730271   -7.4338488    342.58461  0.019866888  0.019421703           12 
 1438000   0.67561349   -7.4330146    342.50764  0.019848611  0.019407361            6 
 1439000   0.67151549   -7.4328924    342.96882  0.019861525  0.019393055           15 
 1440000   0.67441978   -7.4245223    342.44408  0.019817365  0.019378792            7 
 1441000   0.67312396   -7.4264982    342.90072  0.019830021  0.019364511           17 
 1442000   0.67989276   -7.4603709    342.55273  0.019796159  0.019350218            8 
 1443000   0.68294089   -7.4628732    343.10773  0.019814491  0.019335968            7 
 1444000   0.67197271   -7.4518032    342.99839  0.019794459   0.01932167           10 
 1445000   0.69644453   -7.4546115     342.9641  0.019778783  0.019307411           10 
 1446000   0.66865578   -7.4525382    342.62455  0.019745537  0.019293079            9 
 1447000   0.69358762   -7.4839617    342.09142  0.019701187  0.019278745           14 
 1448000   0.68313975   -7.4665626    343.46794  0.019766801  0.019264438           18 
 1449000   0.65708506   -7.4634095    341.93484   0.01966499  0.019250147           16 
 1450000   0.67182262   -7.4706584    342.33978    0.0196747  0.019235867           15 
 1451000    0.6857268   -7.4595265    342.70797  0.019682286   0.01922161           10 
 1452000   0.67417238   -7.4807671     342.5269  0.019658339  0.019207345           17 
 1453000   0.65618296   -7.4718568    342.98326  0.019670983  0.019193042           12 
 1454000   0.67411558   -7.4724122    342.32427  0.019619685  0.019178742           19 
 1455000   0.68904132   -7.4880126      342.991  0.019644387   0.01916448           12 
 1456000   0.68006545   -7.4610003    341.93324  0.019570355  0.019150183           13 
 1457000   0.66047726   -7.4548331    342.21081  0.019572798  0.019135904           11 
 1458000    0.6788374   -7.4933837    342.19997  0.019558755  0.019121653           19 
 1459000   0.66712014   -7.4701447    342.21702  0.019546323  0.019107411           21 
 1460000   0.66508153   -7.4764885    342.08635  0.019525477  0.019093205           12 
 1461000   0.67115217   -7.4956867    342.57897   0.01954021  0.019078941           19 
 1462000   0.67233599   -7.4938067    342.01843  0.019494895  0.019064681           10 
 1463000   0.67109381   -7.4807428    343.22861  0.019550502  0.019050437           16 
 1464000    0.6564065   -7.4875359    343.04786  0.019526859  0.019036207           16 
 1465000   0.67451479   -7.4879233    342.66875  0.019491966  0.019021946            8 
 1466000   0.66388193   -7.4714004    342.45365  0.019466442  0.019007669           13 
 1467000   0.66123048   -7.4721087    342.91412   0.01947933  0.018993454           18 
 1468000   0.68869961   -7.4709013    342.30781  0.019431642  0.018979237           41 
 1469000   0.67678687   -7.4847229    342.57034  0.019433307  0.018964989           22 
 1470000     0.665271   -7.4762856    342.90786  0.019439221  0.018950815           22 
 1471000   0.67799719   -7.4825383    342.10436  0.019380487  0.018936602           13 
 1472000   0.67004531   -7.4675029    342.65864    0.0193987  0.018922457           17 
 1473000   0.66893355   -7.4968941     342.5448   0.01937909  0.018908304           10 
 1474000   0.66366022   -7.4699009    343.03502  0.019393658  0.018894157           15 
 1475000   0.65607069   -7.5024883    342.48924  0.019349675  0.018880029            9 
 1476000   0.67412513    -7.469486    343.14324  0.019373489  0.018865867            6 
 1477000   0.65188726   -7.4876832    342.58811  0.019329052  0.018851728           15 
 1478000   0.67381001    -7.494884    342.67918  0.019321109  0.018837651            7 
 1479000   0.66472335   -7.4839388    342.44113  0.019294632  0.018823524            9 
 1480000   0.68433948   -7.4955233    342.08474  0.019261528  0.018809388           21 
 1481000   0.67980324    -7.489466    342.58726  0.019276798  0.018795286           10 
 1482000   0.65040516   -7.4701672    342.70797  0.019270579  0.018781175           10 
 1483000   0.65829928   -7.4826488    342.93787  0.019270503  0.018767128           20 
 1484000   0.65111051   -7.4587762    342.40923  0.019227832  0.018753101            8 
 1485000   0.66716398   -7.4896491    342.60043  0.019225613  0.018739057           18 
 1486000    0.6497978    -7.510598    342.68788   0.01921758  0.018725023           19 
 1487000    0.6362286   -7.4885137    342.95923  0.019219862  0.018710965           23 
 1488000   0.66064054   -7.4853929    342.48023   0.01918012  0.018696939           14 
 1489000   0.67520473   -7.4976473     342.5439  0.019170803  0.018682927           16 
 1490000    0.6537262    -7.503256    342.62945  0.019162721  0.018668897           10 
 1491000   0.65997754   -7.4865127    342.40566  0.019137361  0.018654863           15 
 1492000   0.66086787   -7.5199476    342.55569  0.019132914  0.018640785            7 
 1493000   0.65681657   -7.5169848    342.16447  0.019098263  0.018626733           21 
 1494000   0.65805884   -7.4832089     343.1327  0.019139486  0.018612662           15 
 1495000   0.65975209   -7.5037891    342.27059  0.019078628  0.018598659           18 
 1496000   0.66023904   -7.5045935    342.51131  0.019079284  0.018584621           26 
 1497000   0.65077749   -7.4801201    343.06825  0.019097543  0.018570593           11 
 1498000   0.66100959   -7.4995999    342.32741  0.019043581  0.018556549           18 
 1499000    0.6528698   -7.4753015    342.77388  0.019055697  0.018542576           10 
 1500000   0.64927215   -7.4994881    343.21724  0.019067625  0.018528633           14 
 1501000   0.65798864   -7.4891262    342.32035  0.019005127  0.018514732           22 
 1502000   0.65678199   -7.5145608    343.52449  0.019059281  0.018500773           12 
 1503000   0.64461624   -7.5027687    343.20207  0.019028724  0.018486809            9 
 1504000   0.65944352   -7.4870845    342.84271  0.018996161  0.018472835            8 
 1505000   0.63489152   -7.5106567    342.21552  0.018948811  0.018458845            8 
 1506000    0.6582315   -7.4885825    342.89829  0.018974009  0.018444839            6 
 1507000    0.6366697   -7.5294077    342.31686  0.018929267   0.01843084            7 
 1508000   0.64327929   -7.5135316    342.83421  0.018945303  0.018416793            4 
 1509000   0.64416295   -7.5228995    342.23395    0.0188996  0.018402801            7 
 1510000   0.65294645   -7.5289577    342.43437  0.018898144  0.018388799           17 
 1511000   0.66409236   -7.5189597    342.75856  0.018903516  0.018374806           19 
 1512000    0.6576416    -7.524229    341.97786  0.018847986  0.018360858           19 
 1513000   0.63994081   -7.4994233    342.22955  0.018849392  0.018346933           21 
 1514000   0.64048719   -7.5240905     342.1803   0.01883423  0.018333006            5 
 1515000   0.65396124   -7.5313006      342.447  0.018836468   0.01831909           18 
 1516000   0.65515129   -7.5252365    342.84397  0.018845865  0.018305173            4 
 1517000   0.65929856   -7.5306641    342.80907  0.018831524  0.018291299           12 
 1518000   0.64871491   -7.5362832    343.02882  0.018831182  0.018277447           14 
 1519000   0.63553738   -7.5168282    342.74714  0.018803332  0.018263581            7 
 1520000   0.65105382    -7.512494    342.72942   0.01878999  0.018249728            7 
 1521000   0.63197827   -7.5269745    342.46198  0.018762984   0.01823589           12 
 1522000   0.64002184   -7.5360748    342.72518  0.018765067  0.018222057            8 
 1523000   0.64539424    -7.530153    343.17172  0.018777179  0.018208259           26 
 1524000   0.64877122    -7.507241    342.63567  0.018735546  0.018194474            9 
 1525000   0.64942472   -7.5321962    343.16255  0.018752052  0.018180694            7 
 1526000   0.63422666   -7.5342626    342.41913  0.018699166  0.018166919            6 
 1527000   0.64567044   -7.5549307    342.58131  0.018695771  0.018153115            5 
 1528000   0.63904768    -7.550281    342.41473  0.018674451  0.018139267           12 
 1529000       0.6375   -7.5244898     342.7213  0.018678946  0.018125458           13 
 1530000   0.64366988   -7.5372692    342.84325   0.01867338  0.018111662            8 
 1531000   0.64538863   -7.5354978    342.65337  0.018650848  0.018097857            9 
 1532000   0.63464583   -7.5243336     342.5898  0.018635215  0.018084088            9 
 1533000   0.63740221   -7.5273909    342.29853  0.018607226  0.018070309            8 
 1534000   0.64606116   -7.5228334    341.86304  0.018571439   0.01805654           10 
 1535000   0.63567869   -7.5483585    342.47262  0.018592433  0.018042757            9 
 1536000   0.63386966   -7.5329398    342.22346  0.018566811  0.018028978           11 
 1537000   0.64091734   -7.5404938    342.09513  0.018547773  0.018015243            9 
 1538000   0.63877668   -7.5413206    342.80376  0.018574109  0.018001497           12 
 1539000   0.63659419   -7.5359314    343.18236  0.018582541  0.017987773           11 
 1540000   0.62719529   -7.5474272    342.52872  0.018535104  0.017974042           12 
 1541000   0.62872602   -7.5390985    342.01214  0.018495141  0.017960334            7 
 1542000   0.64785291   -7.5352232    342.59484  0.018514637  0.017946648            9 
 1543000   0.63761457   -7.5350061    342.37289  0.018490651  0.017932952           12 
 1544000   0.64000291   -7.5560768    342.46033  0.018483394    0.0179193           11 
 1545000   0.64293671   -7.5420853    342.70749  0.018484762  0.017905618           19 
 1546000   0.63773344   -7.5314362    342.42709  0.018457691  0.017891943           12 
 1547000   0.61650581   -7.5465567    342.17623  0.018432247  0.017878253           10 
 1548000   0.63715095   -7.5320356    342.31046  0.018427566  0.017864596            7 
 1549000   0.63555772   -7.5470434    342.22152  0.018410885  0.017850934            9 
 1550000   0.63534065    -7.524212    342.71481  0.018425528  0.017837276           12 
 1551000   0.64407306   -7.5476689    342.52097  0.018403233   0.01782362            9 
 1552000   0.63126671   -7.5493808    342.46625  0.018388437  0.017809916           12 
 1553000   0.64395319   -7.5475597    342.25835  0.018365441  0.017796243           16 
 1554000   0.62499976   -7.5198843    341.68649  0.018322956  0.017782539           15 
 1555000   0.63596159   -7.5668197    342.08177  0.018332356  0.017768837           11 
 1556000   0.63521671    -7.544185    341.94747  0.018313382  0.017755141           11 
 1557000   0.62752197   -7.5553873    342.44846  0.018328434   0.01774145           15 
 1558000   0.62480162    -7.544484    342.17885  0.018302249  0.017727755           12 
 1559000   0.63211817   -7.5623814    341.63406  0.018261388  0.017714077           12 
 1560000   0.63882453   -7.5582205    341.75029  0.018255892  0.017700384           13 
 1561000   0.63002403   -7.5551783    341.77309  0.018245413  0.017686713            6 
 1562000   0.61738638    -7.546777    341.83185  0.018236868  0.017673085           10 
 1563000   0.62256727    -7.565886    341.49305  0.018207137  0.017659408           15 
 1564000   0.62192403   -7.5612776    341.67151  0.018205004  0.017645725           15 
 1565000   0.61702822   -7.5551018     341.8176   0.01820115  0.017632073           12 
 1566000    0.6221596   -7.5467389    342.20184  0.018209974   0.01761843           23 
 1567000   0.61911682    -7.583951    342.02849  0.018189135  0.017604755           22 
 1568000   0.63155933   -7.5587445    341.67599    0.0181588  0.017591093           12 
 1569000   0.63834718   -7.5542779    341.85183  0.018156566  0.017577465           10 
 1570000   0.61912593   -7.5491909     341.6596  0.018134798  0.017563812           11 
 1571000   0.62416683    -7.564198    341.07087  0.018092026  0.017550158           16 
 1572000   0.64075656   -7.5980269    341.14505  0.018084449  0.017536482           19 
 1573000   0.62810374   -7.5822907    341.59813  0.018096955  0.017522825           37 
 1574000    0.6233201   -7.5772879    341.26768  0.018067963  0.017509181           17 
 1575000   0.62707008   -7.5767334    342.12263  0.018101726   0.01749556           25 
 1576000   0.61888028   -7.5732041    341.76556   0.01807136  0.017481974           21 
 1577000   0.62722452    -7.578498    341.09635  0.018024538   0.01746837           25 
 1578000   0.63237095    -7.585526    342.22696  0.018072822   0.01745476           19 
 1579000   0.61470107   -7.5687887    341.49088  0.018022529  0.017441148           18 
 1580000   0.60890978   -7.5913986    341.95078  0.018035379   0.01742757           28 
 1581000   0.63839782   -7.5995713    341.59082  0.018004998  0.017413936           13 
 1582000   0.62827657   -7.5802823    341.47354  0.017987439  0.017400335           17 
 1583000   0.62273458   -7.6093103    341.69745  0.017987863  0.017386734           20 
 1584000   0.63429209    -7.584866    341.54552  0.017968514  0.017373152           13 
 1585000   0.62393148   -7.5690823    342.26821  0.017995174  0.017359597           12 
 1586000   0.61774595   -7.5942524    341.93951  0.017966557  0.017346048           18 
 1587000   0.62403314   -7.5845256    340.74577  0.017892553  0.017332512           28 
 1588000   0.61911468   -7.5770016    341.76375  0.017934705  0.017318999           11 
 1589000   0.63280043   -7.5761921    341.33354  0.017900857  0.017305495           18 
 1590000   0.61856592   -7.5809917    341.44216  0.017895292  0.017292019           36 
 1591000   0.63048491   -7.5790921    341.63886  0.017894346  0.017278544           17 
 1592000   0.61489649   -7.5862732    341.49481  0.017875566  0.017265068           15 
 1593000   0.61078116   -7.5926171    341.26558  0.017852353  0.017251596           10 
 1594000    0.6096146   -7.5775935    341.60856  0.017859084  0.017238123           19 
 1595000   0.61296535   -7.6005602    342.19282  0.017878413  0.017224676           15 
 1596000   0.61668758   -7.5755418    341.64224  0.017838463   0.01721123           13 
 1597000   0.61683083    -7.598748    342.11569  0.017851998  0.017197799           11 
 1598000   0.61920917   -7.6125381    341.49991  0.017808714  0.017184379           12 
 1599000   0.60508006   -7.6083252    340.59995  0.017750675  0.017170924           10 
 1600000   0.62501081   -7.6154167    341.16947  0.017769243  0.017157444           20 
 1601000   0.61664891   -7.6129071    341.28063   0.01776393  0.017143992           13 
 1602000   0.60679226    -7.608459    341.49035  0.017763751  0.017130523           13 
 1603000   0.61525799   -7.6013008    341.56907  0.017756762   0.01711708           26 
 1604000   0.60237194     -7.59243    341.12667  0.017722707  0.017103656           20 
 1605000    0.6131238   -7.5927824    341.14909  0.017712829  0.017090233           19 
 1606000   0.60942395   -7.6074435    340.90832  0.017689307   0.01707681           23 
 1607000     0.607378   -7.6137602    340.99953  0.017683029  0.017063416           28 
 1608000   0.61697139   -7.6172599    341.52451  0.017699238  0.017050016           11 
 1609000   0.60640461   -7.6073602    340.92449  0.017657162  0.017036656            8 
 1610000   0.61092658   -7.6085302    340.79886  0.017639693  0.017023296           14 
 1611000   0.61561669   -7.6196462     341.4593  0.017662906  0.017009955           12 
 1612000   0.61743658   -7.6249035    340.98476  0.017627417  0.016996575           17 
 1613000   0.61736612     -7.60745    341.10934  0.017622925  0.016983204           11 
 1614000   0.61369129   -7.6393561    341.36706  0.017625313  0.016969858            7 
 1615000   0.60758555   -7.6253481    341.03978  0.017597512    0.0169565            6 
 1616000   0.61543554   -7.6470517    340.83754  0.017576193  0.016943172            7 
 1617000   0.61141621   -7.6123329    341.45805  0.017597302   0.01692984           14 
 1618000    0.5995472   -7.6209398    341.11299  0.017568654  0.016916525           10 
 1619000   0.60614563   -7.6341977     341.0278  0.017553418  0.016903201           13 
 1620000   0.60240023    -7.612169    341.04784  0.017543613   0.01688991           10 
 1621000   0.59892979   -7.6320961    341.33834  0.017547724  0.016876626           10 
 1622000   0.60708947   -7.6217064    341.01799  0.017520447  0.016863343           13 
 1623000   0.60203521   -7.6266808    340.59381  0.017487873  0.016850096           15 
 1624000   0.58829439   -7.6197228    341.24467  0.017510502  0.016836875           27 
 1625000   0.60494619   -7.6338854    341.28533  0.017501812  0.016823647           16 
 1626000   0.60901499   -7.6428712    341.35262  0.017494497  0.016810413            8 
 1627000   0.61172019   -7.6551188    341.22654  0.017477287  0.016797164           11 
 1628000   0.59463104   -7.6421176    340.51641  0.017430201  0.016783912           15 
 1629000   0.59584162   -7.6309149    341.37897  0.017463626  0.016770693           11 
 1630000   0.60532161   -7.6491449    340.71737  0.017419088  0.016757464           17 
 1631000   0.61252184    -7.630048    341.42132  0.017444376  0.016744258           17 
 1632000   0.60058926   -7.6516457     340.7025  0.017396982  0.016731072            9 
 1633000   0.60102562   -7.6252496     341.2761    0.0174156  0.016717927           11 
 1634000   0.59687703   -7.6295719    341.39929  0.017411224  0.016704784           23 
 1635000   0.61205321    -7.665202    341.80526  0.017421267   0.01669163           12 
 1636000   0.61018363   -7.6467013    341.41837  0.017390911  0.016678483           16 
 1637000   0.59176795   -7.6630447    341.04012  0.017361032  0.016665359           20 
 1638000   0.60298255   -7.6295832    340.86767   0.01734166  0.016652244           18 
 1639000   0.60887065   -7.6397799    341.28159  0.017352125  0.016639152           16 
 1640000    0.6119647   -7.6532592      341.177   0.01733623  0.016626072           11 
 1641000   0.59312241   -7.6358846    340.94145  0.017313704  0.016613007           15 
 1642000   0.60499262   -7.6519555    341.13776  0.017313122   0.01659995           28 
 1643000   0.59533044   -7.6652177    340.75763  0.017283305  0.016586884           22 
 1644000   0.58986147   -7.6467728    341.42666  0.017306704  0.016573843           14 
 1645000   0.59933926   -7.6138715     341.1675  0.017283055   0.01656083           18 
 1646000   0.59364747   -7.6455159    340.77483  0.017252675  0.016547813           17 
 1647000   0.61726567    -7.624653    340.63878  0.017235316  0.016534812           11 
 1648000   0.59101539   -7.6398005    341.44483  0.017265616  0.016521836           12 
 1649000   0.59353522   -7.6560392     341.6802  0.017267041  0.016508841           18 
 1650000    0.5954889   -7.6534173    341.16797  0.017230706  0.016495879           22 
 1651000   0.59940257   -7.6725414    340.86876  0.017205167  0.016482918           13 
 1652000    0.5946671   -7.6574163    340.80954  0.017191765  0.016469987           31 
 1653000    0.6006404   -7.6625428    340.66296  0.017173975  0.016457063           28 
 1654000   0.59682225   -7.6421886    341.23213  0.017192268   0.01644415           16 
 1655000   0.59248965   -7.6360642    341.53517  0.017197138  0.016431252           19 
 1656000   0.59093982    -7.623986    341.01691  0.017160674  0.016418408           13 
 1657000   0.58032769   -7.6601762    340.96204  0.017147558  0.016405542           11 
 1658000   0.60173346   -7.6555094    341.36621   0.01715753  0.016392688           14 
 1659000   0.59216313   -7.6519977    341.23351  0.017140522   0.01637983           21 
 1660000   0.59418882    -7.637874    341.18493  0.017127758  0.016366998           11 
 1661000   0.57844752   -7.6656053    341.33429  0.017124939  0.016354181           26 
 1662000   0.58245986   -7.6371594    341.05145  0.017100454  0.016341353           10 
 1663000   0.58916023   -7.6605006     341.5796  0.017116637  0.016328553           13 
 1664000   0.58265155   -7.6525288    341.63254  0.017109002   0.01631575           14 
 1665000   0.58370209   -7.6471768    341.40535  0.017087355  0.016302946           17 
 1666000   0.57371766   -7.6691051    340.98335   0.01705599  0.016290177           17 
 1667000   0.59594297   -7.6556289    340.97746  0.017045464  0.016277399           32 
 1668000   0.58855901   -7.6705836     341.0982  0.017041277   0.01626463           31 
 1669000    0.5796862   -7.6580106    341.18919   0.01703561  0.016251875           21 
 1670000    0.5948076   -7.6661465    341.10823  0.017021369   0.01623911           14 
 1671000   0.58938978   -7.6725626    341.07447  0.017009499  0.016226357           14 
 1672000   0.57642135   -7.6552993    341.18124  0.017004647  0.016213597           32 
 1673000   0.57406111   -7.6775133    341.29163  0.016999982  0.016200849           25 
 1674000   0.57806432   -7.6777413    341.54024  0.017002202  0.016188117           25 
 1675000   0.59402543   -7.6644078    341.30199  0.016980198  0.016175406           16 
 1676000   0.58602774   -7.6691034    341.31139  0.016970534  0.016162703           31 
 1677000   0.57498087   -7.6710336    340.93169  0.016941547  0.016150004           36 
 1678000   0.58600439   -7.6809798    340.49654   0.01690984  0.016137299           25 
 1679000   0.57817209   -7.6817525    340.92437  0.016921003  0.016124631           29 
 1680000   0.56862555   -7.6670275     341.2229  0.016925739  0.016111977           51 
 1681000    0.5844708   -7.6790154    341.24056  0.016916546   0.01609936           39 
 1682000   0.58235975   -7.6592495    340.93694  0.016891446  0.016086735           42 
 1683000   0.58306091   -7.6728434    340.67311  0.016868346  0.016074109           62 
 1684000    0.5899749   -7.6911469    340.81759  0.016865479  0.016061491           35 
 1685000   0.57659255    -7.668308    340.57824  0.016843632  0.016048858           59 
 1686000   0.58611405   -7.6806691    340.56207  0.016832843  0.016036228           52 
 1687000   0.56889329   -7.6755011    340.58103  0.016823801  0.016023627           52 
 1688000   0.58260458   -7.6727752    341.44753  0.016856612  0.016011038           47 
 1689000   0.57207287   -7.6803286    340.18759  0.016784468  0.015998437           38 
 1690000    0.5855394   -7.6803511     341.0061  0.016814896  0.015985856           40 
 1691000   0.58528382   -7.6833677    341.19985  0.016814501  0.015973279           52 
 1692000   0.57865768   -7.6875595    340.18712  0.016754685  0.015960706           34 
 1693000   0.57901476   -7.6742535    340.55006  0.016762653  0.015948156           35 
 1694000    0.5830786   -7.6829949     340.4235  0.016746532  0.015935604           37 
 1695000   0.56357165   -7.6794129    341.39831  0.016784578  0.015923067           42 
 1696000   0.58019635   -7.6734825    340.30164  0.016720796  0.015910531           26 
 1697000   0.55841098   -7.6821402    340.63588  0.016727356  0.015898026           33 
 1698000   0.58902393   -7.6678388    340.65128  0.016718261   0.01588553           41 
 1699000   0.57228506   -7.6819361    341.41478  0.016745869  0.015873038           39 
 1700000   0.57857185   -7.6706639    340.66168  0.016699102  0.015860548           22 
 1701000   0.57438594   -7.6846465    340.65947  0.016689176  0.015848082           30 
 1702000   0.56329886   -7.7016812    341.06589   0.01669927  0.015835602           57 
 1703000    0.5775311   -7.7028128    341.01295  0.016686874  0.015823151           28 
 1704000   0.57440263    -7.695802    341.09009  0.016680853  0.015810705           17 
 1705000   0.57053802   -7.6836856    340.65749  0.016649926  0.015798253           37 
 1706000    0.5715095   -7.6851675    341.01364  0.016657564  0.015785805           37 
 1707000   0.57629151   -7.6840914    340.25626  0.016610831  0.015773378           35 
 1708000   0.57248912   -7.6763371    340.46436  0.016611259  0.015760977           55 
 1709000   0.57486354   -7.6817757    340.28539  0.016592812  0.015748571           29 
 1710000   0.57491903   -7.6935397      340.594  0.016598148  0.015736174           34 
 1711000   0.56787715   -7.7067105    340.76161  0.016596611  0.015723795           23 
 1712000     0.573437   -7.6657498    340.37961  0.016568322  0.015711426           22 
 1713000   0.56606265   -7.6926064    340.88188  0.016583084  0.015699067           32 
 1714000   0.56211983   -7.7027736    340.48245  0.016553989  0.015686738           25 
 1715000   0.56436546   -7.7032804    340.47735  0.016544089  0.015674396           27 
 1716000   0.56955699   -7.6825489    341.07808  0.016563621   0.01566204           30 
 1717000   0.57165369    -7.671574    341.15204  0.016557563   0.01564972           15 
 1718000   0.56278891   -7.6939383    340.76594  0.016529198  0.015637408           28 
 1719000   0.55358205   -7.6740123    340.90614  0.016526379  0.015625102           30 
 1720000   0.55976081   -7.7055378    340.93631  0.016518232  0.015612799           18 
 1721000   0.58722509   -7.6898644    341.60729  0.016541124  0.015600526           23 
 1722000   0.56086598   -7.6980047    340.81315  0.016493087  0.015588269           31 
 1723000   0.57347189   -7.7109691    340.55353  0.016470958  0.015576007           28 
 1724000   0.56905613   -7.6973363    340.76978  0.016471857   0.01556375           27 
 1725000   0.56923726   -7.6963878    340.41832   0.01644533  0.015551513           27 
 1726000   0.56087522   -7.7144244    340.60418  0.016444775  0.015539282           26 
 1727000   0.57866139     -7.70553    341.04242  0.016456399  0.015527073           39 
 1728000   0.56870406   -7.7061623    341.29793  0.016459198  0.015514881           17 
 1729000   0.57264789   -7.7124309    340.61517  0.016416771   0.01550271           16 
 1730000   0.56689222   -7.7091601    340.95672  0.016423734  0.015490557           14 
 1731000   0.55916774   -7.7049037    341.02226  0.016417401  0.015478406           23 
 1732000   0.57181659   -7.7084546    341.12227  0.016412734  0.015466271           17 
 1733000   0.56954922   -7.7153573    340.72677  0.016384246  0.015454123           22 
 1734000   0.56765994   -7.7012234    341.06531  0.016391066  0.015441987           31 
 1735000   0.56026663   -7.7042981    341.05784   0.01638126   0.01542988           17 
 1736000   0.55934231   -7.7380342     339.9454  0.016318424  0.015417759           26 
 1737000    0.5564983   -7.6976718    341.28297    0.0163732  0.015405659           27 
 1738000   0.55465021   -7.7287337    340.50973  0.016326704  0.015393572           22 
 1739000   0.57245381   -7.7317604      340.864  0.016334292  0.015381494           19 
 1740000   0.56077753   -7.7206927    340.37943  0.016301697  0.015369428           33 
 1741000   0.56596329   -7.7144745    340.84725  0.016314726  0.015357373           16 
 1742000   0.56309509   -7.7172971    340.98599  0.016311997  0.015345333           18 
 1743000    0.5532385   -7.7165927    340.22272  0.016266147    0.0153333           21 
 1744000   0.54902869   -7.7356306    340.93124  0.016290675  0.015321266           32 
 1745000   0.55963984   -7.7227939    340.48943   0.01626024  0.015309245           37 
 1746000   0.55108648   -7.7379097    340.86446  0.016268827  0.015297244           51 
 1747000   0.56053715   -7.7306627    340.91364  0.016261861  0.015285248           24 
 1748000   0.55734123   -7.7158181    341.03118  0.016258161  0.015273247           48 
 1749000   0.56202327   -7.7191089    340.88565  0.016241931  0.015261272           40 
 1750000   0.55938976   -7.7173229    340.46878  0.016212799  0.015249311           28 
 1751000   0.55378122   -7.7404503    340.16915   0.01618928  0.015237351           57 
 1752000   0.54679826   -7.7274208    340.61736  0.016201358  0.015225405           39 
 1753000   0.55448836   -7.7390982    340.16764  0.016170738  0.015213465           19 
 1754000   0.55674435   -7.7209575    339.66434  0.016137606  0.015201532           23 
 1755000   0.54239706   -7.7337248    340.44738  0.016165593  0.015189621           43 
 1756000   0.55110919   -7.7125536    340.45116  0.016156566  0.015177709           31 
 1757000   0.55953877   -7.7133337    341.18033  0.016181955  0.015165824           37 
 1758000   0.56219079   -7.7464432    341.21325   0.01617431  0.015153944           34 
 1759000    0.5530134   -7.7198663    340.93707  0.016152031  0.015142071           42 
 1760000   0.53349483   -7.7250425    340.10685  0.016103544  0.015130213           37 
 1761000   0.55015091   -7.7217459    340.74185  0.016124449  0.015118373           34 
 1762000   0.55209653   -7.7155508    340.70071  0.016113352  0.015106545           15 
 1763000   0.53689397   -7.7391101    340.52166  0.016095749  0.015094726            9 
 1764000   0.56822771   -7.7173416    340.35927  0.016078953  0.015082906           21 
 1765000   0.54346405   -7.7473042    340.83027  0.016092081  0.015071101           13 
 1766000   0.54651615   -7.7179818    340.26372  0.016056235  0.015059285           13 
 1767000    0.5533575   -7.7466135    340.84237  0.016074438  0.015047472           21 
 1768000   0.55519157   -7.7415281    340.13417  0.016031965  0.015035673           34 
 1769000   0.54610852   -7.7276534    340.20766  0.016026364  0.015023895           34 
 1770000   0.55400084   -7.7359955    340.47172  0.016029742  0.015012152           28 
 1771000   0.54418583   -7.7247248    340.36153  0.016015506  0.015000416           23 
 1772000   0.53938706   -7.7215508    340.96481  0.016034839  0.014988683           30 
 1773000   0.54968475   -7.7349711    340.37907  0.015998264  0.014976931           36 
 1774000   0.55054081   -7.7241384    340.41254  0.015990818  0.014965189           36 
 1775000   0.54120356    -7.747187    340.12478  0.015968299  0.014953468           32 
 1776000   0.54695046   -7.7437643    340.34247  0.015969523  0.014941754           25 
 1777000   0.55485651   -7.7526136    340.65797  0.015975331  0.014930045           37 
 1778000   0.55342398   -7.7520291    340.82274  0.015974069  0.014918358           39 
 1779000   0.54259435   -7.7354124    339.84478  0.015919279  0.014906673           29 
 1780000    0.5361539   -7.7447704    340.41526  0.015937044  0.014894999           41 
 1781000   0.54651982   -7.7489891    340.01635  0.015909431  0.014883335           45 
 1782000   0.54840604   -7.7380365    340.13821  0.015906201   0.01487167           65 
 1783000   0.53683142   -7.7559382    340.35035  0.015907195  0.014860017           65 
 1784000   0.55316887   -7.7489628    340.68152  0.015913748  0.014848368           41 
 1785000   0.55417448   -7.7615225    340.12463  0.015878834   0.01483672           26 
 1786000   0.54346202   -7.7552664     340.5658  0.015890528  0.014825076           28 
 1787000   0.52292503   -7.7546274    340.16392  0.015862895  0.014813456           29 
 1788000   0.53008961   -7.7361317     340.3637  0.015863334  0.014801843           32 
 1789000   0.54755598   -7.7578018    340.19256  0.015846495  0.014790219           53 
 1790000   0.52720915   -7.7544728    339.92448  0.015825162  0.014778625           74 
 1791000   0.54407463    -7.743936    339.96866  0.015818382  0.014767022           67 
 1792000   0.54204545   -7.7506479    340.43539  0.015831259  0.014755425           39 
 1793000    0.5438545   -7.7582998    339.94872   0.01579981  0.014743848           47 
 1794000   0.54102591    -7.779008     340.2853  0.015806638  0.014732281           28 
 1795000   0.53572809   -7.7593316    339.84981  0.015777614  0.014720713           41 
 1796000   0.53024011   -7.7421998    340.21289  0.015785676  0.014709169           34 
 1797000   0.53717441   -7.7623185    340.21675  0.015777071  0.014697624           71 
 1798000   0.52894294   -7.7597764    340.25404  0.015770024  0.014686074           32 
 1799000   0.52663097   -7.7548621    339.76363  0.015738541  0.014674538           25 
 1800000   0.53856034   -7.7423964    340.08426  0.015744641     0.014663           33 
 1801000   0.54239192   -7.7580193    340.09445  0.015736371  0.014651493           56 
 1802000   0.54345224   -7.7640258    339.37307  0.015694278  0.014639983           29 
 1803000    0.5323726   -7.7515571    340.00476   0.01571477  0.014628494           21 
 1804000   0.53156988   -7.7731626    339.79394   0.01569632  0.014617017           36 
 1805000   0.53798985   -7.7613855    339.86447   0.01569088  0.014605576           29 
 1806000   0.54087694   -7.7688661    340.23199  0.015699151  0.014594142           35 
 1807000   0.53152566   -7.7616465    340.36657  0.015696669   0.01458272           16 
 1808000   0.53515063   -7.7608265    340.51602  0.015694876  0.014571321           44 
 1809000   0.53114472   -7.7566256    340.09248  0.015666689  0.014559907           50 
 1810000   0.52028436   -7.7580595    340.11539  0.015659088    0.0145485           53 
 1811000    0.5374143    -7.757274    339.92856  0.015641844  0.014537112           57 
 1812000   0.54011882   -7.7612896    340.20535  0.015645941  0.014525728           26 
 1813000   0.53820576   -7.7657251    339.41909  0.015601172  0.014514361           56 
 1814000   0.53164687   -7.7751954    339.84165  0.015611983  0.014503007           41 
 1815000   0.52135553    -7.766358    340.08312  0.015614468  0.014491651           52 
 1816000   0.52708258   -7.7697966    340.32083  0.015616778  0.014480305           54 
 1817000   0.52518199   -7.7544521    340.28676  0.015606621  0.014468976           72 
 1818000    0.5261751    -7.776893     340.0307  0.015586299   0.01445765           47 
 1819000   0.52966901   -7.7693046    340.02453  0.015577448   0.01444634           77 
 1820000   0.52902487   -7.7612968    339.69656  0.015553872  0.014435057           52 
 1821000   0.53777476   -7.7630909    339.93842  0.015556398  0.014423767           47 
 1822000   0.51703045   -7.7878321    340.04195  0.015552595  0.014412481           32 
 1823000   0.53318448   -7.7758025    340.27888  0.015554895  0.014401218           99 
 1824000   0.52224388   -7.7463662    339.87043  0.015527706  0.014389955           66 
 1825000   0.51895164   -7.7777494    340.27469  0.015537657  0.014378688           55 
 1826000   0.52314541   -7.7688483     339.4963  0.015493624  0.014367417           48 
 1827000    0.5316854   -7.7797753    339.78656  0.015498384  0.014356171           62 
 1828000   0.52152349   -7.7843359    339.89343  0.015494777  0.014344925           41 
 1829000   0.51715195   -7.7718595    339.66927  0.015476092  0.014333706           44 
 1830000   0.51955909   -7.7754047    340.08964  0.015486778  0.014322485           41 
 1831000   0.52441659   -7.7834942    340.02372   0.01547532  0.014311278           56 
 1832000   0.51877931   -7.7713044    339.57386  0.015446409  0.014300067           70 
 1833000   0.52049853   -7.7917087    340.07745  0.015460877   0.01428888           34 
 1834000   0.51084138   -7.7793614    339.49252  0.015425869  0.014277701           46 
 1835000   0.50890638   -7.7869534     340.3037  0.015454301  0.014266527           31 
 1836000   0.50692988   -7.7961672    339.83603  0.015424656   0.01425537           54 
 1837000   0.52035045   -7.7752225    339.74506  0.015412133  0.014244212           38 
 1838000   0.51504695   -7.7850612    339.90706  0.015411093   0.01423306           26 
 1839000   0.51717953   -7.7910062    339.55225  0.015386635   0.01422193           38 
 1840000   0.51744251   -7.7744123    339.46306  0.015374233  0.014210793           28 
 1841000    0.5213156   -7.7930919    339.88977  0.015385197  0.014199671           43 
 1842000   0.51408519   -7.7921917    340.25595  0.015393411  0.014188568           43 
 1843000   0.51626789   -7.7815813     339.4778  0.015349873  0.014177493           43 
 1844000   0.51287861   -7.7778281    339.58833  0.015346544  0.014166409           21 
 1845000   0.51750104   -7.7772182    339.88544  0.015351646  0.014155336           31 
 1846000   0.51586659   -7.8005987    339.68587  0.015334321  0.014144279           27 
 1847000   0.52085433   -7.8016623    339.79191  0.015330802  0.014133212           26 
 1848000   0.51060503   -7.7820976     339.6337  0.015315373  0.014122164           33 
 1849000   0.52344508   -7.8041224    339.59746  0.015305456  0.014111135           38 
 1850000   0.51568627   -7.7974778    339.60481  0.015297514  0.014100105           34 
 1851000   0.50390397   -7.7928705    339.71179  0.015294066  0.014089074           35 
 1852000   0.51582847   -7.7906466    339.17687  0.015261738   0.01407808           52 
 1853000   0.52376942   -7.7985893    339.58339  0.015271784  0.014067079           38 
 1854000   0.50732418   -7.7966745    339.44932  0.015257521  0.014056087           56 
 1855000   0.50588485   -7.8008767    339.19384  0.015237818  0.014045104           41 
 1856000   0.50527182    -7.802144    339.37814  0.015237883  0.014034134           47 
 1857000   0.51538055   -7.8012527    339.70612  0.015244396  0.014023191           25 
 1858000   0.51682213    -7.795662     340.0834  0.015253113  0.014012247           51 
 1859000   0.50592115   -7.8039974    339.72407    0.0152288  0.014001314           50 
 1860000   0.51974224   -7.8018154    340.11693  0.015238214  0.013990383           41 
 1861000   0.51831994   -7.7953044    339.01561   0.01518071  0.013979473           26 
 1862000   0.50529062   -7.8024819    339.55147  0.015196539  0.013968579           73 
 1863000   0.50204019   -7.7866238    339.85608  0.015202007  0.013957687           43 
 1864000   0.51313178   -7.8105192     339.6692  0.015185497  0.013946807           43 
 1865000    0.5122446   -7.8034072    339.62279  0.015175281  0.013935921           49 
 1866000   0.50508506   -7.7801328    339.23805  0.015149966  0.013925058           53 
 1867000   0.50696466   -7.7974086    339.29609  0.015144442  0.013914192           32 
 1868000   0.49452479   -7.8126851    339.56899  0.015148509  0.013903322           35 
 1869000   0.51439542   -7.7992795    339.34921  0.015130605  0.013892468           44 
 1870000   0.51822246   -7.8015141    339.42147  0.015125734  0.013881621           25 
 1871000   0.49569585   -7.8108998    338.63746   0.01508273  0.013870787           35 
 1872000   0.50546802   -7.7988338    339.57796   0.01511654  0.013859964           25 
 1873000   0.50564156   -7.7800694    339.06035   0.01508544  0.013849155           16 
 1874000   0.51270859   -7.8140581    339.63331  0.015102869  0.013838365           22 
 1875000   0.50591387   -7.7915268    339.44616  0.015086496   0.01382757           24 
 1876000   0.50105809   -7.8010968    339.31364  0.015072568  0.013816791           31 
 1877000   0.51042944   -7.8075273    338.83128  0.015043122  0.013806034           56 
 1878000   0.50942415   -7.8013774    339.18689  0.015050891  0.013795262           23 
 1879000   0.50240687   -7.8004867    339.36854  0.015050937  0.013784518           24 
 1880000    0.5034253   -7.8090273    339.36888  0.015042947  0.013773763           17 
 1881000   0.50055451   -7.8058613    339.20673  0.015027766  0.013763021           22 
 1882000    0.4941894   -7.7958569    339.82041  0.015046954  0.013752281           25 
 1883000   0.49750671   -7.8073342    339.40962  0.015020783  0.013741573           51 
 1884000     0.496439   -7.8055167    339.12312  0.015000138  0.013730864           32 
 1885000   0.50215255   -7.8015928    339.15567   0.01499362  0.013720179           36 
 1886000   0.49990277   -7.8044228    339.14167  0.014985051  0.013709483           59 
 1887000   0.50301229   -7.7889537    339.04112  0.014972669   0.01369882           34 
 1888000   0.50160826   -7.7939689    339.49674  0.014984849  0.013688157           21 
 1889000   0.49819756   -7.8124374    339.27734  0.014967238  0.013677502           32 
 1890000   0.51247663   -7.7961532    338.61732  0.014930217  0.013666846           37 
 1891000   0.49974335   -7.7906874     339.2335  0.014949476  0.013656221           33 
 1892000   0.51105818   -7.8124752    339.06246  0.014934041  0.013645596           21 
 1893000     0.505013   -7.8207242    338.58624  0.014905187  0.013634974           30 
 1894000   0.49787895   -7.8200069    339.50704  0.014937832  0.013624368           24 
 1895000   0.49855108   -7.7873629    339.14659  0.014914098  0.013613764           24 
 1896000   0.48449324   -7.8078247    339.18432   0.01490789  0.013603175           38 
 1897000   0.49481417    -7.797388    339.02899  0.014893208  0.013592594           18 
 1898000    0.4933845   -7.8070171    339.34587  0.014899274  0.013582024           30 
 1899000   0.48822129   -7.8017125    339.02589  0.014877387  0.013571455           23 
 1900000   0.49053386   -7.8220538    339.29126  0.014881196  0.013560902           22 
 1901000    0.4995708   -7.8292208    339.00044  0.014860619   0.01355036           50 
 1902000   0.49942198   -7.8293307     339.2051  0.014861773  0.013539814           52 
 1903000   0.49590181   -7.8255538    339.04979  0.014847162   0.01352928           47 
 1904000   0.49074212   -7.8369719    339.22431  0.014847002  0.013518762           72 
 1905000   0.48913595   -7.8457435     338.9443   0.01482696  0.013508244           32 
 1906000    0.4965386   -7.8147019    339.09829  0.014825913  0.013497729           50 
 1907000   0.49568545    -7.829574    339.09886  0.014818164  0.013487231           32 
 1908000    0.4859552   -7.8260991    339.28551  0.014818549  0.013476732           46 
 1909000    0.5022712   -7.8197939    339.10576   0.01480294  0.013466262           38 
 1910000   0.49612281   -7.8524556    338.93397  0.014787695    0.0134558           53 
 1911000   0.49270825   -7.8350251    338.84587  0.014776115  0.013445334           84 
 1912000   0.50141211   -7.8331177    338.78926   0.01476592  0.013434883           31 
 1913000   0.49382417   -7.8392749    339.19434  0.014775847  0.013424442           47 
 1914000   0.47893735   -7.8363689    338.96359   0.01475808  0.013414026           35 
 1915000   0.47314658   -7.8386704    339.21654  0.014761381  0.013403601           41 
 1916000   0.48887197   -7.8211018    339.02358  0.014745285  0.013393196           41 
 1917000   0.49812885   -7.8518431    338.78003  0.014727005  0.013382803           72 
 1918000   0.49887214   -7.8121138    338.90821  0.014724896  0.013372419           57 
 1919000   0.50070535   -7.8311173    338.65689  0.014706309  0.013362035           30 
 1920000    0.4875287   -7.8252346    338.70867  0.014700897  0.013351659           31 
 1921000   0.49237729   -7.8195888    338.60068   0.01468856  0.013341291           68 
 1922000   0.49584723   -7.8192373    339.21173  0.014707411  0.013330937           81 
 1923000   0.48488581   -7.8433468    339.14993  0.014697085  0.013320599           62 
 1924000   0.49094215   -7.8448347    339.11312  0.014687852  0.013310267           47 
 1925000    0.4793043   -7.8403023    338.59862  0.014657949  0.013299945           54 
 1926000   0.48507577   -7.8556718    339.20176  0.014676435  0.013289629           31 
 1927000   0.49237492   -7.8338448    338.54718  0.014640511  0.013279319           28 
 1928000    0.4831735   -7.8302934    338.55225  0.014633137  0.013269021           19 
 1929000   0.47546051   -7.8578901    338.73622  0.014633498  0.013258722           34 
 1930000   0.47463737   -7.8520297    338.17999  0.014601899  0.013248434           28 
 1931000    0.4832297   -7.8324932    338.38395  0.014603139  0.013238167           25 
 1932000   0.48257548   -7.8440469    339.57241  0.014646843  0.013227917           67 
 1933000    0.4759755   -7.8391848    338.95092  0.014612473  0.013217664           34 
 1934000   0.48628923   -7.8285959    338.22555  0.014573662  0.013207434           19 
 1935000   0.46976786   -7.8430949    338.99414  0.014599231  0.013197192           33 
 1936000   0.48687651   -7.8464719    338.91286  0.014588191  0.013186966           34 
 1937000   0.48742959   -7.8527148    338.97431  0.014583304  0.013176742           29 
 1938000   0.48152104   -7.8440577    338.35135  0.014548992  0.013166529           53 
 1939000   0.48193735   -7.8538313    338.79102  0.014560384  0.013156318           24 
 1940000   0.48313681   -7.8547205    338.40263  0.014536195  0.013146117           21 
 1941000   0.48596068   -7.8487991    338.48022  0.014532038  0.013135924           48 
 1942000    0.4778719   -7.8469418    338.28736  0.014516279  0.013125742           28 
 1943000   0.48690921   -7.8437418    338.79439  0.014530554  0.013115571           36 
 1944000   0.47796774   -7.8516256    338.37761  0.014505213  0.013105422           55 
 1945000   0.48595052    -7.854491    338.96556  0.014522946  0.013095272           32 
 1946000   0.47868121   -7.8691261    338.90435  0.014512862  0.013085133           56 
 1947000   0.47855945   -7.8583955    338.61472  0.014493011  0.013074995           57 
 1948000   0.46683928   -7.8695627    338.66149  0.014487572  0.013064866           40 
 1949000   0.47567145   -7.8423412    338.52694  0.014474386  0.013054762           36 
 1950000   0.46876523   -7.8531614    338.63368  0.014471525  0.013044655           53 
 1951000   0.47084475   -7.8618945    338.95905  0.014478005  0.013034565           65 
 1952000   0.47096569   -7.8657559    338.19996  0.014438181  0.013024472           33 
 1953000   0.48018301   -7.8596144     338.6288  0.014449087  0.013014398           56 
 1954000   0.47221602   -7.8437003     338.2986   0.01442761  0.013004332           29 
 1955000   0.47996234    -7.865208    338.49749  0.014428708  0.012994268           54 
 1956000   0.47388218   -7.8616781    338.46571  0.014419977   0.01298422           41 
 1957000   0.47620501   -7.8382137    338.25244  0.014403528  0.012974178           56 
 1958000   0.47251512   -7.8494405    337.49782  0.014364054  0.012964148          106 
 1959000    0.4640047   -7.8489943    338.14404  0.014384211  0.012954111           76 
 1960000   0.48202362    -7.870808    338.61435  0.014396869   0.01294409           62 
 1961000   0.46577583   -7.8735135    338.54013  0.014386373  0.012934077           34 
 1962000   0.46921996   -7.8558571    338.65326  0.014383846  0.012924079           47 
 1963000   0.47848128   -7.8656145    338.65585  0.014376628  0.012914081           57 
 1964000   0.46677265   -7.8708412    337.84063  0.014334718  0.012904089          103 
 1965000   0.46740694   -7.8513716    338.39442  0.014350908  0.012894093          101 
 1966000   0.46783852   -7.8537178    338.21657   0.01433607  0.012884119           82 
 1967000   0.47659152   -7.8701961    338.15338  0.014326105  0.012874146           40 
 1968000   0.46426773   -7.8668859    337.70424  0.014299807  0.012864188           26 
 1969000   0.46301787    -7.859408     338.1569  0.014311702  0.012854243           78 
 1970000   0.46487125   -7.8628277    337.95489  0.014295892  0.012844307          108 
 1971000   0.47774579   -7.8692578     338.2861  0.014302643  0.012834379           95 
 1972000   0.46743208    -7.857324    337.85395  0.014277128  0.012824456           97 
 1973000   0.46267746   -7.8602312     337.8601  0.014270151  0.012814542           39 
 1974000   0.45717803   -7.8661744    338.08926  0.014272596  0.012804634           65 
 1975000   0.45936618   -7.8699953    338.36493  0.014277001  0.012794741           33 
 1976000   0.45813872   -7.8590977    338.02349  0.014255377  0.012784848           66 
 1977000   0.47124546   -7.8730213    338.67891  0.014275793  0.012774976           47 
 1978000   0.45756787   -7.8771975    338.03242  0.014241339  0.012765103           66 
 1979000   0.45171919   -7.8678775    338.07684  0.014236013  0.012755248           84 
 1980000   0.46385646   -7.8691112    338.07151  0.014228599  0.012745397           82 
 1981000   0.45450113   -7.8663987    338.39991  0.014235231  0.012735552           63 
 1982000   0.47018634   -7.8790698    338.00003  0.014211236  0.012725716           96 
 1983000   0.46405014   -7.8741696    338.21167  0.014212963  0.012715883           54 
 1984000   0.46661926   -7.8689069    337.53051  0.014177189  0.012706067           74 
 1985000   0.46436473   -7.8829529    338.22704  0.014199288  0.012696263           49 
 1986000   0.45889589   -7.8758775    338.13464  0.014188261  0.012686465           80 
 1987000   0.46130313   -7.8864231    338.31745  0.014188788   0.01267669           73 
 1988000   0.45943977   -7.8749404    337.86006  0.014162478  0.012666907           38 
 1989000   0.45649197   -7.8876106    337.98809  0.014160721   0.01265713          147 
 1990000   0.47403816   -7.8825813    337.69535  0.014141346  0.012647376           32 
 1991000   0.46705704   -7.8689271    337.96447  0.014145507  0.012637635           51 
 1992000   0.45988883   -7.8836337    338.01228  0.014140407  0.012627901           37 
 1993000   0.45805666   -7.8871013    338.53153  0.014155023  0.012618177           71 
 1994000   0.45287332   -7.8696938    338.04663  0.014127659  0.012608462           59 
 1995000   0.45483497   -7.8731236    337.73847  0.014107705  0.012598753           28 
 1996000   0.45694639   -7.8789044    338.15527  0.014118039  0.012589043           50 
 1997000   0.45687035    -7.888221     337.7223  0.014092902  0.012579342           62 
 1998000     0.451392   -7.8885943      337.656  0.014083083  0.012569654           86 
 1999000   0.44917683   -7.8885042    338.44857  0.014109078  0.012559968           23 
 2000000   0.44293661   -7.8688635     337.7779  0.014074079  0.012550293           57 
 2001000   0.45816483   -7.8932117    338.23856   0.01408623  0.012540638           60 
 2002000   0.45002205   -7.8900837    337.92637  0.014066199  0.012530982           35 
 2003000   0.45212487    -7.890209    337.53484  0.014042887  0.012521336           32 
 2004000   0.44612456     -7.89213    337.87567  0.014050053  0.012511697           56 
 2005000   0.45044964   -7.8755477    337.45363  0.014025504  0.012502073           58 
 2006000   0.44977626   -7.8932485    337.78246  0.014032173  0.012492455           47 
 2007000   0.45143391   -7.8803145    337.43636  0.014010811  0.012482853           49 
 2008000   0.44928187   -7.8891224     338.0437  0.014029038  0.012473254           63 
 2009000   0.44885007    -7.889426    338.20974  0.014028942  0.012463663           44 
 2010000    0.4443848   -7.8880337    337.85805  0.014007382  0.012454086           32 
 2011000     0.441875   -7.8966839    338.11002  0.014010858  0.012444513           52 
 2012000   0.45619269   -7.8778012    338.29216  0.014011438  0.012434953          101 
Loop time of 4406.33 on 48 procs for 2000000 steps with 4000 atoms

Performance: 78432.662 tau/day, 453.893 timesteps/s
99.4% CPU use with 48 MPI tasks x no OpenMP threads

MPI task timing breakdown:
Section |  min time  |  avg time  |  max time  |%varavg| %total
---------------------------------------------------------------
Pair    | 277.95     | 303.49     | 320.43     |  62.3 |  6.89
Neigh   | 27.955     | 28.613     | 29.471     |   5.8 |  0.65
Comm    | 249.62     | 267.88     | 294.27     |  65.0 |  6.08
Output  | 4.5336     | 4.5353     | 4.5696     |   0.2 |  0.10
Modify  | 3744       | 3757.6     | 3767.4     |   9.5 | 85.28
Other   |            | 44.19      |            |       |  1.00

Nlocal:        83.3333 ave          94 max          75 min
Histogram: 1 2 11 9 8 7 3 5 1 1
Nghost:        1842.35 ave        1865 max        1815 min
Histogram: 1 4 3 7 6 4 4 8 8 3
Neighs:        11411.7 ave       12804 max       10167 min
Histogram: 3 3 9 8 6 4 5 3 3 4
FullNghs:      22822.9 ave       26059 max       20523 min
Histogram: 1 4 11 10 7 6 3 3 2 1

Total # of neighbors = 1095499
Ave neighs/atom = 273.87475
Neighbor list builds = 107680
Dangerous builds = 0

#clear
#
#next RN
#
#jump SELF
Total wall time: 1:13:29
