
units lj                  # Use reduced LJ style units
atom_style atomic         # Uncharged point particles
atom_modify map hash      # Needed for indexing of clusters etc
                          # Used to be able to find where atoms are in relation to each other.

lattice fcc 1.0 spacing 1 1 1
Lattice spacing in x,y,z = 1.5874011 1.5874011 1.5874011
region box block 0 10 0 10 0 10 units lattice
create_box 2 box
Created orthogonal box = (0.0000000 0.0000000 0.0000000) to (15.874011 15.874011 15.874011)
  3 by 4 by 4 MPI processor grid
create_atoms 1 box
Created 4000 atoms
  using lattice units in orthogonal box = (0.0000000 0.0000000 0.0000000) to (15.874011 15.874011 15.874011)
  create_atoms CPU = 0.022 seconds
set type 1 type/fraction 2 0.16 78393
Setting atom values ...
  677 settings made for type/fraction
mass 1 1.0
mass 2 1.0
pair_style lj/cut  3.5
pair_modify tail  yes
pair_coeff 1  1  1.0  1.0   # Intearaction between 1 and 1 set with epsilon = 1 and sigma = 1
pair_coeff 1  2  1.5  0.8
pair_coeff 2  2  0.5  0.88

write_data data.0
System init for write_data ...
Neighbor list info ...
  update every 1 steps, delay 10 steps, check yes
  max neighbors/atom: 2000, page size: 100000
  master list distance cutoff = 3.8
  ghost atom cutoff = 3.8
  binsize = 1.9, bins = 9 9 9
  1 neighbor lists, perpetual/occasional/extra = 1 0 0
  (1) pair lj/cut, perpetual
      attributes: half, newton on
      pair build: half/bin/atomonly/newton
      stencil: half/bin/3d
      bin: standard
WARNING: Not all mixed pair coeffs generated from mixing. Use write_data with 'pair ij' option to store all pair coeffs. (../write_data.cpp:312)


#############################
#   M E L T   S Y S T E M   #
#############################

velocity all create 2.4 6583654 mom yes dist gaussian # Assign velocities
                                                    # Temperature 2.4, random number seed, zero linear momentum
                                                                                # Gaussian distribution

timestep 0.002   # simulation timestep
thermo 1000       # output thermodynamic data every 1000 steps bf 100

# Define a fix  in this case with index 1 applied to all
# particles in the simulation. This fix is for simulations
# in the anisotropic NPT ensemble. Note that we use the MTK
# correction.
fix 1 all npt temp 2.4 2.4 0.1 iso 5.68 5.68 0.5 mtk yes tchain 5 pchain 5 # Use NPT ensemble
                                                                         # Set temperature and pressure and damping
                                                                         # Numbers of thermostats in chain and in barostat
run 10000          # run for 10000 steps
Per MPI rank memory allocation (min/avg/max) = 3.642 | 3.644 | 3.648 Mbytes
Step Temp E_pair E_mol TotEng Press Volume 
       0          2.4   -7.2871769            0   -3.6880769   -3.4159639         4000 
    1000    2.3627241   -4.7516706            0   -1.2084705    5.6125178    4614.1704 
    2000    2.3928012   -4.7194498            0   -1.1311452    6.1975202    4570.8086 
    3000    2.4585378   -4.7091666            0   -1.0222819    5.6812506    4636.7203 
    4000    2.3805778   -4.7001248            0   -1.1301509     5.755543    4618.2674 
    5000     2.371247   -4.7276437            0   -1.1716624    5.6558371     4628.236 
    6000    2.3739096   -4.7369691            0    -1.176995    5.6967562    4603.8733 
    7000    2.4142769     -4.78518            0     -1.16467    5.3874316    4627.1143 
    8000    2.4249232    -4.766271            0   -1.1297955     5.781648    4596.3913 
    9000    2.3811262   -4.8226751            0   -1.2518788    5.6628554    4578.4168 
   10000    2.4193202   -4.8084375            0   -1.1803645    5.8499991    4565.3171 
Loop time of 2.40322 on 48 procs for 10000 steps with 4000 atoms

Performance: 719036.077 tau/day, 4161.088 timesteps/s
99.3% CPU use with 48 MPI tasks x no OpenMP threads

MPI task timing breakdown:
Section |  min time  |  avg time  |  max time  |%varavg| %total
---------------------------------------------------------------
Pair    | 0.94875    | 1.0042     | 1.0971     |   2.8 | 41.78
Neigh   | 0.19378    | 0.20125    | 0.21395    |   0.9 |  8.37
Comm    | 0.68625    | 0.77533    | 0.87712    |   4.3 | 32.26
Output  | 0.00024655 | 0.00025468 | 0.00035289 |   0.0 |  0.01
Modify  | 0.36157    | 0.40754    | 0.43236    |   3.1 | 16.96
Other   |            | 0.01469    |            |       |  0.61

Nlocal:        83.3333 ave          91 max          75 min
Histogram: 1 5 2 7 7 7 8 6 2 3
Nghost:        1501.44 ave        1529 max        1479 min
Histogram: 2 3 6 9 9 8 4 3 2 2
Neighs:        8353.10 ave        9634 max        7384 min
Histogram: 4 2 6 4 15 8 3 5 0 1

Total # of neighbors = 400949
Ave neighs/atom = 100.23725
Neighbor list builds = 905
Dangerous builds = 180

# Equilibrate just above the melting temperature to avoid step fn in T

fix 1 all npt temp 1.25 1.25 0.1 iso 5.68 5.68 0.5 mtk yes tchain 5 pchain 5
run 2000
Per MPI rank memory allocation (min/avg/max) = 3.642 | 3.644 | 3.649 Mbytes
Step Temp E_pair E_mol TotEng Press Volume 
   10000    2.4193202   -4.8084375            0   -1.1803645    5.8499991    4565.3171 
   11000    1.2339784   -6.4378844            0   -4.5873796    5.5586619    3773.3279 
   12000     1.214033   -6.3939487            0   -4.5733545     5.928172    3765.9704 
Loop time of 0.52642 on 48 procs for 2000 steps with 4000 atoms

Performance: 656509.981 tau/day, 3799.248 timesteps/s
99.5% CPU use with 48 MPI tasks x no OpenMP threads

MPI task timing breakdown:
Section |  min time  |  avg time  |  max time  |%varavg| %total
---------------------------------------------------------------
Pair    | 0.22084    | 0.23671    | 0.25086    |   1.4 | 44.97
Neigh   | 0.032547   | 0.03425    | 0.035986   |   0.5 |  6.51
Comm    | 0.14924    | 0.1707     | 0.21471    |   4.0 | 32.43
Output  | 5.1034e-05 | 5.2085e-05 | 6.7222e-05 |   0.0 |  0.01
Modify  | 0.044163   | 0.080218   | 0.092673   |   4.6 | 15.24
Other   |            | 0.004489   |            |       |  0.85

Nlocal:        83.3333 ave          89 max          71 min
Histogram: 1 0 0 1 1 10 14 9 8 4
Nghost:        1705.15 ave        1722 max        1683 min
Histogram: 2 0 0 8 9 11 5 4 7 2
Neighs:        10133.1 ave       10891 max        8732 min
Histogram: 1 0 1 3 5 11 8 5 8 6

Total # of neighbors = 486387
Ave neighs/atom = 121.59675
Neighbor list builds = 144
Dangerous builds = 10

#############################
# L I N E A R  Q U E N C H  #
#############################

# Define solid atoms. This closely follows ten Wolde  Ruiz-Montero and Frenkel  Faraday Discuss  1996  104  93-110
# Compute components of the per-atom q6 vector
compute q6 all orientorder/atom degrees 1 6 components 6 nnn NULL cutoff 1.3 # compute the Q6 parameter.
                                                                             # Use all neighbours within 1.3 unit cell.

# get number of connections
compute coord_number all coord/atom orientorder q6 0.5

# An atom is solid if it has 8 or more connections (of a possible 14)
variable is_solid atom c_coord_number>=8
group solid dynamic all var is_solid    # Must be dynamic to update
dynamic group solid defined

# do clustering
compute cluster solid cluster/atom 1.3 # Create a cluster where all atoms within are solid and max 1.3 units from another member

# define chunks one chunk per cluster
compute clus_chunks solid chunk/atom c_cluster nchunk every compress yes  # Says which atoms are in which chunk

# count the size of each chunk
compute size_chunks solid property/chunk clus_chunks count


# Find the maximum entry in the vector of chunk sizes
variable max_n equal max(c_size_chunks)


# Thermo style which includes this variable
# thermo_style custom step temp pe vol v_max_n

thermo ${N}  # Print the thermo information every 100 steps
thermo 1000  

# Reset the npt fix at a lower temperature (below freezing)
fix 1  all npt temp  ${temp} ${temp}  0.1  iso  5.68  5.68  0.5  mtk yes tchain  5  pchain  5
fix 1  all npt temp  0.45 ${temp}  0.1  iso  5.68  5.68  0.5  mtk yes tchain  5  pchain  5
fix 1  all npt temp  0.45 0.45  0.1  iso  5.68  5.68  0.5  mtk yes tchain  5  pchain  5

dump dmp2 all dcd ${N} traj.dcd
dump dmp2 all dcd 1000 traj.dcd


compute msd all msd com yes
variable twopoint equal c_msd[4]/6/(step*dt+1.0e-6)
fix 9 all vector 10 c_msd[4]
variable fit equal slope(f_9)/6/(10*dt)
thermo_style custom step temp pe c_msd[4] v_twopoint v_fit v_max_n

fix 1 all npt temp 1.25 ${temp} 0.1 iso 5.68 5.68 0.5 mtk yes tchain 5 pchain 5
fix 1 all npt temp 1.25 0.45 0.1 iso 5.68 5.68 0.5 mtk yes tchain 5 pchain 5
run 5000000 # 5000000  # Run for this many steps
Neighbor list info ...
  update every 1 steps, delay 10 steps, check yes
  max neighbors/atom: 2000, page size: 100000
  master list distance cutoff = 3.8
  ghost atom cutoff = 3.8
  binsize = 1.9, bins = 9 9 9
  4 neighbor lists, perpetual/occasional/extra = 1 3 0
  (1) pair lj/cut, perpetual
      attributes: half, newton on
      pair build: half/bin/atomonly/newton
      stencil: half/bin/3d
      bin: standard
  (2) compute orientorder/atom, occasional
      attributes: full, newton on
      pair build: full/bin/atomonly
      stencil: full/bin/3d
      bin: standard
  (3) compute coord/atom, occasional
      attributes: full, newton on
      pair build: full/bin/atomonly
      stencil: full/bin/3d
      bin: standard
  (4) compute cluster/atom, occasional
      attributes: full, newton on
      pair build: full/bin/atomonly
      stencil: full/bin/3d
      bin: standard
Per MPI rank memory allocation (min/avg/max) = 9.764 | 9.769 | 9.773 Mbytes
Step Temp PotEng c_msd[4] v_twopoint v_fit v_max_n 
   12000     1.214033   -6.3939487 3.4090624e-30 2.3674043e-32 8.3333333e+20            3 
   13000    1.2529228    -6.418659   0.57167822 0.0036646038  0.048113121            3 
   14000    1.2210945   -6.4297874    1.1516228 0.0068548972  0.046922989            3 
   15000    1.2708687   -6.4306045    1.6786565 0.0093258689  0.046944302            2 
   16000    1.2681226   -6.4100968    2.1940957  0.011427581  0.045616336            2 
   17000    1.2516571   -6.4391411      2.68158     0.013145  0.044643945            2 
   18000    1.2357682   -6.4597407    3.1932162  0.014783408  0.043923876            2 
   19000    1.2577667   -6.4368703    3.6808705  0.016144169  0.043460796            1 
   20000    1.2336798    -6.439047    4.1981249  0.017492187  0.043041157            2 
   21000    1.2315558   -6.4141328    4.7693079  0.018925825  0.043092391            1 
   22000    1.2640893   -6.4269931    5.3267728  0.020177169  0.043319746            1 
   23000    1.2442461   -6.4341625    5.8717498  0.021274455  0.043556494            2 
   24000    1.2524559    -6.460196    6.3275229  0.021970565   0.04359103            2 
   25000    1.2693577    -6.467351    6.7811535  0.022603844  0.043485039            4 
   26000    1.2325021    -6.485523    7.2881394  0.023359421  0.043258678            2 
   27000    1.2479288   -6.4288684    7.8578533  0.024252633  0.043228107            2 
   28000    1.2084918   -6.4493886    8.3393322  0.024819441  0.043160923            2 
   29000    1.2157142   -6.4361472    8.8678818  0.025482418  0.043080691            6 
   30000     1.233674   -6.4365622    9.3250626  0.025902951  0.043000158            2 
   31000    1.2318388   -6.4233899    9.8862348  0.026575899  0.042927192       -1e+20 
   32000    1.2387427   -6.4473077    10.403174  0.027091599  0.042951472            2 
   33000    1.2282633   -6.4508458     10.93557  0.027615074  0.042944332            1 
   34000     1.255828   -6.4113205    11.461349  0.028091542  0.042977145            2 
   35000     1.242673   -6.3961173    12.067909  0.028733115  0.043030614            2 
   36000    1.2281351   -6.4549611     12.55797  0.029069374   0.04307227            2 
   37000    1.2448406   -6.4171456    13.127129  0.029565604  0.043117752            2 
   38000    1.2425368   -6.4286288    13.713744  0.030073999  0.043187497            2 
   39000    1.2604833   -6.4452372    14.179979    0.0302991  0.043305501            2 
   40000    1.2437084    -6.422247    14.684726  0.030593179  0.043376531            2 
   41000     1.265561   -6.4643987     15.29117  0.031079614  0.043429411            2 
   42000    1.2443744   -6.4715204    15.742914   0.03123594  0.043463546            2 
   43000    1.2593569   -6.4340062    16.261694   0.03151491  0.043489434            1 
   44000    1.2344878    -6.460496    16.788919  0.031797194   0.04351312            1 
   45000    1.2061453   -6.4679952    17.342654  0.032116025  0.043549975            4 
   46000    1.2566284   -6.4761558    17.955238  0.032527606  0.043599828            1 
   47000    1.2556957   -6.4636938    18.663889  0.033092002  0.043701253            2 
   48000    1.2328682   -6.4484989    19.157241  0.033259099   0.04379836            1 
   49000     1.245888   -6.4284908    19.843559  0.033747549  0.043901591            1 
   50000    1.2211696   -6.4306728     20.29077  0.033817949  0.043996264            4 
   51000    1.2666639    -6.452277    20.841937  0.034055452  0.044089054            2 
   52000    1.2249152   -6.4075465    21.369609  0.034246168  0.044183345            3 
   53000    1.2571925   -6.4204389    21.835707  0.034332872  0.044241185            2 
   54000    1.2623027   -6.4415176    22.386409  0.034546926  0.044288396            3 
   55000    1.2374079   -6.4377936    22.866969  0.034646923  0.044315114            1 
   56000    1.2579365   -6.4594589     23.34095  0.034733556  0.044339841            2 
   57000    1.2436712   -6.5017049    23.837128  0.034849602  0.044336792            2 
   58000    1.2468933   -6.4102392    24.503406  0.035206042  0.044357627            2 
   59000     1.239903   -6.4418122    25.055257   0.03538878  0.044381665            1 
   60000    1.2331832   -6.4242701      25.7156   0.03571611  0.044409877            1 
   61000    1.2143237   -6.4366046    26.406346  0.036074242  0.044458459            1 
   62000    1.2133162   -6.4524086    26.804687  0.036027805  0.044511386            2 
   63000     1.252113   -6.4301633    27.268757  0.036069784  0.044561796            2 
   64000    1.2728541   -6.4502664    27.952872  0.036396968  0.044596031            3 
   65000    1.2410414   -6.3967963    28.255667  0.036225214  0.044630825            2 
   66000    1.2527787    -6.495371    28.783954  0.036343376  0.044639293            5 
   67000    1.2371838   -6.4451251     29.17391  0.036285958  0.044636766            2 
   68000    1.2562112    -6.430623    29.878317  0.036615584  0.044630644            3 
   69000    1.2567723    -6.415898    30.575594  0.036927045  0.044653509            2 
   70000    1.2207651   -6.4484886    31.198945  0.037141601  0.044688266            2 
   71000     1.237914   -6.4063385    31.674609   0.03717677  0.044711571            2 
   72000    1.2560964   -6.4619199    32.192632  0.037259991  0.044734132            1 
   73000     1.217024   -6.4756785    32.606872  0.037222456  0.044755064            2 
   74000    1.2445628   -6.4192148    33.303805  0.037504284  0.044769145            1 
   75000    1.2249608   -6.4502433    33.690443  0.037433826  0.044779939            2 
   76000    1.2170885   -6.4501827    34.143035  0.037437538  0.044774833            2 
   77000    1.2189539   -6.4732426    34.649334  0.037499279  0.044756866            2 
   78000    1.2412604   -6.4263046    35.026801  0.037421796    0.0447425            1 
   79000    1.2256059   -6.4482872     35.80795  0.037772099  0.044741795            5 
   80000    1.2285977   -6.4051427    36.197913  0.037706159  0.044723468            2 
   81000    1.2288257   -6.4650028    36.714016  0.037771621  0.044700031            2 
   82000    1.2220527    -6.426067    37.229236  0.037834589  0.044676891            2 
   83000    1.2498584   -6.4736247    37.748067  0.037899666   0.04465774            2 
   84000    1.2462748   -6.4425839    38.273494  0.037969736   0.04464397            3 
   85000    1.2566412   -6.4024059    38.679446  0.037921025  0.044623655            1 
   86000    1.2574421   -6.4712112    39.201725  0.037986168  0.044596837            1 
   87000    1.2279404   -6.4565582    39.644706  0.037973856  0.044565009            2 
   88000    1.2435445   -6.4794676    40.116078   0.03798871   0.04453041            2 
   89000    1.2171614   -6.4738047    40.457842  0.037881874  0.044494045            2 
   90000     1.219206   -6.4596971    41.107169  0.038062193  0.044453053            2 
   91000    1.2447383   -6.4219145    41.907392  0.038376733  0.044420837            2 
   92000    1.2259149   -6.4945374    42.360623  0.038370129  0.044401924            2 
   93000    1.2296046   -6.4572764    43.131867  0.038648626  0.044393702            3 
   94000    1.2395763   -6.4270026    43.390066   0.03846637  0.044383006            2 
   95000    1.2565489   -6.4462011    43.516834  0.038172661  0.044351747            3 
   96000    1.2339974   -6.5001798     44.17987  0.038350581  0.044319119            2 
   97000    1.2319101   -6.4158643    44.713131  0.038413343  0.044289931            1 
   98000    1.2463308   -6.4602704    45.137633  0.038382341  0.044265203            2 
   99000    1.2350149   -6.4506302    45.617973  0.038398967  0.044229453            2 
  100000    1.2246891   -6.4568291    45.943877  0.038286564  0.044194998            5 
  101000    1.2459213    -6.468896    46.557396  0.038413693  0.044155736            2 
  102000    1.2465657   -6.4991713    47.224668  0.038582245   0.04412043            4 
  103000    1.2606504   -6.4851644    47.735161   0.03862068  0.044087489            2 
  104000    1.2267739   -6.4665832    48.126443  0.038562855  0.044053995            3 
  105000    1.2362171   -6.4270304    48.525658  0.038512427  0.044012352            2 
  106000    1.2167703   -6.4486574    49.227096  0.038700547  0.043979577            1 
  107000    1.2294273   -6.4791093    49.561865  0.038599583  0.043948822            1 
  108000    1.2332566    -6.448762    49.972129  0.038558742   0.04391278            2 
  109000    1.2422155    -6.492318    50.533712  0.038634336  0.043879232            1 
  110000     1.219027   -6.4402383    51.114435  0.038723057  0.043843248            2 
  111000    1.2143989   -6.4625621    51.436114  0.038615701  0.043809925            4 
  112000    1.2293383   -6.4517023    51.914128  0.038626584  0.043773349            1 
  113000    1.2421811   -6.4416724    52.431896   0.03866659  0.043736001            3 
  114000    1.2411324   -6.4662576    52.829492  0.038618049   0.04369872            3 
  115000    1.2339444   -6.4461012    53.736018  0.038939143  0.043665101            1 
  116000    1.2417847   -6.4447209    54.149695  0.038900643  0.043638211            4 
  117000    1.2346631   -6.4674522    54.821508  0.039046658  0.043617853            3 
  118000    1.1917324   -6.4769866    55.448849  0.039158792  0.043598942            2 
  119000    1.2425258   -6.4392035    56.244218  0.039386707  0.043587369            1 
  120000    1.2409806   -6.4849228    56.583294  0.039293954  0.043578296            1 
  121000    1.2437722   -6.4731616    56.909091  0.039193589  0.043565641            1 
  122000    1.2443573   -6.4564286     57.27426  0.039121762  0.043550042            3 
  123000    1.2210445   -6.4432591    57.771946  0.039140885   0.04353304            1 
  124000    1.2521033   -6.4402521    58.236454  0.039137402  0.043515261            1 
  125000    1.2352298    -6.466541    58.885306   0.03925687  0.043496251            1 
  126000    1.2505024   -6.4781976    59.531378  0.039372604  0.043477324            1 
  127000    1.2293291    -6.488007    59.881024  0.039292011  0.043465535            2 
  128000    1.2253969   -6.4534894    60.478632  0.039374109  0.043450581            4 
  129000    1.2493838   -6.4163884    60.981922  0.039394006  0.043434712            3 
  130000    1.2339162   -6.4768378    61.353715  0.039329304  0.043422278            2 
  131000    1.2174136   -6.4544165    62.094249  0.039500158  0.043412125            1 
  132000    1.2561889   -6.4806676    62.537125  0.039480508  0.043409239            1 
  133000    1.1929966   -6.4489866    63.629448  0.039868075   0.04340802            1 
  134000    1.2442271   -6.4873859    63.997508  0.039799445  0.043408889            2 
  135000    1.2276563   -6.4762428    64.274818  0.039675814   0.04341008            2 
  136000    1.2208581   -6.4863022     64.77306  0.039689375   0.04340851            2 
  137000    1.2605614   -6.4618774    65.444326  0.039807984  0.043411985            2 
  138000    1.2370488   -6.4590276    66.038738  0.039878465  0.043417098            2 
  139000    1.2349166   -6.4259167    66.488021  0.039860924  0.043420315            1 
  140000    1.2375448   -6.4518535     67.14834   0.03996925  0.043420517            2 
  141000    1.2350697   -6.4940306    67.283515  0.039765671  0.043419665            1 
  142000     1.228354   -6.5089709    67.918342  0.039858182  0.043418083            1 
  143000    1.2402469   -6.4397856     68.85918  0.040127727  0.043421352            2 
  144000    1.2300842   -6.4660405    68.965402  0.039910534  0.043423516            3 
  145000    1.2188912   -6.4597626    69.703387  0.040059418  0.043425269            2 
  146000    1.2270282   -6.4603158    69.979964  0.039942901  0.043428001            5 
  147000     1.223701    -6.464204    70.762327  0.040114697  0.043425596            1 
  148000    1.2216638   -6.4415766    71.046231  0.040003508   0.04342312            2 
  149000      1.21387   -6.4448552    71.970648   0.04025204  0.043421634            2 
  150000    1.2001122   -6.4416655    72.289243  0.040160691  0.043420509            1 
  151000    1.2037813   -6.4559481    72.621326  0.040077994  0.043419667            2 
  152000    1.2244646   -6.4559427    72.841963  0.039935287  0.043411984            1 
  153000    1.2179621   -6.4883614    73.371213  0.039962534  0.043400577            3 
  154000    1.2244314   -6.4928409    73.805918  0.039938267   0.04339034            2 
  155000    1.2082592   -6.4994174    74.142747  0.039861692  0.043378436            4 
  156000    1.2245926   -6.4928784    74.726731  0.039918125  0.043365877            5 
  157000    1.2299769    -6.391529    75.341687   0.03999028  0.043353325            1 
  158000    1.2602089   -6.4763656    75.785829  0.039971429  0.043339377            3 
  159000    1.2313152   -6.5067728    76.093376  0.039881224  0.043326216            1 
  160000    1.1927788   -6.4598454    76.913221  0.040058969  0.043317627            3 
  161000    1.2369706   -6.4535946    77.545851  0.040137604  0.043307391            2 
  162000    1.2163108   -6.5070027    77.935084  0.040090064  0.043299258            3 
  163000    1.2226198   -6.4805492    78.363361  0.040063068  0.043290682            2 
  164000    1.2111447   -6.4851656    79.344692  0.040317425  0.043288618            4 
  165000    1.2203498   -6.4472418    79.647705  0.040226114  0.043285259            1 
  166000    1.2144131   -6.4539422    80.239287  0.040280766   0.04328268            2 
  167000    1.2282953   -6.4937998    80.450091  0.040144756  0.043274954            2 
  168000    1.2323263    -6.466815    81.032455   0.04019467  0.043263369            1 
  169000     1.232442   -6.4886488    81.596015  0.040234721  0.043258025            3 
  170000    1.2129646   -6.4630298    82.350288  0.040367788   0.04325261            2 
  171000    1.2049662    -6.462025    82.851035  0.040375748  0.043248378            2 
  172000    1.2394549   -6.4582767    83.129878  0.040276104  0.043241621            3 
  173000    1.2344752   -6.4868691    83.448457  0.040196752  0.043232048            2 
  174000    1.2071393   -6.4525937    84.296363  0.040371821  0.043225033            3 
  175000    1.2445005   -6.4753408    85.043069  0.040496699  0.043222843            2 
  176000    1.1892032   -6.4366055    85.618423  0.040539026  0.043222553            2 
  177000    1.1861949   -6.4760196    85.798129  0.040394599  0.043220648            1 
  178000    1.2142016   -6.4633697    86.393164  0.040446238  0.043221146            1 
  179000    1.2177495   -6.4724172    86.804721  0.040411881  0.043220001            1 
  180000    1.2211709    -6.492208    87.769811  0.040634172  0.043218922            4 
  181000    1.2126242    -6.440771    88.207113   0.04061101  0.043218694            2 
  182000    1.1972334   -6.5037478    88.595227   0.04056558  0.043217291            4 
  183000    1.2289049   -6.5216669    88.859799  0.040464389  0.043215423            4 
  184000    1.2162145   -6.4814844    89.518968  0.040543011  0.043213224            1 
  185000     1.215375   -6.4909684    89.895265  0.040493362  0.043210318            2 
  186000    1.2268899   -6.4602711    90.393587  0.040498919  0.043206104            2 
  187000    1.2368632   -6.4721861    91.070778  0.040584125  0.043202174            2 
  188000    1.2174404   -6.4637977    91.409851  0.040518551  0.043197107            2 
  189000    1.2236025   -6.5048872    91.929084  0.040533106  0.043193013            3 
  190000    1.2528106   -6.4869366    92.532354  0.040584366  0.043187557            3 
  191000    1.2282438   -6.4860182    93.024808   0.04058674  0.043183459            1 
  192000    1.2141623   -6.4894782    93.317235  0.040502272  0.043179229            3 
  193000    1.2007525   -6.5013202    93.845252  0.040520402  0.043173586            2 
  194000    1.1944658   -6.4286961     94.57911  0.040626765  0.043166177            2 
  195000    1.2329744   -6.4958057    94.707714  0.040473382    0.0431572            2 
  196000    1.2230443   -6.5290262    94.951719  0.040370629  0.043146921            2 
  197000    1.2439563   -6.5000098    95.378965  0.040346432  0.043135962            3 
  198000    1.2269794   -6.4786415    96.248538  0.040508644   0.04312697            1 
  199000    1.2240716   -6.4883191    96.203163  0.040286082  0.043116676            3 
  200000    1.2114925   -6.4816534     97.18075  0.040491979  0.043106071            3 
  201000     1.189133   -6.4788662    97.755773  0.040528927  0.043096871            2 
  202000    1.2039958   -6.4787183    98.418886  0.040601851  0.043089364            2 
  203000    1.2085341   -6.5272782    98.596338  0.040474687  0.043080189            2 
  204000    1.2171176   -6.4832176    99.131625  0.040494945  0.043071088            1 
  205000    1.2337657   -6.4889328    99.697952  0.040527623  0.043063915            2 
  206000    1.2257785   -6.4724764    100.36526  0.040600832   0.04305758            2 
  207000    1.2151052   -6.4977062    100.98576  0.040654494  0.043052847            4 
  208000    1.2155809   -6.4566428    101.55126  0.040685602   0.04304892            5 
  209000    1.1980535    -6.517393    101.73903  0.040565803  0.043043743            2 
  210000    1.2043112   -6.4740577    102.67581  0.040744369  0.043036907            1 
  211000    1.2100889   -6.4852732    102.63468  0.040535024  0.043031056            3 
  212000    1.2070623   -6.4852986    103.28172  0.040598161   0.04302347            3 
  213000    1.2140902   -6.4700624    104.10698   0.04073043  0.043016087            5 
  214000    1.2204436    -6.493709    104.18434  0.040570226  0.043007302            4 
  215000    1.1982838   -6.4857721    104.10887  0.040352275  0.042994356            1 
  216000    1.2061575   -6.4606338    105.03659  0.040523375  0.042983029            1 
  217000    1.2028323   -6.4737948    105.60022   0.04055308  0.042971113            2 
  218000    1.2142891   -6.5146138    105.96721  0.040507342   0.04295949            2 
  219000    1.2164354    -6.467823    106.74997  0.040620232  0.042948187            3 
  220000     1.214443   -6.4925298    106.85972  0.040477167  0.042935209            1 
  221000    1.2203976   -6.5139394    107.26704  0.040447602  0.042921166            2 
  222000     1.183325   -6.4842499    107.66238  0.040413806  0.042908345            2 
  223000    1.2314967   -6.5160832    108.32882  0.040481621  0.042897316            2 
  224000    1.2293359   -6.4964713    108.64342  0.040417938  0.042885272            2 
  225000    1.2039651    -6.481405    109.11902  0.040414452  0.042872548            1 
  226000    1.2276529   -6.5238269    109.68501  0.040444325  0.042860999            1 
  227000    1.2357006    -6.480213    110.05029  0.040400252  0.042848766            7 
  228000    1.2323116   -6.5025955    110.28269  0.040308002  0.042836384            2 
  229000     1.227328   -6.4884729    111.13568  0.040442387  0.042824691            2 
  230000    1.2065617   -6.4700171     111.5373  0.040412067  0.042814831            3 
  231000    1.2114289    -6.491657    111.95582  0.040388102  0.042801581            3 
  232000    1.2106148     -6.48199    113.04838  0.040606456  0.042789309            2 
  233000     1.220281   -6.4974735    113.58562  0.040624328  0.042780286            3 
  234000    1.2012437   -6.5255893      113.229  0.040323719  0.042770367            1 
  235000    1.2190048   -6.4850672    113.44277  0.040227932  0.042757797            3 
  236000    1.2110827    -6.490686    114.04741  0.040270978  0.042741683            1 
  237000     1.218194    -6.498879    114.99132  0.040432954  0.042726984            3 
  238000    1.1968417   -6.4885794     115.3175  0.040377277  0.042711855            2 
  239000    1.1959246   -6.4651157    115.35114  0.040220064  0.042693657            2 
  240000    1.2029842   -6.4795709    115.51792  0.040110387  0.042675777            2 
  241000     1.218733   -6.4993898    116.09398  0.040143146  0.042656368            5 
  242000    1.2265348   -6.5335318    116.25342  0.040032169    0.0426357            3 
  243000    1.1901718   -6.5130988    117.09378  0.040155617  0.042614754            2 
  244000    1.2057372   -6.4481047     117.2113  0.040031182  0.042595017            1 
  245000    1.1862263   -6.4945527    117.69195  0.040031277  0.042573579            2 
  246000    1.2185447   -6.4860698    118.30207  0.040075227  0.042550786            4 
  247000    1.2171517   -6.4888653    118.58027   0.04000684  0.042527717            2 
  248000     1.224321   -6.4914347    118.61631  0.039857632  0.042506237            3 
  249000    1.1948491   -6.5102449    119.30691  0.039928685  0.042483129            2 
  250000    1.1749833   -6.5286836    119.35506  0.039785021  0.042459108            2 
  251000    1.2105851   -6.4956802    119.76661  0.039763152  0.042434715            2 
  252000    1.1992264   -6.4692143    120.72054  0.039920813  0.042409089            3 
  253000    1.2085874   -6.5343474    120.68564  0.039751528  0.042383398            2 
  254000    1.2113592   -6.5333662    120.93515  0.039676888  0.042357531            2 
  255000    1.1939922   -6.4882448    121.88077  0.039830316  0.042332213            2 
  256000    1.2267496   -6.5033222    121.82683  0.039657172  0.042305685            1 
  257000    1.2039707   -6.4747092    122.59956  0.039753423  0.042280229            2 
  258000    1.2002084   -6.5506703    122.70821  0.039634436  0.042254619            3 
  259000    1.2136645    -6.479498    123.27739   0.03966454  0.042229236            2 
  260000    1.2463218   -6.5253171    123.94437   0.03972576  0.042204436            2 
  261000    1.2105567   -6.5348926    124.16961  0.039645471  0.042180178            3 
  262000    1.1717196   -6.5023268     124.7175  0.039668415   0.04215634            1 
  263000    1.2046228    -6.548295    124.87819  0.039568502  0.042131703            1 
  264000    1.2371631   -6.4747124    125.74261  0.039691479  0.042106963            1 
  265000    1.2161857   -6.5190298    126.19357  0.039683512  0.042084801            2 
  266000    1.1647903   -6.4500404    126.90666  0.039757727  0.042062769            1 
  267000    1.1992553   -6.5150511    127.22242  0.039707373  0.042040583            3 
  268000    1.2185141   -6.5314188    127.63528  0.039687586  0.042017463            2 
  269000    1.1927613   -6.4876676    127.81108   0.03959451  0.041993999            3 
  270000    1.1785756   -6.5185083    128.99669  0.039813794  0.041972743            3 
  271000    1.1845959   -6.5391307    128.67444  0.039567787  0.041949932            4 
  272000    1.2141957   -6.4963554      129.481  0.039669424  0.041927007            2 
  273000    1.2070404   -6.5248303    130.13953   0.03972513  0.041904611            2 
  274000    1.1589989   -6.4850808     130.3414  0.039641545  0.041882958            1 
  275000     1.236319   -6.4884333    130.55612  0.039562461  0.041860453            1 
  276000    1.1954035   -6.4811888    131.42879  0.039682606  0.041838618            2 
  277000    1.2132808    -6.492898    131.97796  0.039704561  0.041816684            4 
  278000    1.2160227   -6.4902201    132.04342   0.03958136  0.041796311            2 
  279000    1.2063987    -6.515269    132.90933  0.039698128  0.041776351            1 
  280000    1.2317398   -6.4970553    133.26226  0.039661388  0.041758294            3 
  281000     1.200408   -6.5402255    133.64949  0.039635081  0.041739415            2 
  282000    1.2092717   -6.5204829    134.31638  0.039691601  0.041720051            2 
  283000     1.211161    -6.505084    134.63085   0.03964395  0.041699722            1 
  284000    1.2059384   -6.4909308    134.94426  0.039596321  0.041679746            2 
  285000     1.168466   -6.5358025    135.16317  0.039521393  0.041658441            3 
  286000    1.1918827   -6.5085202    136.03135  0.039636174  0.041638397            1 
  287000    1.1896316   -6.4713254    136.47614  0.039627219  0.041618139            2 
  288000    1.1875562   -6.5047488    136.04349  0.039364436  0.041597155            3 
  289000    1.1924721   -6.5307655    136.52766  0.039367836   0.04157386            3 
  290000    1.1940697    -6.525911    136.63535  0.039263031  0.041548862            1 
  291000    1.2024407   -6.5160812    137.19017   0.03928699  0.041524613            4 
  292000    1.2013804   -6.5065935    137.50672  0.039242787  0.041498548            2 
  293000    1.1950283   -6.4969203    137.73225  0.039172994  0.041471178            2 
  294000    1.2220616   -6.5346973    138.20304  0.039173197  0.041443543            2 
  295000    1.2059071   -6.5089077     138.6123  0.039156017  0.041416645            2 
  296000    1.2092749   -6.4960633    138.76618  0.039067054  0.041389588            2 
  297000    1.2299379   -6.4995326    139.83125  0.039234358  0.041363707            4 
  298000    1.1857108   -6.4929739    139.63903  0.039048946   0.04133763            2 
  299000    1.1860893   -6.5027599      139.763    0.0389529  0.041310301            1 
  300000    1.2162404   -6.5021825    140.86535  0.039129263  0.041283524            1 
  301000    1.2287403   -6.4891649    141.25501  0.039107146  0.041256908            2 
  302000    1.2066104   -6.5250068    141.45499  0.039032834  0.041229645            4 
  303000    1.1832442   -6.5228808    141.28085   0.03885612  0.041203281            3 
  304000    1.2007594    -6.538618    142.09327  0.038951007   0.04117649            3 
  305000    1.2308232   -6.4686311     142.4932  0.038932567  0.041148697            2 
  306000    1.2241268   -6.5293902    142.97949   0.03893777  0.041121291            3 
  307000    1.2121633   -6.5297551     143.2099   0.03887348  0.041094476            4 
  308000    1.1841083   -6.5122776     144.0821  0.038983252   0.04106746            3 
  309000    1.1737134   -6.4791295    144.40021  0.038942883  0.041042455            4 
  310000    1.2001416   -6.4989896    145.02945  0.038986411  0.041018402            4 
  311000    1.2043047   -6.4893751    145.39347  0.038958592  0.040993954            3 
  312000    1.2082546   -6.5318669    145.21063  0.038784892  0.040968622            4 
  313000    1.2312932   -6.5295697    145.75548  0.038806038  0.040942389            2 
  314000     1.173132   -6.4692985    146.85367  0.038973905  0.040916993            1 
  315000    1.2413587   -6.5423169    146.38021  0.038724923  0.040890794            2 
  316000    1.2041763   -6.5209011    147.06236  0.038782268   0.04086366            1 
  317000    1.2216775   -6.5219699    147.84335  0.038865235  0.040836275            1 
  318000    1.2287231   -6.5343177     147.7112  0.038708385  0.040811668            1 
  319000     1.187302   -6.5356122    148.40214  0.038767539  0.040785538            2 
  320000    1.1945558   -6.4930673    148.86321   0.03876646  0.040759812            1 
  321000    1.2057587   -6.5324854    149.11643  0.038711431  0.040735008            2 
  322000    1.2107739   -6.5617298     149.3529  0.038652407  0.040709626            2 
  323000     1.191739   -6.5466611    149.40179  0.038545353   0.04068451            1 
  324000    1.2229228   -6.5546369    150.11122  0.038608854  0.040658214            1 
  325000    1.1744263   -6.4477721    151.59242  0.038869852  0.040633382            2 
  326000    1.2000897   -6.5641296    151.48913  0.038724216  0.040609415            1 
  327000     1.189944    -6.545545    151.59431  0.038632597  0.040585065            1 
  328000    1.2332576    -6.497567    152.15611  0.038657548  0.040561556            2 
  329000    1.1931945   -6.4892682    152.87749  0.038722767  0.040538316            3 
  330000    1.1889135   -6.5106277    153.44841  0.038749598   0.04051517           11 
  331000    1.2286027   -6.5205296    153.81767  0.038725495  0.040491846            2 
  332000    1.1846935   -6.5300326    153.80704  0.038606184  0.040468488            3 
  333000    1.1882503   -6.4978038    154.33067  0.038621288  0.040445979            3 
  334000    1.1956232   -6.5132472    154.96855  0.038664807   0.04042264            2 
  335000    1.1705113   -6.5351084      154.903  0.038533085   0.04039944            1 
  336000    1.2214112   -6.5186918    155.57293  0.038584557  0.040375619            2 
  337000    1.1996817   -6.5320206     155.6824   0.03849713  0.040352238            3 
  338000    1.1851833   -6.5437666    156.45031  0.038572561   0.04032819            2 
  339000    1.1923506   -6.5356391    156.10691  0.038374363  0.040303363            3 
  340000     1.184256   -6.5274116    156.83973  0.038441109  0.040279007            1 
  341000    1.2061704   -6.5404234    157.53227  0.038497623  0.040254731            2 
  342000    1.2293308   -6.5531979    157.61328  0.038404795  0.040231091            7 
  343000    1.2017142   -6.5410833    158.01809  0.038391177   0.04020692            4 
  344000    1.2169499   -6.5610152    158.77637  0.038463267  0.040183951            1 
  345000    1.1850157   -6.4944439    159.59434  0.038549357   0.04016223            2 
  346000    1.1700192   -6.5443594    159.67669  0.038457776  0.040140678            2 
  347000    1.1884216    -6.526114    159.81597  0.038380397  0.040117933            3 
  348000     1.165342   -6.5783286    160.55039  0.038445974  0.040095396            2 
  349000    1.1963232   -6.5401213    160.91417  0.038422676  0.040073831            3 
  350000    1.1797135   -6.5436779    161.31906    0.0384093  0.040052047            2 
  351000     1.218953   -6.5437483    161.81666  0.038418011  0.040029981            2 
  352000    1.2051649   -6.5284431    161.91669  0.038332549  0.040008944            2 
  353000    1.1909962   -6.5031037    163.11689  0.038507292  0.039987677            2 
  354000    1.2040986    -6.537637    163.53752  0.038497533  0.039966305            2 
  355000    1.2199858      -6.5147     163.4313  0.038364154  0.039945627            4 
  356000    1.2006366   -6.5315162    163.79099  0.038340588  0.039924997            2 
  357000    1.1869225   -6.5258407      164.421  0.038380252   0.03990417            3 
  358000    1.2194555    -6.536569    164.84887  0.038372643  0.039882853            2 
  359000    1.2212876   -6.5116108    165.64036  0.038449481  0.039862438            3 
  360000    1.2042903   -6.5410218    166.00694  0.038427531  0.039843673            3 
  361000    1.2194958   -6.5788454     165.8389  0.038282295  0.039825268            2 
  362000     1.187271   -6.5434506    167.02553  0.038449708  0.039807992            2 
  363000    1.2022213   -6.5276487    167.22736  0.038390118  0.039790805            2 
  364000    1.1644015   -6.4963794    168.38368  0.038549376  0.039774323            1 
  365000    1.2068306   -6.5004903    169.18264  0.038626174  0.039759043            1 
  366000    1.1841867   -6.5883342    169.22566  0.038530432  0.039742455            2 
  367000    1.1951498   -6.5269927    169.25735   0.03843264   0.03972693            3 
  368000    1.1671718   -6.5188774     169.6744  0.038422644  0.039711237            3 
  369000    1.1911063   -6.5619038    169.92166  0.038374359  0.039695086            1 
  370000    1.2091349   -6.5253905    170.74619  0.038456348   0.03967894            2 
  371000    1.2171053   -6.5563369      171.356  0.038489667  0.039663553            3 
  372000    1.2040184   -6.5394674    172.51077  0.038644886  0.039648805            2 
  373000    1.1796359   -6.5538567    172.55277  0.038550663  0.039635715            2 
  374000    1.1931764   -6.5135454    172.71779  0.038484355  0.039622049            2 
  375000     1.177723   -6.5364274    174.79618  0.038843595  0.039610219            1 
  376000     1.181971   -6.5526329    174.47974  0.038670156  0.039598585            2 
  377000    1.1873921    -6.533964    175.24052  0.038735748  0.039588292            1 
  378000    1.2078353   -6.5304321    175.46247  0.038682202  0.039577665            1 
  379000    1.1665208   -6.5844851    175.50869  0.038590301  0.039566739            3 
  380000    1.1874762   -6.5468694    176.26806  0.038655276  0.039555774            2 
  381000    1.1697312   -6.5197504     176.6957  0.038647354  0.039545578            3 
  382000    1.2142912    -6.560515    177.34102   0.03868696   0.03953532            2 
  383000    1.2166669   -6.5355826    178.88581  0.038922065  0.039526831            1 
  384000    1.1839887   -6.5101125    178.86808  0.038816857   0.03951906            2 
  385000    1.1884587   -6.5384444    179.11693  0.038769897   0.03951076            4 
  386000    1.1709103   -6.5194834    180.24983  0.038914039  0.039503165            1 
  387000    1.1994846   -6.5278267    180.76053  0.038923455  0.039496115            1 
  388000    1.2042554   -6.5738203     180.3384  0.038732473   0.03948823            4 
  389000    1.1810257   -6.5629229    180.65856   0.03870149   0.03947966            2 
  390000    1.1806821   -6.5454165    181.14994  0.038707252  0.039472461            2 
  391000    1.1877797   -6.5630036     181.8411  0.038755562  0.039465161            2 
  392000    1.2178993   -6.5286207    182.40723  0.038777047   0.03945769            3 
  393000    1.1867293   -6.5742568    182.87877  0.038778364  0.039449967            2 
  394000    1.2013164   -6.5275282    183.38003  0.038785962  0.039441965            2 
  395000    1.1941213   -6.5242426     184.1356  0.038847173  0.039434838            3 
  396000    1.1820943   -6.5406141    184.71547    0.0388711  0.039427719            3 
  397000    1.2049717     -6.52159    184.65262  0.038759996  0.039420787           11 
  398000    1.2006729   -6.5161029    185.46704  0.038833132  0.039413089            2 
  399000    1.2183065    -6.562182     186.0918  0.038866291  0.039405664            2 
  400000    1.1829763    -6.579821     186.1849   0.03878852  0.039397846            1 
  401000    1.1689936   -6.5294681    186.74535   0.03880826  0.039390344            3 
  402000    1.1816014   -6.5388006    186.34631  0.038629003  0.039381927            1 
  403000    1.1961117   -6.5433314    187.20372  0.038710447  0.039374251            3 
  404000    1.1951782   -6.5181371    187.41385  0.038657973  0.039366139            6 
  405000    1.1808653    -6.551597    187.89308  0.038661127  0.039358039            5 
  406000    1.1679248   -6.5591523    188.64445  0.038720125  0.039350538            1 
  407000    1.1589083   -6.5514954     189.1545  0.038729423  0.039343381            2 
  408000    1.1741185   -6.5367422    190.07922  0.038823371  0.039337014            2 
  409000    1.1586204   -6.5155688    190.66603  0.038848009  0.039330454            4 
  410000    1.1991876   -6.5443362    190.46334  0.038712061  0.039324202            2 
  411000    1.2004703   -6.5337917    190.66739  0.038659244  0.039317769            2 
  412000    1.1668843   -6.5638358    191.49846  0.038733507  0.039310678            2 
  413000    1.1652847   -6.5116327    191.64539  0.038669368  0.039304051            3 
  414000     1.174581   -6.5432002    191.42613  0.038531829    0.0392958            1 
  415000    1.1746312   -6.5312984    191.98292  0.038550787  0.039286879            2 
  416000    1.1939902   -6.5130888    192.73843  0.038609461  0.039277955            1 
  417000    1.1703231   -6.5216836    193.50517  0.038670098  0.039269166            2 
  418000    1.1730166    -6.573781    192.96242  0.038469383  0.039260024            2 
  419000    1.1833652   -6.5396962    194.56939  0.038697173    0.0392518            5 
  420000    1.1924822   -6.5662536     194.8992  0.038670476  0.039245019            2 
  421000    1.1690023   -6.5533889    195.13045  0.038624396  0.039239258            3 
  422000    1.1909685   -6.5337886    196.38383  0.038780378  0.039232956            1 
  423000    1.1981278   -6.5556149    196.30717  0.038673596  0.039226014            3 
  424000    1.1770504   -6.5471876    197.29834   0.03877719  0.039219514            1 
  425000    1.1944816    -6.526661    197.44498  0.038714702  0.039213156            1 
  426000    1.2153263   -6.5342605    197.27373  0.038590323  0.039206267            2 
  427000    1.1673371   -6.5959034    197.23059  0.038491529  0.039198704            3 
  428000    1.1978265   -6.5777876    198.17091  0.038584679   0.03919181            2 
  429000     1.172826    -6.539706    198.86993  0.038630522  0.039184636            2 
  430000    1.2138246   -6.5458601    199.37773  0.038639096  0.039177917            3 
  431000    1.2011163   -6.5452912    200.03769  0.038677047  0.039171731            3 
  432000    1.1718821    -6.549902    200.16152  0.038611405  0.039165129            2 
  433000    1.1822227   -6.5502524    201.10771  0.038704332  0.039159428            2 
  434000    1.1475753   -6.5428654    201.14532  0.038622372  0.039154122            3 
  435000    1.1594456   -6.5672079    201.88755  0.038675777  0.039148766            3 
  436000    1.1963295   -6.5287833    202.48861  0.038701951  0.039143504            3 
  437000    1.1999745   -6.5315524    202.87993  0.038688011  0.039138663            1 
  438000    1.1549098   -6.5769505    203.37069  0.038693054  0.039133442            1 
  439000    1.2032142   -6.5718753    203.95621  0.038716061  0.039128132            3 
  440000    1.1797233   -6.5443264    203.71922  0.038583186   0.03912268            1 
  441000    1.1752683   -6.5672616    204.76435  0.038693188  0.039117814            4 
  442000    1.2014515   -6.5850229    204.87268  0.038626071  0.039113056            1 
  443000    1.1678404   -6.5444785    205.90884  0.038733791  0.039108002            2 
  444000     1.182363     -6.53342    206.79909  0.038813643   0.03910348            3 
  445000     1.202319   -6.5728725    206.40497  0.038652616  0.039098901            2 
  446000    1.1854672   -6.5455813    207.73429  0.038814329  0.039094918            5 
  447000    1.1707724   -6.5656675    207.86229  0.038751359    0.0390906            6 
  448000    1.2014264   -6.5651338    207.84357  0.038661378   0.03908587            3 
  449000    1.1890056   -6.5224473    209.30774   0.03884702  0.039081205            1 
  450000    1.1764926    -6.508407     209.0649  0.038715723  0.039077455            2 
  451000    1.1751999   -6.5515484    209.35056  0.038682661  0.039074292            3 
  452000      1.19288   -6.5409252    210.75239   0.03885553  0.039070637            6 
  453000    1.1747582   -6.4987875    210.56041  0.038734438  0.039067342            2 
  454000    1.2027085   -6.5299714    211.27387  0.038780079    0.0390637            2 
  455000    1.1689839   -6.5769201    212.23119  0.038870182  0.039061013            2 
  456000    1.1727437   -6.5836884    211.86102  0.038717292   0.03905781            4 
  457000    1.1726357   -6.5440882    212.37491  0.038726279   0.03905449            2 
  458000    1.1861491   -6.5827217    212.26085  0.038620971  0.039051799            2 
  459000    1.1653817   -6.5899278    213.12442  0.038693613  0.039048224            1 
  460000    1.1638285    -6.607934    213.49963  0.038677469  0.039044867            3 
  461000    1.1906639   -6.5786895    213.87415  0.038661271  0.039040625            2 
  462000    1.1792484   -6.5577792      213.964  0.038593795  0.039036085            3 
  463000    1.1918256   -6.5531355    214.51036  0.038608776  0.039030762            3 
  464000    1.1773619   -6.5734733    214.82053  0.038581273  0.039025713            3 
  465000    1.1580614   -6.5752036    215.30615  0.038585332  0.039020952            1 
  466000    1.1720025   -6.5864989    216.12488  0.038648941   0.03901597            3 
  467000    1.1875097   -6.5673318    216.94158  0.038711916  0.039011065            2 
  468000    1.1985253   -6.5823679    217.16608  0.038669174  0.039005989            2 
  469000    1.2015085   -6.5528226    217.40035  0.038628349  0.039001466            5 
  470000    1.1692984   -6.5843418    217.85754  0.038627223   0.03899785            2 
  471000    1.1810131   -6.5737937    218.58184  0.038673361  0.038993999            2 
  472000    1.1681925    -6.591846    218.68839  0.038610238  0.038990017            2 
  473000    1.2044842   -6.5765842    219.70668  0.038708013  0.038986311            3 
  474000    1.1783768   -6.5488632    220.56187  0.038776701  0.038983514            4 
  475000     1.168876   -6.5544543    221.24206  0.038814396  0.038980129            4 
  476000    1.1524357   -6.5601398    220.83179  0.038661028   0.03897684            2 
  477000     1.148307   -6.5815181    221.62205  0.038718037  0.038973404            2 
  478000    1.1683789   -6.5453821    222.56148  0.038800815  0.038970058            3 
  479000    1.1820307   -6.5700895    222.72556  0.038748358  0.038965923            1 
  480000    1.1645018   -6.5654201    222.11487  0.038561609  0.038962563            4 
  481000    1.1797682   -6.5334814    223.50027  0.038721461  0.038959236            2 
  482000    1.1823759   -6.5618913    224.50578  0.038814968  0.038956038            2 
  483000    1.1902509   -6.5776438    224.92421  0.038806799  0.038953469            6 
  484000     1.183933   -6.5463439    225.98214  0.038908771  0.038952056            1 
  485000    1.1776476   -6.5854776    226.17999  0.038862541  0.038951216            1 
  486000    1.1706262   -6.5571973    226.57149  0.038849707  0.038950994            1 
  487000    1.1655631   -6.6158297    226.94638  0.038834083  0.038950509            3 
  488000    1.1861994   -6.5679139     228.1751  0.038964327  0.038950935            1 
  489000    1.1584537   -6.6007151    228.36582  0.038917147  0.038951658            3 
  490000    1.1808651   -6.5879926    229.12216  0.038966354  0.038951832            2 
  491000     1.171722   -6.6014567    229.66162  0.038978551  0.038952616            2 
  492000    1.1696239   -6.5875022    230.24368  0.038997913  0.038953047            3 
  493000     1.197703   -6.5735473    230.94651  0.039037612  0.038953964            7 
  494000     1.164967   -6.5722591    231.12401   0.03898853  0.038954534            3 
  495000    1.1875003   -6.5696916    231.82301  0.039027442  0.038955773            3 
  496000    1.1581452   -6.5668701     233.2715   0.03919212  0.038957104            2 
  497000    1.2021795    -6.590417    232.84767  0.039042198  0.038958708            4 
  498000    1.1628906   -6.5557893    233.56509  0.039083851  0.038959533            2 
  499000    1.1915462   -6.5952383    233.42408  0.038981977  0.038959513            2 
  500000    1.1802494   -6.6044777    233.73894  0.038956491  0.038959522            1 
  501000    1.1504532    -6.572432    234.35239   0.03898077  0.038960233            2 
  502000    1.1959041   -6.5763088    234.32474   0.03889853  0.038960951            3 
  503000    1.1911504    -6.534466     235.5124  0.039017958  0.038961011            2 
  504000    1.1610503   -6.4835876    235.92221  0.039008302  0.038961171            1 
  505000    1.1730438   -6.5421617     236.2697  0.038988399  0.038960148            1 
  506000    1.1822053   -6.5948781    235.76796  0.038828715  0.038958841            2 
  507000    1.1516985   -6.5991472    235.21659  0.038661504  0.038957243            2 
  508000    1.1575973   -6.5973114    235.82815  0.038685721  0.038954448            2 
  509000     1.152765   -6.5869977     236.0943   0.03865329  0.038951311            2 
  510000    1.1737365   -6.5412279    237.31193  0.038776458  0.038947776            2 
  511000    1.1737255   -6.6047361    237.26462  0.038692861  0.038945082            4 
  512000    1.1513642   -6.5835001    237.25691  0.038616034  0.038941399            2 
  513000    1.1684929    -6.629429    237.32461  0.038551756  0.038936952            1 
  514000    1.1787342   -6.5505851    238.39192  0.038649793  0.038932704            2 
  515000    1.1634284   -6.6063692    237.85611  0.038488044  0.038928646            1 
  516000    1.1845114   -6.5801503    239.26167   0.03864045  0.038924426            3 
  517000    1.1820842   -6.5727486    239.93598    0.0386744  0.038921108            2 
  518000     1.173468   -6.5666568    240.19398  0.038641245   0.03891808            3 
  519000    1.1825206   -6.5422679    241.73236  0.038813802  0.038915571            1 
  520000    1.1641005   -6.5514986    242.65279  0.038886665  0.038914241            1 
  521000    1.1841849   -6.5488521    242.46304  0.038781676  0.038912693            2 
  522000    1.1947562   -6.6062634    242.54033  0.038719721  0.038910938            2 
  523000    1.1740531   -6.6163637     242.9813   0.03871595  0.038909338            5 
  524000    1.1587591   -6.6058147    243.48705  0.038722495  0.038907554            2 
  525000    1.1765927   -6.5944849    243.82121   0.03870178  0.038905342            2 
  526000    1.1538104   -6.5655733    245.50641  0.038895185  0.038903841            3 
  527000    1.1509986   -6.5726889    244.86091  0.038719309  0.038902233            3 
  528000    1.1819965   -6.5291837    246.72559  0.038940276  0.038900712            2 
  529000    1.1666104   -6.5613518    246.09092  0.038766685  0.038899672            1 
  530000    1.1557302   -6.6044505    246.15931  0.038704294  0.038897428            1 
  531000     1.165929    -6.620357    246.67076  0.038711669  0.038895113            4 
  532000    1.1633407   -6.5470313    247.67699  0.038796521   0.03889338            1 
  533000    1.1758631   -6.5755821    248.19412  0.038804585  0.038891641            1 
  534000    1.1974084   -6.6284371    247.91016  0.038687603  0.038889613            2 
  535000    1.1337359    -6.580807    249.18414  0.038813729  0.038887753            3 
  536000    1.1659938   -6.6447837    248.87828  0.038693762  0.038886894            3 
  537000    1.1466555   -6.5747015    250.11069  0.038812956  0.038885039            2 
  538000    1.1647938   -6.5841295    250.06109   0.03873313  0.038884039            3 
  539000    1.1860038   -6.6210646    250.58949  0.038742963  0.038882821            4 
  540000     1.127556      -6.6166    251.91806  0.038876243  0.038882031            1 
  541000    1.1621793   -6.5920886    252.70184  0.038925114  0.038881414            3 
  542000    1.1559097   -6.5663723    253.02002  0.038902216  0.038880007            2 
  543000    1.1671695   -6.6108966    252.05616  0.038682652  0.038878988            4 
  544000     1.163799   -6.6103581    252.08639  0.038616174  0.038877077            1 
  545000    1.1554403   -6.5814319    253.86936  0.038817946  0.038874929            2 
  546000    1.1682811   -6.5856937    253.59552  0.038705055  0.038873957            2 
  547000    1.1279445   -6.5808867    254.01484  0.038698178  0.038872714            4 
  548000    1.1456297   -6.5770301    255.28841   0.03882123  0.038871729            3 
  549000    1.1609535   -6.5471088    256.54103  0.038940655  0.038871083            2 
  550000    1.1483067   -6.5545203     256.0779  0.038799682  0.038870173            2 
  551000    1.1935652   -6.5844562    256.67957  0.038820261  0.038869067            2 
  552000    1.1503598   -6.6144964    256.06972  0.038657868  0.038866845            3 
  553000    1.1638095   -6.5630361    256.80242  0.038698375  0.038864535            1 
  554000    1.1460548   -6.5979086    256.50994  0.038584528  0.038862032            2 
  555000    1.1537076    -6.631528    257.93466  0.038728928  0.038859264            2 
  556000    1.1442742   -6.5814115    258.14354  0.038690578  0.038856627            2 
  557000    1.1801066    -6.607408    258.09238  0.038613462  0.038853764            2 
  558000    1.1682974   -6.5666959    259.51405  0.038756578  0.038850641            2 
  559000    1.1499639    -6.546472    259.04349  0.038617097  0.038847634            2 
  560000    1.2057694   -6.6015837    260.22244  0.038723578  0.038844666            2 
  561000     1.171359   -6.5788785    260.29401  0.038665182   0.03884193            3 
  562000    1.1681259   -6.5571959    260.57583  0.038638171  0.038838657            2 
  563000    1.1662385   -6.5983226    260.36441   0.03853825  0.038835568            1 
  564000    1.1720585   -6.5941334    261.86285   0.03869132  0.038833109            3 
  565000     1.192096   -6.5449026    262.41022  0.038703572  0.038830513            2 
  566000    1.1505586   -6.5777665    263.00618  0.038722935   0.03882837            3 
  567000    1.1551484   -6.6043397    262.78005  0.038621407  0.038826577            1 
  568000    1.1562334   -6.5794457    264.36113  0.038785376  0.038824892            2 
  569000    1.1582303   -6.5776074    265.57522  0.038895023  0.038823397            2 
  570000    1.1794154    -6.582764    263.90212  0.038582181  0.038821545            2 
  571000    1.1543741   -6.5910873    263.88575  0.038512222  0.038819081            2 
  572000    1.1697842   -6.5806672    265.08781  0.038620019   0.03881647            7 
  573000    1.1602455   -6.6212597    266.21919   0.03871716  0.038813711            2 
  574000    1.1696339   -6.6205991    265.42593  0.038534543   0.03881081            2 
  575000    1.1508746   -6.6025767    265.52125  0.038481341  0.038807631            1 
  576000    1.1565545   -6.6182547    266.40713  0.038542698  0.038804527            1 
  577000    1.1627885   -6.6036085     267.4867  0.038631817  0.038801842            1 
  578000     1.175226   -6.5344673    266.82999  0.038470299  0.038799153            2 
  579000    1.1536197      -6.5835     268.1271  0.038590543  0.038796705            2 
  580000    1.1812944   -6.5729106    268.77958  0.038617756  0.038793908            5 
  581000    1.1711467   -6.6060815     269.0212  0.038585944  0.038791617            3 
  582000    1.1602449   -6.5775289    270.12176  0.038677228  0.038788752            1 
  583000    1.1721395   -6.5649733     269.3181  0.038496013  0.038786288            3 
  584000    1.1661416   -6.6216126    270.08237   0.03853915  0.038783151            6 
  585000    1.1749064    -6.570623    270.18124  0.038487356  0.038779256            3 
  586000    1.1503006   -6.6334046    270.24338  0.038430515  0.038775164            2 
  587000    1.1454872   -6.6171901    271.00931   0.03847378  0.038771373            3 
  588000    1.1532178   -6.6184963    271.45886  0.038472061  0.038767238            3 
  589000    1.1414315   -6.6117023    272.72096  0.038585308  0.038762927            2 
  590000    1.1599384   -6.6129463    272.43195  0.038479089  0.038759477            2 
  591000    1.1757996   -6.6151805    271.91285  0.038340785  0.038755366            3 
  592000    1.1328435    -6.609854    272.96001  0.038423424  0.038751006            3 
  593000    1.1681316   -6.6210063    272.83076  0.038340467  0.038746762            8 
  594000    1.1463944   -6.6059253    273.24195  0.038333607  0.038742438            2 
  595000    1.1457184   -6.5830708    274.59748  0.038459031  0.038737977            2 
  596000    1.1488552   -6.5831172    274.37673  0.038363637  0.038733837            3 
  597000    1.1764852   -6.6083551    275.09112  0.038399096   0.03872967            2 
  598000    1.1233828   -6.6005794    276.13045  0.038479717  0.038726032            2 
  599000    1.1550166   -6.6543392    275.77353  0.038365822  0.038721835            4 
  600000    1.1645974   -6.6023841    276.26298  0.038369858  0.038717244            2 
  601000    1.1559023   -6.5901222    276.27086  0.038307108  0.038712287            3 
  602000    1.1658978   -6.6434433    276.33093   0.03825179  0.038707143            3 
  603000     1.175965     -6.59797    277.23815  0.038313729   0.03870191            4 
  604000    1.1561052   -6.5970484    277.04679  0.038223895  0.038696554            1 
  605000    1.1616118   -6.6095735    277.22954  0.038185887  0.038690475            2 
  606000    1.1797495   -6.5971409    277.26196  0.038127332  0.038684051            3 
  607000    1.1514021   -6.6491711    276.49926   0.03795981  0.038677409            2 
  608000    1.1666461   -6.6242621    277.02136  0.037968937  0.038670409            2 
  609000    1.1532796   -6.6149759    278.26226   0.03807639  0.038663436            3 
  610000    1.1741923   -6.6489587    277.82548    0.0379543  0.038656471            2 
  611000    1.1560622   -6.6197871    279.02152  0.038055308  0.038649352            2 
  612000    1.1503744   -6.5552612    280.16397  0.038148688  0.038642727            3 
  613000    1.1601173   -6.6040871    280.25764   0.03809919  0.038635674            2 
  614000    1.1552029   -6.6286573    280.47912  0.038067199  0.038628398            4 
  615000    1.1650428   -6.6012527    281.27878  0.038113655  0.038621336            3 
  616000    1.1756704   -6.5771937    282.05331  0.038156563  0.038614518            3 
  617000    1.1902143   -6.6010806    280.92896  0.037942864  0.038607296            2 
  618000    1.1609692   -6.5815883    281.64032  0.037977389  0.038600077            2 
  619000    1.1473921   -6.6186418    281.07831  0.037840375  0.038592724            1 
  620000     1.152684   -6.5961357    282.32438  0.037946825  0.038585553            3 
  621000    1.1602857   -6.6186002    282.30786  0.037883503  0.038578118            2 
  622000    1.1363385   -6.6068859    282.68263  0.037872807  0.038570009            2 
  623000    1.1371178   -6.6374528    282.73709    0.0378193  0.038561326            3 
  624000    1.1366332   -6.5870494    284.08044  0.037938093  0.038553602            3 
  625000    1.1594809    -6.593949    283.91895   0.03785586  0.038545956            2 
  626000    1.1258147   -6.5895754    285.24538  0.037971962  0.038538301            1 
  627000     1.158858   -6.6274678    284.62398  0.037828811   0.03853077            6 
  628000    1.1443146    -6.607281    284.93796  0.037810239  0.038522918            2 
  629000    1.1729906   -6.6061959    286.16153  0.037912232  0.038515682            4 
  630000    1.1568247    -6.622125    285.86767  0.037813184  0.038507997            2 
  631000    1.1530101   -6.6362135    286.49224  0.037835742  0.038500071            3 
  632000    1.1414033   -6.5939303    288.60057  0.038053873  0.038492131            4 
  633000    1.1556958   -6.5879098    287.68911  0.037873764  0.038484354            4 
  634000    1.1598761   -6.6283138    287.43837  0.037781068   0.03847604            1 
  635000    1.1714522    -6.633979    288.73235  0.037891384  0.038468375            3 
  636000    1.1442528   -6.5874224    289.97874  0.037995118  0.038461107            1 
  637000    1.1546512   -6.6372892    288.96177  0.037802429  0.038453369            4 
  638000    1.1600392   -6.5940498    289.42649  0.037803877  0.038445961            2 
  639000    1.1772115   -6.6384497    290.08108  0.037830084  0.038438962            2 
  640000    1.1531264   -6.6178418    291.60908  0.037969932  0.038432074            1 
  641000    1.1391791   -6.6156042    291.92697  0.037952025  0.038425747            3 
  642000    1.1623029   -6.6474631    291.67717  0.037860484  0.038419155            2 
  643000    1.1592384   -6.6186287    291.86495   0.03782594  0.038412316            2 
  644000    1.1299608    -6.600909    292.82263  0.037891127  0.038405305            3 
  645000    1.1559566   -6.6324509    293.99275  0.037983559  0.038398744            2 
  646000    1.1736713    -6.618331     293.5771  0.037871143  0.038392192            2 
  647000    1.1400353   -6.6132402    294.42753  0.037922144  0.038385404            1 
  648000     1.144902   -6.6123202    294.92717  0.037927876  0.038378684            2 
  649000    1.1548821   -6.6111821    294.47035  0.037810779  0.038372088            2 
  650000     1.134215   -6.6130378    294.89759  0.037807384  0.038365282            3 
  651000    1.1608706    -6.604098    296.08862  0.037901768  0.038358431            3 
  652000    1.1715022   -6.6410581    296.78289  0.037932374  0.038351763            1 
  653000    1.1507172   -6.6239708    296.30882  0.037813785  0.038344998            3 
  654000    1.1720879   -6.6917588    295.38056  0.037637686  0.038337551            7 
  655000    1.1338195   -6.6099635    296.71498  0.037749998  0.038330445            3 
  656000    1.1395453   -6.6089796    296.63062  0.037681735  0.038323072            2 
  657000    1.1374316   -6.6127151    297.25934  0.037704128  0.038315873           10 
  658000    1.1421291   -6.6202461    297.92078  0.037730595  0.038308113            2 
  659000    1.1634523   -6.6103579     297.3812  0.037605108  0.038300576            2 
  660000    1.1322595   -6.6136451    298.51635  0.037691459  0.038293358            2 
  661000    1.1577165   -6.6241994    298.76493  0.037665775  0.038286238            3 
  662000    1.1526483   -6.6169239    300.44204  0.037819995  0.038279712            1 
  663000     1.138531   -6.5760167    300.87892  0.037817864  0.038272514            1 
  664000    1.1256894   -6.6073175    300.64521  0.037731578  0.038265576            2 
  665000    1.1570496   -6.5784196    302.14112  0.037862296   0.03825859            4 
  666000     1.160226   -6.5901538    302.25612  0.037819835  0.038251708            2 
  667000    1.1334481   -6.6613153    301.77081    0.0377025  0.038245446            2 
  668000    1.1443675   -6.6464193    302.29645  0.037711633  0.038238829            2 
  669000    1.1678406   -6.6370912    302.47572  0.037677593  0.038232174            1 
  670000     1.157547   -6.6208416    303.40201  0.037736569  0.038225054            3 
  671000    1.1367386   -6.6520479    302.93133  0.037621874  0.038217643            6 
  672000    1.1506082   -6.6337133    303.31016  0.037612867  0.038210192            3 
  673000    1.1521349   -6.6379313    303.23724  0.037547949  0.038202885            3 
  674000    1.1415483   -6.6551927    304.79955  0.037685405  0.038195518            3 
  675000    1.1849458   -6.6337306    305.87359  0.037762172  0.038189204            2 
  676000    1.1683996   -6.6435051     306.0652  0.037729931  0.038183055            4 
  677000    1.1495646   -6.6173334    308.08382  0.037922676  0.038176849            2 
  678000    1.1270006   -6.6468419    307.20341  0.037758532  0.038170972            2 
  679000    1.1417975   -6.6434877     306.1368  0.037572018  0.038165101            3 
  680000    1.1801053   -6.6697181    307.66284   0.03770378  0.038159136            3 
  681000    1.1608697   -6.6491875    308.04409  0.037695068  0.038153426            2 
  682000    1.1631942   -6.6038367    309.27659  0.037790395  0.038147429            2 
  683000    1.1670001   -6.6389849    307.74462  0.037548148  0.038141501            2 
  684000    1.1350289   -6.6020691    310.62424  0.037844084  0.038135679            1 
  685000    1.1310745   -6.5710801    309.95199  0.037707055  0.038130407            2 
  686000    1.1306413   -6.6629504    309.82856  0.037637094  0.038124573            1 
  687000    1.1568489   -6.6264907    310.17923  0.037624846   0.03811824            1 
  688000    1.1438912   -6.6336959    310.56327  0.037616676  0.038111816            2 
  689000    1.1126657   -6.6188846    311.85956  0.037718863  0.038105736            3 
  690000    1.1374526   -6.6235478    311.43363  0.037612757  0.038099952            5 
  691000    1.1533235   -6.6108337    312.85775  0.037730071  0.038093873            3 
  692000    1.1278316    -6.620362    312.68726  0.037655017  0.038087811            2 
  693000    1.1305806   -6.6314706    313.32097  0.037676884   0.03808177            2 
  694000    1.1322695    -6.627431    314.51361  0.037765803  0.038075834            2 
  695000    1.1647958   -6.6778564    313.51241  0.037591416  0.038069639            3 
  696000    1.1334654   -6.6372491    314.93644  0.037707907   0.03806362            5 
  697000    1.1805691   -6.6353162    314.74022  0.037630347  0.038057548            2 
  698000    1.1469835   -6.6148126    315.80919  0.037704058  0.038051723            1 
  699000    1.1246394   -6.6268367    315.85025  0.037655013   0.03804594            2 
  700000    1.1357296   -6.6401883    316.36616  0.037662638  0.038040375            2 
  701000    1.1478795   -6.6487451    316.24739  0.037594792  0.038034589            3 
  702000    1.1214272   -6.6822715    315.74748  0.037481895  0.038028406            2 
  703000    1.1423376   -6.5975733    317.47347  0.037633176  0.038022161            2 
  704000    1.1501199   -6.6504929    317.77424  0.037615322  0.038016185            2 
  705000    1.1489506   -6.6833575    317.38717  0.037516214  0.038010158            4 
  706000    1.1189047   -6.6661896    318.44179  0.037587557   0.03800438            6 
  707000     1.136066   -6.6181904    318.57871  0.037550532  0.037998156            3 
  708000    1.1353536   -6.6251751    318.94863  0.037541035   0.03799193            3 
  709000    1.1524538   -6.6224015    320.47046  0.037666955  0.037986126            3 
  710000    1.1575862   -6.6109932    320.79547  0.037652051   0.03798038            7 
  711000     1.127026   -6.6569448    320.64957  0.037581994   0.03797402            2 
  712000    1.1322275   -6.6528344    319.93548  0.037445632   0.03796763            2 
  713000    1.1535403   -6.6542691    320.90715   0.03750668  0.037961379            2 
  714000    1.1602609   -6.6055197     322.1282  0.037596662  0.037955078            2 
  715000    1.1405803   -6.6633689    322.22167  0.037554973  0.037948837            6 
  716000    1.1472059   -6.6675885    321.76721  0.037449629  0.037942551            4 
  717000    1.1210895   -6.6958035     322.3656  0.037466945  0.037936118            3 
  718000    1.1620027   -6.6227678    323.20675   0.03751239  0.037929712            2 
  719000    1.1545965   -6.6212056    323.18767  0.037458006  0.037923215            2 
  720000    1.1372715   -6.6211716    324.16251  0.037518809  0.037916965            1 
  721000    1.1401161   -6.6715698    323.43786  0.037383016  0.037910817            2 
  722000    1.1545518   -6.6296397    323.81499  0.037374768  0.037904342            6 
  723000    1.1493603    -6.645143     325.3053  0.037494848  0.037897583            2 
  724000    1.1254667   -6.6406779    325.92598  0.037514501  0.037891043            3 
  725000    1.1529225    -6.677911    325.31126  0.037392098  0.037884741            2 
  726000    1.1073681   -6.6534063    325.03152  0.037308485  0.037878185            2 
  727000    1.1151793   -6.6354165    326.59335  0.037436193  0.037870746            2 
  728000    1.1414884   -6.6212204    326.83036    0.0374119  0.037863403            4 
  729000     1.158644   -6.6478171    326.99835  0.037379784  0.037856018            1 
  730000    1.1454156   -6.6301316    327.71751  0.037410674   0.03784868            2 
  731000    1.1145358   -6.6637118    327.36999  0.037319881  0.037841659            2 
  732000    1.1238032   -6.6763303     327.1708   0.03724622  0.037834577            1 
  733000    1.1453825   -6.6148671    329.35325  0.037443525   0.03782785            2 
  734000     1.124134   -6.6482871    328.26562   0.03726903  0.037820956            2 
  735000    1.1299737   -6.6188638    329.62365  0.037372296  0.037813805            1 
  736000    1.1253608    -6.680246    330.15025  0.037381142  0.037806601            2 
  737000    1.1366677   -6.6278763     330.3797  0.037356366  0.037799523            4 
  738000    1.1422092   -6.6499872    330.66901  0.037338415  0.037792899            2 
  739000    1.1394776   -6.6426301    331.54066  0.037386182  0.037786162            2 
  740000    1.1552174   -6.6654918    331.93621  0.037380203  0.037779704            1 
  741000    1.1537243   -6.6705961     331.8996  0.037325641  0.037773066            2 
  742000    1.1185233   -6.6254234    331.56094  0.037237303  0.037766451            3 
  743000    1.1494377   -6.6721549    331.91956  0.037227406  0.037759728            4 
  744000    1.1295385   -6.6560678    333.05075  0.037304072  0.037752647            5 
  745000    1.1237149   -6.6656999    333.38401  0.037291276  0.037745643            2 
  746000    1.1459544   -6.6146535    334.30137  0.037343764   0.03773881            3 
  747000     1.126882   -6.6264657    334.56106  0.037322742  0.037732307            3 
  748000    1.1404274   -6.6813959    333.71124  0.037178168  0.037725716            2 
  749000    1.1357826   -6.6235898      335.004  0.037272364  0.037718812            2 
  750000     1.131865    -6.616345    335.77213  0.037308015  0.037712497            2 
  751000    1.1304569   -6.6057704    337.41401  0.037440525  0.037706039            2 
  752000    1.1119971   -6.6443067    336.18817  0.037254895  0.037699945            4 
  753000    1.1258005   -6.6147466    337.36291  0.037335426  0.037693773            2 
  754000    1.1069887   -6.6220909    336.82292  0.037226229  0.037686853            4 
  755000    1.1327112    -6.694058     336.9476  0.037190684    0.0376803            2 
  756000    1.1180304   -6.6279815      337.675  0.037221671  0.037673737            6 
  757000    1.1499807   -6.6371482    338.53808  0.037267512  0.037667322            1 
  758000    1.1365985   -6.6344352     338.4567  0.037209399  0.037661251            4 
  759000    1.1373008   -6.6909514    339.05076    0.0372256  0.037655037            2 
  760000    1.1317561   -6.5980579    341.05311  0.037396174   0.03764899            2 
  761000     1.099786   -6.6375774    341.03351  0.037344887  0.037643247            2 
  762000    1.1523057    -6.621663    341.33198  0.037328519  0.037637079            3 
  763000    1.1267398   -6.6815733    339.78742  0.037110902  0.037630423            3 
  764000    1.1269354   -6.6373496    340.93142  0.037187109  0.037623507            3 
  765000    1.1306236   -6.6313063    340.79245  0.037123361  0.037616601            2 
  766000    1.1156783   -6.6711216    340.77143   0.03707261  0.037609245            4 
  767000    1.1163307   -6.6879448    341.64852   0.03711957  0.037601747            5 
  768000    1.1368863   -6.6739708    341.54955  0.037060498  0.037594726            2 
  769000    1.1349543    -6.655433    342.81008  0.037148904  0.037587491            3 
  770000    1.1327151   -6.6892816    342.77398  0.037096751  0.037580679            3 
  771000    1.1219907   -6.6696853    342.91832  0.037064237  0.037573613            1 
  772000    1.1320598   -6.6759567    343.45662  0.037074333  0.037566761            2 
  773000    1.1587243   -6.6533246    343.44065  0.037024649  0.037559754            2 
  774000       1.1425   -6.6536495     343.4013  0.036972577   0.03755234            1 
  775000    1.1435983     -6.62741    344.25816  0.037017006   0.03754513            4 
  776000     1.116772   -6.6640153    344.95056   0.03704366  0.037538166            2 
  777000    1.1491513   -6.6397036    347.16313  0.037233283  0.037531143            1 
  778000    1.1146643   -6.6431139    347.13524  0.037182438  0.037524267            2 
  779000    1.1210415   -6.6643117    347.25319  0.037147325   0.03751746            3 
  780000    1.1277751   -6.6546809      347.733  0.037150962  0.037510586            3 
  781000    1.1280102   -6.6440096    347.18963  0.037045415  0.037503979            3 
  782000    1.1590442   -6.6524807    348.65286  0.037153971  0.037497808            4 
  783000    1.1363708   -6.6518432    348.82765  0.037125122   0.03749139            2 
  784000    1.1172208   -6.6701784    347.94928  0.036984405   0.03748468            2 
  785000    1.1460666   -6.6369814    349.39294  0.037090546  0.037478035            2 
  786000    1.1266511   -6.6676655    349.47353  0.037051901  0.037471728            3 
  787000    1.1307879   -6.6907904    350.22856  0.037084769  0.037464932            5 
  788000    1.1444289   -6.6854343    350.76874  0.037094833  0.037458298            2 
  789000    1.1106662   -6.6387958    351.03376  0.037075809  0.037451765            2 
  790000    1.1215021    -6.670786    350.66471  0.036989948  0.037444765            2 
  791000    1.0936298    -6.644843    352.08209  0.037092509  0.037437615            2 
  792000    1.1372592   -6.6693203     351.6537    0.0370006   0.03743031            5 
  793000    1.1412234   -6.6775302    351.21047  0.036907363  0.037423148            6 
  794000     1.131139    -6.652243    352.01957  0.036945799  0.037416048            1 
  795000    1.1131139   -6.6870416    352.86247  0.036987681  0.037408711            2 
  796000    1.1260949   -6.6288673     352.6753  0.036921619  0.037401425            3 
  797000    1.1097766   -6.6634757    352.80443  0.036888794  0.037393826            2 
  798000    1.1433588   -6.6298017    353.38512  0.036903208  0.037386223            2 
  799000     1.146375   -6.6716129    353.49318  0.036868292  0.037378565            3 
  800000    1.1256262   -6.6777735    353.30193  0.036802285   0.03737105            2 
  801000    1.1077726    -6.653269    353.82828  0.036811099  0.037363417            2 
  802000    1.1185626    -6.671997    355.21708  0.036909505  0.037355961            4 
  803000    1.1174125   -6.6785689    354.63246   0.03680287  0.037348443            2 
  804000    1.1124855   -6.6551821    355.96305  0.036895009  0.037340979            2 
  805000    1.1175348   -6.6787221    354.96143  0.036745489   0.03733364            3 
  806000    1.1254364   -6.6892278    357.16761  0.036927999  0.037325796            1 
  807000    1.1213398   -6.6825246    355.81544   0.03674261   0.03731806            2 
  808000    1.1206332   -6.6871265    356.42772  0.036760285  0.037310126            3 
  809000    1.1213156   -6.6744797    357.79557  0.036855745   0.03730216            1 
  810000    1.1239998   -6.6829223    356.91869   0.03672003  0.037294111            3 
  811000    1.1042134   -6.6763493    357.39061  0.036723244  0.037285974            4 
  812000    1.1255356   -6.6559445    358.54317  0.036796303  0.037277826            3 
  813000    1.1119842   -6.7027673    357.46224  0.036640246  0.037269976            4 
  814000     1.117591   -6.6783268    358.97472  0.036750073  0.037261908            4 
  815000    1.1354993   -6.6856522    358.25596  0.036631489  0.037254293            1 
  816000    1.1518591   -6.6694959    360.72845  0.036839098  0.037246575            3 
  817000    1.1297773   -6.6799059    359.73909  0.036693094  0.037238878            7 
  818000    1.1252076   -6.6860935    359.39247  0.036612925  0.037230877            2 
  819000    1.1192053   -6.6596477    361.05041  0.036736916  0.037223116            2 
  820000    1.1072411   -6.6936124    360.22404  0.036608134  0.037215303            2 
  821000    1.1186411   -6.6955497    361.49057  0.036692101  0.037207603            2 
  822000    1.1442947   -6.7047827    361.52391  0.036650843  0.037199784            4 
  823000    1.1227338   -6.6825891    361.97552  0.036652037  0.037191649            3 
  824000    1.1151515   -6.6792132     361.0841  0.036517405  0.037183526            2 
  825000    1.1167979   -6.6864848    361.88349  0.036553888  0.037175379            3 
  826000    1.1364285   -6.6411847    361.85575  0.036506835  0.037167618            2 
  827000     1.116114   -6.6648713    364.04839  0.036683635  0.037159871            2 
  828000    1.1425413   -6.6659779    363.88216  0.036622601  0.037152284            3 
  829000    1.1375402   -6.6683122    364.75898  0.036666564  0.037144764            3 
  830000    1.1196647    -6.698969    364.70154   0.03661662  0.037136934            1 
  831000    1.1033925   -6.6967746    364.76871  0.036579293  0.037128926            4 
  832000    1.1483383   -6.6836051     366.5232  0.036711058  0.037121635            1 
  833000    1.1380068   -6.6352022    366.02812  0.036617459  0.037114487            2 
  834000    1.1157986   -6.6658006    367.07424  0.036678082  0.037107445            4 
  835000    1.1084989   -6.6845546    368.04682  0.036731219  0.037100385            2 
  836000    1.0890037   -6.6985244    368.94302  0.036776617  0.037093504            3 
  837000    1.1238018   -6.6722195    368.20409  0.036659109  0.037086073            3 
  838000    1.1090212   -6.6187598    369.95602   0.03678958  0.037079139            1 
  839000    1.1254242   -6.6838953    368.75712  0.036626651  0.037071604            1 
  840000    1.1339497   -6.6641346    370.06065  0.036712366  0.037064348            2 
  841000    1.1258992   -6.6841356    368.57264  0.036521269  0.037056927            4 
  842000    1.1354075   -6.7004788    368.61256  0.036481845  0.037049479            4 
  843000    1.1099491   -6.6470593    370.44225   0.03661944  0.037041948            1 
  844000    1.1040838   -6.6867447    370.84161  0.036615482  0.037034675            3 
  845000    1.1281977   -6.6667007    370.56645  0.036545015  0.037027463            2 
  846000    1.1172477   -6.7170277    372.02111  0.036645106  0.037020276            1 
  847000    1.1164617   -6.6805143    372.69463  0.036668106  0.037013407            1 
  848000    1.1234757   -6.6685045    371.86315  0.036543156  0.037006535            3 
  849000    1.0941816   -6.6893472    373.22362   0.03663365  0.036999757            4 
  850000    1.1098873   -6.7130513    372.53948  0.036523478   0.03699259            5 
  851000    1.1276504   -6.6907333    372.60545   0.03648702  0.036985271            3 
  852000    1.1221629    -6.720654    374.10734  0.036591093  0.036978235            7 
  853000     1.141321     -6.70554    374.12739  0.036550155  0.036971255            1 
  854000    1.1280224   -6.6778119     374.4221  0.036536114  0.036964141            3 
  855000    1.1374678   -6.7007176    374.78643  0.036528892  0.036956998            4 
  856000    1.1235312   -6.6680753     375.4375  0.036549601  0.036950142            2 
  857000    1.1084126   -6.6917076    375.19387  0.036483263  0.036943118            5 
  858000    1.1288705   -6.6672175    375.84886  0.036504357  0.036936252            3 
  859000    1.1108893   -6.6797813    376.14641  0.036490726  0.036929363            4 
  860000    1.1029389   -6.6849342    376.83875  0.036515383  0.036922536            3 
  861000    1.1264399   -6.6984088    378.39481  0.036623578  0.036915702            3 
  862000    1.1032579   -6.6828716    378.10721  0.036553288  0.036908935            3 
  863000    1.1064052   -6.6662446    378.85075   0.03658273  0.036902413            2 
  864000    1.1282105   -6.6809853    378.88167  0.036543371   0.03689553            5 
  865000    1.1229186   -6.6657375    379.56693  0.036567142  0.036888873            1 
  866000    1.1225218   -6.7028516    379.65993  0.036533865  0.036882059            5 
  867000    1.1023398   -6.6864859    381.40151  0.036659123  0.036875439            2 
  868000    1.1123864   -6.6643949    381.23684  0.036601079   0.03686913            4 
  869000     1.112482   -6.6918933    381.26111  0.036561288   0.03686255            4 
  870000    1.0881982     -6.72849    380.45535  0.036442084  0.036855868            4 
  871000     1.107689   -6.7122337    381.44047  0.036494496  0.036849366            1 
  872000    1.0924354   -6.6955723    381.85175  0.036491949  0.036842921            5 
  873000     1.093128   -6.6851048    383.01404  0.036561096  0.036836798            2 
  874000    1.1087987    -6.714141    383.72181  0.036586748  0.036830735            2 
  875000    1.0791684   -6.7013145    383.47338  0.036521275  0.036824557            3 
  876000    1.1254652   -6.6554649    384.65956  0.036592424  0.036818352            2 
  877000    1.1066417   -6.6535696    385.10773  0.036593285  0.036812434            2 
  878000     1.115596   -6.6728338    385.27592  0.036567571  0.036806655            2 
  879000    1.1021643   -6.6743093    385.93835   0.03658877  0.036800526            4 
  880000    1.0930102   -6.6925834    386.00672  0.036553666  0.036794208            4 
  881000    1.1111953   -6.6938162    384.85178  0.036402931  0.036787897            4 
  882000    1.0969598   -6.6951706    386.68603  0.036534961   0.03678186            2 
  883000    1.1090084   -6.6840274    387.40333   0.03656128  0.036776149            2 
  884000    1.1026445   -6.6638456    388.27929  0.036602497  0.036770435            3 
  885000    1.1018214   -6.7361485    388.57466  0.036588951  0.036764643            2 
  886000    1.1415115   -6.7379842    388.15872  0.036508533   0.03675906            4 
  887000    1.1265971   -6.6620765    388.58734  0.036507642  0.036753316            2 
  888000    1.1450247     -6.70336    389.70337  0.036571262  0.036747491            2 
  889000    1.1088648   -6.6750073    390.29883  0.036585942  0.036741645            2 
  890000    1.1202002     -6.71196    390.19651  0.036535254  0.036735821            3 
  891000    1.1044134   -6.6970401    390.29419  0.036503385  0.036729829            2 
  892000    1.1064884    -6.684961    389.78001  0.036414425  0.036723499            2 
  893000    1.1134427   -6.6906718    390.27307   0.03641966  0.036717266            4 
  894000      1.09416   -6.7320126    390.00324   0.03635377  0.036710839            2 
  895000    1.1156535   -6.6697046    390.39613  0.036349733  0.036704481            1 
  896000    1.0880993   -6.7069247    392.00936  0.036459204  0.036698181            3 
  897000    1.1204482   -6.7140649    391.12147  0.036336072  0.036691899            3 
  898000    1.1057041   -6.6782337    392.07329  0.036383936  0.036685844            4 
  899000    1.1160616   -6.7193312    393.35929  0.036462671  0.036679666            4 
  900000    1.1127119   -6.6923647    392.66125  0.036357523  0.036673302            4 
  901000    1.1269588   -6.7090125    393.82313  0.036424633  0.036666995            2 
  902000    1.1088831   -6.7032259     392.1397  0.036228723  0.036660654            1 
  903000    1.1106154   -6.7016611    394.37478  0.036394867   0.03665433            2 
  904000    1.1315377   -6.7001911     394.0319     0.036323  0.036648242            5 
  905000    1.1133011   -6.7208221    395.53857    0.0364216  0.036642089            2 
  906000    1.1072466   -6.7136102    394.81256  0.036314621  0.036636098            5 
  907000    1.1165983   -6.7001216    395.96868  0.036380805  0.036630355            2 
  908000    1.1015057   -6.7157604    397.01292  0.036436575  0.036624483            3 
  909000    1.1101514    -6.718929     396.5047  0.036349899  0.036618429            3 
  910000    1.1354324   -6.6906435    396.93715  0.036349556  0.036612532            4 
  911000    1.0992532   -6.7377865    397.54714  0.036365454  0.036606532            2 
  912000    1.0886807    -6.687154    398.08665  0.036374876  0.036600652            2 
  913000    1.1074632   -6.6532204     399.0432  0.036422344   0.03659486            2 
  914000    1.0841117   -6.7298305    399.13312  0.036390693  0.036588781            3 
  915000    1.1156255   -6.7183012    399.00654  0.036339393  0.036582744            3 
  916000    1.1275344   -6.6335989    400.37697  0.036424397  0.036576791            4 
  917000    1.1137073   -6.7003606    398.88098  0.036248726  0.036570849            1 
  918000    1.1057027   -6.6769485    400.23559  0.036332207  0.036564906            2 
  919000    1.1163703   -6.6810132     398.6545  0.036149302  0.036558304            2 
  920000     1.138274   -6.7037317     399.8556  0.036218804  0.036551705            3 
  921000    1.1281542   -6.7066941    401.33789  0.036313598  0.036545098            6 
  922000    1.1091277   -6.6923156    400.38682  0.036188252  0.036538632            2 
  923000    1.0932409   -6.6843253    400.61268  0.036169437  0.036531907            2 
  924000    1.0964808   -6.7078755    402.14776  0.036268737  0.036525351            2 
  925000    1.1309183   -6.7105441    402.29739  0.036243008  0.036518866            4 
  926000    1.1018227     -6.69216    402.33051  0.036206849  0.036512271            6 
  927000    1.1099172   -6.6749717    403.23812  0.036249382  0.036505863            4 
  928000    1.0929489   -6.7176017    402.81647  0.036172456  0.036499385            3 
  929000    1.1070902   -6.6940833     402.7521  0.036127745  0.036493023            5 
  930000    1.1121742   -6.7186692    403.42672  0.036149348  0.036486678            2 
  931000    1.0855497   -6.7270602    402.98756   0.03607121  0.036479947            3 
  932000    1.1035824     -6.70719    403.11113  0.036043556  0.036473111            1 
  933000    1.1133325   -6.7048511    405.25312  0.036196242  0.036466307            2 
  934000    1.1144672    -6.730843    404.04016  0.036049265  0.036459587            1 
  935000    1.0990873   -6.7232236    404.18493  0.036023612  0.036452709            2 
  936000    1.1126469   -6.7227248    404.76741  0.036036985  0.036446001            2 
  937000    1.0940136   -6.6973559    407.38401  0.036231236  0.036439368            3 
  938000    1.1067241   -6.7301385    405.53371  0.036028226  0.036432735            2 
  939000    1.0936724   -6.6993988    407.36453  0.036152337  0.036426411            2 
  940000    1.0834727   -6.6959882    407.06252  0.036087103  0.036419933            3 
  941000    1.0874438   -6.7165577    407.20179  0.036061087  0.036413513            2 
  942000    1.1112093   -6.7224832     408.7012  0.036155449  0.036407063            4 
  943000    1.1080208   -6.7158308    408.14699  0.036068132  0.036400693            2 
  944000    1.1295922   -6.6886874    409.10922  0.036114868   0.03639435            2 
  945000    1.0824319   -6.6844612    409.54563  0.036115135  0.036388064            4 
  946000    1.1133345   -6.7130833    407.95777  0.035937083  0.036381469            3 
  947000    1.1164735   -6.6952052    410.23308  0.036099356  0.036374627            3 
  948000    1.1054442   -6.6606141    409.05136  0.035957398  0.036368109            2 
  949000    1.0988431   -6.7520137    408.76291  0.035894179  0.036361379            4 
  950000    1.1263433    -6.747326    410.48995  0.036007891  0.036354345            3 
  951000    1.1320989   -6.6961779    410.43932  0.035965591  0.036347476            2 
  952000    1.1171847   -6.7189071    410.84757  0.035963548  0.036340793            1 
  953000     1.097309   -6.7122653    412.04429  0.036030455  0.036334247            5 
  954000    1.1028307   -6.7489379    410.89273  0.035892097  0.036327586            3 
  955000     1.119165   -6.7531018    412.08753  0.035958772  0.036320928            4 
  956000    1.1088434   -6.7145663    413.58791  0.036051945  0.036314429            5 
  957000    1.0984739   -6.6896616    414.24784  0.036071738  0.036307992            2 
  958000    1.1059612   -6.6990264    413.94897  0.036008087  0.036301556            3 
  959000    1.1339997   -6.7002264    413.17084  0.035902923  0.036294979            2 
  960000    1.0808011   -6.7660944    414.51711  0.035982388  0.036288047            3 
  961000    1.1147498    -6.699127    414.49386  0.035942929  0.036281211            2 
  962000    1.0905164   -6.7047967    414.35698  0.035893709  0.036274447            3 
  963000    1.0800286   -6.7545549     415.0197  0.035913785   0.03626763            3 
  964000    1.0945453   -6.7233982    414.94893  0.035870413  0.036260594            2 
  965000    1.1078524   -6.7073984     416.1538  0.035937289  0.036253659            3 
  966000    1.0927469   -6.6981045    415.07422  0.035806954   0.03624652            3 
  967000     1.105133   -6.7302119    416.04431  0.035853525  0.036239453            2 
  968000    1.0868782   -6.7134583    416.61879  0.035865943  0.036232503            2 
  969000    1.1075119   -6.7409132    417.42722  0.035898453  0.036225862            4 
  970000    1.0680423   -6.6954824    418.41745  0.035946516  0.036219072            2 
  971000    1.1040644   -6.7404298    418.66433  0.035930684  0.036212372            2 
  972000    1.0697357   -6.7312981    418.49034  0.035878802  0.036205838            3 
  973000    1.1088082   -6.7149167     418.7497   0.03586414  0.036199184            2 
  974000    1.0831881   -6.7041791    419.45379  0.035887559  0.036192616            3 
  975000    1.1157601   -6.7308157    419.76051  0.035876967  0.036186148            3 
  976000    1.0915364   -6.7403196    419.45054  0.035813741  0.036179628            3 
  977000    1.0992158   -6.7084931    420.50342   0.03586689  0.036173225            3 
  978000    1.0731503   -6.7446994    420.48596  0.035828729  0.036166582            1 
  979000    1.0951081   -6.7360532    420.52724  0.035795645  0.036160082            2 
  980000    1.0925851   -6.7074798    423.67312  0.036026626  0.036153566            2 
  981000    1.0841071   -6.7272558    421.74155   0.03582582  0.036147262            5 
  982000    1.1003564   -6.7407087    422.39268  0.035844593   0.03614081            7 
  983000    1.1075756   -6.7306799    424.05395  0.035948962  0.036134177            2 
  984000    1.0891728   -6.7362274    421.29207  0.035678529  0.036127315            3 
  985000     1.086127   -6.7535951    422.45593  0.035740773  0.036120599            5 
  986000    1.0931358   -6.7542079     423.0383  0.035753744   0.03611368            3 
  987000     1.112962   -6.7354726    422.85534  0.035702072   0.03610681            2 
  988000    1.0877558   -6.7064303    424.66504  0.035818576   0.03609998            2 
  989000    1.0646486   -6.7230546    424.94466   0.03580592  0.036093246            3 
  990000    1.0936164   -6.7407617    424.95734   0.03577082  0.036086493            2 
  991000    1.0907197   -6.6915657    426.90731  0.035898698   0.03607991            2 
  992000    1.1090839    -6.747949    426.45314  0.035824357  0.036073549            3 
  993000      1.08099    -6.680621    427.48201  0.035874623  0.036067095            2 
  994000    1.1099748   -6.7373508    427.28596  0.035822096   0.03606097            5 
  995000      1.09899   -6.7649927    427.87897  0.035835759  0.036054822            4 
  996000    1.0926719   -6.7096475    429.42434  0.035929078  0.036048734            2 
  997000    1.0788512   -6.7103064     429.7088  0.035916817  0.036042649            2 
  998000    1.0916863   -6.7164692    428.93019  0.035815814   0.03603647            3 
  999000    1.0967692   -6.6773386    429.92824  0.035863217  0.036030536            4 
 1000000    1.0836156   -6.7459028      429.852     0.035821  0.036024474            3 
 1001000    1.0805437   -6.7260059    430.57191  0.035845147  0.036018199            2 
 1002000    1.1190569   -6.7215089    428.85652   0.03566671  0.036012011            3 
 1003000     1.101502   -6.7013858    429.41809  0.035677807   0.03600561            3 
 1004000    1.0943352   -6.7617025    428.98001  0.035605911   0.03599899            3 
 1005000    1.0804628   -6.7185403    431.25025  0.035758727   0.03599226            3 
 1006000    1.1066873   -6.7124853    430.83844  0.035689069  0.035985619            4 
 1007000    1.0917266   -6.7329894    431.61925  0.035718243  0.035979156            3 
 1008000    1.0812472   -6.7407147    430.75068  0.035611002  0.035972707            3 
 1009000     1.109187   -6.7479506    431.18258  0.035611379  0.035965968            1 
 1010000    1.0874926   -6.7360509    432.64529  0.035696806  0.035959122            3 
 1011000    1.1007522   -6.7212483    432.62329  0.035659684  0.035952724            3 
 1012000    1.0992178   -6.7902302    431.81164  0.035557612  0.035945956            6 
 1013000    1.0741177   -6.7109448    434.89237  0.035775943  0.035939575            3 
 1014000    1.0931945   -6.7425454    434.90024  0.035741309  0.035933195            2 
 1015000    1.0876457   -6.7406175    434.05377  0.035636599  0.035927047            3 
 1016000    1.0870913   -6.7569874    436.53328  0.035804895  0.035920742            4 
 1017000    1.0845783   -6.7659147    435.80618   0.03571011  0.035914577            4 
 1018000    1.0704743   -6.7189456    437.35981  0.035802211  0.035908713            2 
 1019000    1.0977616   -6.7636868    436.17641  0.035670299  0.035902585            2 
 1020000    1.0901638   -6.7250299    436.80221  0.035686455  0.035896498            8 
 1021000    1.0930102    -6.712949     436.5296  0.035629253  0.035890578            3 
 1022000    1.0945459   -6.6994289    439.00227  0.035796011  0.035884664            5 
 1023000    1.0768353   -6.7323829    438.62269  0.035730098  0.035878885            2 
 1024000    1.0913526   -6.7381074    439.26124  0.035747171  0.035873161            2 
 1025000    1.1001347    -6.757164    440.12445  0.035782476  0.035867293            2 
 1026000    1.0823152   -6.7446038    439.70688  0.035713684  0.035861296            3 
 1027000    1.0941309   -6.7217982    438.25369  0.035560994  0.035855248            1 
 1028000    1.0890515   -6.7235925    439.02282   0.03558875  0.035848973            5 
 1029000    1.1038341   -6.7177208    439.81649  0.035618439  0.035842466            1 
 1030000    1.0899464   -6.7361879    439.92001  0.035592234  0.035836175            2 
 1031000    1.0682381   -6.7210399    439.95788  0.035560773  0.035829791            2 
 1032000    1.0854872   -6.7570587    440.43747  0.035565041  0.035823469            1 
 1033000    1.0671654   -6.7356085    439.69026  0.035470334  0.035816721            2 
 1034000    1.1190311   -6.7546402     440.6365   0.03551229  0.035810058            6 
 1035000    1.0899053    -6.752208    440.41823  0.035460405  0.035803619            2 
 1036000    1.1175711   -6.7361862    441.25319  0.035493339   0.03579724            2 
 1037000    1.1232062   -6.7246612    443.15269  0.035611756  0.035790954            1 
 1038000    1.1042375   -6.7105796    444.31734  0.035670949  0.035784999            1 
 1039000    1.1050259   -6.7274666    444.05869  0.035615872  0.035779004            2 
 1040000    1.1012885   -6.7352034    445.31166  0.035682024  0.035772887            3 
 1041000    1.0873752    -6.732053    445.44093  0.035658095  0.035766996            7 
 1042000    1.0900919   -6.7599958    445.21633  0.035605913  0.035760924            3 
 1043000    1.0772716   -6.7113184    445.05018  0.035558499  0.035754885            4 
 1044000     1.112432   -6.7307826    446.46691  0.035637525  0.035748989            2 
 1045000    1.0803288   -6.7500467    446.09499  0.035573763  0.035743032            2 
 1046000    1.0738782   -6.7102455    446.29234  0.035555477  0.035737095            3 
 1047000    1.0724137   -6.7065094    447.03922  0.035580963  0.035730852            3 
 1048000     1.076161   -6.7682444    447.24864  0.035563664  0.035724655            3 
 1049000    1.0770687    -6.754536    446.31418  0.035455528  0.035718586            4 
 1050000    1.0908607   -6.7910393    446.86216  0.035465251  0.035712455            1 
 1051000    1.0721568   -6.7351528    448.18585  0.035536462  0.035706286            2 
 1052000     1.069641   -6.7530562    448.24518  0.035507381  0.035699961            5 
 1053000    1.0643534    -6.733285    448.69616  0.035509351  0.035693713            3 
 1054000    1.0918692   -6.7867114    448.13986  0.035431678  0.035687577            2 
 1055000    1.0645181   -6.7134812    448.50031  0.035426565  0.035681197            3 
 1056000    1.0780049   -6.7263342    450.90486   0.03558277  0.035675001            2 
 1057000    1.0903237   -6.7421065    449.50119  0.035438441  0.035668832            4 
 1058000    1.0533007   -6.7708514    449.90451  0.035436713  0.035662546            2 
 1059000    1.0700791   -6.7442334    449.35657  0.035360133  0.035656105            1 
 1060000    1.0862717   -6.7657174    450.83155  0.035442732  0.035649632            2 
 1061000    1.0956517   -6.7488235    449.68681  0.035319417  0.035643026            2 
 1062000    1.0794827   -6.7388748    450.52933   0.03535227  0.035636348            2 
 1063000    1.0773808   -6.8007827    450.07517  0.035283409  0.035629538            4 
 1064000    1.0639446   -6.7429845    451.35761   0.03535069  0.035622609            4 
 1065000    1.0782438   -6.7584203    450.60552  0.035258648  0.035615819            4 
 1066000    1.0678149   -6.7499279      451.962  0.035331614  0.035609054            2 
 1067000    1.0674275   -6.7350301    452.60234  0.035348511  0.035602258            2 
 1068000    1.0793047   -6.7602016    451.80313  0.035253053  0.035595505            4 
 1069000    1.0699687   -6.7417084    452.81092  0.035298638  0.035588847            1 
 1070000    1.0862934   -6.7409363    452.00744  0.035203071  0.035582136            2 
 1071000    1.0989371   -6.7660014    454.68968  0.035378904  0.035575517            1 
 1072000    1.0690308   -6.7434743    455.09827  0.035377664  0.035569002            2 
 1073000    1.0707206   -6.7529529    453.78242  0.035242499  0.035562536            3 
 1074000    1.0815858   -6.7266735    454.63324  0.035275701   0.03555604            3 
 1075000    1.0591565   -6.7465714    456.79346  0.035410346  0.035549618            3 
 1076000    1.0782378   -6.7686744    454.36423  0.035189299   0.03554321            2 
 1077000    1.0823339   -6.7882659    454.62016  0.035176428  0.035536725            3 
 1078000    1.0717499   -6.7336249    458.07038  0.035410512   0.03553017            2 
 1079000    1.0973132   -6.7313734    457.37603  0.035324068   0.03552398            2 
 1080000    1.1032325   -6.7908283    456.59805  0.035231331  0.035517519            2 
 1081000    1.0904483   -6.7617083    457.21246  0.035246104   0.03551119            4 
 1082000    1.0810759   -6.7521959    457.70362  0.035251357  0.035504532            3 
 1083000    1.0869234   -6.7398441      457.614  0.035211912  0.035497778            3 
 1084000    1.0850364   -6.7579633    458.56225  0.035252326  0.035491174            3 
 1085000    1.0747529   -6.7989952    458.94212  0.035249011  0.035484914            1 
 1086000    1.0884279   -6.7841499    459.21218  0.035237276  0.035478652            2 
 1087000    1.0886668   -6.7655495    459.26043  0.035208558  0.035472362            2 
 1088000    1.0768296   -6.7525122    460.94791  0.035305446  0.035466218            2 
 1089000    1.0824239   -6.7460498     460.7003  0.035254079  0.035460115            3 
 1090000    1.0830305   -6.7455531    461.60355  0.035290792  0.035453893            3 
 1091000    1.0767522   -6.7516775    460.61731  0.035183113  0.035447842            5 
 1092000    1.0706014   -6.7697504    461.67482  0.035231595  0.035441682            4 
 1093000    1.0872136   -6.7840219    463.02637  0.035302407  0.035435545            4 
 1094000    1.0770412   -6.7439092    463.28156  0.035289577  0.035429398            3 
 1095000    1.0869454     -6.77143    463.20014  0.035251152  0.035423146            2 
 1096000    1.0783908   -6.7201577    464.50374  0.035318107  0.035417292            2 
 1097000    1.0638731   -6.7469247    464.65706  0.035297558  0.035411322            2 
 1098000    1.0742638   -6.7567763    464.47062  0.035251261   0.03540546            3 
 1099000    1.1011417   -6.7316329    465.66474  0.035309732  0.035399418            3 
 1100000    1.0687782     -6.76374    463.63236  0.035123663  0.035393417            3 
 1101000    1.0854042   -6.7516945    465.10159  0.035202966  0.035387401            2 
 1102000    1.0731533   -6.7696184    466.26272  0.035258827  0.035381522            9 
 1103000     1.076671   -6.7394723    467.12489  0.035291999  0.035375698            2 
 1104000    1.0673513   -6.7449446    467.65396  0.035299967  0.035369941            2 
 1105000    1.0832334   -6.7719395     466.6956  0.035195747  0.035364153            3 
 1106000    1.0613704   -6.7636689    468.90663  0.035330517  0.035358238            2 
 1107000    1.0584186   -6.7684147    468.19451  0.035244995    0.0353524            5 
 1108000    1.0874116   -6.7819795    468.08981  0.035205311  0.035346388            1 
 1109000    1.0731765   -6.7188454    469.12784  0.035251566  0.035340667            4 
 1110000    1.0843407    -6.760096    469.14257  0.035220914  0.035335056            3 
 1111000    1.0486473   -6.7414458    468.43212  0.035135922  0.035329281            2 
 1112000    1.0718877   -6.7287531     469.6988  0.035199251   0.03532327            5 
 1113000    1.0658053   -6.7618984    469.63182   0.03516261  0.035317341            3 
 1114000    1.0771581   -6.7596608    468.62362  0.035055627   0.03531152            5 
 1115000    1.0828105   -6.7679107     468.7789  0.035035792  0.035305405            3 
 1116000    1.0734758   -6.7775685     470.0879  0.035102143   0.03529941            2 
 1117000    1.0643113   -6.7396658    470.64867  0.035112553  0.035293431            2 
 1118000     1.070609   -6.7727933    471.02324  0.035109067  0.035287421            3 
 1119000    1.0829488    -6.770027    471.06748  0.035080986   0.03528129            3 
 1120000    1.0899435   -6.8182257    471.02595  0.035046573  0.035275024            3 
 1121000    1.0589966   -6.7767616    470.98141  0.035011999  0.035268801            2 
 1122000    1.0596446   -6.7424484    473.18356  0.035144352  0.035262715            2 
 1123000    1.0799785   -6.7626734    472.78222  0.035083276  0.035256303            3 
 1124000    1.0712148   -6.7612995    472.24181  0.035011996   0.03524986            3 
 1125000    1.0631661   -6.7730371    471.92416  0.034957345  0.035243544            3 
 1126000    1.0934896   -6.7654259    472.91676   0.03499976  0.035237534            3 
 1127000    1.0809933     -6.79039    472.49432  0.034937468  0.035231148            3 
 1128000    1.0657384   -6.7638512    473.86648  0.035007867  0.035224665            6 
 1129000    1.1062452   -6.7296553    473.83433  0.034974485  0.035218552            2 
 1130000     1.082982   -6.7550139    475.37658   0.03505727   0.03521234            4 
 1131000    1.0642435   -6.7700707    475.96582  0.035069689  0.035205915            7 
 1132000    1.0897452   -6.7253148    473.78805   0.03487839  0.035199087            3 
 1133000    1.0505886   -6.7702429    473.86146  0.034853005  0.035192407            4 
 1134000    1.0634009   -6.7991775    475.11086  0.034914085  0.035185629            3 
 1135000    1.0642286   -6.8060917    475.30739  0.034897753  0.035178837            3 
 1136000    1.0814789   -6.7643038    475.23436  0.034861675  0.035172198            2 
 1137000    1.0430832   -6.7541975     475.7793  0.034870954  0.035165454            3 
 1138000    1.0955539   -6.7518779    474.37826  0.034737717  0.035158518            5 
 1139000    1.0709376   -6.7577731    475.70555  0.034804328  0.035151722            2 
 1140000    1.0818207   -6.7976599    476.24129   0.03481296  0.035144866            6 
 1141000    1.0408032   -6.7703013    475.87997   0.03475606  0.035137929            3 
 1142000     1.073266   -6.7556119    476.90392  0.034800344  0.035131168            2 
 1143000    1.0774865   -6.7608721    477.34108   0.03480177  0.035124291            3 
 1144000    1.0784394   -6.7583145    477.96248  0.034816614  0.035117355            2 
 1145000    1.0398557   -6.8023413    477.75799  0.034771324  0.035110327            6 
 1146000    1.0770897   -6.7995921    477.84521  0.034747325  0.035103495            3 
 1147000    1.0947625   -6.7767004    479.02044  0.034802415  0.035096791            4 
 1148000    1.0750485   -6.7757099    478.49549  0.034733993  0.035090145            3 
 1149000    1.0590046    -6.825393    480.24558  0.034830692  0.035083404            1 
 1150000    1.0504708   -6.7839989    480.65628  0.034830165  0.035076527            4 
 1151000    1.0750413   -6.8018663     478.7716  0.034663452  0.035069661            2 
 1152000    1.0670012   -6.7868277    480.51237  0.034759286  0.035062716            2 
 1153000     1.053717   -6.7689112     480.4242  0.034722767  0.035055822            1 
 1154000    1.0700682   -6.7898825    481.55262  0.034774164  0.035049078            5 
 1155000      1.05038   -6.7852766    480.05873  0.034636272  0.035042284            3 
 1156000    1.0508154   -6.7836995    481.63474  0.034719921  0.035035385            5 
 1157000    1.0624996   -6.7426396     482.5785  0.034757887  0.035028425            9 
 1158000    1.0593431    -6.771102    483.13882  0.034768193  0.035021536            3 
 1159000    1.0772339    -6.752505    484.61167  0.034844095   0.03501448            1 
 1160000    1.0729397   -6.7979629    481.77403  0.034610203  0.035007655            5 
 1161000    1.0675045   -6.7863456    483.41671    0.0346983  0.035000645            5 
 1162000    1.0688698   -6.8024229    483.19409  0.034652474  0.034993646            2 
 1163000    1.0771232   -6.7693516    483.67795  0.034657348   0.03498671            4 
 1164000    1.0475812   -6.7505157    484.16975  0.034662783  0.034979748            7 
 1165000    1.0790943   -6.7891514    484.61671  0.034665001  0.034972722            7 
 1166000    1.0700666   -6.7928941      486.342  0.034758576   0.03496569            2 
 1167000    1.0622523   -6.7591438    484.87104  0.034623753  0.034958603            2 
 1168000    1.0693711   -6.8270052    484.22205  0.034547806  0.034951245            2 
 1169000    1.0611375   -6.7420664    486.18894  0.034658464  0.034943929            4 
 1170000     1.055972   -6.7835126    486.18169  0.034628325  0.034936791            4 
 1171000    1.0497421   -6.7413913    486.37895  0.034612792  0.034929823            2 
 1172000    1.0762231   -6.7966456    486.21331  0.034571481  0.034922961            2 
 1173000    1.0534521   -6.7641158    488.77662  0.034724113   0.03491622            2 
 1174000     1.068416   -6.7817346    486.93891  0.034564091  0.034909176            2 
 1175000     1.073937    -6.752089     487.7133  0.034589595  0.034902149            2 
 1176000    1.0876075   -6.7938415    488.65692  0.034627049  0.034895177            4 
 1177000    1.0705906   -6.8091412    487.37987  0.034507213  0.034888375            2 
 1178000    1.0343174   -6.8023263    487.71415  0.034501567   0.03488146            3 
 1179000    1.0535194   -6.7677382    490.21212  0.034648863  0.034874633            4 
 1180000    1.0613931   -6.7872778    488.41771  0.034492776  0.034867873            3 
 1181000    1.0772421   -6.7612711    489.35954  0.034530027  0.034860901            2 
 1182000     1.064976   -6.7911298    489.40613  0.034504098  0.034853998            4 
 1183000    1.0634967   -6.8086559     489.4679  0.034479283  0.034846915            2 
 1184000    1.0502279   -6.7764634    489.52986  0.034454523  0.034839756            2 
 1185000    1.0540981   -6.8249242    488.88611  0.034380176  0.034832538            6 
 1186000    1.0722615    -6.804804    489.44694  0.034390595  0.034825251            3 
 1187000    1.0528441    -6.805042    490.35097  0.034425089  0.034817882            2 
 1188000    1.0741639   -6.8064431    490.15337  0.034382251   0.03481048            4 
 1189000     1.090431   -6.7727985    490.25269  0.034360295  0.034803047            3 
 1190000    1.0775275   -6.8036119    490.88242  0.034375519  0.034795639            2 
 1191000    1.0669812    -6.773639    491.24609  0.034372102  0.034788016            4 
 1192000    1.0523071   -6.7830489     491.9949  0.034395616   0.03478067            2 
 1193000    1.0722235    -6.795898    492.69899  0.034415967  0.034773208            2 
 1194000    1.0852672   -6.8014823     491.3281  0.034291465  0.034765793            3 
 1195000      1.06804    -6.764947    491.35492  0.034264639  0.034758185            3 
 1196000    1.0613004   -6.7812912    492.78571  0.034335682  0.034750627            3 
 1197000    1.0716948   -6.8077998    492.33881  0.034275885  0.034743051            7 
 1198000    1.0726969   -6.8139508    492.18023  0.034236243  0.034735281            2 
 1199000     1.069693   -6.8160977     493.4032  0.034292689  0.034727568            3 
 1200000    1.0701239   -6.7966766     492.1936  0.034180111  0.034719801            4 
 1201000    1.0319241   -6.7801669    493.06512  0.034212123  0.034711976            3 
 1202000    1.0663223   -6.7589291    495.37643  0.034343901  0.034704412            6 
 1203000    1.0701987   -6.7564746    493.56612   0.03418995  0.034696792            3 
 1204000    1.0515218   -6.7998585    495.22059  0.034276065  0.034689104            1 
 1205000    1.0382973   -6.8149717    493.14171  0.034103852  0.034681316            2 
 1206000    1.0321694   -6.7615434    495.07473  0.034209144  0.034673314            2 
 1207000    1.0609838   -6.7758638    492.81293  0.034024643  0.034665403            2 
 1208000    1.0488749   -6.8198007      495.221  0.034162597  0.034657275            7 
 1209000     1.057207   -6.7969364    496.13505  0.034197343  0.034649286            1 
 1210000    1.0371029   -6.8153795    495.04309  0.034093877  0.034641326            5 
 1211000    1.0557685   -6.7676258    495.55547  0.034100982  0.034633465            1 
 1212000    1.0532779   -6.7805506    496.31115  0.034124804  0.034625695            5 
 1213000    1.0755557   -6.7995251    498.40656  0.034240626  0.034618042            5 
 1214000    1.0547696    -6.748487    500.64108  0.034365807  0.034610296            3 
 1215000    1.0575441   -6.8168527    497.78482   0.03414162  0.034602673            4 
 1216000     1.046283   -6.7825364    499.37525  0.034222537  0.034595058            3 
 1217000    1.0305667   -6.8035273    499.30473  0.034189587  0.034587487            5 
 1218000    1.0735697   -6.8194828    499.26332  0.034158684  0.034579959            2 
 1219000    1.0586962   -6.7630821    502.22118  0.034332867  0.034572481            3 
 1220000    1.0579357   -6.7781848    499.56974  0.034123616  0.034565108            2 
 1221000    1.0488539   -6.8134736    500.35512  0.034149271  0.034557606            3 
 1222000    1.0430792   -6.7638139    501.43684  0.034195092  0.034550055            4 
 1223000    1.0405394   -6.8392315    498.70367  0.033980899   0.03454238            6 
 1224000    1.0837747   -6.7529929    501.68399  0.034156045  0.034534515            1 
 1225000     1.062084   -6.8265898    500.37703  0.034039254  0.034526711            5 
 1226000     1.055363   -6.7873658    499.93881  0.033981703  0.034518829            3 
 1227000    1.0619563   -6.8206335    500.67502  0.034004009  0.034510773            3 
 1228000    1.0647573   -6.8066823    500.72569  0.033979756  0.034502779            2 
 1229000    1.0528142   -6.7691082    500.80206  0.033957286  0.034494498            3 
 1230000    1.0473034   -6.8284629    501.73953  0.033993193  0.034486486            2 
 1231000    1.0647663   -6.8002238    502.30975   0.03400418  0.034478579            5 
 1232000    1.0589719   -6.7957662    502.30247  0.033976087  0.034470697            3 
 1233000    1.0436216   -6.8023237    501.96156  0.033925491  0.034462724            2 
 1234000    1.0579772   -6.8048886    503.08526  0.033973883  0.034454661            2 
 1235000    1.0566019   -6.7897757    503.15765  0.033951258  0.034446698            5 
 1236000    1.0395349   -6.8289714    503.60941  0.033954248  0.034438719            2 
 1237000    1.0838796   -6.7996525    504.94141  0.034016533  0.034430897            3 
 1238000    1.0220712   -6.7834008    505.55562    0.0340304  0.034423002            2 
 1239000    1.0530184   -6.8253237    504.77866  0.033950677  0.034415115            2 
 1240000    1.0590333   -6.7593059    506.61843  0.034046937  0.034407566            3 
 1241000     1.043643   -6.8039315     505.1218  0.033919004  0.034399914            3 
 1242000     1.030452   -6.7833934    507.57086  0.034056016  0.034392201            3 
 1243000    1.0590747   -6.8043438    506.36585  0.033947831  0.034384475            5 
 1244000    1.0698504   -6.8186302    506.14641  0.033905842  0.034376626            3 
 1245000    1.0471225    -6.803357    506.70494  0.033915994  0.034368748            2 
 1246000    1.0561823   -6.7803503    507.00218  0.033908653  0.034360932            3 
 1247000    1.0746659   -6.7943383    508.72277  0.033996443   0.03435325            4 
 1248000    1.0584826    -6.808917    509.00419  0.033987994  0.034345655            2 
 1249000    1.0475353   -6.7897536    509.47254   0.03399203  0.034338149            3 
 1250000    1.0528988   -6.7809849    508.44025  0.033896017  0.034330648            2 
 1251000    1.0855529   -6.8236742    510.30422  0.033993087  0.034323226            3 
 1252000    1.0411486    -6.794565     509.7621  0.033929852  0.034315843            2 
 1253000    1.0331393   -6.7957594    509.73366  0.033900882  0.034308562            3 
 1254000    1.0460658   -6.7526294    511.35488  0.033981584  0.034301251            2 
 1255000    1.0598258   -6.8088045    510.70547  0.033911386  0.034293789            3 
 1256000    1.0297597    -6.815889    510.36888  0.033862054  0.034286141            4 
 1257000    1.0508995   -6.7995002    510.64085  0.033853146  0.034278333            2 
 1258000    1.0460307   -6.8398721    511.13435  0.033858926  0.034270688            5 
 1259000    1.0556589    -6.811525    511.63969  0.033865481  0.034263086            2 
 1260000    1.0516049   -6.8148176    512.09841  0.033868942  0.034255281            3 
 1261000    1.0708891   -6.8173814     512.0341  0.033837834  0.034247684            6 
 1262000    1.0239889    -6.789256    512.26511  0.033826275  0.034239918            3 
 1263000    1.0573034    -6.833557    510.24981  0.033666522  0.034232193            3 
 1264000    1.0383439   -6.7679065    513.78264    0.0338728   0.03422453            4 
 1265000     1.035858   -6.7905844     513.6809  0.033839322  0.034217064            4 
 1266000    1.0502916   -6.7924523     515.5682  0.033936822  0.034209661            3 
 1267000    1.0561477   -6.7933195    513.72018  0.033788489  0.034202055            3 
 1268000    1.0827631    -6.856852    513.83044  0.033769088   0.03419455            3 
 1269000    1.0546721   -6.8071461     514.3212  0.033774704  0.034186958            2 
 1270000    1.0586347   -6.8218917    515.81245  0.033845961  0.034179291            4 
 1271000    1.0340324   -6.8356667    514.63295  0.033741998  0.034171553            5 
 1272000    1.0500399   -6.8352199     514.6457  0.033716306  0.034163788            4 
 1273000    1.0278134   -6.8555542    514.61633  0.033687898  0.034155956            3 
 1274000    1.0604175   -6.7977221     514.7623  0.033671003  0.034148177            3 
 1275000    1.0463363   -6.8095993    516.17781  0.033737112   0.03414047            2 
 1276000     1.068218   -6.8185858    516.59254  0.033737757  0.034132881            2 
 1277000    1.0559949   -6.8265406    516.89046  0.033730779  0.034125148            3 
 1278000    1.0876467   -6.8403465    516.95012  0.033708276  0.034117449            2 
 1279000    1.0509527   -6.8066892    518.20871  0.033763924   0.03410974            2 
 1280000    1.0439148   -6.8147814    518.77653  0.033774514  0.034102171            3 
 1281000    1.0603691   -6.8315456    517.72681   0.03367986  0.034094551            3 
 1282000    1.0513891   -6.7904651    517.75253  0.033655261  0.034086851            3 
 1283000    1.0484953   -6.8374738    517.60804  0.033619644  0.034079096            3 
 1284000    1.0678626   -6.8219586    517.18034  0.033565702  0.034071283            3 
 1285000    1.0353504   -6.8100015    519.02505  0.033659212  0.034063421            2 
 1286000    1.0375173   -6.8157101    518.70188  0.033612097  0.034055581            4 
 1287000    1.0431685   -6.8134772    518.66748  0.033583753  0.034047629            7 
 1288000     1.029419   -6.8283835     518.8899  0.033572069  0.034039776            4 
 1289000     1.050229   -6.7956128    521.09433   0.03368854  0.034032116            1 
 1290000    1.0432741   -6.7875136      520.507  0.033624483  0.034024305            2 
 1291000    1.0538464    -6.838838    520.46581  0.033595779  0.034016526            3 
 1292000    1.0520808   -6.8202535    521.66558  0.033647161  0.034008761            3 
 1293000    1.0552929   -6.8189949    520.17822  0.033525278  0.034001001            3 
 1294000    1.0619222   -6.8112242    521.83028  0.033605762  0.033993314            4 
 1295000    1.0448415   -6.8336102    520.48473  0.033493226  0.033985647            5 
 1296000    1.0512637   -6.8317798    522.35036  0.033587343  0.033977957            7 
 1297000    1.0349297   -6.8444959     522.3365  0.033560556  0.033970185            3 
 1298000     1.043218   -6.8052365     523.1412  0.033586364  0.033962478            3 
 1299000    1.0636833   -6.8564623     521.6883  0.033467302  0.033954789            3 
 1300000    1.0462728   -6.7920674    522.49178  0.033493063  0.033947092            3 
 1301000     1.060659   -6.7892091    523.89503  0.033557202  0.033939404            2 
 1302000    1.0325257     -6.78504    525.91261  0.033660561   0.03393168            2 
 1303000    1.0544949   -6.8223628    523.67244  0.033491458   0.03392411            1 
 1304000    1.0587347   -6.8195461    524.88327  0.033543154  0.033916505            3 
 1305000    1.0291548   -6.8123644    524.65528  0.033502891  0.033908767            2 
 1306000    1.0418555   -6.8181408    525.68759  0.033543108  0.033900994            7 
 1307000    1.0269057    -6.763018    525.74771  0.033521277  0.033893393            5 
 1308000     1.055288   -6.8394544    523.19907  0.033333274  0.033885674            4 
 1309000    1.0225724   -6.7760963    525.58877  0.033459942  0.033877903            3 
 1310000    1.0211514   -6.8307975    526.97362  0.033522495  0.033870114            4 
 1311000    1.0458419   -6.8191406    526.44837  0.033463538  0.033862309            5 
 1312000    1.0560461   -6.8319077    525.65273  0.033387495  0.033854602            2 
 1313000    1.0367219   -6.8305465    527.87653  0.033503207  0.033846823            3 
 1314000    1.0462639   -6.8251408    527.24869  0.033437893  0.033839011            4 
 1315000    1.0411906   -6.8050496    527.51132  0.033429108  0.033831404            3 
 1316000    1.0534405   -6.7897176     527.5217  0.033404363  0.033823651            1 
 1317000    1.0558684   -6.8285411    528.68616   0.03345268   0.03381584            6 
 1318000    1.0508536    -6.820658    528.40745  0.033409677  0.033807983            3 
 1319000     1.031226   -6.8358608    526.70141  0.033276561  0.033799922            3 
 1320000    1.0170058   -6.8493286    527.68998  0.033313761  0.033791884            9 
 1321000    1.0345619   -6.8543746    528.27976  0.033325748  0.033783887            2 
 1322000    1.0192756   -6.8189698    528.77186   0.03333156  0.033776083            2 
 1323000    1.0342016   -6.8454751    527.80236  0.033245299  0.033768103            7 
 1324000    1.0591623   -6.8358639    527.20704  0.033182719  0.033760144            3 
 1325000    1.0079486   -6.7929372    530.41026  0.033359136  0.033752163            2 
 1326000    1.0406365   -6.8246062    530.45249  0.033336632  0.033744163            3 
 1327000    1.0360709   -6.8174249    530.66111  0.033324611  0.033736326            4 
 1328000    1.0582231   -6.7962784    531.32531  0.033341197  0.033728458            2 
 1329000    1.0344926   -6.7978061    531.39222  0.033320305  0.033720515            4 
 1330000    1.0608698   -6.8270116    529.88621   0.03320089   0.03371261            4 
 1331000    1.0584125   -6.8555982    531.66599  0.033287378  0.033704524            3 
 1332000    1.0283988   -6.8231633    532.85176  0.033336571  0.033696981            3 
 1333000    1.0729941   -6.8420734     532.4527  0.033286616  0.033689312            4 
 1334000    1.0178227   -6.8297202    532.33455  0.033254282  0.033681521            5 
 1335000    1.0292403   -6.8146148    534.44347  0.033361016  0.033673637            3 
 1336000    1.0274859   -6.8331347    533.24441  0.033261253  0.033665967            3 
 1337000    1.0423097    -6.826605    532.81181  0.033209412  0.033658159            4 
 1338000    1.0420133   -6.8534018     533.2291  0.033210582  0.033650367            4 
 1339000    1.0488092   -6.8321657    534.93636  0.033292031  0.033642578            2 
 1340000    1.0247864     -6.81672    533.34345  0.033168125  0.033634928            1 
 1341000    1.0512246   -6.8155096    535.23099  0.033260688  0.033627205            3 
 1342000    1.0469662   -6.8437442    533.60763  0.033135099  0.033619575            4 
 1343000    1.0527685   -6.8760426     533.3689  0.033095613  0.033611824            2 
 1344000    1.0415966   -6.8600973    534.67216  0.033151795   0.03360422            2 
 1345000      1.02164   -6.8295841    535.68916  0.033190158  0.033596611            4 
 1346000    1.0311421   -6.8207764    537.59895  0.033283739  0.033589118            5 
 1347000    1.0251673   -6.8322244    536.31812  0.033179789  0.033581607            3 
 1348000    1.0779589   -6.7982604    537.38641  0.033221217  0.033573963            4 
 1349000    1.0315714   -6.8515685    536.52175  0.033143177  0.033566255            2 
 1350000    1.0455957   -6.8257909    537.17641  0.033159038    0.0335587            3 
 1351000     1.025974   -6.8494837    537.17851  0.033134623  0.033550996            2 
 1352000    1.0321393   -6.8158085    537.86897  0.033152673  0.033543352            2 
 1353000    1.0183497   -6.8371227    537.55736  0.033108977  0.033535655            2 
 1354000    1.0727182   -6.8667213     536.5657  0.033023492  0.033527828            1 
 1355000    1.0549222   -6.8340949    537.50231  0.033056723  0.033520038            5 
 1356000     1.049079   -6.8456313    538.51388  0.033094511  0.033512302            3 
 1357000    1.0421738   -6.8091555      538.667  0.033079526  0.033504449            2 
 1358000    1.0224092   -6.8403677    538.54763  0.033047842  0.033496448            5 
 1359000    1.0124725   -6.8463586    539.04701  0.033054146  0.033488399            9 
 1360000    1.0380326    -6.819426    539.03244  0.033028949  0.033480315            2 
 1361000    1.0501125   -6.8078973    539.17814  0.033013602  0.033472148            3 
 1362000    1.0387153   -6.8492113    537.38725  0.032879788  0.033463988            2 
 1363000    1.0381068   -6.8633588    539.97498  0.033013877  0.033455915            6 
 1364000    1.0196213   -6.8320853    540.19141  0.033002897  0.033447882            4 
 1365000    1.0459966   -6.8531563    540.35382  0.032988633  0.033439887            5 
 1366000    1.0449067   -6.8334398     542.9269  0.033121455  0.033431917            3 
 1367000    1.0449874   -6.8637465    540.60404  0.032955623  0.033423972            4 
 1368000     1.028722   -6.8404037    540.00548  0.032895071  0.033415933            2 
 1369000    1.0390385    -6.849627    540.35529  0.032892336  0.033407892            4 
 1370000    1.0435181   -6.8751879    541.02384  0.032908993  0.033399821            2 
 1371000    1.0046192   -6.8323547    542.51757  0.032975782  0.033391783            2 
 1372000    1.0578975   -6.8744544    541.61273  0.032896788  0.033383744            2 
 1373000    1.0346398    -6.813137    543.69883  0.032999444  0.033375772            2 
 1374000     1.027746   -6.8891268     543.0996  0.032939083  0.033367809            4 
 1375000    1.0516492   -6.8732298    543.74507  0.032954247  0.033359846            2 
 1376000    1.0236363   -6.8538282    545.01963  0.033007487  0.033351984            2 
 1377000    1.0129097   -6.8376311    544.71093  0.032964835  0.033344208            3 
 1378000    1.0500207   -6.8277747     545.2655   0.03297445  0.033336541            3 
 1379000    1.0262312   -6.8629551    543.45938  0.032841394   0.03332885            4 
 1380000    1.0409747   -6.8354463    545.86829  0.032963061  0.033321084            5 
 1381000    1.0344447   -6.8813974    546.49268  0.032976869  0.033313331            2 
 1382000    1.0238236   -6.8203595    544.75184  0.032848037  0.033305605            2 
 1383000    1.0101533   -6.8252735    546.64579  0.032938406  0.033297954            6 
 1384000    1.0142097   -6.8550499    545.11907   0.03282268  0.033290228            2 
 1385000    1.0372268   -6.8742314    544.90021  0.032785813   0.03328225            2 
 1386000    1.0259189    -6.883847     545.1288  0.032775902    0.0332742            2 
 1387000    1.0027059   -6.8908872    545.76183  0.032790305  0.033266382            4 
 1388000    1.0341403   -6.8876763    546.18373   0.03279201   0.03325858            2 
 1389000   0.99593383   -6.8530437    548.83599  0.032927525   0.03325081            1 
 1390000    1.0387158   -6.8752164    547.45114  0.032820812  0.033243103            2 
 1391000    1.0129192   -6.8503983    549.62724  0.032927584  0.033235403            3 
 1392000    1.0143847   -6.8440363     550.2156  0.032939152  0.033227818            2 
 1393000    1.0448673   -6.8441532    549.34525  0.032863439  0.033220183            3 
 1394000    1.0424049   -6.9182906     547.6049  0.032735826  0.033212498            6 
 1395000    1.0085934   -6.8370447     552.2774  0.032991482  0.033204826            5 
 1396000    1.0505727   -6.8286192    550.84832   0.03288254  0.033197448            2 
 1397000     1.029427   -6.8594566    550.65936  0.032847731  0.033189884            8 
 1398000    1.0235108   -6.8360468    551.39131  0.032867865  0.033182158            4 
 1399000    1.0310424   -6.8644299    551.73051  0.032864576  0.033174529            2 
 1400000    1.0036981   -6.7964887    552.27554  0.032873544  0.033167113            3 
 1401000     1.015418   -6.8383489    551.87569  0.032826296  0.033159792            5 
 1402000    1.0173721   -6.8543526    552.13644  0.032818381  0.033152328            2 
 1403000    1.0029738   -6.8667195      553.144  0.032854835  0.033145063            2 
 1404000    1.0189473    -6.852208    553.92584   0.03287784  0.033137794            2 
 1405000    1.0364621   -6.8624287    553.94458   0.03285555  0.033130374            2 
 1406000    1.0524193   -6.8413425    553.76169  0.032821343   0.03312293            2 
 1407000    1.0343563   -6.8564986     553.1707  0.032763012  0.033115484            2 
 1408000    1.0287205   -6.8541595    552.53791  0.032702291  0.033108048            2 
 1409000    1.0296238   -6.8355155    556.21311  0.032896446  0.033100574            2 
 1410000    1.0401966   -6.8700801    555.76021  0.032846348  0.033093118            2 
 1411000    1.0237458   -6.8686159    554.96446  0.032776072  0.033085631            2 
 1412000    1.0355887   -6.8790879    553.84444  0.032686759  0.033078141            6 
 1413000    1.0149905   -6.8457573    555.21517  0.032744466  0.033070602            2 
 1414000    1.0062186   -6.8990879    555.60162  0.032744084  0.033063074            2 
 1415000    1.0100482   -6.8472642    555.79428   0.03273229  0.033055644            2 
 1416000    1.0246754    -6.874629     555.7434   0.03270618  0.033048093            2 
 1417000    1.0403195   -6.8635503    555.74669  0.032683291  0.033040586            4 
 1418000    1.0181204   -6.8652049    557.80844  0.032781408  0.033033184            3 
 1419000    1.0243587   -6.8655034    556.54907  0.032684348  0.033025676            1 
 1420000    1.0237883   -6.8254527    560.34843  0.032884298  0.033018303            5 
 1421000    1.0114169   -6.8479484    558.40922  0.032747433  0.033011121            4 
 1422000    1.0107239   -6.8590912    558.56238  0.032733379  0.033003957            2 
 1423000     1.022349   -6.8946006    557.91461  0.032672442  0.032996625            3 
 1424000    1.0230574   -6.8440696    558.95342  0.032710289  0.032989242            4 
 1425000    1.0146889   -6.9074374    559.21819  0.032702818  0.032981789            1 
 1426000    1.0177844   -6.9009084    558.55499  0.032641129  0.032974372            2 
 1427000     1.013725   -6.8691331    559.18269  0.032654911  0.032967059            3 
 1428000   0.99729251   -6.8740562    559.64144  0.032658814  0.032959749            4 
 1429000    1.0391198   -6.8550949    560.99748  0.032715039  0.032952586            2 
 1430000    1.0062941   -6.8459349    561.56767  0.032725389  0.032945518            3 
 1431000    1.0162078   -6.8487414     561.8819  0.032720819  0.032938511            5 
 1432000    1.0188916   -6.9066268    560.81485  0.032635873  0.032931444            2 
 1433000    1.0103997   -6.8909612    562.88186  0.032733302  0.032924366            4 
 1434000    1.0368011   -6.8701904    561.58989  0.032635396  0.032917086            4 
 1435000    1.0124809   -6.8577072    563.08695   0.03269959  0.032909816            2 
 1436000    1.0090107   -6.8040939    563.37123  0.032693316  0.032902695            3 
 1437000    1.0246756   -6.8932925    561.16179  0.032542437  0.032895534            4 
 1438000    1.0060364    -6.895459    562.80512  0.032615039  0.032888237            1 
 1439000    1.0340317    -6.871508    562.86166  0.032595648  0.032880908            6 
 1440000    1.0163318   -6.8384001    564.46095  0.032665564  0.032873635            1 
 1441000     1.033219   -6.8642766    564.26334  0.032631468  0.032866305            2 
 1442000    1.0192142   -6.8674484    564.57835  0.032627043  0.032859088            2 
 1443000    1.0206074   -6.8885362    564.18918  0.032581958   0.03285185            6 
 1444000   0.99288033   -6.8333113    563.15217  0.032499548  0.032844568            3 
 1445000    1.0470998   -6.8489373    565.83873  0.032631991   0.03283731            3 
 1446000    1.0261322   -6.8382911     566.1185  0.032625548  0.032829917            4 
 1447000    1.0068857    -6.838181    566.58347  0.032629778  0.032822654            3 
 1448000    1.0001772   -6.8675609    566.06041  0.032577142  0.032815368            4 
 1449000    1.0299142   -6.8694422    564.97442  0.032492202  0.032808053            4 
 1450000    1.0310936    -6.860489     567.5411  0.032617305  0.032800864            2 
 1451000     1.017981   -6.8520202    568.16966  0.032630925   0.03279364            4 
 1452000    1.0207386   -6.8672614    567.40452  0.032564539  0.032786465            3 
 1453000    1.0095015   -6.8745359     568.3947  0.032598916  0.032779273            6 
 1454000    1.0164946   -6.8891805    566.61092  0.032474262  0.032771949            2 
 1455000    1.0061092   -6.8831007    566.31059  0.032434741  0.032764573            2 
 1456000    1.0293447   -6.8908317    566.64784  0.032431767  0.032757307            1 
 1457000    1.0023542   -6.8616385    567.84759  0.032478128  0.032750088            3 
 1458000    1.0281784   -6.8682239    567.52523  0.032437428  0.032742879            2 
 1459000    1.0139707   -6.8862517      569.494  0.032527645  0.032735521            4 
 1460000    1.0076372   -6.8482326    567.90363  0.032414591  0.032728123            4 
 1461000    0.9929475   -6.8972403    567.87114  0.032390551  0.032720725            6 
 1462000    1.0121856   -6.8538887    570.21869  0.032502205  0.032713372            7 
 1463000    1.0397015   -6.8671394     568.6502  0.032390647  0.032706129            3 
 1464000    1.0114918   -6.8706514    569.60152  0.032422673  0.032698837            3 
 1465000    1.0135014   -6.8580448    569.30027  0.032383406  0.032691454            2 
 1466000     1.012866   -6.8873112    569.92432  0.032396789  0.032684118            4 
 1467000    1.0146648   -6.8648536    570.76146  0.032422259  0.032676881            4 
 1468000    1.0312036   -6.9070433    570.90288  0.032408201  0.032669529            3 
 1469000    1.0325225    -6.850308    570.93218  0.032387802  0.032662223            2 
 1470000    1.0334275   -6.8865532    570.67488  0.032351183  0.032654809            2 
 1471000    1.0136861   -6.8831991     569.7767  0.032278308  0.032647308            3 
 1472000    1.0155308   -6.8872177    569.83283  0.032259558  0.032639797            3 
 1473000    1.0293828   -6.9304098    569.98744  0.032246404  0.032632238            3 
 1474000    1.0005261   -6.8842658    571.34496  0.032301275   0.03262467            3 
 1475000     1.015115   -6.8673741    570.04403  0.032205877  0.032617064            2 
 1476000    1.0205818   -6.8929256    569.70437  0.032164881  0.032609345            2 
 1477000    1.0094545   -6.8585264    571.90605  0.032267324  0.032601687            3 
 1478000   0.99687706   -6.8836342    572.83229  0.032297716  0.032594226            3 
 1479000    1.0189756   -6.8916123    572.95479  0.032282781  0.032586723            5 
 1480000    1.0019216   -6.8646892    573.47863  0.032290463  0.032579287            2 
 1481000    1.0067313   -6.8664863    574.38961   0.03231992  0.032571816            4 
 1482000    1.0050452   -6.8855923    574.35745  0.032296303  0.032564382            3 
 1483000    1.0097906   -6.8629172    573.46167  0.032224189  0.032556858            2 
 1484000    1.0063725   -6.8399385    574.07327  0.032236819  0.032549454            3 
 1485000    1.0188464   -6.8755099    573.11377  0.032161266  0.032542013            3 
 1486000    1.0001529     -6.86058    575.52271  0.032274715  0.032534559            2 
 1487000   0.99001394   -6.8711612    574.73343  0.032208778  0.032527096            4 
 1488000    1.0011932    -6.910074    575.10313  0.032207837  0.032519536            2 
 1489000    1.0108035   -6.9098607    574.23351  0.032137537  0.032512081            4 
 1490000     1.031354   -6.8881292    577.14886  0.032279019  0.032504547            6 
 1491000    1.0216832   -6.8731978    577.73483   0.03229012   0.03249708            4 
 1492000    1.0247615   -6.8816804    576.95075  0.032224684  0.032489722            4 
 1493000    1.0190324   -6.8824437    577.79731  0.032250352  0.032482199            3 
 1494000    1.0207064   -6.8887895    576.06983  0.032132409  0.032474749            3 
 1495000    1.0131347   -6.8657637    576.66737  0.032144223   0.03246715            3 
 1496000    1.0015935   -6.8859251    576.81246  0.032130819  0.032459587            3 
 1497000    1.0233501   -6.8977555    578.16014  0.032184377  0.032452088            7 
 1498000    1.0168077   -6.8678595     577.8781  0.032147202  0.032444595            3 
 1499000    1.0076273   -6.8591203    580.47533  0.032270143  0.032437246            2 
 1500000    1.0344813   -6.8905064    578.55153  0.032141752  0.032429869            3 
 1501000    1.0210985   -6.8454066    578.39129  0.032111442  0.032422371            2 
 1502000    1.0089296   -6.9019644    578.16974  0.032077771  0.032414947            6 
 1503000    1.0261405   -6.8909722    579.39545  0.032124387  0.032407506            2 
 1504000    1.0044853   -6.8991637    579.78598  0.032124666  0.032399986            3 
 1505000    1.0046575   -6.8906697    578.23381  0.032017376  0.032392562            3 
 1506000   0.99545983   -6.8761004    581.61457  0.032183188  0.032385038            4 
 1507000   0.99685425   -6.9094763    579.28388  0.032032951  0.032377474            3 
 1508000    1.0019052   -6.9009944    579.61287  0.032029889   0.03236985            4 
 1509000     1.029103   -6.8728767    580.06842   0.03203382  0.032362434            3 
 1510000    1.0092031   -6.8734064    581.67581  0.032101314  0.032355036            3 
 1511000    1.0167982   -6.9116722    581.36088    0.0320627  0.032347612            5 
 1512000    1.0144239   -6.9185505      581.564  0.032052689  0.032340207            2 
 1513000    1.0100506   -6.8704972    582.65089  0.032091369   0.03233292            3 
 1514000   0.98952081   -6.9140411    583.85137  0.032136249  0.032325672            1 
 1515000    1.0148259   -6.8716404    583.64446  0.032103655  0.032318502            2 
 1516000    1.0163728   -6.8841182    584.15928  0.032110779  0.032311196            2 
 1517000    1.0136141   -6.8935583    584.78361  0.032123908  0.032303881            6 
 1518000    1.0145519   -6.8538752    584.72931  0.032099765  0.032296618            9 
 1519000    1.0134258   -6.9049321    584.11961  0.032045184  0.032289283            2 
 1520000      1.02284   -6.9119848      584.962  0.032070285  0.032281983            4 
 1521000    0.9954274   -6.8246228    586.27751  0.032121275  0.032274821            3 
 1522000    1.0114257    -6.850391    586.13323  0.032092271  0.032267648            3 
 1523000     1.009451    -6.866491      585.417  0.032032009  0.032260533            2 
 1524000    1.0081483   -6.9074222    584.82347  0.031978536  0.032253331            2 
 1525000    1.0293831   -6.9191444    584.83577  0.031958239  0.032246029            3 
 1526000    1.0374603   -6.9233464    584.87628  0.031939508  0.032238667            2 
 1527000    1.0082877   -6.9114721    586.85131  0.032026376  0.032231336            2 
 1528000    1.0066477    -6.889303    586.43072  0.031982478  0.032224149            3 
 1529000    1.0024143    -6.871832    587.26781  0.032007184  0.032216937            3 
 1530000     0.994488   -6.8741821    587.52783  0.032000427  0.032209778            4 
 1531000     1.012488   -6.8629464    586.86041  0.031943197  0.032202674            3 
 1532000    1.0165576   -6.8685309    588.92631  0.032034721  0.032195554            3 
 1533000    1.0207653   -6.8743869    588.89203  0.032011961  0.032188529            2 
 1534000    1.0315657    -6.904407    589.57433  0.032028158  0.032181427            4 
 1535000    1.0147046   -6.9231624    586.66622  0.031849415  0.032174262            7 
 1536000    1.0045802   -6.8629108    590.32783  0.032027335   0.03216724            2 
 1537000    1.0115122   -6.8883175    589.87673  0.031982039  0.032160266            4 
 1538000   0.98667713   -6.8690634    588.62122  0.031893217  0.032153196            3 
 1539000   0.99641976   -6.8706751    591.12675  0.032008163  0.032146174           10 
 1540000   0.99988238   -6.8860707    591.38426  0.032001313   0.03213902            3 
 1541000   0.98256003   -6.8939905     589.9344  0.031902141  0.032131792            5 
 1542000    1.0064557   -6.9212601    591.51279  0.031966753  0.032124479            5 
 1543000    1.0191547   -6.9439896    589.19548  0.031820883  0.032117216            2 
 1544000   0.99975567     -6.90422    590.76804  0.031885149  0.032109971            4 
 1545000    1.0022897   -6.9209934    588.85568  0.031761364   0.03210272            4 
 1546000    1.0222496   -6.9036443    592.05705  0.031913381  0.032095412            2 
 1547000    1.0175287   -6.9008748    589.67609  0.031764496  0.032087914            3 
 1548000    1.0246176   -6.9391995    589.42268  0.031730334  0.032080417            4 
 1549000    1.0060599   -6.9433388    590.14914  0.031748931  0.032072942            4 
 1550000    1.0259544   -6.9022655    592.04426  0.031830337  0.032065697            1 
 1551000    1.0033379   -6.8921062    589.02039  0.031647345  0.032058245            2 
 1552000     1.013133    -6.910777    591.80833   0.03177665  0.032050915            5 
 1553000   0.98990578   -6.9195503    592.42349  0.031789198  0.032043479            3 
 1554000    1.0077529   -6.9103647    592.18157  0.031755768   0.03203605            9 
 1555000    1.0233602   -6.8920893    594.13316  0.031839934  0.032028704            2 
 1556000    1.0057338   -6.8757072    593.04168  0.031761015  0.032021361            2 
 1557000   0.99904903   -6.9087625    593.54021  0.031767299  0.032013968            7 
 1558000    1.0045134   -6.9104476    592.94421   0.03171503  0.032006557            4 
 1559000    1.0107651   -6.9082956    592.32398  0.031661534  0.031999067            2 
 1560000    1.0074081    -6.894626    593.72066  0.031715847  0.031991553            2 
 1561000    1.0100218   -6.9166044    593.67317  0.031692994  0.031984163            1 
 1562000    1.0044388    -6.933598    593.11565   0.03164296  0.031976632            5 
 1563000   0.98120505   -6.9226541    592.54776  0.031592438  0.031968989            4 
 1564000   0.99872373   -6.9018269    593.03418  0.031598155  0.031961333            3 
 1565000    1.0044187    -6.905162    595.54083  0.031711439  0.031953661            2 
 1566000    0.9977507   -6.9133659    594.83281  0.031653512  0.031946138            3 
 1567000    1.0101192   -6.9187464    593.78536  0.031577609  0.031938618            2 
 1568000   0.99171475   -6.8859696    596.32375  0.031692376  0.031931101            2 
 1569000   0.98141323   -6.9284158    594.60789  0.031581043  0.031923433            3 
 1570000    1.0073856    -6.900691    594.20369  0.031539474  0.031915627            2 
 1571000   0.98439416   -6.8889064      595.402  0.031582962  0.031907908            3 
 1572000   0.98497331   -6.9001976    595.63723  0.031575341  0.031900251            3 
 1573000    1.0421953   -6.9010369    594.87274  0.031514767  0.031892566            2 
 1574000   0.99894598   -6.9122565    594.84533  0.031493294   0.03188495            2 
 1575000    1.0098348   -6.9101882    596.45108  0.031558258   0.03187726            3 
 1576000    1.0008011   -6.9257898    597.32102  0.031584234  0.031869662            3 
 1577000    1.0106767   -6.9310889    598.51401  0.031627247  0.031862154            4 
 1578000    1.0140074    -6.923528    596.95656  0.031524956  0.031854564            2 
 1579000    1.0221903    -6.894011    598.68188  0.031596046  0.031847103            3 
 1580000   0.97775004   -6.9053083    599.70287  0.031629898  0.031839692            3 
 1581000   0.99833974   -6.9444308    598.75449  0.031559904  0.031832267            3 
 1582000    1.0077413   -6.9076097    599.56475  0.031582635  0.031824823            4 
 1583000    1.0007807   -6.8829925    600.11779  0.031591797  0.031817431            6 
 1584000    1.0187809   -6.9476461     601.2931  0.031633686   0.03181006            4 
 1585000   0.99970972    -6.894822    601.02905  0.031599845  0.031802765            6 
 1586000   0.99034447   -6.8869062    599.20814  0.031484244  0.031795519            5 
 1587000    0.9836499   -6.9148283    600.32028  0.031522804  0.031788115            4 
 1588000    1.0183328   -6.9250201    600.78094  0.031527127  0.031780766            4 
 1589000   0.99917201   -6.8718615    600.83855  0.031510308  0.031773388            3 
 1590000    1.0037882   -6.9288602    600.99175   0.03149852  0.031766005            4 
 1591000    0.9809431   -6.9031895    601.51517  0.031506137  0.031758596            4 
 1592000   0.99550762   -6.9279522    600.30328   0.03142291  0.031751208            5 
 1593000   0.99691487   -6.8997728    600.79718  0.031429022  0.031743849            3 
 1594000   0.98187221   -6.8910354    602.12132   0.03147853   0.03173656            2 
 1595000   0.99158334   -6.9461081    600.43882  0.031370889   0.03172906            4 
 1596000   0.99267027    -6.915998    601.09245  0.031385362  0.031721562            4 
 1597000    0.9933333   -6.9291925    601.11615  0.031366946  0.031714072            3 
 1598000    1.0060152   -6.8790272    603.91213  0.031493123  0.031706578            3 
 1599000     1.016942   -6.9219406    602.89751   0.03142055  0.031699224            3 
 1600000    1.0006469    -6.897913    601.72702  0.031339949  0.031691564            3 
 1601000   0.98466285   -6.8702197       603.24  0.031399125  0.031684094            6 
 1602000   0.97169707   -6.9039921    603.80577  0.031408956  0.031676707            3 
 1603000   0.99129456   -6.9134484    603.46514  0.031371654   0.03166918            6 
 1604000   0.98317058   -6.9110373    604.94225  0.031428837  0.031661638            2 
 1605000    1.0122913   -6.9225281    604.84432   0.03140417  0.031654031            3 
 1606000   0.98957472   -6.9624914    603.42455  0.031310946    0.0316463            3 
 1607000    1.0092881   -6.9234394    603.53042  0.031296952  0.031638718            5 
 1608000    1.0050173   -6.9123305     604.8859  0.031347735  0.031631197            5 
 1609000   0.98279881   -6.8873638    604.12178  0.031288677  0.031623623            1 
 1610000   0.99423859   -6.9079761    604.70812  0.031299592  0.031616047            3 
 1611000   0.98767225   -6.9130891    605.51171  0.031321731  0.031608422            3 
 1612000    1.0231274   -6.9408841    604.10031  0.031229338  0.031600642            3 
 1613000   0.99145341   -6.9380382    603.31739  0.031169528  0.031592945            3 
 1614000   0.99187275   -6.9420521    606.72973  0.031326401  0.031585303            2 
 1615000    1.0106159   -6.9286147    605.87947   0.03126313  0.031577719            3 
 1616000   0.99941619   -6.9290498    604.79526  0.031187874   0.03157004            2 
 1617000   0.98323721   -6.9400194     606.8931  0.031276701  0.031562449            3 
 1618000   0.98034896   -6.9356095    606.78505  0.031251805  0.031554888            3 
 1619000   0.98480034    -6.929582    607.32125  0.031260101  0.031547287            3 
 1620000    1.0114327   -6.9086879    609.02776  0.031328588  0.031539834            2 
 1621000   0.97868746   -6.9384907    608.98039  0.031306827  0.031532418            4 
 1622000     1.002043   -6.9162427    609.53595  0.031316068   0.03152494            4 
 1623000    1.0094215   -6.9029982    609.78301  0.031309458  0.031517503            4 
 1624000    0.9656378   -6.9311797    608.69788  0.031234497  0.031510105            2 
 1625000   0.99358267   -6.9033344    609.50338  0.031256584  0.031502502            5 
 1626000    0.9640428    -6.942414    608.65474  0.031193868  0.031494922            5 
 1627000   0.97864636    -6.885682    607.53629  0.031117409   0.03148713            2 
 1628000   0.99298371   -6.9055104    607.17941  0.031080027  0.031479508            4 
 1629000   0.98880411   -6.9216309    609.41113  0.031175114  0.031471811            7 
 1630000   0.99559961    -6.927273    610.12256   0.03119236   0.03146417            4 
 1631000   0.99906857   -6.9044822    609.09029  0.031120493  0.031456537            3 
 1632000    1.0163758   -6.9411234    609.87039  0.031141258  0.031448836            3 
 1633000   0.99327531   -6.9144008    610.24577  0.031141344   0.03144115            1 
 1634000   0.99695527   -6.9731128    609.10468   0.03106409  0.031433544            4 
 1635000   0.98522097   -6.9149342    611.19007   0.03115138  0.031425872            3 
 1636000    0.9995239    -6.953633    610.39301  0.031091739   0.03141816            8 
 1637000   0.96858221   -6.9406508    612.03915  0.031156544  0.031410589           10 
 1638000    0.9834119   -6.9453396    611.70724  0.031120637  0.031402891            2 
 1639000   0.99838936   -6.9103639    611.74666  0.031103653   0.03139532            5 
 1640000   0.98141584   -6.8919288    613.01978  0.031149379  0.031387782            4 
 1641000    1.0072332   -6.9609362     612.0385  0.031080566  0.031380109            2 
 1642000   0.98185289   -6.9505726    611.42542  0.031030523  0.031372404           10 
 1643000    1.0014107   -6.9496279    611.10275   0.03099527  0.031364747            3 
 1644000   0.99226796   -6.9346158    612.54999  0.031049777  0.031357049            2 
 1645000   0.99475004   -6.9498137    611.68875  0.030987272  0.031349513            9 
 1646000    1.0048025   -6.9642481    611.59151  0.030963523  0.031341734            2 
 1647000    0.9929186   -6.9417735     611.9351  0.030962108  0.031334064            3 
 1648000   0.98250023   -6.9319772    612.88132  0.030991167  0.031326399            2 
 1649000     1.011757   -6.9275746    614.16386  0.031037187  0.031318811            4 
 1650000   0.98769016   -6.9280128    612.86362  0.030952708  0.031311117            3 
 1651000   0.99878745   -6.9214291    614.65806  0.031024534   0.03130344            3 
 1652000   0.99075401   -6.9412561    614.20167  0.030982732  0.031295702            2 
 1653000    1.0073258   -6.9570422     613.5163  0.030929437  0.031287959            3 
 1654000   0.96911798   -6.9341801    615.45667  0.031008498  0.031280264            4 
 1655000   0.98810698   -6.9298277    615.66293  0.031000148  0.031272661            2 
 1656000   0.99149165   -6.9416893    615.08557  0.030952374  0.031265069            2 
 1657000    1.0056071   -6.9184303    613.91788  0.030874969  0.031257434            3 
 1658000   0.99054016   -6.9042916    616.28308  0.030975225  0.031249868            3 
 1659000   0.98199257   -6.9055838    617.98549  0.031042068  0.031242416            2 
 1660000   0.98896853   -6.9494031    616.94853  0.030971311   0.03123487            3 
 1661000   0.98701608     -6.96652    617.68237  0.030989483   0.03122725            3 
 1662000    1.0035852   -6.9496167    616.03869  0.030888422  0.031219565            3 
 1663000   0.97155717   -6.9554205    617.49142  0.030942645  0.031211963            5 
 1664000   0.97614824   -6.9436877    616.12366  0.030855552  0.031204325            4 
 1665000    0.9636887   -6.9272208    618.38247  0.030950074  0.031196612            5 
 1666000   0.99691625   -6.9275122    619.83575  0.031004189  0.031189117            5 
 1667000     1.003276   -6.9268461     620.3407  0.031010833  0.031181645            1 
 1668000    1.0087488    -6.930402    618.22352  0.030886467  0.031174216            3 
 1669000   0.97654969   -6.9377396    620.56508  0.030984875  0.031166756            2 
 1670000    0.9955915   -6.9019021    619.09575  0.030893001  0.031159377            8 
 1671000   0.98993762   -6.9339398    618.79747  0.030859639  0.031151959            5 
 1672000   0.99402274   -6.9450653    619.46351  0.030874377  0.031144428            2 
 1673000   0.97616714   -6.9330403    618.82224  0.030823981  0.031136789            1 
 1674000   0.98197984   -6.9572894    619.64511  0.030846531  0.031129183            2 
 1675000   0.98553502    -6.950303    618.82854  0.030787489  0.031121614            3 
 1676000   0.95906325   -6.9404071    620.33818  0.030844182  0.031114084            4 
 1677000    0.9749937   -6.9265145    621.22121  0.030869669  0.031106546            4 
 1678000   0.98462183   -6.9548509    620.54602  0.030817741  0.031098982            3 
 1679000   0.97195045   -6.9532581    620.86434  0.030815184  0.031091527            6 
 1680000   0.97508371   -6.9471784    621.69286  0.030837939  0.031083996            3 
 1681000   0.98736246   -6.9082756    621.88171  0.030828957  0.031076461            3 
 1682000    1.0126078   -6.9232975    622.03322  0.030818134  0.031068929            2 
 1683000   0.97624202   -6.9652671    622.61059  0.030828411  0.031061379            2 
 1684000   0.97770338   -6.9265363    623.98707   0.03087822  0.031053824           14 
 1685000   0.97472719   -6.9517902    623.06149  0.030814119  0.031046326            3 
 1686000   0.96682434   -6.9425087    623.87313   0.03083596  0.031038881            3 
 1687000   0.97951653   -6.9619606    622.82955   0.03076613  0.031031369            2 
 1688000   0.99054189   -6.9234752    623.29759   0.03077101  0.031023831            2 
 1689000   0.97337267   -6.9457978    623.28168  0.030752007  0.031016291            4 
 1690000    0.9831717   -6.9257287    624.11498    0.0307749  0.031008837            2 
 1691000   0.99540771   -6.9300539    623.22841   0.03071301  0.031001476            2 
 1692000   0.98030733   -6.9174696     625.2969  0.030796735  0.030994042            2 
 1693000   0.99555263    -6.968618    624.81589  0.030754867   0.03098662            4 
 1694000   0.98343398   -6.9645771    624.06764  0.030699904  0.030979225            4 
 1695000   0.96104348   -6.9585022    625.43408  0.030748971  0.030971846            3 
 1696000    0.9940166   -6.9527864     626.8621  0.030801007  0.030964415            4 
 1697000   0.98118043   -6.9175655    625.67836  0.030724728  0.030957111            2 
 1698000   0.95410245    -6.954424    628.04192  0.030822631  0.030949797            2 
 1699000   0.96902322   -6.9562761    626.29922  0.030719012  0.030942557            4 
 1700000   0.97979686   -6.9241827    628.98281   0.03083249  0.030935373            3 
 1701000   0.97369326   -6.9491256    628.38092  0.030784877  0.030928077            6 
 1702000   0.95700375   -6.9455573    626.23139  0.030661545   0.03092072            4 
 1703000    0.9652597    -6.946399    627.83092  0.030721811  0.030913379            4 
 1704000   0.98688476   -6.9322666    630.94169  0.030855912  0.030906118            3 
 1705000   0.99879281   -6.9276113    629.49027  0.030766875  0.030899008            5 
 1706000   0.97660771   -6.9319099    630.33364  0.030790037  0.030891835            5 
 1707000   0.98502644   -6.9117835    628.91353  0.030702672  0.030884669            6 
 1708000   0.96916182   -6.9388783    629.10356  0.030693968  0.030877536            3 
 1709000   0.96406224   -6.9763944    628.56329  0.030649663  0.030870342            4 
 1710000     0.981599   -6.9729344    626.97115   0.03055415  0.030863014            6 
 1711000   0.97280328   -6.9382422    630.14282  0.030690766   0.03085573           10 
 1712000    1.0084536   -6.9510665    628.81973  0.030608437  0.030848313            5 
 1713000   0.96739466   -6.9756686    628.25164  0.030562933  0.030840969            4 
 1714000   0.98171323    -6.942676    629.98671  0.030629459  0.030833589            2 
 1715000   0.98446422   -6.9743709    629.65556  0.030595508  0.030826361            4 
 1716000   0.97792509   -6.9455014    631.40474  0.030662623  0.030818975            3 
 1717000   0.99812886   -6.9338218     631.7182  0.030659979   0.03081169            5 
 1718000   0.97357653   -6.9578973    629.94025  0.030555891  0.030804389            9 
 1719000    0.9927407   -6.9310864     633.3708  0.030704421  0.030797113            4 
 1720000   0.99007842   -6.9622164    629.72172  0.030509773  0.030789771            4 
 1721000   0.98223797   -6.9711499    630.99625   0.03055376  0.030782402            3 
 1722000   0.98763524   -6.9383981    632.50655  0.030609105  0.030775088            3 
 1723000    1.0064197   -6.9497799    633.51689  0.030640206  0.030767817            3 
 1724000   0.96425831   -6.9795871    629.28416  0.030417834  0.030760482            6 
 1725000   0.97887958   -6.9467568    631.00844    0.0304835  0.030753051            2 
 1726000   0.98255086   -6.9711869    630.82715  0.030457085  0.030745604            2 
 1727000   0.98600255   -6.9730001    630.28197  0.030413143   0.03073818            6 
 1728000   0.96099175   -6.9633639    631.19859  0.030439747  0.030730628            4 
 1729000   0.97357851   -6.9766731    631.92934  0.030457362  0.030723062            2 
 1730000   0.97591525   -6.9517028     633.9606  0.030537601  0.030715474            3 
 1731000   0.98879041   -6.9546265    632.85829  0.030466892  0.030708134            9 
 1732000   0.96696355   -6.9318407    634.62803  0.030534451  0.030700858            5 
 1733000   0.98571951   -6.9352832    635.28732  0.030548534   0.03069363            4 
 1734000    0.9704898   -6.9856173    634.35462  0.030486093  0.030686345            2 
 1735000   0.99369651   -6.9739134    633.76604  0.030440251  0.030678968            2 
 1736000   0.96214409   -6.9793103    636.09143  0.030534343  0.030671632            3 
 1737000   0.97350155   -6.9745244    634.31109  0.030431352  0.030664286            7 
 1738000   0.97167072   -6.9379296    635.51096  0.030471373  0.030656983            2 
 1739000   0.97911473   -6.9211462    635.61429  0.030458803  0.030649657            2 
 1740000   0.97355713    -6.985653    633.90668  0.030359516  0.030642164            4 
 1741000   0.97282735   -6.9753092     633.4599  0.030320692  0.030634585            5 
 1742000   0.95807733   -6.9846708    634.99017  0.030376491  0.030626999            4 
 1743000   0.98485633   -6.9333873    634.64413  0.030342519  0.030619454            3 
 1744000   0.94591682    -7.003303    632.61396  0.030228114  0.030611838            5 
 1745000   0.96047388   -6.9576852    637.40189  0.030439441  0.030604346            3 
 1746000   0.97828642   -6.9787818    635.77117  0.030344176  0.030596991            2 
 1747000   0.97385886   -6.9756877    636.78646  0.030375236  0.030589506            4 
 1748000   0.94485522   -6.9561141    636.72313   0.03035484  0.030582118            3 
 1749000   0.99876113   -6.9542025    637.79053  0.030388342  0.030574711            2 
 1750000   0.96988892    -6.970842    637.84069  0.030373366  0.030567345            3 
 1751000    0.9755901    -6.932476     638.4238  0.030383771   0.03055996            2 
 1752000    0.9794909   -6.9789376    637.85955  0.030339591  0.030552573            4 
 1753000   0.99115791   -6.9779904    635.48743  0.030209518   0.03054505            3 
 1754000   0.96186743   -6.9823689    636.75847  0.030252683  0.030537556            3 
 1755000   0.97868516   -6.9734979    637.57228  0.030274088   0.03053001            6 
 1756000   0.97265969   -6.9798309    639.31433  0.030339518  0.030522553            2 
 1757000   0.99966072   -6.9868025    638.20376  0.030269577  0.030515082            5 
 1758000   0.95573078   -6.9576849    637.74891  0.030230798  0.030507646            5 
 1759000   0.96687904   -6.9720443    639.72531  0.030307244  0.030500298            3 
 1760000   0.97622101   -6.9579997    639.43235  0.030276153  0.030492997            3 
 1761000   0.96437854   -6.9723311    638.59889   0.03021952  0.030485711            3 
 1762000   0.95031716   -6.9675675     639.7439  0.030256522  0.030478366            8 
 1763000   0.99397882   -6.9622171    640.40064  0.030270403  0.030470999            4 
 1764000   0.97044257   -6.9646216    639.31353  0.030201886  0.030463714            3 
 1765000    0.9839921   -6.9682516    641.15051  0.030271507  0.030456242            5 
 1766000   0.96579145   -6.9881433    640.25084  0.030211912  0.030448852            4 
 1767000   0.96723741   -6.9704969     642.3412  0.030293398  0.030441438            4 
 1768000   0.98863959   -6.9563374    643.57823   0.03033457  0.030434072            4 
 1769000   0.96832614   -6.9897484    638.94807  0.030099306  0.030426633            2 
 1770000   0.96963396   -6.9437772    641.38828  0.030197188    0.0304191            3 
 1771000   0.97767441   -6.9527847    641.24601  0.030173443  0.030411532            2 
 1772000   0.96590494   -6.9739296    641.71253  0.030178354  0.030404093            2 
 1773000   0.96774661   -7.0062525    640.83579  0.030120125  0.030396572            4 
 1774000   0.96928314   -6.9846736    640.93627  0.030107867   0.03038906            3 
 1775000   0.95924401   -6.9791363    641.22416  0.030104421  0.030381454            3 
 1776000   0.98911818   -6.9653041    640.98026  0.030076026  0.030373854            3 
 1777000   0.96618137   -6.9910858    640.01678  0.030013918  0.030366254            2 
 1778000    0.9429732   -6.9678638    642.27464  0.030102861  0.030358702            4 
 1779000   0.97436902   -6.9440319    644.52214  0.030191219  0.030351158            4 
 1780000   0.99047975   -6.9638293    641.92351  0.030052599  0.030343617            4 
 1781000   0.96968589   -6.9661633      642.644  0.030069437  0.030336091            5 
 1782000   0.95315859   -7.0040321    643.72068  0.030102913  0.030328614            2 
 1783000   0.97179691   -6.9932181     641.7522  0.029994027  0.030321037            3 
 1784000   0.99911505    -6.963457    643.16704  0.030043303  0.030313428            2 
 1785000   0.96115906   -6.9851811    642.08555  0.029975983  0.030305925            2 
 1786000   0.96508841   -6.9498819    645.09124  0.030099442  0.030298485            3 
 1787000   0.96282977   -6.9495778    644.87267  0.030072406  0.030291142            1 
 1788000   0.96466451    -7.009657    643.57032  0.029994888   0.03028367            1 
 1789000   0.98995493   -6.9416234    644.41354    0.0300174  0.030276085            3 
 1790000   0.98516162   -7.0200918     643.9522  0.029979153  0.030268619            2 
 1791000   0.96167034   -6.9959211     645.9383  0.030054825  0.030261123            2 
 1792000   0.95727658   -6.9938843     646.3849  0.030058821  0.030253734            3 
 1793000   0.96583436   -6.9872993    645.86672  0.030017973  0.030246335            1 
 1794000   0.96391523    -6.995023    646.89872  0.030049179  0.030238942            5 
 1795000   0.97572976   -6.9723737    647.10105  0.030041831  0.030231527            2 
 1796000    0.9640969    -6.986065    645.43445  0.029947775  0.030224068            2 
 1797000   0.95784376   -6.9827715    645.12534  0.029916775  0.030216671            2 
 1798000   0.97959811   -6.9617186    648.53644  0.030058233  0.030209075            2 
 1799000   0.97456075   -6.9413924    647.10258  0.029975105  0.030201599            5 
 1800000   0.97092589   -6.9999579    646.77392  0.029943237  0.030194126            5 
 1801000   0.96163252   -6.9926255    647.48167  0.029959359  0.030186501            2 
 1802000   0.96110189   -7.0009349    647.95376  0.029964565  0.030178878            4 
 1803000   0.96487179   -6.9681724    647.48198   0.02992614  0.030171398            2 
 1804000   0.97947868     -6.95875    648.22509  0.029943879  0.030164016            4 
 1805000   0.98110333   -6.9947628     648.2699  0.029929358  0.030156528            3 
 1806000   0.93511853   -6.9901527    648.08695  0.029904344  0.030149092            4 
 1807000   0.95642248   -6.9788249     648.9428  0.029927264    0.0301417            3 
 1808000   0.94435932   -6.9930431     649.4269  0.029933025  0.030134321            4 
 1809000   0.98252849   -6.9872205    649.48316   0.02991907  0.030126888            5 
 1810000   0.97309854    -6.996066    648.74754  0.029868671  0.030119405            3 
 1811000   0.94725479   -7.0166098    648.74326  0.029851981   0.03011198            2 
 1812000   0.97522915   -6.9737929    649.54466  0.029872363   0.03010455            7 
 1813000   0.94825362   -6.9678291    650.73657  0.029910672   0.03009722            6 
 1814000   0.94164231   -6.9833411    650.78545  0.029896428  0.030089802            1 
 1815000   0.97788196   -6.9620244    650.73084  0.029877449  0.030082418            4 
 1816000   0.94611372   -6.9897668    651.51421  0.029896944  0.030075005            6 
 1817000   0.94186722   -6.9787687    652.84755  0.029941641  0.030067535            4 
 1818000   0.96191015   -7.0025597     651.7889  0.029876646   0.03006014           12 
 1819000   0.98481099   -7.0075277    650.53957  0.029802986  0.030052672            4 
 1820000   0.98479637   -7.0196118    650.28367  0.029774893  0.030045169           13 
 1821000   0.95884597   -7.0109137    651.95125  0.029834855  0.030037782            3 
 1822000   0.96147758    -6.998859    650.65282  0.029759094  0.030030355            4 
 1823000   0.93140926   -7.0110449    650.35673  0.029729234  0.030022892            6 
 1824000   0.98554999   -7.0185431     652.7492   0.02982224  0.030015438            4 
 1825000   0.95833369   -6.9928243    653.50708  0.029840506  0.030008048            3 
 1826000   0.95783015   -6.9620531    652.98333  0.029800261  0.030000763            3 
 1827000   0.96825167   -6.9874134    653.40119   0.02980301  0.029993462           11 
 1828000   0.96605496   -7.0066733    653.15558  0.029775509   0.02998614            4 
 1829000   0.96168614   -6.9603117    655.27988  0.029856018  0.029978969            6 
 1830000   0.98384549   -6.9920033    654.81038  0.029818323  0.029971805            2 
 1831000   0.94260002    -6.992429    655.04019  0.029812497  0.029964603            2 
 1832000   0.94530489   -6.9420538    656.51659  0.029863382  0.029957363            3 
 1833000   0.95099954   -6.9828287    654.32751  0.029747568  0.029950075            4 
 1834000   0.96919338   -6.9972659    654.99451  0.029761655  0.029942722            3 
 1835000   0.96205919   -7.0066234     653.5223  0.029678578  0.029935336            5 
 1836000   0.92254767   -6.9977574    655.05156  0.029731825  0.029927979            3 
 1837000   0.95675841   -7.0098958    655.63467  0.029742092  0.029920638            6 
 1838000    0.9678304   -6.9922432    655.34449  0.029712753  0.029913306            8 
 1839000   0.94775647    -6.991825    656.13186  0.029732276  0.029905965            3 
 1840000    0.9584206    -7.005004    656.57652  0.029736255  0.029898607            3 
 1841000   0.97521368   -7.0266979    656.63897   0.02972293  0.029891267            7 
 1842000   0.94894341   -7.0144927    657.54731  0.029747888  0.029883972            4 
 1843000   0.95708184   -7.0120915    656.89747  0.029702363  0.029876626            5 
 1844000   0.95728383   -6.9841396     656.0692  0.029648825  0.029869308            2 
 1845000   0.95346161   -6.9599768    659.06514  0.029768073  0.029862008            2 
 1846000   0.94671932    -6.979626    656.37494  0.029630505  0.029854788            3 
 1847000   0.94593645     -6.98374    658.09709  0.029692162  0.029847585            3 
 1848000   0.95870517     -7.02854    658.31805  0.029686059  0.029840304            2 
 1849000   0.96074663   -6.9954425    658.90415  0.029696419  0.029832978            3 
 1850000   0.94341325   -7.0081952    657.23179  0.029605036  0.029825713            5 
 1851000   0.96361297   -6.9974222     659.5917  0.029695286  0.029818425            6 
 1852000    0.9506737   -7.0046608    659.91645  0.029693865  0.029811173            4 
 1853000   0.97797364   -7.0148253    658.49108  0.029613738  0.029803876            9 
 1854000   0.97394724   -7.0211174    657.83207  0.029568144  0.029796506            2 
 1855000   0.95877623   -7.0046505     658.3701  0.029576375  0.029789211            3 
 1856000   0.93606323   -7.0423782    658.50213  0.029566367   0.02978192            3 
 1857000   0.95508326    -7.014569    659.58444  0.029599015  0.029774601            5 
 1858000   0.94379397   -7.0060958    660.22111  0.029611639  0.029767341            3 
 1859000   0.96497015   -6.9982227    661.56329  0.029655876   0.02976015            2 
 1860000   0.96031084   -6.9984081    660.76831  0.029604315  0.029752993            2 
 1861000   0.95449868   -7.0128444     658.8054   0.02950051  0.029745815            2 
 1862000    0.9543482   -7.0314494     660.4076  0.029556373  0.029738596            7 
 1863000   0.93524344   -7.0049321    662.06545  0.029614665   0.02973132            3 
 1864000   0.94859925   -6.9954054    662.18872  0.029604288  0.029724036            3 
 1865000   0.94781331   -7.0037866    661.84231  0.029572936  0.029716857            3 
 1866000   0.93871206   -6.9796036    664.26687  0.029665366  0.029709751            5 
 1867000   0.93789651   -6.9750626    663.22612  0.029603023  0.029702623            6 
 1868000   0.95621354   -7.0450831    662.92881  0.029573912  0.029695334            4 
 1869000   0.93055492   -7.0009232    662.52354  0.029540019   0.02968813            2 
 1870000   0.95838954    -6.999025    663.91813  0.029586369  0.029680901            5 
 1871000   0.93798516   -7.0301525    663.23728  0.029540232  0.029673616            4 
 1872000   0.93046503   -6.9937023    664.94126  0.029600305   0.02966644            2 
 1873000   0.92771109    -7.006593    662.74913   0.02948697  0.029659269            7 
 1874000   0.97551508   -7.0224717     662.9177  0.029478731  0.029652073            6 
 1875000   0.95555651   -6.9901534    664.02314   0.02951214  0.029644877            2 
 1876000   0.95496561   -7.0100262    665.37233   0.02955634  0.029637726            4 
 1877000   0.98348206   -7.0195967    664.40276  0.029497548  0.029630558            4 
 1878000   0.93592616   -7.0108086    663.47996  0.029440893   0.02962333            3 
 1879000   0.94656708   -6.9814212     665.3876  0.029509828  0.029616073            3 
 1880000   0.94382812   -7.0235973    665.10206  0.029481474  0.029608788            2 
 1881000   0.96218623   -7.0092558    665.35922  0.029477194  0.029601544            4 
 1882000   0.95762133   -7.0184962    664.65773   0.02943047  0.029594231            2 
 1883000   0.95678134   -7.0510179    662.40334  0.029315071  0.029586852            4 
 1884000   0.93611257   -6.9826314    663.47762  0.029347029   0.02957939            4 
 1885000   0.93260158    -7.031437    663.40685  0.029328331  0.029571988            3 
 1886000   0.96873435   -6.9751361    664.34894  0.029354407  0.029564543            2 
 1887000   0.94023911   -7.0118938    666.65448  0.029440668  0.029557289            3 
 1888000   0.93970866   -7.0012952    664.55166  0.029332259  0.029549889            2 
 1889000   0.92784001   -7.0272075    665.31181  0.029350265  0.029542438            4 
 1890000   0.94284909   -7.0100416    665.31692  0.029334961  0.029535002            3 
 1891000   0.95316698   -6.9936833    664.67875  0.029291325  0.029527568            3 
 1892000   0.94312029   -7.0548101    665.53044  0.029313356  0.029520108            3 
 1893000   0.96461758   -7.0452531    665.33515  0.029289274  0.029512613            4 
 1894000     0.940783   -6.9949481    666.51145  0.029325565  0.029505167            1 
 1895000   0.94281664   -7.0173453     664.3809  0.029216398  0.029497663            4 
 1896000    0.9576733   -6.9861653    666.47793  0.029293158  0.029490276            8 
 1897000   0.96950461   -6.9427226    666.14129  0.029262928  0.029482897            6 
 1898000   0.93847387    -7.000396    665.71222  0.029228671  0.029475471            8 
 1899000   0.93383876   -7.0125406    666.08996  0.029229856  0.029467969            2 
 1900000   0.92188638   -7.0192813    666.67625  0.029240186  0.029460458            4 
 1901000   0.95215328   -6.9996696    666.30094  0.029208352  0.029453014            3 
 1902000   0.95746121   -7.0629641    664.71268  0.029123409  0.029445455            2 
 1903000   0.93308845   -7.0215298    665.77177  0.029154483  0.029437882            6 
 1904000   0.93218926    -7.036547    665.91151  0.029145287  0.029430353            2 
 1905000   0.94870173   -7.0324593    667.60017  0.029203857  0.029422903            4 
 1906000   0.95019997   -7.0495314    668.53879  0.029229573  0.029415461            3 
 1907000    0.9524143   -7.0351479    667.74734   0.02917966  0.029408016            2 
 1908000   0.94057292   -7.0558871    669.72452  0.029250722   0.02940074            4 
 1909000   0.94232606   -7.0060443     669.2209  0.029213415  0.029393361            4 
 1910000   0.93404579   -7.0349601    670.94091  0.029273163  0.029386035            2 
 1911000   0.95507569   -7.0170409    668.13599  0.029135531  0.029378685            3 
 1912000   0.95488426   -7.0223419    669.72414  0.029189511  0.029371356           15 
 1913000   0.95835647   -7.0032544    671.38524  0.029246613  0.029364004            4 
 1914000   0.96945594   -6.9937375    672.35281  0.029273459    0.0293567            5 
 1915000   0.93321396   -7.0349452    669.49864   0.02913397  0.029349483            4 
 1916000   0.94597201   -7.0017049    671.34193  0.029198936  0.029342258            5 
 1917000   0.92005613   -7.0123373    670.71048  0.029156255  0.029334939            5 
 1918000   0.92758232   -7.0356407    670.68775  0.029140066  0.029327645            6 
 1919000   0.93948152   -7.0065003    673.15443  0.029231997  0.029320378            5 
 1920000   0.93773313   -7.0506844      671.222  0.029132899  0.029313097            2 
 1921000    0.9377925   -7.0237089    671.59788  0.029134039  0.029305766            3 
 1922000   0.94007056   -7.0204527    673.50551  0.029201592  0.029298426            2 
 1923000   0.93458495   -7.0118965    673.23356  0.029174621  0.029291195            2 
 1924000   0.93867264   -6.9954143     672.7714   0.02913944  0.029283882            3 
 1925000   0.92371723   -7.0158817     670.9363  0.029044861   0.02927655            9 
 1926000   0.94714953   -7.0218479    674.33585  0.029176871  0.029269335            2 
 1927000   0.94123027   -7.0050583    674.16117  0.029154176  0.029262099            2 
 1928000    0.9596112   -7.0292119    672.76557  0.029078733  0.029254842            5 
 1929000   0.94056317   -7.0442382    673.30474  0.029086951  0.029247623            5 
 1930000   0.92844517   -7.0141702    674.04356  0.029103781  0.029240345            5 
 1931000   0.94076724   -7.0670853    673.01863  0.029044477  0.029233082            2 
 1932000   0.92716953   -6.9992036    674.41089  0.029089496  0.029225821            8 
 1933000   0.93948761   -6.9999578    675.15178  0.029106388  0.029218622            3 
 1934000   0.96721086   -7.0348102      675.596  0.029110479  0.029211442            4 
 1935000   0.95506305   -7.0579071    675.14464  0.029075996  0.029204267            3 
 1936000   0.96531762   -7.0535849    672.32035  0.028939409  0.029197098            3 
 1937000   0.94090594   -7.0055472    676.98543  0.029125169  0.029189925            1 
 1938000   0.93464404   -7.0222916    675.17058  0.029032103  0.029182749            3 
 1939000     0.944627   -7.0367597    676.71825  0.029083645  0.029175551            2 
 1940000   0.94894852    -7.008363    674.88702  0.028989992  0.029168284            6 
 1941000    0.9412356   -7.0138938    674.74639  0.028969019  0.029161064            4 
 1942000   0.95684915   -7.0440079    678.56005   0.02911775  0.029153858            3 
 1943000   0.95987297   -7.0567583    676.78544  0.029026653  0.029146622            3 
 1944000   0.95047821   -7.0201031    677.30264  0.029033892  0.029139385            2 
 1945000   0.96112449   -7.0092348     679.7496  0.029123805  0.029132294            2 
 1946000   0.94462939   -7.0081767    676.89391   0.02898655  0.029125174            5 
 1947000   0.95077533   -6.9971603     677.7777  0.029009489  0.029118053            1 
 1948000   0.93468446   -7.0107568    676.79978  0.028952763  0.029111018            3 
 1949000    0.9372379    -7.025358    677.91771  0.028985707  0.029103854            8 
 1950000    0.9465661   -7.0566915    677.86555  0.028968613  0.029096765            3 
 1951000   0.95786569    -7.030412    677.77141  0.028949744  0.029089584            3 
 1952000   0.94850507   -7.0295683    678.88547  0.028982474  0.029082475            6 
 1953000   0.91756527   -7.0529526    678.87234  0.028967074  0.029075236            5 
 1954000   0.95890418   -7.0374492    678.90164  0.028953499  0.029068125            6 
 1955000   0.93136338   -7.0129538    679.45329  0.028962203  0.029061068           10 
 1956000   0.92146475    -7.022325    681.21906  0.029022625  0.029053934            6 
 1957000   0.94711573   -7.0255828    679.42155  0.028931253  0.029046836            6 
 1958000   0.94018343   -7.0220796    679.47435  0.028918724   0.02903971            3 
 1959000   0.94141298    -7.023983    679.06355  0.028886488  0.029032502            2 
 1960000   0.94481651    -7.029635     680.3914  0.028928206  0.029025327            4 
 1961000   0.92867813   -7.0412446    678.09446  0.028815845  0.029018146            6 
 1962000   0.91852642    -7.062395    680.08089  0.028885529  0.029010982            5 
 1963000   0.92174815   -7.0259257    682.07984  0.028955673  0.029003855            3 
 1964000   0.93824343   -7.0533999    682.04661   0.02893952  0.028996724            4 
 1965000   0.93307217   -7.0464908    678.84893  0.028789183   0.02898966            2 
 1966000   0.91604671   -7.0208898    680.47415  0.028843428  0.028982541            5 
 1967000   0.94608241   -7.0076571     681.6407  0.028878186  0.028975412            2 
 1968000   0.94437016   -7.0099486    682.57541  0.028903092  0.028968327            4 
 1969000   0.93048705   -7.0379126    682.38812  0.028880486  0.028961258            2 
 1970000    0.9609475   -7.0778354    682.71216  0.028879533  0.028954174            2 
 1971000   0.96398196   -7.0709153    684.70894  0.028949304  0.028947121            2 
 1972000   0.95630862   -7.0718635    682.37357  0.028835935  0.028940044            2 
 1973000   0.93922367   -7.0405362    682.50781   0.02882699  0.028933035            1 
 1974000   0.93168694    -7.068101     682.4586  0.028810309  0.028925897            2 
 1975000   0.95200073   -7.0465104    684.50788  0.028882189  0.028918798            5 
 1976000   0.93986923   -7.0210799    684.53752  0.028868822  0.028911834            3 
 1977000   0.95125505   -7.0514347    684.19106  0.028839616  0.028904752            2 
 1978000   0.95950155   -7.0724383    682.64182  0.028759766  0.028897648            3 
 1979000   0.92755449   -7.0398816    684.17694  0.028809876  0.028890551            2 
 1980000   0.93417695   -7.0506904    683.97755  0.028786934  0.028883459            3 
 1981000   0.93269175   -7.0505762    684.86171  0.028809596  0.028876413            2 
 1982000   0.94410613   -7.0693566    685.58343  0.028825405  0.028869365            3 
 1983000   0.92805712   -7.0292862    685.54655  0.028809319  0.028862427            4 
 1984000   0.92341169   -7.0285311    685.13928  0.028777691  0.028855488            4 
 1985000   0.94851888   -7.0697868    686.71779  0.028829462  0.028848592            3 
 1986000   0.94087572   -7.0013674    689.44534  0.028929395  0.028841707            4 
 1987000   0.95310896   -7.0258701    686.71866  0.028800481  0.028834862            3 
 1988000   0.89883554   -7.0427265    687.44611  0.028816487  0.028827864            7 
 1989000    0.9356391   -7.0439021    686.24435  0.028751648  0.028820902            4 
 1990000   0.94911909   -7.0407303    686.72082  0.028757153  0.028813983            6 
 1991000   0.92798501   -7.0748737    686.81607  0.028746696  0.028807124            3 
 1992000   0.94818198   -7.0640826    687.70293  0.028769366  0.028800115            5 
 1993000   0.92276917   -7.0293718    687.94563  0.028765079  0.028793301            3 
 1994000   0.93137991   -7.0241041    688.89028  0.028790132  0.028786525            1 
 1995000   0.96155837   -7.0396814    689.29225  0.028792492  0.028779707            4 
 1996000   0.92935975   -7.0427794    689.11734  0.028770764  0.028772913            5 
 1997000   0.92926748    -7.058656    688.82735  0.028744256  0.028766084            7 
 1998000   0.92617759   -7.0131511    690.82318  0.028813112  0.028759197            3 
 1999000    0.9285095   -7.0596636    689.69238  0.028751558  0.028752291            5 
 2000000   0.92175248   -7.0924227    687.12902  0.028630376   0.02874527            4 
 2001000   0.91273562   -7.0417875    689.06743  0.028696795  0.028738303            3 
 2002000   0.93697479   -7.0489979    690.96113  0.028761286  0.028731489            4 
 2003000   0.94684324   -7.0399797    689.46396  0.028684638  0.028724736            3 
 2004000    0.9269689   -7.0268303    691.45826  0.028753255  0.028717944            5 
 2005000   0.91464919   -7.0557307    691.25923  0.028730641  0.028711141            2 
 2006000   0.94317298   -7.0738982     689.8428  0.028657478  0.028704364            4 
 2007000   0.94466693   -7.0697361    689.49093  0.028628589   0.02869748            3 
 2008000   0.95310145   -7.0659928    690.08357  0.028638926   0.02869059            6 
 2009000   0.93189919   -7.0045607    692.08328  0.028707619  0.028683793            3 
 2010000   0.90621352   -7.0506198    692.45728  0.028708842   0.02867705            2 
 2011000   0.94175727   -7.0645698    691.80809  0.028667665   0.02867021            4 
 2012000   0.92578115   -7.0563269     691.8605  0.028655587  0.028663385            4 
 2013000   0.94636643   -7.0595984    693.01574  0.028689176  0.028656621            9 
 2014000   0.92255766   -7.0119293    692.55273  0.028655773  0.028649844            3 
 2015000   0.93905241   -7.0750621    691.75973  0.028608756  0.028642974            3 
 2016000   0.91738976   -7.0794904    690.46172  0.028540911  0.028636132            5 
 2017000   0.92611983    -7.059382    692.65816  0.028617508  0.028629306            3 
 2018000   0.93502636   -7.0461376    694.92476  0.028696926  0.028622529            8 
 2019000   0.92406899   -7.0411705    694.01317  0.028645087  0.028615817            5 
 2020000   0.93946332   -7.0577105    693.33798  0.028603052  0.028609059            7 
 2021000   0.93205169   -7.0688762    693.80658  0.028608221  0.028602259            4 
 2022000   0.93084356   -7.0539509    695.49156  0.028663516  0.028595546            4 
 2023000   0.91382748   -7.0453725    692.73888  0.028535957  0.028588788            2 
 2024000   0.92992439   -7.0454014    694.48667  0.028593819  0.028582027            4 
 2025000   0.92471129   -7.0356494    694.53885  0.028581845  0.028575277            3 
 2026000   0.92863274   -7.0742752    693.56202  0.028527559  0.028568456            3 
 2027000   0.94304401   -7.0452178     693.6035  0.028515191  0.028561616            2 
 2028000   0.92200003   -7.0801738    695.62862  0.028584345  0.028554787            4 
 2029000   0.92104534   -7.0679972    696.30415  0.028598002  0.028547933            3 
 2030000   0.91045035   -7.0642422    696.06225  0.028573984  0.028541161            4 
 2031000   0.91240142    -7.093925    695.23266  0.028525876  0.028534398            2 
 2032000   0.93017647   -6.9975622    698.44451  0.028643558  0.028527635            2 
 2033000   0.93593357   -7.0555258    697.06415  0.028572887   0.02852093            3 
 2034000   0.94397358   -7.0473401    695.93945   0.02851276  0.028514166            3 
 2035000   0.91715115   -7.0639028    696.53502  0.028523138  0.028507366            2 
 2036000   0.93601606   -7.0628478    695.74739  0.028476891  0.028500561            6 
 2037000   0.92193481   -7.0786369    696.49979  0.028493691  0.028493792            3 
 2038000   0.90816188   -7.0392746    696.65758  0.028486162  0.028486995            3 
 2039000   0.92212614   -7.0326047    699.51879  0.028589128  0.028480312            4 
 2040000   0.92547057   -7.0567323    698.28423  0.028524682  0.028473586            6 
 2041000   0.93951523    -7.073223    696.90534  0.028454407  0.028466825            5 
 2042000   0.91181954   -7.0805939    697.50894  0.028465105  0.028460043            5 
 2043000   0.91860115   -7.0760782    699.44407  0.028530106  0.028453232            5 
 2044000   0.91316574   -7.0311942    699.45665   0.02851666  0.028446591            4 
 2045000   0.90659269   -7.0434989    700.04167  0.028526555  0.028439971            6 
 2046000   0.92902086   -7.0527083    698.68813  0.028457483  0.028433314            2 
 2047000   0.92889839   -7.0499139    700.58568  0.028520831  0.028426614            5 
 2048000   0.91561378   -7.0797549    699.35631  0.028456881  0.028419885            3 
 2049000   0.92334849   -7.0736957    701.65077  0.028536309  0.028413201            3 
 2050000   0.90030064   -7.0594371    702.71201  0.028565529  0.028406452            3 
 2051000   0.91796772   -7.0616446    699.08693  0.028404312  0.028399731            4 
 2052000   0.90622407   -7.0735369    702.12398  0.028513807  0.028393001            3 
 2053000   0.93457349   -7.0662079    699.83063  0.028406829  0.028386296            3 
 2054000   0.91696681   -7.0760729    699.01792  0.028360026  0.028379609            3 
 2055000   0.92057889   -7.0687251    701.94632  0.028464976  0.028372898            3 
 2056000   0.92530875   -7.0684578     699.6595  0.028358443  0.028366159            2 
 2057000   0.91801312   -7.0776968    702.06329  0.028442039  0.028359438            3 
 2058000   0.89770753   -7.0463491    704.02149  0.028507511  0.028352803            4 
 2059000   0.92322095   -7.0563099    700.40758  0.028347401  0.028346156            2 
 2060000   0.92881116   -7.0740405    702.17022  0.028404944  0.028339449            6 
 2061000   0.90814599    -7.060338    701.14916  0.028349877  0.028332734            4 
 2062000   0.92702585   -7.0656585    700.25848  0.028300133  0.028325952            4 
 2063000   0.92853757   -7.0663335    702.34622  0.028370747  0.028319177            7 
 2064000   0.91078411    -7.070158     702.3618  0.028357631   0.02831243            3 
 2065000   0.90435054   -7.0686227    701.56842  0.028311881  0.028305618            2 
 2066000   0.92135951   -7.0797619    701.97828  0.028314709  0.028298848            2 
 2067000    0.9392442   -7.0866626    701.72341  0.028290736  0.028292126            5 
 2068000   0.91850155   -7.0722155    701.83832  0.028281686  0.028285397            3 
 2069000    0.9182568    -7.087412    701.39096  0.028249998   0.02827861            5 
 2070000   0.91089721   -7.0930394    705.04381  0.028383406  0.028271877            4 
 2071000   0.92202281   -7.0931659    702.62174  0.028272241  0.028265171            5 
 2072000   0.91680055    -7.052315    704.74117  0.028343837  0.028258486            3 
 2073000   0.91190834   -7.0457986    704.92369  0.028337502  0.028251795            3 
 2074000   0.91495505   -7.0420392    705.00622  0.028327154  0.028245177            2 
 2075000   0.91115787   -7.0818542     703.0551  0.028235145  0.028238451            3 
 2076000   0.92292598   -7.0759426    703.85764  0.028253759  0.028231645            5 
 2077000   0.94412347   -7.1094392     702.3043  0.028177833  0.028224753            6 
 2078000   0.92382062   -7.1018226    703.13555  0.028197608  0.028217976            4 
 2079000   0.92289809   -7.1000764    704.63086  0.028243982  0.028211232            3 
 2080000   0.91187307   -7.0888311    704.92024  0.028241997  0.028204468            2 
 2081000   0.91107436   -7.1011526    703.89097  0.028187208  0.028197709            5 
 2082000   0.91242964   -7.0764978    704.28132  0.028189294  0.028190976            5 
 2083000   0.92460121    -7.109981    702.36316  0.028099022  0.028184185            2 
 2084000   0.91215336   -7.0594879    706.76459   0.02826154  0.028177455            4 
 2085000   0.91298464   -7.0776736    706.59267  0.028241114  0.028170711            2 
 2086000   0.91464548   -7.0757261      706.482  0.028223154  0.028163951            3 
 2087000   0.91661899   -7.0784915    706.93774  0.028227828  0.028157218           13 
 2088000   0.91867547    -7.065914    707.06513  0.028219394  0.028150512            4 
 2089000   0.91327673   -7.0761044    707.34714  0.028217135  0.028143851            3 
 2090000   0.92189625   -7.0917987    707.90961  0.028226061  0.028137153            3 
 2091000   0.91167371    -7.074533    706.26551  0.028147039  0.028130471            9 
 2092000   0.92166418   -7.0823988     706.1611  0.028129426  0.028123671            5 
 2093000   0.89861014   -7.0551181    705.71378  0.028098176  0.028116914            2 
 2094000   0.92577591   -7.0766419    706.14888  0.028102073   0.02811011            2 
 2095000   0.91612394   -7.0828332    706.20973  0.028091079  0.028103296            8 
 2096000   0.90414777   -7.0587508    707.74478  0.028138708   0.02809647            4 
 2097000   0.92135697   -7.0633581    707.50445  0.028115739  0.028089674            1 
 2098000   0.91187864   -7.1000706    706.35946  0.028056858  0.028082854           11 
 2099000   0.91130508   -7.0915654    708.08672  0.028112066   0.02807605            2 
 2100000   0.92307874   -7.0842737    705.99888  0.028015829  0.028069172            6 
 2101000   0.93966353   -7.1109281    706.10862  0.028006847  0.028062261            5 
 2102000   0.91125863    -7.086257    707.03847  0.028030386  0.028055327            6 
 2103000   0.93095262   -7.0943057    706.67584  0.028002688  0.028048395           11 
 2104000   0.93084928   -7.1311022    707.04953   0.02800418  0.028041408            8 
 2105000   0.91320906   -7.0962948    707.55745  0.028010984  0.028034406            4 
 2106000   0.90434723   -7.1112944    705.91125  0.027932544  0.028027405            3 
 2107000   0.91316553   -7.0936034    705.20163  0.027891221  0.028020436            3 
 2108000   0.92649331   -7.0881775    704.88044  0.027865292  0.028013415            2 
 2109000   0.92524833   -7.0693284    706.30626  0.027908419  0.028006332            4 
 2110000   0.89776402   -7.1200726    706.20598  0.027891232  0.027999282            4 
 2111000   0.91386214   -7.0908207    708.25655  0.027958967  0.027992294            3 
 2112000   0.91436836   -7.0857192    709.05041  0.027977052  0.027985303            3 
 2113000   0.91170953   -7.0620135    708.49253   0.02794181    0.0279784            2 
 2114000   0.91716573   -7.0798382    707.23339  0.027878957  0.027971491            3 
 2115000   0.90461099   -7.1007731    707.17359  0.027863419  0.027964544            2 
 2116000   0.90955084   -7.1313233     709.2044   0.02793023  0.027957611            8 
 2117000   0.92318555   -7.1169288    707.90866  0.027866031  0.027950611            2 
 2118000   0.91460701   -7.0873604    707.94045  0.027854125   0.02794355            2 
 2119000   0.91119701   -7.0917243    709.12066  0.027887394   0.02793657            2 
 2120000   0.90558914    -7.116244    708.83272  0.027862921  0.027929622            3 
 2121000   0.89961014   -7.0841284    710.57356  0.027918182  0.027922616            4 
 2122000   0.89722277   -7.1139848    708.69263  0.027831159  0.027915547            5 
 2123000   0.91768173   -7.1106407    710.21591  0.027877842  0.027908565            2 
 2124000   0.91841266   -7.1455834     708.3527  0.027791616  0.027901562            6 
 2125000   0.91122009   -7.1074271    711.05703  0.027884589  0.027894626            4 
 2126000   0.92887541   -7.0513711    711.70071  0.027896704   0.02788772            2 
 2127000   0.91494482   -7.0903362    711.43323  0.027873109  0.027880801            3 
 2128000   0.90482002   -7.1004788    711.06555  0.027845612   0.02787389            4 
 2129000   0.90451201   -7.0874331    711.33174  0.027842952   0.02786696            5 
 2130000   0.90460211   -7.0811531    711.10886   0.02782116  0.027860075            4 
 2131000   0.91921385    -7.063596    713.19724  0.027889772  0.027853136            5 
 2132000   0.90442131   -7.0751604    710.94512  0.027788662  0.027846354            6 
 2133000   0.92708208   -7.0925095     712.2976  0.027828473   0.02783945            5 
 2134000   0.90698896   -7.0946485    710.74725  0.027754891  0.027832504            3 
 2135000   0.89965835   -7.1043988    713.73709   0.02785859    0.0278256            2 
 2136000   0.91216622   -7.1226388    711.76351  0.027768552  0.027818621            4 
 2137000   0.91928417   -7.0779531    711.62506  0.027750158   0.02781174            3 
 2138000    0.9057984   -7.1143313    713.08202  0.027793967  0.027804847            2 
 2139000   0.91493785   -7.1073187    714.02434  0.027817685  0.027797873            5 
 2140000   0.91834412    -7.147328    712.45899   0.02774373  0.027790906            9 
 2141000    0.9270872   -7.1044014    712.31556  0.027725189  0.027783911            6 
 2142000   0.88350827   -7.1160595    712.98935  0.027738459  0.027776931            5 
 2143000   0.90569089   -7.0670017    713.16833  0.027732475   0.02777003            3 
 2144000   0.89658463   -7.0987253    713.82413   0.02774503  0.027763107            3 
 2145000    0.9253489   -7.1036764    715.45322  0.027795385  0.027756216            3 
 2146000    0.9172188    -7.061658    715.23473  0.027773949  0.027749349            2 
 2147000   0.91411801   -7.0984146    715.05443  0.027754014  0.027742488            6 
 2148000   0.91041702   -7.0720691    716.46252  0.027795722  0.027735605            5 
 2149000   0.90610992   -7.1119524    715.97382  0.027763837  0.027728744            1 
 2150000   0.90603238    -7.082673    713.46893  0.027653835  0.027721848            4 
 2151000   0.89668655   -7.1285335     714.1397  0.027666965   0.02771492            5 
 2152000   0.90396162   -7.1254989     714.1341  0.027653892  0.027707978            2 
 2153000   0.91923405   -7.0872722    715.13596  0.027679825  0.027701154            3 
 2154000   0.86788743   -7.0775713    716.34268   0.02771366  0.027694377            3 
 2155000   0.90328348   -7.1081251    715.21437  0.027657168  0.027687456            2 
 2156000   0.93996718   -7.1022958    714.84111  0.027629913  0.027680575            3 
 2157000   0.92244031   -7.0841568    716.37663  0.027676427  0.027673731            3 
 2158000   0.91331382   -7.1108562    716.40323  0.027664629  0.027666886            6 
 2159000   0.89507075   -7.0730792    718.01331  0.027713961  0.027660007            3 
 2160000   0.91382069   -7.0879243    715.05088  0.027586839  0.027653175            2 
 2161000   0.91095313   -7.1049664    716.86187   0.02764391  0.027646398            2 
 2162000   0.92116072   -7.0864184    717.45461   0.02765397  0.027639612            9 
 2163000   0.91501631   -7.1059588    718.83272  0.027694279  0.027632762            3 
 2164000   0.89384383   -7.0904265     718.8754  0.027683125   0.02762594            2 
 2165000    0.9168561   -7.0725898    718.76057  0.027665919  0.027619203            3 
 2166000   0.90267308   -7.0985183    717.47665  0.027603749  0.027612391            7 
 2167000   0.91883732   -7.1157794    721.38309  0.027741236  0.027605634            2 
 2168000   0.90770707    -7.106522    719.42545  0.027653192  0.027598881            6 
 2169000   0.92372306   -7.1197046    719.89881  0.027658629  0.027592115            3 
 2170000   0.88542336   -7.1364902    717.27232   0.02754502  0.027585333            4 
 2171000   0.90553505   -7.1402901    718.23099  0.027569131   0.02757849            4 
 2172000    0.9017102     -7.13081    717.05524  0.027511327  0.027571661            6 
 2173000   0.90874501   -7.1504649    718.18298  0.027541915  0.027564822            5 
 2174000   0.90607155   -7.0811074    719.08337   0.02756376   0.02755793            2 
 2175000   0.91615543   -7.1149063    718.57532  0.027531622  0.027551071            3 
 2176000   0.91977859   -7.0918384    718.77196    0.0275265  0.027544168            4 
 2177000   0.90079276   -7.1231401    719.48006  0.027540961  0.027537337            5 
 2178000   0.92667802    -7.130581    718.36325  0.027485585  0.027530506            2 
 2179000   0.89779991   -7.1149796    721.08477  0.027577052  0.027523631            3 
 2180000   0.89570353   -7.0944361    719.67622  0.027510559  0.027516812            6 
 2181000   0.90290147    -7.115362    718.68367  0.027460021  0.027509954            2 
 2182000   0.89013202   -7.1050771    720.50367  0.027516944   0.02750312            2 
 2183000   0.89630739   -7.0968477    719.61318  0.027470346  0.027496251            2 
 2184000   0.88975605   -7.1136441     721.9187  0.027545738  0.027489436            3 
 2185000   0.92887153   -7.1209214    719.00767  0.027422108  0.027482682            4 
 2186000   0.92128152   -7.0970212    720.93575  0.027483065  0.027475868            7 
 2187000   0.90610506   -7.1254855    721.82432  0.027504356  0.027469148            4 
 2188000   0.91231934   -7.0912114    723.34437  0.027549679  0.027462356            2 
 2189000   0.88781108   -7.1155045    721.71553  0.027475085  0.027455614            6 
 2190000   0.90760634   -7.1128808    722.25731  0.027483155  0.027448815            4 
 2191000   0.88611617   -7.1001675    723.56609   0.02752039  0.027441989            8 
 2192000   0.89836442    -7.131631    720.38425  0.027386871  0.027435202            4 
 2193000   0.89388865    -7.136088    722.43898  0.027452462  0.027428371            5 
 2194000   0.91613623   -7.1119935    722.19553  0.027430702  0.027421557            4 
 2195000   0.90848558   -7.1077371    721.16586  0.027379114  0.027414769            5 
 2196000   0.89340196   -7.1178008    722.19802  0.027405814  0.027407962            3 
 2197000   0.90895897   -7.1229434     723.8962  0.027457753  0.027401156            3 
 2198000   0.90110911   -7.1411577    722.30859  0.027385069  0.027394387            3 
 2199000    0.9002799   -7.0880161    725.51278  0.027494042  0.027387602            3 
 2200000   0.88920179   -7.0842881     724.2686  0.027434417  0.027380904            3 
 2201000    0.8945391   -7.1219654    724.11221  0.027416031  0.027374102            4 
 2202000   0.89624013   -7.1041695    724.81855  0.027430311  0.027367349            5 
 2203000   0.91100014   -7.1240091    724.12115  0.027391479  0.027360584            4 
 2204000   0.87922764   -7.1434547    724.12049  0.027379026  0.027353775            2 
 2205000    0.9105838   -7.1360215    724.38745  0.027376699  0.027346938            4 
 2206000   0.90054509   -7.1344866    722.97558  0.027310954  0.027340114            4 
 2207000   0.91552632   -7.1305648    724.49105  0.027355802   0.02733332            2 
 2208000   0.91997827   -7.0962472    724.42205  0.027340808  0.027326545            4 
 2209000   0.87598556    -7.110239    725.33444   0.02736285   0.02731982            8 
 2210000   0.88517044   -7.1199552    726.68805   0.02740151  0.027313029            2 
 2211000   0.92807541    -7.147641    723.58777  0.027272266  0.027306326            3 
 2212000   0.89466222   -7.1113342    726.13993  0.027356085  0.027299615            5 
 2213000   0.89930244   -7.1434566    724.21185  0.027271119  0.027292846            4 
 2214000    0.9197084   -7.1252754    725.73938  0.027316297   0.02728608            5 
 2215000   0.90514267   -7.1401751    728.71696  0.027415988  0.027279416            4 
 2216000   0.90525659   -7.1536171    728.20386  0.027384321  0.027272765            4 
 2217000   0.90816208   -7.1349474    726.90718  0.027323229  0.027266115            7 
 2218000    0.9009354   -7.0967197    727.44203  0.027331005  0.027259463            7 
 2219000   0.88312094   -7.1547288    726.18974  0.027271659  0.027252782            4 
 2220000   0.89397927   -7.0952412    729.30168  0.027376189  0.027246139            4 
 2221000   0.92229732   -7.1112571    729.12358  0.027357181  0.027239526            2 
 2222000   0.88818412   -7.1332217    727.72435  0.027292392  0.027232999            3 
 2223000   0.90023199   -7.1326017    729.10025  0.027331693   0.02722638            4 
 2224000   0.89680502   -7.1170206    730.45144  0.027370033  0.027219736            3 
 2225000   0.89058389   -7.1187773    728.49229  0.027284356  0.027213134            2 
 2226000    0.8997488   -7.1228656    729.79616   0.02732091  0.027206581            3 
 2227000   0.90110996    -7.143715    729.00896  0.027279186   0.02720006            3 
 2228000   0.90823351   -7.1193337    729.37546   0.02728065  0.027193453            6 
 2229000   0.87204165   -7.1609252    728.08372  0.027220118  0.027186836            2 
 2230000   0.91492085   -7.1176358    731.65522  0.027341376  0.027180237            6 
 2231000   0.90058007   -7.1204541    730.22587  0.027275731  0.027173602            6 
 2232000   0.88938669    -7.117425    730.75938   0.02728343  0.027167002            3 
 2233000   0.90032197   -7.1224978    730.33673  0.027255438    0.0271605            3 
 2234000   0.92206987   -7.1272872    731.20882  0.027275769  0.027153995            6 
 2235000     0.878497   -7.1507208    730.80195  0.027248395  0.027147444            3 
 2236000   0.89233029   -7.1334011    731.36577  0.027257222  0.027140914            7 
 2237000    0.8973643   -7.1338194    730.51057  0.027213179  0.027134351            5 
 2238000   0.89955977    -7.152593    729.30165  0.027156004  0.027127737            5 
 2239000   0.88596463   -7.1198476    731.65352   0.02723141  0.027121147            2 
 2240000   0.89838237   -7.1199756    732.66299  0.027256808  0.027114585            3 
 2241000   0.88766929   -7.1466174    732.48852  0.027238157  0.027107987           14 
 2242000   0.89400109   -7.1284364    732.75071  0.027235753  0.027101447            4 
 2243000   0.89784222   -7.1114912    732.04331  0.027197329  0.027094953            2 
 2244000    0.8791993   -7.1246146    732.85354  0.027215298  0.027088403            2 
 2245000   0.88598989   -7.1389169    731.31465  0.027146052   0.02708191            2 
 2246000   0.88519294   -7.1320591    730.56363  0.027106101  0.027075356            3 
 2247000   0.88725201   -7.1247008    732.46047  0.027164385  0.027068725            6 
 2248000   0.90468364   -7.1325552    734.02456  0.027210282  0.027062183            5 
 2249000   0.90831432   -7.1471437    734.26928  0.027207251  0.027055652            6 
 2250000   0.91520122   -7.1538534    732.27082  0.027121141  0.027049083            1 
 2251000   0.88236479   -7.1552909    733.92042  0.027170162  0.027042517            7 
 2252000   0.90595484   -7.1617018    733.33692  0.027136505  0.027035995            4 
 2253000   0.89487832   -7.1498995    731.65053  0.027062085  0.027029411            5 
 2254000   0.88455615   -7.1308753     734.5439  0.027157051  0.027022802            5 
 2255000   0.89439205   -7.1234236    734.94521  0.027159838  0.027016232            7 
 2256000   0.89064927   -7.1368253     733.1923  0.027083049  0.027009672            2 
 2257000   0.87871656   -7.1429307    734.89011  0.027133736  0.027003095            5 
 2258000   0.89341648   -7.1490426    733.96342  0.027087519  0.026996509            6 
 2259000   0.87033649   -7.1061834    736.26624  0.027160478  0.026990013            3 
 2260000    0.8948586     -7.12493    734.56677  0.027085796  0.026983532            5 
 2261000    0.9033455    -7.120821    736.92203  0.027160623  0.026977092            9 
 2262000   0.87553314   -7.1550426    737.30908  0.027162875  0.026970638            3 
 2263000   0.91196705   -7.1483716    734.63377  0.027052356  0.026964086            4 
 2264000   0.88629792   -7.1505318    733.06988  0.026982843  0.026957485            7 
 2265000   0.88377833   -7.1590659    734.86416  0.027036945  0.026950894            4 
 2266000   0.90222107    -7.108132    736.32623  0.027078782  0.026944309            4 
 2267000   0.88030071    -7.168276    733.57684  0.026965771   0.02693771            3 
 2268000   0.88559281   -7.1285289    734.19095  0.026976446  0.026930999            7 
 2269000    0.8841534   -7.1320478    736.16822  0.027037176  0.026924358            4 
 2270000   0.88740302   -7.1482861    733.39761  0.026923554  0.026917681            8 
 2271000    0.8896993    -7.131068    735.22126  0.026978617  0.026910973            2 
 2272000   0.89204369   -7.1507789    734.34789  0.026934708   0.02690425            3 
 2273000   0.90437528     -7.12602    734.20301  0.026917547  0.026897566            4 
 2274000   0.91166135   -7.1595679    733.53581  0.026881259  0.026890855            3 
 2275000    0.8743285   -7.1375069    737.19522  0.027003488  0.026884215            4 
 2276000   0.88811855   -7.1619651    736.02991  0.026948957  0.026877572            3 
 2277000   0.88982704   -7.1384531    736.89585  0.026968813  0.026870987            5 
 2278000    0.8947425   -7.1774708    736.24674  0.026933229  0.026864352            4 
 2279000   0.88700086   -7.1539767    736.22752  0.026920708  0.026857703            4 
 2280000   0.86867346    -7.169513    738.18458   0.02698043  0.026851102            3 
 2281000   0.88340909   -7.1399178    737.02489  0.026926235  0.026844456            2 
 2282000   0.89606284   -7.1523885    737.72157  0.026939876  0.026837842            6 
 2283000   0.88788132   -7.1438016    736.98205  0.026901082   0.02683126            3 
 2284000   0.86020917   -7.1681109    737.40525  0.026904745  0.026824647            8 
 2285000   0.89196355   -7.1266846    739.74679  0.026978366  0.026818042            3 
 2286000    0.8855786   -7.1583154    738.58788  0.026924318  0.026811441            3 
 2287000   0.89546242   -7.1267524    737.77144  0.026882796  0.026804829            3 
 2288000    0.8919217   -7.1243053    737.83422  0.026873332  0.026798211            2 
 2289000   0.88846514   -7.1364754     736.6453  0.026818308  0.026791569            4 
 2290000   0.89886005   -7.1255822    737.38173  0.026833396  0.026784906            7 
 2291000   0.88123577   -7.1873707     737.0721  0.026810421  0.026778237            4 
 2292000   0.88225271   -7.1301186    737.86108   0.02682741  0.026771551            3 
 2293000   0.88371856   -7.1479122      737.279  0.026794556  0.026764877            7 
 2294000   0.88442774    -7.125056    739.60217  0.026867268  0.026758327            3 
 2295000     0.887823   -7.1277197    741.55529  0.026926481  0.026751736            8 
 2296000   0.90262269    -7.148272    738.41612  0.026800817  0.026745161            4 
 2297000   0.87125126   -7.1251427    739.69378  0.026835502   0.02673848            3 
 2298000   0.88408887   -7.1423042    740.88778  0.026867123  0.026731861            4 
 2299000   0.88518765   -7.1634018    737.64437   0.02673787  0.026725224            2 
 2300000   0.88791899   -7.1128508     740.8012  0.026840623  0.026718606            4 
 2301000   0.88928289   -7.1327926    740.64281  0.026823222   0.02671199            3 
 2302000   0.88590118    -7.170712    740.24324  0.026797105  0.026705346            4 
 2303000    0.8823408   -7.1822163    737.92435  0.026701561  0.026698672            1 
 2304000   0.86171543   -7.1837028    740.90868  0.026797912  0.026691985            8 
 2305000   0.88623563   -7.1329936    739.23387  0.026725736  0.026685302            3 
 2306000   0.89210407   -7.1368329    738.94331  0.026703647  0.026678652            2 
 2307000   0.88682043   -7.1404562    741.99481  0.026802298  0.026672044            5 
 2308000   0.89041802   -7.1598201     739.9306  0.026716154  0.026665382            4 
 2309000   0.88192317   -7.1469214    740.85124   0.02673781   0.02665873            4 
 2310000   0.89850176   -7.1469924    741.01716  0.026732221  0.026652104            3 
 2311000   0.88959088   -7.1451784    742.14349  0.026761268  0.026645437            3 
 2312000   0.88083679   -7.1361974    743.13434  0.026785407  0.026638785            3 
 2313000   0.88027066    -7.134429    740.55037  0.026680731  0.026632174            9 
 2314000   0.87663235   -7.1173585    741.43211  0.026700955  0.026625608            3 
 2315000   0.88136131   -7.1651219    740.88286  0.026669649  0.026618985            5 
 2316000    0.8706843   -7.1408427    742.05024  0.026700138  0.026612369            6 
 2317000   0.87275698   -7.1460683    739.44969  0.026595083  0.026605687            6 
 2318000   0.88165175   -7.1430963    742.04138  0.026676782  0.026598993            3 
 2319000   0.90158767   -7.1654663     740.7678  0.026619513  0.026592266            8 
 2320000   0.88358832   -7.1727841    738.90063  0.026540971  0.026585555            4 
 2321000   0.90259322   -7.1565498    741.74559  0.026631681  0.026578806            2 
 2322000   0.87323715   -7.1587325    741.30474  0.026604391  0.026572094            4 
 2323000   0.87397412   -7.1500382    741.54076  0.026601405  0.026565422            2 
 2324000   0.87346517   -7.1764676    742.19504  0.026613419  0.026558747            3 
 2325000   0.87995312   -7.1534285    743.33578   0.02664286  0.026552029            4 
 2326000   0.88114845   -7.1711586    742.10368  0.026587263  0.026545341            4 
 2327000   0.88408343   -7.1508338    742.61681  0.026594213  0.026538635            5 
 2328000   0.88838914   -7.1539587    742.19084  0.026567541    0.0265319            9 
 2329000     0.879344   -7.1406202    742.31912  0.026560724  0.026525177            8 
 2330000   0.86213564     -7.14221    741.91118  0.026534735  0.026518436            3 
 2331000   0.87376783     -7.15645    741.69655  0.026515678  0.026511694            3 
 2332000   0.89808982   -7.1382828    744.47571   0.02660362  0.026504979            3 
 2333000    0.8970194   -7.1656502    741.15254  0.026473516  0.026498192            7 
 2334000   0.87727811   -7.1608373    743.59114  0.026549241  0.026491411            4 
 2335000   0.88183357   -7.1564564    741.47311  0.026462281  0.026484631            5 
 2336000   0.89027645   -7.1677548    742.81573  0.026498849  0.026477832            4 
 2337000   0.85992611   -7.1601264    742.30476   0.02646929   0.02647112            4 
 2338000    0.8638498   -7.1915372    741.70088  0.026436444  0.026464401            4 
 2339000   0.87998458   -7.1652933    743.74906  0.026498114   0.02645768            3 
 2340000   0.89111052   -7.1823943    745.07349  0.026533956  0.026450955            2 
 2341000   0.87321773   -7.1748189    745.57434  0.026540451  0.026444237            7 
 2342000   0.90083084   -7.1855659    744.29245  0.026483506  0.026437505            5 
 2343000   0.88037892   -7.1663153    746.36418  0.026545888  0.026430752            3 
 2344000   0.86579368   -7.1623654    744.99578  0.026485914  0.026424065            4 
 2345000   0.87785972   -7.1745762     745.1863  0.026481389  0.026417308            4 
 2346000   0.87212043   -7.1673563    744.19993  0.026435064  0.026410634            6 
 2347000   0.87572371   -7.1716734    744.71431  0.026442065  0.026403926            5 
 2348000   0.85338464   -7.1698224    746.60528  0.026497916  0.026397203            6 
 2349000   0.88689343   -7.1616484    746.23144  0.026473373  0.026390527            7 
 2350000   0.88332799   -7.1505698    746.01193  0.026454324  0.026383962           13 
 2351000     0.868414   -7.1507237    748.63102  0.026535907  0.026377343            5 
 2352000    0.8892962   -7.1828604     747.5517  0.026486384  0.026370779            5 
 2353000   0.87292259   -7.2019105    748.19226  0.026497813  0.026364162            8 
 2354000    0.8829841   -7.1696844    748.07869  0.026482537  0.026357588            6 
 2355000   0.88720354   -7.1746775    747.72013  0.026458603  0.026350995            4 
 2356000   0.85912109   -7.1651131    748.14652  0.026462455  0.026344279            6 
 2357000   0.89002859   -7.1725856    747.84216  0.026440467  0.026337627            2 
 2358000   0.86668899   -7.1931919    746.69129  0.026388581  0.026330964            3 
 2359000   0.86631258   -7.1656984    747.76532  0.026415335  0.026324384            5 
 2360000   0.87201144   -7.1575852    749.60367  0.026469056  0.026317777            4 
 2361000   0.85528712    -7.169616    747.09265  0.026369217  0.026311157            3 
 2362000   0.86527381   -7.1464663    747.01623  0.026355357  0.026304553            3 
 2363000   0.87098051   -7.1668947    749.05207  0.026415999  0.026297919            4 
 2364000   0.86100825   -7.1865393     746.7119  0.026322332  0.026291324           11 
 2365000   0.86163293   -7.1863254    746.55704  0.026305745  0.026284641            4 
 2366000   0.85636933   -7.1456609     748.0984  0.026348915  0.026277978            3 
 2367000   0.86824114   -7.1881577    748.03263  0.026335468   0.02627132            3 
 2368000   0.87143881   -7.1748414    747.80325  0.026316274  0.026264629            6 
 2369000   0.86592609   -7.1610304      748.422  0.026326931  0.026257979            6 
 2370000   0.86646455   -7.1959096    747.60072  0.026286945  0.026251307            8 
 2371000   0.89578002   -7.1797213     747.0206  0.026255469  0.026244593            8 
 2372000   0.86843423    -7.192673    750.48196  0.026366005  0.026237903            5 
 2373000   0.87458371   -7.1718614    749.04578  0.026304459  0.026231153            7 
 2374000   0.87321427   -7.1795544     746.3318  0.026198111  0.026224418            5 
 2375000   0.86972245   -7.1786813    749.02121  0.026281446  0.026217648            8 
 2376000   0.87923257   -7.1846316    749.11043  0.026273514     0.026211            6 
 2377000   0.87297794   -7.1444787    749.53858  0.026277471  0.026204365            4 
 2378000    0.8730869   -7.1918124    750.70214  0.026307196  0.026197757            4 
 2379000    0.8597376   -7.2043143    747.37233  0.026179499  0.026191086            4 
 2380000   0.87079186   -7.1917766    749.45563  0.026241444  0.026184414            4 
 2381000    0.8800989   -7.2136748    750.26947  0.026258906  0.026177735            3 
 2382000   0.87203922   -7.1589324    750.48155  0.026255302   0.02617109            3 
 2383000   0.86493408   -7.1530887    748.53991  0.026176385  0.026164448            4 
 2384000   0.85673035   -7.2040188    749.27831  0.026191216  0.026157781            4 
 2385000   0.89031215   -7.1992701     752.2724   0.02628485  0.026151142            3 
 2386000   0.84257291   -7.1932371    748.61091  0.026145952  0.026144439            3 
 2387000   0.89072695   -7.1871998    750.33046  0.026195031  0.026137734            4 
 2388000   0.86688939   -7.1611098    747.42678  0.026082732  0.026131027            6 
 2389000   0.87542344   -7.2016429    749.11466  0.026130691  0.026124277            6 
 2390000   0.86552787   -7.1736869    748.41024  0.026095197  0.026117521            4 
 2391000   0.86538539   -7.1939443     749.6148  0.026126265  0.026110804            8 
 2392000   0.85598086   -7.1579454    751.15409  0.026168969  0.026104152            5 
 2393000   0.84750573   -7.2071359    752.28866  0.026197544  0.026097512            4 
 2394000   0.86342488   -7.1680323    751.65879  0.026164675  0.026090884            9 
 2395000   0.85641539   -7.2015835    750.86005  0.026125959  0.026084207            3 
 2396000   0.87417334   -7.1775695    751.96723  0.026153562  0.026077527           10 
 2397000   0.85589335   -7.1938751    752.28909  0.026153841  0.026070771            3 
 2398000    0.8585223   -7.1983388     752.8213   0.02616143  0.026064059           10 
 2399000   0.89783913   -7.1654781    750.46867  0.026068802  0.026057375            2 
 2400000   0.86803981   -7.1845614     750.8252   0.02607032  0.026050674            7 
 2401000     0.860412   -7.1988701    753.07803  0.026137652  0.026044013            2 
 2402000   0.87972811   -7.1885197    752.90129  0.026120639  0.026037352            4 
 2403000   0.87803224   -7.1947305    754.34358  0.026159786  0.026030668            2 
 2404000   0.87629938     -7.18141    751.62997  0.026054838  0.026024039            4 
 2405000   0.88155506   -7.1828007    751.17673    0.0260283  0.026017428            3 
 2406000   0.86916508   -7.1993776    754.52726  0.026133529  0.026010787            3 
 2407000   0.86662003   -7.1898552    752.09633   0.02603851  0.026004153            2 
 2408000    0.8629812   -7.1898987    753.51447  0.026076774  0.025997463            2 
 2409000   0.85584533   -7.1692632    753.58423  0.026068363  0.025990788            5 
 2410000   0.85382655   -7.1720425    752.96294  0.026036063  0.025984167            5 
 2411000   0.88275128   -7.1922406    754.53825  0.026079713  0.025977512            4 
 2412000   0.87257094   -7.1672278    752.23693  0.025989391  0.025970813            2 
 2413000   0.86627387    -7.204553    753.44405  0.026020308  0.025964047            4 
 2414000   0.86582516   -7.1304522     755.8065  0.026091083  0.025957322            5 
 2415000   0.84766631   -7.2052806    752.36766  0.025961617  0.025950609            6 
 2416000   0.87619271   -7.1715853    753.05908   0.02597472  0.025943847            6 
 2417000   0.86225257   -7.1770792    753.39528  0.025975565  0.025937083            4 
 2418000   0.87007922   -7.1941139    752.77213  0.025943346  0.025930288            3 
 2419000    0.8590387   -7.2046753    752.14589  0.025911048  0.025923543            5 
 2420000   0.86828198   -7.1832298    751.40306  0.025874761  0.025916743            7 
 2421000    0.8669024   -7.1915879    753.93626  0.025951269  0.025909933            4 
 2422000   0.86524877   -7.1953841    753.87582  0.025938474  0.025903129            9 
 2423000   0.85564104   -7.2088598    751.98865  0.025862865  0.025896268           11 
 2424000   0.84866929   -7.2126946    752.23314    0.0258606   0.02588943            4 
 2425000   0.85446633   -7.2301632    753.22707  0.025884092   0.02588262            5 
 2426000   0.86532272   -7.1791793    754.60816  0.025920863   0.02587583            4 
 2427000   0.86270337   -7.1937833    752.45822  0.025836363  0.025869017            7 
 2428000   0.85968047   -7.2084526    753.44218  0.025859493  0.025862229            3 
 2429000   0.87612004    -7.213341    754.53277  0.025886262   0.02585544            5 
 2430000   0.85120017   -7.2326351     751.9674  0.025787634   0.02584861            7 
 2431000   0.84657267   -7.2205803    756.55804  0.025934391  0.025841815            5 
 2432000   0.86172453   -7.1887861    755.31742  0.025881217  0.025835064            7 
 2433000    0.8532028   -7.1809431    755.64437  0.025881777  0.025828318            2 
 2434000   0.86406356   -7.1745913    754.31644  0.025825679  0.025821603            5 
 2435000   0.87518064   -7.2158204    754.45167  0.025819701  0.025814822            6 
 2436000   0.87181637   -7.1827951    755.73904  0.025853142  0.025808078            4 
 2437000   0.86399125   -7.1907679    755.41444  0.025831433  0.025801391            4 
 2438000   0.87089426   -7.1818789    756.76773  0.025867095  0.025794714            4 
 2439000   0.86674446    -7.202263    755.24465   0.02580445  0.025787992            5 
 2440000   0.86899131   -7.2180243    755.62071  0.025806718  0.025781175            3 
 2441000   0.84715032   -7.1801682    756.23479   0.02581711  0.025774409            5 
 2442000   0.87745869   -7.2162289    754.68987  0.025753818   0.02576764            2 
 2443000    0.8649949   -7.1983185     756.4288  0.025802593  0.025760875            3 
 2444000   0.84766649   -7.2078844     756.9336  0.025809247  0.025754135            5 
 2445000   0.87030188   -7.1924997    758.02487  0.025835885  0.025747339            6 
 2446000   0.85843336   -7.2076313    755.43509  0.025737091  0.025740527            5 
 2447000   0.84625764   -7.2042481    755.74382  0.025737087  0.025733653            3 
 2448000   0.86290524   -7.2251767    755.67881   0.02572436   0.02572685            2 
 2449000   0.88224973   -7.2074251    756.28568  0.025734507  0.025720043            7 
 2450000   0.85908582   -7.1664603    756.88092  0.025744249  0.025713286            2 
 2451000   0.84674884   -7.2134003     754.3523  0.025647773  0.025706487            6 
 2452000   0.86127444   -7.2324876    755.35446  0.025671372  0.025699604            9 
 2453000   0.85254066   -7.2231322    755.74039  0.025674018  0.025692666            2 
 2454000   0.85612886   -7.2288745    757.38317  0.025719341  0.025685735            4 
 2455000   0.87324804   -7.2212938    757.46615  0.025711682  0.025678859            7 
 2456000   0.87326817   -7.1769327    755.40668  0.025631334   0.02567195            5 
 2457000   0.86168425   -7.1804236    757.79034  0.025701748  0.025665085            1 
 2458000   0.85928468   -7.2086455    756.32546  0.025641628  0.025658242            4 
 2459000   0.86973971   -7.2043865    755.08328  0.025589104  0.025651366            2 
 2460000   0.86694778   -7.2014876    757.20279  0.025650501  0.025644463           10 
 2461000   0.87034531   -7.2389012    756.21232  0.025606539   0.02563755            3 
 2462000   0.84946552   -7.1632666    756.53316  0.025606999  0.025630599            7 
 2463000   0.86413596   -7.2162893    754.98534  0.025544232   0.02562364            5 
 2464000   0.84598597   -7.2115024    756.42544   0.02558257  0.025616728            3 
 2465000   0.84901156   -7.2051016     756.2336  0.025565707   0.02560978            5 
 2466000   0.85689022   -7.2167417    755.28704  0.025523352  0.025602819            5 
 2467000   0.88275535   -7.2169865    756.16854  0.025542783  0.025595913            5 
 2468000   0.84995885   -7.2060188    757.28351  0.025570081  0.025589011            8 
 2469000   0.85615036   -7.2151628     757.2969  0.025560176  0.025582096            5 
 2470000   0.85363584   -7.2058688    757.89254  0.025569924  0.025575165            6 
 2471000   0.86339743   -7.2374552    756.36257  0.025507978  0.025568216            6 
 2472000   0.85841952    -7.231783    755.89039  0.025481742  0.025561265            7 
 2473000   0.86666856   -7.2288609    757.26827  0.025517869  0.025554369            3 
 2474000   0.86832785   -7.2105965    756.49578  0.025481534  0.025547462            7 
 2475000   0.85810097   -7.2128922    756.36683  0.025466897  0.025540485            5 
 2476000   0.87157321   -7.1945138    758.04366  0.025513047  0.025533549            6 
 2477000   0.85399292   -7.2113096    757.61777  0.025488419  0.025526707            7 
 2478000   0.85073405   -7.2089775    757.52215  0.025474917  0.025519809            3 
 2479000   0.86366712   -7.2191176    759.04815  0.025515939  0.025512953            2 
 2480000   0.83292775   -7.2394653    755.22093  0.025377047  0.025506053            5 
 2481000   0.87937456   -7.2280969    757.46806  0.025442297  0.025499125            4 
 2482000   0.84050478   -7.1902389    760.07544  0.025519589  0.025492266            6 
 2483000   0.87052484   -7.1984458    760.65048   0.02552861  0.025485419            5 
 2484000   0.84765831   -7.2424875    759.86711  0.025492053  0.025478564            6 
 2485000   0.85729501   -7.2074746    759.24846  0.025461048  0.025471717            3 
 2486000   0.85592417    -7.185348    758.48799  0.025425315  0.025464907            5 
 2487000   0.85328963   -7.2013769    758.92983  0.025429897  0.025458089            3 
 2488000   0.84559488   -7.1800102    759.80897  0.025449122  0.025451271            6 
 2489000   0.85649633   -7.2332362    759.82497  0.025439432   0.02544438            2 
 2490000    0.8405296   -7.2232526    760.18987  0.025441428  0.025437482            4 
 2491000   0.83351747   -7.2093653    760.53368  0.025442716  0.025430624            5 
 2492000   0.85821604   -7.2244493    759.41657   0.02539515  0.025423715            4 
 2493000   0.85127015   -7.2365712    760.20261  0.025411238  0.025416802            4 
 2494000    0.8599698   -7.2203295     757.9673   0.02532636  0.025409913            8 
 2495000   0.86119132   -7.2308631    759.60378  0.025370868  0.025403051            4 
 2496000   0.84804501    -7.220899    760.13722  0.025378513  0.025396144            6 
 2497000   0.85274587   -7.2499049     757.9636  0.025295808  0.025389257            5 
 2498000   0.86560789    -7.219135    758.48876  0.025303201  0.025382397            6 
 2499000   0.86049098   -7.2049523    761.22447  0.025384303  0.025375563            3 
 2500000   0.84871823   -7.2061112    760.14221  0.025338074  0.025368744            2 
 2501000   0.85999509   -7.2091488    760.79215  0.025349599  0.025361923            7 
 2502000   0.86043482   -7.2363626    760.85162  0.025341448  0.025355044            4 
 2503000   0.84994748   -7.2201105    762.42311  0.025383643   0.02534823            6 
 2504000   0.85598188   -7.2254295    762.69483  0.025382549  0.025341438            6 
 2505000   0.85725803   -7.2200507    761.53262  0.025333753  0.025334655            5 
 2506000   0.85824256   -7.2169461    762.35449  0.025350974  0.025327841            5 
 2507000   0.83900645   -7.2288457    763.12495  0.025366472   0.02532102            4 
 2508000   0.83468436   -7.2129612    762.84222  0.025346964  0.025314232            8 
 2509000   0.85054962    -7.235095     763.4362  0.025356589  0.025307395            3 
 2510000    0.8438078    -7.200861    760.96573  0.025264466  0.025300544            4 
 2511000   0.85426593   -7.2237643     763.9942  0.025354912  0.025293732            4 
 2512000   0.83755651   -7.2122631    765.58993  0.025397755  0.025286916            6 
 2513000   0.85054136   -7.2261814    762.92003  0.025299112  0.025280109            5 
 2514000   0.85949787   -7.2216171     761.4067  0.025238885  0.025273338            4 
 2515000   0.84141988   -7.2196954    760.89987  0.025212056  0.025266528            2 
 2516000   0.85667097   -7.2107765     763.6551  0.025293293  0.025259735            4 
 2517000   0.86561739   -7.2374032    763.32564  0.025272336  0.025252952            4 
 2518000    0.8282424   -7.2276271    763.02787  0.025252445  0.025246126            4 
 2519000    0.8540879   -7.2246946    764.86733  0.025303273  0.025239302           11 
 2520000   0.85233913   -7.2359499    761.29116  0.025174972  0.025232467            9 
 2521000   0.84993464   -7.2370811    763.71805  0.025245209  0.025225562            4 
 2522000   0.82688183     -7.22217    762.28604  0.025187881  0.025218681            5 
 2523000   0.86716394   -7.2221491    762.40983  0.025181987  0.025211778            5 
 2524000   0.84539967   -7.2178652    764.22323  0.025231881  0.025204947            5 
 2525000   0.86032993   -7.2286817    761.31435  0.025125886  0.025198094            6 
 2526000   0.84003622   -7.1979569    763.91058   0.02520159  0.025191226            7 
 2527000   0.84541706   -7.2486608    761.26156  0.025104259  0.025184341            6 
 2528000   0.83131294   -7.2318338    762.41621  0.025132391  0.025177481            4 
 2529000   0.83749098    -7.227892    761.23742  0.025083611  0.025170592            5 
 2530000   0.87318871   -7.2323423    765.10459  0.025201074  0.025163698            5 
 2531000   0.85401715   -7.2485439    763.36447  0.025133823  0.025156828            3 
 2532000   0.84760016   -7.2430826    763.11209   0.02511559  0.025149929            6 
 2533000   0.84816961   -7.2344677    762.37445  0.025081407  0.025143037            5 
 2534000   0.85599672   -7.2432037    764.00679   0.02512519  0.025136181            4 
 2535000   0.84070621   -7.2202182    764.86315   0.02514343  0.025129372            6 
 2536000   0.85228069   -7.2565554    763.04499  0.025073771  0.025122569            5 
 2537000   0.84166797   -7.2686333    765.70625  0.025151302  0.025115764            5 
 2538000   0.85812958   -7.2305781    764.53421  0.025102909  0.025108944            5 
 2539000    0.8274595   -7.2342265     765.1445  0.025113053  0.025102129            5 
 2540000   0.84196104   -7.2214645    764.84935  0.025093483  0.025095369            3 
 2541000   0.84069194   -7.2075294     764.6376  0.025076663  0.025088582            6 
 2542000   0.86808378   -7.2311837    765.89529  0.025108028   0.02508173            8 
 2543000   0.84477908   -7.2405279    765.10611  0.025072294  0.025074868            5 
 2544000   0.83287619   -7.2446739    765.49774  0.025075267  0.025068033            4 
 2545000    0.8450312   -7.2084598    766.30145   0.02509173  0.025061203            4 
 2546000   0.85415519   -7.2395238    763.93642  0.025004465  0.025054376            2 
 2547000   0.85682132   -7.2496404    764.90353   0.02502629  0.025047527            6 
 2548000   0.85779494   -7.2304603    764.04817  0.024988493  0.025040653            3 
 2549000   0.85217716   -7.2464426     764.4998  0.024993455  0.025033845            5 
 2550000   0.85954267   -7.2435944    764.89384  0.024996531  0.025027002            4 
 2551000   0.84367862   -7.2576028    765.15309  0.024995201  0.025020153            4 
 2552000   0.85915106     -7.25685    767.39353  0.025058566  0.025013326            3 
 2553000   0.84982658   -7.2351642    766.76273  0.025028161  0.025006482            4 
 2554000    0.8344841   -7.2179218    766.63049  0.025014046  0.024999657            4 
 2555000   0.86878631   -7.2217111    765.61998  0.024971297   0.02499286            2 
 2556000   0.84947829   -7.2529718    767.44163  0.025020919  0.024986082            4 
 2557000   0.84237013   -7.2419142    765.20733  0.024938317  0.024979267            5 
 2558000   0.84396661   -7.2531954    766.30456  0.024964313  0.024972463            3 
 2559000   0.83949325   -7.2319119    767.32876  0.024987911  0.024965678            4 
 2560000   0.85150361   -7.2131444    767.13634  0.024971886   0.02495889            5 
 2561000   0.85632144   -7.2407339     764.8583  0.024888009  0.024952066            3 
 2562000   0.83560466   -7.1925738    766.49398  0.024931498  0.024945204            4 
 2563000   0.86584049   -7.2021128    769.54855  0.025021087  0.024938445            3 
 2564000   0.82932327   -7.2206191    767.19795  0.024934931  0.024931679            4 
 2565000   0.82507592   -7.2258432    768.45399  0.024966017  0.024924904            3 
 2566000   0.83414194   -7.2580025    767.47161  0.024924383  0.024918096            7 
 2567000   0.83726373   -7.2629105    768.75579  0.024956362  0.024911242            3 
 2568000   0.83704535   -7.2477545    766.03866  0.024858471  0.024904373            3 
 2569000   0.85417975   -7.2644956    768.52608  0.024929482  0.024897548            6 
 2570000   0.84416778   -7.2633801    770.29234  0.024977054  0.024890745            5 
 2571000   0.84917872   -7.2614103    768.25006  0.024901143  0.024883983            4 
 2572000   0.83434914    -7.227195    768.30566  0.024893263  0.024877203            6 
 2573000   0.83315332   -7.2261119    767.25769  0.024849647  0.024870442            4 
 2574000   0.84394733   -7.2143207    770.28744  0.024938081   0.02486367            3 
 2575000   0.82825821   -7.2339353    769.90911  0.024916152  0.024856918            6 
 2576000   0.87143624   -7.2768023    769.38526  0.024889534  0.024850139            3 
 2577000   0.82066065   -7.2261083    765.90363  0.024767288  0.024843293            4 
 2578000   0.84282628   -7.2336565    768.71708  0.024848625  0.024836449            3 
 2579000   0.85531736   -7.2683949    768.50805  0.024832236  0.024829628            4 
 2580000   0.84660804   -7.2605004    768.98359  0.024837971  0.024822754            7 
 2581000   0.84903839   -7.2726968    767.83046  0.024791116  0.024815851            3 
 2582000   0.83016132   -7.2792911    766.98868  0.024754347   0.02480891            5 
 2583000   0.81815146    -7.290224    768.09888  0.024780581  0.024801995            4 
 2584000   0.82599514   -7.2603784    767.32841  0.024746143   0.02479505            4 
 2585000   0.84475377   -7.2552212    767.34723  0.024737177  0.024788121            4 
 2586000   0.84359474   -7.2649231     767.7605  0.024740929  0.024781242            4 
 2587000   0.84725734   -7.2501015    770.22161  0.024810643  0.024774362            3 
 2588000   0.83971383   -7.2322507    767.36914  0.024709207  0.024767482            6 
 2589000   0.84431203   -7.2280503    770.50946  0.024800742  0.024760609            6 
 2590000   0.84094029   -7.2630123    768.20828  0.024717126  0.024753728            9 
 2591000   0.84039866   -7.2513188    767.16499  0.024674032  0.024746841            3 
 2592000   0.82818852   -7.2540932    769.28997  0.024732831  0.024739962           10 
 2593000    0.8410628   -7.2400816    768.70342  0.024704442  0.024733086            4 
 2594000   0.86059105   -7.2696172    768.42052   0.02468583  0.024726256            2 
 2595000   0.81967829   -7.2503177    770.29658  0.024736563   0.02471933            3 
 2596000   0.83173794   -7.2568998     769.2017  0.024691888  0.024712412            9 
 2597000    0.8437197   -7.2663155      767.426  0.024625401  0.024705524            5 
 2598000   0.83121898   -7.2727863    770.92217  0.024728066  0.024698648            6 
 2599000   0.84242831   -7.2617511     770.4157  0.024702312  0.024691769            9 
 2600000   0.81711901   -7.2536405    769.56968  0.024665695  0.024684876            6 
 2601000   0.82107129   -7.2580305    768.33145   0.02461654  0.024677988            5 
 2602000   0.83414051   -7.2815886      768.988  0.024628107  0.024671104            3 
 2603000   0.82860102   -7.2505728    769.30099  0.024628665    0.0246642            3 
 2604000   0.82125188   -7.2462426    770.08539   0.02464431  0.024657256            4 
 2605000   0.83494477   -7.2584842    769.69628  0.024622402  0.024650377            3 
 2606000   0.86072346   -7.2541333    769.76222  0.024615062  0.024643492            8 
 2607000   0.83570033   -7.2527843    770.58812   0.02463202  0.024636611            3 
 2608000   0.84857859   -7.2542737    771.04172  0.024637069  0.024629728            7 
 2609000   0.83101193   -7.2693828    770.06809  0.024596528  0.024622835            6 
 2610000   0.82153954    -7.260362    768.06816  0.024523249  0.024615902            4 
 2611000    0.8133874     -7.26459    770.64158  0.024595991   0.02460896            5 
 2612000   0.83021463   -7.2563445    769.28152  0.024543183  0.024602056            3 
 2613000   0.84505223   -7.2596486    770.61939  0.024576457   0.02459516            4 
 2614000   0.84304052   -7.2713058    771.62389  0.024599078  0.024588246            4 
 2615000   0.83177914   -7.2773222    768.75907  0.024498377  0.024581314            5 
 2616000   0.82410197    -7.261884    770.80003  0.024554027  0.024574373            9 
 2617000   0.84100019   -7.2703236    769.85097  0.024514424   0.02456743            8 
 2618000   0.83830942   -7.2654736    771.72667  0.024564765  0.024560512            5 
 2619000   0.82081893    -7.290431    770.95482  0.024530827  0.024553585            4 
 2620000   0.83824984   -7.2850954    770.80894  0.024516824   0.02454663            4 
 2621000     0.835077    -7.281646    770.20194  0.024488171   0.02453971            4 
 2622000   0.85483911   -7.2707941     769.1414  0.024445125  0.024532757            4 
 2623000   0.82742761   -7.2618445    771.80742  0.024520505  0.024525842            3 
 2624000   0.83504145    -7.280299     771.0623  0.024487497  0.024518899            6 
 2625000      0.84483   -7.2554622    772.58687  0.024526567  0.024511978            2 
 2626000   0.81667847   -7.2498527    772.42012  0.024511936   0.02450511            6 
 2627000   0.83861374   -7.2699926    772.52326  0.024505877  0.024498245            6 
 2628000   0.81674603   -7.2594339    771.66467  0.024469326  0.024491344            4 
 2629000   0.84692343   -7.2647052    772.25124  0.024478612  0.024484492            4 
 2630000   0.81729946   -7.2700102    772.92012  0.024490498  0.024477642            3 
 2631000   0.83547304   -7.2525983    774.65374    0.0245361  0.024470785            8 
 2632000   0.83627735   -7.2879303    771.83667  0.024437585  0.024463972            5 
 2633000   0.82627482   -7.2548804    774.73238  0.024519951  0.024457127            8 
 2634000   0.82977277   -7.2603795    773.20418  0.024462294  0.024450319            4 
 2635000   0.81240179    -7.256435    774.46729  0.024492957  0.024443561            5 
 2636000   0.80627728   -7.2671539    772.59009   0.02442432  0.024436736            4 
 2637000    0.8436648   -7.2728701    773.63788   0.02444817  0.024429936            5 
 2638000   0.81803464   -7.2732852    772.73893  0.024410505  0.024423114            5 
 2639000   0.82070936   -7.2601003    773.18824  0.024415443  0.024416254            2 
 2640000   0.82964119   -7.2728128     770.4797  0.024320698  0.024409353           10 
 2641000   0.82224538   -7.2940329    773.19014  0.024397013  0.024402472           12 
 2642000   0.82465959   -7.2837809    774.23077  0.024420602  0.024395621            3 
 2643000   0.80797739   -7.2655397    772.86455  0.024368286  0.024388789            5 
 2644000   0.82267248   -7.2679037    775.83427  0.024452668  0.024381916            4 
 2645000   0.83959582   -7.2798498    773.92648  0.024383317  0.024375081            7 
 2646000   0.83115626   -7.2791131    773.51159  0.024361035  0.024368239            5 
 2647000   0.82006734    -7.270487    773.81603  0.024361416  0.024361403            7 
 2648000   0.80756201    -7.245116    775.57651  0.024407619  0.024354577            9 
 2649000   0.82176097   -7.2660128    773.09429  0.024320319  0.024347698            3 
 2650000   0.83439984   -7.2823326    772.19427  0.024282839  0.024340805            5 
 2651000   0.81603985   -7.2834199    773.29077  0.024308147  0.024333918            4 
 2652000   0.81791011   -7.2406232    773.77516  0.024314202  0.024327064            5 
 2653000   0.85057692   -7.2830843    772.32297  0.024259422  0.024320185            7 
 2654000   0.80630799   -7.2589786    774.65234  0.024323422  0.024313323            4 
 2655000   0.81988177   -7.2667147    775.19767  0.024331377  0.024306471            3 
 2656000   0.83691412   -7.2651948    774.77557  0.024308973  0.024299617            4 
 2657000   0.81546395   -7.2609503    773.61251  0.024263346   0.02429279            8 
 2658000   0.84052521   -7.2422224    775.99019  0.024328762  0.024285936            3 
 2659000   0.81833239   -7.2519355    772.84025  0.024220893  0.024279079            4 
 2660000   0.81545446   -7.2633497    773.43043  0.024230277  0.024272167            4 
 2661000   0.83474119   -7.2888495    773.40955  0.024220517  0.024265277            3 
 2662000    0.8237194   -7.2709912    772.75865  0.024191042  0.024258381            6 
 2663000   0.81879382   -7.2987265    775.46562  0.024266667  0.024251499           10 
 2664000   0.84101687   -7.2822157    773.55531  0.024197801  0.024244568            6 
 2665000   0.84279189   -7.2948829    773.64152  0.024191417  0.024237684            3 
 2666000   0.83344316   -7.2618576    773.47181  0.024177038  0.024230801            4 
 2667000   0.83634016   -7.2885936     774.7111  0.024206696  0.024223878            9 
 2668000   0.82071279   -7.2539042    776.38111  0.024249785  0.024217038           10 
 2669000   0.81171718   -7.2989704    774.74344  0.024189567  0.024210157            4 
 2670000   0.82136782   -7.2625601    774.42329  0.024170515  0.024203252            3 
 2671000   0.83003618   -7.2690338    776.68409  0.024232001  0.024196404            4 
 2672000   0.83339975   -7.2738633    776.45356  0.024215742  0.024189547            4 
 2673000    0.8098804   -7.2921952    776.82577  0.024218287  0.024182681            5 
 2674000   0.82638101    -7.294985    777.26301  0.024222856  0.024175831            4 
 2675000    0.8373584    -7.259591    774.75986  0.024135821  0.024168956            3 
 2676000   0.81506649   -7.3083135    774.19482  0.024109206  0.024162042           11 
 2677000   0.80932228   -7.2976475    775.35725  0.024136386  0.024155124            5 
 2678000   0.81801024   -7.2807076    775.51808  0.024132377  0.024148245            5 
 2679000   0.80343698   -7.2384343    775.97611  0.024137617  0.024141333            4 
 2680000   0.82871243   -7.2582268    776.75773  0.024152914  0.024134438            2 
 2681000    0.8250318   -7.3146457    776.51581  0.024136386  0.024127512            5 
 2682000   0.83654494   -7.2759775    774.27006  0.024057608  0.024120603            6 
 2683000   0.81811429   -7.2880995    776.32857  0.024112578  0.024113705            6 
 2684000   0.82848982    -7.298707    775.39408   0.02407458   0.02410679            3 
 2685000   0.82033398   -7.2550992    776.56098   0.02410183  0.024099887            2 
 2686000   0.81623824   -7.2720962    775.57862   0.02406238  0.024093004            9 
 2687000   0.81169623   -7.2497209    777.94875  0.024126931  0.024086112            4 
 2688000    0.8282675   -7.2731845    776.65638  0.024077889   0.02407921            7 
 2689000   0.83639359   -7.2916764     775.0244  0.024018359  0.024072301            4 
 2690000   0.82132241   -7.2706798    776.59318  0.024058029  0.024065393            6 
 2691000   0.83398075    -7.277483    777.49293  0.024076952  0.024058505            5 
 2692000   0.83326166   -7.2908822     777.8177  0.024078061  0.024051609            3 
 2693000   0.83731588   -7.2809484    776.77646    0.0240369  0.024044683            5 
 2694000   0.82149054   -7.2561055    776.99303  0.024034677  0.024037818            4 
 2695000   0.82167716   -7.2680755    775.85391  0.023990535  0.024030972            7 
 2696000   0.81615857   -7.2624737    777.97436   0.02404718  0.024024127            4 
 2697000   0.82968511   -7.2706818    777.73838  0.024030972  0.024017318            6 
 2698000   0.80460922   -7.2697925    778.36754  0.024041498  0.024010452            6 
 2699000   0.82767041     -7.24189    777.23617  0.023997659  0.024003597            5 
 2700000   0.81946452    -7.257218    778.40501  0.024024846  0.023996765            6 
 2701000   0.82729843   -7.3279671     775.0606  0.023912767  0.023989919            5 
 2702000   0.80779952   -7.2710663    778.38483   0.02400644  0.023983064            6 
 2703000   0.82196763   -7.2938149    777.22411  0.023961774   0.02397618            4 
 2704000   0.81207521   -7.2847317    779.07692  0.024010014  0.023969295            7 
 2705000   0.79844176   -7.2832434    779.74733  0.024021791  0.023962422            5 
 2706000     0.819024   -7.2849153    777.15979  0.023933228   0.02395557            4 
 2707000   0.82451056   -7.2859191    777.96118  0.023949057  0.023948701            7 
 2708000   0.82434364   -7.2752539    777.34334  0.023921201  0.023941786            8 
 2709000   0.81193328   -7.2755989    778.55001   0.02394949  0.023934859            4 
 2710000   0.83144703   -7.3013587    777.84015  0.023918824  0.023927958            5 
 2711000   0.82789798   -7.2726508    778.92686  0.023943405  0.023921073            6 
 2712000   0.80650868   -7.3095926     778.3815  0.023917819  0.023914158            8 
 2713000   0.80578262   -7.2583881    778.04883  0.023898785  0.023907229            5 
 2714000   0.80555766   -7.3264886    776.48404  0.023841932  0.023900334            3 
 2715000   0.83085214   -7.2937601    777.78888  0.023873201  0.023893434            5 
 2716000   0.82082707   -7.3167192    776.74095  0.023832258  0.023886551            3 
 2717000   0.82685318   -7.3068211    779.24503  0.023900289  0.023879675            4 
 2718000   0.84127333   -7.3176965    779.83298  0.023909522  0.023872836            3 
 2719000   0.80726894   -7.3082188    779.19854  0.023881284  0.023865941            8 
 2720000   0.82195635   -7.2795397    778.11332  0.023839256  0.023859096            3 
 2721000   0.80345022   -7.3406969    779.56748   0.02387503  0.023852223            8 
 2722000   0.81767862   -7.2938377    779.34279   0.02385938   0.02384537            3 
 2723000   0.82371694   -7.3087451    778.54496  0.023826202  0.023838538            7 
 2724000   0.80679801   -7.3104105    779.05365  0.023833017  0.023831711            3 
 2725000   0.82605248   -7.3042033    779.00716  0.023822849  0.023824851            8 
 2726000   0.80803892   -7.2936943    779.52945  0.023830076  0.023818013            3 
 2727000   0.82221616   -7.3008097    779.80164  0.023829655  0.023811157            4 
 2728000   0.79998346   -7.2978006    781.14702  0.023862018  0.023804313            3 
 2729000   0.81228912   -7.2812329    780.68508  0.023839168  0.023797475            3 
 2730000   0.80908521   -7.3323451    777.45665  0.023731888   0.02379061            4 
 2731000   0.82008888    -7.316373    777.59587  0.023727446  0.023783718            4 
 2732000   0.81292608   -7.3106158    777.16845  0.023705724  0.023776808            6 
 2733000   0.80948098   -7.3096601    778.13895  0.023726642  0.023769923            3 
 2734000   0.80646965   -7.3276572     779.9341  0.023772681  0.023763027            7 
 2735000   0.81286374   -7.2980868    779.44377  0.023749049   0.02375613           11 
 2736000   0.82274491   -7.2813098    780.77173  0.023780815  0.023749268            7 
 2737000   0.81435615    -7.298969    780.54866  0.023765335  0.023742413            6 
 2738000   0.81705349   -7.2674007    781.94895  0.023799274  0.023735616            2 
 2739000   0.81877633    -7.285456    779.03782  0.023702015  0.023728793            4 
 2740000   0.83616199   -7.2841858    782.46987  0.023797745  0.023721987            4 
 2741000   0.81371074   -7.3101139     781.0131  0.023744774  0.023715162            3 
 2742000   0.81398811   -7.3304586    779.06525  0.023676916  0.023708324            4 
 2743000   0.80770454   -7.3288395    778.84626  0.023661631   0.02370148            4 
 2744000   0.81669304   -7.3252802    779.23021  0.023664669  0.023694675            6 
 2745000   0.78920164   -7.3098512    780.96547  0.023708727  0.023687833            8 
 2746000   0.82366918   -7.2955048    781.48177  0.023715761  0.023681016            5 
 2747000   0.81349873   -7.3072393    782.11558  0.023726356  0.023674254            7 
 2748000   0.80330984   -7.3106449    780.25829  0.023661399  0.023667448            7 
 2749000   0.78973882   -7.3535114    781.77687  0.023698826  0.023660633           12 
 2750000   0.80853756   -7.2968048    780.95497  0.023665302  0.023653818           10 
 2751000   0.80540837   -7.3168143    780.80066  0.023652025  0.023646991            7 
 2752000   0.82028794   -7.3213747    781.05581  0.023651157  0.023640135            5 
 2753000   0.81008966   -7.3063593    781.86736  0.023667132   0.02363329            5 
 2754000   0.80903436   -7.2982602    782.43414  0.023675688  0.023626485            1 
 2755000   0.79198867   -7.2842373    785.39974  0.023756798  0.023619736            4 
 2756000   0.79334939   -7.3292877    780.86918  0.023611187  0.023612957            3 
 2757000   0.80265459   -7.3353877    780.41499  0.023588895  0.023606136            6 
 2758000   0.81041716    -7.289928    781.76805  0.023621225  0.023599344            7 
 2759000   0.82933206   -7.3099086    782.34861  0.023630198  0.023592558            6 
 2760000   0.80256357   -7.3156309    781.11724  0.023584458  0.023585771            3 
 2761000    0.8052377   -7.3058786    782.32806  0.023612461  0.023579058            4 
 2762000   0.82104031   -7.3226631     782.5568  0.023610813  0.023572329            9 
 2763000   0.80320781   -7.3054512    781.30635  0.023564554  0.023565585            6 
 2764000   0.80581691   -7.3025488     783.3837  0.023618659  0.023558834            6 
 2765000   0.81996715   -7.3315907    784.11681  0.023632213  0.023552075            5 
 2766000   0.80764703   -7.3191315    782.49641   0.02357485  0.023545285            5 
 2767000   0.80951856   -7.3149715    784.10088  0.023614651  0.023538534            5 
 2768000   0.80465951   -7.2857826    783.40972  0.023585312  0.023531805            7 
 2769000   0.80899821   -7.2949844    783.20843  0.023570736  0.023525136            3 
 2770000   0.82243934   -7.3075845    782.48083  0.023540338  0.023518426            4 
 2771000   0.80568292   -7.3373437    784.09765  0.023580466  0.023511723            2 
 2772000   0.82829951   -7.3209899    786.02694  0.023629959  0.023505038            5 
 2773000   0.81186856   -7.3208985    784.13235  0.023564501  0.023498348            6 
 2774000    0.8160497   -7.3209257    781.83831  0.023487092  0.023491644            3 
 2775000   0.80536845   -7.3174611    784.19645  0.023549443  0.023484939            6 
 2776000   0.81246376   -7.2971283    784.02952  0.023535949  0.023478235            4 
 2777000   0.79832109   -7.2996336    784.84104  0.023551826   0.02347153            6 
 2778000   0.80390152   -7.3038142     786.0585  0.023579869  0.023464835            4 
 2779000   0.79795042   -7.3222608     785.5263  0.023555425  0.023458159            8 
 2780000     0.808973   -7.3214392    785.39313   0.02354296  0.023451545            6 
 2781000   0.80485941   -7.3182888    785.23187  0.023529662  0.023444855            3 
 2782000   0.80719977   -7.3024962    786.64468  0.023563524  0.023438194            5 
 2783000    0.8044046   -7.3190768     784.2726  0.023484028  0.023431482            5 
 2784000   0.80062908   -7.3384866    785.03712  0.023498477  0.023424796            9 
 2785000   0.80627191   -7.2866463    785.26798  0.023496947  0.023418106            5 
 2786000   0.82323458   -7.3222345    785.65802   0.02350018  0.023411414            4 
 2787000   0.80961561    -7.330349    784.97451  0.023471311  0.023404706            9 
 2788000   0.82004233   -7.3198232    783.40682  0.023416034  0.023398002            5 
 2789000   0.79475805   -7.3490698    783.51076  0.023410743  0.023391227            7 
 2790000   0.80691741   -7.3247451    785.23048  0.023453718  0.023384468            4 
 2791000   0.79685524   -7.3503301    784.57933  0.023425873  0.023377717            6 
 2792000   0.80142289   -7.3122391    783.93379  0.023398215  0.023371018            4 
 2793000   0.80956952   -7.3180305    784.34946   0.02340224  0.023364309            4 
 2794000   0.81580409   -7.3523542    783.17286  0.023358771  0.023357555            3 
 2795000   0.79007957   -7.2781838     786.1707  0.023439794  0.023350858            9 
 2796000   0.80498672   -7.3291352     786.6955  0.023447052  0.023344176            3 
 2797000   0.80979122   -7.3526751    785.08052  0.023390553   0.02333748            8 
 2798000   0.80531203   -7.3091304    786.69685  0.023430333  0.023330801            6 
 2799000   0.79129967   -7.3347407    785.15907  0.023376178  0.023324134            4 
 2800000   0.79246413   -7.3243228     785.9816   0.02339231  0.023317404            5 
 2801000    0.8137463   -7.3404497    786.98094   0.02341369  0.023310665            6 
 2802000   0.81008487   -7.3217767       785.74  0.023368427  0.023303923            5 
 2803000   0.80373658   -7.3230567    784.92476  0.023335853  0.023297222           10 
 2804000   0.79853708    -7.321142    785.85087  0.023355054  0.023290506            8 
 2805000   0.80416365   -7.3021017    785.74109  0.023343467  0.023283785            8 
 2806000   0.81104406   -7.3197391    784.52736  0.023299102  0.023277062            9 
 2807000   0.80881648   -7.3465079    784.79237  0.023298669  0.023270364            6 
 2808000   0.79167008   -7.3351623    783.98609  0.023266444  0.023263646            4 
 2809000   0.79156027   -7.3052713    785.05621  0.023289908  0.023256944            7 
 2810000    0.7819507   -7.3332877    786.70996  0.023330663  0.023250245            4 
 2811000   0.78278568   -7.3239109    786.42846  0.023314018  0.023243531            6 
 2812000     0.805152   -7.3181188    786.31016  0.023302221  0.023236826            4 
 2813000    0.8017442   -7.3346277    786.56225  0.023301406  0.023230123            6 
 2814000   0.78646157   -7.3438172    785.90307  0.023273604  0.023223411            7 
 2815000   0.78727506   -7.3220114    787.71843  0.023319077  0.023216691            3 
 2816000    0.8211674   -7.3357119    786.80612  0.023283799  0.023209965            5 
 2817000   0.80750204   -7.3399482    786.39016  0.023263228  0.023203242            5 
 2818000   0.80290192   -7.3462257    787.19981  0.023278916   0.02319654            4 
 2819000   0.80421658   -7.3395255    787.26613  0.023272618  0.023189848            4 
 2820000   0.79570761   -7.3299446    787.00437   0.02325663  0.023183142            9 
 2821000   0.80098759   -7.3294958    787.13603  0.023252276  0.023176417            9 
 2822000   0.78490468   -7.3298481    786.93872  0.023238209  0.023169761            3 
 2823000   0.80355996   -7.3380968    789.13691  0.023294867  0.023163122            5 
 2824000   0.78901397   -7.3243698     788.6586  0.023272504   0.02315647            5 
 2825000   0.80580929   -7.3370461    789.36836  0.023285202  0.023149798            5 
 2826000   0.79295852   -7.3362333     785.8207  0.023172349  0.023143144            5 
 2827000    0.8050229   -7.3148058     788.7628  0.023250878  0.023136453            2 
 2828000   0.80391162   -7.3844816    786.05544  0.023162878  0.023129751            4 
 2829000   0.78088429   -7.3432811    788.14749  0.023216316  0.023123075            4 
 2830000   0.80770954   -7.3280367    788.13031  0.023207606  0.023116411            4 
 2831000   0.77826791   -7.3170948    788.06804  0.023197576  0.023109739            6 
 2832000   0.78395361   -7.3590076    787.52458  0.023173393  0.023103061            5 
 2833000   0.80126931   -7.3179419    786.60512  0.023138167   0.02309637            7 
 2834000   0.79609197   -7.3161618     787.3394  0.023151594  0.023089705            2 
 2835000   0.80139599   -7.3471623    788.87303  0.023188507  0.023083052            2 
 2836000   0.80186218   -7.3445496    786.96195  0.023124176  0.023076387            5 
 2837000   0.78746344   -7.3441288    788.01754  0.023147031  0.023069703            8 
 2838000   0.81084515   -7.3336572     787.2403  0.023116053  0.023062989            5 
 2839000   0.80166329    -7.327199    788.42512  0.023142689  0.023056319            9 
 2840000   0.80372367   -7.3483635    788.26438  0.023129823   0.02304966            5 
 2841000   0.79570105   -7.3309262    787.58394  0.023101723  0.023042973            6 
 2842000   0.80305311    -7.340809    787.95341  0.023104428  0.023036241           11 
 2843000   0.79859325   -7.3584573    787.76696  0.023090836  0.023029529            5 
 2844000    0.8099091   -7.3422871    788.84353  0.023114262  0.023022827            6 
 2845000   0.78398846     -7.34972    789.67035  0.023130356  0.023016143            7 
 2846000    0.7941144   -7.3449937    789.44724  0.023115696  0.023009484            4 
 2847000   0.80311376   -7.3428828    789.94152  0.023122044  0.023002812            6 
 2848000   0.79687777   -7.3239771    787.65155   0.02304692  0.022996149            7 
 2849000   0.79597472   -7.3395978    788.01984  0.023049603  0.022989512            5 
 2850000   0.77890826   -7.3697892    789.51432  0.023085214  0.022982837            7 
 2851000   0.78861856   -7.3577883     789.9255  0.023089135  0.022976145            7 
 2852000   0.80673085   -7.3693731    788.63172  0.023043236  0.022969443            9 
 2853000   0.77851828   -7.3483911    787.25533  0.022994957  0.022962768            5 
 2854000   0.78980877   -7.3446832    787.90709   0.02300593  0.022956052            3 
 2855000   0.80842892   -7.3619531    788.93598  0.023027904   0.02294934            3 
 2856000   0.79284354   -7.3871857    787.84949  0.022988139  0.022942604            3 
 2857000   0.79944282   -7.3625842    789.26306  0.023021324  0.022935866            7 
 2858000   0.81145342   -7.3343502    788.21632  0.022982748  0.022929145            4 
 2859000    0.7730248   -7.3348146    789.61703  0.023015537  0.022922469            4 
 2860000   0.79162583   -7.3432052    789.73582  0.023010951   0.02291579            5 
 2861000   0.77175975   -7.3469902     791.0891  0.023042325  0.022909107            4 
 2862000   0.78410317   -7.3747715    788.93707  0.022971613  0.022902389            9 
 2863000   0.79210696   -7.3614812     788.7384  0.022957806   0.02289571            4 
 2864000   0.80180424   -7.3350133    790.35197   0.02299674  0.022889066            6 
 2865000    0.7898929   -7.3294538    789.18938  0.022954898  0.022882425            3 
 2866000   0.80018927   -7.3230565    790.68584    0.0229904  0.022875809           11 
 2867000   0.79313167   -7.3616155     789.2144  0.022939612   0.02286918            5 
 2868000   0.78428904   -7.3267464    788.72394  0.022917362  0.022862556            4 
 2869000   0.78885503   -7.3555718    788.59836  0.022905727  0.022855901           12 
 2870000   0.78481069   -7.3612427    789.13629  0.022913365  0.022849209            9 
 2871000   0.78640711   -7.3629876    791.23126  0.022966192  0.022842506           10 
 2872000   0.80384822   -7.3608711    789.04701  0.022894818  0.022835828            4 
 2873000   0.78962916   -7.3506221    788.95093  0.022884062  0.022829133            6 
 2874000   0.77791978    -7.337519    789.63433  0.022895915  0.022822455            5 
 2875000   0.79893676   -7.3564017    791.06111  0.022929308  0.022815766           13 
 2876000   0.81103075    -7.304553     791.4383  0.022932264  0.022809164            6 
 2877000   0.79227753   -7.3474203     789.7648   0.02287582  0.022802553            4 
 2878000   0.79388106   -7.3363779    790.39539   0.02288613   0.02279593            8 
 2879000   0.77862479    -7.340109    790.77017  0.022889029    0.0227893            4 
 2880000   0.77133925   -7.3409486    789.86315  0.022854837   0.02278268            7 
 2881000    0.8034424   -7.3567477    789.52034  0.022836988  0.022776028            4 
 2882000   0.79849802   -7.3631173    790.93671  0.022870018  0.022769388            3 
 2883000   0.77471995   -7.3405229    793.19158  0.022927263  0.022762746            6 
 2884000   0.78292388   -7.3743434    791.70744  0.022876428  0.022756132            6 
 2885000   0.78917411   -7.3597676    790.65137  0.022837994  0.022749503            4 
 2886000   0.79638143   -7.3577238    791.59365  0.022857289  0.022742869            4 
 2887000     0.791307   -7.3682529    790.85815  0.022828142   0.02273626            3 
 2888000   0.79011123   -7.3634939    790.28292  0.022803639  0.022729619            4 
 2889000   0.78682061   -7.3474538     791.3998  0.022827962  0.022723008            7 
 2890000   0.78687849   -7.3507531    791.62084  0.022826437  0.022716383            5 
 2891000   0.80521008   -7.3650075    790.43739  0.022784428  0.022709741            4 
 2892000   0.79212557   -7.3393835    791.87963  0.022818108  0.022703091            4 
 2893000   0.78429768   -7.3155146    791.79537  0.022807794  0.022696487            3 
 2894000   0.78841789   -7.3309776    793.78382  0.022857171  0.022689906            4 
 2895000   0.78820473   -7.3631225     793.2357  0.022833497  0.022683346            5 
 2896000   0.78419496   -7.3190842    793.41519  0.022830778  0.022676804            3 
 2897000   0.78809316   -7.3619206    791.47451  0.022767073  0.022670236            4 
 2898000   0.77552945   -7.3643153    793.21597  0.022809293  0.022663644            5 
 2899000   0.77990995   -7.3815007    793.68109  0.022814795  0.022657028            6 
 2900000    0.7625884   -7.3361031    793.00196  0.022787413  0.022650453            2 
 2901000   0.77623274   -7.3438817    794.28445  0.022816398  0.022643877            4 
 2902000   0.79342934   -7.3831028    791.79982  0.022737188  0.022637298           11 
 2903000   0.77621085   -7.3597468    793.20566  0.022769711  0.022630734            3 
 2904000   0.77599025   -7.3558447     795.0385  0.022814466  0.022624188            2 
 2905000   0.78814754   -7.3612361     792.9904   0.02274786  0.022617657            4 
 2906000   0.78028726   -7.3657734    792.73644  0.022732749  0.022611121            5 
 2907000   0.78746108   -7.3774616     792.4277  0.022716079  0.022604526            5 
 2908000   0.77271731   -7.3588086    793.79751  0.022747522  0.022597968           10 
 2909000   0.78396481   -7.3648842    796.17423  0.022807787  0.022591425            4 
 2910000   0.78616242   -7.3405854    793.83527  0.022732969  0.022584862            6 
 2911000   0.78522684   -7.3501924    794.49273  0.022743981  0.022578328            6 
 2912000   0.78335616   -7.3821558    792.11561  0.022668144   0.02257177            2 
 2913000   0.77387684   -7.3649056    793.21663  0.022691859  0.022565169           11 
 2914000   0.79239676   -7.3722979    793.05057  0.022679323  0.022558578            5 
 2915000   0.78330052    -7.370531    794.65019  0.022717273  0.022551995            3 
 2916000    0.7904653   -7.3490486    795.14292  0.022723563  0.022545402            4 
 2917000   0.79603321   -7.3893762    792.59523   0.02264299  0.022538821            4 
 2918000   0.79102625   -7.3552884    793.30097  0.022655385  0.022532245            6 
 2919000   0.77637554    -7.347996    793.79798  0.022661813   0.02252566           11 
 2920000    0.7768092   -7.3427528    794.35205  0.022669864  0.022519088            3 
 2921000   0.77095164   -7.3758367    793.03884  0.022624639   0.02251254            5 
 2922000   0.76616417   -7.3797382    792.74628  0.022608552  0.022505966            4 
 2923000   0.78806767   -7.3917826    794.10457  0.022639542  0.022499369            5 
 2924000   0.80644645   -7.3714682    794.66932  0.022647894   0.02249281            8 
 2925000    0.7764884   -7.3896355    792.77356  0.022586141  0.022486254            7 
 2926000   0.77841258   -7.3520634    794.01449  0.022613764   0.02247972            6 
 2927000   0.79163568   -7.3713213    794.30812  0.022614398  0.022473197            3 
 2928000   0.78558902   -7.3756346     794.6693  0.022616954  0.022466687            4 
 2929000   0.78654394   -7.3566261    795.82109  0.022642002  0.022460173            2 
 2930000   0.79861992   -7.3648183    794.40436  0.022593981  0.022453639            3 
 2931000   0.79656783   -7.3552574    794.51168  0.022589323  0.022447144            2 
 2932000   0.79985488   -7.3506106    795.35654  0.022605632  0.022440647            4 
 2933000   0.77133976   -7.3366237    796.95983  0.022643477  0.022434142            8 
 2934000   0.79733362   -7.3490518    795.08529  0.022582518  0.022427648            5 
 2935000   0.79480513   -7.3964531    794.96599  0.022571436  0.022421106            3 
 2936000   0.76405055    -7.412745    792.09109  0.022482149  0.022414535            8 
 2937000   0.78880416   -7.3869833    796.39227  0.022596535   0.02240797            8 
 2938000   0.76851039   -7.3863919    794.53224  0.022536086  0.022401447            4 
 2939000   0.78389074   -7.3552219    794.42665  0.022525424  0.022394924            7 
 2940000   0.78814707   -7.3735155    795.50097  0.022548213  0.022388397            6 
 2941000   0.77052548   -7.3629862    796.61358  0.022572072  0.022381866            2 
 2942000   0.78316527   -7.3641015    795.89196   0.02254396  0.022375351            4 
 2943000   0.78850344    -7.387752    796.58544  0.022555936   0.02236883            8 
 2944000   0.78072667   -7.3630071    795.82531  0.022526758  0.022362321            6 
 2945000   0.76793987    -7.386252    793.88335  0.022464158   0.02235584            8 
 2946000   0.76974068   -7.3741596    798.14111  0.022576972  0.022349312           11 
 2947000   0.77624252   -7.3734301    795.91846   0.02250646  0.022342809            6 
 2948000   0.78326625   -7.3623292    798.53673  0.022572838  0.022336319            9 
 2949000   0.78824293   -7.3825044    797.71658  0.022542008  0.022329826           13 
 2950000   0.80267935   -7.4004733    796.68989  0.022505364   0.02232331            8 
 2951000    0.7958296   -7.3680334    794.00538   0.02242193  0.022316816           11 
 2952000   0.77712057   -7.3875705    798.18875  0.022532429  0.022310318           11 
 2953000   0.78125481   -7.3707868     794.7285   0.02242715  0.022303867           16 
 2954000   0.77003476   -7.3909423    796.46379  0.022468511   0.02229739            4 
 2955000   0.79358702   -7.3632049    795.56479  0.022435555  0.022290914            6 
 2956000   0.78702917   -7.3887414    797.80972  0.022491253  0.022284463           10 
 2957000   0.77153811   -7.3815065    798.28618  0.022497074  0.022278017            6 
 2958000   0.77586135   -7.3825848      796.589  0.022441656  0.022271523            6 
 2959000   0.76988433   -7.3767577    797.14544  0.022449742  0.022265028            8 
 2960000   0.80704037   -7.3599824    798.42947  0.022478307  0.022258544            4 
 2961000   0.78250438   -7.3909501     795.4048  0.022385591  0.022252065            6 
 2962000   0.77786358   -7.3940414    796.80108  0.022417316  0.022245589            7 
 2963000   0.77552337   -7.3760415    799.56256  0.022487416  0.022239124            8 
 2964000   0.77984676   -7.3642869    797.60507  0.022424794  0.022232686            7 
 2965000    0.7774719   -7.3543988    799.55857  0.022472135  0.022226229            3 
 2966000   0.78787731   -7.3893681    797.12754  0.022396256  0.022219765            5 
 2967000   0.76443758   -7.3831804    795.87959  0.022353657  0.022213274            5 
 2968000   0.78286872   -7.4008153     795.4277  0.022333437  0.022206807            4 
 2969000   0.77469132   -7.3629059    796.33065  0.022351259  0.022200356            7 
 2970000   0.75850902    -7.360533    798.06616  0.022392429  0.022193924            4 
 2971000   0.79051496   -7.4047802    798.44583  0.022395541  0.022187495            5 
 2972000   0.76482549   -7.3937885    799.85128  0.022427414  0.022181054            4 
 2973000   0.76804484   -7.3725967    798.29015  0.022376112  0.022174619            6 
 2974000   0.76772382   -7.4008249     799.8511  0.022412326  0.022168153            4 
 2975000   0.75092108   -7.3488957    796.97452  0.022324216  0.022161711            6 
 2976000    0.7716734   -7.4038722    799.06996  0.022375391  0.022155296           19 
 2977000   0.77981268   -7.3805781      798.187  0.022343159  0.022148891           10 
 2978000   0.78299599   -7.3877819    799.63107  0.022376065  0.022142506            8 
 2979000   0.76988503   -7.3776944    799.23847  0.022357572  0.022136142            7 
 2980000   0.76820661   -7.3574887    799.18866  0.022348676  0.022129768            3 
 2981000    0.7703166   -7.3940382    798.08741  0.022310394  0.022123399            9 
 2982000   0.77571459   -7.4148015    797.45113  0.022285131  0.022117022            7 
 2983000    0.7606624   -7.4099546    798.57877  0.022309162  0.022110609            6 
 2984000   0.76159286   -7.3994829    799.91541  0.022339014  0.022104231            9 
 2985000   0.78361411   -7.3777571    799.57417  0.022322004  0.022097854           13 
 2986000   0.79490772   -7.3725409     800.2109  0.022332298  0.022091506           12 
 2987000   0.76498209   -7.3860337    801.04076  0.022347974  0.022085132            8 
 2988000   0.77757963   -7.4138315    798.87474  0.022280085  0.022078731            6 
 2989000   0.77035847   -7.3908931    799.45659  0.022288853  0.022072372            3 
 2990000   0.78270061   -7.3783557    799.90969  0.022294027  0.022066031            4 
 2991000   0.77987957   -7.3983666    801.04432  0.022318186  0.022059698            7 
 2992000   0.75774433   -7.3973107     799.2372  0.022260394  0.022053368            6 
 2993000   0.76859745   -7.3880585    799.71164  0.022266167   0.02204704            9 
 2994000   0.76008204   -7.3818477    801.02531  0.022295294  0.022040722            5 
 2995000   0.77530663   -7.4124627    800.56627  0.022275077  0.022034405            5 
 2996000    0.7622919   -7.3971231    801.58766  0.022296052  0.022028095            6 
 2997000   0.75674467   -7.3911909     799.4915  0.022230328  0.022021757            9 
 2998000   0.77522072   -7.3938728    799.41176  0.022220696  0.022015392            5 
 2999000   0.76531083   -7.3851179    801.81686  0.022280117   0.02200905            5 
 3000000   0.77386163   -7.3705446    802.08049  0.022280014  0.022002701            4 
 3001000   0.76330366   -7.4150613    800.32107  0.022223733  0.021996335            7 
 3002000    0.7708868   -7.4219866    798.13624  0.022155681  0.021989972            5 
 3003000   0.76527256   -7.3978133    801.22937  0.022234137  0.021983604           14 
 3004000   0.75745581   -7.4103395    800.45932  0.022205374  0.021977242            7 
 3005000   0.77305674    -7.409768    799.31821   0.02216634  0.021970924           12 
 3006000   0.76759666    -7.393257    801.59916  0.022222199  0.021964601            6 
 3007000    0.7773544   -7.4105092    801.05354  0.022199688  0.021958266            7 
 3008000   0.76423513   -7.4107016    799.80058  0.022157596  0.021951926            5 
 3009000   0.76892157   -7.3720353    801.94493  0.022209619  0.021945575            2 
 3010000   0.76282576   -7.4229536    800.86435  0.022172324  0.021939242            5 
 3011000   0.78868945   -7.4066655    801.68127   0.02218757  0.021932901            9 
 3012000   0.77402175   -7.4211927    800.81547  0.022156249  0.021926549            6 
 3013000   0.76360546   -7.4084034    800.65838  0.022144551   0.02192016            6 
 3014000   0.77298939   -7.3960539     801.1738  0.022151454  0.021913786            5 
 3015000   0.77007324   -7.4235973    800.11843  0.022114937    0.0219074            5 
 3016000   0.77115817   -7.4436987    797.96008  0.022047969  0.021900991            2 
 3017000   0.78656007   -7.4319506    801.20679  0.022130339  0.021894619            4 
 3018000   0.75763433   -7.4241209    802.15481  0.022149183  0.021888228            4 
 3019000   0.76243991   -7.4227636    802.12745  0.022141091  0.021881842            8 
 3020000   0.77181077    -7.418467    802.14586  0.022134268  0.021875494            4 
 3021000   0.76720488   -7.3939962    802.31338  0.022131562  0.021869157            7 
 3022000   0.75550932   -7.4026731    800.57073  0.022076184  0.021862824            6 
 3023000   0.75325874   -7.3973834    801.95166  0.022106948  0.021856462            4 
 3024000   0.74002118   -7.3985459    800.86855   0.02206979  0.021850075            6 
 3025000   0.77094051   -7.3821995    800.20536  0.022044225  0.021843717            5 
 3026000   0.78265786   -7.4053458    800.86054  0.022054983  0.021837329            6 
 3027000   0.76486009   -7.4008462    801.10875   0.02205453  0.021830949            5 
 3028000    0.7763427   -7.4177081    801.61398  0.022061151  0.021824569            4 
 3029000   0.75939997     -7.40547     802.1396  0.022068328  0.021818185            7 
 3030000   0.77478275   -7.4155856    800.36291  0.022012181  0.021811794            5 
 3031000   0.75437222   -7.3729491    799.51916  0.021981721  0.021805416            4 
 3032000   0.75038265   -7.4191675    803.42302  0.022081767  0.021799034            2 
 3033000   0.75736194   -7.4190586    803.11917  0.022066138  0.021792688            9 
 3034000   0.77421465    -7.391773    802.44973  0.022040478   0.02178634            6 
 3035000   0.76930459    -7.445936     800.1311  0.021969552  0.021779954            8 
 3036000   0.77126267   -7.3980885    801.67969  0.022004823  0.021773578            7 
 3037000   0.77157326   -7.3945269    804.70203  0.022080508  0.021767221            3 
 3038000   0.75043711   -7.3907769    802.49724  0.022012762  0.021760875            4 
 3039000    0.7610138   -7.4122336    799.96041  0.021935955  0.021754511            4 
 3040000   0.76404612   -7.4308733    801.14944  0.021961333  0.021748159            5 
 3041000   0.76776593   -7.4208251    802.51158  0.021991439  0.021741807            9 
 3042000   0.76161995   -7.3802761    801.97979  0.021969641  0.021735421            6 
 3043000   0.77790624   -7.4239232     800.2897  0.021916138  0.021729014           13 
 3044000   0.77448874   -7.3955957    801.32038  0.021937155   0.02172261            6 
 3045000   0.76142394   -7.4108614    801.77163    0.0219423  0.021716232            6 
 3046000   0.76807904   -7.4074068    802.02053  0.021941906  0.021709836            7 
 3047000   0.76798306   -7.4287564    799.95344  0.021878171  0.021703436            4 
 3048000   0.76310761   -7.4058518    800.64887  0.021890006  0.021697036           10 
 3049000    0.7574249   -7.4308174    799.89586  0.021862246  0.021690647            5 
 3050000   0.77272194   -7.4184673    800.77744  0.021879165  0.021684242            5 
 3051000   0.77010732   -7.4491797    799.76688  0.021844392  0.021677819            5 
 3052000   0.76332564   -7.4241135    802.44862  0.021910458  0.021671401            9 
 3053000   0.74746997   -7.4230496    802.51565  0.021905111  0.021665017            6 
 3054000    0.7418069    -7.401428    800.96505  0.021855628  0.021658637            4 
 3055000   0.75425472   -7.4083744    801.72859  0.021869301  0.021652245            6 
 3056000   0.73980312   -7.4004564    802.17195  0.021874235  0.021645869            5 
 3057000   0.76001964    -7.418494    801.04228  0.021836285  0.021639481            6 
 3058000   0.76441918   -7.4152415    800.10159   0.02180351  0.021633106            7 
 3059000   0.75339572    -7.425946    800.47878  0.021806657  0.021626706            5 
 3060000   0.77671103   -7.4137279    802.40655   0.02185203  0.021620324            9 
 3061000   0.75200069   -7.4205484    801.32192  0.021815363  0.021613925            5 
 3062000   0.75551107   -7.4086384    802.28958  0.021834574  0.021607533            6 
 3063000    0.7548596   -7.4053615    801.83471   0.02181507  0.021601135            8 
 3064000   0.74755961   -7.4148813    802.00537  0.021812592  0.021594732            5 
 3065000   0.75270645   -7.4218609    801.72589  0.021797876  0.021588301            5 
 3066000   0.75755948   -7.4088478    800.55752  0.021759011  0.021581878           19 
 3067000   0.77412494   -7.4181223    801.19421  0.021769216  0.021575447            4 
 3068000   0.77150404    -7.420865     803.2239  0.021817251  0.021569023           13 
 3069000   0.77570263   -7.4324783     801.7328  0.021769653  0.021562598            6 
 3070000     0.767571   -7.4231991    802.78665  0.021791169  0.021556204            3 
 3071000   0.77755667   -7.4170801    803.07418  0.021791875  0.021549825            4 
 3072000    0.7571208   -7.4319617    802.73051  0.021775459  0.021543476            5 
 3073000   0.77274716   -7.4333186    802.74571  0.021768785  0.021537113            4 
 3074000   0.77062845    -7.431847    801.61233  0.021730978  0.021530735            6 
 3075000   0.76204428   -7.4222015    801.99585  0.021734305  0.021524381            4 
 3076000   0.73920084   -7.4296278    803.89392  0.021778661  0.021518033            8 
 3077000    0.7540124   -7.4194808    803.35977  0.021757116  0.021511668            6 
 3078000   0.74679913   -7.4319423    802.11169  0.021716258  0.021505312           12 
 3079000   0.77768838   -7.4218671    803.15603   0.02173747  0.021498934           12 
 3080000   0.75951482    -7.416706    803.32674  0.021735031  0.021492573            7 
 3081000   0.75064437   -7.4056441    801.58307  0.021680814  0.021486242            6 
 3082000   0.76640091   -7.4217106    802.24143  0.021691581  0.021479871            9 
 3083000   0.74491641   -7.4242555    801.79573  0.021672498  0.021473506            3 
 3084000   0.75848633   -7.4207642    802.88439  0.021694887  0.021467147            8 
 3085000   0.76787608   -7.4356973    803.60891  0.021707426  0.021460801            4 
 3086000   0.74206908   -7.4308685     802.0752  0.021658976  0.021454413            7 
 3087000   0.74762769   -7.4321248    803.05445  0.021678395  0.021448022            6 
 3088000   0.73949676   -7.4211103    801.77927  0.021636962  0.021441653            6 
 3089000   0.75951532   -7.4674382     802.3981  0.021646652  0.021435262            6 
 3090000   0.76498682   -7.4097197    804.38424   0.02169321  0.021428882            2 
 3091000   0.73825528   -7.4165109    802.46056   0.02163433  0.021422525            8 
 3092000    0.7456679   -7.4165711    802.99921   0.02164185  0.021416157            5 
 3093000   0.76012735   -7.4251767    800.11254  0.021557079    0.0214098           10 
 3094000    0.7501229   -7.4084455    805.00734  0.021681947  0.021403455            6 
 3095000   0.76828849   -7.4153389    803.90909  0.021645371  0.021397105            6 
 3096000   0.76042357   -7.4049667    804.87258  0.021664314  0.021390796            7 
 3097000   0.75662962   -7.4140089    803.02485    0.0216076  0.021384495            6 
 3098000   0.76033861   -7.4095497    802.56885  0.021588359  0.021378191            5 
 3099000   0.76425088   -7.4405074    803.25845  0.021599937  0.021371867            4 
 3100000   0.75103218   -7.4649099     804.1881   0.02161796  0.021365542            6 
 3101000   0.76505881   -7.4191848    804.35438  0.021615457  0.021359199            4 
 3102000   0.75882437   -7.4136194    804.49268  0.021612204  0.021352845            4 
 3103000    0.7477562   -7.4456896    804.85591  0.021614994  0.021346519            8 
 3104000   0.73993334   -7.4299246    803.37298  0.021568218  0.021340174            4 
 3105000   0.76469066   -7.4439459     803.0571  0.021552794  0.021333807            3 
 3106000   0.76864509   -7.4309947    803.14429  0.021548194  0.021327441            8 
 3107000   0.75293599   -7.4692851    804.64143  0.021581414  0.021321105            5 
 3108000   0.74259115   -7.4384083    804.16337  0.021561652  0.021314778            7 
 3109000   0.74925612   -7.4267203    805.88272  0.021600802  0.021308458            3 
 3110000   0.76703147   -7.4392494    804.20911  0.021549011  0.021302185            5 
 3111000   0.76046856   -7.4262074    806.17948  0.021594864  0.021295914            4 
 3112000   0.75025184   -7.4211815    808.47378  0.021649362  0.021289677            4 
 3113000   0.74857262   -7.4224811    805.58677  0.021565124  0.021283452            4 
 3114000   0.74670692   -7.4321667    807.27993  0.021603509   0.02127723            7 
 3115000   0.75316752   -7.4186282    806.95192  0.021587799  0.021271042            5 
 3116000   0.75656646   -7.4220899    806.29096  0.021563194  0.021264815            7 
 3117000   0.75689188   -7.4263546    805.88611  0.021545453  0.021258577            5 
 3118000   0.76900295   -7.4641573    806.23111  0.021547763  0.021252295            4 
 3119000   0.76077486   -7.4512058    805.27433  0.021515291  0.021246016            5 
 3120000   0.74405097   -7.4292452    805.45057  0.021513103  0.021239735            4 
 3121000   0.75075264   -7.4479195    804.57339  0.021482788  0.021233475            7 
 3122000   0.75541987   -7.4818417    804.58071  0.021476103  0.021227204           13 
 3123000   0.75979433   -7.4593229    804.06851  0.021455559  0.021220942            7 
 3124000   0.76104952   -7.4492605    807.13891  0.021530594  0.021214683           12 
 3125000   0.75510072   -7.4482059    804.20524  0.021445473  0.021208451            5 
 3126000   0.75604655   -7.4458788    805.72187  0.021479043  0.021202211            2 
 3127000   0.76133995   -7.4440692    805.31407  0.021461307  0.021195982           12 
 3128000   0.75046783   -7.4253544    806.23401  0.021478954  0.021189775            8 
 3129000   0.75772555   -7.4305314    805.95846  0.021464751  0.021183594            5 
 3130000   0.75470236   -7.4586605    806.75297  0.021479046  0.021177415            6 
 3131000   0.73083252   -7.4595733    806.61577  0.021468534  0.021171201            7 
 3132000   0.74991285   -7.4604939     806.4432  0.021457088  0.021165006           12 
 3133000   0.74486785    -7.440098    806.81697  0.021460181  0.021158822            3 
 3134000   0.74022448   -7.4705936     808.3484  0.021494055  0.021152625            4 
 3135000   0.73862826   -7.4701398    806.77359  0.021445337  0.021146397            7 
 3136000   0.74888558   -7.4739799    805.96016  0.021416883  0.021140179            3 
 3137000   0.72907231   -7.4423864    805.78539  0.021405414  0.021133952            6 
 3138000   0.74726658   -7.4474703    807.66988  0.021448637  0.021127764            3 
 3139000   0.73655678    -7.443533    809.07314  0.021479058  0.021121586            5 
 3140000   0.74493427   -7.4391322     807.6383  0.021434137  0.021115426            4 
 3141000   0.73688765   -7.4354115    809.66672  0.021481129  0.021109286            2 
 3142000    0.7595469   -7.4398523    809.79654  0.021477735  0.021103149            7 
 3143000   0.74461077   -7.4718072    808.73055  0.021442638  0.021097012            4 
 3144000   0.75679051    -7.467135    808.90132  0.021440345  0.021090841            4 
 3145000   0.75479434   -7.4322258    807.78281   0.02140389  0.021084682            6 
 3146000    0.7470091   -7.4267562    808.51783  0.021416556  0.021078521            7 
 3147000   0.74364383   -7.4231432    807.93835  0.021394406  0.021072376            5 
 3148000   0.72334049   -7.4528182    808.01725  0.021389699  0.021066217            6 
 3149000   0.75903282    -7.439444    809.41358  0.021419858  0.021060047            5 
 3150000   0.74164216   -7.4412423    808.79278  0.021396634  0.021053892            7 
 3151000   0.74385314   -7.4867477    806.38619  0.021326198  0.021047698            5 
 3152000   0.75264155   -7.4458556    808.04188  0.021363205  0.021041517            3 
 3153000   0.74789804   -7.4327062    808.28867  0.021362952  0.021035374            4 
 3154000   0.75462232    -7.448533    808.86951  0.021371526  0.021029264            6 
 3155000   0.74896494   -7.4547528    807.31025  0.021323567  0.021023141            5 
 3156000   0.73536545    -7.453916    809.65802  0.021378803  0.021016988            6 
 3157000   0.75135595   -7.4529184    808.53444  0.021342373  0.021010867            5 
 3158000   0.73717644   -7.4610987    809.14454  0.021351714  0.021004774            5 
 3159000   0.74690097   -7.4669536    808.88887   0.02133821  0.020998636            5 
 3160000   0.73890955   -7.4563171    810.13121   0.02136422  0.020992518            5 
 3161000   0.75044589   -7.4723182    809.57803  0.021342877  0.020986396            9 
 3162000   0.72447811   -7.4370693    811.66037  0.021391007  0.020980274            7 
 3163000   0.74152475   -7.4743596    809.37041  0.021323912  0.020974168           14 
 3164000    0.7501228   -7.4275031     808.2692  0.021288169  0.020968059            8 
 3165000   0.74781492   -7.4369997    810.19831  0.021332236  0.020961938           14 
 3166000   0.75163398   -7.4450743    810.64685  0.021337304  0.020955838            7 
 3167000    0.7532121   -7.4428048    810.65519  0.021330786  0.020949755            2 
 3168000   0.74068628    -7.447174    812.66622  0.021376952  0.020943696            3 
 3169000   0.73647524   -7.4678889    811.08326  0.021328581  0.020937653            4 
 3170000   0.75412407   -7.4404546    812.21876  0.021351703  0.020931594            6 
 3171000    0.7311046   -7.4600791    812.00432  0.021339333  0.020925534            4 
 3172000   0.73673149   -7.4379015    811.12396  0.021309478  0.020919453            2 
 3173000   0.73429168   -7.4685626    809.65241  0.021264114  0.020913361            3 
 3174000   0.73908612   -7.4709078    809.82484  0.021261942  0.020907313            3 
 3175000   0.76122915   -7.4718491    810.39999  0.021270341  0.020901262            9 
 3176000   0.72493121   -7.4501209    811.61795  0.021295601  0.020895234            8 
 3177000   0.74189535   -7.4231614    811.81804  0.021294146  0.020889217            4 
 3178000   0.75815818   -7.4479907    811.37798  0.021275907  0.020883171            5 
 3179000   0.75041084   -7.4748361    811.43549  0.021270722  0.020877118            9 
 3180000   0.75611073   -7.4702151     812.3337  0.021287571  0.020871075            8 
 3181000   0.73912969   -7.4265787    810.25146   0.02122633   0.02086504            5 
 3182000   0.73539643     -7.45702    812.61133  0.021281462  0.020859016            4 
 3183000   0.75506357   -7.4807863    811.33973  0.021241484  0.020852982            4 
 3184000   0.73156693   -7.4543999     812.6376  0.021268781  0.020846964            9 
 3185000   0.74859581   -7.4496732    811.44822  0.021230984  0.020840969            2 
 3186000   0.75448499   -7.4430985    811.51019  0.021225941  0.020834985            7 
 3187000   0.73570082    -7.464842    811.23351  0.021212047  0.020828973            6 
 3188000   0.73450041   -7.4555048    810.17246  0.021177657  0.020822963            5 
 3189000   0.74315419   -7.4825308    811.87811  0.021215588   0.02081695            4 
 3190000   0.75151545   -7.4530173     811.9101  0.021209773  0.020810921            7 
 3191000   0.74662381   -7.4627806    810.91123   0.02117704  0.020804901            6 
 3192000   0.75149225    -7.428155    811.59033  0.021188135  0.020798913            8 
 3193000   0.73252517   -7.4811025     811.0225   0.02116668  0.020792903            5 
 3194000   0.72401345   -7.4829051    811.82584  0.021181012   0.02078688            8 
 3195000   0.73437609   -7.4663065    811.80071  0.021173727  0.020780857            8 
 3196000    0.7628122   -7.5046182    810.79556  0.021140894  0.020774816            7 
 3197000   0.74804238   -7.4556579    812.09001  0.021168022   0.02076878            4 
 3198000   0.73445403   -7.4262999    811.49352   0.02114586  0.020762757            7 
 3199000   0.75078741   -7.4516589    812.69773  0.021170619  0.020756751            5 
 3200000    0.7629822   -7.4502227    811.13553  0.021123321  0.020750743            9 
 3201000   0.74885676   -7.4730687    811.73408  0.021132305  0.020744715            7 
 3202000   0.74069425   -7.4603896    812.89735  0.021155979  0.020738685            8 
 3203000   0.74609347   -7.4585115    810.90521  0.021097544  0.020732655            7 
 3204000   0.73684117   -7.4592716    810.73272  0.021086473  0.020726632            6 
 3205000   0.74842844   -7.4508917    813.63788  0.021155431  0.020720599           11 
 3206000    0.7379384   -7.4724511    812.48088  0.021118759  0.020714553            6 
 3207000   0.73298245   -7.4946387    813.11259  0.021128588  0.020708503           12 
 3208000   0.73355161   -7.5098727    813.26353  0.021125923  0.020702442            9 
 3209000     0.740517   -7.4894483    811.06628   0.02106228  0.020696411            8 
 3210000    0.7451211   -7.4679826    811.88945  0.021077088  0.020690389            8 
 3211000   0.73227241   -7.4810677    812.27486  0.021080527  0.020684386           20 
 3212000   0.74829463   -7.4598291      812.675  0.021084345  0.020678387            4 
 3213000   0.72953938    -7.486126      811.659  0.021051432  0.020672372            7 
 3214000   0.73011289   -7.4888421    812.21058  0.021059183  0.020666365            3 
 3215000   0.74192132   -7.4722722    811.93655   0.02104553  0.020660368            5 
 3216000   0.74779108   -7.4902262    812.45791  0.021052496  0.020654368            3 
 3217000   0.73219108    -7.484869    813.24899  0.021066444  0.020648366            7 
 3218000   0.73456053   -7.4869533     813.4462  0.021065004   0.02064237            4 
 3219000   0.75632831   -7.4801415    813.42489  0.021057909  0.020636395            5 
 3220000   0.73865453    -7.471109    812.81963  0.021035705  0.020630404            5 
 3221000   0.74106706   -7.4604896    811.58297  0.020997179  0.020624421            8 
 3222000   0.74661715   -7.4619676    814.05385  0.021054569  0.020618418            6 
 3223000   0.73327462   -7.4569726    813.53901  0.021034725  0.020612448            7 
 3224000   0.73149809   -7.4555131    812.19689  0.020993509  0.020606493            8 
 3225000   0.74081847   -7.4556123    813.33435  0.021016392  0.020600513            5 
 3226000   0.74024788   -7.4667053    812.59858   0.02099087  0.020594535            3 
 3227000   0.72625746   -7.5130584    812.94964  0.020993431  0.020588553            3 
 3228000    0.7434415   -7.5007513    813.30049  0.020995985  0.020582556            6 
 3229000   0.73360911     -7.48099    813.68145  0.020999315  0.020576594            4 
 3230000   0.73473106   -7.5062267    813.20979  0.020980645  0.020570618            4 
 3231000   0.73118256    -7.486847    814.09556  0.020996997  0.020564635            3 
 3232000   0.74545775   -7.4910082    813.56506  0.020976822   0.02055868            2 
 3233000   0.73759056   -7.4881828    814.18324  0.020986268  0.020552722            2 
 3234000   0.73145801   -7.4562415    816.24087  0.021032799  0.020546769            5 
 3235000   0.71756841   -7.4909884    815.85918  0.021016465  0.020540845            3 
 3236000   0.74383567   -7.5015719    812.89101  0.020933535  0.020534879            5 
 3237000    0.7351835   -7.5009917    813.95141  0.020954366  0.020528901            6 
 3238000   0.73736417   -7.4663922    814.90203   0.02097236  0.020522976            6 
 3239000   0.73697549    -7.452882    812.70152   0.02090927  0.020517047           12 
 3240000   0.73190334   -7.4891273    814.15246  0.020940135  0.020511079            8 
 3241000   0.73417178   -7.4687249    815.55158  0.020969649  0.020505134            6 
 3242000   0.72700982   -7.4523571    815.88512  0.020971754   0.02049921            3 
 3243000   0.74187773   -7.4556261    813.54055   0.02090504  0.020493296            9 
 3244000   0.72642538   -7.4622666    812.79176  0.020879361  0.020487378           11 
 3245000   0.72904661   -7.4979465    813.84853  0.020900065  0.020481435           10 
 3246000   0.72252983   -7.4945252    813.97376  0.020896841  0.020475477           12 
 3247000   0.72049602   -7.4661855    814.51813  0.020904377  0.020469534            4 
 3248000   0.73329347   -7.5183947    814.61359   0.02090039  0.020463593            5 
 3249000   0.73134638   -7.4855793    813.52755  0.020866101  0.020457617            8 
 3250000   0.74060558   -7.4854651    814.09505  0.020874232  0.020451663            6 
 3251000   0.72098037   -7.4888423     812.8051  0.020834746  0.020445699            7 
 3252000   0.73027347   -7.4889852    814.35405  0.020868031  0.020439738            7 
 3253000   0.72560845    -7.490786    814.89497  0.020875473  0.020433773            2 
 3254000   0.71533994    -7.486463    812.48932   0.02080745  0.020427805            5 
 3255000   0.72368223   -7.4623322    813.70257  0.020832119  0.020421854            6 
 3256000   0.74542783   -7.4964787    814.38681  0.020843233  0.020415885            7 
 3257000   0.72994121   -7.4960567    813.20092  0.020806492  0.020409917            4 
 3258000   0.75503262   -7.4845315    815.35491    0.0208552  0.020403966            3 
 3259000   0.73144358   -7.4699729    813.54658  0.020802562  0.020398005            3 
 3260000   0.72665171   -7.4715902    813.55596   0.02079642  0.020392049            7 
 3261000   0.72376691   -7.4776086    812.87765  0.020772709  0.020386102            6 
 3262000   0.74537281   -7.4888516    815.54517  0.020834487  0.020380155            4 
 3263000   0.73264671   -7.4816201    813.93218  0.020786908  0.020374203            4 
 3264000   0.73531622   -7.5141628    812.14619  0.020734941  0.020368236            5 
 3265000   0.72803733   -7.5100853    813.50722  0.020763329  0.020362239            7 
 3266000   0.73606551   -7.5147589    812.91296  0.020741809  0.020356251           16 
 3267000   0.72067893    -7.528915    815.09307  0.020791069  0.020350246            6 
 3268000   0.72445848   -7.5166579    813.27111  0.020738247   0.02034425            5 
 3269000   0.72143157   -7.5173266    813.17215  0.020729381  0.020338266            9 
 3270000   0.73450123   -7.4866797    813.83639  0.020739969  0.020332281            6 
 3271000   0.71212767   -7.4868774    814.22777    0.0207436  0.020326306            9 
 3272000   0.72361427   -7.5070434    813.59344  0.020721104  0.020320335            4 
 3273000   0.71883229   -7.5120899    813.81995   0.02072054  0.020314336            7 
 3274000   0.72911965   -7.4963179    812.51526  0.020681003  0.020308343            9 
 3275000     0.738358   -7.4869223     813.0744  0.020688916   0.02030236            5 
 3276000   0.71996141   -7.5164088    814.17602  0.020710623  0.020296383            5 
 3277000   0.73205311   -7.5021024    814.12655  0.020703045  0.020290408            7 
 3278000   0.72970334   -7.5017872    815.62321  0.020734777  0.020284424            3 
 3279000   0.73160802   -7.4961256    814.14653  0.020690925  0.020278456            4 
 3280000   0.73101696   -7.4691134    814.93103  0.020704549  0.020272485            5 
 3281000   0.72384371   -7.4795344    813.03656  0.020650121  0.020266536            9 
 3282000   0.72609176   -7.5094355    812.92465  0.020640987  0.020260572            5 
 3283000   0.72121687   -7.5137861    813.71781  0.020654833  0.020254581            6 
 3284000    0.7165882   -7.4900179    815.85362  0.020702741  0.020248641            5 
 3285000   0.72547873   -7.4840028     814.4757  0.020661484  0.020242741            5 
 3286000   0.72831083   -7.4635378    814.13134  0.020646463   0.02023682            5 
 3287000   0.74077654   -7.4931679    814.18965   0.02064166  0.020230901           10 
 3288000   0.70767539   -7.4827737    815.73938   0.02067466  0.020224985           11 
 3289000    0.7196036    -7.487778    816.38509  0.020684734  0.020219071           11 
 3290000   0.72516042   -7.5085939    816.54185  0.020682418  0.020213146            6 
 3291000   0.72706261   -7.5172671    815.74399   0.02065593  0.020207232           11 
 3292000    0.7370038   -7.4979489    815.76338  0.020650146  0.020201326           20 
 3293000   0.73439201   -7.4920367    816.48827   0.02066222  0.020195417            7 
 3294000   0.72118547   -7.4990912    814.23645  0.020598979  0.020189512            5 
 3295000   0.72816884   -7.5232723     815.3861  0.020621803  0.020183607            7 
 3296000    0.7309869   -7.5132229    815.34456  0.020614496  0.020177673            6 
 3297000   0.72697961   -7.5061407     815.5251  0.020612807   0.02017177            4 
 3298000   0.72850896   -7.4923654    816.06252  0.020620136  0.020165856            5 
 3299000   0.73246851   -7.4891336    815.98467  0.020611919  0.020159928           11 
 3300000    0.7242024   -7.5116394    816.22246  0.020611678   0.02015401            5 
 3301000   0.72047933   -7.4969987    814.44075  0.020560455  0.020148087            8 
 3302000   0.70926216   -7.5233901    814.08308  0.020545202  0.020142152            6 
 3303000   0.72311502   -7.5013957    816.58435  0.020602088  0.020136226            4 
 3304000   0.72839733   -7.4771971    818.54513  0.020645307  0.020130322            7 
 3305000   0.71704287   -7.5158141    815.52316  0.020562863  0.020124418            6 
 3306000   0.72801403   -7.5085201    818.01495  0.020619453  0.020118531            4 
 3307000   0.73126515   -7.5106549    816.33683  0.020570931  0.020112627            3 
 3308000   0.73067011   -7.4973566     817.1066  0.020584104  0.020106709            5 
 3309000   0.71241835    -7.513463    814.54344  0.020513333  0.020100795            7 
 3310000   0.71785639    -7.536872    814.07646  0.020495379  0.020094873            3 
 3311000   0.73267988   -7.5088924    815.61744  0.020527973  0.020088968           14 
 3312000    0.7207963   -7.5297858    815.58413  0.020520937  0.020083084           10 
 3313000   0.70902435   -7.5487466    817.03325  0.020551194  0.020077177            7 
 3314000   0.71284087   -7.5201631    816.32347  0.020527144  0.020071281            5 
 3315000   0.72447241   -7.5117554    815.44539  0.020498879  0.020065392            3 
 3316000   0.70844002   -7.5178796    815.41643  0.020491969  0.020059521            7 
 3317000   0.73267276   -7.4854917    816.59578   0.02051542   0.02005363            4 
 3318000   0.73673133   -7.5122101    815.89075   0.02049153  0.020047739            4 
 3319000   0.71303927   -7.5259141    818.77693  0.020557822  0.020041856            5 
 3320000   0.73091598   -7.5315601    815.76133  0.020475937  0.020035962            9 
 3321000    0.7139369   -7.5240626    816.77534  0.020495216  0.020030073            9 
 3322000   0.71644878   -7.5029684    815.24379  0.020450627  0.020024204           12 
 3323000   0.71399211   -7.5384771    817.29387  0.020495884  0.020018325            5 
 3324000   0.73844984   -7.5182705    816.78294  0.020476909  0.020012453            9 
 3325000   0.72959325   -7.4889612     817.3787  0.020485682  0.020006615            5 
 3326000   0.72805721   -7.5247341    816.53565    0.0204584  0.020000793            5 
 3327000   0.72663843    -7.490109     818.8971  0.020511399   0.01999497            3 
 3328000   0.71863302   -7.5165722    816.03294  0.020433517  0.019989156            5 
 3329000    0.7089014   -7.5023473       816.04  0.020427556  0.019983335            8 
 3330000   0.72070794   -7.5026796    817.99467  0.020470337    0.0199775            3 
 3331000   0.72312056   -7.5061176    819.23243  0.020495157  0.019971666            7 
 3332000   0.71596859   -7.5054553    818.07326  0.020460015  0.019965807           11 
 3333000   0.72380367   -7.5021759    817.83958  0.020448034  0.019959974            7 
 3334000   0.70641566   -7.5148542    816.65676  0.020412337  0.019954127            4 
 3335000   0.70042961   -7.5273196    818.19051  0.020444541  0.019948302            8 
 3336000   0.72026877   -7.5195226    817.01459  0.020409038  0.019942465            6 
 3337000   0.72277134   -7.5060488    818.08343  0.020429613  0.019936636            3 
 3338000   0.72586248   -7.5302567    817.58847  0.020411136  0.019930814            5 
 3339000   0.72384662   -7.5364584    817.27939  0.020397309  0.019924977            9 
 3340000   0.72442705   -7.5271655    817.67088   0.02040097   0.01991916            5 
 3341000   0.71185424   -7.5458887    819.09309  0.020430337  0.019913379            4 
 3342000   0.71612811   -7.5179696    820.00188  0.020446885  0.019907589            5 
 3343000   0.71714096   -7.5224007    818.51603   0.02040373  0.019901782           10 
 3344000   0.71594189   -7.5161657     817.0202  0.020360352  0.019895982            5 
 3345000    0.7173256   -7.5512345    817.52051  0.020366729  0.019890152            6 
 3346000   0.71593653   -7.5509803    817.55642  0.020361537  0.019884324            7 
 3347000   0.71743389   -7.5135247    819.72627  0.020409478  0.019878497            3 
 3348000   0.69385665   -7.5222735    818.31186  0.020368177  0.019872673           11 
 3349000   0.71875478   -7.5068073    819.25952  0.020385675  0.019866852            4 
 3350000   0.73028637   -7.5372275    820.16562   0.02040213  0.019861052            6 
 3351000   0.73081513   -7.5257614    818.45734   0.02035356  0.019855235           11 
 3352000   0.71395097   -7.4948884    819.05127  0.020362253  0.019849437           10 
 3353000   0.71545047   -7.5355265    818.63695  0.020345883  0.019843642            9 
 3354000   0.71238394   -7.5328086    820.03357  0.020374517  0.019837857           18 
 3355000   0.72242667   -7.5415716    817.88873   0.02031517   0.01983205           12 
 3356000   0.73044387   -7.5278555    819.20418   0.02034178   0.01982625            5 
 3357000    0.7197557   -7.5160012     819.0137  0.020330992  0.019820442            4 
 3358000   0.71313159   -7.5041621    820.07092  0.020351174  0.019814662            5 
 3359000   0.71517825   -7.5300981    817.93273  0.020292069  0.019808858            7 
 3360000   0.71344933   -7.5097829    818.84859  0.020308745  0.019803052            2 
 3361000   0.72344658   -7.5309395    816.29069  0.020239281  0.019797237            9 
 3362000   0.70831467   -7.5676122    816.76981  0.020245137  0.019791398            6 
 3363000   0.73205954   -7.5246752    818.13338  0.020272906  0.019785583            9 
 3364000    0.7096804   -7.5241732    818.17208  0.020267838  0.019779793            5 
 3365000   0.72480456   -7.5523999    817.40237  0.020242753  0.019773979            5 
 3366000   0.71645138   -7.5583318      817.215    0.0202321  0.019768162            7 
 3367000   0.70209887   -7.5440602    818.15851  0.020249443  0.019762336            5 
 3368000   0.71544679   -7.5568702    817.80703  0.020234734  0.019756499           22 
 3369000    0.7100539   -7.5344878    818.79234    0.0202531  0.019750664           10 
 3370000   0.71180258   -7.5629521    818.08361  0.020229565  0.019744823            6 
 3371000   0.71434822   -7.5619259    815.26873  0.020153978  0.019738991            4 
 3372000   0.72033647   -7.5377065    816.67698  0.020182804  0.019733149            6 
 3373000   0.71682776   -7.5575001    819.07923   0.02023617  0.019727313           15 
 3374000   0.71247657   -7.5426532    818.05742  0.020204935  0.019721504           11 
 3375000   0.73416001   -7.5081851    819.75731  0.020240921  0.019715735            6 
 3376000   0.69625137   -7.5286195     817.8284  0.020187312  0.019709979           15 
 3377000   0.71160966   -7.5468941    818.44604  0.020196576  0.019704203           20 
 3378000   0.71429131   -7.5166367    818.59821  0.020194351  0.019698419            6 
 3379000   0.71538059   -7.5487139    820.79649  0.020242589  0.019692645            5 
 3380000   0.70093532   -7.5344552    818.40071  0.020177532  0.019686869            4 
 3381000   0.71020702   -7.5383217    819.01427  0.020186687  0.019681081            5 
 3382000   0.71076634   -7.5522741    819.42329  0.020190797  0.019675298            6 
 3383000   0.71217652   -7.5272769    819.93386  0.020197405  0.019669514           17 
 3384000   0.71950522   -7.5286698    817.29917  0.020126556  0.019663712           18 
 3385000   0.72598015   -7.5505873    819.21176  0.020167695  0.019657931            8 
 3386000   0.71085733   -7.5567362    817.22911  0.020112943  0.019652142            4 
 3387000   0.71374811   -7.5446593    819.64068  0.020166339   0.01964633            8 
 3388000   0.72251387   -7.5502634    818.84687  0.020140862  0.019640522            4 
 3389000   0.72770667    -7.550925    818.74618  0.020132443  0.019634732            6 
 3390000   0.72907785   -7.5484335    818.67447  0.020124741  0.019628926            6 
 3391000   0.70780909   -7.5441861    817.52995   0.02009068  0.019623126            8 
 3392000   0.71929944   -7.5562566    817.69737   0.02008887  0.019617333            4 
 3393000   0.71383722   -7.5402449    818.76231  0.020109105  0.019611549            4 
 3394000   0.72244635   -7.5558336    819.51898  0.020121759  0.019605754            7 
 3395000   0.70854013   -7.5141057    820.44861   0.02013865  0.019599973            5 
 3396000   0.70788712    -7.543589    820.07859   0.02012364   0.01959422            7 
 3397000   0.70443683   -7.5414568    821.09371  0.020142619  0.019588458            9 
 3398000   0.71679603   -7.5356141    820.82985   0.02013022  0.019582698            7 
 3399000   0.70122254   -7.5414843    818.94813  0.020078163  0.019576941            6 
 3400000   0.70831686   -7.5402175    820.11982  0.020100976  0.019571176           11 
 3401000   0.69686128   -7.5297799    819.44214  0.020078461  0.019565427            5 
 3402000   0.70436977   -7.5229781    818.53981  0.020050456  0.019559657            8 
 3403000   0.70887118   -7.5553011    819.72616  0.020073615  0.019553891           10 
 3404000   0.70149514   -7.5089921    820.83544  0.020094875  0.019548118            7 
 3405000   0.71202109   -7.5365804    821.72309  0.020110697  0.019542398            5 
 3406000   0.70661293   -7.5228972    820.92547  0.020085278  0.019536679            7 
 3407000   0.70280763   -7.5511226    819.86322    0.0200534  0.019530915            5 
 3408000   0.70230025   -7.5227249    821.11335  0.020078085  0.019525167            8 
 3409000   0.69794077   -7.5237482    820.07433  0.020046796  0.019519421            3 
 3410000    0.7117708   -7.5423904    820.00209  0.020039152  0.019513687            5 
 3411000   0.72525531   -7.5642719    819.96776  0.020032438  0.019507942            8 
 3412000   0.70299676   -7.5404773    820.18738  0.020031931  0.019502192            5 
 3413000    0.7001611    -7.533556    820.31488  0.020029175  0.019496438            4 
 3414000    0.7075081   -7.5368138    819.93141  0.020013948  0.019490701            5 
 3415000   0.70324064   -7.5480804    819.66106   0.02000149  0.019484944           12 
 3416000   0.72773675   -7.5386559    818.19018  0.019959753  0.019479177            5 
 3417000   0.69631674   -7.5367757    820.23301  0.020003731  0.019473409           11 
 3418000   0.70423013   -7.5452385    819.47005  0.019979277  0.019467619            4 
 3419000   0.71725719   -7.5451501    817.40199  0.019923028  0.019461831            6 
 3420000   0.71100119   -7.5649034    819.20278  0.019961081   0.01945606            6 
 3421000   0.70514749   -7.5315628    820.18553  0.019979186  0.019450302            5 
 3422000   0.71661939   -7.5375613    820.24607  0.019974822  0.019444554            3 
 3423000   0.71952013   -7.5207041     819.7388  0.019956636  0.019438812            6 
 3424000   0.70217096   -7.5658741    818.90135  0.019930426  0.019433047           23 
 3425000   0.70417043   -7.5352087     820.6623  0.019967452  0.019427272            6 
 3426000   0.70133645    -7.563115    819.72976  0.019938941  0.019421512            7 
 3427000   0.69286819   -7.5287614    821.52194  0.019976703  0.019415742            5 
 3428000   0.71056892   -7.5243287    819.44685  0.019920431  0.019409994            5 
 3429000   0.69836123   -7.5642476    819.62515  0.019918955  0.019404228            6 
 3430000   0.70252692   -7.5572041     819.0998  0.019900384   0.01939847            3 
 3431000   0.71292671   -7.5614031    821.34212  0.019949046  0.019392721            3 
 3432000   0.71050015   -7.5412219    818.32707  0.019870024  0.019386975            5 
 3433000   0.70454449   -7.5321312    819.56222  0.019894218  0.019381232            7 
 3434000    0.6891798   -7.5486495    818.98203  0.019874345  0.019375488           10 
 3435000   0.69624585   -7.5432574    819.99022  0.019893018  0.019369754           14 
 3436000   0.69796343   -7.5670749    818.32086  0.019846742  0.019364016            5 
 3437000   0.68721607    -7.553732    819.03346  0.019858245  0.019358264           11 
 3438000   0.69401205   -7.5657227    819.69582  0.019868524  0.019352517           14 
 3439000   0.70513888   -7.5630894    821.99267  0.019918403  0.019346785            5 
 3440000   0.69382911   -7.5698741    819.80406  0.019859594   0.01934102            7 
 3441000   0.69787344   -7.5850832    821.74249  0.019900768  0.019335266            5 
 3442000    0.6875375   -7.5539044    819.11056  0.019831265  0.019329525            3 
 3443000   0.71292337   -7.5603388    821.16443  0.019875216  0.019323793            6 
 3444000    0.6894531   -7.5680708    821.54399  0.019878629  0.019318086            4 
 3445000   0.69657255   -7.5654884    819.21171  0.019816442   0.01931238            5 
 3446000   0.69183617   -7.5787912    821.35545  0.019862533  0.019306675            4 
 3447000   0.69879675   -7.5674731    820.43662  0.019834557  0.019300973            8 
 3448000   0.69724658   -7.5490297    820.62328  0.019833316  0.019295272            5 
 3449000   0.69786527   -7.5626643    821.43353  0.019847143  0.019289579            4 
 3450000   0.69584265   -7.5673102    820.87214   0.01982783  0.019283884           12 
 3451000   0.69084535   -7.5241876    822.99658  0.019873384  0.019278198            5 
 3452000   0.69851011   -7.5364671    821.11382  0.019822176  0.019272507            3 
 3453000   0.69264299   -7.5419541    819.98783  0.019789261  0.019266821            9 
 3454000   0.71126258    -7.562239    819.93782  0.019782325  0.019261135            4 
 3455000   0.70034052   -7.5621593    821.53356  0.019815088  0.019255449            5 
 3456000   0.69614377    -7.558517     820.2653  0.019778774   0.01924975            6 
 3457000   0.69933317    -7.557178     818.6991  0.019735298  0.019244042            3 
 3458000   0.71209835   -7.5575276    821.73925  0.019802855  0.019238341            4 
 3459000   0.70518631   -7.5528035    821.39347  0.019788799  0.019232642            6 
 3460000   0.68375036   -7.5530323    820.76869  0.019768032   0.01922695           12 
 3461000   0.70847545    -7.539437    819.58847  0.019733903  0.019221279           11 
 3462000   0.69868487   -7.5674423    820.63463  0.019753385   0.01921558            5 
 3463000   0.69580537   -7.5372213    821.82443  0.019776312  0.019209909           13 
 3464000   0.69636082    -7.551548     822.7531  0.019792944   0.01920423            5 
 3465000   0.68476973   -7.5529616    820.53594  0.019733909  0.019198549            8 
 3466000   0.69818837   -7.5731098    820.84426  0.019735628    0.0191929           16 
 3467000     0.705312   -7.5309228    821.58533  0.019747748  0.019187244           22 
 3468000   0.70453224   -7.5570189    822.56036  0.019765483  0.019181592           11 
 3469000   0.70210831   -7.5565133    820.58465  0.019712325  0.019175921            5 
 3470000   0.70621191   -7.5993233    820.22517  0.019698011  0.019170252           12 
 3471000   0.70309558   -7.5729155    820.76817  0.019705372  0.019164581            5 
 3472000   0.69971964   -7.5929851    821.46554  0.019716435  0.019158914            5 
 3473000   0.68663191   -7.5717995    821.72792  0.019717053  0.019153247            3 
 3474000   0.69284755   -7.5742344    821.58812  0.019708024  0.019147579            6 
 3475000   0.68256544   -7.5546867    823.26627  0.019742596  0.019141915           11 
 3476000   0.69181678   -7.5779022    821.37384  0.019691548  0.019136249            5 
 3477000   0.70266312   -7.5637897    822.27163  0.019707402  0.019130579            7 
 3478000   0.70751247   -7.5932464    822.05034  0.019696433  0.019124919            3 
 3479000   0.68952698    -7.552671    822.34581  0.019697849  0.019119246            4 
 3480000   0.69292954    -7.598754    819.95747  0.019634997  0.019113578            7 
 3481000   0.71065222   -7.5711283    822.60647  0.019692772  0.019107921            8 
 3482000   0.69973752   -7.5733698    822.36444  0.019681324  0.019102264           10 
 3483000   0.68927865   -7.5812285    822.29353  0.019673977  0.019096607            7 
 3484000   0.69355273   -7.5781207    819.76484  0.019607846  0.019090973            6 
 3485000   0.68893353   -7.5758972    822.86044  0.019676242  0.019085328           12 
 3486000   0.70354779   -7.5798429       821.17  0.019630188  0.019079694            8 
 3487000    0.6875171   -7.5662524    822.80682  0.019663675  0.019074065            9 
 3488000   0.69700399   -7.5554353    821.11353  0.019617582  0.019068423            9 
 3489000   0.69214296   -7.5694166    822.29325  0.019640137  0.019062789            9 
 3490000   0.70219359   -7.5480915    822.28982  0.019634427  0.019057157            8 
 3491000   0.69712712   -7.6054811    820.56965  0.019587741  0.019051509            9 
 3492000   0.67018331   -7.5825049    822.57812  0.019630062  0.019045862            5 
 3493000   0.68541867   -7.5855717    821.72904  0.019604185  0.019040218            5 
 3494000   0.69328669   -7.5740413    820.69632  0.019573944  0.019034576            7 
 3495000   0.68715636    -7.556763    822.92731  0.019621538  0.019028958            5 
 3496000    0.6793245   -7.5674238    822.76194  0.019611984  0.019023324           15 
 3497000   0.69372866     -7.57531    821.83101  0.019584191  0.019017683           28 
 3498000   0.69898154   -7.5684652      822.051  0.019583834  0.019012057           14 
 3499000   0.70352811   -7.5753928    822.11153  0.019579678  0.019006432           14 
 3500000   0.69519795   -7.5853433    822.02712  0.019572074  0.019000801           15 
 3501000   0.69182585   -7.5857541    821.52543  0.019554542  0.018995171            4 
 3502000   0.68976568   -7.5760862    820.99213  0.019536268  0.018989532            4 
 3503000    0.6923786   -7.5770904    821.84498   0.01955098  0.018983897            6 
 3504000   0.69187335   -7.6002897    821.67352  0.019541322   0.01897825            5 
 3505000   0.67648973   -7.5958406     821.9847  0.019543146  0.018972595            7 
 3506000   0.70482085   -7.5959384    823.51391  0.019573919   0.01896694            4 
 3507000   0.70027611   -7.5419019     822.5663   0.01954582  0.018961316            5 
 3508000    0.6948809   -7.5943966    823.04581  0.019551639  0.018955699            5 
 3509000   0.67089844   -7.5880499    822.34685  0.019529468  0.018950063            4 
 3510000   0.68985764   -7.5856028    822.24253  0.019521428  0.018944441            9 
 3511000   0.68057351   -7.5950606    821.37946  0.019495383  0.018938831            6 
 3512000   0.68373013    -7.565644    822.91357  0.019526233  0.018933206            6 
 3513000   0.68637408   -7.5703822    824.08431  0.019548446  0.018927601            7 
 3514000   0.68903732   -7.5737942    823.73762  0.019534662  0.018922016            5 
 3515000   0.69379872   -7.5737497     824.6791  0.019551425  0.018916426            3 
 3516000   0.69197471   -7.5588488    825.28054  0.019560119  0.018910851            7 
 3517000   0.67397357   -7.5677232    822.40579  0.019486442   0.01890527            4 
 3518000   0.68686708    -7.594902    822.58994  0.019485265  0.018899676           10 
 3519000   0.69802118   -7.5692433     822.6404  0.019480923  0.018894088            8 
 3520000   0.69311799   -7.6024664    822.43481  0.019470521  0.018888498            6 
 3521000    0.7012791   -7.5908441    823.38275  0.019487427  0.018882928           12 
 3522000   0.68857925   -7.5733665    823.07244  0.019474551  0.018877346            7 
 3523000    0.6857236   -7.5802363    821.44288  0.019430478  0.018871762            5 
 3524000   0.69505427   -7.5857824    823.21555  0.019466883  0.018866188           13 
 3525000     0.680394   -7.5609277    823.20282  0.019461059  0.018860618            8 
 3526000   0.69998345   -7.5822715    823.50789   0.01946275  0.018855043           15 
 3527000   0.69056975   -7.5987937    821.66357  0.019413656  0.018849452            8 
 3528000   0.68317864   -7.6116841    825.96807  0.019509828  0.018843867            9 
 3529000    0.6951462   -7.5764667     824.7811   0.01947627  0.018838309           11 
 3530000   0.68795344   -7.6119195    824.76691  0.019470418  0.018832731            7 
 3531000   0.67940189   -7.5880852     824.9832  0.019470008  0.018827159            5 
 3532000    0.6909378   -7.5796355    823.06767  0.019419301   0.01882159            8 
 3533000   0.69731431   -7.6192359    822.95143  0.019411063  0.018816004            5 
 3534000    0.6924801    -7.588349    822.68423   0.01939927  0.018810432            7 
 3535000   0.70430866   -7.5940153    823.96295  0.019423926  0.018804854           10 
 3536000   0.68747094   -7.5889304     821.0116  0.019348878  0.018799289            8 
 3537000   0.68816286   -7.6088234    824.44275  0.019424247  0.018793729            9 
 3538000   0.69666786   -7.5873812    824.02713  0.019408968  0.018788164            6 
 3539000   0.67871811   -7.5782168    823.58423  0.019393054  0.018782604           11 
 3540000   0.67128896     -7.56026    823.71522   0.01939066   0.01877707            7 
 3541000    0.6742685   -7.5783918    825.58014  0.019429072  0.018771535            5 
 3542000   0.68492786   -7.5998244    822.68006  0.019355356  0.018765999            5 
 3543000   0.67796228   -7.5886534    822.86569  0.019354259  0.018760446            8 
 3544000   0.67536212   -7.5797838    825.26124  0.019405127  0.018754897            8 
 3545000   0.69867227   -7.5999342    822.70887  0.019339654  0.018749339            5 
 3546000   0.67661377    -7.595734     823.6319  0.019355892  0.018743771            6 
 3547000   0.68401075   -7.5881713    823.10079  0.019337957  0.018738211           10 
 3548000   0.68374237   -7.5776785     823.6523   0.01934546  0.018732661           11 
 3549000   0.69334652   -7.5980496     822.9995  0.019324681  0.018727133            7 
 3550000   0.68600104   -7.5885455    824.59875  0.019356778  0.018721614            7 
 3551000   0.67847599   -7.6105403    824.00342  0.019337356  0.018716083            3 
 3552000   0.68541601    -7.593773    825.38089  0.019364229  0.018710562            9 
 3553000   0.68943425   -7.5787272    824.98476  0.019349488  0.018705042            7 
 3554000   0.67250187   -7.5978942    823.64895  0.019312722  0.018699516            5 
 3555000   0.68121279   -7.5913192    824.44608  0.019325975  0.018693973           14 
 3556000   0.67914759   -7.5824089    823.00547   0.01928678  0.018688441            8 
 3557000    0.6948225   -7.6061248    823.61414  0.019295617  0.018682925            8 
 3558000   0.67122437   -7.6146709    824.89027  0.019320083  0.018677412            8 
 3559000   0.67736125   -7.6183338    823.82009  0.019289596  0.018671891            3 
 3560000   0.68901098   -7.5784727    824.69804  0.019304729  0.018666366           18 
 3561000    0.6904321   -7.5928955    824.56319  0.019296152  0.018660858           10 
 3562000   0.68429146   -7.5989455    824.30763  0.019284756  0.018655372           10 
 3563000   0.69530111   -7.6163226    824.53381  0.019284634  0.018649861            5 
 3564000   0.69193336   -7.5634579     825.2883  0.019296865  0.018644354            3 
 3565000   0.67121024   -7.6098303    823.48269  0.019249245  0.018638848            5 
 3566000   0.66649412   -7.5970522     824.0722  0.019257623  0.018633343           10 
 3567000   0.67466347   -7.6047691    825.74829  0.019291381  0.018627838            6 
 3568000   0.67473781    -7.599055    824.54565  0.019257886  0.018622301            6 
 3569000    0.6891228   -7.5814669    822.59395  0.019206919  0.018616766            5 
 3570000   0.67012895   -7.6046084    824.31706  0.019241761  0.018611229            5 
 3571000   0.67279491   -7.6065763     824.3779  0.019237793  0.018605693            6 
 3572000    0.6611387   -7.6236916    823.48823  0.019211651  0.018600157            8 
 3573000   0.67537599    -7.622242    823.27573  0.019201318  0.018594622            6 
 3574000   0.68070042   -7.6110661    823.09939  0.019191834  0.018589087            3 
 3575000   0.67643091   -7.5803318     825.2342  0.019236229  0.018583568            5 
 3576000   0.68926606   -7.5926001    823.53271  0.019191199  0.018578052           10 
 3577000   0.68050347   -7.6158335    825.43311  0.019230107  0.018572545            9 
 3578000   0.68880116   -7.6311047    824.53959  0.019203922  0.018567024            8 
 3579000   0.68017903   -7.6093291    823.54533  0.019175406  0.018561516            5 
 3580000   0.68233193   -7.6028725     824.2155   0.01918565  0.018555999           17 
 3581000   0.67753475   -7.6068399    824.04721  0.019176376  0.018550485            9 
 3582000   0.68409679   -7.6064161     823.2544  0.019152578  0.018544974           15 
 3583000    0.6732172   -7.6130148    823.97072  0.019163892  0.018539466            4 
 3584000   0.68022578   -7.5900982    824.15416  0.019162811  0.018533955            9 
 3585000   0.67345535   -7.5907819    824.74516  0.019171203  0.018528442           10 
 3586000   0.67348513   -7.6010626      822.493   0.01911352  0.018522937           10 
 3587000   0.67970196   -7.6128706    824.51322  0.019155125  0.018517441            9 
 3588000   0.68511955   -7.6052486    824.67605  0.019153569  0.018511924           12 
 3589000   0.67558625   -7.6274664    824.73052  0.019149497  0.018506423            6 
 3590000   0.66751565   -7.6202425    824.46428  0.019137982  0.018500922            8 
 3591000   0.67836209   -7.5965121    823.74092  0.019115866  0.018495425            8 
 3592000   0.65958278   -7.6333673    824.78784  0.019134833  0.018489925            5 
 3593000   0.66144781   -7.5961021    824.51002  0.019123064  0.018484407            9 
 3594000   0.66768554   -7.6335918    824.49853  0.019117477    0.0184789           16 
 3595000   0.69032902   -7.6252659    823.89388  0.019098143  0.018473386            9 
 3596000    0.6743642   -7.6085154    825.06345  0.019119935  0.018467876            5 
 3597000   0.68030156   -7.6139742    823.63663  0.019081564  0.018462367           16 
 3598000   0.67393363   -7.6517193    823.18362  0.019065768   0.01845686            7 
 3599000   0.67040089   -7.6240837    823.71999   0.01907289  0.018451335           10 
 3600000   0.68129446   -7.6028272    824.93867  0.019095802  0.018445827           18 
 3601000   0.67527332   -7.5932655    823.67422  0.019061238  0.018440325           11 
 3602000   0.67816498   -7.6128683     825.4718  0.019097534  0.018434828            8 
 3603000   0.66815499   -7.6261128    825.30763  0.019088436  0.018429333            7 
 3604000   0.67925686   -7.6315437    823.88783  0.019050311  0.018423825            8 
 3605000   0.68184644   -7.6206125    823.63047  0.019039077  0.018418319           11 
 3606000   0.68873701   -7.6017011    824.90318  0.019063209  0.018412813           16 
 3607000   0.68025971   -7.6399978    823.69942  0.019030113  0.018407307            8 
 3608000   0.67727288   -7.6056491    823.97805  0.019031274  0.018401803           10 
 3609000   0.68381186   -7.6182969    824.59514   0.01904025  0.018396293            9 
 3610000   0.66351254   -7.6052476    824.27889  0.019027675    0.0183908           10 
 3611000   0.66220777   -7.6099097    823.54248  0.019005411  0.018385294            9 
 3612000   0.68781646   -7.6087165    824.84057  0.019030098  0.018379811            7 
 3613000   0.67238427   -7.6126846    825.08494  0.019030467  0.018374342           13 
 3614000   0.67093612   -7.6289841    824.13945    0.0190034  0.018368858            5 
 3615000   0.68244032   -7.5985209    825.67644  0.019033574  0.018363384            5 
 3616000   0.66841912    -7.609137    825.27915  0.019019154  0.018357918            6 
 3617000   0.65898274   -7.6217856    827.01358  0.019053856  0.018352442            7 
 3618000   0.66402663   -7.6252133    825.12469  0.019005083  0.018346966           13 
 3619000   0.67871302   -7.6366355    823.54977  0.018963567  0.018341481            4 
 3620000   0.68250815   -7.6342003    823.19024  0.018950052   0.01833598            8 
 3621000   0.68627579   -7.6276066    824.30828  0.018970549   0.01833048           13 
 3622000   0.68218345   -7.6268201    823.17514   0.01893924   0.01832499           16 
 3623000   0.67742107   -7.6246347    823.85106   0.01894956  0.018319503           23 
 3624000   0.66469898   -7.6224674    824.86974  0.018967755  0.018314023            9 
 3625000   0.67481882   -7.6208819    822.82794  0.018915585  0.018308523            7 
 3626000   0.68893883   -7.6423245    823.02866  0.018914981  0.018303028            7 
 3627000   0.67735211   -7.6342892    823.53274  0.018921348  0.018297522            6 
 3628000   0.66227666   -7.6161338    822.35114  0.018888992  0.018292023            5 
 3629000   0.65951525    -7.631683    823.19466  0.018903156  0.018286507            9 
 3630000   0.66305127   -7.6390867    824.01214  0.018916716  0.018281014            7 
 3631000   0.67768645   -7.6413243    823.21182  0.018893138  0.018275539           13 
 3632000    0.6786753   -7.6147024     823.7152  0.018899486  0.018270063           10 
 3633000   0.67082483   -7.6036708    823.85439  0.018897477   0.01826461           13 
 3634000   0.67789875   -7.6148933    824.54828  0.018908188  0.018259151           16 
 3635000    0.6702576   -7.6274739    824.79369  0.018908613  0.018253693            6 
 3636000   0.67760075   -7.5902371    825.95463   0.01893002  0.018248235            5 
 3637000   0.65939231    -7.611211    824.83557  0.018899174  0.018242789           13 
 3638000    0.6754987   -7.6202868    824.23946  0.018880325  0.018237348            9 
 3639000   0.67960319   -7.5915465    824.98263  0.018892155    0.0182319            9 
 3640000   0.66703064   -7.6257513    825.79726  0.018905615  0.018226467           20 
 3641000   0.66184408   -7.6390719    825.21182  0.018887023  0.018221019            5 
 3642000   0.67534912   -7.6202994    824.99019  0.018876766  0.018215568           10 
 3643000   0.67548815   -7.6234968    824.34885  0.018856914  0.018210135            5 
 3644000   0.68654339   -7.6416343    823.14414  0.018824189  0.018204699            5 
 3645000   0.66775478   -7.6436322    824.97468  0.018860875  0.018199267           19 
 3646000   0.65782666   -7.6314165    825.24743  0.018861936  0.018193814            8 
 3647000   0.68238547   -7.6460722    824.41768  0.018837805  0.018188369           10 
 3648000   0.64934137    -7.616529    824.33655  0.018830787  0.018182908           12 
 3649000   0.67857683   -7.6279927    824.97173  0.018840133  0.018177462           12 
 3650000    0.6634345   -7.6144057    823.62402  0.018804201   0.01817203           11 
 3651000   0.66153382   -7.6356512     825.7868  0.018848416  0.018166582           14 
 3652000   0.67518199   -7.6129471    825.80194    0.0188436  0.018161147           17 
 3653000   0.67684847   -7.6113786    825.95314  0.018841891   0.01815572           15 
 3654000   0.66247398   -7.6344228    826.01055  0.018838044   0.01815028           13 
 3655000    0.6678023    -7.641218    825.00356  0.018809931  0.018144848           10 
 3656000   0.65641757   -7.6314535    824.27954  0.018788283  0.018139415            8 
 3657000   0.65879657    -7.646451    823.11618  0.018756635  0.018133973            6 
 3658000   0.66895611   -7.6534578    823.97618    0.0187711  0.018128534           17 
 3659000   0.67728463   -7.6364366    824.42275   0.01877614  0.018123099           10 
 3660000   0.66259627   -7.6484992    824.69464    0.0187772  0.018117674           11 
 3661000   0.66299462   -7.6510082    825.44764  0.018789212  0.018112241            5 
 3662000   0.65241541   -7.6251592    825.68965  0.018789588  0.018106823            6 
 3663000   0.67190414   -7.6376755     827.4702  0.018824966  0.018101409            5 
 3664000   0.67239739   -7.6471575    826.31637  0.018793585  0.018095979            6 
 3665000   0.67820017   -7.6348869    825.32726  0.018765968   0.01809056           12 
 3666000   0.65254971    -7.652523    824.99022  0.018753187  0.018085131            4 
 3667000    0.6750991   -7.6312215    824.88936  0.018745781  0.018079703            4 
 3668000    0.6548968   -7.6429052    825.82088  0.018761834  0.018074265            4 
 3669000   0.66406772   -7.6234687    825.76608  0.018755476  0.018068841            7 
 3670000   0.67263665   -7.6321612    826.02382  0.018756218  0.018063434            8 
 3671000   0.65641093   -7.6028964    826.46386  0.018761097  0.018058033           11 
 3672000   0.65166141   -7.6305051    827.82672  0.018786917  0.018052632           14 
 3673000   0.67055309   -7.6302762     825.9783  0.018739865  0.018047241            4 
 3674000    0.6686632   -7.6475569    824.91258  0.018710592  0.018041834            9 
 3675000   0.67075006    -7.610059    824.20169  0.018689381   0.01803642            8 
 3676000   0.67104054   -7.6335413    825.75528  0.018719516   0.01803102            4 
 3677000   0.66498647   -7.6760779    824.85968  0.018694127    0.0180256            6 
 3678000   0.67637361   -7.6230449     826.2644  0.018720872  0.018020177            9 
 3679000   0.67285941   -7.6613671    823.91832  0.018662642  0.018014764            8 
 3680000    0.6775419   -7.6257119    823.70578  0.018652758  0.018009349            8 
 3681000   0.66777418   -7.6304278     825.3531  0.018684984  0.018003946            6 
 3682000    0.6686903   -7.6336457    824.25427   0.01865504  0.017998541            6 
 3683000   0.66033673   -7.6195165    825.05405  0.018668071  0.017993141           10 
 3684000   0.66375427   -7.6365364     825.7273  0.018678232  0.017987755           11 
 3685000   0.67007614   -7.6326978     825.0747  0.018658406   0.01798236            7 
 3686000   0.65177012   -7.6422974    827.63904  0.018711318   0.01797697           11 
 3687000   0.67713601    -7.657352     826.3353  0.018676776  0.017971575            9 
 3688000   0.65918677   -7.6346392    826.95211   0.01868565  0.017966182            4 
 3689000   0.65196955   -7.6601015    823.17414  0.018595241  0.017960776            5 
 3690000   0.66132116    -7.620695    824.50138  0.018620176  0.017955361            6 
 3691000   0.66106645   -7.6305052    826.09689  0.018651153  0.017949975            7 
 3692000   0.67533317    -7.629367    824.75397   0.01861579  0.017944596           15 
 3693000   0.65408889   -7.6488431    826.28934  0.018645395  0.017939216           11 
 3694000   0.65022248   -7.6678205    827.80441  0.018674527  0.017933829           23 
 3695000   0.66128761    -7.655339    824.84642  0.018602761  0.017928448            9 
 3696000   0.66594871   -7.6586153    825.68774  0.018616697  0.017923065           11 
 3697000   0.65993939    -7.638755    825.63479  0.018610468  0.017917684           12 
 3698000   0.67064666   -7.6522922     826.3729  0.018622068  0.017912312            8 
 3699000   0.65804198   -7.6540477    825.71673  0.018602251  0.017906936           13 
 3700000   0.65490475   -7.6464852    825.62224  0.018595096  0.017901551            9 
 3701000   0.67438634   -7.6584702    824.91842  0.018574224  0.017896163           10 
 3702000   0.65921965   -7.6389173    827.41434   0.01862539  0.017890791           10 
 3703000     0.647491   -7.6535334    825.48772  0.018577003  0.017885431           11 
 3704000   0.67070973   -7.6742556    826.14018  0.018586667  0.017880055           11 
 3705000   0.65880575   -7.6484508    826.20631  0.018583138  0.017874667           23 
 3706000   0.65458841   -7.6561483    826.02783   0.01857411  0.017869293           23 
 3707000   0.65821416   -7.6520137    825.17776   0.01854999  0.017863907           10 
 3708000   0.64957127   -7.6650065    826.51797  0.018575107  0.017858524           21 
 3709000   0.64481422   -7.6744155    824.25705  0.018519301  0.017853138           20 
 3710000   0.66380188   -7.6598081    825.03993  0.018531894  0.017847764           16 
 3711000   0.66301252    -7.654251     825.7559  0.018542978   0.01784239            8 
 3712000   0.65022736   -7.6536797    824.57251  0.018511416  0.017837027            3 
 3713000    0.6624786   -7.6457328    826.18919  0.018542715  0.017831671            5 
 3714000   0.66145104   -7.6320993    825.83106  0.018529686  0.017826321            4 
 3715000   0.65169463   -7.6701959    827.70472  0.018566728  0.017820967            7 
 3716000   0.66231236   -7.6759855    826.80774  0.018541616  0.017815605           16 
 3717000   0.65121578   -7.6614738    826.24437  0.018523997  0.017810264            8 
 3718000   0.65950666   -7.6415965    826.29053  0.018520049  0.017804917           20 
 3719000   0.65801172    -7.657011    825.93104  0.018507014  0.017799582            6 
 3720000   0.65361233   -7.6625085    827.57017  0.018538758  0.017794244            5 
 3721000   0.66192241   -7.6572663    827.30157  0.018527761  0.017788896           13 
 3722000   0.66017349   -7.6439281    828.15186   0.01854182  0.017783551            9 
 3723000   0.66322163   -7.6273209    827.10235  0.018513348  0.017778229            6 
 3724000   0.65792364   -7.6661857     827.6913  0.018521556  0.017772905           13 
 3725000   0.64848159   -7.6577919     826.2452  0.018484233  0.017767577            9 
 3726000   0.64356002   -7.6515712    826.83525  0.018492469  0.017762252            4 
 3727000   0.66728136   -7.6252435    827.83874  0.018509944  0.017756935            6 
 3728000   0.65772273   -7.6336089    826.63032  0.018477967  0.017751629            8 
 3729000   0.65616202   -7.6340179    825.41464  0.018445844  0.017746318            8 
 3730000    0.6409444   -7.6495426    827.79827  0.018494153     0.017741            7 
 3731000      0.65165   -7.6484131    826.56695  0.018461694  0.017735683            4 
 3732000   0.63939675   -7.6645268    826.35441  0.018452001   0.01773036           12 
 3733000   0.66751686   -7.6352283    827.06726  0.018462971  0.017725045            6 
 3734000   0.64286965    -7.651307    825.76118  0.018428878  0.017719726            4 
 3735000   0.66127018   -7.6474196     827.5069  0.018462894  0.017714403           10 
 3736000    0.6488834   -7.6563175    826.51209  0.018435762  0.017709099            8 
 3737000   0.65855709   -7.6609205    827.75099  0.018458456  0.017703803            7 
 3738000   0.64260399   -7.6469285      825.383  0.018400727  0.017698492           10 
 3739000   0.67543264   -7.6379116    827.00069   0.01843186  0.017693184           10 
 3740000   0.66561866    -7.649165    825.05985  0.018383686  0.017687867           13 
 3741000   0.66219808   -7.6502343    825.86413  0.018396688  0.017682553            6 
 3742000      0.65595   -7.6679261    825.89479  0.018392455  0.017677254           17 
 3743000   0.65272153   -7.6708464    827.34143  0.018419749  0.017671946           10 
 3744000    0.6493482   -7.6665731    825.07249  0.018364327  0.017666637           13 
 3745000   0.64480042   -7.6741848    825.16479  0.018361477  0.017661329           10 
 3746000   0.65320521   -7.6678354     824.9401  0.018351577  0.017656024            8 
 3747000   0.65319041   -7.6472864    827.03302  0.018393226  0.017650708           18 
 3748000   0.63537311   -7.6821718    825.71792  0.018359079  0.017645389           11 
 3749000   0.65076174   -7.6513557     826.8348  0.018379008  0.017640069            6 
 3750000   0.65030237   -7.6607295     827.3045  0.018384545  0.017634752            8 
 3751000   0.64988642   -7.6673451     827.6829   0.01838805  0.017629435            6 
 3752000   0.65115289   -7.6424302    826.80678   0.01836369  0.017624118            8 
 3753000   0.65703251   -7.6635123    826.08774  0.018342831  0.017618814            4 
 3754000    0.6453961   -7.6624412    826.73533   0.01835232  0.017613513            9 
 3755000     0.656516   -7.6763729    826.55029  0.018343327  0.017608208            5 
 3756000   0.65761804   -7.6479892    826.66138  0.018340907  0.017602911            6 
 3757000   0.65593992   -7.6591399    825.54686  0.018311305   0.01759761            7 
 3758000   0.65229513   -7.6773642    825.66597  0.018309073  0.017592302           13 
 3759000   0.64275928   -7.6783734    826.82227  0.018329837  0.017586994            8 
 3760000   0.63234312   -7.6501388    826.08601  0.018308644  0.017581696            8 
 3761000   0.65719662   -7.6752117    826.15612  0.018305329  0.017576392            5 
 3762000   0.66381898   -7.6578824    827.46849  0.018329534  0.017571085            6 
 3763000    0.6537757   -7.6625087    828.12355   0.01833917  0.017565788            5 
 3764000   0.64128299    -7.638171    827.74743   0.01832597  0.017560497            7 
 3765000   0.65340823   -7.6810422    825.49065  0.018271152  0.017555215            5 
 3766000   0.63924839   -7.6891908    825.51434  0.018266825  0.017549924            9 
 3767000   0.64587206   -7.6816752    825.83166  0.018268995  0.017544616            7 
 3768000   0.65437468   -7.6686395    825.83705  0.018264266  0.017539316            8 
 3769000    0.6488466   -7.6551522    826.54363  0.018275043  0.017534008           11 
 3770000   0.64545239   -7.6770481    824.14976   0.01821728  0.017528706            9 
 3771000   0.64975684   -7.6807059    825.26563  0.018237108  0.017523384            6 
 3772000   0.64510794   -7.6701905    825.88292  0.018245911  0.017518073           11 
 3773000   0.64210384   -7.6645882     823.5906  0.018190445  0.017512756            5 
 3774000    0.6394882   -7.6991634    825.53386  0.018228534   0.01750743            5 
 3775000   0.65141599   -7.6803382     825.5572  0.018224221   0.01750212            6 
 3776000   0.65115617   -7.6610145    825.40782  0.018216098  0.017496812            7 
 3777000    0.6554963   -7.6928555     825.5232   0.01821382  0.017491504            8 
 3778000   0.66259118   -7.6973901    824.99339  0.018197313  0.017486191           10 
 3779000   0.64479358   -7.7012108    825.02473  0.018193189  0.017480875            8 
 3780000   0.64629763     -7.67656    824.83207  0.018184129  0.017475562            6 
 3781000    0.6506856   -7.6797371    824.75152  0.018177544  0.017470229            8 
 3782000   0.64834965   -7.6843003    825.37994  0.018186584   0.01746491           13 
 3783000   0.64561893   -7.6865726    825.43227  0.018182929  0.017459585            5 
 3784000   0.64527661   -7.6942625     826.1351  0.018193602  0.017454264           11 
 3785000    0.6460698   -7.6742082    824.86716   0.01816088  0.017448935            6 
 3786000   0.64918966   -7.6923918    826.05354  0.018182196  0.017443597           12 
 3787000   0.63989171   -7.7018575    824.13123  0.018135094  0.017438261            9 
 3788000   0.63670646   -7.6932614    823.85666  0.018124267  0.017432916           10 
 3789000   0.64736068   -7.6867709     824.5548  0.018134838  0.017427589            9 
 3790000   0.64238941   -7.6772111    825.57923  0.018152578  0.017422264            5 
 3791000   0.66545791   -7.7216911    825.08972  0.018137029  0.017416948           12 
 3792000    0.6438669   -7.6733394    824.16462  0.018111916  0.017411635           11 
 3793000   0.63649841   -7.7166937    824.09854  0.018105689   0.01740633            7 
 3794000    0.6368794   -7.6873761    824.43145  0.018108229  0.017401019           10 
 3795000   0.65006973   -7.7090323    825.99436  0.018137777  0.017395705            5 
 3796000   0.63490879    -7.678711    825.59454  0.018124221  0.017390384            8 
 3797000   0.62250761   -7.6912011    823.67656  0.018077354  0.017385081            3 
 3798000   0.64383101   -7.6958784    826.45963  0.018133659  0.017379787            9 
 3799000   0.64609788   -7.6901848    826.09204  0.018120822  0.017374499            6 
 3800000   0.63029552   -7.7019341    824.13783  0.018073198  0.017369208            6 
 3801000   0.64299737    -7.679478    826.63467  0.018123184   0.01736391            6 
 3802000   0.64800981   -7.6801031    823.73092  0.018054772  0.017358607            8 
 3803000   0.64448741    -7.700242    825.01876  0.018078244  0.017353305           18 
 3804000   0.63753501   -7.6850677    825.62017  0.018086667  0.017348012            4 
 3805000   0.64844618   -7.6951986    824.87363  0.018065564  0.017342713            7 
 3806000   0.65560195   -7.7035969    824.76658  0.018058473  0.017337429           10 
 3807000    0.6506362   -7.6938097    824.89607  0.018056564  0.017332149            4 
 3808000   0.62419883   -7.6881235    826.18308  0.018079987  0.017326866            4 
 3809000   0.65421068   -7.6817747    825.37899  0.018057648  0.017321585            9 
 3810000    0.6544328    -7.696702    823.51424  0.018012122  0.017316304            5 
 3811000   0.62821525   -7.7045779    825.40992  0.018048848  0.017311019           10 
 3812000   0.63850183   -7.6943801    825.61762  0.018048654  0.017305732            9 
 3813000   0.64071046   -7.6986219    825.31226  0.018037247  0.017300437           12 
 3814000   0.63369319   -7.6774027    825.10445  0.018027977  0.017295154            7 
 3815000   0.64539143   -7.6893593    824.78909  0.018016363  0.017289882            7 
 3816000   0.64357843   -7.6871018    824.21453  0.017999094  0.017284604           17 
 3817000   0.63054909     -7.68296    824.85508  0.018008364  0.017279324           11 
 3818000   0.62776076   -7.6826074    825.08974  0.018008769   0.01727405           12 
 3819000   0.63944642    -7.698213    825.72955  0.018018014  0.017268777            7 
 3820000   0.64173766   -7.6918818    824.26206  0.017981284  0.017263498           12 
 3821000   0.63104902   -7.6790347     823.8659  0.017967938  0.017258227           12 
 3822000   0.65345681   -7.6911099     823.9647  0.017965391  0.017252957            7 
 3823000   0.64841481   -7.6989116    823.88744  0.017959008  0.017247679           10 
 3824000   0.65114047   -7.6874844    825.71755  0.017994194  0.017242395           10 
 3825000   0.63850548   -7.7002682    825.82065  0.017991735  0.017237128            8 
 3826000   0.63040622   -7.7128487    826.12382  0.017993636  0.017231849            8 
 3827000   0.64012782   -7.7053336    824.28672  0.017948931  0.017226578            7 
 3828000   0.63824729   -7.6876756    824.53161  0.017949574  0.017221302           19 
 3829000   0.63863049   -7.7170362    824.70968  0.017948761  0.017216011           15 
 3830000    0.6451695   -7.7086057    825.13211  0.017953266  0.017210746           12 
 3831000   0.64784151   -7.6959526    825.18327  0.017949693  0.017205482           14 
 3832000   0.64642484    -7.694514     824.4619  0.017929321  0.017200234           11 
 3833000   0.63098862   -7.6983304    825.73172  0.017952251  0.017194984            9 
 3834000   0.64702997   -7.6933576      824.983  0.017931294  0.017189745           17 
 3835000   0.63889554    -7.714049    825.44485  0.017936655  0.017184505            9 
 3836000   0.63156991   -7.7223963    825.79448  0.017939574  0.017179269           12 
 3837000   0.65210413   -7.7063751    825.32006  0.017924595  0.017174019           19 
 3838000   0.63271661    -7.694089    824.32227   0.01789826  0.017168779           10 
 3839000   0.63962058    -7.688159    824.50924  0.017897657  0.017163549            9 
 3840000    0.6469329   -7.6868284    825.03503  0.017904406  0.017158327            9 
 3841000   0.64559837   -7.6835301    825.04836  0.017900034  0.017153101           13 
 3842000   0.63635705   -7.7001863    826.85302  0.017934518  0.017147867            9 
 3843000   0.63360449   -7.6915819    827.12898  0.017935835  0.017142641           14 
 3844000   0.62141511   -7.7154263    825.56233  0.017897206  0.017137407           16 
 3845000   0.62677199   -7.7083525    826.72356  0.017917719  0.017132166            5 
 3846000   0.63116653   -7.7082106    826.48894  0.017907977  0.017126936            9 
 3847000   0.63261043    -7.699357    826.19642  0.017896985  0.017121711           10 
 3848000   0.62927322   -7.6966573     826.2423  0.017893328  0.017116487            6 
 3849000   0.63273967   -7.7146477      825.345  0.017869252  0.017111258            6 
 3850000   0.65095297   -7.7065206    826.29323  0.017885135  0.017106032            9 
 3851000   0.63129321   -7.7255128    825.23586   0.01785761  0.017100796           11 
 3852000   0.63197407   -7.7280706    824.03001  0.017826887  0.017095569           10 
 3853000   0.64087794   -7.6886845    825.26976  0.017849073  0.017090334           12 
 3854000   0.61739052   -7.7084777    824.28792  0.017823212  0.017085093            5 
 3855000    0.6437548   -7.7009415    823.45854   0.01780066  0.017079858            6 
 3856000   0.63811288   -7.6979325    826.36557  0.017858869  0.017074627           10 
 3857000   0.64110842   -7.6986851    825.47761  0.017835053  0.017069396            7 
 3858000   0.64310115   -7.7372313    823.98633  0.017798219  0.017064157            9 
 3859000   0.62387777   -7.7223049     825.9216  0.017835398  0.017058915           11 
 3860000   0.62569003   -7.7070292    824.81123  0.017806806  0.017053673            7 
 3861000   0.63244239   -7.7062514    824.48581   0.01779517  0.017048448           10 
 3862000   0.64341451   -7.7259237    825.06224     0.017803  0.017043215            4 
 3863000   0.63366064    -7.721074    824.50157  0.017786297  0.017037972            8 
 3864000   0.64920529   -7.6985925     823.8745   0.01776817  0.017032748            7 
 3865000   0.63097252   -7.7091944    824.67741  0.017780884  0.017027519           13 
 3866000   0.62780307   -7.6987714    825.39838  0.017791826   0.01702231            8 
 3867000   0.63796884   -7.7115556    826.25253  0.017805632  0.017017098           10 
 3868000   0.61933735   -7.6894122    824.70026  0.017767586  0.017011892           11 
 3869000   0.63514382   -7.7128594    824.94538  0.017768273  0.017006692           12 
 3870000   0.62472506   -7.6814564    824.43127  0.017752611  0.017001494           18 
 3871000   0.63784909   -7.6933881     826.4539  0.017791568    0.0169963            5 
 3872000   0.62864255   -7.6920729    824.31048  0.017740842  0.016991093            5 
 3873000   0.64599063   -7.7120723    824.67697  0.017744147  0.016985881           13 
 3874000   0.62200669   -7.7042273    823.31927  0.017710361  0.016980675            8 
 3875000   0.62715518   -7.7010774    825.82441  0.017759665  0.016975462           16 
 3876000   0.62608441    -7.694801    825.76606  0.017753828  0.016970266           22 
 3877000   0.62179963   -7.6965309     823.6501  0.017703768  0.016965061           58 
 3878000   0.61486367   -7.7128511    825.79751  0.017745348  0.016959848           30 
 3879000   0.62097607   -7.6978414    826.30514  0.017751679  0.016954638           31 
 3880000   0.63072462   -7.7065345    824.76638  0.017714054  0.016949435           23 
 3881000   0.63609999   -7.6916664    823.44372   0.01768109  0.016944246           18 
 3882000   0.64637929   -7.7127749    824.46213  0.017698397  0.016939052           16 
 3883000   0.62423309   -7.7101377    826.85639  0.017745223  0.016933867           33 
 3884000   0.63422256   -7.7015468    825.98988  0.017722062  0.016928679           15 
 3885000   0.62516152   -7.6986724    825.50261  0.017707049  0.016923481           21 
 3886000   0.62356345   -7.7248679    825.44929  0.017701349  0.016918296            8 
 3887000   0.64322089   -7.6924364    825.50564  0.017698003  0.016913112           10 
 3888000   0.61595785   -7.6977007    825.36396  0.017690414  0.016907917            7 
 3889000   0.62684451   -7.7133072    824.33644  0.017663848  0.016902724            9 
 3890000   0.62794794   -7.6900002    825.84883  0.017691706  0.016897529            7 
 3891000   0.63346762   -7.7093697    823.41125  0.017634953  0.016892336           17 
 3892000   0.61937782   -7.7302269     823.3039  0.017628124  0.016887147           13 
 3893000   0.63446176   -7.7062407    825.35066  0.017667409   0.01688195            9 
 3894000   0.63727389   -7.7204037     823.2629  0.017618193  0.016876752            9 
 3895000   0.61603401   -7.7108613    824.30064  0.017635872  0.016871555           13 
 3896000   0.63559359   -7.7066804    824.16794  0.017628506  0.016866366            6 
 3897000   0.63272762   -7.7084391    822.82981  0.017595368  0.016861172           12 
 3898000   0.63126464    -7.702687    825.22418  0.017642042  0.016855978           12 
 3899000   0.64573499   -7.7208219    824.32166  0.017618228  0.016850791           19 
 3900000   0.62556589   -7.7113229    824.81856  0.017624328  0.016845595            9 
 3901000    0.6281793   -7.7264345    825.17451  0.017627414  0.016840391            5 
 3902000   0.63567866    -7.704489    826.46111  0.017650374  0.016835179            8 
 3903000   0.63349372   -7.7096162    824.36138   0.01760102  0.016829965            5 
 3904000   0.63809374   -7.7315236    825.36906  0.017618021  0.016824769           10 
 3905000   0.62773279   -7.7323863    824.64679  0.017598096  0.016819569           17 
 3906000   0.61160956   -7.7339767    823.65477  0.017572426  0.016814381            6 
 3907000   0.64241109   -7.7422624     824.4194  0.017584238  0.016809193           13 
 3908000   0.62795671   -7.7381096    823.91941  0.017569076  0.016803996            7 
 3909000   0.63654486   -7.7371584    824.32837    0.0175733  0.016798811           10 
 3910000   0.63024226   -7.7195417     822.8308  0.017536888  0.016793627           10 
 3911000   0.61863391   -7.7311809     822.9435  0.017534806  0.016788443            8 
 3912000   0.61076491   -7.7453327    825.16285    0.0175776  0.016783256            7 
 3913000   0.62626693   -7.7252322    824.62289  0.017561609  0.016778076            8 
 3914000   0.62395226   -7.7365505    823.69054  0.017537271  0.016772891           21 
 3915000   0.62099998   -7.7094768    824.60789  0.017552318  0.016767723           12 
 3916000   0.62240138   -7.7311403    823.24934  0.017518925  0.016762544            9 
 3917000   0.62766471   -7.7327113    824.27118  0.017536192  0.016757374           12 
 3918000   0.62119249   -7.7296748    824.43771  0.017535258  0.016752201           12 
 3919000   0.62069402   -7.7358046    824.79007  0.017538276  0.016747019           16 
 3920000    0.6271327   -7.7345289    825.19208  0.017542349  0.016741836           13 
 3921000   0.63300986   -7.7254595    823.62029  0.017504469  0.016736651           12 
 3922000   0.61777081   -7.7617714    823.04363  0.017487754  0.016731458            9 
 3923000   0.60988695   -7.7532865    823.30644  0.017488878  0.016726259           22 
 3924000   0.62590747   -7.7550525    823.80245  0.017494955  0.016721064           17 
 3925000   0.62551708   -7.7200122    823.68612  0.017488028  0.016715882           11 
 3926000   0.61795632   -7.7278959    823.73509  0.017484613  0.016710701           15 
 3927000   0.64218072   -7.7319841    824.19645  0.017489951  0.016705529            8 
 3928000   0.62567261   -7.7325492    822.74405  0.017454685   0.01670035            8 
 3929000   0.61708632   -7.7334052    824.79762  0.017493799  0.016695174           10 
 3930000   0.62007744   -7.7414136    824.03506  0.017473178  0.016689987           20 
 3931000   0.61973291   -7.7489196    822.62228  0.017438783  0.016684798           15 
 3932000   0.61928266   -7.7665189      821.831  0.017417578  0.016679606            9 
 3933000    0.6280619   -7.7556938    823.08515  0.017439723   0.01667442           15 
 3934000   0.63134942     -7.75987    822.20831  0.017416716  0.016669241           18 
 3935000   0.62663478   -7.7385605    824.18528  0.017454157  0.016664058           17 
 3936000   0.61445976   -7.7345833    823.95841  0.017444919  0.016658878            5 
 3937000   0.62184104   -7.7412605    823.48183    0.0174304  0.016653699           24 
 3938000    0.6120251   -7.7589481    823.13171  0.017418565  0.016648515           18 
 3939000   0.61474023   -7.7460872    823.44753  0.017420824  0.016643326           15 
 3940000    0.6250351   -7.7595784    823.63309  0.017420328  0.016638141           12 
 3941000    0.6185059    -7.738631    823.90446  0.017421646   0.01663296            7 
 3942000   0.61960289   -7.7412868     824.4973  0.017429759  0.016627789            7 
 3943000   0.62210425   -7.7387545    822.50639  0.017383261  0.016622616           17 
 3944000   0.62030848   -7.7302246    824.83227  0.017427998  0.016617447           10 
 3945000   0.61540677   -7.7596934     824.9919  0.017426952  0.016612288           14 
 3946000   0.61057627   -7.7155303    823.99682  0.017401521  0.016607131           16 
 3947000   0.62607501   -7.7485609    823.60618  0.017388865  0.016601977            6 
 3948000   0.61647005   -7.7315942    824.77678  0.017409169  0.016596825           13 
 3949000   0.61542964   -7.7355525    824.18961   0.01739237  0.016591683           27 
 3950000   0.63449374   -7.7499025    823.62553  0.017376066  0.016586529           10 
 3951000   0.63003449   -7.7613721    823.23707  0.017363475  0.016581369            8 
 3952000   0.62036979   -7.7376225    822.69181  0.017347584   0.01657621            9 
 3953000   0.61408093   -7.7695872    822.94457  0.017348524  0.016571049           15 
 3954000   0.62973225     -7.74623    823.15985  0.017348673  0.016565885           15 
 3955000   0.61298714   -7.7657333    822.36067  0.017327448  0.016560728           18 
 3956000   0.62023087   -7.7548636    823.87787  0.017355028  0.016555565            9 
 3957000   0.61770374   -7.7557203    823.03699  0.017332933   0.01655043            9 
 3958000   0.62076448    -7.748183    825.08192  0.017371609  0.016545289           16 
 3959000   0.60765413   -7.7596394    824.61684  0.017357431  0.016540146           15 
 3960000    0.6104047   -7.7303012    823.54732  0.017330541     0.016535           10 
 3961000   0.63412777   -7.7678359    824.80678  0.017352663   0.01652986           16 
 3962000   0.61003054   -7.7660854    822.98706  0.017310009  0.016524711           10 
 3963000   0.62819167   -7.7496761    821.48177  0.017273988  0.016519562           25 
 3964000   0.63169125   -7.7565615    823.56951   0.01731352  0.016514416           37 
 3965000   0.61569924   -7.7792394    823.22449  0.017301902  0.016509255           34 
 3966000   0.60044954   -7.7749607    823.74122  0.017308397  0.016504098            9 
 3967000   0.63289496   -7.7525455    822.34706  0.017274747  0.016498943            8 
 3968000    0.6160203   -7.7629474    822.83594  0.017280661  0.016493788           19 
 3969000    0.6111551   -7.7413432    822.41208  0.017267408  0.016488649            8 
 3970000   0.60608509   -7.7386484    821.65591  0.017247185  0.016483505            9 
 3971000   0.61253753   -7.7528393    823.38993  0.017279231  0.016478368           13 
 3972000   0.61684731   -7.7552829    824.40048  0.017296083  0.016473223           12 
 3973000   0.62064288   -7.7461327    825.26124  0.017309784  0.016468084           16 
 3974000   0.61731246   -7.7529693    823.42756  0.017266976  0.016462962           16 
 3975000      0.61493   -7.7466818    822.28898  0.017238763  0.016457832            8 
 3976000   0.61982843   -7.7494006    821.94333  0.017227182  0.016452708           15 
 3977000   0.61868305   -7.7377496     822.8277  0.017241382  0.016447584            7 
 3978000    0.6356006     -7.76463    823.44396  0.017249957  0.016442471           13 
 3979000   0.61126215   -7.7354978    823.61373  0.017249178  0.016437356           12 
 3980000   0.61378944   -7.7363268    824.00814  0.017253102  0.016432231           10 
 3981000   0.62387407   -7.7636623    824.06581  0.017249975  0.016427106           11 
 3982000   0.60155128   -7.7714202    823.19637  0.017227448  0.016421977           17 
 3983000   0.60040225   -7.7561069    823.18217  0.017222825  0.016416853           15 
 3984000    0.6274872   -7.7718431    822.97961  0.017214266   0.01641173            9 
 3985000   0.61453559   -7.7441559    822.59527  0.017201909  0.016406613           12 
 3986000   0.60226699   -7.7814474    822.87336  0.017203407  0.016401489            7 
 3987000   0.61199229    -7.765399    822.62921  0.017193989  0.016396371            8 
 3988000   0.60692983   -7.7783081    823.63948  0.017210788  0.016391253            5 
 3989000   0.60692081   -7.7461566    824.49734  0.017224395  0.016386143            9 
 3990000   0.62300847   -7.7563228    823.15638  0.017192071  0.016381028           11 
 3991000   0.61294642   -7.7690544    824.37578  0.017213225  0.016375921            7 
 3992000    0.6099513   -7.7732353     822.4241  0.017168172   0.01637081           13 
 3993000   0.61097839   -7.7514435    824.21962  0.017201344  0.016365698            8 
 3994000   0.61015505   -7.7697691    822.43466  0.017159795  0.016360586           13 
 3995000    0.6183972   -7.7707485    821.55703  0.017137193  0.016355472           13 
 3996000   0.61332135   -7.7516612    822.26516  0.017147672  0.016350361           15 
 3997000   0.60668132   -7.7673304    821.71847  0.017131984  0.016345247           16 
 3998000   0.61573543   -7.7803881    821.35405  0.017120103  0.016340135           17 
 3999000   0.60775692   -7.7730836    821.89731  0.017127142  0.016335026           16 
 4000000   0.61014086    -7.743722    824.41584   0.01717533  0.016329929           14 
 4001000   0.62587529    -7.763851     824.0669  0.017163769  0.016324839           10 
 4002000   0.62297876   -7.7643583    821.91015  0.017114571  0.016319738           17 
 4003000   0.61602412   -7.7626194     822.7966  0.017128749  0.016314642            9 
 4004000   0.61720357   -7.7641856    822.50074  0.017118314  0.016309554           10 
 4005000    0.6349945   -7.7641867    823.77187  0.017140488  0.016304461           12 
 4006000   0.60211596   -7.7534974    821.83812  0.017095984  0.016299366            7 
 4007000   0.61010726   -7.7745542    822.22627  0.017099789  0.016294267            6 
 4008000   0.60552192    -7.769235    823.54841  0.017123012  0.016289177            6 
 4009000   0.59960252   -7.7722711     823.6233  0.017120298  0.016284099           13 
 4010000    0.6084174   -7.7659797    823.03062  0.017103712  0.016279024           20 
 4011000   0.60509955   -7.7903178    822.34961  0.017085299   0.01627394           19 
 4012000   0.60980747   -7.7538642    824.39646  0.017123556  0.016268853           11 
 4013000   0.61286438   -7.7499756    824.74023  0.017126427  0.016263786           29 
 4014000   0.59758644   -7.7407198     823.2819  0.017091885   0.01625872            6 
 4015000   0.60688701   -7.7624552    821.79212  0.017056707  0.016253648           24 
 4016000   0.60986016   -7.7660147    823.80737  0.017094276  0.016248579           30 
 4017000   0.62101219   -7.7714285    822.18416  0.017056347  0.016243505           14 
 4018000   0.61606269   -7.7710516     823.2209  0.017073604  0.016238428           12 
 4019000   0.61379917   -7.7649936    821.21711  0.017027808  0.016233359           10 
 4020000   0.59755858    -7.769293    822.89672   0.01705839  0.016228294            9 
 4021000   0.61443557   -7.7625037    823.45407  0.017065698  0.016223229           15 
 4022000   0.60091966   -7.7614186     823.5092  0.017062597  0.016218155           13 
 4023000   0.60538801   -7.7691087    823.78146  0.017063996  0.016213086            8 
 4024000   0.61526626   -7.7595123    823.60799  0.017056163  0.016208014           13 
 4025000    0.6115927   -7.7777236    822.87197  0.017036687  0.016202941           20 
 4026000   0.60876963   -7.7774946     824.0134  0.017056081  0.016197879           18 
 4027000    0.6239926   -7.7615307    821.94025  0.017008945  0.016192813           27 
 4028000   0.60309283   -7.7659457    823.48188  0.017036616  0.016187752            8 
 4029000    0.6052337   -7.7775933    823.26035  0.017027806  0.016182697           23 
 4030000   0.60104734   -7.7587911    820.74571  0.016971582  0.016177635           15 
 4031000   0.60092142   -7.7619426    822.37046  0.017000961  0.016172566           14 
 4032000   0.60715381   -7.7707277    822.40153  0.016997386  0.016167506           10 
 4033000   0.60406889    -7.769954    822.20612  0.016989134  0.016162444           25 
 4034000   0.59166329   -7.7680931    822.87349  0.016998709  0.016157382           18 
 4035000   0.61369011     -7.77404    823.95999  0.017016935  0.016152321           14 
 4036000   0.60191347   -7.7707736    821.53364  0.016962621  0.016147264            9 
 4037000   0.60426059   -7.7630691    824.19757  0.017013409  0.016142216           11 
 4038000   0.62416178   -7.7693527    824.16997  0.017008626   0.01613717            6 
 4039000   0.60970629   -7.7689227    823.34886  0.016987473  0.016132127           11 
 4040000   0.58784069   -7.7566741    823.39151  0.016984148  0.016127081           11 
 4041000   0.60649751   -7.7701227    822.10716   0.01695346  0.016122033            9 
 4042000   0.60417392   -7.7732341    822.75331  0.016962587  0.016116992           11 
 4043000   0.60882039   -7.7954688    823.94265  0.016982906   0.01611194            6 
 4044000   0.61245601   -7.7920505    824.40701  0.016988275  0.016106895           12 
 4045000   0.60016108    -7.792456     822.4143  0.016943022  0.016101851           14 
 4046000   0.61157316   -7.7574719    823.25011  0.016956049  0.016096804           11 
 4047000   0.62147633   -7.7777616    823.19848  0.016950796  0.016091764           22 
 4048000   0.60892907   -7.7604859    820.69563  0.016895085   0.01608672           21 
 4049000   0.59941093   -7.7877591    821.81908  0.016914034   0.01608169            7 
 4050000   0.61620997   -7.7482683    823.56304  0.016945742  0.016076664            8 
 4051000   0.60214548   -7.7906077     823.0931  0.016931891  0.016071637           13 
 4052000   0.60580805   -7.7579221    823.23335  0.016930597  0.016066602           10 
 4053000   0.60490547   -7.7715932    822.18912  0.016904949  0.016061566           13 
 4054000   0.62030592   -7.7706555    822.06326  0.016898192  0.016056526           13 
 4055000   0.58888772   -7.7714602    822.55392  0.016904109  0.016051483           17 
 4056000   0.61059736   -7.7936058    821.24926  0.016873136   0.01604645           13 
 4057000    0.6056419   -7.7924565    822.23497  0.016889224  0.016041409           14 
 4058000   0.60149436   -7.7785729     821.9498  0.016879206  0.016036375           14 
 4059000   0.60746262   -7.7840244    821.75832  0.016871116  0.016031337           14 
 4060000   0.60978649   -7.7864826    820.75945  0.016846458  0.016026289           19 
 4061000   0.60681778   -7.7815408    821.31085  0.016853625  0.016021246            8 
 4062000    0.6103513   -7.7946964    821.55245  0.016854432  0.016016215           14 
 4063000   0.59641539   -7.7856221    821.77501  0.016854849  0.016011177           11 
 4064000    0.5978042   -7.7900048    821.92408  0.016853758  0.016006145            7 
 4065000   0.60564513   -7.7931881    820.91953  0.016829019  0.016001118           10 
 4066000   0.60152197   -7.8058075    821.35014  0.016833705  0.015996093           10 
 4067000   0.59208129   -7.7859998    821.40236  0.016830636  0.015991065           10 
 4068000   0.60290945   -7.7965062    821.06087  0.016819503  0.015986034           14 
 4069000   0.59993799    -7.813303    822.08517  0.016836347  0.015981002            6 
 4070000   0.58249677   -7.8205907    822.65238  0.016843824  0.015975965            7 
 4071000   0.58973048   -7.8156656    821.97052  0.016825729  0.015970919           17 
 4072000    0.5963408   -7.8019642    821.12501  0.016804294  0.015965882           12 
 4073000   0.60596738   -7.8051097     821.9619  0.016817291  0.015960845            8 
 4074000    0.5997886   -7.8202789    820.35854  0.016780366  0.015955813           17 
 4075000   0.59451002   -7.7907698    820.52728  0.016779699  0.015950781            7 
 4076000   0.60547206   -7.8101034    821.69052  0.016799365  0.015945739            8 
 4077000   0.60482389   -7.7969498    821.51324   0.01679162  0.015940706           12 
 4078000   0.59790695   -7.7989262    821.12311  0.016779531   0.01593568           14 
 4079000   0.60477897    -7.796441    821.59723  0.016785103  0.015930647            8 
 4080000   0.59973612   -7.8046796    822.11421  0.016791548  0.015925619           10 
 4081000   0.58806895   -7.8028306    821.16053   0.01676796  0.015920584           17 
 4082000   0.60420427   -7.8071916    821.55454  0.016771896  0.015915557           28 
 4083000   0.60636356   -7.8157734    821.53871  0.016767465  0.015910527           26 
 4084000   0.59247067   -7.8049653    821.87953  0.016770314  0.015905498           13 
 4085000    0.5843616   -7.8203931    820.78185  0.016743816  0.015900473           19 
 4086000   0.59729664   -7.8037903    821.51816  0.016754735  0.015895449           13 
 4087000   0.59482765    -7.816587    821.09388  0.016741984  0.015890425           40 
 4088000   0.59906861   -7.8126362    820.15795   0.01671881  0.015885389            8 
 4089000   0.60118617   -7.8086486    821.07228  0.016733355  0.015880363           11 
 4090000   0.58974551   -7.8085687    820.84603  0.016724654  0.015875335           13 
 4091000   0.59065562   -7.8031186    821.39365  0.016731721  0.015870315           21 
 4092000   0.59227177    -7.793358    822.27114  0.016745502    0.0158653           12 
 4093000   0.61022098   -7.8133186    820.54665    0.0167063  0.015860282           25 
 4094000   0.59057516   -7.7830165    819.71489  0.016685289  0.015855262           10 
 4095000   0.59071231   -7.8012542    820.00659  0.016687151  0.015850247           38 
 4096000   0.58603075    -7.803686    821.53899  0.016714254   0.01584523           26 
 4097000   0.59951892   -7.8058977    822.10763   0.01672174  0.015840226           23 
 4098000   0.58931253   -7.7877302    820.07919  0.016676411  0.015835223           36 
 4099000   0.60061776   -7.8021743    820.53015  0.016681511  0.015830226           14 
 4100000   0.60211872   -7.8026037    821.73589  0.016701949  0.015825225           15 
 4101000   0.60388342    -7.810447    820.51437  0.016673055  0.015820223           13 
 4102000   0.60899219   -7.8100756    820.30849  0.016664808  0.015815211           14 
 4103000   0.57182893   -7.8125417    821.35356  0.016681972  0.015810205           28 
 4104000   0.58991431    -7.812423    821.05107  0.016671765  0.015805192           27 
 4105000    0.5942878    -7.812097    821.61471  0.016679146  0.015800196           13 
 4106000   0.58910844   -7.8141465    821.77514  0.016678339  0.015795203           15 
 4107000    0.6015529   -7.8090473    822.80321  0.016695139  0.015790216           18 
 4108000   0.59138451   -7.8075378    819.92041  0.016632595  0.015785223           24 
 4109000     0.604787   -7.7923599    821.51692  0.016660926  0.015780236           11 
 4110000   0.59681951   -7.8193396    821.98793  0.016666422  0.015775249            9 
 4111000   0.58981608   -7.8039237    820.72953  0.016636859  0.015770266           13 
 4112000   0.57919575   -7.8013454    822.69195  0.016672583   0.01576528           22 
 4113000   0.59149528   -7.8393613    818.32142  0.016579979  0.015760292           12 
 4114000    0.5938759   -7.8025886     822.2779  0.016656091  0.015755312           18 
 4115000   0.58963024   -7.8063463    821.39931  0.016634251  0.015750335           26 
 4116000   0.60349222   -7.8031488    820.28772  0.016607704  0.015745355           30 
 4117000    0.5873993   -7.8103171    821.38834  0.016625948  0.015740376           21 
 4118000   0.58370472   -7.8169393    822.19952  0.016638326  0.015735401           15 
 4119000   0.59063282   -7.8294169    823.41604  0.016658899  0.015730435           15 
 4120000   0.59344436   -7.8055875    821.79925  0.016622153  0.015725467            8 
 4121000   0.59808746   -7.8095057    820.56536  0.016593168  0.015720503           14 
 4122000   0.58054892   -7.8267777    821.06686  0.016599281  0.015715536            7 
 4123000   0.58819847    -7.822146    821.71801  0.016608416  0.015710574           13 
 4124000   0.58893498   -7.8159724    820.13494    0.0165724  0.015705608            7 
 4125000   0.57596695   -7.8177332    822.09954  0.016608072  0.015700652           12 
 4126000    0.5954611   -7.8118682    820.96134  0.016581058  0.015695698           20 
 4127000   0.60423405   -7.8018093    821.10719  0.016579985  0.015690741           16 
 4128000   0.58499633   -7.8024906    821.59499  0.016585816  0.015685784           32 
 4129000   0.59629987   -7.8206887    820.93283  0.016568435  0.015680832           18 
 4130000   0.59446375   -7.8201722    820.96843  0.016565142   0.01567588           12 
 4131000    0.5963479    -7.821512    821.10644  0.016563916  0.015670918           18 
 4132000   0.59149043   -7.7951753    819.91227  0.016535823  0.015665955           22 
 4133000   0.58782699   -7.8057298    822.53346  0.016584673  0.015661004           14 
 4134000   0.59058498   -7.8080212    819.18443  0.016513152  0.015656046           13 
 4135000   0.59269338   -7.8169599    821.08446   0.01654745  0.015651097           18 
 4136000   0.58710778   -7.8404739    820.47979  0.016531266  0.015646147           12 
 4137000   0.59748507   -7.8478637     821.7281  0.016552415  0.015641196           19 
 4138000   0.58844466   -7.8106249    820.02633  0.016514144  0.015636238            9 
 4139000   0.58133093   -7.8114146    819.99391  0.016509501   0.01563129           16 
 4140000    0.6007052   -7.8127631     820.3241   0.01651216   0.01562634           11 
 4141000   0.58938432   -7.8221915    820.74075  0.016516557  0.015621396           11 
 4142000   0.58905646   -7.8392369    820.37183  0.016505147  0.015616444           26 
 4143000   0.59006851   -7.8234385    820.30515  0.016499822  0.015611497           23 
 4144000   0.58832605   -7.7937232    821.26113  0.016515065  0.015606557            7 
 4145000   0.59991595   -7.8214372    821.70852  0.016520075  0.015601615           17 
 4146000   0.59916152   -7.8173609    820.61081  0.016494027  0.015596691           11 
 4147000   0.59874957   -7.8302308    820.85867   0.01649503  0.015591755           22 
 4148000   0.58787764   -7.8304939    820.15051  0.016476826  0.015586822           10 
 4149000   0.59330082   -7.8140667    820.40153  0.016477897  0.015581892           12 
 4150000   0.59120988   -7.8022813    820.17994  0.016469477  0.015576959           16 
 4151000   0.58510439   -7.8149963    819.12153  0.016444261  0.015572034           17 
 4152000   0.58617233    -7.827637    819.90061  0.016455937  0.015567103            9 
 4153000   0.58335086   -7.8085716    819.62094  0.016446363  0.015562182            6 
 4154000   0.58620142   -7.8143023    820.50016  0.016460042  0.015557258            9 
 4155000   0.57227915   -7.8345887    821.69597  0.016480064  0.015552346            5 
 4156000   0.58605816   -7.8305562    820.39133  0.016449938  0.015547418           10 
 4157000   0.59480611   -7.8141511    821.14313  0.016461052  0.015542505           13 
 4158000   0.58283557    -7.811615    821.08178  0.016455864  0.015537592           11 
 4159000   0.59578129   -7.8209593    821.71786  0.016464652  0.015532675           16 
 4160000    0.5861978   -7.8233251    819.37479  0.016413758   0.01552776            8 
 4161000   0.58527751   -7.8290175    820.61096   0.01643457  0.015522855           16 
 4162000    0.5952482   -7.8196455    820.05486  0.016419487  0.015517956           13 
 4163000   0.58132123   -7.7984169    820.68485  0.016428154  0.015513062           16 
 4164000   0.59164896   -7.8185958    820.50605   0.01642063  0.015508162           11 
 4165000   0.58088801   -7.8290197    820.24711  0.016411507  0.015503269            7 
 4166000   0.58138426   -7.8370134     822.0274  0.016443179  0.015498377           14 
 4167000   0.56982921    -7.796192    821.84547  0.016435595  0.015493489           16 
 4168000   0.59134098   -7.8035151    821.07585  0.016416264  0.015488597           17 
 4169000   0.58365604   -7.8070758    821.40794  0.016418964  0.015483707           13 
 4170000   0.58322304   -7.8231341    820.75533  0.016401985  0.015478818           13 
 4171000   0.58071692   -7.8154295    819.85064  0.016379978  0.015473927           11 
 4172000   0.57535066   -7.8093853    820.32696  0.016385566   0.01546904           11 
 4173000   0.59536701   -7.8164295    820.71929  0.016389474   0.01546416           12 
 4174000   0.57854061   -7.8148688    821.62173  0.016403564  0.015459279            9 
 4175000   0.58588801   -7.8175576    820.26762  0.016372607  0.015454407            6 
 4176000    0.5932419   -7.8146317    821.75191  0.016398306  0.015449536            8 
 4177000   0.59508229    -7.799812     820.6993   0.01637338  0.015444667           11 
 4178000   0.57933118   -7.8074568    820.75451  0.016370562  0.015439796            6 
 4179000   0.57733183   -7.8188932    821.87936  0.016389076  0.015434923            9 
 4180000   0.57733534   -7.8131608    821.04044   0.01636843  0.015430062            8 
 4181000   0.58318921   -7.8230018    819.38579  0.016331535  0.015425198           11 
 4182000    0.5843335   -7.8059961    820.63575  0.016352538  0.015420331           14 
 4183000   0.58404305   -7.7963328    821.12167  0.016358309  0.015415468           17 
 4184000   0.58560017   -7.8266461    821.15501  0.016355063  0.015410614           10 
 4185000   0.57539687   -7.8129247    819.59191   0.01632003  0.015405757           14 
 4186000   0.56890441   -7.8244365    820.99522  0.016344068  0.015400903           13 
 4187000   0.58884898   -7.8310431    821.55303  0.016351266   0.01539605            9 
 4188000   0.57503641   -7.8244453    820.40247  0.016324468  0.015391186           15 
 4189000   0.58153539   -7.8488943    822.31773  0.016358672   0.01538632           13 
 4190000   0.57629458     -7.84135    820.99075  0.016328376  0.015381466           15 
 4191000   0.57915155   -7.8244102    819.78036  0.016300413  0.015376608            9 
 4192000   0.58375161   -7.8377787    821.61292  0.016332954  0.015371757           13 
 4193000   0.59343111   -7.8110206     820.4512   0.01630597  0.015366912           17 
 4194000   0.57847787   -7.8071897    820.74123  0.016307845  0.015362067           14 
 4195000   0.58476532   -7.8343372    820.83076  0.016305736  0.015357222           15 
 4196000   0.57837224    -7.842067    821.40104  0.016313176  0.015352376           12 
 4197000    0.5903323   -7.8346062     821.1265  0.016303838  0.015347522           12 
 4198000   0.58886804   -7.8307126    818.97431  0.016257232   0.01534267            9 
 4199000   0.58250573   -7.8436828     821.0207  0.016293973  0.015337817           16 
 4200000   0.54925935   -7.8148191     821.2879  0.016295395   0.01533297           15 
 4201000   0.58246556   -7.8291713    820.07995  0.016267554  0.015328126            9 
 4202000   0.58047396   -7.8510474    820.06007  0.016263289  0.015323272           10 
 4203000   0.58326886   -7.8431476    821.05055  0.016279058  0.015318426           17 
 4204000   0.57570184   -7.8259669    819.29121  0.016240311  0.015313582           14 
 4205000   0.57478215   -7.8545236    819.69113  0.016244374  0.015308737           10 
 4206000   0.58054786    -7.833274    819.69412  0.016240571  0.015303896           17 
 4207000   0.57407515   -7.8304763    820.43804  0.016251447  0.015299062           16 
 4208000   0.58420872   -7.8454923    820.57044  0.016250207  0.015294221           11 
 4209000   0.58848522   -7.8135077    819.36412  0.016222462   0.01528938           15 
 4210000    0.5852639   -7.8230674    820.62875  0.016243641  0.015284549           10 
 4211000    0.5824338   -7.8508706    820.24394  0.016232168  0.015279715           17 
 4212000   0.57821889   -7.8397484    819.83066  0.016220138  0.015274885           11 
 4213000   0.56571057   -7.8272151    820.57834  0.016231077  0.015270057           15 
 4214000   0.58211546   -7.8338655    820.05967  0.016216969  0.015265234            7 
 4215000   0.57705435   -7.8373307    820.98923  0.016231499  0.015260423           11 
 4216000   0.58475589   -7.8493321    819.87997  0.016205724  0.015255599           15 
 4217000   0.58607892    -7.823733    821.81515  0.016240122  0.015250778            8 
 4218000   0.58158928   -7.8557737    820.82101  0.016216631  0.015245962            5 
 4219000   0.57628445      -7.8382    821.06883  0.016217683  0.015241144           20 
 4220000   0.58880422   -7.8468261    821.74049  0.016227103  0.015236331           11 
 4221000    0.5791773   -7.8388401    820.70912  0.016202897  0.015231518           11 
 4222000   0.57196909   -7.8247435    820.26755  0.016190343  0.015226708            6 
 4223000   0.56743068   -7.8421823    821.03244  0.016201603  0.015221901           10 
 4224000   0.57558671   -7.8545941    820.48277  0.016186923  0.015217091            9 
 4225000   0.56981886   -7.8530019    820.10141   0.01617557  0.015212281           13 
 4226000   0.57312738   -7.8315624    821.27064  0.016194799  0.015207471            6 
 4227000   0.57999799   -7.8588689    820.44513  0.016174693  0.015202665           12 
 4228000   0.56240708   -7.8323179    820.40725  0.016170121  0.015197859           14 
 4229000   0.57403293   -7.8635281    819.90475  0.016156395  0.015193047           17 
 4230000   0.56468561   -7.8431668     819.7283    0.0161491  0.015188244           11 
 4231000   0.58573592   -7.8505148    820.54895  0.016161446   0.01518344           10 
 4232000   0.57917904   -7.8341842    820.59675  0.016158569  0.015178645            8 
 4233000   0.58635007   -7.8329637    821.15365  0.016165715  0.015173852           16 
 4234000   0.57459134   -7.8496412     819.8261  0.016135768  0.015169053            8 
 4235000   0.58351409   -7.8571792    819.70288  0.016129533   0.01516426           10 
 4236000   0.58512831   -7.8375884    820.47316  0.016140879  0.015159464           11 
 4237000    0.5769937   -7.8403846    820.38204  0.016135277  0.015154666            8 
 4238000    0.5740433   -7.8430315    821.29607  0.016149443  0.015149871            6 
 4239000   0.58053411   -7.8394885    820.64469  0.016132828  0.015145082            6 
 4240000   0.57916459   -7.8457371    820.56497  0.016127456  0.015140296            6 
 4241000   0.56434314   -7.8713785    820.37893  0.016119998   0.01513551            6 
 4242000    0.5688603   -7.8552917    818.68352  0.016082892  0.015130725            8 
 4243000   0.57002195   -7.8283994    820.75347  0.016119755  0.015125933            4 
 4244000   0.57209753   -7.8567001    820.89636  0.016118763   0.01512114            8 
 4245000   0.57664691    -7.833761    822.17017  0.016139972  0.015116353            7 
 4246000   0.57146699   -7.8579988    820.33727  0.016100198  0.015111573           11 
 4247000     0.591599   -7.8722953    822.20749  0.016133104  0.015106794            7 
 4248000   0.57155973   -7.8652052    819.83824  0.016082828  0.015102013            8 
 4249000   0.57374731   -7.8585594    820.06884  0.016083566  0.015097231           14 
 4250000   0.57203225   -7.8398469    819.42226  0.016067103  0.015092451            7 
 4251000   0.56896626   -7.8413135    819.91404  0.016072964  0.015087669            5 
 4252000   0.57034956   -7.8481832     820.4193  0.016079086  0.015082894           10 
 4253000   0.57144144    -7.861891    820.32367  0.016073432  0.015078124            6 
 4254000   0.57303169   -7.8631161     820.5115  0.016073333  0.015073345            8 
 4255000    0.5697934   -7.8445645     819.2335  0.016044526  0.015068571            9 
 4256000   0.57302331   -7.8587539    819.10632  0.016038266    0.0150638            7 
 4257000   0.56356245   -7.8493604    820.04733  0.016052919  0.015059035           13 
 4258000   0.57197916   -7.8563843    820.59488  0.016059865  0.015054271           12 
 4259000   0.57139548   -7.8675488    820.28661  0.016050063  0.015049503            8 
 4260000   0.56411825   -7.8543683    818.63739  0.016014033  0.015044736           16 
 4261000   0.56459643   -7.8692241    822.88544  0.016093355   0.01503997           12 
 4262000   0.56426039   -7.8684957     820.9984  0.016052683  0.015035204            7 
 4263000    0.5668471   -7.8532958    818.54084  0.016000877  0.015030439           12 
 4264000   0.57686147    -7.852985    820.52243  0.016035851  0.015025671            9 
 4265000   0.58591707   -7.8735803    819.67882  0.016015608   0.01502091           14 
 4266000   0.57361233   -7.8552972    820.09028  0.016019891  0.015016144           11 
 4267000   0.56383042   -7.8650324    818.87248  0.015992354  0.015011381           11 
 4268000   0.56998003   -7.8580513    818.75829  0.015986377  0.015006621            7 
 4269000   0.57882001   -7.8437207    819.84605  0.016003866  0.015001865           11 
 4270000    0.5577476   -7.8825631    820.30092  0.016008995  0.014997098            8 
 4271000   0.57675209   -7.8620134    818.37903  0.015967748  0.014992332           14 
 4272000   0.57177717   -7.8744201     820.2035    0.0159996  0.014987573           12 
 4273000   0.56124147   -7.8545973    819.15701  0.015975447  0.014982821           10 
 4274000   0.58753935   -7.8662493    818.77089   0.01596418  0.014978073            9 
 4275000   0.57110126   -7.8382999     821.4283  0.016012248  0.014973323           10 
 4276000   0.56884973   -7.8600034    819.06411  0.015962428  0.014968577            9 
 4277000   0.57741242   -7.8521878    819.10467  0.015959486  0.014963831           14 
 4278000     0.568153   -7.8577845    819.49084  0.015963278  0.014959086            9 
 4279000   0.57602877   -7.8499954    820.77032  0.015984465  0.014954342            7 
 4280000   0.56550197   -7.8551458    819.25688  0.015951263  0.014949605           15 
 4281000   0.55673655   -7.8673161    819.54163   0.01595308  0.014944863           20 
 4282000   0.57051105    -7.871706    820.08631  0.015959955   0.01494012           18 
 4283000   0.57363365   -7.8721805    819.94937  0.015953564  0.014935374           13 
 4284000   0.56562214   -7.8608295    819.35831  0.015938343   0.01493063           13 
 4285000    0.5681235   -7.8774643    820.10091  0.015949065  0.014925896           26 
 4286000    0.5626254   -7.8728757    819.21052  0.015928032   0.01492116           24 
 4287000   0.56091514   -7.8673768     820.2273  0.015944081  0.014916425           17 
 4288000   0.55625364   -7.8549476    820.66048  0.015948781   0.01491169           16 
 4289000   0.55881837   -7.8608559    818.52464  0.015903564  0.014906956           14 
 4290000   0.55572931   -7.8699442    819.34736  0.015915838  0.014902227           22 
 4291000   0.55759009   -7.8760893    817.92957  0.015884595  0.014897496           12 
 4292000   0.57062588   -7.8973408    819.89815  0.015919116  0.014892767           12 
 4293000   0.54910171    -7.863374    819.61893  0.015909988  0.014888046           11 
 4294000   0.56327153   -7.8743919    819.16519  0.015897477  0.014883322           17 
 4295000   0.56140065   -7.8964283    818.68378  0.015884435  0.014878592           20 
 4296000   0.56916197    -7.876767    818.89034  0.015884744  0.014873871           19 
 4297000   0.57015381    -7.878553    819.75676   0.01589785  0.014869152           21 
 4298000   0.54843058   -7.8759487    818.72286  0.015874105  0.014864432           19 
 4299000   0.57372866   -7.8824361    820.32531  0.015901475  0.014859717           14 
 4300000     0.565769   -7.8711646    819.21526  0.015876265  0.014854999           16 
 4301000   0.55101217   -7.8794411    819.18114  0.015871912  0.014850286           19 
 4302000   0.56874031   -7.8717042    820.71216   0.01589788  0.014845576           11 
 4303000   0.55919978    -7.870219    818.57408  0.015852779  0.014840867           13 
 4304000   0.56902008   -7.8776668    818.68412  0.015851226  0.014836158           10 
 4305000   0.57007151   -7.8653765    817.82242  0.015830864  0.014831448           17 
 4306000   0.56870303    -7.875256    818.68965  0.015843971  0.014826743           26 
 4307000    0.5698664   -7.8776407    818.86781  0.015843739  0.014822036           13 
 4308000   0.56019006   -7.8840683    818.96519  0.015841945  0.014817335           19 
 4309000    0.5540584   -7.8523443    819.68443  0.015852178   0.01481264           12 
 4310000   0.56503867   -7.8632666    820.09113  0.015856364   0.01480795           11 
 4311000   0.58269349   -7.8674176    819.15175  0.015834527  0.014803263           12 
 4312000   0.57451879   -7.8497556    819.98741  0.015847005  0.014798578           10 
 4313000   0.56749872   -7.8769011    819.65294  0.015836868  0.014793895           14 
 4314000   0.55871787   -7.8584847    820.02319  0.015840349  0.014789218           13 
 4315000   0.55123844   -7.8715717    820.23533  0.015840775  0.014784541           17 
 4316000    0.5754771   -7.8609376     819.9218  0.015831051  0.014779858           11 
 4317000   0.56355993   -7.8757572    819.33027  0.015815965  0.014775169           14 
 4318000   0.56546559   -7.8732681    821.26487  0.015849639  0.014770484           26 
 4319000   0.55817281   -7.8654719    820.76505  0.015836325  0.014765807           12 
 4320000   0.55826311   -7.8807413    820.60347  0.015829542  0.014761128           14 
 4321000   0.55774816   -7.8952921    820.02652  0.015814752  0.014756444           15 
 4322000    0.5567025   -7.8825671    819.13095  0.015793825  0.014751768           14 
 4323000   0.55814223    -7.884695    818.90644  0.015785844  0.014747092           14 
 4324000   0.56026772   -7.8791606    820.07752  0.015804762  0.014742412           10 
 4325000   0.56072755   -7.8700391    819.26011  0.015785359  0.014737732           21 
 4326000   0.56089815   -7.8790466    819.91464  0.015794318  0.014733058           25 
 4327000   0.56767687   -7.8926377    819.11555  0.015775278  0.014728384           16 
 4328000   0.55268756   -7.8900544    818.57264   0.01576118  0.014723708           14 
 4329000   0.55160146   -7.9054347    819.17032  0.015769044  0.014719033           22 
 4330000   0.55984932     -7.86506    818.65258  0.015755438  0.014714359           19 
 4331000   0.55132619   -7.8721972    819.36128  0.015765437  0.014709686           18 
 4332000   0.55330023    -7.882822    816.91107  0.015714664  0.014705015           27 
 4333000   0.56743128    -7.864772    819.15104  0.015754116  0.014700345           13 
 4334000   0.56465199   -7.8774108    818.01725  0.015728681  0.014695676            9 
 4335000   0.54706314   -7.8894531    818.49078  0.015734156  0.014691004           18 
 4336000   0.56983274   -7.8867497    819.68075  0.015753397  0.014686343            7 
 4337000   0.55982409   -7.8619081    818.32732  0.015723759  0.014681678           10 
 4338000   0.55967691   -7.8955448    818.03563  0.015714531  0.014677022            6 
 4339000   0.54152475   -7.8803138    817.89859  0.015708278  0.014672361           13 
 4340000     0.542686   -7.8721752    819.73779  0.015739973  0.014667696           14 
 4341000   0.56102616   -7.8758511    819.15689  0.015725196  0.014663041           10 
 4342000   0.54562822   -7.8845143     818.8285  0.015715271  0.014658382           14 
 4343000   0.56846051   -7.8947925    817.66318  0.015689293  0.014653724           14 
 4344000   0.55820166   -7.8666377    817.77717  0.015687868  0.014649068           15 
 4345000   0.53585933    -7.879553    818.61876  0.015700398  0.014644408           17 
 4346000   0.56594532   -7.8817024    818.85035  0.015701226  0.014639755            8 
 4347000   0.55140933    -7.893396     818.4273  0.015689504  0.014635102            7 
 4348000   0.54767562   -7.8825706    817.91565  0.015676089  0.014630452           14 
 4349000   0.56094518    -7.892479    818.60859  0.015685763  0.014625805            6 
 4350000   0.54895504   -7.8997592      817.975  0.015670019  0.014621158            7 
 4351000   0.54816106    -7.889036    818.61425  0.015678661   0.01461651            8 
 4352000   0.56466033   -7.8846338     817.2403   0.01564875  0.014611868            7 
 4353000   0.57099646   -7.8867051     818.5083  0.015669429  0.014607226           14 
 4354000   0.54130699    -7.870857      818.776  0.015670954  0.014602591           15 
 4355000   0.55003713   -7.8699841    817.85667  0.015649764  0.014597957           19 
 4356000   0.55006213   -7.8991251    817.49133  0.015639182  0.014593312           14 
 4357000   0.56313095   -7.8689322     818.0009  0.015645339  0.014588676            6 
 4358000   0.55633205   -7.8992759    817.95355  0.015640843  0.014584042            8 
 4359000   0.55188138   -7.8887454    819.29016  0.015662808  0.014579408           14 
 4360000   0.54455557   -7.8865277    818.17178   0.01563784  0.014574776           10 
 4361000   0.55646535   -7.8928651    818.70284  0.015644402  0.014570141            9 
 4362000   0.55130114   -7.9085494    818.47012  0.015636369  0.014565505           12 
 4363000   0.54414766   -7.9073619      818.381  0.015631083  0.014560873           10 
 4364000   0.56193569   -7.9003978    817.02824   0.01560167  0.014556249           11 
 4365000    0.5555679   -7.8921524    818.83345  0.015632559  0.014551625           13 
 4366000   0.55226993   -7.8850264    817.61664  0.015605754     0.014547           17 
 4367000   0.54790455   -7.8888348    818.62109  0.015621347  0.014542375           24 
 4368000   0.54479515   -7.8949638    817.48395  0.015596077  0.014537748           15 
 4369000   0.55927276   -7.9005599    817.78295   0.01559821  0.014533122            9 
 4370000   0.55075066   -7.8975407    816.80968  0.015576081  0.014528502           13 
 4371000   0.55344255   -7.8985867    818.54612  0.015605623  0.014523882            9 
 4372000   0.53795214   -7.8904847    817.24519  0.015577257  0.014519268            7 
 4373000   0.53873401   -7.9050981    817.56039  0.015579701  0.014514648           11 
 4374000   0.55806677   -7.9170369    817.51256  0.015575228  0.014510032           16 
 4375000   0.55479068   -7.8994058    818.99796  0.015599961  0.014505419           12 
 4376000   0.55083597   -7.9069319    819.06398  0.015597654  0.014500806           11 
 4377000   0.55407928   -7.8932683    818.17573  0.015577179  0.014496198           11 
 4378000   0.55375133   -7.9027921    818.50755  0.015579937  0.014491584            8 
 4379000   0.55107121   -7.8936816    817.48882  0.015556992  0.014486978           11 
 4380000    0.5457845   -7.9148985    816.79456  0.015540231  0.014482378            9 
 4381000   0.55323483   -7.9010979    817.49977  0.015550098   0.01447777            8 
 4382000   0.55375812   -7.8816916    819.06729   0.01557636  0.014473172           15 
 4383000   0.55531877   -7.8848935    818.37578  0.015559658  0.014468572           14 
 4384000   0.54928286   -7.9019981    816.45799  0.015519655  0.014463977           10 
 4385000   0.56018246   -7.8777256    819.16207  0.015567504  0.014459385            9 
 4386000   0.55524211   -7.8944125    819.84504  0.015576931  0.014454796           12 
 4387000   0.54470023   -7.8953292    818.19747  0.015542084  0.014450204           11 
 4388000   0.54840278   -7.8730698    818.91414  0.015552153  0.014445614           16 
 4389000   0.55995011   -7.9086938    817.19319  0.015515933  0.014441027            9 
 4390000   0.54770614   -7.9063116    817.83554  0.015524593  0.014436441           16 
 4391000   0.55786384   -7.8975814    818.09918   0.01552606  0.014431858           19 
 4392000   0.54388446   -7.8928852    817.61358  0.015513312  0.014427279            9 
 4393000   0.54703598    -7.904887    817.36283  0.015505024  0.014422695           15 
 4394000   0.53813169   -7.9053249    817.50001  0.015504097  0.014418111           13 
 4395000   0.54645102   -7.9013913    818.12077  0.015512339  0.014413525           11 
 4396000   0.54894931   -7.8772429    816.75611  0.015482941  0.014408949           24 
 4397000   0.54742618   -7.9054628    819.09206  0.015523691  0.014404377           24 
 4398000   0.54616667    -7.891364    817.56043  0.015491141  0.014399801           16 
 4399000   0.54821882   -7.9013809     817.3016  0.015482716  0.014395226           10 
 4400000   0.54095311   -7.9079769    818.28971  0.015497911  0.014390652           21 
 4401000   0.53774611   -7.9046766    816.48776   0.01546027  0.014386076           30 
 4402000   0.54600706   -7.9046289    817.56664  0.015477182  0.014381507           16 
 4403000   0.54601456   -7.8921603    818.19245  0.015485511  0.014376935           19 
 4404000   0.54059558   -7.9142673    819.50822  0.015506892  0.014372368            6 
 4405000   0.55472518   -7.8896146    817.42509  0.015463963  0.014367796           12 
 4406000   0.55538658   -7.9199957    816.84304  0.015449445  0.014363227           13 
 4407000   0.54689011   -7.8896482    818.03397  0.015468459  0.014358666           24 
 4408000   0.55258454   -7.8866773    818.57805  0.015475235  0.014354101           19 
 4409000   0.54661831   -7.9005971    816.30714  0.015428804  0.014349533           20 
 4410000   0.54204312   -7.9186708    817.89174  0.015455248   0.01434497           14 
 4411000   0.54806818   -7.9194242    817.50379  0.015444415  0.014340404           13 
 4412000   0.53191741   -7.9053694    817.43513  0.015439618  0.014335846           21 
 4413000   0.55341824   -7.9007953    817.75258  0.015442114  0.014331285           24 
 4414000   0.54438393   -7.9067192     817.1069  0.015426425  0.014326729           11 
 4415000   0.53649013   -7.9162868    818.10242  0.015441722   0.01432217           18 
 4416000     0.548442    -7.927096    817.69079  0.015430457   0.01431761           23 
 4417000   0.55705412   -7.9021696    817.95444  0.015431938  0.014313051           13 
 4418000   0.54424957   -7.8848553    815.94584  0.015390558  0.014308495            9 
 4419000   0.53632657   -7.9266845    817.66334  0.015419464  0.014303942           13 
 4420000   0.55973821   -7.8959477    816.37409  0.015391668  0.014299387           10 
 4421000   0.55193782   -7.9234408    817.78969   0.01541487  0.014294839           17 
 4422000   0.54085745   -7.9278802    817.60909  0.015407981  0.014290288           17 
 4423000    0.5499071   -7.9165292    817.59485  0.015404229  0.014285746            8 
 4424000   0.54769439   -7.8996517    817.88884  0.015406285  0.014281199            7 
 4425000   0.55332298   -7.9148972    817.62524  0.015397839  0.014276662           11 
 4426000   0.55281325   -7.9094324     816.5064  0.015373294  0.014272119           10 
 4427000    0.5437904   -7.9064417    817.01262  0.015379351  0.014267582           20 
 4428000   0.54217561   -7.9150351    817.40239  0.015383213  0.014263046            7 
 4429000     0.545316   -7.9118562    817.14888  0.015374969  0.014258506            8 
 4430000   0.55115624   -7.9141207    817.07671  0.015370141  0.014253976           30 
 4431000   0.55139019   -7.9064032    817.64121  0.015377289  0.014249441           15 
 4432000   0.55116608   -7.9131479    818.18841  0.015384108  0.014244913           20 
 4433000    0.5482228   -7.9136815    817.02348  0.015358739  0.014240382           16 
 4434000   0.53564224   -7.9211855    816.54377  0.015346259  0.014235851           14 
 4435000   0.54001781   -7.9082866    818.17304  0.015373413  0.014231322           10 
 4436000   0.54842892   -7.9259309      817.307  0.015353678  0.014226802           18 
 4437000   0.54291051   -7.9172138    815.73554  0.015320704  0.014222279           20 
 4438000    0.5381792   -7.9465021    817.69136  0.015353976   0.01421776           28 
 4439000   0.54540504   -7.8961961    817.35414  0.015344187  0.014213249           17 
 4440000   0.53685215   -7.9102131    817.14177  0.015336745  0.014208736           14 
 4441000   0.55664209   -7.9244519    817.47999  0.015339638  0.014204222            9 
 4442000   0.54574956   -7.9199833    817.95713  0.015345136  0.014199712           16 
 4443000   0.54236681   -7.9120367    816.62727  0.015316739  0.014195205           18 
 4444000   0.53863204   -7.9140408    818.23376  0.015343417  0.014190694            9 
 4445000   0.54087948   -7.9215783    817.46424  0.015325539  0.014186184           18 
 4446000    0.5360084   -7.9134421    817.56334  0.015323949  0.014181675            6 
 4447000   0.52365317   -7.9215221    817.17244  0.015313178  0.014177169           13 
 4448000   0.54266269   -7.9077633    817.69078  0.015319447  0.014172661           21 
 4449000   0.53164622   -7.9059696    817.36418  0.015309886  0.014168161            7 
 4450000   0.52475128   -7.9101873    817.63026  0.015311428  0.014163667           21 
 4451000   0.53259429   -7.9317995     817.1291  0.015298605  0.014159171            9 
 4452000   0.53487698   -7.8892578    818.30755  0.015317227  0.014154679           19 
 4453000   0.53445285   -7.9071361    817.35071  0.015295881  0.014150189           12 
 4454000   0.53333619    -7.928065    818.58473  0.015315535  0.014145703           16 
 4455000   0.54240091   -7.9206651    817.04057  0.015283213  0.014141219           10 
 4456000   0.53155972   -7.9321661    817.64885  0.015291159  0.014136737           15 
 4457000    0.5556955   -7.9241553    817.15794  0.015278549  0.014132252           15 
 4458000   0.53437734   -7.9158283     817.6782  0.015284848   0.01412777           22 
 4459000   0.53411652   -7.9135999    818.94888  0.015305167  0.014123288           11 
 4460000   0.53239284   -7.9371928    817.73044  0.015278969  0.014118801           20 
 4461000   0.53257362   -7.9113182    816.67415  0.015255812  0.014114319           18 
 4462000    0.5303254   -7.9272477    816.92668   0.01525711  0.014109838           20 
 4463000    0.5359985   -7.9121763     817.6464   0.01526713  0.014105364           11 
 4464000   0.52929949   -7.9116726    818.64856  0.015282418  0.014100892           14 
 4465000   0.53527231   -7.9169444    818.64238   0.01527888  0.014096417           10 
 4466000   0.52828185   -7.9310327    817.68997  0.015257687  0.014091944           12 
 4467000   0.53207401   -7.9288952    816.57348  0.015233443  0.014087466           12 
 4468000   0.53469321   -7.9293675    817.12336  0.015240289   0.01408299           28 
 4469000   0.54848235   -7.9329706    817.10275  0.015236495   0.01407852           16 
 4470000   0.54413555   -7.9279922    818.36094  0.015256542  0.014074053           12 
 4471000   0.53876907   -7.9313067    818.37894  0.015253466  0.014069591           12 
 4472000   0.52808085   -7.9197141    816.43734  0.015213874  0.014065124           14 
 4473000   0.53818682   -7.9143049     817.5264  0.015230762  0.014060662            9 
 4474000   0.53705375   -7.9101273    817.87076  0.015233772  0.014056203           10 
 4475000   0.54229598   -7.9133185    816.38937  0.015202782  0.014051741           17 
 4476000   0.53259362   -7.9131216    817.02169  0.015211157  0.014047279            9 
 4477000    0.5353363   -7.9123411    816.92383  0.015205938  0.014042821            9 
 4478000   0.54111742   -7.9151333    817.90955  0.015220886  0.014038365           19 
 4479000   0.52608601    -7.935174    816.54069   0.01519202  0.014033909            9 
 4480000   0.53568533   -7.9251435    818.47505   0.01522461  0.014029453           20 
 4481000   0.52905962    -7.949965    817.01026  0.015193972  0.014025001           10 
 4482000   0.53315003     -7.93128    817.91343  0.015207375  0.014020552           23 
 4483000   0.54799138   -7.9188434    817.57444  0.015197681  0.014016103           11 
 4484000   0.52931712   -7.9309118    816.00519  0.015165128  0.014011654           20 
 4485000   0.52587915   -7.9574381    816.11788   0.01516384  0.014007205           16 
 4486000   0.53659063   -7.9325661    816.55056  0.015168498  0.014002759            8 
 4487000   0.53669891   -7.9423663    816.50602   0.01516429  0.013998311            5 
 4488000   0.53562471   -7.9257361    817.13805  0.015172646  0.013993867           12 
 4489000    0.5326592   -7.9172598    816.75444  0.015162145  0.013989429            8 
 4490000   0.55739322   -7.9177884    817.33981  0.015169633  0.013984998           27 
 4491000   0.54546232   -7.9586405    816.99844  0.015159921  0.013980568            5 
 4492000   0.52787504   -7.9226132    816.70256  0.015151057  0.013976132           26 
 4493000    0.5377946    -7.928957    817.05085  0.015154144  0.013971705            9 
 4494000   0.53565516   -7.9267309    817.17362  0.015153049  0.013967278           20 
 4495000   0.52581802   -7.9251658    817.71574  0.015159728  0.013962851           15 
 4496000   0.54042102   -7.9336348    817.47003  0.015151802  0.013958426           25 
 4497000   0.52286314   -7.9415545    817.46167  0.015148278  0.013954001           10 
 4498000   0.52726906   -7.9217018    816.64823   0.01512984  0.013949572           13 
 4499000   0.52600754   -7.9291162    816.96084  0.015132267  0.013945152           11 
 4500000    0.5317487   -7.9362513    817.42586  0.015137516  0.013940731            8 
 4501000    0.5251828   -7.9455204    816.98165  0.015125928  0.013936307            8 
 4502000   0.52657355   -7.9161935    816.25444  0.015109108  0.013931887           10 
 4503000   0.53269361   -7.9451412    817.58667  0.015130407  0.013927469           13 
 4504000   0.53237897   -7.9291888    816.94019  0.015115086  0.013923052           17 
 4505000   0.53140003   -7.9221861    816.43984  0.015102476  0.013918633           13 
 4506000   0.53610515   -7.9497872    819.52025  0.015156093  0.013914221           21 
 4507000   0.51881317   -7.9356178    816.60476  0.015098823  0.013909808           22 
 4508000   0.52869068   -7.9301073    817.11163  0.015104844    0.0139054           15 
 4509000   0.52258686   -7.9394758    816.43569  0.015089002  0.013900994           11 
 4510000   0.53766549   -7.9421214     816.9542  0.015095237  0.013896584           10 
 4511000   0.53782944   -7.9285559    816.79595  0.015088967  0.013892179           13 
 4512000   0.52521442   -7.9331297    816.80284   0.01508575  0.013887774           18 
 4513000   0.52552673   -7.9433519    815.38898    0.0150563   0.01388337           20 
 4514000   0.52878541   -7.9251081    816.04452  0.015065067  0.013878972           18 
 4515000    0.5248206   -7.9499691    815.95805  0.015060134  0.013874578           15 
 4516000   0.52713002    -7.915399    816.49457  0.015066699  0.013870183            8 
 4517000   0.52533547   -7.9301197    816.48753  0.015063234  0.013865787            7 
 4518000   0.52956424   -7.9477492    816.49368  0.015060013    0.0138614            7 
 4519000   0.52367226   -7.9549446    815.87543   0.01504528  0.013857005           21 
 4520000   0.53544086   -7.9356747    817.28847  0.015068003  0.013852615           20 
 4521000   0.53440246   -7.9155433    816.95318   0.01505849  0.013848229           15 
 4522000    0.5301027    -7.943754    816.77493  0.015051875  0.013843844           10 
 4523000   0.53505849    -7.945395    815.70405  0.015028817  0.013839465            8 
 4524000   0.53479344    -7.933271    815.87679  0.015028677   0.01383508           14 
 4525000   0.53140083   -7.9542732    818.80859  0.015079348    0.0138307           19 
 4526000   0.53024033   -7.9308325     817.9421  0.015060062  0.013826322           16 
 4527000   0.53000566   -7.9516498    816.02253    0.0150214  0.013821939           12 
 4528000   0.54249472   -7.9572332    816.86841   0.01503365   0.01381756           13 
 4529000   0.52364945   -7.9382951    817.01407  0.015033011  0.013813185           12 
 4530000   0.53035549    -7.941526    817.03703  0.015030115  0.013808809           11 
 4531000     0.526117   -7.9427985    816.28486  0.015012964   0.01380444           13 
 4532000   0.51991374   -7.9675776     817.2309  0.015027047  0.013800062           14 
 4533000   0.51280626   -7.9467293    817.85346  0.015035176  0.013795692           24 
 4534000   0.53352234   -7.9528694    817.39153   0.01502337   0.01379132            8 
 4535000   0.52191191   -7.9277235    816.62318  0.015005939   0.01378695           13 
 4536000   0.51442494   -7.9513509    816.14058  0.014993764  0.013782579           27 
 4537000   0.52376653   -7.9450363    816.11035  0.014989904   0.01377821           13 
 4538000   0.51706725   -7.9530005    815.01366  0.014966462  0.013773843           11 
 4539000   0.52923039   -7.9487618    814.48676  0.014953491  0.013769478            9 
 4540000   0.52320606   -7.9387984    815.63477   0.01497127  0.013765119           10 
 4541000   0.53862496   -7.9486514    815.98154  0.014974337  0.013760759           12 
 4542000   0.52221288   -7.9539097     816.6793  0.014983841    0.0137564            8 
 4543000   0.51649284   -7.9553873     816.9039  0.014984663  0.013752042           17 
 4544000   0.53161772   -7.9451988    816.07968   0.01496625  0.013747688           17 
 4545000   0.52252445   -7.9502132    817.35405  0.014986323  0.013743334           13 
 4546000   0.51650403   -7.9597738    816.70627  0.014971152  0.013738981            8 
 4547000   0.52643214   -7.9409634    817.49425  0.014982301  0.013734631            8 
 4548000   0.52690812   -7.9330178    815.92191  0.014950196  0.013730279            9 
 4549000   0.53638806    -7.947128    816.28892  0.014953633  0.013725931            9 
 4550000   0.52158241   -7.9440477    816.30279  0.014950601  0.013721584           16 
 4551000   0.52373225   -7.9575325    817.04264  0.014960863  0.013717243           22 
 4552000   0.51340863    -7.957045    816.13973  0.014941047  0.013712898           17 
 4553000   0.52445179   -7.9365859    815.47668  0.014925629  0.013708551            8 
 4554000   0.51754609   -7.9328363    817.25409  0.014954876   0.01370421            9 
 4555000   0.53384506    -7.951286    815.59413  0.014921224   0.01369987           18 
 4556000   0.51750557   -7.9395895    816.35392  0.014931847  0.013695536           11 
 4557000   0.51349513   -7.9361258    817.21938  0.014944397  0.013691205           15 
 4558000   0.52015518   -7.9445264    815.92109  0.014917381  0.013686879           12 
 4559000   0.53317986   -7.9442035    817.84333  0.014949246  0.013682555           12 
 4560000   0.51993426   -7.9479004    815.27004  0.014898941  0.013678227           23 
 4561000   0.53454338   -7.9533468    816.71239  0.014922027    0.0136739           14 
 4562000   0.51651408   -7.9266949    817.00375  0.014924078  0.013669575           15 
 4563000   0.52265029   -7.9516285    815.21334   0.01488811  0.013665246           15 
 4564000   0.51445522   -7.9429336    816.27377   0.01490421   0.01366092           14 
 4565000   0.51813979   -7.9591968    815.60081   0.01488866  0.013656594            7 
 4566000   0.51928674   -7.9425688    814.69591  0.014868884   0.01365227           17 
 4567000   0.51664882   -7.9480706    816.23038  0.014893628  0.013647945            9 
 4568000   0.51771161     -7.95854     814.9048  0.014866185  0.013643625           18 
 4569000   0.51122654   -7.9635359    816.77597  0.014897059  0.013639306           19 
 4570000   0.53721964   -7.9648155    815.91082  0.014878024  0.013634989           14 
 4571000   0.52776517   -7.9571244    816.47585   0.01488507  0.013630671           23 
 4572000   0.50915382   -7.9465194    816.02867  0.014873663  0.013626355           12 
 4573000   0.52172347   -7.9601664    815.25222  0.014856262  0.013622041           11 
 4574000   0.50751414   -7.9473581    816.14559   0.01486929  0.013617728           21 
 4575000   0.51664439   -7.9609538    814.99427  0.014845069  0.013613415           30 
 4576000    0.5195245   -7.9392645    816.51522  0.014869523  0.013609106           35 
 4577000   0.51660124   -7.9647409    817.10387  0.014876991  0.013604802           18 
 4578000   0.51480222   -7.9484446    816.46661  0.014862142  0.013600493           18 
 4579000   0.52793707   -7.9620423     816.7525  0.014864099  0.013596188           12 
 4580000   0.52371443   -7.9536695    815.78718  0.014843289  0.013591878           25 
 4581000    0.5261973   -7.9552704    815.68934  0.014838269  0.013587574           15 
 4582000   0.52694726   -7.9532248    814.57295  0.014814727  0.013583271           13 
 4583000   0.53375437   -7.9645152    814.98624  0.014819009  0.013578971           11 
 4584000   0.51942465   -7.9471123    814.41542    0.0148054  0.013574671           13 
 4585000   0.52051399   -7.9452508    815.18979  0.014816245  0.013570375           13 
 4586000   0.51694395    -7.957066    817.93261  0.014862855  0.013566081           10 
 4587000   0.52547786    -7.947487    816.01885  0.014824847  0.013561783           17 
 4588000   0.52433671   -7.9618257    815.69403  0.014815715  0.013557488           17 
 4589000   0.51884235   -7.9535249    815.61334  0.014811022  0.013553198           13 
 4590000   0.51900678   -7.9442277    816.63263    0.0148263  0.013548911           16 
 4591000   0.52863535   -7.9624132    816.27132  0.014816513  0.013544624           17 
 4592000   0.51842653   -7.9439789    815.38424  0.014797188  0.013540336           16 
 4593000   0.51823612   -7.9476333     815.2218  0.014791019  0.013536048           12 
 4594000    0.5203854   -7.9561674    815.79487  0.014798195  0.013531768           21 
 4595000   0.51962928   -7.9566104    816.26177  0.014803442  0.013527486           15 
 4596000   0.51543283   -7.9669546    814.54732  0.014769135  0.013523205           13 
 4597000   0.50928427   -7.9709042    817.89552  0.014826617  0.013518926           28 
 4598000   0.50965749   -7.9661763    816.15148  0.014791784  0.013514652           19 
 4599000   0.51964222   -7.9469654    816.06505  0.014787002  0.013510377           10 
 4600000   0.50956149   -7.9583388    816.67417  0.014794822   0.01350611           15 
 4601000   0.51327272   -7.9552736    816.29809  0.014784795  0.013501842           15 
 4602000   0.52026708   -7.9620082    817.41826  0.014801866  0.013497579           19 
 4603000   0.50828547   -7.9612409    816.56468  0.014783197  0.013493313           11 
 4604000   0.51650132   -7.9499583    815.64519  0.014763343  0.013489048           15 
 4605000   0.51922363   -7.9515295    814.05586  0.014731376  0.013484785           12 
 4606000   0.51678926   -7.9542427     815.7001  0.014757926  0.013480522           13 
 4607000   0.51036047   -7.9742648     816.6185  0.014771335  0.013476267           18 
 4608000   0.52261686   -7.9529936    815.86233  0.014754455  0.013472006           22 
 4609000   0.51758851   -7.9650622     815.4599  0.014743977  0.013467745           19 
 4610000   0.51442474   -7.9540772    814.65867  0.014726296  0.013463486           30 
 4611000    0.5127038   -7.9506265    816.39483  0.014754479  0.013459228            9 
 4612000   0.51119221   -7.9640313    817.16616  0.014765217  0.013454972           10 
 4613000   0.51243818   -7.9549379    815.84523  0.014738154  0.013450717           17 
 4614000   0.50189998   -7.9622484    816.32865   0.01474369  0.013446464           16 
 4615000    0.5185036   -7.9481153    816.54873   0.01474447  0.013442213           15 
 4616000   0.51194654   -7.9554602    814.66529  0.014707273  0.013437963           10 
 4617000   0.51049066   -7.9608342     815.9748  0.014727724   0.01343372           14 
 4618000    0.5045923   -7.9713083    815.95489  0.014724175  0.013429475           10 
 4619000   0.50394472   -7.9619608    815.39208  0.014710833   0.01342523            9 
 4620000    0.5150585   -7.9584446    815.49342  0.014709477  0.013420988           19 
 4621000   0.51845279   -7.9589545    814.46067   0.01468767  0.013416742           13 
 4622000   0.52113629   -7.9830622    816.58772  0.014722842    0.0134125           14 
 4623000    0.5146896   -7.9445794    813.90221  0.014671249  0.013408264           14 
 4624000   0.51787253   -7.9516853    815.25247   0.01469241  0.013404028           14 
 4625000   0.50173749    -7.965781    815.92312  0.014701317  0.013399791           16 
 4626000   0.50653048   -7.9536134    817.85079  0.014732865  0.013395556           32 
 4627000   0.52172276   -7.9643052    816.15162  0.014699078  0.013391322           26 
 4628000   0.51321389   -7.9656887     815.2649  0.014679936   0.01338709           25 
 4629000   0.50168534    -7.986511    815.84834  0.014687268  0.013382861           25 
 4630000   0.51235093   -7.9698792    816.31101  0.014692423  0.013378633           13 
 4631000   0.50464667   -7.9589755    815.77258  0.014679561  0.013374408           24 
 4632000   0.51311998   -7.9756414     816.0221  0.014680881  0.013370183           15 
 4633000   0.50689216    -7.961312    814.85201  0.014656666  0.013365965           18 
 4634000   0.51375918   -7.9835492    814.93271  0.014654955  0.013361744           12 
 4635000   0.52126038   -7.9626596    816.69297  0.014683441  0.013357525            8 
 4636000   0.51662438    -7.973295    815.06909  0.014651084  0.013353308           16 
 4637000   0.51111473   -7.9669014    814.47373  0.014637225  0.013349093           14 
 4638000   0.49500236    -7.986185    815.56823  0.014653734  0.013344879           25 
 4639000   0.51655742    -7.968244     814.6967   0.01463492  0.013340662           16 
 4640000   0.52146674   -7.9837442    815.93517  0.014654008  0.013336449           17 
 4641000   0.51494392   -7.9889118    816.15305  0.014654763  0.013332235           24 
 4642000    0.5073226   -7.9638811     815.6967  0.014643413  0.013328026           18 
 4643000   0.49782309   -7.9757935    815.86498   0.01464328  0.013323818           14 
 4644000   0.50851728   -7.9854586    815.92774  0.014641253  0.013319611           15 
 4645000   0.51653269   -7.9675114    815.13106  0.014623808  0.013315399           16 
 4646000   0.51515472   -7.9675534    814.73201  0.014613503   0.01331119           33 
 4647000   0.51075895   -7.9757913    814.80145  0.014611603  0.013306983           21 
 4648000    0.5073116   -7.9631072    814.83161     0.014609  0.013302778           24 
 4649000    0.5065786   -7.9871892    815.15664  0.014611684  0.013298576           37 
 4650000    0.4966614   -7.9878711    814.54871  0.014597647  0.013294373           17 
 4651000   0.50312977   -7.9765762    816.38454  0.014627402  0.013290174           20 
 4652000   0.49666401   -7.9784061    814.97617  0.014599029  0.013285976           24 
 4653000   0.50753197   -7.9830678    814.47254  0.014586871  0.013281779           24 
 4654000   0.50746132   -7.9736195    814.80107  0.014589619  0.013277587           21 
 4655000   0.50284332   -7.9615825    815.55353  0.014599956  0.013273392           11 
 4656000   0.50818424   -7.9859664    816.01311  0.014605046  0.013269201           20 
 4657000   0.50245869   -8.0009409    815.11479  0.014585835  0.013265009           18 
 4658000   0.51170962   -7.9782862    815.99154  0.014598389   0.01326082           20 
 4659000   0.50775488   -7.9821584    815.82723  0.014592316  0.013256634           16 
 4660000   0.50186866   -7.9734591    815.24009  0.014578685  0.013252446           17 
 4661000   0.50469238   -7.9865984    815.05241  0.014572202  0.013248261           21 
 4662000   0.50233982    -7.982799    815.23683  0.014572373  0.013244079           10 
 4663000   0.50360291   -7.9799841       815.88  0.014580742  0.013239897           19 
 4664000   0.50714487   -7.9822076    815.21743  0.014565777  0.013235714           27 
 4665000   0.50829686   -7.9853823    815.12449  0.014560995   0.01323154            7 
 4666000    0.5082869   -7.9698768    814.96595  0.014555043  0.013227361           15 
 4667000   0.50520496   -7.9856146    815.56838  0.014562681  0.013223184           22 
 4668000   0.50765174   -7.9938629    814.48162   0.01454016  0.013219007           13 
 4669000   0.51043698   -7.9770272    816.00752  0.014564281  0.013214832           19 
 4670000    0.5042726   -7.9935581    815.15671   0.01454598  0.013210658           13 
 4671000   0.50822896    -7.989398     816.0273  0.014558398  0.013206487           20 
 4672000    0.4969929   -7.9769747    815.91091  0.014553206  0.013202314           23 
 4673000   0.50123217   -7.9817128    814.87793   0.01453167  0.013198145           18 
 4674000   0.50682803   -7.9802231    813.78681  0.014509107  0.013193974           15 
 4675000     0.493444   -7.9724612    813.29648  0.014497263  0.013189806           16 
 4676000   0.49636752   -7.9944775    814.61301  0.014517626  0.013185643           16 
 4677000   0.49970903   -8.0012489     815.8096  0.014535842  0.013181483           20 
 4678000   0.51104306   -7.9761917    813.83823  0.014497617   0.01317732           13 
 4679000   0.50502765   -7.9825649    814.59624  0.014508019  0.013173161           29 
 4680000   0.49678587   -7.9791491    815.91801  0.014528455  0.013168999           12 
 4681000   0.50221467   -7.9892045    815.92077    0.0145254  0.013164842           21 
 4682000   0.50248602   -7.9598467     815.2706  0.014510725  0.013160683           22 
 4683000   0.50889045   -7.9628944    811.98682  0.014449193  0.013156526           20 
 4684000    0.5165774   -8.0006316    815.57634  0.014509969  0.013152374           14 
 4685000   0.50686135   -7.9849566    814.47588  0.014487298  0.013148222           14 
 4686000   0.50546958     -7.98694    814.58538  0.014486154  0.013144074            9 
 4687000   0.50791682   -7.9789488    814.30933  0.014478155  0.013139932           30 
 4688000    0.4980883   -7.9887384    814.55047  0.014479353  0.013135788           14 
 4689000   0.49508502   -7.9994801    815.37258  0.014490876  0.013131645           13 
 4690000   0.50538226   -7.9766426    815.56717  0.014491243  0.013127503           10 
 4691000   0.51003885   -7.9955656    814.76755  0.014473949   0.01312336           13 
 4692000   0.50061315   -7.9990556    815.57775  0.014485254   0.01311922           16 
 4693000   0.49942306    -7.995232    815.61626  0.014482851  0.013115078           17 
 4694000   0.49776216   -8.0051452    813.72322  0.014446159  0.013110935           14 
 4695000   0.50416549   -7.9878805    814.65227  0.014459572  0.013106798           11 
 4696000   0.50208248   -7.9980669    814.54865  0.014454654  0.013102662           12 
 4697000   0.49516757   -7.9861327    813.52394  0.014433396  0.013098529           19 
 4698000   0.50937194   -7.9760842    814.47534    0.0144472  0.013094396           12 
 4699000   0.49175144   -7.9855468    813.88985  0.014433742  0.013090264           22 
 4700000   0.49836274   -7.9739442     814.4046  0.014439798  0.013086137           18 
 4701000   0.49325865   -7.9785613    815.30715  0.014452725  0.013082013           13 
 4702000    0.4974525   -7.9827142    814.08824  0.014428049  0.013077891            8 
 4703000   0.49646001   -7.9914445    815.11008  0.014443087  0.013073769           19 
 4704000   0.49835121   -7.9848154    814.14684  0.014422953  0.013069645           14 
 4705000   0.49745344     -7.97794    814.44518  0.014425171  0.013065526           17 
 4706000   0.49529167   -7.9934659    814.77304  0.014427912   0.01306141           13 
 4707000   0.49727377   -7.9750936     814.3402  0.014417184  0.013057291           33 
 4708000   0.49603088   -7.9805941    814.42528  0.014415627  0.013053176           35 
 4709000   0.50099535   -7.9914424    814.04289  0.014405799  0.013049059           11 
 4710000    0.5015322   -7.9902158    814.21164  0.014405726  0.013044948           38 
 4711000   0.49624295   -7.9989704    815.44326  0.014424454  0.013040838           42 
 4712000   0.49176924   -7.9777668    814.44947  0.014403818   0.01303673           25 
 4713000   0.50414896   -8.0007239    815.96039  0.014427477  0.013032618           13 
 4714000    0.5012544   -7.9884131    815.06717  0.014408626  0.013028509           37 
 4715000   0.49837623   -7.9918671    814.76056  0.014400151  0.013024401           18 
 4716000   0.50550619   -7.9845128     815.1321  0.014403663  0.013020296           23 
 4717000   0.49649415   -7.9972812    814.39462  0.014387581  0.013016194           28 
 4718000   0.50112567   -7.9830465    814.82603  0.014392151   0.01301209           17 
 4719000   0.49106517   -7.9928758    814.94173  0.014391144   0.01300799           27 
 4720000    0.5043075   -7.9989239     813.7565   0.01436717  0.013003886           16 
 4721000   0.49260396   -7.9832974    815.48051  0.014394558  0.012999792           10 
 4722000   0.49489805   -8.0002235    813.84642  0.014362672  0.012995697           24 
 4723000   0.49363533   -7.9934569    812.81249  0.014341388    0.0129916           32 
 4724000   0.49893409   -7.9953224    814.48174  0.014367798  0.012987506           13 
 4725000   0.49728368    -7.996158      814.475  0.014364638  0.012983418            7 
 4726000   0.49943866   -8.0087803    814.23697  0.014357402   0.01297933           18 
 4727000   0.49956417   -8.0156163    814.01689  0.014350485  0.012975241           27 
 4728000   0.49486128   -7.9896465    814.13947   0.01434961  0.012971153           42 
 4729000   0.49511993   -7.9880205    815.07878  0.014363128  0.012967071           28 
 4730000   0.49601092    -8.004561     814.2518  0.014345522  0.012962985           42 
 4731000   0.49939684   -8.0156576    814.32623    0.0143438  0.012958902           11 
 4732000   0.49719525   -7.9879495    813.67533  0.014329306  0.012954825           31 
 4733000   0.50025395   -8.0047656    813.41123  0.014321629  0.012950746           17 
 4734000   0.49332923   -8.0110814    814.48712  0.014337543  0.012946666           18 
 4735000    0.4887088   -7.9885586    813.59927  0.014318889  0.012942591           16 
 4736000   0.50242436   -8.0043928    815.59228  0.014350934  0.012938519           15 
 4737000   0.49477624   -8.0152502    814.83863  0.014334646  0.012934441           18 
 4738000   0.49607153    -7.999789    812.18968   0.01428503  0.012930371           45 
 4739000   0.49078919   -7.9903363    813.91343  0.014312327  0.012926294           23 
 4740000   0.49067172   -7.9983173    813.85168  0.014308222  0.012922227           14 
 4741000   0.48810883   -8.0128144      813.906  0.014306159  0.012918156           23 
 4742000   0.49118987   -8.0004032    813.21407  0.014290983  0.012914087           23 
 4743000   0.49326005   -8.0120835    813.66419  0.014295878  0.012910023           35 
 4744000   0.49422397   -8.0084699    814.14605  0.014301329   0.01290596           21 
 4745000   0.49237269    -8.002666    814.14632   0.01429832  0.012901897           35 
 4746000   0.50081708    -8.008523    814.38844  0.014299558  0.012897835           17 
 4747000   0.50199929   -8.0086292    813.83085  0.014286757  0.012893776           22 
 4748000   0.48408971   -8.0144913    813.96321  0.014286072  0.012889718           46 
 4749000    0.4911727   -8.0057409    814.40018  0.014290731  0.012885664           42 
 4750000   0.48945925   -8.0099877    814.28131  0.014285637  0.012881607           19 
 4751000   0.49301693   -8.0159238    813.74997   0.01427331  0.012877557           18 
 4752000    0.4878816   -8.0009427    813.69318  0.014269311  0.012873503           16 
 4753000   0.49417511   -8.0133553    815.57315   0.01429927  0.012869451           14 
 4754000   0.48843179   -8.0098105    812.89691   0.01424935    0.0128654           24 
 4755000    0.5005033   -8.0062564    813.63188  0.014259234  0.012861353           11 
 4756000   0.49761616   -7.9844221    813.95895  0.014261966  0.012857309           21 
 4757000   0.50071246   -8.0195166    814.11754  0.014261747  0.012853264           19 
 4758000   0.48995715   -8.0100234     813.4372  0.014246833  0.012849218           43 
 4759000   0.48231516   -8.0032427    814.66389   0.01426532  0.012845177           22 
 4760000   0.48289664   -8.0045096    813.79603  0.014247129  0.012841134           15 
 4761000   0.48551455   -7.9963987    812.71904  0.014225286  0.012837093           52 
 4762000   0.49024396   -7.9973614    814.51014  0.014253642  0.012833056           32 
 4763000   0.48356238    -8.023506    814.39589  0.014248651  0.012829017           20 
 4764000   0.48876205   -8.0042804    814.51497  0.014247743  0.012824986           41 
 4765000   0.47663682   -7.9917521    813.74856  0.014231349  0.012820954           15 
 4766000   0.48740975   -7.9902738    813.93461  0.014231617  0.012816923           36 
 4767000    0.5031872   -8.0108593     813.6833  0.014224238  0.012812894           20 
 4768000    0.4902883   -8.0098006    813.40082  0.014216317  0.012808866           19 
 4769000   0.48453941   -8.0106429    814.00317  0.014223862  0.012804838           17 
 4770000   0.48677906    -7.999534    814.44995  0.014228685  0.012800811           11 
 4771000   0.48243123   -7.9991196    813.58958  0.014210675  0.012796787           17 
 4772000   0.48422147   -8.0071142    814.12621  0.014217068  0.012792767           19 
 4773000       0.4952   -8.0136703    814.23297  0.014215954  0.012788746           40 
 4774000   0.48045419   -8.0134577    813.50506   0.01420027  0.012784724           19 
 4775000   0.49730244   -8.0269795    812.73747    0.0141839  0.012780703           41 
 4776000   0.48198931   -8.0091209    813.89221  0.014201078  0.012776685           25 
 4777000   0.48292896   -8.0111465    814.59274  0.014210326  0.012772671           14 
 4778000   0.48914547   -8.0070236    812.67823  0.014173961   0.01276866           18 
 4779000   0.48595521   -8.0156357    813.16296  0.014179448  0.012764647           15 
 4780000   0.47935373   -8.0161393    813.78409   0.01418731  0.012760633           24 
 4781000   0.48319091   -8.0143002    813.11274  0.014172641  0.012756623           28 
 4782000   0.48403091   -8.0221915    814.33478  0.014190973  0.012752614           36 
 4783000   0.48644124   -8.0162056    814.57906  0.014192262  0.012748606           24 
 4784000   0.50276917   -8.0315028    814.39866  0.014186153  0.012744597           32 
 4785000   0.49051772   -8.0142099     813.3791  0.014165432   0.01274059           32 
 4786000   0.47462581   -8.0026339    812.45985  0.014146466  0.012736584           17 
 4787000   0.48937179   -8.0116531    812.37788  0.014142084  0.012732578           29 
 4788000   0.47767502   -8.0134321    814.09343  0.014168989  0.012728574           22 
 4789000   0.49003189   -8.0314714     813.9595    0.0141637  0.012724575           44 
 4790000   0.49250502   -8.0194578    813.09404  0.014145686  0.012720577           36 
 4791000   0.48883153   -8.0166327    814.16303  0.014161327  0.012716579           35 
 4792000   0.48419442    -8.022322    813.79172  0.014151915   0.01271258           46 
 4793000   0.48387165   -8.0204663    815.05109  0.014170858  0.012708587           46 
 4794000   0.49044854   -8.0172801    813.29185  0.014137322  0.012704595           25 
 4795000   0.48440756   -8.0199036    813.58082  0.014139396  0.012700606           37 
 4796000   0.49110052   -8.0244471    813.87128  0.014141494  0.012696619           41 
 4797000   0.47406852     -8.01838    813.08901  0.014124957  0.012692628           19 
 4798000   0.48403364   -8.0207843    814.49991  0.014146518  0.012688642           23 
 4799000   0.49476769   -8.0069749    812.50645  0.014108954  0.012684657           19 
 4800000   0.47483661   -8.0170311    814.52472  0.014141054  0.012680672           10 
 4801000   0.47362921   -8.0117778     814.0153  0.014129267  0.012676687           12 
 4802000   0.49192068   -8.0087246    813.35729  0.014114905  0.012672706           15 
 4803000    0.4833209   -8.0114582     814.6264  0.014133986  0.012668727           13 
 4804000   0.48547883   -8.0171498    813.76309  0.014116068   0.01266475           44 
 4805000   0.49467869   -8.0381399    813.94917  0.014116358  0.012660775           28 
 4806000   0.47830814   -8.0140305    812.80112  0.014093514    0.0126568           25 
 4807000   0.48163152    -8.008446    813.82928  0.014108406  0.012652828           27 
 4808000    0.4741461   -8.0202032    814.34374  0.014114388  0.012648856           34 
 4809000   0.48530703   -8.0064808     813.4103  0.014095278  0.012644885           23 
 4810000   0.48587789   -8.0298728    814.10351  0.014104357  0.012640917           18 
 4811000   0.48695434   -8.0200232    812.87603  0.014080164  0.012636948           13 
 4812000   0.47748147   -8.0212101    812.82987  0.014076439  0.012632981           16 
 4813000   0.48495441   -8.0054568    813.44895  0.014084233  0.012629014           22 
 4814000   0.48692092   -8.0212358    813.98018  0.014090503  0.012625049           34 
 4815000    0.4887621   -8.0164196    812.98028  0.014070271  0.012621093           31 
 4816000   0.48036366   -8.0306368    811.72394  0.014045611  0.012617132           16 
 4817000   0.47929099   -8.0160468    813.89491  0.014080252  0.012613177           37 
 4818000   0.48473525   -8.0161611    813.77191  0.014075203   0.01260922           19 
 4819000   0.48688065   -8.0293407    813.27169  0.014063632  0.012605267           24 
 4820000   0.48020576   -8.0012198    813.61049  0.014066571  0.012601315           28 
 4821000   0.48540062     -8.02493    813.67535  0.014064775  0.012597363           13 
 4822000    0.4824428   -7.9988445    812.26321  0.014037453  0.012593413           16 
 4823000   0.48301295   -8.0074692    813.66962  0.014058843  0.012589466           26 
 4824000   0.47223248   -8.0286623    813.91726  0.014060207  0.012585516           27 
 4825000   0.47138914   -8.0394538    813.66166  0.014052878  0.012581569           19 
 4826000   0.48549423   -8.0179647    812.76903  0.014034553  0.012577619           25 
 4827000   0.48093447   -8.0268286    813.25899  0.014040104  0.012573675           33 
 4828000   0.47788423   -8.0151011    811.84405  0.014012774  0.012569732           41 
 4829000   0.48491225   -8.0150457    813.29901   0.01403498  0.012565792           22 
 4830000   0.48027741   -8.0200167    813.10934  0.014028802  0.012561851           12 
 4831000   0.48567202   -8.0286673    814.06139   0.01404232  0.012557914           19 
 4832000   0.47490207   -8.0014546    812.87082  0.014018881  0.012553976           36 
 4833000   0.48088295   -8.0155518    813.05893  0.014019224   0.01255004           15 
 4834000    0.4791039    -8.028386     811.9515  0.013997233  0.012546105           24 
 4835000    0.4723729   -8.0223972    813.99363  0.014029535  0.012542169           23 
 4836000   0.48507249   -8.0072907    813.96841    0.0140262   0.01253824           15 
 4837000   0.48266835   -8.0309649     813.5416  0.014015947  0.012534306           31 
 4838000   0.47357694   -8.0073716    813.34865  0.014009726  0.012530379           31 
 4839000    0.4740388   -8.0206378    813.94659  0.014017128  0.012526451            9 
 4840000   0.47249074   -8.0263548    814.53334  0.014024334  0.012522524           21 
 4841000   0.47859103   -8.0240584    812.94877   0.01399416  0.012518598           33 
 4842000   0.47012692   -8.0247963    813.34047  0.013998012  0.012514676           20 
 4843000   0.48391142    -8.019685    812.49828   0.01398063  0.012510753           18 
 4844000     0.481266   -8.0292673    812.93249  0.013985213   0.01250683           20 
 4845000   0.47123796   -8.0250863    813.28248  0.013988347  0.012502912           30 
 4846000   0.46512445   -8.0135644    813.46572  0.013988611  0.012498993           22 
 4847000   0.47011353   -8.0377715    813.11093  0.013979625  0.012495075           29 
 4848000   0.48115933   -8.0092812    812.14464  0.013960132  0.012491159           26 
 4849000   0.47258537   -8.0414933    812.63459  0.013965673  0.012487247           12 
 4850000   0.47710475   -8.0249493    812.68505  0.013963661  0.012483332           11 
 4851000   0.48152771   -8.0372425    813.72398  0.013978629  0.012479423           20 
 4852000   0.48603042   -8.0113981    813.88403  0.013978497  0.012475514           19 
 4853000   0.48638696   -8.0112556    812.20088  0.013946715  0.012471605           17 
 4854000   0.48139548   -8.0337115    814.10372  0.013976509  0.012467703           19 
 4855000   0.46907681   -8.0152828    813.19231  0.013957987  0.012463799           10 
 4856000   0.47098674   -8.0126115    813.53803  0.013961045  0.012459894           14 
 4857000   0.46897652   -8.0114804    813.32755  0.013954559  0.012455989           52 
 4858000   0.47673281   -8.0181805    814.81416  0.013977188  0.012452089           34 
 4859000   0.47245266   -8.0295362    813.37634  0.013949652  0.012448188           38 
 4860000   0.47297001   -8.0266567    812.02227  0.013923564  0.012444292           22 
 4861000    0.4806025   -8.0163302    812.21463  0.013923998  0.012440394           24 
 4862000   0.47240239   -8.0354361    812.87183  0.013932398  0.012436499           15 
 4863000   0.47023072   -8.0373646    812.90843   0.01393016  0.012432606           31 
 4864000   0.47369198    -8.023946    812.01439  0.013911979  0.012428712            9 
 4865000   0.47626529   -8.0372464     812.5915  0.013919005   0.01242482           22 
 4866000    0.4702596   -8.0224739    814.41557  0.013947383   0.01242093           31 
 4867000    0.4749147   -8.0128771    812.41118  0.013910198  0.012417042           24 
 4868000   0.47114404   -8.0386579    812.44031  0.013907839  0.012413155           30 
 4869000   0.46719812   -8.0339245    812.52176  0.013906376  0.012409271           21 
 4870000   0.48196522   -8.0202507    813.35204  0.013917728  0.012405387           17 
 4871000   0.47345135   -8.0449416    813.53957  0.013918079  0.012401505           14 
 4872000   0.47985688   -8.0299566      813.122   0.01390808  0.012397623           23 
 4873000   0.47170423   -8.0242305    813.17411  0.013906117  0.012393742           44 
 4874000   0.47440285   -8.0315071    813.02048  0.013900637  0.012389862           14 
 4875000   0.47511978   -8.0333046    812.39406  0.013887078  0.012385985           30 
 4876000   0.47569844   -8.0284211    811.91251     0.013876  0.012382111           12 
 4877000   0.47577481   -8.0263284    813.22679  0.013895612   0.01237824           26 
 4878000     0.476186   -8.0192215    812.62527  0.013882487  0.012374372           10 
 4879000   0.47346118   -8.0344905    813.16574  0.013888873  0.012370503           22 
 4880000   0.46214652   -8.0115747    812.02106   0.01386648  0.012366636           15 
 4881000   0.46017658    -8.031376    813.55544  0.013889835  0.012362771           18 
 4882000   0.47062585   -8.0204465    812.93212   0.01387635  0.012358905           57 
 4883000   0.48228663   -8.0454085    811.65983  0.013851796  0.012355041           35 
 4884000    0.4755411   -8.0328814    812.17807  0.013857802  0.012351178           18 
 4885000   0.47904282   -8.0365603    814.26074  0.013890494  0.012347317           13 
 4886000   0.47619585    -8.029481    813.38385  0.013872695  0.012343459           20 
 4887000   0.47092672   -8.0220065    811.90562  0.013844649  0.012339598           16 
 4888000   0.47120299   -8.0416242     812.3779  0.013849869   0.01233574           38 
 4889000   0.46127455       -8.035    812.63823  0.013851473  0.012331885           28 
 4890000   0.46919482   -8.0349893    812.86814  0.013852559  0.012328033           13 
 4891000    0.4809666   -8.0364128    812.46201  0.013842807  0.012324178           16 
 4892000   0.46142649   -8.0180019    812.87237  0.013846967  0.012320327           19 
 4893000   0.47322126   -8.0273128     812.4408  0.013836787  0.012316479           11 
 4894000   0.46651827   -8.0535892    812.22405  0.013830269  0.012312631           16 
 4895000    0.4599384   -8.0586655     811.8393  0.013820894  0.012308784           13 
 4896000   0.46836071   -8.0245092    813.55659    0.0138473  0.012304936            7 
 4897000   0.47319097   -8.0325832    812.29455  0.013822996   0.01230109           16 
 4898000   0.45951594   -8.0350247    811.88632  0.013813229  0.012297247           10 
 4899000   0.46137788   -8.0529186    813.66444  0.013840655  0.012293406           20 
 4900000   0.46827782    -8.029802    812.74664  0.013822222  0.012289567           14 
 4901000   0.46738409   -8.0390348    811.56335  0.013799282  0.012285733           36 
 4902000   0.45252336   -8.0372856    812.01118   0.01380408  0.012281893           12 
 4903000   0.46475324   -8.0398086    813.23284  0.013822028  0.012278058           27 
 4904000   0.46933285     -8.03599     812.2608  0.013802692  0.012274225           16 
 4905000   0.46088146   -8.0251353    811.19449  0.013781762  0.012270387           14 
 4906000   0.47349834   -8.0366387    813.32808  0.013815194  0.012266555           19 
 4907000   0.46894662   -8.0472526    813.94462  0.013822849  0.012262724           14 
 4908000   0.48472329   -8.0584378    813.29364  0.013808979  0.012258896           11 
 4909000   0.47346682   -8.0389549    811.66694  0.013778552  0.012255065           11 
 4910000   0.46417186   -8.0471731    811.69866  0.013776284  0.012251235           27 
 4911000   0.47467979   -8.0390316    812.35192  0.013784564  0.012247407           11 
 4912000   0.46844815   -8.0394774    812.80558  0.013789454  0.012243579            9 
 4913000   0.45980153   -8.0361116    811.77494  0.013769166  0.012239755           13 
 4914000   0.46303839   -8.0445469    813.33814  0.013792873  0.012235934           19 
 4915000   0.46612026   -8.0385374    811.75651   0.01376325  0.012232117           17 
 4916000   0.46592185   -8.0459531    811.87556  0.013762469    0.0122283           24 
 4917000   0.47634985   -8.0440888    811.28946  0.013749737  0.012224485           31 
 4918000   0.46795215   -8.0496842    812.02478  0.013759401  0.012220671           24 
 4919000   0.47285423   -8.0445181    812.38627  0.013762727  0.012216852           20 
 4920000   0.45990337   -8.0358969    812.99889  0.013770306  0.012213044           15 
 4921000   0.45626566   -8.0390524    812.25608  0.013754929  0.012209234           12 
 4922000   0.47005023   -8.0260269     811.7892   0.01374423  0.012205428           21 
 4923000   0.46474704   -8.0410925    814.32952  0.013784439  0.012201622           24 
 4924000   0.45730235   -8.0477564    811.66426  0.013736533  0.012197817           14 
 4925000   0.46490405   -8.0407822    811.73836  0.013734998  0.012194013           18 
 4926000   0.45041563   -8.0389065    812.00387  0.013736701   0.01219021           12 
 4927000   0.46674277   -8.0246425    810.79572  0.013713479  0.012186408           14 
 4928000   0.46179581   -8.0509855    812.70415  0.013742968  0.012182605           14 
 4929000   0.46418713   -8.0432314    812.56238  0.013737783  0.012178806           17 
 4930000   0.46351898   -8.0391688    812.54587  0.013734717  0.012175004           21 
 4931000   0.45581478   -8.0526427    811.99229  0.013722576  0.012171207           31 
 4932000   0.45717918   -8.0490121    812.05564  0.013720864  0.012167409           14 
 4933000   0.45900358   -8.0296262    811.72402  0.013712481  0.012163614           13 
 4934000   0.46045401   -8.0487764    811.58235  0.013707309  0.012159822           17 
 4935000   0.47063128   -8.0477625     812.1411  0.013713967   0.01215603           17 
 4936000   0.46699728   -8.0445417    812.48932  0.013717067  0.012152238           21 
 4937000   0.46118228   -8.0337047    811.22491  0.013692946  0.012148451           10 
 4938000   0.45964951   -8.0428677    811.79982  0.013699875  0.012144665           13 
 4939000   0.46522484   -8.0335174    811.06517  0.013684706  0.012140878           16 
 4940000   0.45708837   -8.0358419     812.8046  0.013711279  0.012137093           19 
 4941000   0.45626752   -8.0382087    810.95435  0.013677298  0.012133304           19 
 4942000   0.47517359   -8.0336575    811.12761  0.013677452  0.012129522           22 
 4943000   0.46149998    -8.036217    813.23735  0.013710253  0.012125741           20 
 4944000   0.46086469   -8.0276088    811.78062  0.013682926  0.012121961           14 
 4945000    0.4601007   -8.0383545    813.34722  0.013706559  0.012118183           14 
 4946000   0.45188612   -8.0373909    811.99802  0.013681056  0.012114406           15 
 4947000   0.45929197   -8.0472566    811.35158  0.013667401  0.012110628           26 
 4948000   0.46906182   -8.0521106    811.88369    0.0136736  0.012106854           24 
 4949000   0.46850393    -8.041666    813.19805  0.013692969  0.012103082           21 
 4950000   0.45758376    -8.048264     812.6148  0.013680384  0.012099312           12 
 4951000   0.45767293   -8.0421746    811.16942  0.013653293  0.012095542           14 
 4952000   0.45635144   -8.0344096    811.77196  0.013660675  0.012091775           19 
 4953000   0.46288573   -8.0449167    811.62767  0.013655489  0.012088005            7 
 4954000   0.45490399   -8.0555503    811.43498  0.013649492  0.012084238           12 
 4955000   0.45486662   -8.0542937    812.64237  0.013667043   0.01208047           12 
 4956000   0.46156656   -8.0540856    811.22687  0.013640484  0.012076706           14 
 4957000   0.45961342   -8.0417543    812.20003  0.013654092  0.012072943           12 
 4958000   0.46264482   -8.0480153    812.82552  0.013661851  0.012069182           15 
 4959000   0.45182996   -8.0502213    811.57975  0.013638162  0.012065422           11 
 4960000   0.45821612   -8.0590578    812.65529  0.013653483  0.012061662           20 
 4961000   0.45713013   -8.0431503    810.81019  0.013619737  0.012057903           13 
 4962000   0.46471048   -8.0638135    812.59192  0.013646915  0.012054145           21 
 4963000   0.45671327    -8.058597    812.10847  0.013636048   0.01205039           25 
 4964000   0.45921959   -8.0445408    812.18805  0.013634637  0.012046639           15 
 4965000   0.46477083   -8.0521125    811.83822  0.013626019  0.012042891           34 
 4966000    0.4595198   -8.0506038    811.64699  0.013620066  0.012039142           16 
 4967000   0.46278858   -8.0474885     810.4307  0.013596918  0.012035398           15 
 4968000   0.44952326    -8.049409    812.12761  0.013622645  0.012031653           20 
 4969000   0.45631251   -8.0600948    810.40601  0.013591031  0.012027912           20 
 4970000   0.47178633   -8.0450988    812.03847  0.013615669  0.012024171           19 
 4971000   0.45881636   -8.0478446    811.74153  0.013607952   0.01202043           15 
 4972000   0.46408164   -8.0426414    812.60812  0.013619739  0.012016693           20 
 4973000   0.47226621   -8.0507209    811.93097  0.013605653  0.012012954           13 
 4974000   0.46019546   -8.0644682    812.54221  0.013613159  0.012009217           17 
 4975000   0.44589174   -8.0619977    811.79016  0.013597825  0.012005482           22 
 4976000   0.44747598   -8.0622367    811.20578  0.013585306  0.012001746           16 
 4977000   0.46857204   -8.0575445    812.44328  0.013603297  0.011998013           18 
 4978000   0.46160691   -8.0637786    811.62459  0.013586859  0.011994283           14 
 4979000   0.45371372   -8.0375473    811.62306  0.013584104  0.011990552           19 
 4980000   0.44638475   -8.0725472    811.66628    0.0135821  0.011986826           15 
 4981000   0.45867166   -8.0622784      810.927  0.013567005  0.011983098           13 
 4982000    0.4485824   -8.0681905     812.6905  0.013593779  0.011979373           17 
 4983000   0.45520392   -8.0552045    810.99771  0.013562742  0.011975649           17 
 4984000   0.45413941   -8.0678729    811.22791   0.01356387  0.011971927           20 
 4985000     0.463342   -8.0541458    812.09992  0.013575726  0.011968204           15 
 4986000   0.44031152   -8.0534111    813.01337   0.01358827  0.011964487           12 
 4987000   0.45737118   -8.0586478    810.51363  0.013543774  0.011960768           19 
 4988000   0.44106015   -8.0571822    812.34335  0.013571628  0.011957052           11 
 4989000   0.45779437   -8.0538781    811.79673  0.013559777  0.011953335           10 
 4990000   0.45542652   -8.0434851    811.07374  0.013544986  0.011949623           23 
 4991000   0.45845838   -8.0616362    811.89648  0.013556009  0.011945912           22 
 4992000   0.45143884   -8.0522305    811.19988  0.013541665  0.011942201           16 
 4993000    0.4590621   -8.0661701    813.37108   0.01357519  0.011938492           32 
 4994000   0.45108798   -8.0614036    812.13688  0.013551877  0.011934783           17 
 4995000   0.45066947   -8.0496037    812.25801  0.013551185  0.011931074           28 
 4996000   0.45541984   -8.0626832    811.94449  0.013543243  0.011927368           11 
 4997000   0.45133822   -8.0682656    812.24825  0.013545598  0.011923665           25 
 4998000   0.45300683    -8.052722    810.88614  0.013520177  0.011919961           15 
 4999000   0.45240047   -8.0590854     812.0954  0.013537631  0.011916257           11 
 5000000   0.45165321   -8.0667059    811.97689  0.013532948   0.01191256           22 
 5001000   0.45406504   -8.0450022    812.42817  0.013537762  0.011908864           19 
 5002000    0.4503914   -8.0483846     812.0299   0.01352842  0.011905169           15 
 5003000   0.44422072   -8.0593797    812.04678  0.013525997  0.011901476           26 
 5004000   0.45509849   -8.0445357    811.25407  0.013510093  0.011897784           22 
 5005000     0.443481   -8.0402281     811.2836  0.013507885   0.01189409           18 
 5006000   0.45955446    -8.076465    811.78006  0.013513452    0.0118904           17 
 5007000   0.45562797   -8.0718999    811.72943   0.01350991  0.011886712           10 
 5008000   0.45226657   -8.0662139    810.54813  0.013487555  0.011883023           10 
 5009000   0.45082344   -8.0681412    811.43638   0.01349964  0.011879334           19 
 5010000   0.44674629   -8.0543782    812.67116  0.013517484  0.011875648           20 
 5011000   0.45504837   -8.0645939    812.28166  0.013508309  0.011871965           24 
 5012000   0.44303387   -8.0738432    812.76811  0.013513702  0.011868282           18 
Loop time of 11273.2 on 48 procs for 5000000 steps with 4000 atoms

Performance: 76641.800 tau/day, 443.529 timesteps/s
99.4% CPU use with 48 MPI tasks x no OpenMP threads

MPI task timing breakdown:
Section |  min time  |  avg time  |  max time  |%varavg| %total
---------------------------------------------------------------
Pair    | 719        | 763.43     | 798.89     |  68.5 |  6.77
Neigh   | 71.995     | 73.674     | 75.278     |   9.7 |  0.65
Comm    | 653.27     | 695.99     | 742.35     |  74.5 |  6.17
Output  | 18.225     | 18.231     | 18.321     |   0.3 |  0.16
Modify  | 9579.1     | 9610.8     | 9637       |  15.4 | 85.25
Other   |            | 111.1      |            |       |  0.99

Nlocal:        83.3333 ave          93 max          73 min
Histogram: 1 1 3 9 6 9 8 8 1 2
Nghost:        1882.12 ave        1925 max        1859 min
Histogram: 4 4 9 18 6 4 1 1 0 1
Neighs:        11772.1 ave       13092 max       10152 min
Histogram: 1 5 2 4 4 9 8 11 1 3
FullNghs:      23543.1 ave       26818 max       20519 min
Histogram: 1 3 4 11 6 10 7 4 0 2

Total # of neighbors = 1130068
Ave neighs/atom = 282.51700
Neighbor list builds = 268946
Dangerous builds = 2

#clear
#
#next RN
#
#jump SELF
Total wall time: 3:07:56
