
units lj                  # Use reduced LJ style units
atom_style atomic         # Uncharged point particles
atom_modify map hash      # Needed for indexing of clusters etc
                          # Used to be able to find where atoms are in relation to each other.

lattice fcc 1.0 spacing 1 1 1
Lattice spacing in x,y,z = 1.5874011 1.5874011 1.5874011
region box block 0 10 0 10 0 10 units lattice
create_box 2 box
Created orthogonal box = (0.0000000 0.0000000 0.0000000) to (15.874011 15.874011 15.874011)
  3 by 4 by 4 MPI processor grid
create_atoms 1 box
Created 4000 atoms
  using lattice units in orthogonal box = (0.0000000 0.0000000 0.0000000) to (15.874011 15.874011 15.874011)
  create_atoms CPU = 0.003 seconds
set type 1 type/fraction 2 0.22 78393
Setting atom values ...
  910 settings made for type/fraction
mass 1 1.0
mass 2 1.0
pair_style lj/cut  3.5
pair_modify tail  yes
pair_coeff 1  1  1.0  1.0   # Intearaction between 1 and 1 set with epsilon = 1 and sigma = 1
pair_coeff 1  2  1.5  0.8
pair_coeff 2  2  0.5  0.88

write_data data.0
System init for write_data ...
Neighbor list info ...
  update every 1 steps, delay 10 steps, check yes
  max neighbors/atom: 2000, page size: 100000
  master list distance cutoff = 3.8
  ghost atom cutoff = 3.8
  binsize = 1.9, bins = 9 9 9
  1 neighbor lists, perpetual/occasional/extra = 1 0 0
  (1) pair lj/cut, perpetual
      attributes: half, newton on
      pair build: half/bin/atomonly/newton
      stencil: half/bin/3d
      bin: standard
WARNING: Not all mixed pair coeffs generated from mixing. Use write_data with 'pair ij' option to store all pair coeffs. (../write_data.cpp:312)


#############################
#   M E L T   S Y S T E M   #
#############################

velocity all create 2.4 6583654 mom yes dist gaussian # Assign velocities
                                                    # Temperature 2.4, random number seed, zero linear momentum
                                                                                # Gaussian distribution

timestep 0.002   # simulation timestep
thermo 1000       # output thermodynamic data every 1000 steps bf 100

# Define a fix  in this case with index 1 applied to all
# particles in the simulation. This fix is for simulations
# in the anisotropic NPT ensemble. Note that we use the MTK
# correction.
fix 1 all npt temp 2.4 2.4 0.1 iso 5.68 5.68 0.5 mtk yes tchain 5 pchain 5 # Use NPT ensemble
                                                                         # Set temperature and pressure and damping
                                                                         # Numbers of thermostats in chain and in barostat
run 10000          # run for 10000 steps
Per MPI rank memory allocation (min/avg/max) = 3.642 | 3.644 | 3.648 Mbytes
Step Temp E_pair E_mol TotEng Press Volume 
       0          2.4   -6.9213593            0   -3.3222593   -3.6990896         4000 
    1000    2.3833407   -4.8479951            0   -1.2738778    5.5010461    4429.5676 
    2000    2.4247374   -4.8599754            0   -1.2237785    5.4074999    4450.1483 
    3000    2.4199907   -4.8582672            0   -1.2291887     5.958016    4393.1027 
    4000     2.368834   -4.9380617            0    -1.385699    5.4730133    4383.6292 
    5000    2.4469991   -4.8832672            0   -1.2136861    5.8495047    4380.2257 
    6000    2.3470934    -4.838009            0   -1.3182491    5.9973538    4385.0892 
    7000    2.3212867   -4.8474099            0   -1.3663503    5.4320485    4442.1605 
    8000    2.4358408   -4.8401701            0   -1.1873223    5.9574786    4398.3784 
    9000    2.4195201   -4.8586141            0   -1.2302412    5.8333984    4395.1461 
   10000    2.4272954   -4.8521628            0     -1.21213    5.9316975    4389.8973 
Loop time of 2.32797 on 48 procs for 10000 steps with 4000 atoms

Performance: 742277.914 tau/day, 4295.590 timesteps/s
99.6% CPU use with 48 MPI tasks x no OpenMP threads

MPI task timing breakdown:
Section |  min time  |  avg time  |  max time  |%varavg| %total
---------------------------------------------------------------
Pair    | 0.96372    | 1.046      | 1.1066     |   3.1 | 44.93
Neigh   | 0.19838    | 0.20737    | 0.23804    |   1.3 |  8.91
Comm    | 0.74029    | 0.80443    | 0.89527    |   4.1 | 34.56
Output  | 0.0002414  | 0.00024527 | 0.00030163 |   0.0 |  0.01
Modify  | 0.22241    | 0.25566    | 0.2885     |   3.4 | 10.98
Other   |            | 0.01425    |            |       |  0.61

Nlocal:        83.3333 ave          93 max          74 min
Histogram: 3 1 5 10 9 2 7 6 4 1
Nghost:        1542.44 ave        1577 max        1510 min
Histogram: 1 1 8 6 10 10 3 6 1 2
Neighs:        8687.23 ave       10138 max        7508 min
Histogram: 3 5 5 12 5 4 6 3 4 1

Total # of neighbors = 416987
Ave neighs/atom = 104.24675
Neighbor list builds = 915
Dangerous builds = 262

# Equilibrate just above the melting temperature to avoid step fn in T

fix 1 all npt temp 1.25 1.25 0.1 iso 5.68 5.68 0.5 mtk yes tchain 5 pchain 5
run 2000
Per MPI rank memory allocation (min/avg/max) = 3.643 | 3.645 | 3.649 Mbytes
Step Temp E_pair E_mol TotEng Press Volume 
   10000    2.4272954   -4.8521628            0     -1.21213    5.9316975    4389.8973 
   11000    1.2358797   -6.6078642            0   -4.7545081    5.6186957    3592.2223 
   12000    1.2492506   -6.5931278            0   -4.7197204     5.818875     3586.731 
Loop time of 0.50111 on 48 procs for 2000 steps with 4000 atoms

Performance: 689669.260 tau/day, 3991.142 timesteps/s
99.7% CPU use with 48 MPI tasks x no OpenMP threads

MPI task timing breakdown:
Section |  min time  |  avg time  |  max time  |%varavg| %total
---------------------------------------------------------------
Pair    | 0.22526    | 0.24795    | 0.27275    |   2.3 | 49.48
Neigh   | 0.032066   | 0.034852   | 0.038469   |   0.8 |  6.95
Comm    | 0.13738    | 0.16826    | 0.19125    |   3.0 | 33.58
Output  | 4.8202e-05 | 4.9735e-05 | 6.195e-05  |   0.0 |  0.01
Modify  | 0.039717   | 0.045555   | 0.052581   |   1.4 |  9.09
Other   |            | 0.004444   |            |       |  0.89

Nlocal:        83.3333 ave          92 max          74 min
Histogram: 2 0 3 10 5 11 10 1 4 2
Nghost:        1768.71 ave        1794 max        1736 min
Histogram: 1 1 4 2 8 13 7 5 5 2
Neighs:        10658.4 ave       12259 max        9173 min
Histogram: 1 3 2 10 11 9 7 2 2 1

Total # of neighbors = 511605
Ave neighs/atom = 127.90125
Neighbor list builds = 143
Dangerous builds = 13

#############################
# L I N E A R  Q U E N C H  #
#############################

# Define solid atoms. This closely follows ten Wolde  Ruiz-Montero and Frenkel  Faraday Discuss  1996  104  93-110
# Compute components of the per-atom q6 vector
compute q6 all orientorder/atom degrees 1 6 components 6 nnn NULL cutoff 1.3 # compute the Q6 parameter.
                                                                             # Use all neighbours within 1.3 unit cell.

# get number of connections
compute coord_number all coord/atom orientorder q6 0.5

# An atom is solid if it has 8 or more connections (of a possible 14)
variable is_solid atom c_coord_number>=8
group solid dynamic all var is_solid    # Must be dynamic to update
dynamic group solid defined

# do clustering
compute cluster solid cluster/atom 1.3 # Create a cluster where all atoms within are solid and max 1.3 units from another member

# define chunks one chunk per cluster
compute clus_chunks solid chunk/atom c_cluster nchunk every compress yes  # Says which atoms are in which chunk

# count the size of each chunk
compute size_chunks solid property/chunk clus_chunks count


# Find the maximum entry in the vector of chunk sizes
variable max_n equal max(c_size_chunks)


# Thermo style which includes this variable
# thermo_style custom step temp pe vol v_max_n

thermo ${N}  # Print the thermo information every 100 steps
thermo 1000  

# Reset the npt fix at a lower temperature (below freezing)
fix 1  all npt temp  ${temp} ${temp}  0.1  iso  5.68  5.68  0.5  mtk yes tchain  5  pchain  5
fix 1  all npt temp  0.45 ${temp}  0.1  iso  5.68  5.68  0.5  mtk yes tchain  5  pchain  5
fix 1  all npt temp  0.45 0.45  0.1  iso  5.68  5.68  0.5  mtk yes tchain  5  pchain  5

dump dmp2 all dcd ${N} traj.dcd
dump dmp2 all dcd 1000 traj.dcd


compute msd all msd com yes
variable twopoint equal c_msd[4]/6/(step*dt+1.0e-6)
fix 9 all vector 10 c_msd[4]
variable fit equal slope(f_9)/6/(10*dt)
thermo_style custom step temp pe c_msd[4] v_twopoint v_fit v_max_n

fix 1 all npt temp 1.25 ${temp} 0.1 iso 5.68 5.68 0.5 mtk yes tchain 5 pchain 5
fix 1 all npt temp 1.25 0.45 0.1 iso 5.68 5.68 0.5 mtk yes tchain 5 pchain 5
run 5000000 # 5000000  # Run for this many steps
Neighbor list info ...
  update every 1 steps, delay 10 steps, check yes
  max neighbors/atom: 2000, page size: 100000
  master list distance cutoff = 3.8
  ghost atom cutoff = 3.8
  binsize = 1.9, bins = 9 9 9
  4 neighbor lists, perpetual/occasional/extra = 1 3 0
  (1) pair lj/cut, perpetual
      attributes: half, newton on
      pair build: half/bin/atomonly/newton
      stencil: half/bin/3d
      bin: standard
  (2) compute orientorder/atom, occasional
      attributes: full, newton on
      pair build: full/bin/atomonly
      stencil: full/bin/3d
      bin: standard
  (3) compute coord/atom, occasional
      attributes: full, newton on
      pair build: full/bin/atomonly
      stencil: full/bin/3d
      bin: standard
  (4) compute cluster/atom, occasional
      attributes: full, newton on
      pair build: full/bin/atomonly
      stencil: full/bin/3d
      bin: standard
Per MPI rank memory allocation (min/avg/max) = 9.778 | 9.785 | 9.791 Mbytes
Step Temp PotEng c_msd[4] v_twopoint v_fit v_max_n 
   12000    1.2492506   -6.5931278 5.1853799e-30 3.6009581e-32 8.3333333e+20            1 
   13000    1.2522476    -6.671857   0.53965225 0.0034593092  0.044349449            2 
   14000    1.2741597   -6.6503752    1.0270151 0.0061131847  0.043049154            1 
   15000    1.2677199   -6.6209464    1.5585128 0.0086584039  0.042320333            1 
   16000    1.2625109   -6.6684034    2.1296356  0.011091852  0.043858869            2 
   17000    1.2415706   -6.5944184    2.6501082  0.012990726  0.044162845            2 
   18000    1.2448191   -6.6216912    3.2168279  0.014892721   0.04435808            3 
   19000    1.2589464   -6.5940341    3.7075616  0.016261235  0.044465139            1 
   20000    1.2142086   -6.6414533    4.1555996  0.017314998  0.044144754            2 
   21000    1.2468007   -6.6251748    4.6768216  0.018558815  0.043690513            2 
   22000     1.254586   -6.6204924    5.2157965  0.019756804  0.043604709            3 
   23000    1.2685963   -6.6656017    5.6587528  0.020502727  0.043289568            1 
   24000    1.2381997   -6.6631919     6.194847  0.021509885  0.043098931            2 
   25000    1.2517533   -6.6630554    6.8313425  0.022771141  0.043164299            1 
   26000    1.2606081    -6.635416    7.3333799  0.023504422  0.043296763            1 
   27000     1.232588   -6.6193142    7.8145219  0.024118894  0.043287604            1 
   28000    1.2373453   -6.6125995    8.3571248  0.024872395  0.043318874            2 
   29000     1.252693   -6.6961003    8.7776572  0.025223152  0.043266602            1 
   30000    1.2607337   -6.6526175     9.254301  0.025706391  0.043143601            2 
   31000    1.2494857   -6.6271732    9.7246977   0.02614166  0.043019744            3 
   32000    1.2436499   -6.6335942    10.073395  0.026232798  0.042760482            3 
   33000    1.2550333   -6.6480618    10.596525  0.026758901   0.04251161            1 
   34000    1.2434403   -6.6188378    11.180813  0.027403953  0.042326204            2 
   35000    1.2455209   -6.6578658    11.735528  0.027941733  0.042257384            1 
   36000    1.2235308   -6.6004829    12.192203  0.028222693  0.042209056            2 
   37000    1.2541756   -6.6141984    12.643618  0.028476617  0.042112891            2 
   38000    1.2269677   -6.6066585    13.000326  0.028509486   0.04194389            1 
   39000    1.2636647   -6.6578753    13.458768  0.028758051  0.041763904            3 
   40000    1.2565843   -6.6697315    13.864463  0.028884298  0.041570764            2 
   41000    1.2533792   -6.6444623    14.326325  0.029118547   0.04142368            1 
   42000    1.2499153   -6.6177488    14.844464  0.029453302  0.041274906            1 
   43000    1.2667663   -6.6415281     15.34042  0.029729496  0.041162839            1 
   44000    1.2371991   -6.6365444    15.872392  0.030061348  0.041071429            1 
   45000    1.2521818    -6.664099    16.431145  0.030428046  0.041031798            2 
   46000    1.2674781   -6.6857581    16.904087  0.030623345  0.041006103            1 
   47000     1.238208   -6.6093741    17.329377  0.030725845  0.040961246            2 
   48000    1.2567067   -6.5980481    17.953217   0.03116878  0.040952499            2 
   49000    1.2370432   -6.6070587    18.472458  0.031415745   0.04097978            2 
   50000    1.2576309   -6.6402147    19.097062  0.031828436  0.041011824            1 
   51000    1.2462423   -6.6628897    19.616429  0.032052988  0.041071171            1 
   52000    1.2368375   -6.5793306    20.193971  0.032362133  0.041125136            2 
   53000    1.2282828   -6.6811676    20.566699  0.032337576  0.041172876            2 
   54000    1.2372205   -6.6369277    21.148268  0.032636216  0.041198717            2 
   55000    1.2427998   -6.6451083    21.692681  0.032867698  0.041240951            1 
   56000    1.2627964   -6.6125544    22.375815  0.033297343  0.041302394            1 
   57000    1.2356685   -6.6470909    22.872575  0.033439436  0.041383327            1 
   58000    1.2412631   -6.6333738    23.659416  0.033993414  0.041490895            3 
   59000    1.2538616   -6.6612372    24.223622  0.034214156   0.04163361            1 
   60000     1.246859   -6.6531782    24.648673  0.034234268  0.041756098            3 
   61000    1.2502163    -6.615355    25.216833  0.034449225  0.041861619            1 
   62000    1.2595431   -6.5654097    25.669518   0.03450204  0.041953429            3 
   63000    1.2363322   -6.6595965    26.107553    0.0345338  0.042018991       -1e+20 
   64000    1.2570653   -6.6499852    26.879977   0.03499997  0.042106991            1 
   65000    1.2304726   -6.6586464    27.356184   0.03507203  0.042200159            2 
   66000    1.2620556   -6.6431016     28.00722  0.035362651  0.042311243            2 
   67000    1.2220098   -6.6511424    28.583949  0.035552175  0.042406801            2 
   68000    1.2597467   -6.6194264     28.88287  0.035395674  0.042479764            1 
   69000    1.2554095   -6.6831807    29.223742  0.035294374  0.042527884            3 
   70000    1.2262132   -6.6569219    29.681431  0.035335036  0.042558142            2 
   71000    1.2469261    -6.627105    30.211226  0.035459185  0.042584531            1 
   72000    1.2509005   -6.5963767    30.623171  0.035443485  0.042597155            2 
   73000    1.2228571     -6.62807    31.274264  0.035701215  0.042594489            2 
   74000    1.2439965   -6.6499086    31.654015  0.035646413  0.042609528            3 
   75000    1.2566152   -6.6528084    31.929838  0.035477597  0.042603056            2 
   76000    1.2152179   -6.6281576    32.373726  0.035497506  0.042581392            2 
   77000    1.2216543   -6.6315333    32.825785  0.035525741  0.042546019            2 
   78000    1.2640083   -6.6191452    33.152467  0.035419302  0.042498813            1 
   79000    1.2253711   -6.6899021     33.63757  0.035482668  0.042445367            1 
   80000    1.2467195   -6.6111848    34.415699  0.035849687  0.042399921            1 
   81000    1.2228161   -6.6491012    34.884136  0.035889029  0.042368912            2 
   82000    1.2287945   -6.6431063    35.349787   0.03592458  0.042348986            1 
   83000    1.2464712   -6.6290709    35.624217  0.035767286  0.042314332            1 
   84000    1.2383594   -6.6552609     35.97051   0.03568503  0.042266493            2 
   85000    1.2324703   -6.7000483    36.302169  0.035590362  0.042212442            2 
   86000    1.2441886   -6.6524124    36.924469  0.035779524  0.042153052            2 
   87000    1.2119621   -6.6559673    37.169895  0.035603347  0.042093748            3 
   88000    1.2202024   -6.6584482    37.659285  0.035662202  0.042026526            3 
   89000    1.2254357   -6.6753506    38.306643  0.035867643   0.04196592            1 
   90000       1.2388   -6.6422522    38.880326  0.036000301  0.041916564            1 
   91000    1.2291514   -6.6580796    39.243595  0.035937358  0.041871549            1 
   92000    1.2359475   -6.6276214    39.753939  0.036009003  0.041823686            1 
   93000    1.2445408    -6.691747    40.034385  0.035873105  0.041770595            1 
   94000    1.2215563     -6.62236    40.643855  0.036031786  0.041717554            1 
   95000    1.2543028   -6.6492382    41.002212  0.035966852  0.041665376            2 
   96000     1.218282   -6.6805598    41.345353  0.035890063  0.041607503            2 
   97000    1.2442624   -6.6992897    41.781087  0.035894404  0.041550233            4 
   98000     1.250159   -6.6857993    42.168213  0.035857324  0.041496451            2 
   99000    1.2531239   -6.6308142    42.673998  0.035920873  0.041438874            1 
  100000    1.2372646   -6.6872908    42.811017  0.035675848  0.041377107            2 
  101000    1.2506261   -6.6393186    43.347167  0.035764989   0.04130716            4 
  102000    1.2246514   -6.6782613     43.87341  0.035844289   0.04124178            2 
  103000    1.2359353   -6.6450189    44.464286  0.035974341  0.041187346            2 
  104000    1.2333413   -6.6615599    44.844512  0.035933103   0.04113138            2 
  105000    1.2466196   -6.6366721     45.32554  0.035972651  0.041075362            2 
  106000     1.189704   -6.6879735    45.888755  0.036076065  0.041020763            1 
  107000    1.2440891   -6.6488303    46.212884  0.035991343  0.040966801            2 
  108000    1.2338947    -6.640082    46.598511  0.035955641  0.040910694            2 
  109000    1.2206975   -6.6949499    46.925856  0.035876036  0.040855486            2 
  110000     1.236112   -6.7107812     47.17841  0.035741219   0.04079763            1 
  111000    1.2538327   -6.6694034    47.906135  0.035965566  0.040734345            1 
  112000    1.2231766   -6.6638923     48.29368  0.035932797  0.040674169            1 
  113000    1.2347602   -6.6676717    48.535969  0.035793487  0.040610184            1 
  114000    1.2033379   -6.6739974    49.334072  0.036062918   0.04055568            2 
  115000    1.2509906   -6.6576233    49.682603  0.036001886  0.040510008            2 
  116000     1.238069   -6.6778065    50.224705  0.036080966  0.040464762            1 
  117000    1.2339768    -6.670625    50.759574  0.036153543  0.040426101            2 
  118000    1.2314403   -6.6563485    51.360808  0.036271757  0.040398675            2 
  119000    1.2247817   -6.6633699    51.834373   0.03629858  0.040367049            3 
  120000    1.1990021   -6.6818659    52.188828  0.036242242  0.040337292            1 
  121000    1.2330097   -6.6539493    53.045148  0.036532471  0.040315217            2 
  122000    1.2263308   -6.6542725    53.080994  0.036257509  0.040291658            1 
  123000    1.2316095   -6.7169231    53.595337  0.036311203  0.040261342            3 
  124000    1.2445057   -6.6422482    54.285433  0.036482145  0.040235296            3 
  125000    1.2590588   -6.7170412    54.711765   0.03647451  0.040216442            1 
  126000    1.2233495   -6.6611081    55.353058  0.036609165  0.040202582            2 
  127000      1.22488   -6.6637897    55.746961  0.036579371  0.040183043            2 
  128000    1.2431767   -6.6270041    56.172681  0.036570756  0.040166119            2 
  129000    1.2467731   -6.7010982    56.637949  0.036587822  0.040145929            1 
  130000    1.2003793   -6.6360691    57.426958  0.036812152  0.040132256            1 
  131000    1.2194952   -6.6649994    57.628294   0.03665922  0.040117146            1 
  132000    1.2879209    -6.666088    58.045305  0.036644763  0.040102431            2 
  133000    1.2462059   -6.6668798    58.792015  0.036837102  0.040086259            1 
  134000     1.239943   -6.6682724    58.879647  0.036616696  0.040065795            1 
  135000    1.2395572   -6.6929057     59.35662  0.036639889   0.04004668            2 
  136000    1.2082824   -6.6899923    60.046771  0.036793365  0.040029489            1 
  137000    1.2287491   -6.6776291    60.636359   0.03688343   0.04001752            2 
  138000    1.2402096   -6.6522375    61.192748  0.036952142  0.040012811            1 
  139000    1.2319065   -6.6596469     61.53096  0.036889065  0.040001665            1 
  140000    1.2207156   -6.6232827    61.615948   0.03667616   0.03998595            2 
  141000    1.2360567   -6.6678585    62.176689  0.036747452  0.039969814            2 
  142000    1.2317326   -6.6648877     62.31021  0.036567025  0.039948592            1 
  143000    1.2235752   -6.6918045     62.50407  0.036424283  0.039921064            5 
  144000    1.2328031   -6.6715321     63.50643  0.036751406  0.039895351            2 
  145000     1.234095    -6.654125    63.640911  0.036575236  0.039869127            2 
  146000    1.2425075   -6.6275838    64.387468  0.036750838  0.039847442            2 
  147000    1.2552335   -6.6806507    64.850926  0.036763563  0.039827056            4 
  148000    1.2039994   -6.6313134    65.387612  0.036817349  0.039807751            2 
  149000    1.2218595   -6.6914145    65.953047  0.036886492   0.03979549            2 
  150000    1.2306909   -6.6937184    66.264142  0.036813412  0.039779608            1 
  151000    1.2351498   -6.6848106    66.427211  0.036659609  0.039762049            1 
  152000    1.2182739   -6.6772935    67.128455  0.036802881  0.039742479            1 
  153000    1.2145285    -6.689145    67.531698  0.036781971  0.039726217            1 
  154000    1.2217449   -6.6359673    68.011782  0.036802912  0.039710685            1 
  155000    1.2187272   -6.6758488    68.388062  0.036767775  0.039694531            2 
  156000    1.2439265   -6.6714761    68.588521  0.036639167  0.039672523            2 
  157000    1.1946402   -6.6502835    69.384438  0.036828258  0.039652069            2 
  158000    1.2220705   -6.6951972    69.656869  0.036738855   0.03963227            2 
  159000    1.2223713    -6.709664    70.102454  0.036741328  0.039612792            1 
  160000    1.2390416    -6.685766    70.739781  0.036843636  0.039593232            2 
  161000     1.234578   -6.7399573    71.139026  0.036821442  0.039576874            2 
  162000    1.2341697   -6.6596363    71.563406  0.036812452  0.039560799            3 
  163000    1.2343518   -6.6664335    71.582156  0.036596194  0.039539756            2 
  164000    1.2496098   -6.6590798    72.353666  0.036765074   0.03951768            1 
  165000    1.2261301   -6.6671021    72.827291   0.03678146  0.039498724            1 
  166000    1.2240868   -6.6938066    73.486464  0.036890795  0.039484104            1 
  167000    1.2320949   -6.6698175    73.973172   0.03691276  0.039472128            1 
  168000    1.2356787   -6.6353698    74.303016  0.036856655  0.039457068            1 
  169000    1.2013467   -6.6529006     74.60239  0.036786188  0.039436049            2 
  170000     1.208184   -6.6372053    74.896964  0.036714198  0.039414257            2 
  171000    1.2339742   -6.6584175    75.502036  0.036794365  0.039389976            1 
  172000    1.2340161    -6.668065    75.405715  0.036533777  0.039366463            3 
  173000    1.2469283   -6.6552931    76.092267  0.036653308  0.039342323            2 
  174000    1.2557632   -6.6637315    76.538893  0.036656558  0.039322086            1 
  175000    1.2187339   -6.6523301    76.970285  0.036652517  0.039301762            1 
  176000    1.2499207   -6.6802491    77.408794  0.036651891  0.039281952            2 
  177000    1.2209939   -6.6587354    77.722563  0.036592544  0.039260208            1 
  178000    1.2166839   -6.6678565    78.566816  0.036782217  0.039237391            2 
  179000    1.2351583   -6.6992567    78.851321  0.036709181  0.039218489            2 
  180000    1.1966438   -6.6054102    79.391454  0.036755303   0.03919785            2 
  181000     1.216795   -6.6811944    79.715225    0.0367013  0.039175773            2 
  182000    1.2180433    -6.681439    80.460302  0.036840798  0.039156223            1 
  183000    1.2145205   -6.6515642    80.690504   0.03674431  0.039139181            7 
  184000    1.2207141   -6.6797495    81.274445  0.036809078  0.039122415            3 
  185000    1.2199147   -6.6510741    81.707781  0.036805307  0.039109202            1 
  186000    1.2406187   -6.6549059    82.384418  0.036910581  0.039095229            3 
  187000    1.2197067   -6.6558542    83.047247  0.037008577  0.039081839            1 
  188000    1.2230147   -6.7527285    83.311774  0.036928978  0.039071001            2 
  189000      1.21171   -6.6528473    83.782446  0.036941114  0.039060506            1 
  190000    1.2164909    -6.657803    84.229592  0.036942803  0.039051563            1 
  191000    1.2092678   -6.7231443    84.688932  0.036949796  0.039042967            4 
  192000    1.2389468   -6.6491888    84.952968  0.036871948  0.039034022            3 
  193000    1.2312219   -6.6293952    85.573991  0.036949046  0.039026722            2 
  194000    1.2253602   -6.7025308    86.108234  0.036988073  0.039019915            2 
  195000    1.2292685   -6.6942097    86.606976  0.037011528  0.039011758            2 
  196000    1.2374165   -6.7036174    87.306831  0.037120251  0.039003505            2 
  197000    1.2306316   -6.6814816    87.757633  0.037122518  0.038996305            3 
  198000    1.2375816   -6.6403119    88.171712  0.037109306   0.03899139            2 
  199000    1.2280747   -6.6798839     88.70605  0.037146587  0.038988233            3 
  200000    1.2307279   -6.6950976    88.598632  0.036916097  0.038982704            1 
  201000    1.2177455   -6.6469007    89.488333  0.037101299  0.038977628            1 
  202000    1.1968297   -6.6678013    89.869207  0.037074755  0.038970397            2 
  203000    1.2443026   -6.7009793    89.899816  0.036904686  0.038961881            2 
  204000    1.2590759   -6.7320654    90.463138  0.036953896  0.038952255            1 
  205000    1.2109524   -6.7029905    91.414597  0.037160405  0.038945257            2 
  206000    1.2291365   -6.6761671    91.762188  0.037120626   0.03894151            3 
  207000    1.2167663   -6.6393962     92.57176  0.037267214  0.038938869            1 
  208000    1.2276139   -6.6779238       93.105  0.037301683  0.038937806            2 
  209000    1.2288988   -6.6802446    93.147218  0.037140039   0.03893417            3 
  210000    1.2077591   -6.7220487    93.623567  0.037152209  0.038930268            3 
  211000    1.2489539   -6.7164042    94.206952  0.037206537   0.03892617            1 
  212000    1.2166976   -6.7242744    94.335077  0.037081398  0.038920275            1 
  213000     1.212674   -6.6904532    95.016291  0.037173823  0.038916054            3 
  214000    1.2337875   -6.6868496     95.47994  0.037180662  0.038911291            2 
  215000      1.20792   -6.7152726    95.790922  0.037128264  0.038904923            2 
  216000    1.2159426   -6.6870356    96.647608  0.037286886  0.038900716            2 
  217000    1.2273267   -6.7084833    97.076194  0.037279644  0.038895575            1 
  218000    1.2333319     -6.70445    97.002197  0.037080351  0.038890071            1 
  219000    1.2089647   -6.6711437    97.789043  0.037210442  0.038884179            1 
  220000     1.188959   -6.7606587    98.120342  0.037166796   0.03887922            1 
  221000    1.2220234   -6.6795282    98.902435  0.037293527  0.038874541            3 
  222000    1.2182821   -6.6756896    99.201251  0.037237707  0.038871314            1 
  223000    1.2141988   -6.6965201    99.623976   0.03722869  0.038866845            2 
  224000    1.2055652    -6.690727    99.911361  0.037169405  0.038864544            2 
  225000    1.2351054   -6.7074627    100.44583  0.037202158  0.038861588            2 
  226000    1.2128968   -6.7184856    101.11206  0.037283207  0.038860854            1 
  227000    1.2116679   -6.7134737    101.70142  0.037335322  0.038857885            1 
  228000    1.1972259   -6.6992973    102.07455  0.037307948  0.038856165            2 
  229000    1.2320739   -6.6671391    102.44707  0.037280595  0.038854388            2 
  230000    1.2208903   -6.7297542    102.74028   0.03722474  0.038849984            1 
  231000    1.2141806   -6.6836432     103.6013  0.037374208  0.038846024            2 
  232000    1.2436645   -6.6794051    103.73008  0.037259366  0.038841342            1 
  233000    1.2163637   -6.7203783    104.19273  0.037264923   0.03883592            2 
  234000    1.1788401   -6.7395489    104.66244  0.037272949  0.038829754            1 
  235000    1.2162695    -6.700759    104.66068  0.037113718  0.038825414            1 
  236000    1.2073044   -6.7025154    105.56315  0.037275124  0.038820864            2 
  237000    1.2389869   -6.6982688    105.80228  0.037201927  0.038818523            3 
  238000    1.2324239   -6.6874145    106.61094   0.03732876  0.038815224            2 
  239000    1.2103767   -6.7028862    107.15145  0.037361035  0.038812666            1 
  240000    1.1932357   -6.6649518    108.11774  0.037540883  0.038812354            2 
  241000    1.1918156     -6.68344    108.23561  0.037425869  0.038811143            3 
  242000    1.2122574    -6.713718    108.67624  0.037422948  0.038810712            1 
  243000    1.2183951   -6.7144063    108.73982  0.037290748  0.038807209            1 
  244000    1.2107297   -6.6629797    109.96297  0.037555658  0.038807013            1 
  245000    1.2161035   -6.6842332    110.70748  0.037655605  0.038808262            2 
  246000    1.1923018   -6.6995029    110.83243  0.037544862  0.038809831            2 
  247000    1.2228727   -6.7131699    111.36854  0.037573732  0.038810859            1 
  248000    1.2021752   -6.7151323    111.90495   0.03760247  0.038813794            3 
  249000    1.2204549   -6.6502449    112.74467  0.037732487  0.038817814            2 
  250000    1.2304019   -6.7127159    113.38831  0.037796104   0.03882426            1 
  251000    1.1966398   -6.6940213    113.82065   0.03778906  0.038829976            4 
  252000    1.2004191   -6.7008884    114.18061  0.037758138  0.038836992            3 
  253000    1.1900737   -6.6923317    114.37231   0.03767204  0.038842547            5 
  254000    1.1852178    -6.676108    114.76099  0.037651243  0.038846153            1 
  255000    1.2083447   -6.6566882    115.57172  0.037768535  0.038849236            4 
  256000    1.2211077   -6.7257049    115.61714  0.037635788  0.038852578            2 
  257000    1.1892312   -6.7013414    116.03712  0.037625527  0.038854883            1 
  258000    1.2380072   -6.7072359    116.72616  0.037702249  0.038856712            3 
  259000    1.2138054   -6.6884278    116.91898  0.037618719  0.038858505            2 
  260000    1.2041983   -6.6959938    117.23183  0.037574304  0.038859494            1 
  261000     1.194696   -6.6894923    118.30986   0.03777454  0.038862869            3 
  262000    1.2198874   -6.7483138    118.39863  0.037658598   0.03886532            3 
  263000    1.1958375   -6.6718578    118.77146  0.037633543  0.038868105            2 
  264000    1.2258329   -6.6938316    119.65467  0.037769782   0.03887052            1 
  265000    1.2194691   -6.7207531    119.67894  0.037634886  0.038872847            2 
  266000    1.1978539   -6.7125365    120.65404  0.037798884  0.038876944            4 
  267000    1.1896542   -6.6891859    121.38265  0.037884723  0.038881337            2 
  268000    1.2066057   -6.7177121    121.79722  0.037872269   0.03888752            2 
  269000    1.1965327   -6.7169493    121.57796  0.037663556  0.038892907            2 
  270000    1.2016574   -6.6826269    122.80355   0.03790233  0.038897061            1 
  271000    1.2354101   -6.7247398    122.69436  0.037728892  0.038901844            2 
  272000    1.2181501   -6.6922506      123.102  0.037715075  0.038903996            1 
  273000    1.2261842   -6.6720098    123.61985  0.037734996  0.038905029            6 
  274000    1.1983812   -6.6921866    124.10845   0.03774588  0.038906757            2 
  275000      1.19073   -6.7093993    124.60465  0.037758985   0.03890973            1 
  276000    1.1921877   -6.7188202    125.02088  0.037747849  0.038910783            3 
  277000    1.2233583   -6.7122077    125.21227  0.037669154  0.038911482            1 
  278000    1.2208677    -6.717872    125.59499  0.037648377  0.038911688            1 
  279000    1.2084729   -6.7359693    125.99582  0.037633161  0.038912086            3 
  280000    1.1935481   -6.7183857    126.70727  0.037710496  0.038911346            1 
  281000    1.2216806   -6.6820226    127.49056  0.037808589  0.038912469            2 
  282000    1.1962133    -6.715634    127.73281  0.037746101  0.038914756            1 
  283000    1.2279598   -6.7296315    128.23629  0.037760981   0.03891712            3 
  284000    1.2211861   -6.7121001    128.71103  0.037767321  0.038917536            2 
  285000    1.1915624   -6.6881763     129.3077   0.03780927  0.038919022            1 
  286000     1.227647   -6.7212166    129.74899  0.037805651  0.038920455            2 
  287000    1.1995606   -6.7161666    130.16824  0.037795657  0.038920917            1 
  288000    1.2117176   -6.7137361     130.3332  0.037712152  0.038921375            2 
  289000    1.2002657   -6.7005318    130.84694  0.037729799  0.038921375            1 
  290000    1.2097303   -6.7273776    131.47222  0.037779374  0.038920596            3 
  291000    1.2292249   -6.7626342    131.10505  0.037544403  0.038919931            2 
  292000    1.2259623   -6.7307747    131.93629  0.037653051  0.038917089            1 
  293000    1.2076391   -6.6649741    132.53392  0.037694516  0.038916188            2 
  294000     1.196484   -6.6869005    133.17444  0.037747858  0.038915586            3 
  295000    1.2119437   -6.7095773    133.62946  0.037748435  0.038914076            1 
  296000    1.2186405   -6.7131392     134.4927  0.037863936  0.038913883            1 
  297000    1.1774707   -6.7229021     134.7913  0.037820231   0.03891355            2 
  298000    1.2163256    -6.735061    134.91791  0.037728722  0.038913678            4 
  299000    1.1891944   -6.7431752    135.55893  0.037781196  0.038915582            1 
  300000    1.1898282   -6.7259103    136.15743  0.037821508  0.038914942            2 
  301000    1.2189948   -6.6798334    136.76978  0.037865388  0.038914832            2 
  302000     1.212093   -6.6973497    137.73494   0.03800633   0.03891533            2 
  303000    1.1908832    -6.708862    138.35482   0.03805138  0.038918539            2 
  304000    1.1560054   -6.7155601    138.65289   0.03800792   0.03892096            2 
  305000    1.1972754   -6.7478039    138.85058  0.037937317  0.038924966            2 
  306000    1.1831671   -6.7426115    139.05504  0.037869019  0.038929859            2 
  307000    1.2331293   -6.7204219    139.77359  0.037940714  0.038933702            2 
  308000    1.1831051   -6.6983457    139.91258  0.037855136  0.038937224            1 
  309000    1.1997366   -6.6891883    140.78847  0.037968842  0.038938486            1 
  310000    1.2150291   -6.7016631    141.06727  0.037921308  0.038939706            1 
  311000    1.2129977    -6.712669    141.04388  0.037793109  0.038939697            3 
  312000    1.1826027   -6.7039071    142.07472  0.037947309  0.038940259            1 
  313000    1.2330321   -6.7236668    142.08821  0.037829661  0.038939954            4 
  314000    1.2309183   -6.7306286    142.29355   0.03776368  0.038938884            1 
  315000    1.2223605   -6.7398042    142.98074  0.037825592  0.038938579            3 
  316000     1.211858   -6.7237881    143.22647  0.037770694  0.038936678            2 
  317000    1.1668688   -6.6941428    142.98397  0.037587795  0.038932405            3 
  318000    1.1808858   -6.7082757    143.07564  0.037493615  0.038926724            2 
  319000    1.1890713   -6.7354755     143.2015   0.03740896  0.038920913            1 
  320000    1.2050437   -6.7037807    144.58084  0.037651261  0.038914501            3 
  321000    1.1919784   -6.6993518    144.53643  0.037522437   0.03890815            1 
  322000    1.1795323   -6.7173539    144.52405  0.037402704  0.038900758            2 
  323000     1.211379   -6.7432854    145.51982  0.037543813  0.038895408            2 
  324000    1.2174323   -6.7373955    146.15657   0.03759171  0.038889801            1 
  325000     1.195413   -6.7227621    146.63429  0.037598536  0.038884228            2 
  326000     1.179631   -6.7208425    147.61047  0.037732738  0.038879924            2 
  327000    1.1995474    -6.714624    147.44095  0.037574147  0.038876704            1 
  328000    1.1965253   -6.6923118    148.47195  0.037721532  0.038872973            2 
  329000    1.2044487   -6.7220392    149.11212  0.037769027  0.038869574            2 
  330000    1.1885833   -6.6884271    149.35541  0.037716014   0.03886663            2 
  331000    1.1724042   -6.7621944    150.09129  0.037787335  0.038864165            1 
  332000    1.1858949   -6.7129236    150.79341  0.037849752  0.038862603            3 
  333000    1.1983303   -6.6958624    151.11409  0.037816338  0.038861328            4 
  334000    1.2269884   -6.7326721    151.27379  0.037742961  0.038859771            1 
  335000     1.167648   -6.7286221    151.47822  0.037681149  0.038858139            7 
  336000     1.192966    -6.728713    152.17146  0.037740939   0.03885734            2 
  337000    1.1784883   -6.7281582    152.91376  0.037812503  0.038855669            1 
  338000    1.1911636   -6.7248693    153.24762  0.037782943  0.038854137            2 
  339000    1.1771964   -6.7114879    153.80832   0.03780932  0.038853112            2 
  340000    1.1728068   -6.7291866    153.96112  0.037735568  0.038852067            1 
  341000    1.2201116   -6.7377841    154.40335  0.037732979  0.038849077            2 
  342000    1.2287288   -6.7521856    155.33254  0.037849059  0.038845867            1 
  343000    1.1994116   -6.6854448    155.77938  0.037847274  0.038843207            2 
  344000    1.2238974   -6.7098151    156.48489  0.037908161  0.038842944            2 
  345000    1.1837327   -6.7585012    156.78391  0.037870511  0.038842993            2 
  346000    1.1990026   -6.6666382    157.25317  0.037874076  0.038842386            5 
  347000    1.2047309   -6.7108021    157.67372  0.037865927  0.038841735            1 
  348000    1.2099022   -6.7644223    157.97503  0.037829269  0.038840895            3 
  349000     1.199391   -6.7268109    158.96777  0.037957919  0.038841259            1 
  350000    1.1753148   -6.7510229     159.5199  0.037980928   0.03884216            1 
  351000    1.2036416   -6.7273373    159.75095  0.037927576  0.038843373            1 
  352000    1.2094804    -6.757754    160.02493  0.037884689  0.038844487            1 
  353000    1.1842772   -6.7519512    160.38405  0.037862146  0.038845722            1 
  354000    1.2126079   -6.7323184    161.41189  0.037997149  0.038847867            5 
  355000    1.1878351   -6.7180952    162.14418  0.038062014  0.038850556            2 
  356000    1.1793523   -6.7311778    162.24907  0.037979651  0.038852498            2 
  357000    1.1926612   -6.7669519    163.24938  0.038106764  0.038854659            2 
  358000    1.1754625   -6.7499509    163.26566   0.03800411  0.038856425            1 
  359000    1.1931469   -6.7645637    163.91696  0.038049433  0.038857643            1 
  360000     1.198651   -6.7119294    164.85775  0.038161515  0.038859444            3 
  361000    1.2032438   -6.7258481    164.52921  0.037979966  0.038860726            4 
  362000    1.1800886   -6.7314191    166.16596  0.038251833  0.038863094            2 
  363000    1.1696756   -6.7712892    165.53267  0.038001071  0.038865902            2 
  364000    1.1829351   -6.7323896     166.2278  0.038055814   0.03886852            2 
  365000    1.2005798   -6.7768886    166.18833  0.037942541  0.038869582            3 
  366000    1.1950368    -6.754426     166.7603  0.037969103   0.03886992            2 
  367000    1.1841831   -6.7157017    167.38129  0.038006652  0.038870437            5 
  368000     1.178848   -6.7488408    167.52119  0.037935052  0.038870023            2 
  369000    1.1982564   -6.7052879    167.87427  0.037911985  0.038869462            4 
  370000    1.1966074    -6.757186    168.15775  0.037873367  0.038867216            2 
  371000    1.1951669   -6.7377597    168.92632  0.037943917  0.038865862            2 
  372000    1.2063599   -6.7714968    168.35039  0.037712901  0.038863887            5 
  373000    1.1716961   -6.7508131    169.41334  0.037849272  0.038861119            1 
  374000    1.1900088   -6.7512695    169.52812  0.037773644   0.03885878            1 
  375000    1.1983043   -6.7564531    169.57153  0.037682561  0.038856374            3 
  376000    1.2000876   -6.7218905    171.26093  0.037956765  0.038853723            1 
  377000    1.1904761   -6.7239438    170.56175  0.037701536  0.038849584            1 
  378000    1.1937407   -6.7387381    170.49445  0.037586961  0.038844284            2 
  379000    1.2035655   -6.7680837    171.33459  0.037672513   0.03883895            1 
  380000    1.2032569   -6.7445151    172.28162  0.037781056  0.038834325            2 
  381000    1.1911511   -6.7194919    172.58229  0.037747657  0.038830814            2 
  382000    1.1740163   -6.7221369    173.59396  0.037869538  0.038826849            2 
  383000    1.1594453   -6.7419894     173.7734  0.037809705  0.038823401            3 
  384000    1.2008937   -6.7290811    174.64022  0.037899354  0.038820936            1 
  385000    1.2005455   -6.7515328    174.94003  0.037865806  0.038819552            1 
  386000    1.1949212   -6.7063756    176.33805  0.038069527  0.038818422            2 
  387000    1.1926012   -6.7289656    176.03137  0.037905118  0.038817494            2 
  388000     1.209889   -6.7693324    175.81478  0.037760906  0.038815279            3 
  389000     1.191307   -6.7274996    176.96976   0.03791126     0.038813            3 
  390000     1.189908    -6.726211    177.01393  0.037823489  0.038810658            2 
  391000    1.1913508   -6.7701916    177.25107  0.037777295  0.038807447            2 
  392000    1.1707482   -6.7609498    177.60407  0.037755968  0.038803804            3 
  393000    1.1983805   -6.7375656    178.27298  0.037801734  0.038800215            2 
  394000    1.1832311   -6.7656553    178.54315  0.037762934  0.038797129            1 
  395000    1.2051457   -6.7035276     178.9333   0.03774964  0.038793656            3 
  396000    1.1914221   -6.7378647    179.65857  0.037806939  0.038790693            1 
  397000    1.1951417   -6.7737155    179.45893    0.0376698  0.038786413            2 
  398000    1.1960103   -6.7554155    179.74226  0.037634477   0.03878294            5 
  399000    1.2043082   -6.7497523    180.56099  0.037711151  0.038778485            1 
  400000     1.183321   -6.7561966    181.40137  0.037791952  0.038774579            1 
  401000    1.1666934   -6.7705684     181.7832  0.037777058  0.038771112            1 
  402000    1.2109308   -6.7616721    181.83151  0.037693099  0.038768524            2 
  403000    1.1893023   -6.7221065    183.13421  0.037868943  0.038767463            2 
  404000    1.1842168   -6.7169455    183.35195  0.037820121  0.038765353            1 
  405000     1.200121   -6.7096655     184.0313  0.037866523  0.038763436            1 
  406000    1.1791018   -6.7700619    184.81402  0.037933912  0.038762094            1 
  407000    1.1679968   -6.7477505    185.28407  0.037936951  0.038761449            1 
  408000    1.2007345   -6.7417752     185.7815  0.037945568  0.038760526            2 
  409000    1.2028538   -6.7354047    186.14934  0.037927738  0.038759179            3 
  410000    1.2033564   -6.6987214    187.04726  0.038017736  0.038758262            3 
  411000    1.2123171     -6.71407    186.76358  0.037867716  0.038757601            6 
  412000    1.1852409   -6.7172621    187.84181  0.037993894  0.038755622            4 
  413000    1.2118545   -6.7264599    188.38992  0.038012493   0.03875484            1 
  414000    1.1967296   -6.7379246    188.12333  0.037867014  0.038754145            1 
  415000    1.1382755   -6.7329553    189.06895  0.037965653   0.03875296            3 
  416000    1.2038836   -6.7550333    189.55199  0.037971152  0.038751888            2 
  417000    1.1747473   -6.7860001    189.58657  0.037887005  0.038751437            1 
  418000    1.1861661   -6.7653164    190.67892  0.038014139  0.038751209            1 
  419000    1.1646345   -6.7680854    190.86427  0.037960277  0.038750142            3 
  420000    1.1871245   -6.7522388    190.83041  0.037863176  0.038749403            1 
  421000    1.1792215   -6.7424432    191.07668  0.037821988   0.03874726            3 
  422000    1.1987587   -6.7761638    191.66555  0.037848647  0.038746067            1 
  423000    1.1788072   -6.7345046    192.58664   0.03794063  0.038744216            1 
  424000    1.1450305   -6.7531875    193.20629  0.037972934  0.038743131            2 
  425000    1.1653336   -6.7623772     193.1828  0.037878981  0.038742384            4 
  426000    1.1945406   -6.7271908    193.80156  0.037911104  0.038741549            1 
  427000    1.1677761    -6.751993    194.10199   0.03788095   0.03874026            2 
  428000    1.2106128   -6.7644101    194.66821  0.037902688  0.038738258            2 
  429000     1.188403   -6.7907005    194.07322   0.03769876  0.038735465            4 
  430000    1.1763951   -6.7626604    195.23389  0.037836025  0.038731954            4 
  431000    1.2019103   -6.7742366    194.77553  0.037659615  0.038729127            1 
  432000    1.1731887   -6.7308276    195.54042  0.037719989  0.038726076            1 
  433000    1.1861803   -6.7451982    195.56147  0.037636926  0.038721655            5 
  434000    1.2020029   -6.7518824    195.73474  0.037583475  0.038716988            5 
  435000     1.205379    -6.745511    196.49485  0.037642692   0.03871218            1 
  436000    1.1825675    -6.725768      197.598  0.037767201  0.038706375            1 
  437000      1.17152   -6.7575638     197.4079  0.037644528   0.03870133            2 
  438000    1.1931246   -6.7189681    197.62181  0.037599279  0.038695998            2 
  439000    1.1632648    -6.755108    198.63547  0.037706049  0.038692286            1 
  440000    1.1624481   -6.7576579    198.38982   0.03757383  0.038688017            3 
  441000      1.16785   -6.7468215    199.29055  0.037658834  0.038682955            2 
  442000     1.171602   -6.7545461    199.83947  0.037677125  0.038677676            1 
  443000    1.1806422   -6.7692311    200.09106  0.037639402  0.038672434            1 
  444000    1.1925219   -6.7834279    200.06627  0.037549976  0.038666621            2 
  445000    1.2083364   -6.7919606    200.09741  0.037471426  0.038660951            3 
  446000    1.1898591   -6.7692759    201.68512  0.037684067  0.038655477            2 
  447000    1.1612425   -6.7743533    201.45538  0.037556931   0.03864993            3 
  448000    1.1850447   -6.7623286    202.03408  0.037580743  0.038644543            2 
  449000    1.2022904    -6.728207    202.63092  0.037607818  0.038639409            2 
  450000    1.2082557   -6.7570731     203.0556   0.03760289  0.038633562            1 
  451000    1.1754462   -6.7570913    203.76168  0.037649978  0.038627225            1 
  452000    1.1887899   -6.7180539    204.08599  0.037626473  0.038622154            2 
  453000    1.1796196   -6.7674117    203.34496  0.037407093  0.038615037            2 
  454000    1.1683036   -6.7762505    204.10722  0.037464614  0.038607409            1 
  455000    1.1886156   -6.7808918    203.97831  0.037358664  0.038599881            2 
  456000    1.1907142   -6.7799705    204.21479  0.037319954   0.03859264            5 
  457000    1.1422369   -6.7782146     204.8259  0.037349726  0.038584556            1 
  458000    1.1710008   -6.7600307    205.45618  0.037382856  0.038575977            2 
  459000    1.1999612   -6.7395284    205.89149  0.037380445  0.038567664            3 
  460000    1.1553285   -6.7828178    206.38784  0.037389101  0.038559555            1 
  461000    1.1902237   -6.7266628    207.28285  0.037469785  0.038552364            3 
  462000    1.1990708   -6.7332302    207.37808  0.037405859  0.038545387            2 
  463000    1.1768776   -6.7151235    208.04004  0.037444212  0.038538811            2 
  464000    1.1720151   -6.7843701    208.33272  0.037416078  0.038532604            1 
  465000    1.1690519    -6.758776    209.13623  0.037479612   0.03852568            1 
  466000    1.1693634   -6.7451358    210.50478  0.037643916  0.038519872            1 
  467000    1.1940012   -6.7443384    210.48992  0.037560656  0.038514742            2 
  468000    1.1534173    -6.760633    210.38267  0.037461302  0.038509311            1 
  469000    1.1880957   -6.7638395    211.01476  0.037493738  0.038503649            2 
  470000     1.151264   -6.7636971    211.91629   0.03757381  0.038498296            3 
  471000    1.1614016   -6.8303745     211.4834  0.037417445  0.038492859            1 
  472000    1.1808558   -6.7831235    212.84814   0.03757912  0.038487315            2 
  473000    1.1831317   -6.8131849    212.55107  0.037447334  0.038482426            2 
  474000    1.1817576   -6.7501503    213.50022    0.0375352  0.038477274            1 
  475000    1.1603543   -6.8028079    212.67148  0.037310785  0.038471607            1 
  476000    1.1862547   -6.7480081    213.94611  0.037455551  0.038465888            2 
  477000     1.176675   -6.7492554    214.52802  0.037478689  0.038459983            3 
  478000    1.1898063   -6.8019958    214.36723   0.03737225  0.038453067            6 
  479000    1.1674027    -6.758313    214.63387  0.037340617  0.038445957            7 
  480000    1.1667526    -6.797729    215.15433  0.037353182  0.038438692            1 
  481000    1.1808769   -6.7998852    214.90905   0.03723303  0.038431139            3 
  482000    1.1566151   -6.7639527    215.39782  0.037240287  0.038423062            4 
  483000    1.1561414   -6.7619235    216.69765  0.037387449  0.038415403            3 
  484000    1.1790395   -6.7705913    216.16778   0.03721897  0.038408202            1 
  485000    1.1489805   -6.7528069    216.92018  0.037271509  0.038399995            3 
  486000    1.1918836    -6.761949    217.97492  0.037375673  0.038392524            3 
  487000    1.2168771   -6.7935938    217.15229  0.037158161  0.038384419            2 
  488000    1.1643907    -6.798404    217.89314  0.037208528  0.038376782            6 
  489000    1.1568317   -6.7803755    218.74104  0.037276932  0.038368902            2 
  490000    1.1971208   -6.7348282    219.81221  0.037383028  0.038360931            5 
  491000    1.1464408   -6.7693436    219.47602  0.037249834  0.038353639            2 
  492000    1.1496689   -6.7637133     219.5786  0.037191497   0.03834599            1 
  493000    1.1981024   -6.7657458    220.63698  0.037294959  0.038339608            2 
  494000    1.1813802   -6.8039961    221.35774   0.03734105  0.038333144            1 
  495000    1.1515461    -6.844637     221.1749  0.037234832  0.038327223            2 
  496000    1.1788199   -6.7752907    223.16092  0.037493435  0.038321157            1 
  497000     1.190251   -6.8147172    221.94221  0.037213651  0.038314742            3 
  498000    1.1580033   -6.7324091    223.86581  0.037460811  0.038308817            3 
  499000    1.1669074   -6.8104717    223.55212  0.037333353  0.038303516            1 
  500000    1.1625249    -6.792435    223.68813  0.037281356  0.038297684            2 
  501000    1.1614924   -6.8057067    224.35402  0.037317702  0.038291329            3 
  502000    1.1591956   -6.7636141    225.86579   0.03749432  0.038286005            3 
  503000    1.1633942   -6.8160974    224.91118  0.037261627  0.038280476            2 
  504000    1.1524423   -6.7812462    225.18773   0.03723342  0.038274595            1 
  505000    1.1689168   -6.7560127     226.9806  0.037455545  0.038269094            2 
  506000    1.1958875   -6.7633096    226.61364  0.037321087  0.038263712            2 
  507000    1.1868304   -6.7761343    227.48793  0.037391178  0.038257878            2 
  508000    1.2064908   -6.7814836    227.02619  0.037241829  0.038252279            1 
  509000    1.1789871   -6.7833606    227.70429   0.03727968  0.038246328            2 
  510000    1.1845116   -6.7572487    228.26974  0.037298977  0.038240133            1 
  511000     1.173057   -6.7886628    229.36588  0.037404743  0.038233867            3 
  512000    1.1594992   -6.7791874    228.35074  0.037166462  0.038227309            1 
  513000    1.1813989   -6.7929134    228.88145  0.037180223  0.038220299            2 
  514000     1.149634    -6.793669    229.61238  0.037226392  0.038212886            4 
  515000    1.1732282   -6.7852191    229.83619  0.037190321  0.038205615            1 
  516000    1.1975851    -6.755487    230.62827  0.037246168  0.038198054            2 
  517000    1.1463232   -6.8059935    230.56367  0.037163713   0.03819068            3 
  518000    1.1760223   -6.7685924    230.35483  0.037058371  0.038183299            4 
  519000    1.1706021   -6.7954803    231.31646  0.037141371  0.038176248            3 
  520000    1.1634283   -6.7828203    231.75073  0.037139541  0.038168644            1 
  521000    1.1696466   -6.8118398    231.45925  0.037021633  0.038161137            2 
  522000    1.1847067   -6.7857407    232.48683  0.037114756  0.038153661            2 
  523000    1.1577608   -6.7257197    232.88033   0.03710649   0.03814604            3 
  524000    1.1691081   -6.8354457    232.94512   0.03704598  0.038138495            1 
  525000     1.151418   -6.7401943    233.26082  0.037025527  0.038130863            1 
  526000    1.1801083   -6.7554479    233.95209  0.037064654  0.038123373            1 
  527000    1.1582152   -6.7888529    234.12516  0.037021689  0.038115182            1 
  528000    1.1691383   -6.7681746    234.02578  0.036935887  0.038105968            2 
  529000    1.1616809   -6.8082365    235.22888   0.03705559  0.038097484            4 
  530000    1.1880088    -6.790021    234.72154  0.036905902  0.038089035            2 
  531000    1.1635846   -6.7886946    235.64958  0.036982043  0.038080574            2 
  532000    1.1992411   -6.7679786      235.718  0.036923246  0.038071579            4 
  533000    1.1723351   -6.7826926    235.55255  0.036828103  0.038062492            3 
  534000     1.159069    -6.776017     236.1364   0.03685025  0.038053132            2 
  535000     1.183995   -6.7664874    237.90889  0.037057459  0.038044386            2 
  536000    1.1762255   -6.7907243    237.15093   0.03687048  0.038035815            4 
  537000    1.1738227   -6.8299067    237.38076  0.036837486  0.038026988            2 
  538000    1.1850051   -6.7503404    238.35887  0.036920518  0.038017615            1 
  539000    1.1734984   -6.7804445    238.61054  0.036890931  0.038008397            1 
  540000    1.1150507   -6.8007972    238.60914  0.036822398  0.037998241            1 
  541000    1.1751561   -6.8007851    238.79346  0.036782727  0.037988761            1 
  542000    1.1553823   -6.8309448    238.95016  0.036738955  0.037979015            1 
  543000    1.1546528   -6.7579859    239.31781  0.036727718  0.037969437            4 
  544000    1.1874009   -6.7659054    239.69318  0.036717706  0.037959372            2 
  545000    1.1908249   -6.7726904    240.17193  0.036723537  0.037948522            1 
  546000    1.1698139   -6.7729678    240.53215  0.036711257  0.037937748            2 
  547000    1.1788388   -6.7497812    240.68866  0.036667985  0.037926958            1 
  548000    1.1533021   -6.7890333    240.85184  0.036625888    0.0379164            2 
  549000    1.1958575    -6.755488    240.86265  0.036560815  0.037905345            1 
  550000    1.1561023   -6.7922356    241.06723  0.036525337   0.03789337            2 
  551000    1.1822217   -6.7519448    242.16855  0.036625612  0.037881064            5 
  552000    1.1558623   -6.8105776    242.16774   0.03655914  0.037868683            2 
  553000     1.174764   -6.8160758    241.67587  0.036418907  0.037856017            3 
  554000    1.1636006   -6.8218441    242.34991   0.03645456   0.03784367            3 
  555000    1.1598041   -6.7795316    242.31072  0.036382991  0.037830987            1 
  556000    1.1823776   -6.8040704    243.08913  0.036434222  0.037818736            3 
  557000    1.1745813   -6.7917326     244.5786  0.036591651   0.03780661            5 
  558000    1.1549819   -6.8012154    243.48639  0.036362962  0.037794641            3 
  559000    1.1646197   -6.7955852    244.55358  0.036457004  0.037782967            1 
  560000    1.1742472   -6.8139121    244.98636  0.036456303  0.037771226            2 
  561000    1.1815336   -6.8357046    244.87456  0.036374712  0.037759903            2 
  562000    1.1452155   -6.8174938     246.3837  0.036533764  0.037748566            1 
  563000    1.1885456   -6.8036267    246.62256  0.036504227  0.037737482            3 
  564000    1.1754943   -6.7728368    246.48997  0.036419913   0.03772676            2 
  565000    1.1736285   -6.8134948    246.64213  0.036377895  0.037715791            2 
  566000    1.1693726   -6.8063998    246.93639  0.036356948  0.037704284            2 
  567000    1.1658497   -6.8084688    247.66524  0.036399947  0.037691923            1 
  568000    1.1368483   -6.7980058    247.91526  0.036372544   0.03768024            2 
  569000    1.1681209   -6.7964287    248.20541  0.036351114  0.037668358            1 
  570000    1.1785204    -6.782935    248.46871  0.036325835     0.037656            4 
  571000    1.1469738   -6.8221911     248.9336  0.036330064  0.037643587            2 
  572000     1.166555    -6.780865    249.89218  0.036406203  0.037631077            1 
  573000     1.149009   -6.7737756    249.77048  0.036324968  0.037618739            2 
  574000    1.1545516   -6.8057814    248.91586  0.036137611  0.037606247            5 
  575000    1.1536625   -6.7987404    250.21817  0.036263503    0.0375931            3 
  576000    1.1244676   -6.8289306    249.66957  0.036121177  0.037579794            2 
  577000    1.1740663   -6.7976374    249.59703  0.036048098  0.037566165            3 
  578000    1.1427457   -6.7953732    250.26999  0.036082755  0.037551907            1 
  579000    1.1555536   -6.7617326    251.35071   0.03617598  0.037538187            3 
  580000    1.1368701   -6.8112158    250.81323  0.036036383  0.037523872            2 
  581000    1.1475817   -6.8160514    251.63295  0.036091933  0.037509573            1 
  582000    1.1436341   -6.8398368    251.48013  0.036008038  0.037495228            4 
  583000     1.166808   -6.8144315     252.3318   0.03606801  0.037480749            1 
  584000    1.1560788   -6.7775467     252.1373  0.035978497  0.037466554            3 
  585000    1.1410762   -6.8567006    252.50493  0.035969363  0.037452503            2 
  586000    1.1650315   -6.8519618    253.11155  0.035994247  0.037438093            2 
  587000    1.1663248   -6.8325151    253.19623  0.035944951  0.037423553            3 
  588000    1.1359015   -6.7822418    252.94227  0.035847828  0.037408745            3 
  589000    1.1453484   -6.7860538    253.76875  0.035903897  0.037393872            2 
  590000    1.1364107   -6.8333453      253.773  0.035843643  0.037379369            3 
  591000    1.1655691   -6.8513582    254.31012  0.035858731  0.037364885            1 
  592000    1.1395428   -6.8212639     255.7632  0.036002703  0.037350752            2 
  593000    1.1631609   -6.8480814    256.34354  0.036023544    0.0373371            3 
  594000    1.1885914   -6.8456398    256.04739  0.035921351  0.037323462            4 
  595000    1.1694822   -6.8214215    256.70319  0.035952828   0.03731041            1 
  596000    1.1727164   -6.7986225    257.75675  0.036039814  0.037297048            1 
  597000     1.176743   -6.8080287    257.32579  0.035919289  0.037283576            3 
  598000    1.1625004   -6.8395866    257.01277  0.035815604  0.037269896            3 
  599000    1.1650549   -6.7811229    258.00265  0.035893524  0.037256302            3 
  600000    1.1467623   -6.8030733    258.51384  0.035904699  0.037243294            2 
  601000    1.1481221   -6.7706508    259.03338  0.035916997  0.037229728            1 
  602000    1.1575738    -6.858262    258.30677  0.035756751  0.037216249            3 
  603000    1.1353844   -6.8175917    258.91414   0.03578139  0.037202417            3 
  604000    1.1783579   -6.8239009    258.82574  0.035709953  0.037188518            4 
  605000     1.157694   -6.8216802    259.55462  0.035751325  0.037174384            3 
  606000    1.1704094   -6.8396397    259.77998  0.035723319   0.03716007            1 
  607000    1.1757142   -6.8010134    260.03994  0.035700157  0.037145893            3 
  608000    1.1499979   -6.7953264    260.85894  0.035753692  0.037131357            3 
  609000    1.1588034   -6.8108639    260.62288  0.035662682  0.037116882            3 
  610000    1.1160979   -6.8012386    261.96889    0.0357881  0.037102685            2 
  611000    1.1564474   -6.7981887    261.86085  0.035714791  0.037089121            3 
  612000    1.1667133   -6.7747577    263.11897  0.035827746  0.037075458            3 
  613000     1.144115   -6.8155293    262.74157  0.035717994   0.03706231            2 
  614000    1.1401281   -6.7992212    264.51815  0.035900943  0.037049287            2 
  615000    1.1423857   -6.8486558    263.52391  0.035707847  0.037036289            1 
  616000    1.1608832     -6.79997     263.8095  0.035688515  0.037023197            2 
  617000    1.1570238   -6.7923115    264.44681   0.03571675  0.037009821            3 
  618000     1.169729   -6.8091981    265.83536  0.035846191  0.036996838            2 
  619000    1.1705259   -6.8159596    265.15502  0.035696691  0.036983761            2 
  620000    1.1629163   -6.8179897    264.89702  0.035604438  0.036970287            4 
  621000    1.1426329   -6.8220121    266.28348  0.035733156  0.036957288            1 
  622000     1.152889   -6.8276875    266.61614  0.035720276  0.036943836            3 
  623000    1.1531315   -6.7827704    266.64032  0.035666174  0.036931102            2 
  624000    1.1741424    -6.845995    266.71706  0.035619265  0.036918516            1 
  625000    1.1697239   -6.8608128     267.1681  0.035622414  0.036906381            1 
  626000    1.1659171   -6.7859862    268.25798  0.035710593  0.036894211            2 
  627000    1.1435658    -6.808143    268.44561  0.035678577  0.036882391            3 
  628000    1.1678197    -6.835783    269.10098  0.035708729  0.036870279            3 
  629000    1.1762688   -6.8319297    269.44693  0.035697792  0.036857928            2 
  630000    1.1656701   -6.7823274    270.19714  0.035740362  0.036845834            1 
  631000    1.1158423   -6.7791826    270.26994  0.035693335  0.036834336            3 
  632000    1.1490107   -6.8385051    270.48389   0.03566507  0.036822415            3 
  633000     1.162438   -6.7780859    270.85829  0.035658016  0.036810193            1 
  634000    1.1684215   -6.8183002    270.58392   0.03556571  0.036798072            3 
  635000    1.1345579   -6.8149274     272.1418  0.035714147  0.036786192            1 
  636000    1.1706392   -6.8606349    272.18409  0.035663534  0.036774118            2 
  637000    1.1299618   -6.8758711    272.59207   0.03566092   0.03676198            2 
  638000    1.1661845   -6.8328637    272.87971  0.035642595  0.036750787            3 
  639000    1.1636742   -6.8413533    272.90931  0.035590677  0.036739474            2 
  640000    1.1219152   -6.8158639    274.03584   0.03568175  0.036727973            3 
  641000    1.1257337   -6.8216627    274.45363  0.035680399  0.036716764            2 
  642000    1.1377725    -6.817392    275.47939  0.035757969  0.036705605            1 
  643000    1.1400859   -6.8268374    275.51158  0.035706529   0.03669476            2 
  644000    1.1200517   -6.8623374     275.2362  0.035615451  0.036684403            3 
  645000    1.1575054   -6.8340994    276.55685  0.035730859  0.036673777            2 
  646000    1.1705898    -6.815041     276.9837  0.035730611  0.036663012            2 
  647000      1.15322   -6.8359653    277.02382  0.035680554  0.036652799            1 
  648000    1.1242772   -6.8301852    277.87666  0.035735167  0.036641912            2 
  649000    1.1610462   -6.8323524    277.09047  0.035579156  0.036631433            2 
  650000    1.1449627   -6.8000836    279.54524  0.035839134  0.036621717            2 
  651000    1.1494978   -6.8167195    279.07302  0.035723633  0.036612476            2 
  652000    1.1699772   -6.8097448    280.31656  0.035827781  0.036603445            2 
  653000    1.1452778   -6.8490899     280.5079  0.035797333   0.03659403            3 
  654000    1.1320882   -6.8193131    281.37643  0.035853266  0.036584873            3 
  655000    1.1481129    -6.848331    280.91556  0.035739893  0.036575735            1 
  656000    1.1523386   -6.8390757    281.60992  0.035773618  0.036566557            2 
  657000    1.1433548   -6.8411968    282.17852  0.035791288  0.036557053            2 
  658000    1.1494495   -6.8495529    281.61578  0.035665626  0.036547479            1 
  659000    1.1495025   -6.8379823    282.71699  0.035750757  0.036538638            2 
  660000    1.1485954   -6.8283926    284.47266  0.035918266  0.036530081            3 
  661000    1.1453466   -6.8727898    284.79214  0.035904204  0.036521995            1 
  662000    1.1393387   -6.8009652    284.62813  0.035829322  0.036514027            1 
  663000    1.1246918   -6.8289453    285.74796  0.035916033  0.036506451            2 
  664000    1.1601489   -6.7934399    286.15477  0.035912998  0.036498749            3 
  665000    1.1593631   -6.8352509    285.76391  0.035810014  0.036491147            2 
  666000    1.1400997   -6.8709919    286.49319  0.035847497  0.036483427            2 
  667000    1.1464237   -6.8559372    287.32279    0.0358974   0.03647566            1 
  668000    1.1611081   -6.8385681    286.25578  0.035710551   0.03646768            2 
  669000    1.1298727    -6.868515    287.14913  0.035768452  0.036459622            3 
  670000    1.1354058   -6.8061741    288.41514  0.035872529  0.036451829            3 
  671000    1.1287817    -6.830038    288.06371  0.035775423  0.036444131            1 
  672000    1.1375135   -6.8173386    288.72053  0.035803638  0.036436248            2 
  673000    1.1423648   -6.8193135    289.36252   0.03582993  0.036428259            2 
  674000    1.1404813   -6.8946233    288.38627  0.035656067  0.036420047            2 
  675000    1.1312263   -6.8903075     288.6758  0.035638987  0.036411443            1 
  676000    1.1447439   -6.8353361    289.50715  0.035688751  0.036402327            1 
  677000    1.1260909   -6.8360435    289.47603  0.035632204  0.036393614            4 
  678000    1.1544231   -6.8188864    290.32956  0.035684558  0.036385386            1 
  679000    1.1604503   -6.8357216    290.68306  0.035675388  0.036376967            3 
  680000     1.152763   -6.8345764    291.58001  0.035732844  0.036368785            1 
  681000    1.1493182    -6.839744    292.08308  0.035741934  0.036360383            3 
  682000    1.1183315   -6.8628698    291.23163  0.035585488  0.036352438            1 
  683000    1.1380002    -6.825153    292.37415  0.035672785  0.036344138            2 
  684000    1.1417587   -6.8831454     292.6327  0.035652132  0.036335808            2 
  685000     1.174963   -6.8540718    292.97055  0.035641186  0.036327604            3 
  686000    1.1468146    -6.823031    293.86252  0.035697585  0.036319653            2 
  687000     1.124603   -6.8186541    293.52505  0.035604689  0.036311494            5 
  688000    1.1498305   -6.8433092     295.3299  0.035771548  0.036303123            1 
  689000    1.1663506   -6.8576308    294.24465  0.035588371  0.036295065            1 
  690000    1.1231207    -6.853613    294.87691  0.035613154   0.03628646            2 
  691000    1.1155645   -6.8513521    295.14051  0.035593405  0.036278132            3 
  692000    1.1489021   -6.8098885    295.94896  0.035639326  0.036269906            3 
  693000    1.1220088   -6.8083649    295.89377  0.035581262  0.036261291            2 
  694000    1.1117412   -6.8858309    295.77567   0.03551581  0.036252621            2 
  695000      1.14523   -6.8474231    296.92297  0.035602274  0.036243962            1 
  696000    1.1499926   -6.8472213    296.45684  0.035495312   0.03623492            2 
  697000    1.1607093   -6.7992867    297.32285  0.035547926  0.036226003            3 
  698000    1.1475589   -6.8142804    297.61764  0.035532191  0.036217293            1 
  699000    1.1533358   -6.7987101    298.46831  0.035582774  0.036208853            2 
  700000    1.1442206   -6.8553116    298.60489  0.035548201   0.03620025            2 
  701000    1.1525399   -6.8546291    298.30275  0.035461572  0.036191279            1 
  702000    1.1554944   -6.8313912    299.10359  0.035506124  0.036181905            2 
  703000    1.1637146   -6.8992879    298.24287  0.035353588  0.036173166            1 
  704000    1.1366718   -6.8185327    301.18896  0.035652102  0.036164943            2 
  705000    1.1428827   -6.7980642    301.67494  0.035658976  0.036156972            2 
  706000     1.131566   -6.8287025    301.03196  0.035532573  0.036148862            4 
  707000    1.1333434     -6.87069    301.09851  0.035490159  0.036140719            3 
  708000    1.1291066   -6.8501645    301.04079  0.035433238  0.036132136            3 
  709000    1.1202376   -6.8280268    300.97005  0.035374948  0.036123568            2 
  710000    1.1232825   -6.8862196    302.14776  0.035463352  0.036115008            2 
  711000     1.151432   -6.8653804    301.48682  0.035336008  0.036106493            2 
  712000    1.1290436   -6.8032199    303.28692  0.035497065  0.036098357            1 
  713000    1.1428988   -6.8263943    304.49087  0.035587993  0.036090143            2 
  714000    1.1183895   -6.8494431    304.19649  0.035503792  0.036082352            2 
  715000    1.1447179   -6.8325918    305.04678  0.035553238  0.036074743            2 
  716000    1.1084509   -6.8601302    305.45885  0.035551542  0.036067484            1 
  717000     1.123637   -6.8588723    304.96002  0.035443981  0.036059645            2 
  718000    1.1634331   -6.8096172    306.09046  0.035525819   0.03605177            1 
  719000    1.1468258   -6.8068838    306.23337  0.035492972  0.036043909            2 
  720000    1.1500512   -6.9066832    304.37541  0.035228635  0.036035552            1 
  721000    1.1383197   -6.8345549    306.06822   0.03537543  0.036027055            2 
  722000     1.161152   -6.8614479    306.67612  0.035396597  0.036018765            1 
  723000    1.1439356   -6.8480898    306.37716  0.035313182  0.036010492            1 
  724000    1.1254959   -6.8204572    307.01396  0.035337702  0.036001735            3 
  725000    1.1453193   -6.8772674    307.15911  0.035305645   0.03599293            2 
  726000     1.126799   -6.8717448    307.64327  0.035312588  0.035984144            1 
  727000    1.1070832   -6.8751897    307.60579  0.035259719  0.035975068            1 
  728000    1.1414765    -6.889954    307.58862   0.03520932  0.035965721            2 
  729000     1.130687   -6.8726206    308.48773  0.035263801  0.035956749            2 
  730000    1.1427157     -6.88776    307.99283  0.035158999  0.035947664            4 
  731000    1.1548591    -6.849028    309.61471  0.035295795  0.035939011            3 
  732000    1.1428705    -6.823839     309.7239  0.035260007  0.035930379            1 
  733000    1.1245927   -6.8578253    310.19695  0.035265683  0.035921344            4 
  734000    1.1432806   -6.8315237    310.62431  0.035266157  0.035912572            3 
  735000    1.1580785   -6.8532935     310.2851  0.035179717  0.035904097            4 
  736000    1.1412801   -6.8630271    311.01548  0.035214616  0.035895349            2 
  737000    1.1424329   -6.8917788    310.65675  0.035126273  0.035885931            1 
  738000    1.1137551   -6.8914666    310.18645   0.03502557  0.035876647            3 
  739000    1.1514053    -6.835712    311.97335  0.035179674  0.035867003            2 
  740000    1.1270261   -6.8611513    312.85836  0.035231797  0.035858033            3 
  741000    1.1469563   -6.8737637    312.16938  0.035106767  0.035848752            2 
  742000    1.1287991   -6.8761175    313.42838  0.035200852  0.035839625            2 
  743000    1.1513017   -6.8661569    311.86529  0.034978162  0.035830383            4 
  744000    1.1405138   -6.8337125    314.06657  0.035177708  0.035821327            1 
  745000    1.1292745   -6.8387692    313.71815  0.035091515  0.035812476            2 
  746000    1.1391758   -6.8330583    315.23721  0.035214165  0.035803655            2 
  747000    1.1341736   -6.8272556    316.10313  0.035263625  0.035795311            3 
  748000    1.1458663   -6.8202957    314.89129  0.035081471  0.035787078            4 
  749000    1.1475504   -6.8377166    316.26889  0.035187905  0.035778995            2 
  750000    1.1448718   -6.8438385    316.66132  0.035184591  0.035770843            1 
  751000    1.1377344       -6.864    317.16804  0.035193968  0.035762771            1 
  752000    1.1361424   -6.8481729    317.56557   0.03519122  0.035754297            3 
  753000    1.1293406   -6.8458375    318.66968  0.035266675  0.035746503            2 
  754000    1.1551323   -6.9047115    317.76306  0.035119702  0.035738565            3 
  755000    1.1414076   -6.8830114    318.87782  0.035196227  0.035730974            3 
  756000    1.1547802   -6.8708354    318.67972  0.035127836  0.035722976            1 
  757000    1.1384554   -6.8527174     319.7099  0.035194837  0.035714499            4 
  758000    1.1172102   -6.8720263     320.5381  0.035239457  0.035705899            2 
  759000    1.1268415   -6.8871509    318.61757  0.034982166   0.03569735            2 
  760000    1.1253493   -6.8299654    320.50482  0.035143072  0.035688407            2 
  761000    1.1466952   -6.8632068    318.56845   0.03488485  0.035679464            3 
  762000    1.1263612   -6.8305572    321.30454  0.035138291  0.035670352            2 
  763000    1.1681976   -6.8813146    319.25029  0.034867878  0.035661362            2 
  764000    1.1270242   -6.8692488    320.67264  0.034977383  0.035652191            3 
  765000    1.1212011   -6.8660466    321.30877  0.035000956  0.035642894            2 
  766000    1.1341557    -6.851467    321.08495  0.034930913  0.035633641            2 
  767000    1.1221112   -6.9053988    321.04536  0.034881069  0.035625057            2 
  768000    1.1170547   -6.8405153    321.95338  0.034934178  0.035616254            4 
  769000      1.10786   -6.8347475    322.14095  0.034909075  0.035607575            1 
  770000    1.1362698   -6.8182303    324.36937   0.03510491  0.035598914            1 
  771000     1.135431    -6.858105    324.28183  0.035049916  0.035590505            2 
  772000    1.1368116   -6.8804599    323.67124  0.034938605   0.03558165            1 
  773000    1.1323458    -6.908557    323.71031  0.034897618   0.03557278            2 
  774000    1.1430812   -6.8945031    323.93523  0.034876747  0.035563791            2 
  775000    1.1425195   -6.8983439    325.13756  0.034961028    0.0355548            2 
  776000    1.1091206   -6.8881138     326.3099  0.035041871  0.035546302            1 
  777000    1.1402011   -6.8777183    325.75114  0.034936845  0.035537556            2 
  778000    1.1243019   -6.8864983    327.10793  0.035037267  0.035529427            2 
  779000    1.1159464   -6.8716398    328.03559  0.035091526  0.035521825            3 
  780000    1.1329625   -6.9023502     327.6578  0.035006175   0.03551412            3 
  781000    1.1162066   -6.8280568    328.26637  0.035026288  0.035506491            2 
  782000    1.0986562   -6.8571982    329.82137  0.035147205  0.035499095            3 
  783000    1.1415709   -6.8484349    329.99307   0.03512059   0.03549177            1 
  784000    1.1239152   -6.8659949    330.16606  0.035094182  0.035484512            2 
  785000    1.1061219   -6.9099083    328.67458  0.034891144  0.035476614            1 
  786000    1.1498465   -6.8766539    329.10256  0.034892129   0.03546864            1 
  787000    1.1262088   -6.8755211    330.28172  0.034972652  0.035461033            1 
  788000     1.117959   -6.9152883     330.6565  0.034967904  0.035453569            4 
  789000    1.1125258   -6.8350625    331.91788   0.03505681   0.03544626            2 
  790000    1.1062769   -6.8465569    332.35615  0.035058666  0.035439044            1 
  791000    1.1063806    -6.887678    332.38992  0.035017901  0.035431782            2 
  792000    1.1290767    -6.871198    332.22336  0.034956162  0.035424363            2 
  793000    1.1318954    -6.870473    333.62333  0.035059199  0.035417156            2 
  794000    1.1630898   -6.8582242    333.32066  0.034983276   0.03541007            3 
  795000    1.1440744   -6.8988799    333.04505  0.034910383  0.035402787            1 
  796000    1.1202921   -6.8780246    334.56653  0.035025809  0.035395859            2 
  797000    1.1242124   -6.8534976    335.32359  0.035061019  0.035388834            1 
  798000    1.1259451   -6.8525749    335.75258  0.035061882  0.035381802            2 
  799000    1.1351473   -6.8861849    334.44667  0.034881797  0.035374674            2 
  800000    1.1222747   -6.8823184    335.09892  0.034906138  0.035367563            4 
  801000    1.1044159    -6.895691    336.50351  0.035008688  0.035360207            2 
  802000    1.1148776   -6.8783858    335.87271  0.034899492  0.035353071            1 
  803000     1.101204   -6.8850877    336.80649  0.034952936  0.035346183            1 
  804000    1.1210685   -6.8924776    336.55161  0.034883044  0.035338922            2 
  805000    1.1285198   -6.9036104    337.54048  0.034942079  0.035332009            2 
  806000    1.1165598   -6.9033595    337.16564  0.034859971  0.035324851            2 
  807000    1.0914603   -6.9257635    337.89639  0.034892234  0.035317374            2 
  808000    1.1336879   -6.8996451    338.48174  0.034909421  0.035309748            3 
  809000    1.1191754   -6.8704141    337.55326  0.034770629  0.035302339            2 
  810000    1.1335251   -6.8418838    339.01688   0.03487828  0.035294782            2 
  811000    1.1217276   -6.8154922    340.38117   0.03497546  0.035287354            1 
  812000    1.1200219    -6.895627    339.91355  0.034884395  0.035279907            3 
  813000    1.1196029   -6.8975691     339.5133  0.034800461  0.035272837            2 
  814000    1.0973849   -6.8617287    339.87591  0.034794831  0.035265587            3 
  815000    1.0919963   -6.8410645    340.07054  0.034772039  0.035258523            1 
  816000    1.0998297   -6.8752545    339.50793   0.03467197   0.03525119            4 
  817000    1.1141631   -6.8783639    340.47087   0.03472775  0.035243473            2 
  818000     1.112116   -6.8788306    340.80406   0.03471924  0.035235704            2 
  819000    1.1164118   -6.8543589    340.97405  0.034694145  0.035228117            2 
  820000    1.1239698   -6.8601358    342.66927  0.034824113  0.035220601            1 
  821000    1.1337294   -6.8495917    343.85474  0.034902024  0.035213631            2 
  822000    1.1392058   -6.9371751    342.97425  0.034770301  0.035206429            2 
  823000     1.106065   -6.8997419    344.36618  0.034868994  0.035199026            6 
  824000    1.0913794   -6.9012094    344.65113  0.034855495  0.035192012            3 
  825000    1.1249078   -6.8776865    344.74365  0.034822591  0.035185003            5 
  826000     1.136309   -6.8593197    344.55615  0.034761516  0.035178368            5 
  827000    1.1246418   -6.8663192    345.50264  0.034814857  0.035171555            4 
  828000    1.1128149   -6.8900083    345.85416  0.034808188  0.035164652            4 
  829000    1.1064523   -6.9028802    345.31601  0.034712104  0.035157539            1 
  830000    1.0993603   -6.8797136    346.05979  0.034744959  0.035150579            3 
  831000    1.1303761   -6.8585361    346.77789  0.034775159  0.035143734            3 
  832000    1.1212477   -6.8935032    347.35648  0.034791314  0.035136693            1 
  833000      1.12398   -6.9173402     346.9543  0.034709314  0.035129831            2 
  834000    1.1410817   -6.9050412    348.03115  0.034775295  0.035123203            2 
  835000    1.1152911   -6.8882843    349.51169  0.034881406  0.035116805            2 
  836000    1.1384558    -6.899923    348.89113  0.034777824  0.035110382            1 
  837000     1.100541   -6.8587998     349.0535  0.034752439  0.035103623            2 
  838000    1.1064117   -6.8958698    348.99345  0.034704997  0.035096859            4 
  839000    1.1250943   -6.8824725    348.80776  0.034645189  0.035089936            1 
  840000    1.1185201   -6.9183419    349.02497  0.034625494  0.035082299            1 
  841000    1.1420038   -6.8784147    349.26466  0.034608071  0.035074912            4 
  842000    1.1328516   -6.9079487    348.84969  0.034525899  0.035067325            2 
  843000     1.092678   -6.9279371    350.37567  0.034635792  0.035059549            2 
  844000    1.1470452   -6.8937267    350.84858  0.034641447  0.035052039            5 
  845000     1.114007    -6.878565    351.81663   0.03469592  0.035044829            3 
  846000    1.1073317   -6.8874865    351.50597  0.034624308  0.035037436            1 
  847000    1.1064832   -6.8857172    352.77357  0.034708144  0.035030189            2 
  848000    1.1190095   -6.8969948    351.85375  0.034576823  0.035023128            1 
  849000    1.1117297   -6.9280427    352.82622  0.034631549  0.035016001            2 
  850000    1.1349391   -6.8974551    353.10817  0.034618448  0.035008997            2 
  851000    1.1170804   -6.8869049    353.01806  0.034568944  0.035002021            3 
  852000    1.1143763   -6.8749934    354.68215  0.034691133  0.034994686            2 
  853000    1.1289674   -6.9257804    354.40819    0.0346237  0.034987645            4 
  854000    1.1545829   -6.8843707    355.07032  0.034647768  0.034980578            6 
  855000    1.1152448   -6.9015861    354.97092  0.034597556  0.034973665            2 
  856000    1.1155324   -6.9903167    354.70309  0.034531065  0.034966706            3 
  857000     1.103257   -6.9168139    355.57384  0.034575442   0.03495957            3 
  858000    1.1106191   -6.8759656    355.43108  0.034521278  0.034952386            2 
  859000    1.1214769   -6.8919008    355.22917  0.034461503   0.03494498            3 
  860000    1.1224637   -6.9058199    356.17568  0.034513147  0.034937765            3 
  861000    1.1352267   -6.8989827    356.57024  0.034511251  0.034930689            3 
  862000    1.1177782   -6.9373423    357.60814  0.034571553  0.034923325            1 
  863000    1.1229316   -6.8714838    358.01939  0.034571204  0.034916448            3 
  864000    1.1021851   -6.9183919    357.76677  0.034506826  0.034909518            1 
  865000    1.1269511   -6.8794055    359.08328  0.034593765  0.034902713            2 
  866000    1.1216479   -6.8612566    359.58745  0.034602333  0.034895777            1 
  867000    1.1160144   -6.9058357    359.20909  0.034526056  0.034888879            2 
  868000    1.1196736   -6.9073218    358.53785  0.034421837  0.034881478            3 
  869000     1.098574   -6.8521481    360.23871  0.034545331  0.034874099            1 
  870000    1.1182353   -6.8573785     360.8235  0.034561638  0.034866947            3 
  871000    1.1315115   -6.8783359    361.15216  0.034553402  0.034859795            1 
  872000    1.1167695   -6.8612128    360.53152  0.034454465  0.034852613            3 
  873000    1.1275534   -6.9043371     361.8128  0.034537304   0.03484547            3 
  874000    1.1483329   -6.9640063    361.43199  0.034461479  0.034838205            2 
  875000    1.1091433   -6.9050546    363.10952  0.034581859  0.034831307            2 
  876000     1.123065    -6.882479    361.47274  0.034386676  0.034824438            2 
  877000    1.0909952    -6.883541     362.8272  0.034476169  0.034817716            1 
  878000    1.1129973   -6.9039631    362.99831  0.034453143  0.034810824            2 
  879000    1.1034402   -6.8981948    363.58159  0.034469244  0.034804255            2 
  880000    1.1104269   -6.8765608    364.35379  0.034503199  0.034797329            6 
  881000    1.1224154   -6.8876868    365.36307  0.034559503  0.034790281            4 
  882000    1.0958032   -6.8480594    365.16828  0.034501916  0.034783634            3 
  883000    1.0964263   -6.9154104    364.64408  0.034413371  0.034776512            2 
  884000    1.1071017   -6.8881681     365.7899  0.034482457  0.034769432            1 
  885000    1.0869251   -6.8672949    366.87779  0.034545931  0.034762813            2 
  886000    1.0962666   -6.9236573    366.00091  0.034424465  0.034756476            2 
  887000    1.1117031   -6.9037677    367.70927  0.034546155  0.034749983            1 
  888000    1.1006005   -6.8951116     366.2241  0.034367878  0.034743556            3 
  889000    1.0987104   -6.9141738    365.77905    0.0342875  0.034736877            1 
  890000    1.0930162   -6.9085185    367.70468  0.034429277  0.034730157            2 
  891000    1.1203869   -6.8840007    368.37203  0.034453052  0.034723353            2 
  892000    1.1095548   -6.9091292    368.26267   0.03440421  0.034716448            1 
  893000    1.1292858   -6.9009443    368.85645  0.034421094  0.034709286            1 
  894000    1.1190179   -6.9062038    368.25929  0.034326929   0.03470185            2 
  895000    1.1190739   -6.8781246    368.71293  0.034330813   0.03469475            2 
  896000    1.1085307   -6.8969658    368.82512  0.034302932  0.034687478            4 
  897000    1.1169951   -6.8887165    368.17953  0.034204713  0.034679434            1 
  898000    1.1256897   -6.9352798    367.98928  0.034148968  0.034671575            1 
  899000    1.0864052   -6.9007226    368.43628  0.034152417  0.034663545            2 
  900000    1.1260568   -6.9085997     370.1513  0.034273268  0.034655931            3 
  901000    1.1383988   -6.9413989    368.60152  0.034091891  0.034648248            2 
  902000    1.1127967   -6.9130136    370.21714  0.034203357  0.034640533            2 
  903000    1.0994881   -6.9021823    370.95317  0.034233404  0.034632831            2 
  904000    1.0896513   -6.8849397    371.00585  0.034200392  0.034625179            2 
  905000    1.1023067   -6.8915807    370.22955  0.034091119  0.034617228            1 
  906000    1.1111424   -6.8852797    371.91828  0.034208819  0.034609585            1 
  907000    1.1058032   -6.9369003    371.73998   0.03415472    0.0346021            4 
  908000    1.1079751   -6.9301607    371.88084  0.034130033  0.034594252            3 
  909000    1.1020855   -6.8956114     373.6174  0.034251687  0.034586079            3 
  910000    1.1069235   -6.9158309    372.13688  0.034078469  0.034578402            1 
  911000    1.1164203   -6.9058096    372.80238  0.034101938  0.034570541            3 
  912000     1.125888   -6.9254173    371.83003  0.033975697  0.034562477            1 
  913000    1.1016862   -6.9426508    373.35289  0.034077481  0.034554444            2 
  914000    1.1151449   -6.8827109    374.42934  0.034138342  0.034546775            2 
  915000    1.1155253   -6.9108465    375.07911  0.034160211  0.034539401            2 
  916000    1.1261541    -6.947416    374.71569  0.034089855  0.034531968            2 
  917000    1.0884502   -6.9244429    375.85359  0.034156087   0.03452459            5 
  918000     1.124792    -6.938606     376.5528  0.034182353  0.034517574            1 
  919000    1.1083691   -6.9306427    377.90625  0.034267887  0.034510613            3 
  920000    1.1080638   -6.9063238    378.02349  0.034241258   0.03450405            2 
  921000    1.1168576   -6.9266035    377.30711   0.03413926  0.034496877            1 
  922000    1.1064286   -6.8582384    377.77697  0.034144701   0.03448987            3 
  923000    1.1468925   -6.9125591     379.1167  0.034228665  0.034482891            1 
  924000    1.1090572   -6.9407823    379.20237  0.034199348  0.034476065            1 
  925000    1.1008061    -6.903171    379.48098  0.034187475   0.03446957            1 
  926000    1.0976092    -6.918479    379.83629  0.034182531  0.034462829            2 
  927000    1.1323602   -6.9358639    379.45937  0.034111774  0.034456233            6 
  928000    1.1076466   -6.9436333    380.18994  0.034140619  0.034449424            1 
  929000    1.0899562   -6.8997225    381.93511  0.034260416  0.034442789            3 
  930000    1.1152815    -6.893991    381.58639  0.034192329  0.034436244            2 
  931000    1.0899521   -6.9236489    381.20418  0.034121391  0.034429649            3 
  932000    1.0882234   -6.9017223    382.44205  0.034195463  0.034422721            2 
  933000    1.0995444   -6.8907753    382.71026  0.034182767    0.0344158            2 
  934000    1.1024473   -6.9095286    382.09006  0.034090833  0.034409111            2 
  935000    1.1063429   -6.9130209    382.44292  0.034085822  0.034402292            2 
  936000    1.1196571   -6.9508707    381.78486  0.033990818  0.034395467            4 
  937000    1.1119581   -6.9078716    382.86884  0.034050947  0.034388709            2 
  938000    1.1008485   -6.9230951    382.20974  0.033956089  0.034381627            1 
  939000    1.0877369   -6.9437855    383.49301  0.034033813  0.034374367            3 
  940000    1.0888653   -6.9115688    383.42679  0.033991736  0.034367123            2 
  941000    1.1125679   -6.8855798    384.28113  0.034031272  0.034360061            2 
  942000    1.0821062   -6.9063245    385.32946  0.034087886   0.03435315            1 
  943000      1.08883   -6.9025621    385.59988  0.034075635   0.03434594            2 
  944000    1.1020079   -6.9249733    385.19697   0.03400397  0.034338801            3 
  945000    1.1111099    -6.899662    385.76309   0.03401791  0.034331668            2 
  946000    1.0636957   -6.9302548    385.53761  0.033962087  0.034324353            2 
  947000     1.094827   -6.9088368    386.20236   0.03398472  0.034316959            3 
  948000    1.0985817   -6.9403006    387.38875   0.03405316  0.034309589            3 
  949000     1.119083   -6.9110669    386.76374  0.033962393  0.034302561            2 
  950000    1.1029831   -6.8977095    387.21403  0.033966143  0.034295768            3 
  951000    1.1144292   -6.9034669    388.29506  0.034025155   0.03428873            2 
  952000    1.0825344   -6.8828738    388.33413  0.033992834  0.034281413            3 
  953000    1.1121554   -6.9112149    387.88721  0.033918084  0.034274048            1 
  954000    1.1069112   -6.9384691    389.01013  0.033980619  0.034266632            1 
  955000    1.1049436   -6.9206005    389.62931  0.033999067  0.034259498            3 
  956000    1.0732892   -6.9099116    389.06107   0.03391397  0.034252105            2 
  957000     1.086649   -6.8983451     389.5219  0.033918661  0.034244949            2 
  958000    1.0928112   -6.8954689    389.45791  0.033877689  0.034237714            2 
  959000    1.0924544   -6.9474464     390.2939  0.033915007  0.034230234            2 
  960000    1.0855401   -6.9088918    390.27965  0.033878442  0.034223215            1 
  961000    1.0869463   -6.9075988    391.49182  0.033948302  0.034216436            2 
  962000    1.0854411     -6.92832    391.34458  0.033900258  0.034209514            2 
  963000    1.1059423   -6.9612489     390.4898  0.033791087  0.034202745            3 
  964000    1.0992064   -6.9260858    391.94206  0.033881575   0.03419566            1 
  965000    1.0929302   -6.9392476    391.41835  0.033801239  0.034188693            3 
  966000    1.1151628    -6.903553    393.45408  0.033941864   0.03418174            2 
  967000    1.1071505   -6.9297104    393.37568  0.033900007  0.034175044            2 
  968000    1.1056286    -6.941036    392.44779  0.033785106  0.034167919            2 
  969000    1.0869472   -6.9243041    392.81482  0.033781804  0.034160798            3 
  970000    1.0975365   -6.9078956    395.52401  0.033979726   0.03415358            1 
  971000    1.0816958   -6.9368497    393.54325  0.033774738  0.034146686            2 
  972000    1.0735402     -6.92435    393.53621  0.033739387  0.034139355            2 
  973000    1.1189847   -6.9236809    395.01614  0.033831461  0.034132281            2 
  974000    1.0908327   -6.9280737    394.93074   0.03378942  0.034124964            2 
  975000    1.0906547   -6.9222111    395.44314  0.033798559   0.03411748            2 
  976000    1.0824265   -6.9325511    395.36691  0.033757421  0.034110194            2 
  977000    1.0873868   -6.9582299    394.46062  0.033645566  0.034102814            7 
  978000    1.0814982   -6.9239082    395.32882  0.033685142  0.034095468            2 
  979000    1.1294634   -6.9424774     397.1909  0.033809236  0.034088099            2 
  980000    1.0794287   -6.9782106    395.09702  0.033596685  0.034080478            3 
  981000     1.093978   -6.9430128    397.02397  0.033726127  0.034072883            2 
  982000    1.0581968   -6.9002103    399.02192  0.033861331  0.034065473            3 
  983000    1.0799299   -6.9464863     397.6569  0.033711165  0.034058165            1 
  984000    1.0913536   -6.8974979    398.84344  0.033777392  0.034051159            1 
  985000    1.1075581   -6.9238441    398.84583  0.033743302  0.034044181            2 
  986000    1.1005939   -6.9433147    398.61809  0.033689832  0.034036929            3 
  987000    1.0888511   -6.9173509    398.78233  0.033669565  0.034029829            2 
  988000    1.0779692   -6.9171687    400.84451  0.033809422  0.034023003            1 
  989000    1.1008916   -6.9395701    399.86689  0.033692862  0.034015634            1 
  990000      1.08452   -6.9689191    399.54886  0.033632059  0.034008303            2 
  991000     1.094364   -6.9264221    399.93791  0.033630837  0.034000922            4 
  992000    1.0957252   -6.9208112    400.21519  0.033620227  0.033993773            3 
  993000    1.1086529     -6.93788    401.27931  0.033675672  0.033986541            3 
  994000    1.0884421   -6.9319972    401.75943  0.033682045  0.033979261            2 
  995000    1.0861012   -6.9153641    401.63721  0.033637957  0.033971829            2 
  996000    1.0877641   -6.8947192    402.93681   0.03371292  0.033964469            1 
  997000    1.0924992   -6.9104752    401.98798  0.033599798  0.033957328            1 
  998000    1.0658237   -6.9834383     402.3773  0.033598639  0.033949733            1 
  999000    1.0995006    -6.946129    404.27706  0.033723478  0.033942525            2 
 1000000    1.0904144   -6.9313837    405.49164   0.03379097  0.033935679            2 
 1001000    1.0950601   -6.9243068    405.01571  0.033717591  0.033928745            1 
 1002000    1.0881035   -6.9672167    402.90455  0.033508362  0.033921539            3 
 1003000    1.0712392   -6.9161939    404.51272  0.033608568  0.033914513            4 
 1004000    1.1016759   -6.9386509    404.69382  0.033590124  0.033907609            3 
 1005000    1.0779415   -6.9870789    404.45849  0.033537188  0.033900304            3 
 1006000    1.0874974   -6.9500779    404.93279  0.033543141  0.033893041            1 
 1007000     1.103018    -6.936723    405.19648  0.033531652   0.03388583            4 
 1008000    1.0813987   -6.8733911    407.16566  0.033661182  0.033878362            4 
 1009000    1.0806899   -6.9058063    407.12944   0.03362483  0.033871297            1 
 1010000    1.0750087   -6.9819043    406.00734  0.033498955   0.03386395            2 
 1011000    1.0929755   -6.9844128    406.17627  0.033479745  0.033856494            2 
 1012000    1.0675039   -6.9934845    406.13499  0.033443263  0.033848882            2 
 1013000    1.0879725    -6.955026    406.07408  0.033405238  0.033841325            3 
 1014000    1.1053298   -6.9142257     407.2636  0.033470053  0.033833592            5 
 1015000    1.1160294   -6.9628697    407.18102  0.033430297  0.033826013            2 
 1016000    1.0834979   -6.9521203    407.99404  0.033464078  0.033818331            1 
 1017000    1.0823212    -6.932829    406.90959  0.033342313  0.033810491            2 
 1018000     1.090009    -6.973404    405.75186  0.033214789  0.033802504            2 
 1019000    1.0919096   -6.9321472    406.68177  0.033258241  0.033794443            5 
 1020000    1.0969393   -6.9336084    409.17167  0.033429058  0.033786605            4 
 1021000    1.0852191   -6.9516345    408.91604  0.033375452  0.033778663            2 
 1022000    1.0957324   -6.9418566    407.41872  0.033220705  0.033770326            3 
 1023000    1.1035628   -6.9637638    407.51634  0.033196183  0.033761832            2 
 1024000    1.0868651   -6.9399096    408.95716  0.033281019  0.033753386            1 
 1025000    1.0810444    -6.969925    409.68106  0.033307403  0.033744891            2 
 1026000    1.0932996   -6.9693552    409.65391  0.033272734  0.033736839            3 
 1027000    1.1061979   -6.9441822    409.52575  0.033229938  0.033728486            3 
 1028000    1.1084982   -6.9132169    410.30341  0.033260652  0.033720403            2 
 1029000    1.0780668   -6.9296274    410.98525  0.033283548  0.033712399            2 
 1030000     1.104039   -6.9611156    409.88539  0.033162249  0.033704547            3 
 1031000    1.0990663     -6.94324    412.82226  0.033367463  0.033696561            2 
 1032000    1.0599085   -6.9353276    411.79225  0.033251958   0.03368871            4 
 1033000    1.0858042   -6.9491123    412.97057  0.033314825  0.033681099            2 
 1034000    1.1069366   -6.9963294     412.9097    0.0332777  0.033673552            2 
 1035000     1.065304   -6.9213731    413.10763  0.033261484  0.033665663            2 
 1036000    1.0803693   -6.9519964    413.70215    0.0332772  0.033657991            3 
 1037000    1.0846338   -6.9315281    412.43252  0.033143082  0.033650153            4 
 1038000    1.1050479   -6.9576709    414.61409  0.033286295  0.033642458            3 
 1039000    1.1101072   -6.9739964    414.24819  0.033224911  0.033634648            1 
 1040000    1.0966344   -6.9783359    414.49796  0.033212978  0.033626838            2 
 1041000    1.1105773   -6.9263998    415.27649  0.033243395  0.033619108            1 
 1042000    1.0748704   -6.9296487    415.95366  0.033265647  0.033611669            2 
 1043000    1.0826322   -6.9691824    415.36468  0.033186695  0.033603812            3 
 1044000    1.0672687   -6.9991474    415.78809  0.033188705  0.033595843            3 
 1045000    1.0739336   -6.9437016    417.97869  0.033331634  0.033588357            2 
 1046000    1.0899187   -6.9754039    416.37837  0.033172273  0.033580958            3 
 1047000    1.1015452   -6.9762338    417.24048  0.033209207  0.033573464            3 
 1048000    1.0818474   -6.9678152    417.17764  0.033172522  0.033565761            3 
 1049000    1.0778819   -6.9898039    417.02442  0.033128727  0.033558091            1 
 1050000    1.0799416   -6.9974954    417.83307  0.033161355  0.033550639            2 
 1051000    1.0824711   -6.9151852    419.72053  0.033279459  0.033543364            2 
 1052000     1.073969    -6.954812    419.49096  0.033229638  0.033536164            1 
 1053000    1.1095828    -6.955536    420.78229  0.033300276  0.033528952            1 
 1054000    1.0927264   -6.9198315    419.41175  0.033160322  0.033521704            1 
 1055000    1.0615728   -6.9241347    421.00117  0.033254437  0.033514392            1 
 1056000    1.0836766   -6.9617455    419.78915    0.0331273   0.03350719            3 
 1057000    1.0831316   -6.9896559     420.4482  0.033147919  0.033500031            2 
 1058000    1.0708988   -6.9439349    421.79326  0.033222531  0.033492552            1 
 1059000    1.0774502   -6.9696704    421.08378   0.03313533   0.03348506            2 
 1060000    1.0493117   -6.9499098    422.10156  0.033184085  0.033477554            5 
 1061000    1.0713116    -6.965261    421.54922  0.033109427  0.033470166            2 
 1062000    1.0711574   -6.9841379    422.49706  0.033152626  0.033462748            2 
 1063000    1.0845389   -6.9699645    424.09229  0.033246495   0.03345548            5 
 1064000     1.096515   -6.9851692    423.25702  0.033149829  0.033448441            5 
 1065000    1.0774827    -6.983001    422.79231   0.03308234  0.033441022            3 
 1066000    1.0682796   -6.9345126    425.41688  0.033256479  0.033433615            1 
 1067000    1.0583487   -6.9081252    424.01971  0.033116191  0.033426269            2 
 1068000    1.0787686   -6.9524322    424.32773  0.033109217  0.033418983            2 
 1069000    1.0660588   -6.9592233    424.94817  0.033126611  0.033411458            1 
 1070000    1.0616839   -6.9241897    425.98303  0.033176249  0.033404043            2 
 1071000    1.0626133   -6.9978982    424.56682  0.033035078  0.033396539            4 
 1072000    1.1081696   -6.9680276     424.9551  0.033034445  0.033388958            3 
 1073000    1.0593201   -6.9292558    426.92276  0.033156474  0.033381483            2 
 1074000    1.0886033   -6.9888748    425.51136  0.033016089  0.033374067            3 
 1075000     1.107032   -7.0038361    424.89555   0.03293764  0.033366415            1 
 1076000    1.0716509   -6.9830255    425.99367  0.032992075   0.03335896            2 
 1077000    1.0855341   -6.9771781    427.26333  0.033059682  0.033351529            3 
 1078000    1.0880644    -6.957982    426.91626  0.033002184  0.033343929            2 
 1079000    1.0639596   -6.9509743    428.55265  0.033097981  0.033336485            3 
 1080000    1.0801245   -7.0220161    427.25896  0.032967513  0.033329099            2 
 1081000    1.0620679   -7.0273292    426.84061  0.032904765  0.033321623            2 
 1082000     1.084325   -6.9642548    428.99416  0.033040215  0.033314401            2 
 1083000    1.0779371   -6.9938403    428.19113  0.032947917  0.033306977            1 
 1084000    1.0614226   -6.9752942    428.38848  0.032932694  0.033299417            3 
 1085000    1.0787857     -6.97985     428.7798  0.032932397  0.033291745            1 
 1086000    1.0660998   -6.9640472    429.45442  0.032953838  0.033284165            2 
 1087000    1.0829376   -6.9684886    429.63474  0.032937346  0.033276457            3 
 1088000    1.0833544   -6.9529806    429.99294  0.032934509  0.033268776            2 
 1089000    1.0689472   -6.9888571    429.31319  0.032852249  0.033261226            5 
 1090000    1.0518798   -6.9706592    431.26652  0.032971447  0.033253599            3 
 1091000    1.0612996   -6.9804853    430.83449  0.032908226  0.033246104            1 
 1092000    1.0475669   -6.9676513    430.94788  0.032886743  0.033238603            2 
 1093000    1.0793598   -6.9706989    431.97699  0.032935117  0.033231018            3 
 1094000     1.063335   -6.9920133    430.04014  0.032757475  0.033223329            2 
 1095000    1.0677863    -6.971716    433.40442  0.032983594  0.033215923            2 
 1096000    1.0571086   -6.9341266    431.91692  0.032840399  0.033208574            2 
 1097000    1.0993906   -6.9500064    433.39092  0.032922434  0.033201439            2 
 1098000    1.0682583   -7.0122481     433.0959  0.032870059  0.033194079            3 
 1099000    1.0778574   -7.0102312    433.89167  0.032900491  0.033186834            3 
 1100000     1.076456   -6.9593563    435.68793  0.033006661  0.033179695            1 
 1101000    1.0688042   -6.9935633    434.24397  0.032867391  0.033172582            1 
 1102000    1.0518464   -6.9691825    434.80123  0.032879706  0.033165414            1 
 1103000    1.0810453   -6.9876543    434.35502  0.032816185  0.033158064            3 
 1104000    1.0786231    -6.981624    435.39776  0.032865169  0.033150901            2 
 1105000    1.0891427    -6.941379     435.5602  0.032847677  0.033143963            2 
 1106000    1.0678957    -6.976811    437.38103  0.032955171  0.033136892            6 
 1107000    1.0502694    -6.962437    438.66696  0.033022204   0.03312996            1 
 1108000    1.0697199   -6.9954313    438.15326  0.032953765  0.033122921            4 
 1109000    1.0733933   -6.9703043    438.28098  0.032933648   0.03311593            1 
 1110000    1.0545935   -6.9578218    438.53059  0.032922717  0.033109132            1 
 1111000    1.0544936   -6.9688846    440.21992  0.033019796  0.033102424            5 
 1112000    1.0675196   -6.9869759    437.86684  0.032813762  0.033095868            3 
 1113000    1.0764912   -6.9603145    440.80141  0.033003999  0.033089212            3 
 1114000    1.0915338   -7.0039492    439.05202  0.032843509   0.03308254            3 
 1115000    1.0625994   -6.9499232    439.74649  0.032865956   0.03307566            2 
 1116000     1.074585   -6.9708814    440.82208  0.032916822  0.033068734            2 
 1117000    1.0887008    -6.982725    440.74151  0.032881342  0.033062002            2 
 1118000    1.0679944   -6.9525091    440.69351  0.032848354  0.033055101            2 
 1119000    1.0909086   -6.9832103    441.82786  0.032903474  0.033048102            1 
 1120000    1.0836764   -7.0079217    441.39533  0.032841914  0.033041089            1 
 1121000    1.1033904   -6.9697489    441.89394  0.032849683  0.033034015            1 
 1122000    1.0803376   -6.9525611    441.84887  0.032817058   0.03302712            2 
 1123000    1.0757085   -6.9598349    442.03002  0.032801278  0.033020105            3 
 1124000     1.049161   -6.9590933    443.29987  0.032866242  0.033013177            2 
 1125000    1.0798778   -6.9502253    444.07372   0.03289435  0.033006344            2 
 1126000    1.0629692    -7.025194     442.1993  0.032726414  0.032999275            2 
 1127000    1.0620468   -7.0270599    442.59525  0.032726653  0.032992213            3 
 1128000    1.0852877   -6.9797583    444.95426  0.032871916  0.032985096            4 
 1129000    1.0890019   -7.0202878    443.80655  0.032758086  0.032977875            2 
 1130000    1.1008206   -6.9455344    445.26952  0.032836985  0.032970824            6 
 1131000    1.0655876   -6.9987793    443.83241  0.032702064  0.032963713            2 
 1132000    1.0905242    -6.942265    443.40312  0.032641573  0.032956592            2 
 1133000    1.0945838   -6.9938966    444.98787  0.032729323   0.03294961            2 
 1134000    1.0656609   -6.9925862    445.00249  0.032701535  0.032942602            1 
 1135000    1.0598192   -6.9452153    446.68443  0.032796214  0.032935747            2 
 1136000    1.0713594   -6.9930079     446.7339  0.032770973  0.032928858            1 
 1137000    1.0707819   -6.9933122    446.76829  0.032744671  0.032921894            3 
 1138000    1.0626676   -7.0039426    444.79637  0.032571498  0.032914764            2 
 1139000    1.0909794   -7.0045131    445.68392  0.032607837  0.032907381            1 
 1140000    1.0828511   -6.9693234     446.4608  0.032636023  0.032900188            1 
 1141000    1.0793408   -7.0114756    446.66516  0.032622346  0.032893009            2 
 1142000     1.077017   -7.0025762    446.95105  0.032614642  0.032885867            2 
 1143000    1.0722879   -6.9955222    448.37834  0.032690167  0.032878599            2 
 1144000    1.0673243   -6.9888264    447.26006  0.032580132  0.032871206            1 
 1145000    1.0672863   -6.9851609    447.55796  0.032573359   0.03286397            1 
 1146000    1.0696422   -7.0119013    448.24632  0.032594991  0.032856665            3 
 1147000    1.0702327   -6.9569936    449.20681  0.032636356  0.032849652            2 
 1148000    1.0493234   -7.0204822    449.04583  0.032596242  0.032842493           11 
 1149000    1.0563152   -6.9821644    450.63684  0.032683263  0.032835388            4 
 1150000    1.0565494   -7.0138578    449.99592    0.0326084  0.032828211            3 
 1151000    1.0838403   -6.9702911    449.85432  0.032569818   0.03282115            1 
 1152000     1.061362   -6.9822415    449.41789  0.032509975  0.032814203            1 
 1153000    1.0761991   -6.9914374    451.50257  0.032632449  0.032807191            2 
 1154000    1.0629001   -6.9723826    449.70696  0.032474506  0.032799999            2 
 1155000    1.0565511   -7.0179715    449.54856  0.032434961  0.032792804            1 
 1156000    1.0857697   -6.9914179    451.76059  0.032566363  0.032785486            1 
 1157000    1.0794119   -6.9765315    451.48701  0.032518511  0.032778156            5 
 1158000    1.0782866   -7.0141228    451.72839    0.0325078  0.032770643            2 
 1159000    1.0592957   -6.9203708    452.11361  0.032507449  0.032763572            3 
 1160000    1.0670852   -6.9793433     452.3768  0.032498333  0.032756249            4 
 1161000    1.0595582   -6.9740399    451.52551  0.032409238  0.032748859            1 
 1162000    1.0697267   -6.9972954    451.78474  0.032399938  0.032741297            2 
 1163000    1.0629241   -6.9383391    451.97788  0.032385918  0.032733755            3 
 1164000    1.0566614   -7.0394347    452.69821  0.032409666  0.032726422            2 
 1165000    1.0587234   -6.9770822    453.13752   0.03241327  0.032718875            2 
 1166000     1.086019   -7.0208969    454.82564  0.032506121  0.032711406            3 
 1167000    1.1007672    -6.962898    455.33713  0.032514791  0.032704071            4 
 1168000    1.0753697   -7.0049842    454.41524  0.032421179  0.032696641            2 
 1169000    1.0647728    -7.008008    455.67034  0.032482916  0.032689338            2 
 1170000    1.0725838    -6.995076     454.2833   0.03235636  0.032682008            2 
 1171000    1.0646073   -6.9782247    455.13866    0.0323896  0.032674711            2 
 1172000     1.056518    -6.948945    456.92847  0.032489226  0.032667303            4 
 1173000    1.0532459   -7.0026578    455.17735  0.032337124   0.03266006            3 
 1174000    1.0578701   -7.0001104    456.05783  0.032372078  0.032652821            2 
 1175000    1.0819613   -7.0293757    456.74739  0.032393432  0.032645643            3 
 1176000     1.063122   -7.0440007      455.085  0.032248087  0.032638367            3 
 1177000    1.0681113   -6.9704892    457.57784  0.032397185  0.032631016            3 
 1178000    1.0887108   -7.0168484    456.95645  0.032325725  0.032623716            2 
 1179000    1.0743856   -6.9508538     458.6356  0.032416992  0.032616434            3 
 1180000    1.0481901   -6.9998265    458.63635  0.032389573  0.032609104            1 
 1181000    1.0760348   -6.9896657    458.14366  0.032327382  0.032601971            2 
 1182000    1.0915364   -7.0157747    458.61651  0.032333369  0.032594688            2 
 1183000    1.0671227   -7.0065619    457.82097  0.032249998  0.032587312            1 
 1184000    1.0573177   -7.0005619    459.36067  0.032331128  0.032579949            5 
 1185000     1.033761   -6.9685088    460.35079  0.032373473  0.032572747            1 
 1186000    1.0573565   -6.9665157    459.71561  0.032301546  0.032565358            3 
 1187000     1.056819   -7.0182907    460.29524  0.032315027  0.032558126            3 
 1188000    1.0348251   -6.9915945    459.54047  0.032234881  0.032550761            2 
 1189000     1.057629   -6.9743607     461.6401  0.032354927  0.032543544            5 
 1190000    1.0515262   -6.9847117    461.93515    0.0323484  0.032536463            2 
 1191000    1.0813313   -6.9980209    461.43283  0.032286092  0.032529298            1 
 1192000    1.0877271   -7.0108608    461.00018   0.03222876   0.03252209            2 
 1193000    1.0689963   -7.0293686    461.73969  0.032253401  0.032514801            2 
 1194000    1.0833414   -7.0548138    460.84641  0.032164043  0.032507411            4 
 1195000     1.063628   -6.9922947    462.94145  0.032283225  0.032500087            1 
 1196000    1.0495078   -6.9750905    463.03937  0.032263055  0.032492696            1 
 1197000    1.0508548   -7.0010294    463.53765  0.032270792  0.032485417            1 
 1198000    1.0565494   -7.0140472    463.06025  0.032210647  0.032478004            3 
 1199000    1.0596573   -6.9989273     463.8004  0.032235224    0.0324707            1 
 1200000     1.074618   -7.0336376    462.16157  0.032094554  0.032463319            2 
 1201000    1.0538893   -7.0162205    463.39632  0.032153505  0.032455924            2 
 1202000    1.0723208   -7.0348962    463.14088  0.032109046  0.032448453            1 
 1203000    1.0656527   -7.0244559    463.57967  0.032112751  0.032441025            1 
 1204000    1.0663049   -6.9912471    464.14513  0.032125217  0.032433728            3 
 1205000    1.0568297   -7.0062232    465.44373  0.032188363  0.032426399            4 
 1206000    1.0391549   -7.0147485    466.29121  0.032220233  0.032419096            2 
 1207000    1.0761179   -6.9596037    464.94302  0.032100457  0.032411802            1 
 1208000    1.0525891   -7.0379037    464.86099  0.032068225   0.03240441            2 
 1209000     1.078248   -7.0358073    465.68042  0.032098181  0.032396932            5 
 1210000    1.0755544   -6.9946366    466.39899  0.032121143  0.032389408            2 
 1211000    1.0578603   -7.0247093    465.28162  0.032017728  0.032381796            2 
 1212000     1.060019   -6.9912686    467.09559  0.032116034    0.0323741            2 
 1213000    1.0644676   -6.9919101    465.21163  0.031960128  0.032366455            2 
 1214000     1.064701   -6.9946319    467.50132  0.032090975  0.032358602            2 
 1215000    1.0536746   -7.0135311    467.04467  0.032033242   0.03235077            1 
 1216000     1.062038   -6.9744906    467.68558  0.032050821  0.032343027            3 
 1217000    1.0339423    -7.011967    466.88672  0.031969784   0.03233519            2 
 1218000    1.0479037   -7.0216681    467.60769  0.031992863  0.032327274            3 
 1219000    1.0845265    -6.968877    467.36113  0.031949763  0.032319534            4 
 1220000    1.0684146   -6.9754133    467.48951  0.031932343  0.032311516            4 
 1221000      1.05116   -6.9941318    467.89481  0.031933853  0.032303296            3 
 1222000    1.0669481   -7.0065892    467.34552  0.031870262   0.03229526            2 
 1223000     1.052782   -6.9909014     469.2288  0.031972527  0.032286974            3 
 1224000    1.0704928    -7.004334    469.08382  0.031936535  0.032278883            1 
 1225000    1.0510239   -7.0159065    467.79391  0.031822715  0.032270684            3 
 1226000     1.046697   -7.0477185    467.57941  0.031782179  0.032262496            2 
 1227000    1.0446554   -7.0351993    468.61649  0.031826711  0.032254244            1 
 1228000    1.0439833   -7.0238568    468.30779  0.031779845  0.032246175            2 
 1229000    1.0365791   -7.0213285    468.33775  0.031756018  0.032237911            2 
 1230000    1.0806585   -6.9954124    469.26147  0.031792783  0.032229613            2 
 1231000    1.0525867   -6.9614162    470.34931  0.031840598  0.032221299            3 
 1232000     1.067551   -7.0482077    469.44684  0.031753709  0.032213082            2 
 1233000    1.0587625   -7.0115172    470.71693  0.031813796  0.032204916            2 
 1234000    1.0393321    -7.036039    469.87825  0.031731379  0.032196799            6 
 1235000    1.0619687   -7.0466401    470.91131  0.031775392  0.032188532            2 
 1236000    1.0540244   -7.0675665    472.32809  0.031845206  0.032180176            1 
 1237000    1.0510958   -6.9980474    471.64216  0.031773253  0.032172033            1 
 1238000    1.0669722   -7.0285908    469.77462  0.031621878   0.03216386            2 
 1239000    1.0590702   -7.0188567     471.7614  0.031729984  0.032155675            2 
 1240000    1.0689892   -7.0273676    471.41847  0.031681349  0.032147712            1 
 1241000    1.0384061   -6.9958152    473.83636  0.031818181  0.032139776            1 
 1242000    1.0582255    -7.059605    471.97457  0.031667644  0.032131757            4 
 1243000    1.0692106    -6.967338    473.39314  0.031737272  0.032123675            2 
 1244000    1.0647895   -7.0176425    473.63299  0.031727827  0.032115576            3 
 1245000    1.0724088   -7.0323996    472.43512  0.031622163  0.032107506            3 
 1246000    1.0328907    -7.019425    473.93523  0.031697113   0.03209947            2 
 1247000    1.0202181   -7.0094982    474.01327  0.031676909  0.032091414            1 
 1248000    1.0698827   -7.0488995      474.102  0.031657452  0.032083339            4 
 1249000    1.0465149   -7.0060684    473.77652   0.03161039  0.032075188            2 
 1250000    1.0659237   -7.0575193     474.1882  0.031612547  0.032066933            3 
 1251000    1.0415006   -7.0045907    474.15156  0.031584836   0.03205856            5 
 1252000    1.0332933   -7.0113253    475.57921  0.031654633  0.032050277            3 
 1253000    1.0537608   -7.0162927    475.62699  0.031632548  0.032042199            4 
 1254000     1.040478    -7.044201    475.76799  0.031616693  0.032034075            2 
 1255000    1.0502791   -7.0394341    474.63086  0.031515993  0.032025949            2 
 1256000    1.0433419   -7.0203511    475.68197  0.031560641   0.03201782            2 
 1257000    1.0289541   -7.0287659    476.00252  0.031556783  0.032009528            2 
 1258000    1.0549093   -7.0452143     476.8021  0.031584665  0.032001319            2 
 1259000    1.0484489   -7.0186739    477.00271  0.031572856  0.031993178            3 
 1260000    1.0629644   -7.0360046    478.61696  0.031654561  0.031985022            4 
 1261000    1.0447012   -7.0001717    478.13232  0.031597431  0.031976888            3 
 1262000    1.0727312   -7.0713352     478.1804  0.031575568  0.031968667            3 
 1263000    1.0604546   -7.0023076    478.07753   0.03154378  0.031960417            2 
 1264000    1.0782036   -7.0487104      477.183  0.031459849  0.031952098            2 
 1265000     1.058316   -7.0178065    479.84936  0.031610629  0.031943868            3 
 1266000    1.0603364   -7.0267243    479.11085  0.031537049  0.031935815            2 
 1267000    1.0470764   -7.0329188    478.12221  0.031447133  0.031927498            3 
 1268000     1.064978   -7.0177312    479.12448  0.031488202  0.031919336            1 
 1269000    1.0666563   -7.0074319    480.18957  0.031533331  0.031911261            2 
 1270000    1.0464033   -7.0192226    480.51583   0.03152991  0.031903321            3 
 1271000    1.0442633   -7.0305538    480.66057  0.031514593  0.031895454            3 
 1272000    1.0257296    -7.025321    481.19128  0.031524586  0.031887477            2 
 1273000    1.0653623   -7.0610546    482.10295  0.031559502  0.031879676            5 
 1274000    1.0273671   -7.0658945    482.62275   0.03156873  0.031871855            2 
 1275000    1.0490946   -7.0475487    481.56965   0.03147514  0.031863762            2 
 1276000    1.0508303   -7.0496798    481.87476    0.0314704  0.031855975            1 
 1277000    1.0537137   -7.0476033    481.67682  0.031432839  0.031848285            2 
 1278000    1.0576466    -7.073077    483.82069  0.031548037  0.031840266            3 
 1279000    1.0417837   -7.0463406    484.05253  0.031538476   0.03183235            2 
 1280000    1.0544136   -7.0064401    483.92429  0.031505487  0.031824377            4 
 1281000    1.0566656   -7.0225761    484.57418  0.031523171  0.031816455            2 
 1282000    1.0599121   -6.9991342    485.31101  0.031546477  0.031808625            3 
 1283000    1.0488838   -7.0236072    484.56893   0.03147369  0.031800704            2 
 1284000    1.0477532   -7.0152354    485.48172  0.031508419  0.031792905            2 
 1285000    1.0630294   -7.0028797    485.14456  0.031462033  0.031785019            4 
 1286000    1.0330853   -7.0567928    484.05093  0.031366701  0.031777159            2 
 1287000    1.0603872   -7.0476731    485.91469  0.031463008  0.031769267            3 
 1288000    1.0481039   -7.0007565     486.5187  0.031477659  0.031761676            1 
 1289000    1.0550581   -7.0627823    486.61156  0.031459242  0.031754199            1 
 1290000    1.0522042   -7.0503505    488.82939  0.031578126  0.031746738            2 
 1291000    1.0564139   -7.0000721    487.66498  0.031478504  0.031739294            2 
 1292000    1.0663358   -7.0813612    488.43172  0.031503594  0.031731749            4 
 1293000     1.059692   -7.0702819    487.94753  0.031448023  0.031724281            1 
 1294000    1.0451418   -7.0198752    488.13721  0.031435936  0.031716879            3 
 1295000    1.0377124   -7.0517534     489.2136  0.031480927  0.031709489            3 
 1296000    1.0457483   -6.9960098    491.03504  0.031573755  0.031702241            3 
 1297000    1.0506191   -7.0433319    488.19118  0.031366691  0.031694772            2 
 1298000    1.0314046     -6.99812    490.49061  0.031490152  0.031687322            2 
 1299000    1.0292126   -7.0334445    490.70297  0.031479533   0.03167997            4 
 1300000    1.0575156     -7.00913    492.44078  0.031566716  0.031672739            2 
 1301000    1.0539799   -7.0359511    491.35653  0.031473003  0.031665643            2 
 1302000    1.0388392   -7.0357929    490.61941  0.031401652  0.031658422            3 
 1303000    1.0435733   -7.0187034    491.67294  0.031444931  0.031651192            1 
 1304000    1.0374302   -7.0223481    491.52168   0.03141115  0.031643769            3 
 1305000    1.0427033   -7.0310443    493.06298  0.031485503  0.031636445            3 
 1306000    1.0413854   -7.0676213    492.49467  0.031425132   0.03162925            5 
 1307000    1.0319277    -7.078097    492.10892  0.031376493  0.031622112            4 
 1308000    1.0695123   -7.0202022     494.9065   0.03153074   0.03161502            2 
 1309000    1.0625456   -7.0349162    492.40951   0.03134769  0.031607936            5 
 1310000    1.0140116   -7.0405141    494.17391     0.031436  0.031600847            5 
 1311000    1.0424254   -7.0410058    494.31558  0.031421026  0.031594004            2 
 1312000    1.0702971   -7.0444366    495.23286  0.031455339  0.031586995            2 
 1313000    1.0514309   -7.0187116    496.30104  0.031499178  0.031580107            2 
 1314000    1.0456197   -7.0245733    494.99034  0.031392081   0.03157311            2 
 1315000    1.0406217   -7.0429735    495.25564  0.031385021  0.031565896            3 
 1316000    1.0427806    -7.079175    496.27168  0.031425512  0.031558742            3 
 1317000    1.0494176    -7.003497    495.65461  0.031362605  0.031551613            2 
 1318000    1.0277745   -7.0108359    497.52067  0.031456795  0.031544639            2 
 1319000    1.0080689   -7.0829266    496.57273  0.031373056  0.031537653            2 
 1320000    1.0635195   -7.0539738    495.40055  0.031275287  0.031530597            2 
 1321000    1.0340577   -7.0546147    496.78183  0.031338747  0.031523574            1 
 1322000    1.0431408   -7.0516133    495.46986  0.031232341   0.03151643            2 
 1323000    1.0572746   -7.0751422    496.41033  0.031267973  0.031509049            2 
 1324000    1.0318437   -7.0308673    497.70761  0.031326007  0.031501749            2 
 1325000    1.0237681   -7.0545013    497.22156  0.031271796  0.031494525            1 
 1326000    1.0598012    -7.057724    497.43111  0.031261382  0.031487269            2 
 1327000    1.0375436   -7.0762372    496.86394  0.031202207  0.031479883            3 
 1328000    1.0565676   -7.0387943    499.01149  0.031313472  0.031472485            1 
 1329000    1.0431923   -7.0339722    497.79476  0.031213617  0.031465157            3 
 1330000    1.0379565     -7.04916    497.06682  0.031144538  0.031457704            1 
 1331000    1.0401317   -7.0514172     499.9182  0.031299662  0.031450271            1 
 1332000    1.0506342   -7.0401445    499.72932  0.031264347  0.031442891            3 
 1333000    1.0226723   -7.0854909    497.80925  0.031120858    0.0314355            2 
 1334000    1.0473749   -7.0433385    500.21255  0.031247661   0.03142808            2 
 1335000    1.0445516   -7.0411244    498.61956  0.031124817  0.031420864            3 
 1336000     1.045519   -7.0255385    499.75097  0.031172091  0.031413424            3 
 1337000    1.0343617   -7.0290682    500.27554  0.031181472  0.031406175            4 
 1338000    1.0484408   -7.0331445    501.70442  0.031247161  0.031398877            2 
 1339000    1.0357531   -7.0881184    501.22173  0.031193784  0.031391715            3 
 1340000    1.0410275    -7.045271    501.70566  0.031200601  0.031384655            3 
 1341000    1.0490587    -7.042532    503.27877  0.031275091  0.031377805            3 
 1342000    1.0293793    -7.012662    503.68531  0.031277031  0.031370936            3 
 1343000    1.0487402   -6.9986654    506.14845  0.031406581  0.031363975            3 
 1344000     1.031861   -7.0427299    505.33067  0.031332507  0.031357287            1 
 1345000    1.0507411   -7.1024884    503.64855  0.031204991  0.031350627            2 
 1346000    1.0368065   -7.0370363    504.61816  0.031241837  0.031343883            2 
 1347000    1.0186396   -7.0555112    504.91665   0.03123711  0.031337117            2 
 1348000    1.0161437   -7.0999107    504.83834  0.031209096  0.031330086            2 
 1349000    1.0558009     -7.02686    506.11397  0.031264762  0.031323219            1 
 1350000    1.0336386   -7.0249485    506.21633  0.031247922  0.031316319            2 
 1351000    1.0185001   -7.0453381    506.98186  0.031272012  0.031309447            2 
 1352000    1.0214416   -7.0842478    505.14346  0.031135568  0.031302538            2 
 1353000    1.0193807   -7.0539932    508.84717  0.031340673  0.031295865            1 
 1354000    1.0342624   -7.0362094    508.52664  0.031297799  0.031289145            1 
 1355000    1.0087369   -7.0594691    507.77794  0.031228656  0.031282388            3 
 1356000     1.033317   -7.0837698    507.09114  0.031163418  0.031275592            2 
 1357000    1.0460853   -7.0848358    507.29144  0.031152754  0.031268765            2 
 1358000    1.0272619   -7.0830608    507.97693  0.031171879  0.031261815            2 
 1359000    1.0244026   -7.0447042    506.77195  0.031075052  0.031255016            3 
 1360000    1.0409115   -7.0682195    509.81703  0.031238788  0.031248101            3 
 1361000    1.0312715   -7.0612457    508.52285  0.031136594  0.031241232            2 
 1362000    1.0348905   -7.1176068    508.31147    0.0311008  0.031234382            1 
 1363000    1.0233075   -7.0530964    509.08571  0.031125319  0.031227657            6 
 1364000    1.0177841   -7.0752275     510.5353  0.031191062  0.031220788            3 
 1365000    1.0303923   -7.0662478    509.04424  0.031077182  0.031213909            2 
 1366000    1.0515234     -7.04193    511.08718  0.031179062  0.031207058            1 
 1367000    1.0411818   -7.0333907    508.70389  0.031010966  0.031200214            2 
 1368000    1.0313543   -7.0748477    508.85939   0.03099777  0.031193193            3 
 1369000    1.0315328   -7.0314152    510.19761  0.031056587  0.031186187            2 
 1370000    1.0292696   -7.0822808    510.22788  0.031035759  0.031179198            1 
 1371000    1.0393352   -7.0501607    510.88979  0.031053355   0.03117216            3 
 1372000    1.0320438   -7.0820085    509.40501  0.030940538  0.031165136            2 
 1373000    1.0194769   -7.0783976    511.71404  0.031058147  0.031158253            2 
 1374000    1.0017906   -7.0264109    512.23941  0.031067407  0.031151492            1 
 1375000     1.035776   -7.0780709    512.02712  0.031031947   0.03114475            2 
 1376000    1.0315228   -7.0788246    510.95878  0.030944694    0.0311379            2 
 1377000    1.0349687   -7.0625994    513.29167  0.031063403  0.031131101            2 
 1378000    1.0252734   -7.0768208     512.2936  0.030980503  0.031124148            2 
 1379000    1.0059836   -7.0509441    512.38027  0.030963275  0.031117206            3 
 1380000    1.0110044   -7.0580806    512.01131  0.030918557  0.031110204            2 
 1381000    1.0328043   -7.0478896    512.20742  0.030908003  0.031103025            2 
 1382000    1.0273561   -7.0479432    512.99417  0.030933078  0.031096105            1 
 1383000    1.0304944   -7.0782819    512.63171  0.030888871  0.031089015            2 
 1384000    1.0241882   -7.0839995    512.70707   0.03087109  0.031081912            2 
 1385000   0.99989525   -7.0909513    514.43967  0.030953049  0.031074866            2 
 1386000    1.0339577   -7.0437813    514.30292  0.030922494  0.031067724            1 
 1387000    1.0199815   -7.0509416    514.58487  0.030917139    0.0310607            1 
 1388000    1.0385385   -7.0738712    514.84102  0.030910244  0.031053572            5 
 1389000    1.0302243    -7.094689    512.64545  0.030756267  0.031046318            4 
 1390000     1.018156   -7.1208154    513.36724  0.030777413  0.031038908            2 
 1391000    1.0278688   -7.1127719    514.22153  0.030806466  0.031031623            2 
 1392000     1.018887   -7.0696616    515.77917  0.030877584  0.031024507            2 
 1393000    1.0452015   -7.0757981    515.31748  0.030827799  0.031017219            2 
 1394000    1.0178238   -7.1135692    514.20131  0.030738959  0.031009774            2 
 1395000    1.0483543    -7.103388    513.62727  0.030682632   0.03100245            2 
 1396000    1.0149463   -7.0426218    515.22024  0.030755745  0.030995169            3 
 1397000    1.0351236   -7.0754191    515.86742  0.030772335  0.030987852            1 
 1398000    1.0282518   -7.0607644    516.05678   0.03076161  0.030980558            6 
 1399000    1.0341599   -7.0742848    518.21325  0.030868076  0.030973514            3 
 1400000    1.0337729   -7.0957165    516.72155  0.030757235  0.030966323            3 
 1401000    1.0230999   -7.0602571    517.02541  0.030753355  0.030958924            3 
 1402000     1.036545    -7.090397    516.58939  0.030705503  0.030951579            2 
 1403000    1.0150553   -7.0566801    519.14945  0.030835677  0.030944358            4 
 1404000    1.0398117   -7.0492728    518.35432   0.03076652  0.030936968            2 
 1405000    1.0440882   -7.0723868    517.98218  0.030722549  0.030929672            3 
 1406000    1.0406724   -7.0641913    519.02666  0.030762605  0.030922408            3 
 1407000    1.0333962   -7.0676809    518.04912  0.030682843  0.030915096            4 
 1408000    1.0147203   -7.0783916    519.77916  0.030763445  0.030907767            3 
 1409000    1.0521613   -7.0662661    519.75731  0.030740319  0.030900571            4 
 1410000    1.0451095   -7.0388623     519.6965  0.030714923  0.030893434            3 
 1411000    1.0583509   -7.0804254    521.52069  0.030800891  0.030886362            2 
 1412000    1.0276232   -7.1453666    518.74809  0.030615444  0.030879066            1 
 1413000    1.0355585   -7.1164567    520.84902  0.030717682  0.030871568            2 
 1414000    1.0317646   -7.0678078    517.53999  0.030500942  0.030864151            3 
 1415000    1.0158408   -7.0864208     520.5129   0.03065447  0.030856758            4 
 1416000    1.0185107   -7.0380068    520.27807  0.030619001  0.030849501            4 
 1417000    1.0325628    -7.087119    520.19259  0.030592366   0.03084213            2 
 1418000    1.0423784   -7.1025473    519.66836  0.030539983  0.030834698            3 
 1419000     1.040005   -7.0830007     522.6438    0.0306932   0.03082737            2 
 1420000    1.0277545   -7.0883163    522.58946  0.030668396  0.030820083            5 
 1421000   0.99809798   -7.0779641    521.91048  0.030606995  0.030812799            1 
 1422000     1.019745    -7.099552    520.55081   0.03050579  0.030805427            1 
 1423000     1.022129   -7.0768303    523.11402  0.030634459  0.030798019            2 
 1424000    1.0225064   -7.0839065      523.731  0.030649052  0.030790681            6 
 1425000    1.0228815   -7.0514517    524.10066  0.030649161  0.030783364            2 
 1426000     1.026971   -7.0454116    523.69249  0.030603816  0.030776118            2 
 1427000    1.0172094   -7.0388468    523.23329  0.030555553  0.030768826            2 
 1428000    1.0057892   -7.1059617    522.93777   0.03051691  0.030761347            4 
 1429000    1.0167656   -7.0598921    524.58539  0.030591637  0.030754001            1 
 1430000    1.0229151   -7.0766586    523.59411  0.030512477  0.030746557            3 
 1431000    1.0357986   -7.0917603    523.89057  0.030508419  0.030739164            3 
 1432000    1.0422561   -7.0526292    525.08646  0.030556708  0.030731561            2 
 1433000     1.035268   -7.0826006    524.08217  0.030476981  0.030723978            2 
 1434000     1.039505   -7.0714295    523.28453  0.030409375  0.030716338            2 
 1435000    1.0232233   -7.0895727    524.74955  0.030473261  0.030708844            2 
 1436000    1.0247806   -7.0984586    524.85803  0.030458335   0.03070131            2 
 1437000    1.0216475   -7.0684988     525.6879  0.030485264  0.030693852            2 
 1438000    1.0064611   -7.1097146    525.33956  0.030443878  0.030686315            3 
 1439000     1.025275   -7.1137838     525.0884  0.030408177  0.030678692            2 
 1440000    1.0375643   -7.0990335    526.07862  0.030444365  0.030671139            3 
 1441000    1.0269227   -7.1287068     525.4601  0.030387468  0.030663608            2 
 1442000    1.0193415   -7.0919686    525.87783  0.030390536  0.030656062            2 
 1443000   0.99908765   -7.0843707    526.74546  0.030419581  0.030648421            2 
 1444000    1.0142749   -7.0590803     527.4772  0.030440744  0.030640864            2 
 1445000    1.0247489   -7.0964996    527.34368  0.030411977  0.030633332            1 
 1446000    1.0163228   -7.0454811    528.80776   0.03047532   0.03062592            1 
 1447000    1.0290695   -7.0849592    526.87503  0.030342952  0.030618395            2 
 1448000      1.01761   -7.0435781    529.83851  0.030492548  0.030610871            2 
 1449000    1.0171551   -7.1033297    527.77313  0.030352722  0.030603407            1 
 1450000    1.0374787   -7.1118506    528.98733  0.030401571  0.030595968            2 
 1451000    1.0105141   -7.0772347    528.77883  0.030368644  0.030588683            3 
 1452000    1.0263432   -7.1141509    529.66782   0.03039875  0.030581324            2 
 1453000    1.0521234   -7.0856204    529.90043  0.030391169  0.030574046            1 
 1454000    1.0189964   -7.0912305    529.57815  0.030351797  0.030566745            3 
 1455000    1.0284902   -7.0843852    528.85387  0.030289454  0.030559368            2 
 1456000    1.0542229   -7.0671834    530.75835  0.030377653  0.030552097            1 
 1457000    1.0312936   -7.1170232    531.18595   0.03038126  0.030544836            1 
 1458000    1.0180531   -7.0893001    528.84203  0.030226454  0.030537574            2 
 1459000    1.0189154   -7.0659362    531.06042  0.030332443  0.030530279            3 
 1460000    1.0278836   -7.0940515    531.20657   0.03032001  0.030522817            4 
 1461000    1.0130895   -7.0726586     530.5643  0.030262623  0.030515379            2 
 1462000    1.0069211   -7.0522203    532.70067  0.030363695  0.030508143            2 
 1463000    1.0082158   -7.0916118    531.38943  0.030268252  0.030500874            5 
 1464000    1.0158755   -7.0861424    532.94835  0.030336313  0.030493661            2 
 1465000    1.0348297   -7.0872514    532.70029  0.030301495  0.030486516            2 
 1466000    1.0193948   -7.1377026    533.24152  0.030311591   0.03047913            3 
 1467000    1.0049288   -7.1279061    533.10965  0.030283438  0.030471732            1 
 1468000    1.0154683   -7.0657008    535.43685  0.030394917  0.030464539            6 
 1469000    1.0478134   -7.1121115    533.55713  0.030267593  0.030457367            1 
 1470000     1.015086   -7.1028984    533.96721   0.03027025  0.030450247            2 
 1471000    1.0176264   -7.1066828    535.36199  0.030328687  0.030443125            3 
 1472000   0.99724494   -7.0886309    533.82748  0.030221212  0.030436116            3 
 1473000     1.011831   -7.0998093    536.22189  0.030336156  0.030429246            2 
 1474000   0.99875445   -7.0439463    538.29582  0.030432825  0.030422273            1 
 1475000    1.0177089   -7.1101357    535.37522  0.030247188   0.03041534            2 
 1476000    1.0039512   -7.1091379     535.4993    0.0302337   0.03040836            3 
 1477000    1.0038958   -7.0575416    534.96954  0.030183341  0.030401236            3 
 1478000    1.0293597   -7.0500071    537.94059  0.030330435  0.030394246            8 
 1479000    1.0249909   -7.1123622    536.26875  0.030215728  0.030387126            4 
 1480000     1.005073   -7.1399985    538.22929  0.030305703  0.030379962            1 
 1481000    1.0078257   -7.0907239    538.30751  0.030289641  0.030372733            3 
 1482000    0.9908546   -7.1072952    538.48686  0.030279288  0.030365464            3 
 1483000    1.0305548   -7.1071951    536.57924  0.030151677  0.030358289            5 
 1484000    1.0069483   -7.1081038    538.76311  0.030253993  0.030351045            1 
 1485000    1.0257292   -7.1153752    536.74671  0.030120466   0.03034382            2 
 1486000    1.0132671   -7.0848124    539.54432  0.030257084  0.030336632            4 
 1487000     1.012936   -7.0989002    538.36657  0.030170734  0.030329398            2 
 1488000    1.0109546   -7.1216916     537.8194  0.030119814  0.030322213            1 
 1489000     1.024064   -7.1108149    539.37694  0.030186755  0.030314966            2 
 1490000    1.0323107   -7.1555792    538.26161  0.030104117  0.030307828            2 
 1491000   0.99842048    -7.123868    538.96099  0.030123015  0.030300629            2 
 1492000   0.99039333   -7.0984806    541.50179  0.030244738  0.030293469            1 
 1493000   0.99211985   -7.0964259    539.76586  0.030127588  0.030286355            2 
 1494000    1.0513954   -7.1359456    539.74138  0.030106057  0.030279147            3 
 1495000    1.0192664   -7.0957847    541.58879  0.030188896  0.030272056            1 
 1496000    1.0242322   -7.0700248    541.58531  0.030168522  0.030265148            1 
 1497000    1.0305103   -7.0528983    542.32999  0.030189823  0.030258367            4 
 1498000    1.0175218   -7.1097714    541.58767  0.030128375  0.030251387            2 
 1499000    1.0093349   -7.1625883    540.93019  0.030071725  0.030244197            4 
 1500000    1.0289558   -7.1044827    542.79042  0.030155024  0.030236968            2 
 1501000    1.0090433   -7.1362576    541.91182  0.030086155  0.030229888            2 
 1502000   0.99727823   -7.0872134    542.78649  0.030114652  0.030222941            2 
 1503000    1.0103508   -7.0578621    543.82132  0.030151992  0.030215955            2 
 1504000    0.9968507   -7.1471458    542.94514  0.030083396  0.030209111            2 
 1505000    1.0205586   -7.0901389    544.96561  0.030175283  0.030202312            5 
 1506000    1.0212295   -7.1018371    546.49116  0.030239661  0.030195685            3 
 1507000    1.0262996   -7.1250959     545.2241   0.03014953  0.030189094            5 
 1508000    1.0265165   -7.0823649    545.69271  0.030155433  0.030182441            3 
 1509000    1.0156231   -7.1292306    547.32996  0.030225865    0.0301756            2 
 1510000     1.022872    -7.117773    546.36141  0.030152396  0.030168828            4 
 1511000    1.0002075   -7.1489206     543.5584  0.029977851  0.030161891            5 
 1512000   0.99645357   -7.0837936    545.74539   0.03007856  0.030154919            3 
 1513000    1.0090107    -7.131782    544.62961  0.029997225  0.030147815            4 
 1514000     1.010001   -7.1333617     545.1928   0.03000841  0.030140723            1 
 1515000   0.99023452   -7.1047264    546.05193   0.03003586  0.030133593            3 
 1516000    1.0023831   -7.0949966    546.93496  0.030064587  0.030126554            2 
 1517000    1.0291424   -7.1025608    546.51252  0.030021562  0.030119577            1 
 1518000      1.02669   -7.1018315    547.22991  0.030041168  0.030112673            2 
 1519000    1.0163131   -7.1418002    546.77132  0.029996232  0.030105607            2 
 1520000   0.99619476   -7.1156665    545.80014  0.029923253  0.030098469            5 
 1521000    1.0078112    -7.121772    546.60454  0.029947652  0.030091326            2 
 1522000       1.0386   -7.1163014     547.0638  0.029953121  0.030084312            2 
 1523000    1.0140388   -7.0952466    547.69233  0.029967844  0.030077236            3 
 1524000    1.0264982   -7.1342331    548.83215  0.030010507  0.030070202            2 
 1525000    1.0150972   -7.1054295    548.32933  0.029963351  0.030063227            3 
 1526000   0.99300566   -7.1411483    548.19506  0.029936384  0.030056141            3 
 1527000   0.98586779   -7.0845561    548.97755  0.029959482     0.030049            2 
 1528000   0.98864809   -7.1200538    548.43493  0.029910282  0.030041962            2 
 1529000   0.98751087   -7.1287807    549.22413  0.029933733  0.030034958            2 
 1530000   0.99489684   -7.0733791    549.54231  0.029931498  0.030027999            2 
 1531000    1.0086597   -7.0941355    549.62191  0.029916281  0.030021026            5 
 1532000   0.99190663   -7.1422033    550.90293  0.029966434  0.030014144            1 
 1533000    1.0181314   -7.1218522    551.33051   0.02997013  0.030007159            3 
 1534000     1.012937   -7.1644228    549.98586  0.029877546  0.030000168            4 
 1535000    1.0322263   -7.1382476    551.16064  0.029921859  0.029993133            4 
 1536000    1.0058043   -7.0913992    552.05349  0.029950818  0.029986158            2 
 1537000   0.99316364   -7.0887157    551.26945  0.029888823  0.029979175            2 
 1538000    1.0271269   -7.1311089    548.99612  0.029746214  0.029972091            1 
 1539000   0.99517147   -7.1201612    549.15018  0.029735227  0.029964947            2 
 1540000   0.98478736   -7.0975671    549.38404  0.029728574  0.029957683            2 
 1541000   0.99462526   -7.1266714    550.85632  0.029788899  0.029950464            2 
 1542000   0.99301187   -7.1480256     550.9891  0.029776757  0.029943166            7 
 1543000    1.0045432    -7.117697    551.64036  0.029792631   0.02993598            5 
 1544000   0.99386647   -7.1100377    554.48578   0.02992691  0.029928949            2 
 1545000    1.0010197   -7.1001894    552.37646  0.029793768  0.029921913            3 
 1546000   0.99389564   -7.1035318    553.85251  0.029854059   0.02991486            2 
 1547000    1.0008824   -7.0699108    552.73397  0.029774508  0.029907841            2 
 1548000    1.0198916   -7.1123801     553.3888  0.029790525  0.029900871            2 
 1549000   0.99687403   -7.1673261    553.50332  0.029777454  0.029893678            3 
 1550000   0.97586748   -7.1205972    553.57318  0.029761999  0.029886407            4 
 1551000    1.0068836   -7.1426526    553.05797  0.029715128  0.029879212            3 
 1552000    1.0088583   -7.1383027    554.12057  0.029753038   0.02987204            2 
 1553000     1.005174   -7.1300413    553.24258  0.029686766  0.029865053            3 
 1554000   0.98587708   -7.1336605    555.51894  0.029789733  0.029857926            3 
 1555000    1.0036264   -7.1446788    553.54592   0.02966484  0.029850814            2 
 1556000      1.00982   -7.0999298    555.48895  0.029749837  0.029843747            3 
 1557000   0.99605131   -7.1447696    554.63898  0.029685238  0.029836592            3 
 1558000   0.99568553   -7.1406043    555.49264  0.029711844  0.029829368            2 
 1559000    1.0169044   -7.1411136    553.89193  0.029607223  0.029822131            4 
 1560000   0.98227753   -7.0695448    555.46458  0.029672253  0.029814925            2 
 1561000    1.0179634   -7.1653012    555.11142  0.029634392  0.029807788            2 
 1562000   0.99377365   -7.1059865    555.72299  0.029648047  0.029800511            2 
 1563000     1.001371   -7.1422708    555.94445  0.029640886   0.02979329            3 
 1564000    1.0000399   -7.1419541    557.47026  0.029703232  0.029786015            2 
 1565000   0.99070929   -7.1696788    555.37525  0.029572697  0.029778674            2 
 1566000   0.99393608   -7.1252894    557.49074  0.029666387  0.029771362            2 
 1567000    1.0305245   -7.1038851    557.28053  0.029636276  0.029764119            4 
 1568000    1.0196795   -7.1706527    555.56571  0.029526239  0.029756741            4 
 1569000    1.0053425   -7.1033598    557.42029  0.029605921  0.029749499            2 
 1570000    1.0112104   -7.1278887    557.03077  0.029566389  0.029742289            1 
 1571000    1.0057268   -7.0929971     557.9538  0.029596531  0.029735088            1 
 1572000   0.97715899   -7.1406635    557.58624  0.029558219  0.029727791            1 
 1573000    1.0065363   -7.1418666     557.5519  0.029537608  0.029720356            2 
 1574000     1.009426     -7.16064    556.99087   0.02948914  0.029713009            4 
 1575000    1.0126455   -7.1114613    557.10862  0.029476646  0.029705552            4 
 1576000    1.0139475   -7.1139389    557.37459  0.029472007  0.029698146            2 
 1577000   0.99125563   -7.1098432    558.86549  0.029532101  0.029690661            1 
 1578000   0.98014631   -7.1478314    558.18345  0.029477368  0.029683184            3 
 1579000    1.0182745   -7.1494748    559.52807  0.029529664  0.029675754            3 
 1580000   0.98037993   -7.1038733    558.73909  0.029469361  0.029668298            6 
 1581000    1.0097113   -7.1419913    559.65407  0.029498949  0.029660877            2 
 1582000    1.0230821   -7.1663003    559.59633  0.029477261  0.029653458            2 
 1583000   0.98054282   -7.1298549    559.61398  0.029459569  0.029646033            2 
 1584000    1.0074777   -7.1242144    559.77417  0.029449399  0.029638643            6 
 1585000    0.9792999   -7.1331934    559.29088  0.029405409   0.02963119            1 
 1586000   0.97273193   -7.1152933    560.35696  0.029442883  0.029623693            2 
 1587000   0.98345079   -7.1531159    559.78577  0.029394338   0.02961627            2 
 1588000   0.98257144   -7.1155069    561.07348  0.029443403  0.029608878            2 
 1589000   0.97943201   -7.1162131    561.15497  0.029429146  0.029601448            2 
 1590000   0.98941823   -7.1720955    560.36345  0.029369153  0.029593912            2 
 1591000    1.0081409   -7.1572096    558.65926  0.029261432  0.029586417            2 
 1592000   0.99902038   -7.1254406    561.30792  0.029381696  0.029578994            3 
 1593000    1.0038875   -7.1345082    561.90875  0.029394683   0.02957152            2 
 1594000   0.99049824   -7.1662841    561.27985  0.029343363  0.029564002            2 
 1595000   0.96947698   -7.1516555    561.17694  0.029319589  0.029556449            3 
 1596000   0.98505223   -7.2051345    562.06121   0.02934739  0.029548785            3 
 1597000   0.98782924   -7.1582495    560.40508  0.029242594  0.029541183            3 
 1598000    1.0004226   -7.1556859    561.76315  0.029295116  0.029533597            2 
 1599000    1.0223683   -7.1396031    561.82473  0.029280005   0.02952595            2 
 1600000   0.99392154   -7.1075151    561.80352    0.0292606  0.029518484            4 
 1601000   0.99290024   -7.1423856     562.5582  0.029281605  0.029510874            5 
 1602000    1.0195038   -7.1194691    562.84519  0.029278256   0.02950327            3 
 1603000    1.0057168   -7.1467802    564.02276  0.029321208  0.029495725            3 
 1604000    1.0045513   -7.1706207     562.7165  0.029235064  0.029488221            4 
 1605000   0.99729956   -7.1339259    563.78368  0.029272257  0.029480676            2 
 1606000    1.0078582   -7.1652623    563.31126  0.029229518    0.0294731            5 
 1607000    1.0153223   -7.1015787    564.65869  0.029281202  0.029465638            2 
 1608000     0.993739   -7.0983734    565.27845   0.02929511   0.02945824            2 
 1609000   0.99478895    -7.149291    564.80912  0.029252596    0.0294507            1 
 1610000     1.010622   -7.1653885    562.49655  0.029114728  0.029443089            6 
 1611000   0.98301484   -7.1192679    566.06271  0.029281125  0.029435406            3 
 1612000    1.0019137   -7.1523225    564.81713   0.02919857  0.029427782            2 
 1613000   0.98156091   -7.1372045    564.38881  0.029158339  0.029420122            2 
 1614000    1.0108222   -7.1566791    564.25064  0.029133139  0.029412586            3 
 1615000   0.96903699   -7.1415692     565.3599  0.029172338   0.02940515            1 
 1616000   0.98190311   -7.2063374    564.46097   0.02910793  0.029397552            1 
 1617000   0.98821419   -7.1692912    565.73337  0.029155503  0.029390006            1 
 1618000   0.97261772   -7.1688524     564.7754  0.029088144  0.029382472            3 
 1619000   0.99950054    -7.143186    565.43164  0.029103955   0.02937485            4 
 1620000   0.99516699    -7.165657    566.42959  0.029137325  0.029367179            3 
 1621000   0.99288748   -7.1848276    566.10481  0.029102653  0.029359653            1 
 1622000   0.99545645   -7.1824302    566.30526  0.029095009  0.029352179            3 
 1623000   0.97972984   -7.1555501    566.14041  0.029068618  0.029344614            2 
 1624000     1.010059   -7.1835407    566.75692  0.029082354  0.029336845            1 
 1625000   0.98811777    -7.155304    567.05703  0.029079848  0.029329072            3 
 1626000    1.0099304   -7.1168802    566.94426  0.029056184  0.029321371            3 
 1627000   0.99331644   -7.1778128    566.01812  0.028990889  0.029313771            3 
 1628000   0.99576338   -7.1326801    567.22645  0.029034933   0.02930613            4 
 1629000    1.0010536   -7.1710897    566.62633   0.02898641  0.029298448            2 
 1630000   0.97183239   -7.1284236    569.07044  0.029093581  0.029290918            6 
 1631000   0.97470655   -7.1694995    567.24655  0.028982554  0.029283223            5 
 1632000   0.99000763   -7.1410396    569.29557  0.029069423  0.029275646            2 
 1633000   0.98996613   -7.1278944     570.0834  0.029091825  0.029268246            4 
 1634000   0.99397386   -7.1296561    569.45972  0.029042213  0.029260789            4 
 1635000   0.98845457   -7.1524218    570.45476  0.029075166   0.02925336            3 
 1636000   0.98751021   -7.1075415    572.45089  0.029159072  0.029246131            2 
 1637000   0.97141559   -7.1478277    571.67727  0.029101877  0.029238943            3 
 1638000   0.99110083   -7.1247328    570.99978  0.029049643  0.029231696            3 
 1639000   0.98490248   -7.1361841    571.17554  0.029040855  0.029224418            3 
 1640000   0.98292661   -7.1321033    572.44331  0.029087566  0.029217288            5 
 1641000   0.98753568   -7.1812637    570.77775  0.028985261  0.029210005            4 
 1642000     1.000595   -7.1781811    572.70603  0.029065471  0.029202686            3 
 1643000   0.98841243   -7.1426836    572.76415  0.029050728  0.029195381            2 
 1644000    1.0094695   -7.1469533     572.4531   0.02901729  0.029188002            3 
 1645000   0.98183066   -7.1279425    574.13733  0.029084971  0.029180644            2 
 1646000   0.99869811   -7.1414635    573.32777  0.029026315  0.029173319            3 
 1647000   0.98202035   -7.1707366    572.06152  0.028944622  0.029166126            2 
 1648000   0.99289037   -7.1311414    573.96555  0.029023339  0.029158806            3 
 1649000    0.9655863    -7.188541    572.84284  0.028949001  0.029151444            2 
 1650000    1.0098418   -7.1812628    573.75091  0.028977319  0.029144101            1 
 1651000   0.97678098    -7.142746     572.7046  0.028906956   0.02913672            2 
 1652000   0.98209965   -7.1712402    574.02587  0.028956107  0.029129274            2 
 1653000   0.99250541   -7.1855156    574.38386  0.028956638  0.029121996            2 
 1654000   0.98402297   -7.1890654    572.90659  0.028864701  0.029114629            1 
 1655000    1.0106658   -7.2053283    575.58917  0.028982335  0.029107288            3 
 1656000   0.98690262   -7.1498926    575.54033  0.028962376  0.029100044            2 
 1657000    1.0058316   -7.1474253    574.57371  0.028896284  0.029092758            2 
 1658000   0.99370237   -7.1601446    576.60778   0.02898109  0.029085472            3 
 1659000   0.97829401   -7.1253636    575.85503   0.02892581  0.029078135            2 
 1660000   0.98040579   -7.1355411    576.18102   0.02892475  0.029070714            4 
 1661000    0.9674679   -7.0944392    575.59855  0.028878113  0.029063343            2 
 1662000   0.97722404   -7.1446696    575.98941  0.028880336  0.029055968            3 
 1663000   0.97798602   -7.1598663    573.94612  0.028760579  0.029048453            2 
 1664000   0.99019355   -7.1350015    575.56476  0.028824357  0.029040923            2 
 1665000   0.99177342   -7.1666936    575.27867  0.028792726  0.029033412            2 
 1666000   0.97448568   -7.1491815    575.76645  0.028799843  0.029025839            4 
 1667000   0.95529587   -7.1400191    575.66426  0.028777458  0.029018428            6 
 1668000    1.0061341   -7.1501882    576.67276  0.028810589  0.029011021            6 
 1669000   0.97953986   -7.1740404    575.58748  0.028739139  0.029003534            5 
 1670000   0.98111397   -7.1632939    575.30201  0.028707685  0.028995975            6 
 1671000   0.97738221   -7.2019047    575.18379  0.028684609  0.028988265            1 
 1672000   0.97714616   -7.1360956    575.58409  0.028687405  0.028980625            2 
 1673000   0.99684289   -7.1511586    577.96552  0.028788878  0.028973035            2 
 1674000   0.96459251   -7.1340136    579.02029  0.028824188  0.028965523            2 
 1675000   0.99701961   -7.1701763       576.02  0.028657712   0.02895793            3 
 1676000   0.99387694   -7.1786419    576.29994  0.028654532  0.028950306            4 
 1677000    0.9985028   -7.1295917     580.2252  0.028832499  0.028942923            2 
 1678000   0.97429526   -7.1524971     579.6004  0.028784287  0.028935425            1 
 1679000   0.97718286    -7.136902    579.52703  0.028763502  0.028927885            4 
 1680000   0.97779735   -7.1764147     576.4502   0.02859376  0.028920274            2 
 1681000   0.97717577   -7.1993292     579.1558  0.028710876    0.0289127            2 
 1682000   0.97996628    -7.179716    579.67621   0.02871959  0.028905171            4 
 1683000   0.98909464   -7.2067103    578.68661  0.028653526  0.028897475            1 
 1684000   0.96895052   -7.1571305    579.73484  0.028688383  0.028889923            6 
 1685000   0.98421378   -7.1528957    580.59973  0.028714131    0.0288825            4 
 1686000   0.98974578   -7.1720614    580.60008  0.028697118  0.028875142            2 
 1687000   0.97906263   -7.1703413    580.04988  0.028652928  0.028867723            3 
 1688000    0.9549743   -7.1349837    582.43681  0.028753792  0.028860277            2 
 1689000   0.97368592   -7.1621825    581.95649   0.02871307  0.028852796            1 
 1690000   0.96892923   -7.1959913    582.60222   0.02872792  0.028845313            1 
 1691000   0.98162527   -7.1626645    582.10881  0.028686616  0.028837854            5 
 1692000   0.96372748   -7.1667191    582.52202  0.028690013  0.028830355            4 
 1693000   0.96776785   -7.1584208    581.27042   0.02861146  0.028822892            2 
 1694000   0.99656143    -7.143355    582.17181  0.028638912  0.028815387            4 
 1695000   0.96262644   -7.1843797     582.4021  0.028633338  0.028808007            3 
 1696000   0.96588977   -7.1570355    581.56094  0.028575125   0.02880057            2 
 1697000   0.96977226   -7.1470682    581.86243  0.028573091  0.028793089            3 
 1698000    0.9824214   -7.1453971    583.50401  0.028636828  0.028785618            1 
 1699000   0.97413288   -7.1798757    580.54642  0.028474908  0.028778189            4 
 1700000   0.96828308   -7.1407449    584.11944  0.028633306  0.028770828            3 
 1701000   0.98835798   -7.1410164    584.61743  0.028640869  0.028763482            3 
 1702000   0.98162103   -7.1608861    585.16858  0.028651027  0.028756134            1 
 1703000   0.96057566   -7.1810241    584.11037  0.028582422  0.028748691            3 
 1704000   0.98848005   -7.1773572    583.13261  0.028517831  0.028741203            3 
 1705000   0.97483225   -7.1524394     583.2123     0.028505  0.028733683            5 
 1706000    1.0084609   -7.1805568    582.69609  0.028463076  0.028726255            2 
 1707000   0.99248626   -7.1974734    582.81708  0.028452308  0.028718795            6 
 1708000   0.98619595   -7.2101911    585.70403  0.028576504  0.028711301            6 
 1709000    0.9635862   -7.1686897    584.92775   0.02852193  0.028703842            4 
 1710000   0.97492029   -7.1786684    583.67604  0.028444252  0.028696401            3 
 1711000   0.98925769   -7.1765846    587.43885  0.028610893  0.028688938            2 
 1712000   0.98765236   -7.2147679    585.36541  0.028493254  0.028681487            2 
 1713000    0.9687898   -7.2028565    583.14341  0.028368525  0.028673972            6 
 1714000   0.98561354   -7.2011742    586.34998  0.028507875  0.028666414            4 
 1715000   0.98426839   -7.1658886    583.38926  0.028347389  0.028658872            5 
 1716000   0.94694347   -7.1951909    586.07915  0.028461497  0.028651483            2 
 1717000   0.96075577   -7.1585954    586.99935  0.028489582  0.028644052            2 
 1718000   0.97991008   -7.1244214    586.37835  0.028442877  0.028636716            6 
 1719000   0.97679308   -7.1899999    587.38806  0.028475279  0.028629417            2 
 1720000   0.97918085   -7.1942487    587.54363  0.028466261  0.028622004            1 
 1721000    0.9630666   -7.1572018    589.07033  0.028523646   0.02861459            2 
 1722000   0.97518628   -7.1463126    586.49843  0.028382619  0.028607233            4 
 1723000    0.9717146   -7.1439154    587.68332  0.028423453  0.028599846            2 
 1724000   0.97566682   -7.2029229    587.49387  0.028397809  0.028592418            5 
 1725000    0.9847202   -7.1828579    586.16757  0.028317274  0.028585017            3 
 1726000   0.95580201   -7.1986664    587.87052  0.028383088  0.028577619            3 
 1727000   0.96078974   -7.1901112    588.61081  0.028402375  0.028570256            2 
 1728000    0.9674547   -7.1877411    589.90285  0.028448247  0.028562901            2 
 1729000   0.96944236   -7.2139407    588.01812  0.028340954  0.028555572            1 
 1730000   0.97920184   -7.1721936    589.84614  0.028412627  0.028548222            2 
 1731000   0.98084574    -7.160828    589.70406  0.028389373  0.028540875            3 
 1732000   0.98895285   -7.2205676    588.73945  0.028326571  0.028533466            3 
 1733000   0.98943162   -7.1900255    590.22598  0.028381707  0.028526076            2 
 1734000   0.97605653    -7.177827    590.29947  0.028368871  0.028518735            2 
 1735000   0.99211301   -7.1908565    589.39137  0.028308903  0.028511421            2 
 1736000   0.97497645   -7.1874688    589.08518  0.028277898  0.028503975            1 
 1737000   0.95222051   -7.2241534    590.19653  0.028314936  0.028496487            3 
 1738000   0.96148526   -7.2177585    589.55145  0.028267714  0.028489031            3 
 1739000   0.99263251   -7.1762132    590.98637  0.028320221  0.028481527            2 
 1740000   0.98443421   -7.2201046    590.98081  0.028303678  0.028474142            7 
 1741000   0.94291391   -7.1891061    589.54312  0.028218606  0.028466682            2 
 1742000    0.9932287   -7.2308127    589.61913  0.028206043  0.028459168            2 
 1743000   0.96934494   -7.1980176    591.16045  0.028263552  0.028451725            4 
 1744000   0.98646355   -7.1820328    590.62692  0.028221852  0.028444295            1 
 1745000    1.0007923   -7.1983385    593.77712  0.028356118  0.028436896            2 
 1746000   0.95780079   -7.2131578    592.51557  0.028279666  0.028429549            3 
 1747000   0.96360389   -7.1686968    594.47378  0.028356887  0.028422341            2 
 1748000   0.95006337   -7.2147881    592.73879  0.028257952  0.028415143            4 
 1749000   0.98668861   -7.1994448    593.60507   0.02828307  0.028407861            5 
 1750000   0.96929222   -7.1942817    594.54157  0.028311504  0.028400736            5 
 1751000   0.97578078   -7.1488562    594.80856  0.028308041  0.028393636            1 
 1752000   0.97040804   -7.1868474     595.5679  0.028328001   0.02838646            1 
 1753000   0.97292618   -7.1596524    594.43737  0.028258099  0.028379204            2 
 1754000   0.98337446   -7.1882819    594.68345   0.02825368  0.028371937            3 
 1755000   0.97212695   -7.2034352    592.71781  0.028144245  0.028364565            3 
 1756000   0.98111236   -7.2208726    594.01664  0.028189856  0.028357279            3 
 1757000   0.95750475   -7.2220765     593.1923  0.028134714  0.028349881            4 
 1758000   0.96763105   -7.2185155    593.94454  0.028154368   0.02834257            2 
 1759000   0.96920897    -7.199158    596.02215  0.028236789  0.028335296            2 
 1760000   0.96668782   -7.1707792    595.77573  0.028209078  0.028327962            5 
 1761000   0.96197366   -7.1863888    595.21194   0.02816638  0.028320729            2 
 1762000   0.99376392   -7.1927069    595.50092  0.028164062  0.028313496            2 
 1763000   0.96945034   -7.1715852    597.59312   0.02824698  0.028306201            4 
 1764000   0.96362467   -7.1859677    595.52936  0.028133473  0.028298845            2 
 1765000   0.98694389   -7.1666411    597.38534  0.028205163  0.028291577            5 
 1766000   0.96473039   -7.2028687    595.05087  0.028079033   0.02828421            2 
 1767000   0.94118926   -7.1714118     596.9864  0.028154424  0.028276831            2 
 1768000   0.97496595   -7.1957605    595.13446  0.028051209  0.028269523            2 
 1769000   0.97051185   -7.2027352    597.24415  0.028134735  0.028262111            3 
 1770000   0.98754207   -7.1823879    596.90406  0.028102827  0.028254745            3 
 1771000   0.98425501   -7.1925703    598.30006  0.028152647  0.028247371            2 
 1772000   0.95528705   -7.1685073    597.29747   0.02808961  0.028240031            5 
 1773000   0.96919797   -7.2218384    596.95937  0.028057876  0.028232726            3 
 1774000   0.99124427   -7.2235507     597.4927  0.028067113  0.028225372            3 
 1775000   0.94242527   -7.2025304    597.26845  0.028040772  0.028218111            3 
 1776000   0.95392031   -7.1823153    600.02319  0.028154241  0.028210863            2 
 1777000   0.97306529   -7.2249959    599.65677  0.028121214   0.02820369            2 
 1778000   0.95666179   -7.2122372    599.22443  0.028085135  0.028196542            2 
 1779000    0.9742318   -7.2072349    599.17996  0.028067264  0.028189409            2 
 1780000   0.95353324   -7.1619071    600.09643  0.028094402  0.028182274            5 
 1781000   0.97872917    -7.189252    599.72895  0.028061433  0.028175277            3 
 1782000   0.97368317   -7.1918881     601.4804  0.028127591  0.028168157            4 
 1783000   0.96653613   -7.2002745    601.18228  0.028097882  0.028161073            4 
 1784000   0.95211722   -7.2114482    601.32149  0.028088635  0.028154003            2 
 1785000   0.96851439      -7.1948    598.63146  0.027947314  0.028146777            2 
 1786000   0.96681203   -7.1916116    600.34372  0.028011559  0.028139615            2 
 1787000   0.97206868   -7.2222847    600.42668  0.027999752  0.028132348            4 
 1788000   0.97038709   -7.2222696    600.67134  0.027995495  0.028125088            3 
 1789000   0.97749995   -7.2380281    599.24708  0.027913503  0.028117774            4 
 1790000   0.95814089   -7.2275519    601.05703  0.027982171  0.028110551            2 
 1791000   0.96992423   -7.1907552    601.64346  0.027993833  0.028103299            3 
 1792000   0.96031912   -7.2139627    601.76982  0.027984087  0.028095892            3 
 1793000   0.99666344   -7.1485602    601.68557  0.027964564  0.028088634            3 
 1794000   0.96790431   -7.2153816    600.88386  0.027911736  0.028081389            2 
 1795000   0.94010583   -7.2285051    601.56954   0.02792802  0.028074015            3 
 1796000   0.96179961   -7.2258981    601.38194  0.027903765  0.028066647            4 
 1797000   0.95503154   -7.1878223    602.18129  0.027925306  0.028059374            2 
 1798000    0.9722463   -7.2398035    601.47126  0.027876866  0.028052087            1 
 1799000   0.95578108   -7.2139962    601.81549  0.027877316  0.028044809            3 
 1800000   0.94870254   -7.1728578    603.17426  0.027924734  0.028037643            2 
 1801000   0.97110002   -7.2062334    602.93796  0.027898295  0.028030494            2 
 1802000   0.96725227   -7.2434505    601.28471  0.027806359  0.028023279            2 
 1803000   0.98817419   -7.2340907    603.40475  0.027888923  0.028016049            3 
 1804000   0.95328204   -7.2125203    603.34967   0.02787092  0.028008878            2 
 1805000   0.96120392    -7.188244    602.98132  0.027838473  0.028001629            4 
 1806000   0.96126577   -7.2272318    604.21955  0.027880193  0.027994345            2 
 1807000   0.96013937   -7.2161644    604.46943  0.027876288  0.027987071            7 
 1808000   0.98718875   -7.2001576    604.42627  0.027858881  0.027979799            5 
 1809000   0.98152524   -7.2114684    604.02206   0.02782486  0.027972615            2 
 1810000   0.95792546   -7.2146927    604.66891  0.027839268   0.02796537            4 
 1811000   0.94772298   -7.2433979      603.756  0.027781888  0.027958155            3 
 1812000   0.96012136   -7.2449226    604.18055  0.027786081  0.027950913            6 
 1813000   0.96001018   -7.1984849    604.48038  0.027784537  0.027943638            6 
 1814000   0.97481389   -7.2045841    605.85194  0.027832228  0.027936369            4 
 1815000   0.96703061   -7.2036333     605.4221  0.027797158  0.027929141            3 
 1816000   0.95735362    -7.174539    606.60243  0.027836015  0.027921933            3 
 1817000   0.95925967   -7.2266879     604.4783  0.027723276  0.027914717            1 
 1818000   0.96706952   -7.2668574    604.07257  0.027689428  0.027907342            4 
 1819000   0.95830764   -7.2193236    606.24623  0.027773787  0.027899877            1 
 1820000   0.97133589   -7.2238477    606.00815  0.027747626  0.027892534            3 
 1821000   0.93065577   -7.1850158     607.5975  0.027805121  0.027885212            2 
 1822000   0.97405357   -7.2251407    605.85279  0.027710062  0.027877977            2 
 1823000   0.95183591   -7.2348488    605.81501  0.027693134  0.027870643            1 
 1824000   0.96691813   -7.2242916    605.15595  0.027647841  0.027863287            5 
 1825000   0.95385816    -7.194445    605.68533  0.027656864  0.027855903            1 
 1826000   0.96608321   -7.2214667    608.28847  0.027760518  0.027848656            2 
 1827000   0.94789389   -7.2341378    605.31025  0.027609481  0.027841392            3 
 1828000   0.96769405   -7.2116191    608.29225  0.027730318  0.027834115            2 
 1829000   0.97296865   -7.1908451    609.72505  0.027780438  0.027826882           10 
 1830000    0.9317555   -7.2329192    608.86979  0.027726311  0.027819593            3 
 1831000   0.97113536   -7.2236389    607.83485  0.027664066   0.02781226            1 
 1832000   0.94774842   -7.2273912     606.4928  0.027587919  0.027805026            4 
 1833000   0.97125928   -7.2451915     608.4555  0.027662098  0.027797673            4 
 1834000   0.93934396   -7.2151653    609.36964  0.027688551  0.027790409            4 
 1835000   0.94131555   -7.2321384    608.26952  0.027623502  0.027783211            4 
 1836000   0.96684953   -7.2233066    607.77554  0.027586036  0.027775947            2 
 1837000     0.989363    -7.235868    610.19021  0.027680558  0.027768675            4 
 1838000   0.95808821    -7.251812    609.74416  0.027645274  0.027761308            2 
 1839000   0.94974977   -7.2082358    610.06366  0.027644719  0.027754013            9 
 1840000   0.97419492   -7.2146468    608.80398  0.027572644  0.027746777            2 
 1841000   0.94094909    -7.203639    610.32353   0.02762645  0.027739463            2 
 1842000   0.95146538   -7.2346613       611.38  0.027659247  0.027732163            2 
 1843000   0.96921785   -7.2654417    610.05427  0.027584295  0.027724798            2 
 1844000   0.96554208   -7.2280331    611.04403  0.027614065  0.027717406            6 
 1845000   0.95422009   -7.2596432    609.39791  0.027524748  0.027710081            1 
 1846000   0.96364883   -7.2603068    609.72352  0.027524536  0.027702741            9 
 1847000   0.94956041   -7.2543282    610.66555  0.027552136  0.027695408            2 
 1848000   0.95502981   -7.2037646     611.2737  0.027564651  0.027688154            4 
 1849000   0.94552301   -7.2285974    611.51539  0.027560636  0.027680998            2 
 1850000   0.97841804   -7.2025067    613.33848  0.027627859  0.027673856            2 
 1851000   0.92782315   -7.2182404     612.3853  0.027570021  0.027666735            1 
 1852000   0.96748383    -7.246294    611.60234  0.027519904  0.027659514            1 
 1853000   0.96026834   -7.2104899    611.95824  0.027521058  0.027652266            2 
 1854000    0.9589016   -7.2126024     614.0248  0.027599101  0.027645034            4 
 1855000   0.97602479   -7.2075622    614.00082  0.027583145  0.027637865            3 
 1856000   0.94760609   -7.2126422    614.88871   0.02760815  0.027630678            2 
 1857000    0.9569183   -7.2436106    612.76467  0.027497966  0.027623475            2 
 1858000   0.95766671   -7.2360342     613.6343   0.02752217  0.027616277            3 
 1859000   0.96003001   -7.2321729    613.49672  0.027501198  0.027608989            2 
 1860000   0.94146943   -7.1888391    614.44005  0.027528676  0.027601807            3 
 1861000   0.95638751    -7.248891    612.25637  0.027416101  0.027594501            1 
 1862000   0.93932505   -7.2479012    612.05771  0.027392486  0.027587158            2 
 1863000   0.95582019   -7.2663279    614.18951   0.02747314  0.027579798            3 
 1864000   0.95865268   -7.2420838    614.90873  0.027490555  0.027572516            4 
 1865000   0.95803823   -7.2355519    615.01244  0.027480449  0.027565221            6 
 1866000   0.96768358    -7.228043    615.12638   0.02747081  0.027557878            3 
 1867000   0.96415307    -7.206595    615.43127  0.027469705  0.027550613            2 
 1868000   0.94767299   -7.2513871    616.65741  0.027509699  0.027543396            3 
 1869000   0.92339796     -7.25345    615.96164  0.027463958  0.027536147            2 
 1870000   0.93759818   -7.2366463    615.02464  0.027407515  0.027528823            3 
 1871000   0.96066983   -7.2308775    615.31204  0.027405667  0.027521476            2 
 1872000   0.94619056   -7.2662911    613.12503  0.027293671  0.027514092            2 
 1873000   0.95085013   -7.2086553    615.58076  0.027388359  0.027506769            2 
 1874000   0.95396783   -7.2477767    615.76433  0.027381907  0.027499499            3 
 1875000    0.9450945   -7.2309551     615.4275  0.027352333  0.027492139            1 
 1876000   0.95163452   -7.2225746    616.39218  0.027380605  0.027484895            2 
 1877000   0.94977231   -7.1897294    617.44392  0.027412712  0.027477698            2 
 1878000   0.95436736   -7.2664992    615.78104  0.027324327  0.027470482            3 
 1879000   0.94769592   -7.2441322    616.36482  0.027335676  0.027463167            5 
 1880000   0.95594068   -7.2732365     615.7431  0.027293577  0.027455853            4 
 1881000   0.94882978   -7.2341422    618.56926  0.027404273   0.02744859            2 
 1882000   0.93303118    -7.232692    616.96609  0.027318725  0.027441275            1 
 1883000   0.94668347   -7.2491109    615.72591  0.027249332  0.027434047            3 
 1884000   0.95572407   -7.2495305    618.72254  0.027367416  0.027426773            7 
 1885000   0.95305584   -7.2359702     616.6608  0.027261751   0.02741951            3 
 1886000   0.95048069    -7.243583    618.66643  0.027335915  0.027412265            5 
 1887000   0.97068006   -7.2859069    618.88523  0.027331091   0.02740506            3 
 1888000   0.93567308   -7.2334156    617.56644  0.027258406  0.027397791            4 
 1889000   0.95033153   -7.2379397    617.19728   0.02722769  0.027390489            4 
 1890000   0.94419245   -7.2659578    618.21126  0.027257992   0.02738321            2 
 1891000    0.9381688   -7.2328328    618.01881  0.027235096  0.027376031            3 
 1892000   0.94587998   -7.2434931    619.31385  0.027277742  0.027368877            2 
 1893000   0.94115643   -7.2130643    620.00112  0.027293587  0.027361704            3 
 1894000   0.96037534   -7.2086319    620.15065  0.027285756  0.027354545            4 
 1895000   0.96880376   -7.2078927    621.08505  0.027312447  0.027347416            1 
 1896000   0.96562199   -7.2276205    620.31394   0.02726415  0.027340302            1 
 1897000   0.94440344   -7.2252073    620.75149  0.027268999  0.027333146            2 
 1898000   0.95121875   -7.2261471    620.59497  0.027247759  0.027326017            3 
 1899000   0.95679743   -7.2519335    621.02267   0.02725218  0.027318955            3 
 1900000   0.95227516   -7.2385369    621.01366  0.027237441  0.027311899            5 
 1901000   0.94329745   -7.2442448    622.71976  0.027297903  0.027304835            1 
 1902000   0.93619267   -7.2807052    620.87812  0.027202862   0.02729782            3 
 1903000   0.96453985   -7.2367154    621.91154  0.027233821  0.027290773            2 
 1904000   0.93176396   -7.2127375    620.37481  0.027152259  0.027283675            2 
 1905000   0.94147712   -7.2204322     622.8954  0.027248268  0.027276581            4 
 1906000   0.93733992   -7.2426287    622.77236  0.027228592  0.027269495            2 
 1907000   0.95714688   -7.2483642    621.98273  0.027179808  0.027262439            4 
 1908000   0.95466808   -7.2282137    622.43487  0.027185311  0.027255281            4 
 1909000    0.9597579   -7.2281324    623.28188  0.027208044  0.027248144            3 
 1910000   0.95119394   -7.2250396    622.06983  0.027140918  0.027241034            3 
 1911000   0.94752334   -7.2383702    622.12247   0.02712901  0.027233804            3 
 1912000   0.92972376   -7.2498881    622.69348  0.027139709  0.027226559            3 
 1913000   0.94788323   -7.2552204     624.2919  0.027195152  0.027219357            1 
 1914000   0.93779618   -7.2593189    622.04544  0.027083135  0.027212094            3 
 1915000   0.95913773   -7.2511905    622.70776  0.027097814  0.027204751            2 
 1916000   0.94708448   -7.2719156    621.67936  0.027038942  0.027197431            4 
 1917000   0.94039147   -7.2586286    622.93519  0.027079429  0.027190141            2 
 1918000   0.94166451   -7.2472568    622.45444  0.027044423  0.027182855            2 
 1919000   0.93170457   -7.2501026    625.48476  0.027161923  0.027175668            2 
 1920000   0.95178155   -7.2304814    623.58596  0.027065363  0.027168497            2 
 1921000   0.92397913   -7.2665712    624.23419  0.027079394  0.027161344            3 
 1922000   0.95524093   -7.2643418    624.44795  0.027074573  0.027154147            3 
 1923000   0.97586249   -7.2448703    626.27629  0.027139725  0.027146929            2 
 1924000    0.9586003   -7.2466455    623.58317  0.027008973  0.027139778            2 
 1925000   0.93697112   -7.2376696    624.28629  0.027025381  0.027132671            1 
 1926000   0.93490538   -7.2669577    624.62846  0.027026153  0.027125482            3 
 1927000   0.95469285   -7.2050471    628.38265  0.027174479  0.027118391            2 
 1928000   0.93727641   -7.2330455    625.14951  0.027020639  0.027111352            3 
 1929000   0.96297258   -7.2664569    625.50547  0.027022009  0.027104311            2 
 1930000   0.94844546   -7.2383077    624.30571  0.026956205  0.027097154            2 
 1931000   0.94520828   -7.2546791    626.13171  0.027021047  0.027089967            2 
 1932000   0.96079175   -7.2421734    623.97982  0.026914244  0.027082729            3 
 1933000    0.9300468   -7.2619119    626.81796  0.027022675  0.027075561            3 
 1934000   0.93504406   -7.2491046    626.64391  0.027001203    0.0270684            3 
 1935000   0.95278324   -7.2620633    627.35979  0.027018079   0.02706123            3 
 1936000   0.92263392   -7.2551019    626.85851  0.026982546  0.027054089            4 
 1937000   0.93713627   -7.2306806    626.09118  0.026935604  0.027046949            4 
 1938000   0.92822422   -7.2698799    626.93816  0.026958125  0.027039752            2 
 1939000   0.97138402   -7.2994683    627.05034  0.026949043  0.027032535            1 
 1940000   0.92148392    -7.258962    626.90595   0.02692895  0.027025388            4 
 1941000   0.95550934   -7.2824679    627.79812   0.02695338  0.027018292            2 
 1942000   0.95529886   -7.2579917    628.00738   0.02694848  0.027011193            2 
 1943000    0.9432698   -7.2691394    629.51626  0.026999325  0.027004061            2 
 1944000   0.93162983   -7.2650918     629.2915  0.026975802  0.026997039            4 
 1945000   0.95655204   -7.2569458    629.53579  0.026972399  0.026990029            3 
 1946000   0.92815071   -7.2654971    630.00451   0.02697861  0.026982985            1 
 1947000   0.95042521    -7.269572    630.12021  0.026969706  0.026975997            3 
 1948000   0.92771657   -7.2869941     631.0184  0.026994285  0.026968992            2 
 1949000   0.94885643   -7.2461151    631.47319   0.02699988   0.02696203            1 
 1950000   0.96097074   -7.2708637    630.39699  0.026940042  0.026955089            4 
 1951000   0.93736178   -7.2486447    630.98617    0.0269514  0.026947971            3 
 1952000   0.95487801   -7.2687101    630.96874  0.026936848  0.026940895            5 
 1953000   0.92360689    -7.282836     631.1155  0.026929318  0.026933812            5 
 1954000   0.94180189   -7.2947399    629.44983    0.0268445  0.026926795            2 
 1955000   0.92411015   -7.2644017    630.60396  0.026879964  0.026919839            3 
 1956000   0.95434413   -7.2629637    629.92394   0.02683725  0.026912791            2 
 1957000   0.93480998   -7.2705655    632.49309  0.026932937  0.026905791            2 
 1958000   0.94282445   -7.2521728    632.10575  0.026902696  0.026898819            2 
 1959000   0.90538979   -7.2432057    632.41968  0.026902318  0.026891872            3 
 1960000   0.92767816    -7.262499    632.76696  0.026903357  0.026884997            4 
 1961000   0.92744163   -7.2606587    631.24789  0.026825085  0.026878057            6 
 1962000   0.93258827   -7.2722789    631.03303  0.026802286  0.026871008            2 
 1963000    0.9447677   -7.2727134    631.05125  0.026789406  0.026863956            6 
 1964000    0.9424053   -7.2520792    633.80975   0.02689281  0.026856904            3 
 1965000   0.93709129   -7.2584799    631.49671  0.026781031  0.026849924            4 
 1966000   0.93595469    -7.257499    633.14315  0.026837197  0.026842919            3 
 1967000   0.93880742   -7.2790497    632.16262  0.026782012     0.026836            2 
 1968000   0.94664099   -7.2366963    635.10153  0.026892849  0.026829041            3 
 1969000   0.93015321   -7.2381908    633.54963  0.026813511  0.026822161            3 
 1970000   0.92570496   -7.2908381    633.92744  0.026815882  0.026815294            4 
 1971000   0.93048943   -7.2981436    635.29572  0.026860127  0.026808449            4 
 1972000   0.96002063   -7.2781468     635.2925   0.02684637  0.026801652            2 
 1973000    0.9278325   -7.2147505    636.18968  0.026870657  0.026794889            2 
 1974000   0.92549133   -7.2821273    637.40352  0.026908288  0.026788179            2 
 1975000   0.92637245   -7.2545627    637.12603  0.026882955   0.02678152            5 
 1976000   0.95668941   -7.2502135    636.83057   0.02685689  0.026774869            2 
 1977000   0.92253642     -7.25856    636.77763  0.026841074  0.026768277            3 
 1978000   0.94358932   -7.2663407    636.29645  0.026807231  0.026761611            2 
 1979000   0.92562959   -7.2815398    637.99951    0.0268654  0.026754981            2 
 1980000   0.92990355   -7.2793601    637.73492  0.026840695  0.026748275            4 
 1981000   0.95423647   -7.2888939    638.13263  0.026843877  0.026741543            2 
 1982000   0.93294463   -7.2818273    637.91957  0.026821374  0.026734901            2 
 1983000   0.92258965   -7.3051822    635.56788  0.026709021  0.026728089            6 
 1984000   0.92686795   -7.2808352    636.19886  0.026722062  0.026721208            4 
 1985000   0.92520655   -7.2900319    637.10049  0.026746452  0.026714327            2 
 1986000   0.95378379   -7.2702939    638.40479  0.026787714  0.026707508            2 
 1987000   0.93069811   -7.2675218     637.9795  0.026756396  0.026700772            2 
 1988000   0.93097776   -7.2725579    638.13454  0.026749436  0.026694059            2 
 1989000   0.94516029   -7.2867554     638.9152  0.026768694  0.026687339            2 
 1990000    0.9265325   -7.2700025    637.86489   0.02671126  0.026680625            2 
 1991000   0.92779545   -7.2979921    638.60567  0.026728849  0.026673893            8 
 1992000   0.94056885   -7.3070014    637.08669  0.026651886  0.026667158            3 
 1993000   0.96681713   -7.2589501    640.49813  0.026781156  0.026660494            2 
 1994000    0.9408499   -7.3149292    638.59808  0.026688318  0.026653801            2 
 1995000   0.89149896   -7.2862933    638.30767   0.02666281  0.026647112            2 
 1996000   0.93060698   -7.2891733    637.86274  0.026630876  0.026640317            2 
 1997000   0.92589209   -7.2837919    639.87468  0.026701497  0.026633497            4 
 1998000   0.91692809   -7.2754178    638.87573  0.026646469  0.026626768            6 
 1999000   0.92885049   -7.2832833    640.28275  0.026691794  0.026620058            2 
 2000000   0.94484416    -7.314871    640.80745   0.02670031  0.026613198            3 
 2001000   0.90942493   -7.3121183    639.11804   0.02661661  0.026606378            3 
 2002000    0.9338367   -7.2893444     640.3086  0.026652872  0.026599554            1 
 2003000   0.93994923   -7.2859726    640.24242  0.026636812  0.026592907            3 
 2004000   0.93593094   -7.2693635    641.71009  0.026684551  0.026586225            4 
 2005000   0.94355892   -7.2645093    642.50644  0.026704341  0.026579533            2 
 2006000   0.93620518   -7.2660619    642.02749  0.026671132  0.026572886            2 
 2007000   0.93262184   -7.2765067    641.20428  0.026623662  0.026566241            3 
 2008000    0.9423633   -7.2828354    642.36842  0.026658716  0.026559603            1 
 2009000   0.92255352   -7.2914261    641.78959  0.026621436  0.026552945            6 
 2010000   0.91874384   -7.3009771     641.2092  0.026584129  0.026546229            3 
 2011000   0.93016387    -7.286035    641.97427  0.026602613  0.026539594            4 
 2012000   0.93877001   -7.2990285    642.37843  0.026606131   0.02653295            6 
 2013000   0.93671442   -7.2828312    642.85266  0.026612546  0.026526337            3 
 2014000   0.94377663   -7.2877123    643.70984    0.0266348  0.026519745            5 
 2015000   0.92109223   -7.3268278    640.35752  0.026482941  0.026513086            3 
 2016000   0.91852949   -7.3052205    641.68896  0.026524841  0.026506433            4 
 2017000   0.91890286   -7.3040767     642.9409  0.026563415   0.02649975            2 
 2018000   0.92367875   -7.3071311    644.60119  0.026618814  0.026493067            3 
 2019000   0.92423912   -7.2961796    643.91555   0.02657733  0.026486353            1 
 2020000   0.94065686   -7.3084929    643.41003  0.026543318  0.026479633            1 
 2021000   0.90851916   -7.2708337    644.72246  0.026584301  0.026473063            3 
 2022000   0.91711823   -7.2817098    645.94267  0.026621442  0.026466528            2 
 2023000   0.93377138   -7.3116909     644.7969  0.026561085  0.026459915            5 
 2024000    0.9368656   -7.2823477    645.01872  0.026557095  0.026453315            2 
 2025000   0.90540161   -7.3152552    642.81893  0.026453454  0.026446594            3 
 2026000   0.94725244   -7.2831639    643.42207  0.026465205   0.02643992           11 
 2027000   0.93567755   -7.2908809    644.15725  0.026482373  0.026433227            2 
 2028000   0.93391437   -7.2673813     645.3398  0.026517908  0.026426561            3 
 2029000   0.92988386   -7.3051015    644.75551  0.026480841  0.026419977            1 
 2030000   0.91096715    -7.334191    645.88195  0.026514037  0.026413338            4 
 2031000   0.94659076   -7.2788863    646.96298  0.026545338  0.026406701            2 
 2032000   0.92844864   -7.3182717    645.27552  0.026463071  0.026400082            5 
 2033000   0.94696821   -7.2730941    645.51564  0.026459897   0.02639342            3 
 2034000   0.92152085   -7.2771544    647.93944  0.026546191  0.026386852            2 
 2035000   0.92850936   -7.2876035     649.1803   0.02658396  0.026380283            1 
 2036000   0.91959632   -7.2845216    645.66018  0.026426825  0.026373653            2 
 2037000   0.90945625   -7.2820726    647.50412  0.026489286   0.02636703            2 
 2038000    0.9310597   -7.2917484    646.59414   0.02643908  0.026360394            6 
 2039000   0.93224394   -7.3088757    648.60065  0.026508119  0.026353726            2 
 2040000   0.91815249   -7.3319264    646.12446  0.026393973  0.026347118            1 
 2041000   0.93106644   -7.3064428     648.0795  0.026460865  0.026340498            2 
 2042000   0.92023792   -7.2651682    648.52328  0.026466017  0.026333899            3 
 2043000   0.93033312   -7.3171397    646.05376  0.026352331  0.026327164            4 
 2044000    0.9304572   -7.3156215    646.96523  0.026376599    0.0263204            3 
 2045000    0.9351153   -7.3270594    646.57687  0.026347876  0.026313729            2 
 2046000   0.93684838   -7.2962759    646.67705  0.026339078  0.026307045            7 
 2047000   0.92241325    -7.286962    648.51217  0.026400919  0.026300373            2 
 2048000   0.92456178   -7.3157321    648.60895  0.026391966  0.026293723            2 
 2049000    0.9302352   -7.2962267    648.62637  0.026379794  0.026287055            3 
 2050000   0.93614432   -7.3072391    647.53392  0.026322517  0.026280428            4 
 2051000   0.92551167   -7.3137526    648.05549  0.026330875  0.026273808            4 
 2052000   0.94125558   -7.2670198    650.76501  0.026428079  0.026267217            2 
 2053000   0.92872947   -7.3034153    649.47083  0.026362674  0.026260707            4 
 2054000   0.92987131   -7.2850742    650.85529  0.026406008  0.026254133            2 
 2055000   0.90209474   -7.2870682    650.73767  0.026388389   0.02624759            2 
 2056000   0.91793192   -7.2781538    650.48356  0.026365254  0.026241098            3 
 2057000   0.91051896   -7.3290807    650.77009  0.026364045  0.026234598            4 
 2058000   0.93532724   -7.2898944    651.50868  0.026381142    0.0262281            5 
 2059000   0.93462477   -7.3041871    651.75619  0.026378347  0.026221597            2 
 2060000   0.93436548   -7.3530726    650.87926  0.026330067  0.026215145            2 
 2061000   0.92204969   -7.3039262     652.2356  0.026372133  0.026208781            1 
 2062000   0.89874294   -7.2721548    652.27741  0.026361033  0.026202398            3 
 2063000   0.92604937   -7.3044718    652.24011  0.026346749  0.026196021            4 
 2064000   0.92410979   -7.2793556    653.10768  0.026369012  0.026189524            3 
 2065000   0.91464929   -7.3289653    652.82001  0.026344633  0.026183054            2 
 2066000   0.90953379   -7.3341924     652.8302  0.026332293  0.026176568            3 
 2067000   0.93951845   -7.2864462    653.64453  0.026352384  0.026170162            2 
 2068000   0.92192601   -7.3289744    654.46075  0.026372532  0.026163668            3 
 2069000   0.90144731   -7.2970653     653.7721  0.026332048  0.026157138            5 
 2070000   0.94261963   -7.3016762    653.91275   0.02632499  0.026150609            5 
 2071000     0.928641    -7.303707    653.20332  0.026283733  0.026144178            3 
 2072000   0.89695713   -7.3067735    653.93665  0.026300541  0.026137692            4 
 2073000   0.91165353   -7.3321253     654.2591  0.026300816  0.026131178            4 
 2074000   0.91643427    -7.340291    652.35409  0.026211592  0.026124637            4 
 2075000   0.90783291   -7.2804446    653.72095  0.026253854  0.026118087            3 
 2076000   0.91452635   -7.2907212    654.82111  0.026285369    0.0261116            3 
 2077000   0.91976919    -7.311864    653.28199  0.026210961  0.026105039            1 
 2078000   0.93072313   -7.2951017    654.79528  0.026259034  0.026098518            2 
 2079000   0.90293792    -7.306106    655.01949  0.026255391  0.026092004            3 
 2080000   0.92512897   -7.2758135    653.98186  0.026201196  0.026085471            2 
 2081000   0.90546461   -7.3084597    654.87127  0.026224222  0.026078913            2 
 2082000   0.89929635   -7.3468168    653.49497  0.026156539  0.026072331            5 
 2083000   0.90837148   -7.3155273    655.79098  0.026235837  0.026065697            5 
 2084000   0.91916111   -7.3079405    656.03158  0.026232869  0.026059105            2 
 2085000    0.9367645    -7.324318    653.37401  0.026114069  0.026052528            2 
 2086000   0.91743583   -7.2963735     654.5016  0.026146596   0.02604602            5 
 2087000   0.90484826   -7.3208309    654.89203  0.026149658  0.026039473            2 
 2088000   0.92583998   -7.2990453     658.6056  0.026285345  0.026032997            2 
 2089000   0.92307403   -7.2828226    655.30254  0.026140998  0.026026508            4 
 2090000   0.90244324   -7.2957694    656.28822  0.026167792   0.02601998            1 
 2091000    0.9059829    -7.296938    655.90508  0.026140008  0.026013552            2 
 2092000   0.92208462   -7.3271065    655.58765  0.026114868  0.026007018            3 
 2093000   0.93768782   -7.3288023    656.66506  0.026145288  0.026000449            3 
 2094000   0.92395785   -7.3282357    657.01348  0.026146668  0.025993889            1 
 2095000   0.94512699   -7.3030317     657.2105  0.026142025   0.02598738            3 
 2096000   0.91971049   -7.3178671    655.92937  0.026078617  0.025980847            4 
 2097000   0.91541309   -7.2936124    655.67357  0.026056015  0.025974202            4 
 2098000   0.92688867   -7.3301246    657.54052  0.026117752  0.025967607            2 
 2099000   0.93037676   -7.3204744    657.08997  0.026087421  0.025961012            1 
 2100000   0.89648571   -7.3174311    655.92482  0.026028762  0.025954449            3 
 2101000   0.92128819   -7.3320937    656.99841  0.026058956  0.025947843            1 
 2102000   0.90871512   -7.2928454    656.68782  0.026034246  0.025941236            3 
 2103000   0.91438835   -7.3056812    657.69481  0.026061769  0.025934655            3 
 2104000   0.90937485    -7.323657    655.14967  0.025948577  0.025928026            1 
 2105000   0.92081036   -7.3169716    657.92049  0.026045942    0.0259213            7 
 2106000   0.92144918    -7.313889    656.36183  0.025971899  0.025914545            2 
 2107000   0.92084088   -7.2758107    656.40718  0.025961366  0.025907848            1 
 2108000   0.90405117   -7.3370719    656.61282   0.02595718  0.025901036            3 
 2109000    0.9149627   -7.3915648     654.8589  0.025875569   0.02589417            6 
 2110000   0.89468266   -7.3411782    655.78212  0.025899768  0.025887341            2 
 2111000   0.92826751   -7.3320415    655.91111  0.025892591   0.02588052            4 
 2112000   0.90775101   -7.3299877    656.29271  0.025895388  0.025873764            3 
 2113000   0.88938776   -7.3264951    656.78021  0.025902359  0.025866988            3 
 2114000   0.90005072   -7.3264467    658.13783  0.025943623  0.025860268            2 
 2115000   0.91554419   -7.3646017    656.46257  0.025865349  0.025853455            8 
 2116000   0.92570209   -7.3234801    657.15315  0.025880322  0.025846681            2 
 2117000   0.92728388   -7.3681653    656.43255  0.025839732  0.025839896            4 
 2118000   0.92208865    -7.274371    659.98487  0.025967299  0.025833166            1 
 2119000   0.90955985    -7.325708    658.03945  0.025878538   0.02582647            2 
 2120000   0.91660556   -7.3013182    658.41025  0.025880906  0.025819741            3 
 2121000   0.92438024   -7.3255734    657.78722  0.025844225  0.025813013            3 
 2122000   0.91384387   -7.3396464    659.02641   0.02588071  0.025806245            4 
 2123000   0.91299619   -7.3434941    658.36633   0.02584261  0.025799474            3 
 2124000   0.89438283   -7.3230761    659.28983  0.025866676  0.025792674            2 
 2125000   0.91202358   -7.3184705    659.03613  0.025844554  0.025785924            2 
 2126000   0.92370849   -7.3244021    658.25649  0.025801838  0.025779156            2 
 2127000   0.91000095   -7.3449032    659.30457   0.02583077  0.025772473            5 
 2128000   0.92540819   -7.3158967    661.05083  0.025887015  0.025765765            3 
 2129000   0.93779294   -7.2748835    659.08544  0.025797927  0.025759013            3 
 2130000   0.90706528   -7.3534635    658.36924  0.025757795  0.025752234            3 
 2131000   0.90672731   -7.3340136    660.94463  0.025846419  0.025745464            3 
 2132000   0.89281789   -7.2964671    660.61636  0.025821465  0.025738754            2 
 2133000   0.90429643   -7.3590335    658.05679   0.02570936  0.025731962            4 
 2134000    0.9112952   -7.3436641    659.68733  0.025760986  0.025725182            1 
 2135000   0.92286972   -7.3503728    659.61376  0.025746049  0.025718364            3 
 2136000   0.92517911    -7.337685    660.06407  0.025751563  0.025711554            3 
 2137000   0.89713725    -7.339568    657.41787  0.025636323  0.025704712            4 
 2138000   0.92108163   -7.3186622    660.74022  0.025753828   0.02569789            9 
 2139000    0.9050818   -7.3370744    659.08102  0.025677148  0.025691076            2 
 2140000   0.91067858   -7.3540739    658.56518  0.025645062  0.025684221           11 
 2141000   0.92825062    -7.316741    660.57581  0.025711342  0.025677271            1 
 2142000   0.90632082   -7.3222296    659.83335  0.025670454  0.025670441            1 
 2143000   0.92113671   -7.3097765    660.14121  0.025670447  0.025663554            2 
 2144000   0.89991644    -7.328536    660.36252  0.025667076  0.025656734            3 
 2145000    0.9283377   -7.3413945    660.12758  0.025645982  0.025649857            7 
 2146000   0.90497294   -7.3050009     660.7362  0.025657665  0.025642983            4 
 2147000   0.90381893   -7.3268208    660.32602  0.025629794  0.025636112            4 
 2148000   0.90631195    -7.293523    662.13338   0.02568798  0.025629266            2 
 2149000   0.90025576   -7.3229283    662.62095  0.025694934  0.025622464            3 
 2150000   0.90385954   -7.3227316     662.1423   0.02566443  0.025615681            1 
 2151000   0.91130633   -7.3398649    660.78828  0.025600042  0.025608849            2 
 2152000   0.89887061    -7.346448    662.59664  0.025658172  0.025601962            3 
 2153000   0.90552756   -7.3503163    661.07377  0.025587311   0.02559506            3 
 2154000   0.91995947   -7.3382426    660.79129  0.025564504  0.025588235            2 
 2155000   0.90393796   -7.3276262    660.45798  0.025539752  0.025581377            6 
 2156000   0.90734095   -7.3560121    661.94137  0.025585241  0.025574556            2 
 2157000   0.89390235   -7.2919424    661.08773  0.025540401  0.025567787            4 
 2158000   0.89967751   -7.3696892    662.29096  0.025575029  0.025561004            3 
 2159000   0.89863681   -7.3489332    661.12565  0.025518205  0.025554155            1 
 2160000   0.88645581   -7.3252064    662.78623  0.025570456  0.025547314            3 
 2161000   0.90475136   -7.3220037    661.91203  0.025524912  0.025540544            3 
 2162000   0.90452032   -7.3299335    664.85646  0.025626598  0.025533721            2 
 2163000   0.88714969    -7.352235    663.78802  0.025573587  0.025526917            2 
 2164000   0.91627012   -7.3267739    664.67388  0.025595883  0.025520081            2 
 2165000   0.89187163    -7.375604    661.57679  0.025464849  0.025513245            7 
 2166000    0.9255786   -7.3170109    665.57029  0.025606736  0.025506412            4 
 2167000    0.9145897   -7.3481132    661.94037  0.025455329  0.025499548            2 
 2168000   0.90273217   -7.3541578    663.67449  0.025510243  0.025492741            1 
 2169000   0.87169524   -7.3440078    665.59173  0.025572143  0.025485891            3 
 2170000   0.90218276   -7.3499216    663.83668   0.02549296  0.025479115            2 
 2171000   0.90305915   -7.3474096    665.31675   0.02553803  0.025472358            2 
 2172000   0.91754768    -7.349837    664.83356  0.025507733  0.025465536            3 
 2173000   0.90889277   -7.3598695    663.24845  0.025435207  0.025458673            3 
 2174000   0.89777099   -7.3783445    663.92688  0.025449512  0.025451821            3 
 2175000   0.90123902   -7.3434165    663.66642  0.025427832  0.025444925            2 
 2176000   0.88737409   -7.3382861    663.93719  0.025426516    0.0254381            2 
 2177000   0.91823503   -7.3325032    665.44682  0.025472624  0.025431325            1 
 2178000   0.88924073   -7.2955066    665.85336  0.025476483  0.025424546            3 
 2179000    0.8878102   -7.3431813     665.2056  0.025440018  0.025417802            2 
 2180000   0.89213571   -7.3185257    666.45414  0.025476076  0.025411044            2 
 2181000   0.89255505   -7.3411826    664.64964  0.025395447  0.025404308            3 
 2182000   0.89859616   -7.3118983    668.99908  0.025549919  0.025397652            4 
 2183000   0.88844106   -7.3449099    666.81541  0.025454856  0.025390957            4 
 2184000   0.89392999   -7.3298131    668.23995  0.025497556   0.02538426            4 
 2185000   0.88821163   -7.3719965    666.50889  0.025419866  0.025377541            6 
 2186000   0.91288685   -7.3282406    664.22452  0.025321154  0.025370774            5 
 2187000   0.92547795   -7.3312044    667.29948  0.025426744   0.02536405            2 
 2188000   0.90947056   -7.3430152    668.33622  0.025454609   0.02535742            3 
 2189000    0.8977487   -7.3550961    669.80841  0.025499026  0.025350706            4 
 2190000   0.92054572   -7.3797721    668.37162   0.02543271  0.025343961            4 
 2191000     0.911576   -7.3411591    669.13596  0.025450173  0.025337294            4 
 2192000    0.8842169   -7.3368217    668.74805  0.025423816  0.025330625            3 
 2193000   0.91288464   -7.3256904    670.57464  0.025481633  0.025323985            3 
 2194000   0.92200853   -7.3479342    669.31682  0.025422243  0.025317331            3 
 2195000   0.90670571   -7.3260734    670.09249   0.02544011  0.025310727            4 
 2196000   0.90713326   -7.3086582    669.66536  0.025412316  0.025304132            1 
 2197000   0.91644766    -7.340215    668.83245  0.025369157  0.025297502            4 
 2198000   0.88789942   -7.3727179    668.98399   0.02536336   0.02529077            2 
 2199000   0.92132278   -7.3759751    670.06907  0.025392947  0.025284106            4 
 2200000   0.89844301   -7.3512267    668.94751  0.025338921  0.025277402            6 
 2201000   0.90573956    -7.376993    669.39477  0.025344342  0.025270702            2 
 2202000   0.90020766   -7.3239003    670.38275  0.025370222  0.025263967            4 
 2203000   0.89567159    -7.377599    668.37972  0.025282937  0.025257286            3 
 2204000   0.89281848    -7.335516    671.66405  0.025395646  0.025250641            5 
 2205000   0.88746141   -7.3324094    670.20521  0.025328995  0.025244124            2 
 2206000   0.89701999   -7.3069715    671.55378  0.025368457  0.025237518            3 
 2207000   0.91691463   -7.3659713    670.61965   0.02532169  0.025230933            2 
 2208000   0.90206348   -7.3623574    671.31063  0.025336301  0.025224363            7 
 2209000   0.89601908   -7.3740766    671.58586  0.025335214  0.025217697            2 
 2210000   0.91954454   -7.3430807    670.02918  0.025265052   0.02521107            3 
 2211000    0.8936522   -7.3486783    672.49334    0.0253465  0.025204433            2 
 2212000   0.89809733   -7.3579899    672.12939   0.02532133  0.025197823            7 
 2213000   0.89168046   -7.3567906    670.89044  0.025263234  0.025191205            1 
 2214000   0.91764136   -7.3345222    670.84849  0.025250244  0.025184517            1 
 2215000    0.9091853   -7.3414802    670.75283  0.025235246  0.025177891            2 
 2216000   0.90096574   -7.3377224    672.10131  0.025274568  0.025171367            2 
 2217000   0.92411467   -7.3394563    672.88874  0.025292766  0.025164764            2 
 2218000   0.89434991   -7.3470903    672.17414  0.025254514  0.025158194            3 
 2219000   0.91019899   -7.3591252    671.77607  0.025228184  0.025151591            3 
 2220000   0.89893414    -7.354406      671.955  0.025223536  0.025144945            2 
 2221000   0.88928671   -7.3612805    671.98266  0.025213217  0.025138254            2 
 2222000   0.91453394   -7.3468179    670.99646  0.025164884  0.025131631            2 
 2223000   0.90847184   -7.3708382    672.18749  0.025198211  0.025125057            3 
 2224000   0.87790375   -7.3525432    673.75467  0.025245604  0.025118415            2 
 2225000   0.88537363   -7.3794964    673.49425  0.025224504  0.025111832            4 
 2226000   0.90055566   -7.3643478    675.52332  0.025289133  0.025105254            3 
 2227000   0.88700328   -7.3502044    673.09602  0.025186949  0.025098713            2 
 2228000   0.89004167    -7.381911      672.882  0.025167639  0.025092137            3 
 2229000   0.87106652   -7.3398919    674.34734  0.025211131  0.025085604            3 
 2230000   0.88160761   -7.3418373    673.75664  0.025177752  0.025079065            5 
 2231000   0.88801802   -7.3908934    674.02323  0.025176424  0.025072485            4 
 2232000   0.89224426   -7.3538472    673.74585  0.025154788  0.025065889            4 
 2233000   0.90058577   -7.3845773    673.63827  0.025139508  0.025059258            1 
 2234000   0.86760682   -7.3421841    674.00762  0.025142033  0.025052557            3 
 2235000   0.89196951   -7.3600794    673.21378  0.025101185   0.02504591            4 
 2236000   0.92307008    -7.363558    675.35001  0.025169574  0.025039281            4 
 2237000   0.90232005   -7.3526148    675.21929  0.025153453  0.025032702            6 
 2238000   0.91394653   -7.3750033    674.15683  0.025102652   0.02502613            3 
 2239000   0.86655245    -7.342739    675.12117  0.025127333  0.025019541            2 
 2240000   0.89640432   -7.3573162    675.89364  0.025144853  0.025013021            3 
 2241000   0.88654506   -7.3515647    676.14921  0.025143136  0.025006456            2 
 2242000   0.87938297   -7.3898594    675.13101  0.025094076  0.024999848            3 
 2243000   0.88464211   -7.4049987    673.71114  0.025030136  0.024993214            3 
 2244000   0.87419654   -7.3522561    675.57919  0.025088354  0.024986574            3 
 2245000   0.87929594   -7.3737526    676.05687   0.02509491  0.024980033            3 
 2246000    0.8876652   -7.3407271    676.17765  0.025088218  0.024973471            4 
 2247000   0.88999199   -7.3719398    676.02577   0.02507142  0.024966929           12 
 2248000   0.88847565   -7.3644678    675.79257  0.025051623  0.024960337            3 
 2249000   0.91550097   -7.3830626    676.49317  0.025066443  0.024953692            5 
 2250000   0.89490491   -7.3785144    676.18066  0.025043728  0.024947035            1 
 2251000   0.87776732   -7.3464482    676.60257  0.025048222  0.024940443            2 
 2252000   0.90016313   -7.3357055    675.48577  0.024995773  0.024933864            3 
 2253000   0.88783389   -7.3829995    675.77659  0.024995436  0.024927252            4 
 2254000   0.88833717   -7.3491819    677.56234  0.025050368  0.024920687            2 
 2255000   0.88735816   -7.3653572    677.97777  0.025054611  0.024914069            2 
 2256000    0.8866269   -7.3673369    677.37925  0.025021397  0.024907433            2 
 2257000   0.88647966   -7.3970649    676.33587  0.024971787  0.024900831            5 
 2258000   0.87019539   -7.3540974    675.69779  0.024937178  0.024894157            1 
 2259000   0.88086368   -7.3548902    678.93112  0.025045415  0.024887521            4 
 2260000   0.87180184   -7.3523861    676.83651  0.024957098  0.024880934            6 
 2261000   0.88877882   -7.3922045    677.84937  0.024983391  0.024874346            3 
 2262000     0.871098   -7.3546775    678.66379   0.02500235  0.024867763            3 
 2263000   0.88196187   -7.3538741    679.19192   0.02501075  0.024861204            2 
 2264000   0.89314351   -7.3433446    677.86838  0.024950986  0.024854621            2 
 2265000   0.89567389   -7.3724459    679.57742  0.025002849  0.024848064            4 
 2266000   0.91465383   -7.3532644    679.82345  0.025000862  0.024841509            2 
 2267000   0.89677895   -7.3668206    679.10294  0.024963349  0.024835005            3 
 2268000   0.88715901   -7.3676218    679.02793  0.024949586  0.024828488            2 
 2269000   0.89982407   -7.3784616    680.00573  0.024974502  0.024821955            9 
 2270000   0.88163115   -7.3368441    681.00239  0.025000088  0.024815437            4 
 2271000    0.9070035   -7.3766384    678.61174  0.024901355  0.024808887            2 
 2272000   0.89736628   -7.4116804    679.98836  0.024940887  0.024802279            2 
 2273000   0.89649507   -7.3805411    680.78783  0.024959225  0.024795721            3 
 2274000   0.89457068   -7.3616953    680.47838  0.024936909  0.024789182            2 
 2275000   0.89470605   -7.3824482    679.89518  0.024904585  0.024782644            4 
 2276000    0.8752958   -7.3592109    681.98626  0.024970206  0.024776122            2 
 2277000   0.87021767   -7.3760709    681.01831  0.024923814  0.024769565            6 
 2278000   0.89258025   -7.3631033    681.84369  0.024943067  0.024763019            4 
 2279000   0.87980378   -7.3844312    681.60476  0.024923386  0.024756496            5 
 2280000    0.8883909   -7.4117442    679.39713  0.024831766  0.024749949            5 
 2281000   0.88120218   -7.3830947    681.53656  0.024899041  0.024743471            3 
 2282000   0.88020033   -7.3519439    682.40366  0.024919795  0.024736982            5 
 2283000   0.90146428   -7.3542311    682.69254  0.024919424  0.024730505            2 
 2284000   0.88261444   -7.3889532     682.1023  0.024886978  0.024723994            3 
 2285000   0.89469628   -7.4020657    680.55943  0.024819819  0.024717518            3 
 2286000   0.87967218   -7.3753825    680.41847  0.024803823  0.024710989            2 
 2287000   0.89824866   -7.3840708    680.22884  0.024786067  0.024704519            2 
 2288000   0.88924574   -7.3794935    680.32798  0.024778846  0.024698054            2 
 2289000   0.89673708   -7.3927037    683.09609  0.024868796    0.0246916            3 
 2290000   0.88420643   -7.3910188    682.30866  0.024829282  0.024685132            2 
 2291000   0.88317253   -7.3873175    680.55284  0.024754577  0.024678681           10 
 2292000   0.86965708   -7.3954779     681.0964   0.02476354  0.024672182            7 
 2293000    0.8919266   -7.3525036    684.19941  0.024865511  0.024665789            4 
 2294000   0.89813961   -7.3707025    684.04214  0.024848959   0.02465942            4 
 2295000   0.89941326   -7.3761536    683.92317  0.024833812  0.024652987            2 
 2296000   0.87890009   -7.3802708    685.06082  0.024864287  0.024646569            4 
 2297000   0.88556645   -7.4031026    683.59319  0.024800217  0.024640227            2 
 2298000   0.90674126   -7.4035288    684.84376  0.024834775  0.024633852            4 
 2299000   0.86343787   -7.3936401    683.90187  0.024789832  0.024627465            3 
 2300000   0.90033835   -7.4091095    684.19021    0.0247895  0.024621108            4 
 2301000     0.874205   -7.3962368    684.98158  0.024807387  0.024614727            4 
 2302000   0.87871662   -7.3760025     684.2597  0.024770479  0.024608324            3 
 2303000   0.90398566   -7.3887064    685.07632  0.024789272  0.024601944            1 
 2304000    0.8858552   -7.3803215    685.83264  0.024805868  0.024595585            2 
 2305000   0.90492552   -7.4065789    685.96533  0.024799904  0.024589276            4 
 2306000   0.90175959   -7.4029798    685.90748  0.024787059  0.024582933            9 
 2307000   0.87700748   -7.3971699    686.93836  0.024813551  0.024576666            3 
 2308000   0.89887107   -7.3931048    686.13576  0.024773821    0.0245703            2 
 2309000   0.87525353   -7.3608227    685.94526  0.024756217  0.024563959            3 
 2310000   0.88395298   -7.3650863    684.84686  0.024705875  0.024557566            3 
 2311000    0.8853459   -7.3988218    685.10961  0.024704659  0.024551167            6 
 2312000   0.88900285    -7.379429    684.66187  0.024677836  0.024544736            3 
 2313000   0.87838278   -7.4381861    684.13422  0.024648156  0.024538292            4 
 2314000   0.88141057   -7.4441493    682.25373  0.024569783  0.024531721            1 
 2315000   0.89037428   -7.3966435    685.40447  0.024672587  0.024525241            3 
 2316000   0.89146233   -7.3834967    685.78831  0.024675745  0.024518815            2 
 2317000   0.87406192   -7.3776224    687.33991    0.0247209   0.02451241            3 
 2318000   0.88622137   -7.4167733    685.69474  0.024651091  0.024506026            6 
 2319000   0.88724675   -7.3684528     686.9845  0.024686808  0.024499577            2 
 2320000   0.88748374    -7.413516    685.67766  0.024629226  0.024493092            4 
 2321000   0.87200253   -7.3833044    685.73539  0.024620687   0.02448662            3 
 2322000   0.88514391   -7.3678745    686.41706  0.024634549  0.024480217            4 
 2323000   0.90833565   -7.3745411    685.77846  0.024601035  0.024473823            7 
 2324000   0.86686915    -7.371506    687.54511  0.024653798  0.024467444            4 
 2325000    0.8837555   -7.3694733    687.17005  0.024629751  0.024460996            4 
 2326000   0.88403492   -7.3946999    686.53754  0.024596501  0.024454541            3 
 2327000   0.89474194    -7.388246    687.14065  0.024607529  0.024448089            4 
 2328000   0.87615152   -7.4092809    686.32823  0.024567878  0.024441643            4 
 2329000   0.88291303   -7.3931877    686.63181  0.024568191  0.024435193            3 
 2330000   0.88692828    -7.410961    688.36679  0.024619699  0.024428706            3 
 2331000   0.87149394   -7.4061564    685.93386   0.02452216  0.024422237            3 
 2332000   0.88061382   -7.4074747    685.77742  0.024506054  0.024415785            2 
 2333000   0.87998978   -7.4234868    685.81635   0.02449694   0.02440931            4 
 2334000   0.86278719    -7.429706    687.39583  0.024542839  0.024402834            6 
 2335000   0.88598542   -7.4094559    687.75875   0.02454528  0.024396339            4 
 2336000   0.87173451      -7.4357    686.98507  0.024507173    0.0243898            4 
 2337000   0.88415704   -7.3987652    686.83138  0.024491206  0.024383277            4 
 2338000   0.87794508   -7.3768409    689.36705   0.02457111  0.024376828            2 
 2339000   0.88309141   -7.3905462    689.20317  0.024554766  0.024370382            4 
 2340000   0.87454773   -7.3731708    689.07912  0.024539855  0.024363997            2 
 2341000   0.87456602   -7.4029281     690.4594  0.024578507  0.024357651            2 
 2342000   0.87143117   -7.4305756    688.23554  0.024488882  0.024351204            4 
 2343000    0.8703607   -7.3958481     689.3436   0.02451784  0.024344817            1 
 2344000   0.84523637   -7.4269118    690.78923  0.024558775  0.024338431            4 
 2345000   0.87548546   -7.3930042    691.86508  0.024586535  0.024332017            7 
 2346000    0.8768483   -7.4038543    691.36978  0.024558461  0.024325644            3 
 2347000   0.85972699   -7.4369585    690.48059  0.024516425  0.024319324            5 
 2348000   0.88130365   -7.3810661    691.41411  0.024539115  0.024313008            4 
 2349000   0.87119907   -7.4062351    690.37668  0.024491865  0.024306645            1 
 2350000   0.86467797   -7.4182617    689.75633  0.024459444  0.024300327            3 
 2351000   0.88839904   -7.3714524    691.42161  0.024508068  0.024294029            4 
 2352000   0.88921763   -7.4150861    691.63125  0.024505075  0.024287734            2 
 2353000   0.87524544   -7.4261006    690.46783  0.024453457  0.024281444            2 
 2354000   0.87201849   -7.4194092    691.57461   0.02448225  0.024275092            2 
 2355000   0.87556685   -7.4113171    689.22707  0.024388785  0.024268711            2 
 2356000   0.87293391   -7.3834309    692.11196  0.024480474  0.024262353            7 
 2357000   0.89321047   -7.4106743    689.79322  0.024388107  0.024256002            7 
 2358000   0.87697592   -7.4312371    689.92826  0.024382537  0.024249644            4 
 2359000   0.87866818   -7.4377472     692.0409  0.024446831  0.024243293            3 
 2360000   0.88422891    -7.399514    693.50698  0.024488241  0.024236946            4 
 2361000   0.86476383   -7.3936532    693.58432  0.024480599  0.024230652            2 
 2362000   0.88536987   -7.3868554    693.39726  0.024463635  0.024224367            3 
 2363000   0.87792846   -7.3948292     694.2145  0.024482102  0.024218047            2 
 2364000   0.87686826    -7.408624    694.91792  0.024496542  0.024211712            2 
 2365000   0.89510292   -7.4424515    692.39811  0.024397396  0.024205376            3 
 2366000   0.87219908    -7.422684    692.45701  0.024389159  0.024198957            1 
 2367000   0.87859339   -7.4215957    694.05816  0.024435226  0.024192625            2 
 2368000   0.87891791   -7.3940343    693.57334  0.024407846  0.024186292            2 
 2369000   0.86286161    -7.407804    694.24389   0.02442113  0.024179978            3 
 2370000   0.86936073    -7.401354    693.29967  0.024377626   0.02417368            3 
 2371000   0.86159109   -7.4123336    694.10898  0.024395789   0.02416738            5 
 2372000   0.87617854   -7.3922978    694.36111  0.024394362   0.02416114            4 
 2373000   0.86752074    -7.378746     695.2504  0.024415311  0.024154852            3 
 2374000     0.857705   -7.4233023    693.82108  0.024354854  0.024148563            3 
 2375000    0.8587088   -7.3973301    694.22433  0.024358748  0.024142215            2 
 2376000   0.87845425   -7.4241035    694.90683  0.024372434  0.024135938            4 
 2377000    0.8909308   -7.4174781    694.53076  0.024348996  0.024129668            3 
 2378000   0.86539475   -7.3831305    695.24023  0.024363619  0.024123393            1 
 2379000   0.85939591   -7.3912542    696.08786  0.024383069  0.024117115            3 
 2380000   0.87445859    -7.392061    694.85104  0.024329518  0.024110836            3 
 2381000   0.87407124   -7.4344855    695.80128  0.024352558  0.024104574            7 
 2382000   0.86711655   -7.4285836    695.04297  0.024315805  0.024098307            4 
 2383000   0.87055533   -7.3889195    695.74285  0.024330076  0.024091921            3 
 2384000   0.87148371   -7.4472756    693.83374  0.024253137  0.024085579            2 
 2385000   0.88077407   -7.4110196    693.87008  0.024244238  0.024079214            5 
 2386000   0.88992023   -7.4223672    694.20458  0.024245759  0.024072837            1 
 2387000    0.8585428   -7.4257529    694.98864  0.024262974  0.024066491            1 
 2388000   0.85953184   -7.4517062    694.02572  0.024219211   0.02406013            2 
 2389000   0.86044105   -7.4211528    695.73451   0.02426868  0.024053775            7 
 2390000   0.86759664   -7.4208873     696.2572   0.02427675  0.024047409            2 
 2391000    0.8429968   -7.4356158    695.06815  0.024225155  0.024041062            2 
 2392000   0.86307247   -7.4109546    696.30966   0.02425828  0.024034747            5 
 2393000   0.87188424   -7.4207172    697.40973  0.024286451  0.024028449            3 
 2394000   0.86195944   -7.4225013    696.77116  0.024254078   0.02402218            5 
 2395000   0.86420349   -7.3947165    696.77886  0.024244219  0.024015896            6 
 2396000   0.85177787   -7.4362864    696.63286  0.024229023  0.024009613            3 
 2397000   0.88613722   -7.4219669    697.21645  0.024239203  0.024003334            5 
 2398000   0.87942531   -7.4023501    697.35839  0.024234028  0.023997077            3 
 2399000   0.86588948   -7.4418309    698.28666  0.024256171   0.02399081            3 
 2400000   0.86236893    -7.438593     697.2158  0.024208882  0.023984508            3 
 2401000   0.87063875     -7.41308    697.06202  0.024193462  0.023978217            5 
 2402000    0.8731954   -7.4119713    697.82301  0.024209791  0.023971962            5 
 2403000   0.86020071   -7.4378185    698.65847  0.024228689  0.023965633            2 
 2404000   0.86104019   -7.4139985    698.58305  0.024215996  0.023959386            2 
 2405000   0.86413706   -7.4077067    696.82908  0.024145152  0.023953131            1 
 2406000   0.87545312   -7.4180599    696.13613  0.024111116  0.023946856            1 
 2407000    0.8635128   -7.4111933    697.15657  0.024136427  0.023940583            4 
 2408000   0.85063619   -7.4416643    696.82052  0.024114774  0.023934313            3 
 2409000   0.87499213   -7.4364957    698.70955   0.02417011  0.023928056            1 
 2410000   0.86381513   -7.4124964    698.70455  0.024159908   0.02392177            3 
 2411000   0.87397027   -7.4147002    697.89655   0.02412196  0.023915481            1 
 2412000   0.84941914   -7.4296152    698.31687  0.024126481  0.023909182            3 
 2413000    0.8816233   -7.4604423    699.95345  0.024173002  0.023902878            4 
 2414000   0.84849684   -7.4523538    699.08411  0.024132978  0.023896571            2 
 2415000    0.8579333    -7.441296    699.96052  0.024153227   0.02389028            2 
 2416000    0.8612673   -7.4168416     701.1515  0.024184309  0.023884054            3 
 2417000   0.85572526    -7.442383    699.97559  0.024133761  0.023877859            4 
 2418000   0.86436419   -7.4130419    702.63123  0.024215303  0.023871678            2 
 2419000   0.87310358    -7.404272    700.62218  0.024136082  0.023865517            4 
 2420000   0.83602101   -7.4358539    699.71545  0.024094884  0.023859346            4 
 2421000   0.86990208   -7.4357011     700.0696  0.024097122  0.023853135            2 
 2422000   0.88627368   -7.4490677    699.97598  0.024083952  0.023846926            3 
 2423000   0.87303154      -7.4601    700.90887  0.024106097  0.023840719            5 
 2424000   0.86091498    -7.406076    702.77575  0.024160332   0.02383448            4 
 2425000   0.86115009   -7.4376131    699.52987  0.024038827  0.023828201            2 
 2426000   0.86500872   -7.4479063    700.71184  0.024069519  0.023821863            2 
 2427000    0.8634149   -7.4558103    699.32309  0.024011918  0.023815567            2 
 2428000   0.86719422   -7.4099133    700.77567  0.024051883  0.023809295            4 
 2429000   0.87239427   -7.4278706    700.68486  0.024038866  0.023803006            2 
 2430000   0.84725717   -7.4106266    699.50348   0.02398846  0.023796738            5 
 2431000   0.87097191   -7.4180561    698.89654  0.023957786  0.023790468            3 
 2432000   0.85552706    -7.415838    700.34692  0.023997633  0.023784163            3 
 2433000   0.85741806   -7.4336723    701.10679  0.024013796  0.023777897            3 
 2434000   0.86666124   -7.4256831    701.50586  0.024017593   0.02377164            3 
 2435000    0.8738704   -7.4193055    701.51865  0.024008167  0.023765386            2 
 2436000   0.86483647   -7.4175122    701.41547  0.023994782  0.023759117            1 
 2437000   0.84973067   -7.4299182     702.4954  0.024021864  0.023752849            3 
 2438000    0.8501576   -7.4497833    702.44325  0.024010229  0.023746579            3 
 2439000   0.86405899   -7.4702647    700.90601  0.023947862  0.023740269            4 
 2440000   0.86601255   -7.4514202    699.88643  0.023903225  0.023733998            3 
 2441000   0.85635395    -7.456999    701.51602  0.023949065  0.023727677            3 
 2442000   0.84233803   -7.4424757    701.86957  0.023951323  0.023721395            2 
 2443000   0.84659484   -7.4426302    701.75245  0.023937524  0.023715118            4 
 2444000   0.85972061   -7.4434278    703.81175  0.023997945  0.023708809            5 
 2445000   0.86662663   -7.4341156    701.50133  0.023909384  0.023702557            2 
 2446000   0.86806622   -7.4217903    703.56817  0.023970025  0.023696365            5 
 2447000   0.86299753   -7.4258606    703.86266  0.023970258  0.023690192            5 
 2448000    0.8586698   -7.4163162    703.63774   0.02395281  0.023684003            4 
 2449000   0.83740938   -7.4518241    702.02461  0.023888138  0.023677785            3 
 2450000   0.87519199   -7.4564903     701.8601  0.023872792  0.023671545            2 
 2451000   0.86107312   -7.4405298    703.99671  0.023935697  0.023665283            3 
 2452000   0.86210164   -7.4436036    702.08702  0.023861033   0.02365903            3 
 2453000   0.84769258   -7.4612854    704.15257  0.023921476  0.023652793            8 
 2454000   0.85732368   -7.4421704    703.03603  0.023873812  0.023646525            2 
 2455000   0.85931957   -7.4552242    704.11822  0.023900822  0.023640286            3 
 2456000   0.86735446   -7.4746008    704.53702  0.023905301  0.023634044            2 
 2457000   0.87193178   -7.4538859    704.32838  0.023888495  0.023627809            2 
 2458000   0.85641149   -7.4347972    703.10977  0.023837462  0.023621584            6 
 2459000   0.86696108   -7.4366007    703.65861  0.023846368  0.023615357            3 
 2460000   0.84864725    -7.435544    702.88461  0.023810454  0.023609097            5 
 2461000   0.83666332   -7.4615311    704.06724  0.023840825  0.023602849            2 
 2462000   0.85934248   -7.4995126    703.26721  0.023804062  0.023596573            3 
 2463000    0.8408162   -7.4580376    704.94812   0.02385127  0.023590333            5 
 2464000   0.84960921   -7.4159506    703.47426  0.023791743  0.023584069            2 
 2465000   0.85818061   -7.4817589    703.55969  0.023784979  0.023577809            5 
 2466000   0.84047088   -7.4579228     704.1051  0.023793765  0.023571567            5 
 2467000   0.85977715   -7.4452378    705.13309  0.023818845  0.023565343            3 
 2468000   0.86241009   -7.4478365    703.54664  0.023755627   0.02355907            2 
 2469000   0.88161159   -7.4812356    705.97666  0.023828023  0.023552829            2 
 2470000   0.86699344   -7.4410247    705.41186   0.02379932  0.023546602            4 
 2471000    0.8594928   -7.4498815    704.23897  0.023750134  0.023540408            3 
 2472000   0.85660119    -7.493034    705.91339  0.023796972  0.023534195            4 
 2473000   0.84758327   -7.4502329    706.04981  0.023791947  0.023527954            3 
 2474000    0.8403635   -7.4159854    705.22627   0.02375459   0.02352173            3 
 2475000   0.84532413    -7.451536    706.02816  0.023771992  0.023515439            2 
 2476000   0.87089347    -7.428656     706.2134  0.023768626  0.023509165            3 
 2477000   0.85044652   -7.4725273    704.25517  0.023693149  0.023502954            7 
 2478000   0.87683005   -7.4501436    706.30423  0.023752496  0.023496734            3 
 2479000   0.83817376   -7.4392764    705.73215  0.023723684  0.023490497            6 
 2480000   0.85487754   -7.4256201    706.61592  0.023743815  0.023484261            7 
 2481000   0.85837791    -7.445916    705.07945  0.023682637  0.023478023            2 
 2482000   0.88320999   -7.4566918     706.3508   0.02371578  0.023471791            4 
 2483000   0.84142711   -7.4312284    706.77369  0.023720422  0.023465593            3 
 2484000   0.86036713   -7.4547663    706.76656  0.023710633  0.023459373            2 
 2485000    0.8688919   -7.4647188    708.63834  0.023763861  0.023453121            3 
 2486000   0.85333274   -7.4687515    706.54445  0.023684113  0.023446898            2 
 2487000   0.84405313   -7.4558394    708.37043  0.023735774  0.023440693            3 
 2488000   0.85103951   -7.4370521    707.04914  0.023681978  0.023434472            3 
 2489000    0.8451504   -7.4389618    707.06801  0.023673095  0.023428224            3 
 2490000   0.84988555   -7.4828697    704.78958  0.023587335   0.02342199            3 
 2491000   0.85790815   -7.4499604    708.29424   0.02369511  0.023415781            6 
 2492000   0.87072117   -7.4615399     708.7563  0.023701053  0.023409563            5 
 2493000   0.86534332    -7.460014     706.5294  0.023617108  0.023403389            2 
 2494000   0.83969428   -7.4583209    708.10208  0.023660187  0.023397207            8 
 2495000   0.85394898    -7.440967    707.88426  0.023643429  0.023391028            4 
 2496000     0.859225   -7.4837043    707.44089  0.023619154  0.023384866            5 
 2497000   0.85624472   -7.4889724    707.23182  0.023602717  0.023378669            2 
 2498000   0.84618315   -7.4351093    709.50933  0.023669246  0.023372523            9 
 2499000   0.83568178   -7.4371297    709.66531  0.023664976  0.023366429            3 
 2500000   0.83551441   -7.4511868    709.88387  0.023662796   0.02336034            4 
 2501000    0.8441572   -7.4331585    709.46448   0.02363936  0.023354167            2 
 2502000   0.86243359   -7.4412626    709.74436  0.023639234  0.023348033            3 
 2503000   0.86535224   -7.4630949    708.35898  0.023583666  0.023341861            4 
 2504000   0.84138408   -7.4304133       708.67  0.023584598  0.023335695            3 
 2505000    0.8553595   -7.4721624    709.84767   0.02361436  0.023329554            4 
 2506000   0.85919475    -7.463604    710.03316  0.023611105  0.023323362            4 
 2507000   0.85631477   -7.4760822    708.47178  0.023549787  0.023317183            3 
 2508000   0.85913994   -7.4426749    709.41517  0.023571743  0.023311084            3 
 2509000   0.85120164   -7.4541973    710.22297  0.023589178  0.023304973            5 
 2510000   0.86321102   -7.4780498    710.24616   0.02358055  0.023298886            2 
 2511000    0.8480178   -7.4796694    709.91981  0.023560328  0.023292672            7 
 2512000   0.84312681    -7.469909    710.02251  0.023554356  0.023286484            4 
 2513000   0.84612157   -7.4615036    708.20981  0.023484872  0.023280367            7 
 2514000   0.84660377    -7.459563    712.28253  0.023610532  0.023274231            4 
 2515000   0.84321995   -7.4642989    710.64425   0.02354686  0.023268118            2 
 2516000   0.85944608   -7.4885448    708.47382  0.023465614   0.02326198            2 
 2517000   0.84240511   -7.4281639    711.67036  0.023562123  0.023255839            4 
 2518000   0.84585421   -7.4670486    712.04453  0.023565149  0.023249709            2 
 2519000    0.8681281   -7.4339526     712.3908  0.023567249  0.023243626            3 
 2520000   0.83343548   -7.4359961    710.35859  0.023490694  0.023237531            3 
 2521000   0.87539241   -7.4350552    711.20292  0.023509286  0.023231447            6 
 2522000   0.84273262   -7.4628422    712.57964  0.023545455  0.023225355            2 
 2523000   0.85498254   -7.4557561    710.72516   0.02347487   0.02321922            6 
 2524000   0.83772754   -7.4981871    711.21465   0.02348173  0.023213046            1 
 2525000   0.83036621    -7.465528    710.79828  0.023458689  0.023206869            2 
 2526000   0.83633668   -7.4682688    712.49774  0.023505468  0.023200673            3 
 2527000   0.86302823   -7.4745053    710.52604  0.023431145  0.023194496            3 
 2528000   0.83322662   -7.4715866    711.29208  0.023447128  0.023188341            5 
 2529000   0.84004724   -7.4852782    711.34233  0.023439513  0.023182158            5 
 2530000   0.84887218   -7.4732869    711.22779  0.023426475  0.023175995            2 
 2531000   0.83537803   -7.4748788    711.57974  0.023428808  0.023169852            4 
 2532000   0.85488624   -7.4742267    712.33904  0.023444545  0.023163713            4 
 2533000   0.84412961   -7.4745855    710.91284  0.023388368  0.023157519           11 
 2534000    0.8388781   -7.4896907    709.94701  0.023347376  0.023151317            2 
 2535000   0.85576099   -7.4846603    711.32022  0.023383308  0.023145135            5 
 2536000   0.83084655   -7.4511171    712.57456  0.023415305  0.023138913            3 
 2537000   0.83470396   -7.4739371    711.72406  0.023378139  0.023132718            2 
 2538000   0.86286956   -7.4461762    714.34706  0.023455052  0.023126548            2 
 2539000   0.84110047   -7.4921095     711.9114  0.023365872  0.023120415            3 
 2540000   0.83239261   -7.4665901    711.10138  0.023330098  0.023114244            3 
 2541000   0.83544365   -7.4764852    712.63552  0.023371229  0.023108075            3 
 2542000   0.84117223   -7.4548962    711.92081  0.023338605  0.023101945            2 
 2543000   0.86068461   -7.4512084    712.78716  0.023357818   0.02309582            5 
 2544000   0.82511816      -7.4492    713.51372  0.023372436  0.023089662            2 
 2545000   0.83549805   -7.5014409    712.46946  0.023329059  0.023083495            5 
 2546000   0.82533599   -7.4616605    713.17375  0.023342948  0.023077304            5 
 2547000   0.83806811   -7.4798901    713.12472  0.023332179  0.023071133            4 
 2548000    0.8419836   -7.4846041     712.8229  0.023313151  0.023064952            2 
 2549000   0.86271791   -7.4590279     712.9075  0.023306771  0.023058746            3 
 2550000   0.84703751   -7.4574446    713.45133  0.023315403  0.023052509            6 
 2551000   0.83612034   -7.4781403    712.46772  0.023274132  0.023046263            4 
 2552000   0.83167499   -7.4578404     712.7446  0.023274053  0.023040013            2 
 2553000   0.83692476   -7.4321365    712.60571  0.023260403  0.023033769            2 
 2554000   0.84465381   -7.4394536    713.21718  0.023271247  0.023027625            2 
 2555000   0.82426876   -7.4698314    712.93037  0.023252784  0.023021453            6 
 2556000   0.84361044   -7.4522295    713.16133  0.023251217  0.023015204            3 
 2557000   0.83087845   -7.4787021    714.14101  0.023274052  0.023008946            3 
 2558000   0.83288968   -7.4924096    713.55058  0.023245719  0.023002715            3 
 2559000   0.84870379   -7.4858207    712.87628  0.023214676  0.022996497            3 
 2560000   0.83219683   -7.4701096     712.4547  0.023191885  0.022990293            5 
 2561000   0.83262314   -7.4563389    714.64364  0.023254056  0.022984131            5 
 2562000      0.83054   -7.4790505    714.07715  0.023226553  0.022977952            3 
 2563000   0.83756738   -7.4741706    714.55729  0.023233102   0.02297176            4 
 2564000   0.86023548   -7.4851639    712.35221  0.023152373  0.022965491            5 
 2565000   0.82317517   -7.4805067    715.62079  0.023249538  0.022959244            5 
 2566000   0.85246547   -7.4873796    714.54215  0.023205448  0.022952961            3 
 2567000   0.85033473   -7.4949392    712.20482  0.023120531  0.022946651            5 
 2568000    0.8448402   -7.4829902    714.60841  0.023189525  0.022940387            4 
 2569000   0.83275827   -7.4992887       711.64  0.023084209  0.022934169            4 
 2570000     0.856081   -7.4625286    713.01192  0.023119712  0.022927885            4 
 2571000   0.84388197   -7.4808891    712.54874  0.023095707  0.022921616            5 
 2572000   0.84590558   -7.4652112    714.42703  0.023147584  0.022915369            4 
 2573000   0.82457334   -7.4872432    712.94151  0.023090475  0.022909064            4 
 2574000   0.83720223     -7.49531    712.72933  0.023074635  0.022902724            1 
 2575000   0.85120187   -7.4752365    712.72042  0.023065386  0.022896442            2 
 2576000   0.85145456   -7.4873171    715.59712  0.023149493  0.022890197            5 
 2577000   0.84603199    -7.482644    714.15052   0.02309373  0.022883912            3 
 2578000   0.86095494   -7.5071991    713.93405  0.023077775  0.022877627            6 
 2579000   0.86696379   -7.4684767     714.2599  0.023079356  0.022871355            5 
 2580000   0.83467316   -7.5091509    714.36286  0.023073736  0.022865131            3 
 2581000   0.84642407   -7.4866061    714.19576  0.023059401  0.022858879            4 
 2582000   0.84093603   -7.4794504    715.27817  0.023085404  0.022852648            3 
 2583000   0.82836838   -7.5086121    714.68255  0.023057251  0.022846355            3 
 2584000   0.83562161   -7.4659272    714.70978  0.023049206  0.022840075            8 
 2585000   0.84018954   -7.4759353    716.19816  0.023088271  0.022833841            3 
 2586000   0.82254695   -7.5016413    714.86408  0.023036352  0.022827613            4 
 2587000    0.8365705   -7.5200415     714.1922  0.023005805  0.022821321            4 
 2588000   0.84039038   -7.4641055    718.39842  0.023132355  0.022815046            4 
 2589000    0.8418627   -7.5015078    714.97784  0.023013321  0.022808719            4 
 2590000   0.84258701    -7.485317    716.09848  0.023040492    0.0228024            2 
 2591000   0.84726439   -7.4985785    713.08012  0.022934521  0.022796063            3 
 2592000   0.84173745   -7.5106108    714.05446  0.022956998   0.02278973            2 
 2593000   0.84529479   -7.5234941    715.09956  0.022981732  0.022783405            7 
 2594000   0.83678606   -7.4938703    715.97107   0.02300087  0.022777121            3 
 2595000   0.84531609   -7.4937874    713.36461  0.022908305  0.022770809            5 
 2596000   0.83426613   -7.4780161    716.20635  0.022990702  0.022764503            4 
 2597000   0.81553169   -7.5031066     715.9865  0.022974795  0.022758246            3 
 2598000    0.8273128   -7.4771744    716.46555  0.022981317  0.022751985            5 
 2599000   0.85975116   -7.4753059    716.72291  0.022980727  0.022745724            3 
 2600000   0.82692524   -7.4608491    715.75642  0.022940911  0.022739503            3 
 2601000    0.8294158   -7.5018052    715.74796   0.02293182  0.022733256            7 
 2602000   0.83778873   -7.4793042    717.12369  0.022967067  0.022727002            6 
 2603000    0.8307415   -7.4772655    716.60958  0.022941785  0.022720773            5 
 2604000    0.8240532   -7.4964104    716.49507   0.02292931  0.022714522            4 
 2605000    0.8520342   -7.4944729    717.27779  0.022945547  0.022708281            4 
 2606000   0.83750078   -7.5349294    716.14224   0.02290043  0.022702056            7 
 2607000   0.84259459    -7.486201    716.91685  0.022916406  0.022695797            2 
 2608000   0.83015022   -7.5152552    717.60472  0.022929599  0.022689568            3 
 2609000   0.84358047   -7.5135025     717.4138  0.022914712  0.022683315            3 
 2610000   0.83758477    -7.504697    716.37071  0.022872628  0.022677062            3 
 2611000    0.8186515   -7.5159487    717.09841  0.022887093   0.02267079            2 
 2612000    0.8418544   -7.5393325    717.15467  0.022880126  0.022664528            2 
 2613000   0.81997288   -7.4763354    716.43442    0.0228484  0.022658292            2 
 2614000   0.84133472   -7.4946309    717.38738  0.022870039  0.022652095            4 
 2615000   0.84415792   -7.5101157    717.63733  0.022869258  0.022645882            3 
 2616000   0.84003211   -7.5012768    717.75675   0.02286432  0.022639622            3 
 2617000   0.82845009   -7.4849114    718.01429  0.022863784  0.022633392            3 
 2618000   0.82819613   -7.4906373     717.0462  0.022824236  0.022627104            4 
 2619000     0.828432    -7.492528    718.09458  0.022848879  0.022620867            3 
 2620000   0.83262655   -7.5138874     717.2495  0.022813279  0.022614602            3 
 2621000   0.82791743   -7.5016018    718.38749  0.022840757  0.022608289            3 
 2622000   0.83149091   -7.4973309    718.19242  0.022825846   0.02260204            3 
 2623000   0.84155177   -7.5111674    716.08041  0.022750045  0.022595793            3 
 2624000   0.83146527    -7.484022    718.08265  0.022804962  0.022589543            2 
 2625000    0.8194649   -7.4620105    721.12689  0.022892917  0.022583344            2 
 2626000   0.81473636   -7.4653438    717.91035  0.022782126  0.022577127            3 
 2627000   0.84135789    -7.518223    719.66577  0.022829139  0.022570857            3 
 2628000   0.82622624   -7.4959282    718.70452  0.022789971  0.022564604            2 
 2629000   0.84091449   -7.5184293    717.25271  0.022735283  0.022558354            4 
 2630000   0.82961382   -7.5215062    717.85996   0.02274588  0.022552093            4 
 2631000   0.84811146   -7.5103908    718.39722  0.022754251  0.022545859            6 
 2632000   0.81204834   -7.5314914    719.74301  0.022788216  0.022539639            4 
 2633000   0.82404908   -7.5041234    720.64763  0.022808192  0.022533419            2 
 2634000   0.83640989   -7.4809729    720.18069   0.02278476  0.022527239            4 
 2635000    0.8343526   -7.5027224    719.38724   0.02275102  0.022521086            1 
 2636000   0.82757999   -7.4975725     720.3296   0.02277218  0.022514967            2 
 2637000   0.81533172   -7.5147505    718.76065  0.022713963  0.022508791            5 
 2638000   0.83431694    -7.495588    721.84067  0.022802649  0.022502667            2 
 2639000   0.82708899   -7.5063896    719.48888  0.022719745  0.022496519            2 
 2640000   0.81874504   -7.5115045    719.61595   0.02271515   0.02249039            5 
 2641000   0.82779931   -7.5079268    722.59285  0.022800481  0.022484264            3 
 2642000   0.81560699   -7.4949871    722.04003  0.022774414  0.022478153            2 
 2643000   0.82848427   -7.5243936    721.48449  0.022748281  0.022472018            3 
 2644000   0.83929681   -7.5021742    721.31805  0.022734432  0.022465871            5 
 2645000   0.83123676   -7.5058792    721.56857  0.022733729  0.022459783            3 
 2646000   0.83157462   -7.4872786    721.18361  0.022713014  0.022453666            2 
 2647000   0.82619987   -7.5459794    721.14825   0.02270332  0.022447536            1 
 2648000   0.84016614    -7.498723    721.09286  0.022693003  0.022441356            2 
 2649000   0.82731353   -7.4858213    724.14389  0.022780417  0.022435228            5 
 2650000   0.82910369   -7.5102942    722.17978  0.022710056  0.022429113            2 
 2651000   0.83340151   -7.4885178    721.71861  0.022686993   0.02242297            2 
 2652000   0.82931372   -7.5045893    722.04654  0.022688742  0.022416797            6 
 2653000   0.82666948   -7.5217339    721.33028  0.022657692  0.022410624            3 
 2654000    0.8153838   -7.5356469    721.78706  0.022663497  0.022404472            4 
 2655000   0.82893233   -7.5039851     720.2391  0.022606375  0.022398297            3 
 2656000   0.81688199   -7.5019394    722.86068  0.022680117  0.022392122            3 
 2657000    0.8316444   -7.5315928    721.60844  0.022632306  0.022385969            3 
 2658000    0.8471723   -7.5251225    720.63783  0.022593361  0.022379758            3 
 2659000   0.82056295   -7.5019941    721.75974  0.022620024  0.022373552            2 
 2660000   0.82140755   -7.5280856    723.19162  0.022656379  0.022367427            3 
 2661000   0.81099154   -7.5049414    721.31608   0.02258913  0.022361323            2 
 2662000   0.80972578   -7.4701614    722.36217  0.022613391  0.022355178            7 
 2663000    0.8231315   -7.4902946    723.10385  0.022628109  0.022349078            4 
 2664000   0.81276243   -7.5023105    720.25869  0.022530615   0.02234296            4 
 2665000   0.81545741   -7.5374397    723.63553  0.022627753  0.022336806            3 
 2666000   0.80519024   -7.5323875    721.45774  0.022551192  0.022330623            2 
 2667000   0.83533659   -7.5365604    722.58705  0.022578023  0.022324432            2 
 2668000   0.83172126   -7.5266583    721.30207  0.022529425   0.02231826            3 
 2669000   0.82141656   -7.5246159    722.63992  0.022562755  0.022312084            4 
 2670000   0.82093637   -7.5535834    720.74731  0.022495235  0.022305883            3 
 2671000   0.81659964   -7.5299231     723.7592  0.022580781  0.022299671            6 
 2672000   0.82984231   -7.5440188    721.25886  0.022494351  0.022293483            2 
 2673000   0.82105703   -7.5479576    722.37308  0.022520672   0.02228724            5 
 2674000   0.84388357   -7.5263978    722.53647  0.022517342  0.022281003            2 
 2675000   0.82027306   -7.5027805    722.64303  0.022512244  0.022274794            4 
 2676000   0.82630712   -7.5096945     724.7212  0.022568547  0.022268595            4 
 2677000   0.83247985   -7.5157906     723.3523  0.022517504  0.022262449            4 
 2678000   0.83856244   -7.4775299    724.56929  0.022546966  0.022256345            3 
 2679000    0.8239271   -7.5064264    723.51318  0.022505698  0.022250189            6 
 2680000   0.81091929   -7.5253284    724.66674   0.02253317  0.022244033            2 
 2681000   0.82924546   -7.5152892    723.93773  0.022502105  0.022237875            2 
 2682000   0.83522569   -7.5152465    722.19423  0.022439542  0.022231722            4 
 2683000   0.81950166     -7.52628    722.48256  0.022440134  0.022225553            4 
 2684000   0.81901889   -7.5199255    723.25227  0.022455672  0.022219433            3 
 2685000   0.82472324   -7.5162573    724.34826  0.022481324  0.022213282            3 
 2686000   0.82124757   -7.5192677    727.24526  0.022562834  0.022207167            3 
 2687000   0.81387327   -7.5014453    725.19482  0.022490845  0.022201047            3 
 2688000   0.79533608   -7.4998131    726.65145  0.022527637  0.022194925            4 
 2689000   0.81873988   -7.5489956    723.56812  0.022423705  0.022188815            4 
 2690000   0.82362895    -7.497949    725.88195  0.022487049  0.022182708            3 
 2691000   0.80640412   -7.5306515    724.56939  0.022438046  0.022176559            2 
 2692000    0.8013164   -7.5268286    726.62528  0.022493353  0.022170395            3 
 2693000   0.81894224   -7.5269928    725.25546  0.022442612  0.022164242            3 
 2694000   0.81651374   -7.5372459    724.66617  0.022416053  0.022158098            4 
 2695000   0.83626277   -7.5361332    725.97113  0.022448087  0.022151985            4 
 2696000   0.80569132    -7.518652    728.99281   0.02253316  0.022145886            5 
 2697000   0.83394834   -7.5283854    725.53029  0.022417819  0.022139786            2 
 2698000    0.8216063   -7.5171914    723.07698  0.022333734  0.022133649            3 
 2699000   0.82757719   -7.5457131    724.54104  0.022370663  0.022127484            4 
 2700000   0.81391703   -7.5205081    724.11958   0.02234937  0.022121325            3 
 2701000   0.81885318   -7.5379852    725.17656  0.022373706  0.022115184            3 
 2702000   0.81358878   -7.4980377    726.07144  0.022393025  0.022109022            4 
 2703000   0.81500465   -7.5453444    727.15243  0.022418067  0.022102889            2 
 2704000   0.81745839   -7.5643405    725.18322  0.022349088  0.022096726            3 
 2705000   0.83808467   -7.5444863    725.52978  0.022351503  0.022090556            5 
 2706000   0.81940963   -7.5425652    724.87256  0.022323003  0.022084385            2 
 2707000   0.82060896   -7.5432885    725.45869    0.0223328  0.022078199            3 
 2708000   0.81767204   -7.5276774       724.28  0.022288282  0.022071998            3 
 2709000   0.81735671   -7.5167602    725.21293  0.022308753  0.022065838            4 
 2710000   0.80977716   -7.5228795    726.79798  0.022349262  0.022059651            2 
 2711000   0.81674627   -7.5345285    726.67681  0.022337293  0.022053459            3 
 2712000   0.80248801   -7.5315731    726.58603  0.022326267  0.022047276            3 
 2713000   0.78996058   -7.5498788    725.18321  0.022274948  0.022041085            5 
 2714000   0.80837157   -7.5558061     722.3727  0.022180444  0.022034812            2 
 2715000   0.79639982   -7.5617993    722.93357   0.02218949   0.02202853            4 
 2716000   0.80352976   -7.5281334     724.8809  0.022241068  0.022022267            3 
 2717000   0.79779135   -7.5500281    724.85331  0.022232036  0.022016005            6 
 2718000   0.81678842   -7.5471008    726.33425  0.022269262  0.022009806            4 
 2719000     0.817209   -7.5122574    726.60098  0.022269247  0.022003649            6 
 2720000   0.81350174   -7.5287522    725.71582   0.02223394  0.021997487            5 
 2721000   0.80465993   -7.4955531     728.0199  0.022296334   0.02199134            4 
 2722000   0.82563432   -7.5211354    725.88131   0.02222267  0.021985179            7 
 2723000   0.81784344   -7.5308978    726.94081  0.022246934  0.021979016            4 
 2724000   0.81828867   -7.5593395    726.45294  0.022223842  0.021972846            4 
 2725000   0.82790156   -7.5319655    724.67751  0.022161392  0.021966628            3 
 2726000   0.83167984   -7.5385312    725.17754  0.022168548  0.021960396            5 
 2727000   0.82082212   -7.5232411    724.47587  0.022138977  0.021954158            2 
 2728000   0.80217141   -7.5352667    724.57592  0.022133918  0.021947908            2 
 2729000   0.82530853   -7.5262052    725.36285  0.022149837  0.021941677            1 
 2730000   0.79742251    -7.520716    726.90866  0.022188909  0.021935473            2 
 2731000   0.82501247   -7.5440544    726.06889   0.02215516  0.021929299            4 
 2732000   0.80821776   -7.5403561    725.84871  0.022140334  0.021923111            2 
 2733000   0.80581899   -7.5321533    725.77406  0.022129957  0.021916876            5 
 2734000   0.80146867   -7.5442171    726.42077  0.022141574  0.021910678            2 
 2735000   0.82042185   -7.5699027    726.23623  0.022127856  0.021904462            2 
 2736000   0.80436022   -7.5329506    727.21651  0.022149626  0.021898268            2 
 2737000   0.81417759   -7.5489019    726.23664  0.022111699  0.021892066            2 
 2738000   0.81227482   -7.5600422    725.38525   0.02207771  0.021885832            7 
 2739000    0.8099251   -7.5493689    722.97165  0.021996217  0.021879584            3 
 2740000    0.7979077   -7.5716013    726.16747  0.022085385  0.021873312            4 
 2741000   0.81158698   -7.5679073    727.02638  0.022103441   0.02186707            3 
 2742000   0.79285991   -7.5698147    726.00883  0.022064455  0.021860838            3 
 2743000   0.83126626   -7.5590054    727.02079  0.022087155  0.021854607            4 
 2744000   0.82295885   -7.5348809    725.92711  0.022045891  0.021848402            3 
 2745000   0.81302119   -7.5624623    726.91539  0.022067863  0.021842167            3 
 2746000   0.80434801   -7.5453388    725.86243  0.022027872  0.021835945            2 
 2747000   0.81111781   -7.5581238    725.75573  0.022016616  0.021829683            4 
 2748000   0.81535391   -7.5972595    726.01097  0.022016344  0.021823416            2 
 2749000   0.81794951   -7.5830524    726.20942  0.022014351  0.021817153            2 
 2750000   0.81883123   -7.5651382    726.46178  0.022013993  0.021810903            3 
 2751000   0.81086615   -7.5580619    728.20213   0.02205871  0.021804659            2 
 2752000   0.80724308   -7.5508226    726.09296  0.021986826  0.021798452            3 
 2753000   0.80041563   -7.5570172    729.43755  0.022080081  0.021792258            2 
 2754000   0.81542392   -7.5366673    729.18515  0.022064426  0.021786124            2 
 2755000   0.79969878   -7.5557462    727.29303  0.021999184  0.021779992            3 
 2756000    0.8157492   -7.5727003    727.98881   0.02201224  0.021773854            3 
 2757000   0.79829795   -7.5650345     728.2131  0.022011036  0.021767703            2 
 2758000   0.81872418   -7.5520368    727.32794   0.02197631  0.021761538            3 
 2759000   0.79600134   -7.5587621    727.97274   0.02198782  0.021755336            3 
 2760000   0.80587157   -7.5781697    727.55007  0.021967091  0.021749139            5 
 2761000   0.79972918   -7.5722896    728.53005  0.021988713  0.021742932            3 
 2762000   0.81923901   -7.5560872    730.37947  0.022036552  0.021736791            3 
 2763000   0.82599001   -7.5618368    729.42504   0.02199979  0.021730625            2 
 2764000   0.80860003   -7.5373016    728.05076  0.021950397  0.021724471            3 
 2765000   0.81743247   -7.5323299    727.82371  0.021935615  0.021718311            3 
 2766000   0.81108238   -7.5462585    728.66418  0.021953006  0.021712132            6 
 2767000   0.78783537   -7.5750573     728.7305  0.021947069  0.021705976            6 
 2768000   0.81953605   -7.5419646    729.55256   0.02196389  0.021699865            4 
 2769000   0.80550013   -7.5594893    730.72995  0.021991391  0.021693729            9 
 2770000   0.80720626    -7.567643    729.63527   0.02195052  0.021687592            3 
 2771000   0.79639666    -7.545338    729.92158  0.021951208  0.021681479            3 
 2772000   0.80497645   -7.5552012    730.35261  0.021956247  0.021675348            3 
 2773000   0.81920828   -7.5362508    729.28449  0.021916231  0.021669196            3 
 2774000   0.78880405    -7.541281    730.18139  0.021935274  0.021663066            2 
 2775000   0.81034397   -7.5467852    729.96367  0.021920831   0.02165692            2 
 2776000    0.8237099   -7.5694607    729.27052  0.021892127  0.021650777            4 
 2777000   0.82486041   -7.5267757    730.57221  0.021923305  0.021644677            4 
 2778000   0.81459937    -7.586803    728.40131  0.021850291  0.021638561            3 
 2779000   0.82357862   -7.5747156    728.21234  0.021836762  0.021632401            3 
 2780000   0.81412579   -7.5868608      728.231  0.021829466  0.021626255            6 
 2781000   0.78789024   -7.5733321    730.29026  0.021883323  0.021620131            3 
 2782000    0.8080561   -7.5612998    730.31507    0.0218762  0.021614047            2 
 2783000   0.80671219   -7.5637925    732.00073  0.021918814  0.021607922            2 
 2784000    0.8101624   -7.5291553    731.16591  0.021885953  0.021601823            3 
 2785000   0.81663331   -7.5636326    729.46254  0.021827126  0.021595733            2 
 2786000   0.79798853    -7.569178    729.96027  0.021834179  0.021589644            3 
 2787000   0.80774111   -7.5739655    731.21059   0.02186373  0.021583519            4 
 2788000   0.79162946     -7.55893    731.85735   0.02187522  0.021577397            4 
 2789000    0.7994327   -7.5418976     731.8662  0.021867641  0.021571296            4 
 2790000   0.80763443   -7.5803511    733.48597  0.021908183  0.021565214            2 
 2791000   0.80824701   -7.5603196    731.42401  0.021838768   0.02155913            3 
 2792000    0.8159331   -7.5792936    731.08601  0.021820858  0.021553037            3 
 2793000   0.80060265   -7.5799401    731.79569  0.021834219  0.021546923            2 
 2794000   0.80425352   -7.5922112    730.46341  0.021786668  0.021540811            9 
 2795000   0.81298253   -7.5883795    731.98503  0.021824241  0.021534718            3 
 2796000   0.78173863   -7.5796284    729.84291   0.02175259  0.021528594            6 
 2797000   0.77954417   -7.5625566    731.29896  0.021788195  0.021522487            1 
 2798000   0.79035054   -7.5749101    730.84627  0.021766925  0.021516375            3 
 2799000   0.80465443   -7.5634053    732.27944  0.021801817  0.021510284            2 
 2800000   0.79832621   -7.5706672    730.93546  0.021754031  0.021504178            2 
 2801000   0.81210013   -7.5588628    731.04194  0.021749433  0.021498032            2 
 2802000   0.81233517    -7.577827    732.90846  0.021797182  0.021491903            3 
 2803000   0.80352894    -7.582328    731.77794  0.021755796  0.021485817            4 
 2804000   0.82655035   -7.5799154     731.4612  0.021738623   0.02147973            3 
 2805000   0.79725372   -7.5372689    733.14424  0.021780875  0.021473646            7 
 2806000   0.81029639   -7.5380982    733.50082  0.021783702  0.021467593            4 
 2807000   0.81159334   -7.5481083    734.25084  0.021798208  0.021461527            3 
 2808000   0.80711857   -7.5621859    732.72285  0.021745099  0.021455447            4 
 2809000   0.80045263   -7.5679681    732.86975  0.021741716  0.021449348            6 
 2810000    0.8079593   -7.5828834    732.09646  0.021711046  0.021443303            5 
 2811000   0.80704396    -7.570535    733.13025  0.021733969  0.021437204            5 
 2812000   0.79824848   -7.5987776    732.70257  0.021713566  0.021431093            3 
 2813000   0.82002794   -7.5804451    731.14048  0.021659571  0.021424992            3 
 2814000   0.80219554   -7.5628331    731.34885  0.021658045  0.021418873            4 
 2815000   0.79417297   -7.6143162    733.68792  0.021719595  0.021412735            2 
 2816000   0.82500311   -7.5762721    731.79346   0.02165582  0.021406643            2 
 2817000   0.78346348   -7.5573424     731.0024  0.021624731  0.021400568            3 
 2818000   0.81491442   -7.5453673    732.05098  0.021648065   0.02139449            3 
 2819000   0.79202849    -7.629566    732.20154  0.021644837  0.021388395            5 
 2820000   0.82164924   -7.5727336    735.66685  0.021739564   0.02138232            6 
 2821000   0.79670424   -7.5475857    732.33724    0.0216335  0.021376283            2 
 2822000   0.78044503    -7.579575    733.08772  0.021647996  0.021370223            3 
 2823000    0.8078623   -7.5781815    733.37533  0.021648817  0.021364147            3 
 2824000   0.80048991   -7.5738533    734.68994  0.021679944  0.021358093            2 
 2825000   0.81747667   -7.5471773    735.79443   0.02170485  0.021352063            9 
 2826000   0.79171841   -7.5603363     735.2918  0.021682348  0.021346029            5 
 2827000   0.80370744   -7.5762191    734.47314  0.021650546  0.021339994            5 
 2828000   0.79484819   -7.5890368    734.28145  0.021637242  0.021333973            7 
 2829000    0.7988393   -7.5933786    734.63633  0.021640047  0.021327903            2 
 2830000   0.80258562   -7.5776722    734.87664  0.021639477  0.021321857            3 
 2831000   0.80310552   -7.5597794    734.51689  0.021621244  0.021315815            5 
 2832000   0.80057425   -7.5649292     736.5592  0.021673705  0.021309812            2 
 2833000   0.80009492   -7.5733036    735.59921  0.021637816  0.021303813            4 
 2834000    0.8069331   -7.5859831    735.67574  0.021632432  0.021297802            4 
 2835000   0.79785088   -7.5972036     735.1741  0.021610056    0.0212918            4 
 2836000   0.79518521    -7.580604    735.36767  0.021608124  0.021285777            5 
 2837000   0.80680219   -7.5919011    733.18901  0.021536512   0.02127976            3 
 2838000   0.81585351   -7.5977654    734.45416  0.021566072  0.021273692            3 
 2839000    0.7987422   -7.5780535    735.92295   0.02160159  0.021267669            4 
 2840000   0.78993247   -7.5835121    736.91871  0.021623202  0.021261646            4 
 2841000   0.79573061   -7.5828112    734.71572  0.021550971  0.021255572            6 
 2842000   0.78869135   -7.5984519    734.86114  0.021547653  0.021249549            2 
 2843000   0.79975533   -7.5776587    736.19319  0.021579118  0.021243513            3 
 2844000   0.80159508   -7.5648925    737.25576  0.021602665    0.0212375            2 
 2845000   0.80603217   -7.5693987    736.12813  0.021562043  0.021231501            2 
 2846000   0.80540208   -7.6006096    734.15672  0.021496741  0.021225506            3 
 2847000   0.79125775   -7.5742738     736.2616  0.021550802  0.021219505            5 
 2848000   0.80529661   -7.6067908    736.62954  0.021554001  0.021213536            4 
 2849000    0.8109932   -7.5808811    735.77273  0.021521374  0.021207564            7 
 2850000   0.80135763   -7.6017247    735.28748  0.021499634   0.02120155            5 
 2851000   0.79976144   -7.6144939    736.49008  0.021527244  0.021195575            6 
 2852000   0.78572317   -7.5961528    737.85402   0.02155955  0.021189608            3 
 2853000    0.7885093   -7.5917761    736.81623   0.02152168  0.021183621            3 
 2854000   0.78922448   -7.5905437    734.00906  0.021432173  0.021177611            4 
 2855000   0.80468293   -7.5967358    735.23103  0.021460334  0.021171568            3 
 2856000   0.81185703    -7.581241    736.14596  0.021479516  0.021165557            4 
 2857000   0.80134715   -7.5852695    735.37494  0.021449508  0.021159501            3 
 2858000   0.77978408   -7.6172902    735.65857  0.021450273  0.021153472            5 
 2859000   0.79628661   -7.6017395    736.15735  0.021457309  0.021147451            3 
 2860000   0.80115303   -7.5805406    734.72073  0.021407947  0.021141408            3 
 2861000   0.80160884   -7.5923925    736.79049  0.021460751  0.021135404            4 
 2862000   0.80986531    -7.602101     736.1299  0.021434018  0.021129371            2 
 2863000    0.7914132   -7.5753715    735.83292  0.021417887  0.021123333            3 
 2864000   0.79916447    -7.595452    736.16323   0.02142002  0.021117307            3 
 2865000   0.79284697    -7.577908    736.81898  0.021431617  0.021111304            4 
 2866000   0.79486908   -7.5943992    736.62331  0.021418449  0.021105289            5 
 2867000   0.79903617    -7.557219    737.37587  0.021432853  0.021099289            3 
 2868000    0.7997511   -7.5565306    738.21571  0.021449782  0.021093291            4 
 2869000     0.791978   -7.5712971    738.29702  0.021444668  0.021087289            5 
 2870000   0.79472331   -7.5908807    737.29186   0.02140801  0.021081294            2 
 2871000   0.79937041    -7.595356    736.39573  0.021374542  0.021075262            5 
 2872000   0.78090513   -7.5733414    737.87588  0.021410048  0.021069259            4 
 2873000   0.81218346   -7.6115767    737.63986   0.02139575  0.021063297            2 
 2874000   0.78222471   -7.6044248    737.30962  0.021378729  0.021057334            9 
 2875000   0.78835017   -7.5951576    737.69316   0.02138241  0.021051371            2 
 2876000   0.78878438   -7.5729293     737.3124  0.021363943   0.02104539            3 
 2877000   0.78996387   -7.6116569    737.12444  0.021351073  0.021039385            5 
 2878000   0.79851043   -7.5893383    738.22553  0.021375537  0.021033384            1 
 2879000   0.78410181   -7.6047444    735.89187  0.021300564  0.021027404            3 
 2880000   0.79809589   -7.6128328    738.65535  0.021373129  0.021021416            2 
 2881000   0.79670134   -7.5971751    738.14024  0.021350811  0.021015448            2 
 2882000   0.79425305   -7.6080173    737.22271  0.021316872  0.021009454            4 
 2883000   0.79105873   -7.6216733    736.54974  0.021290026  0.021003475            4 
 2884000   0.78464002   -7.6335454    736.19048  0.021272263  0.020997474            3 
 2885000   0.79399526   -7.6233054    739.23054  0.021352702   0.02099147            6 
 2886000   0.79726548   -7.6097775    738.09141  0.021312411  0.020985484            4 
 2887000   0.78583772   -7.5839068    737.86164  0.021298396  0.020979531            6 
 2888000    0.7901201   -7.5925481    737.15474  0.021270624  0.020973586            4 
 2889000    0.7721323   -7.6012891    740.03751  0.021346415  0.020967606            2 
 2890000   0.78716377   -7.5942032    738.70684  0.021300658  0.020961653            2 
 2891000   0.80527455   -7.6115241    737.91168   0.02127037  0.020955683            6 
 2892000   0.81402236   -7.6025835    737.22873  0.021243336  0.020949675            3 
 2893000   0.77506537   -7.6156768    737.73796  0.021250661  0.020943682            1 
 2894000    0.7748334   -7.6078166    737.86885  0.021247087  0.020937659            2 
 2895000   0.78336374   -7.6254743    739.18014  0.021277494   0.02093167            4 
 2896000   0.80368693   -7.6020223    738.37726  0.021247044  0.020925698            2 
 2897000   0.78438897   -7.5765251    738.55177  0.021244729   0.02091971            3 
 2898000    0.7892357   -7.6052964    739.90796  0.021276396  0.020913725            7 
 2899000   0.80993519    -7.619428    739.10128  0.021245869  0.020907732            2 
 2900000   0.78617926    -7.597344    737.64413   0.02119667  0.020901704            2 
 2901000   0.80336352   -7.6182246    736.88014  0.021167417  0.020895679            3 
 2902000   0.78126346   -7.6117306    738.42057  0.021204358  0.020889698            4 
 2903000   0.77773456   -7.6176675    739.74604  0.021235103  0.020883711            3 
 2904000   0.78584488   -7.6185879    737.97968  0.021177103  0.020877716            4 
 2905000   0.77216248   -7.6069854     736.4164  0.021124968  0.020871687            6 
 2906000   0.79351502   -7.6205506    736.87951  0.021130979  0.020865674            4 
 2907000   0.77912082    -7.609015     739.6242  0.021202391  0.020859694            3 
 2908000   0.79029392   -7.5920153    737.41699  0.021131849  0.020853701            3 
 2909000   0.79375134   -7.6020924    739.72156  0.021190603  0.020847705            4 
 2910000   0.80408089   -7.6545364    737.61052  0.021122867  0.020841694            5 
 2911000   0.79646911   -7.6094445    738.71636  0.021147268  0.020835701            5 
 2912000   0.78779877    -7.651052    737.99383  0.021119329  0.020829719            4 
 2913000   0.78162253   -7.6266741    737.94217  0.021110601  0.020823738            5 
 2914000    0.7925188   -7.5873462     739.3402  0.021143337  0.020817774            2 
 2915000   0.81383262   -7.5885265    739.30242  0.021135003  0.020811802            3 
 2916000   0.77783357   -7.6196663    741.35813  0.021186504  0.020805855            5 
 2917000   0.78128411   -7.5884099    738.63128  0.021101339  0.020799902            5 
 2918000    0.7867566   -7.6011913    740.67641  0.021152513   0.02079396           11 
 2919000   0.77802056    -7.616343    737.36453  0.021050718  0.020787988            5 
 2920000   0.78785543   -7.6124571    738.34868  0.021071595  0.020781988            5 
 2921000   0.79523485   -7.6379354    739.33788  0.021092602  0.020775967            3 
 2922000   0.76371921   -7.6073347    739.19879  0.021081416  0.020769952            6 
 2923000   0.78590623    -7.652091    739.65621  0.021087245  0.020763946            2 
 2924000    0.7828617   -7.6234183    739.56449  0.021077419   0.02075792            3 
 2925000   0.78535717   -7.6173259    739.06597   0.02105601   0.02075188            4 
 2926000    0.7721401   -7.6000199    738.26707  0.021026062  0.020745889            2 
 2927000   0.76650148   -7.6093037    739.33322  0.021049232  0.020739883            5 
 2928000   0.77367045   -7.6118791    740.79334  0.021083599  0.020733851            1 
 2929000   0.76526871    -7.597313    740.72969   0.02107459  0.020727837            7 
 2930000   0.78464107   -7.6056041    739.48405  0.021031969  0.020721814            3 
 2931000   0.77044067   -7.6209253    738.92308  0.021008845  0.020715804            4 
 2932000   0.78179025   -7.6224279    740.14574   0.02103643  0.020709771            4 
 2933000   0.79710115   -7.6198154    738.64997  0.020986759  0.020703741            5 
 2934000   0.78300705   -7.6444089    740.21151  0.021023958  0.020697704            4 
 2935000    0.7691606   -7.6055637    738.79456  0.020976563   0.02069166            2 
 2936000    0.7729577   -7.6088877    739.31013  0.020984052  0.020685633            2 
 2937000   0.78181744   -7.5895529    739.50141  0.020982335  0.020679641            2 
 2938000   0.78055887   -7.5994485    739.84587  0.020984963  0.020673664            3 
 2939000   0.77548982   -7.5706658    741.68492  0.021029968  0.020667662            2 
 2940000    0.7892506   -7.6066246     741.2712  0.021011089  0.020661683            2 
 2941000    0.7741992    -7.601109     739.5843  0.020956146  0.020655675            2 
 2942000   0.78331782   -7.6165214    738.96536  0.020931491   0.02064965            2 
 2943000   0.77076712   -7.6106797    740.38512   0.02096458  0.020643609            4 
 2944000   0.77961402   -7.6038165    738.46035  0.020902976  0.020637554            2 
 2945000   0.79108108    -7.620416    739.31418  0.020920039  0.020631494            3 
 2946000   0.77765824   -7.6116975    738.00248  0.020875834  0.020625455            3 
 2947000   0.79273331   -7.6426235    739.41959  0.020908822  0.020619428            4 
 2948000   0.77260919   -7.6232125    738.34582  0.020871377  0.020613398            3 
 2949000   0.77711158    -7.607281    740.21088  0.020917002  0.020607374            5 
 2950000   0.79880153   -7.6113829    738.62959  0.020865243  0.020601357            3 
 2951000   0.79700751    -7.643809    740.23632  0.020903545  0.020595308            3 
 2952000   0.79146739   -7.6265747    739.58982  0.020878213  0.020589275            3 
 2953000    0.7643621   -7.6388714    738.79222  0.020848635  0.020583234            5 
 2954000   0.78766699    -7.632702    739.41279  0.020859084  0.020577203            3 
 2955000   0.76757882    -7.651286    739.36989  0.020850815  0.020571132            6 
 2956000   0.77569383   -7.6543225     740.9001    0.0208869   0.02056508            3 
 2957000   0.78360599   -7.6353388    737.48544  0.020783605  0.020559045            5 
 2958000   0.78072892   -7.6712338     739.1279  0.020822851  0.020552974            1 
 2959000   0.78315029   -7.6516767    738.09544  0.020786737  0.020546879            4 
 2960000   0.78116194   -7.6391926    739.60218  0.020822134  0.020540798            5 
 2961000   0.77948123   -7.6722229    738.61651  0.020787361  0.020534704            3 
 2962000   0.76825857   -7.6541163    738.46487  0.020776077  0.020528615           10 
 2963000   0.80682018    -7.650254    740.46357  0.020825278  0.020522576            7 
 2964000   0.77529349   -7.6366448    740.01516  0.020805644  0.020516542            3 
 2965000   0.78204398   -7.6262129    740.78466  0.020820255  0.020510538            5 
 2966000   0.75655305   -7.5994315    740.24291  0.020798014  0.020504539            2 
 2967000   0.76801484    -7.650003    740.00209   0.02078424  0.020498526            6 
 2968000   0.79113971   -7.6226113    741.56179   0.02082103  0.020492545            6 
 2969000   0.78992553    -7.642358    740.93325  0.020796375  0.020486585            3 
 2970000   0.76638042   -7.6071853    742.43612  0.020831541  0.020480604            5 
 2971000   0.75479969   -7.6252022    739.73215  0.020748686  0.020474585            4 
 2972000   0.76419718   -7.6292907    739.33808  0.020730655   0.02046856            3 
 2973000   0.77175122   -7.6585884    742.20177  0.020803951  0.020462527            4 
 2974000   0.77999207   -7.6194124    740.46926   0.02074841  0.020456492            3 
 2975000   0.79696002   -7.6529283     740.5632  0.020744067  0.020450453            1 
 2976000   0.78808023   -7.6119987    740.67028  0.020740095   0.02044443            2 
 2977000   0.76957003   -7.6497331    740.08399  0.020716717  0.020438375            2 
 2978000   0.77528093   -7.6107801    741.76507  0.020756802  0.020432343            3 
 2979000   0.77504229   -7.6344694    740.76174  0.020721767  0.020426328            3 
 2980000   0.77118081   -7.6303724    739.62796  0.020683109  0.020420341            3 
 2981000   0.78916845   -7.6080073    741.61317  0.020731666  0.020414349            7 
 2982000   0.75361546   -7.6039923    741.16132  0.020712087  0.020408359            2 
 2983000   0.77615683    -7.616235    741.82608  0.020723714  0.020402368            2 
 2984000   0.77937407   -7.6350824    742.10021  0.020724425  0.020396403            7 
 2985000   0.76873649   -7.6160597    741.93368  0.020712833  0.020390408            5 
 2986000   0.78130517   -7.6497301    743.12287  0.020739084  0.020384406            2 
 2987000   0.76745637   -7.6635559    742.07784  0.020702986  0.020378411            3 
 2988000   0.78778804   -7.6035015    744.15641  0.020754027  0.020372405            5 
 2989000   0.75759803   -7.6456409    741.29951  0.020667434  0.020366427            4 
 2990000     0.792373   -7.6348881    741.01732  0.020652657  0.020360407            4 
 2991000   0.76629505   -7.6540126    741.17623  0.020650179   0.02035441            6 
 2992000   0.76964944   -7.6675982    741.39546  0.020649383  0.020348387            3 
 2993000   0.77736164   -7.6310063     741.0763  0.020633598  0.020342388            2 
 2994000   0.77239355   -7.6361426     743.2422  0.020686991  0.020336408            2 
 2995000    0.7784962   -7.6480523    741.51041  0.020631898  0.020330398            5 
 2996000    0.7834655   -7.6656859    739.42243  0.020566934   0.02032437            3 
 2997000   0.77509383    -7.663864    742.29748  0.020640014  0.020318372            3 
 2998000   0.76584207   -7.6409942    742.78094  0.020646568  0.020312358            4 
 2999000   0.74841798   -7.6651213    739.81933  0.020557389  0.020306316            3 
 3000000   0.76021962    -7.640371    741.73726  0.020603813  0.020300306            2 
 3001000   0.79121788   -7.6455464    740.12726   0.02055224    0.0202943            4 
 3002000   0.77297519   -7.6653218    740.45218  0.020554413   0.02028831            2 
 3003000   0.78065936   -7.6384723    741.76235  0.020583926  0.020282297            2 
 3004000   0.77562469   -7.6375377    739.95651  0.020526978  0.020276283            2 
 3005000   0.76896381   -7.6336827    742.26831  0.020584257  0.020270291            4 
 3006000   0.76274739   -7.6522022    742.86733  0.020594016  0.020264294            6 
 3007000   0.76532334   -7.6555082    742.33984  0.020572549  0.020258322            8 
 3008000   0.76096242   -7.6516268    742.75355   0.02057717  0.020252317            3 
 3009000   0.79165982    -7.630214     743.3772  0.020587604  0.020246321            7 
 3010000   0.77899817   -7.6647947    740.47062  0.020500294  0.020240304            4 
 3011000   0.77656544    -7.680969    740.01759  0.020480947  0.020234276            3 
 3012000   0.75419801   -7.6478317    742.04895  0.020530349  0.020228253            2 
 3013000   0.76390827   -7.6378578    741.59973  0.020511111  0.020222213            3 
 3014000   0.77005166    -7.648873    742.56309  0.020530941  0.020216191            4 
 3015000   0.76052734   -7.6700439    742.98795  0.020535875  0.020210175            2 
 3016000   0.78152559   -7.6255189    742.07967   0.02050397  0.020204189            5 
 3017000   0.75955774   -7.6559837     739.7359  0.020432436  0.020198168            2 
 3018000   0.76293083   -7.6558383    743.56758  0.020531466  0.020192159            6 
 3019000   0.75993962   -7.6542432    742.20882   0.02048716   0.02018615            4 
 3020000   0.77017964   -7.6755104    739.95332  0.020418138  0.020180101            5 
 3021000   0.76812346   -7.6546202    742.06098  0.020469518  0.020174068            4 
 3022000   0.75662293   -7.6308211    744.56108  0.020531686  0.020168063            3 
 3023000   0.74468853   -7.6615153    741.62328   0.02044391  0.020162041            7 
 3024000   0.77918299     -7.68987    742.56694  0.020463154  0.020156032            6 
 3025000   0.76914055   -7.6694542    741.79948  0.020435247  0.020149983            2 
 3026000   0.77953349    -7.679379    742.26047  0.020441189  0.020143983            4 
 3027000   0.76842184   -7.6744565     743.2068  0.020460489  0.020138019            2 
 3028000   0.78719242   -7.6607769    742.93348   0.02044621  0.020132031            5 
 3029000   0.76779238   -7.6676832    742.40657  0.020424963   0.02012607            3 
 3030000   0.77255936   -7.6546593    743.21534  0.020440466  0.020120113            6 
 3031000   0.77289242    -7.678363    745.23776  0.020489326  0.020114174            3 
 3032000   0.77121133    -7.642993    744.15794   0.02045289  0.020108223            4 
 3033000   0.77374618   -7.6764113    741.88569  0.020383715  0.020102259           11 
 3034000   0.76179092   -7.6779641    742.92818   0.02040563  0.020096282            2 
 3035000   0.75385492   -7.7002025     743.0713  0.020402836  0.020090301            5 
 3036000   0.77508401   -7.6279827    744.30725  0.020430041  0.020084328            2 
 3037000   0.76582735    -7.674854    742.75899  0.020380831  0.020078393            2 
 3038000    0.7724723   -7.6569165    744.46514  0.020420922  0.020072457            3 
 3039000   0.75765383   -7.6599357    742.61217  0.020363392  0.020066503            5 
 3040000   0.76136889   -7.6372432    744.35451  0.020404455  0.020060564            4 
 3041000   0.76031013   -7.6337586    743.89576  0.020385174  0.020054621            4 
 3042000   0.77630383   -7.6567815    743.82413   0.02037651  0.020048684            3 
 3043000   0.76095246    -7.654591    744.33902  0.020383915  0.020042762            4 
 3044000   0.76547586    -7.638198    743.99623  0.020367834  0.020036832            3 
 3045000   0.76324758   -7.6362868    743.41407  0.020345213  0.020030915            1 
 3046000   0.76697593   -7.6633258    743.98243  0.020354083  0.020024969            3 
 3047000   0.75979579   -7.6659123     744.9725   0.02037448  0.020019013            4 
 3048000   0.76739962   -7.6426815    744.80132  0.020363116  0.020013043            7 
 3049000   0.78396604   -7.6517128    743.59064  0.020323348  0.020007104            9 
 3050000   0.77370686   -7.6643408    744.19197  0.020333114  0.020001158            5 
 3051000   0.77849246   -7.6687546    742.39467  0.020277359  0.019995188            3 
 3052000   0.76305742   -7.6564852    744.93916  0.020340191  0.019989219            8 
 3053000   0.76950488   -7.6638861    743.79921  0.020302413  0.019983252            6 
 3054000    0.7629687   -7.6744515    744.32359  0.020310074  0.019977287            2 
 3055000   0.75715232   -7.6628823    744.17789  0.020299452  0.019971324            4 
 3056000   0.76545174   -7.6696897    742.58138  0.020249274  0.019965369            4 
 3057000   0.78369819   -7.6633861    743.82058  0.020276431  0.019959419            3 
 3058000   0.75547249   -7.6816578    742.87773  0.020244106  0.019953448            5 
 3059000   0.74683948   -7.6645288    745.16116  0.020299694  0.019947481            3 
 3060000   0.73609784   -7.6553445    744.48146   0.02027455  0.019941536            5 
 3061000   0.75317918   -7.6375326    744.85708  0.020278152  0.019935598            2 
 3062000     0.776432   -7.6283368    744.64395  0.020265729   0.01992969            4 
 3063000   0.76870557   -7.6612862    743.51407  0.020228373  0.019923771            3 
 3064000   0.75168149   -7.6396502    746.71451  0.020308815  0.019917854            5 
 3065000   0.75992092   -7.6390388    746.50914  0.020296605  0.019911973            3 
 3066000   0.74954152   -7.6358096    745.88697  0.020273075  0.019906081            3 
 3067000   0.77088551   -7.6370295    745.23781  0.020248827  0.019900203            4 
 3068000    0.7512053    -7.650021    745.60717  0.020252259  0.019894332            5 
 3069000   0.76103692   -7.6805593    745.54899   0.02024408  0.019888433            4 
 3070000   0.75237952   -7.6684234     744.6262  0.020212438  0.019882517            4 
 3071000   0.76393215    -7.643753    747.73601  0.020290242  0.019876646            2 
 3072000   0.74147504   -7.6636482    747.68264   0.02028219  0.019870801            4 
 3073000   0.76449364   -7.6317864    747.60929    0.0202736  0.019864985            3 
 3074000   0.77189712   -7.6559222    746.96676  0.020249587  0.019859167            5 
 3075000   0.75977972   -7.6563811    745.80697  0.020211571  0.019853332            2 
 3076000      0.74745   -7.6694221    747.16241  0.020241721  0.019847516            4 
 3077000   0.75869773   -7.6445779    747.47228  0.020243535  0.019841708            3 
 3078000   0.76288711   -7.6760758    748.38433  0.020261651  0.019835904            4 
 3079000   0.75062573   -7.6499754    746.88522  0.020214497  0.019830104            4 
 3080000   0.75248867   -7.6479316    747.59413  0.020227114  0.019824308            4 
 3081000   0.76543371    -7.665244    747.79198    0.0202259  0.019818509            3 
 3082000   0.77431338   -7.6574834    748.93571  0.020250263  0.019812684            5 
 3083000   0.77041518   -7.6748475    748.13317  0.020222002  0.019806881            8 
 3084000    0.7725442   -7.6556558    747.98355  0.020211402  0.019801082            4 
 3085000    0.7446887   -7.6749365    746.45498   0.02016356  0.019795281            7 
 3086000   0.74733753   -7.6901666    745.59966  0.020133929  0.019789444            4 
 3087000   0.76810773     -7.68108    747.68575  0.020183721  0.019783616            8 
 3088000   0.75540872   -7.6880659    747.20192  0.020164128  0.019777801            3 
 3089000   0.76389917   -7.6860844    747.35446  0.020161715     0.019772            3 
 3090000   0.74792898   -7.6612887    747.14363  0.020149505  0.019766183            4 
 3091000   0.75877994   -7.6796866    747.32278  0.020147816  0.019760408            2 
 3092000   0.75793262   -7.6773125    747.71745  0.020151936  0.019754575            3 
 3093000     0.750472   -7.6795199    748.00398  0.020153141  0.019748778            4 
 3094000   0.74191565   -7.6686199    748.33462  0.020155533  0.019742997            4 
 3095000   0.75593803   -7.6728253    748.18822  0.020145079  0.019737229            2 
 3096000   0.76702694   -7.6827946      746.905  0.020104032  0.019731427            3 
 3097000   0.76430314   -7.6848406    747.10565   0.02010294  0.019725642            4 
 3098000   0.75314448   -7.6923254    748.86308  0.020143724  0.019719841            2 
 3099000   0.77888874   -7.6600001    747.94757  0.020112605  0.019714048            4 
 3100000   0.75423567   -7.6820293    747.63652  0.020097756  0.019708259            3 
 3101000   0.74766941   -7.6600303     748.0105  0.020101325  0.019702454            2 
 3102000   0.73907058   -7.7138932    747.44613  0.020079683  0.019696642            6 
 3103000   0.74785446   -7.6881135    749.40705  0.020125874  0.019690837            6 
 3104000   0.77428693   -7.6837055    749.01034   0.02010874  0.019685022            3 
 3105000   0.74891681   -7.7285911    748.12569  0.020078521  0.019679209            3 
 3106000   0.77097862   -7.7040975    746.11693  0.020018162  0.019673373            2 
 3107000   0.75762511   -7.7001366     749.0304  0.020089862   0.01966755            6 
 3108000    0.7623227   -7.7029688    747.88417  0.020052664  0.019661738            2 
 3109000   0.75141741   -7.6692501     747.2429  0.020029026  0.019655927            3 
 3110000   0.75865173   -7.6759018    748.42067  0.020054144  0.019650124            3 
 3111000   0.74654823   -7.6993628    749.53486  0.020077544   0.01964434            3 
 3112000   0.74983556   -7.6831332    748.61562  0.020046477  0.019638542            4 
 3113000   0.75734472   -7.7020049    749.82248  0.020072344  0.019632754            8 
 3114000   0.75902355   -7.6819755    748.48095  0.020029998  0.019626947            6 
 3115000   0.77120558   -7.7263122    747.35183  0.019993361  0.019621128            4 
 3116000   0.74179457    -7.684396    749.20042  0.020036383  0.019615329            8 
 3117000   0.75727298   -7.6999402    748.41636  0.020008993  0.019609545            9 
 3118000    0.7641699   -7.7043422    748.32968  0.020000259  0.019603713            4 
 3119000   0.75194291   -7.7095966    747.73408  0.019977933  0.019597877            3 
 3120000   0.75821316   -7.7208098    747.92667  0.019976674   0.01959207            5 
 3121000   0.75646191   -7.6812032    749.50298  0.020012362  0.019586263            3 
 3122000   0.73485923   -7.6832943    750.42242  0.020030494  0.019580496            4 
 3123000   0.75616291   -7.7155026    746.59334  0.019921906  0.019574666           10 
 3124000   0.75746866   -7.6874273    747.19765  0.019931649  0.019568829            6 
 3125000   0.75906619   -7.7023761    748.78087   0.01996749  0.019563017            2 
 3126000   0.75853362   -7.7021895    746.09624  0.019889535  0.019557188            5 
 3127000   0.75659579   -7.7132747    749.40448  0.019971338  0.019551378            4 
 3128000   0.75587002   -7.6929878     746.6782  0.019892322   0.01954554            5 
 3129000   0.75746627    -7.709965    746.55584  0.019882706  0.019539683            3 
 3130000   0.74356818   -7.6920401    748.49128  0.019927883   0.01953386            3 
 3131000   0.74613633   -7.6775766    748.62766  0.019925148  0.019528038            5 
 3132000   0.76117161   -7.6939953    748.42038  0.019913271    0.0195222            2 
 3133000   0.74907527   -7.7057805    746.36379  0.019852213  0.019516369            3 
 3134000   0.77070955   -7.6799327    749.02376  0.019916607  0.019510527            2 
 3135000   0.74657262   -7.6854806    747.86156  0.019879361   0.01950469            2 
 3136000   0.75876644   -7.7101181    747.93395  0.019874945   0.01949885            3 
 3137000    0.7542209   -7.7065546    748.33036   0.01987914  0.019493025            3 
 3138000    0.7340548   -7.7003383    747.48236  0.019850286  0.019487194            5 
 3139000   0.73861874   -7.7287507    747.45774  0.019843308  0.019481335            2 
 3140000   0.75783293   -7.6855768    747.84332  0.019847222  0.019475478            3 
 3141000   0.74581517   -7.7143768     747.5871  0.019834105  0.019469624            3 
 3142000   0.74360512   -7.7063571    749.16712  0.019869699  0.019463795            3 
 3143000   0.74794666   -7.6925551    747.43858  0.019817547  0.019457952            6 
 3144000   0.75477562    -7.714915    746.89634  0.019796871  0.019452103            4 
 3145000   0.74841201   -7.6935147    748.92213  0.019844254  0.019446245            7 
 3146000   0.76138748   -7.7233161    747.54279  0.019801409   0.01944039            5 
 3147000   0.74501483   -7.7237958    745.39503  0.019738244  0.019434518            3 
 3148000   0.74523742   -7.6868906    748.95461  0.019826202  0.019428684            4 
 3149000   0.75877364   -7.7068859    748.28737  0.019802249  0.019422884            2 
 3150000    0.7653203   -7.6837132    747.61548  0.019778187  0.019417078            4 
 3151000   0.73848767    -7.707538    747.32204   0.01976415  0.019411266            7 
 3152000   0.74961228   -7.6949378     747.4434  0.019761088  0.019405451            8 
 3153000   0.74256605   -7.7290252    749.53767  0.019810172  0.019399638            3 
 3154000   0.75450256   -7.7047013    748.35333  0.019772599  0.019393808            9 
 3155000    0.7465598   -7.7041659    748.06734  0.019758778  0.019387977            3 
 3156000   0.74250809   -7.7145026    748.89988    0.0197745  0.019382151            9 
 3157000   0.73846801   -7.6877749    747.43602  0.019729596  0.019376323            6 
 3158000   0.76039806    -7.684165    748.81782  0.019759812  0.019370495            2 
 3159000   0.73752198   -7.7231601    747.13135  0.019709068  0.019364654            3 
 3160000    0.7512902   -7.6930063    749.80668  0.019773383  0.019358814            2 
 3161000   0.73788457   -7.7054405    749.21031  0.019751405  0.019353001            2 
 3162000   0.75517257   -7.6990882    749.37428   0.01974948  0.019347193            5 
 3163000   0.76622645   -7.7057783    749.19744  0.019738577  0.019341388            2 
 3164000   0.74873629   -7.6774105    751.02863  0.019780569  0.019335582            2 
 3165000   0.73635777   -7.6931636    748.25417  0.019701268  0.019329815            4 
 3166000   0.74609555   -7.7029359    750.13405  0.019744526   0.01932403            2 
 3167000   0.75209092   -7.6502668    749.94229  0.019733246  0.019318267            5 
 3168000   0.74651191   -7.7084175    749.09066  0.019704615  0.019312478            4 
 3169000    0.7501692   -7.7167186    749.51347  0.019709516  0.019306686            4 
 3170000   0.74675013   -7.6870151      752.049  0.019769953   0.01930091            5 
 3171000   0.75096363   -7.7307705    748.39048  0.019667573  0.019295111            3 
 3172000   0.73537957   -7.7195987     749.2291  0.019683404  0.019289286            3 
 3173000   0.73649304   -7.7058787    748.65725  0.019662182   0.01928347            3 
 3174000   0.73179457   -7.7045774    748.71241  0.019657436   0.01927763            3 
 3175000   0.73874323   -7.7389278    748.31921  0.019640924  0.019271798            4 
 3176000   0.74377187   -7.7212743    747.53751  0.019614229  0.019265962            2 
 3177000   0.75882123    -7.711758    748.57154  0.019635178  0.019260143            6 
 3178000    0.7355623   -7.7484516    748.00121  0.019614045  0.019254327            4 
 3179000   0.73905037   -7.7374664    748.28661  0.019615356  0.019248498            3 
 3180000     0.744141   -7.7292398    746.80014  0.019570234  0.019242689            3 
 3181000   0.75031945   -7.7258061    747.97365  0.019594825  0.019236858            7 
 3182000   0.73756923   -7.6798207    749.87089  0.019638353   0.01923107            4 
 3183000   0.73943591   -7.7041318    749.32126  0.019617794  0.019225294            3 
 3184000   0.76404977   -7.7244134    748.72797  0.019596105  0.019219495            7 
 3185000   0.74616504   -7.6910715    748.37899  0.019580821  0.019213677            9 
 3186000   0.73636114   -7.6977174    748.44289  0.019576347  0.019207904            6 
 3187000   0.74097062   -7.6866712    749.93302  0.019609168  0.019202114            3 
 3188000   0.73653332   -7.7112118    749.34417  0.019587625  0.019196343            2 
 3189000   0.74310117   -7.7323897    749.70962  0.019591032  0.019190538            2 
 3190000   0.73212068   -7.7463198    748.73194  0.019559351  0.019184743            3 
 3191000   0.74002945   -7.7168073    747.52069  0.019521589  0.019178961            6 
 3192000   0.74951506   -7.7039159    750.31424  0.019588404  0.019173195            3 
 3193000   0.75266313   -7.7156859    750.30944  0.019582144  0.019167437            3 
 3194000   0.73056311   -7.7132544    749.90742  0.019565524  0.019161674            3 
 3195000    0.7266791   -7.7130752    750.31037   0.01956991  0.019155904            4 
 3196000    0.7388048   -7.7188992    750.89426  0.019579012  0.019150147            3 
 3197000   0.73738639   -7.7374146    748.51403  0.019510844  0.019144378            2 
 3198000   0.73886557   -7.7279558    750.67985   0.01956118  0.019138585            3 
 3199000   0.74947595   -7.6869055    750.14358  0.019541096  0.019132806            7 
 3200000   0.76300886   -7.7614983    748.53534  0.019493108  0.019127019            6 
 3201000    0.7408784   -7.7423993    750.53948  0.019539193  0.019121229            3 
 3202000   0.74809679   -7.7330727    748.89204  0.019490215  0.019115439            3 
 3203000   0.72900818   -7.7565642    749.60305  0.019502629  0.019109658            2 
 3204000   0.74118374   -7.7389741    751.12803  0.019536206  0.019103907            2 
 3205000    0.7494808   -7.7136713    749.83166  0.019496403  0.019098164            3 
 3206000   0.73944094   -7.7293558    751.02072  0.019521229  0.019092406            6 
 3207000   0.74606514   -7.6940231    751.05541  0.019516043  0.019086638            3 
 3208000   0.71813289   -7.7342483    749.10402  0.019459269  0.019080857            5 
 3209000     0.719686    -7.761751     749.8181  0.019471749  0.019075073            6 
 3210000   0.74254551   -7.7435821    750.56224  0.019485001  0.019069281            3 
 3211000    0.7389532   -7.7202903     751.4125  0.019500999  0.019063521            4 
 3212000    0.7377847   -7.7044239    751.04058  0.019485279  0.019057769            4 
 3213000   0.71549334    -7.725585    750.31304  0.019460344  0.019052006            2 
 3214000   0.74632832   -7.7373631    749.94821   0.01944483  0.019046257            7 
 3215000   0.72926043   -7.7364702     750.3084  0.019448118  0.019040508            4 
 3216000   0.72542322   -7.7112546    752.09327  0.019488321  0.019034745            6 
 3217000   0.71508015   -7.7133453    751.54044  0.019467942  0.019028996            4 
 3218000   0.72628205   -7.7270591    751.40635   0.01945842  0.019023263            3 
 3219000   0.72077675   -7.7159061    752.13622   0.01947127  0.019017516            5 
 3220000   0.73033485   -7.7684103     750.4092  0.019420528  0.019011729            4 
 3221000   0.74181533   -7.7479022    751.12848  0.019433108  0.019005966            4 
 3222000   0.74587731   -7.7175935    749.14541  0.019375787  0.019000196            5 
 3223000   0.72664639   -7.7224874    750.15804  0.019395957  0.018994431            4 
 3224000   0.72593882   -7.7284998    751.49836  0.019424585  0.018988644            3 
 3225000   0.74489214    -7.724848    751.54641  0.019419804  0.018982901            6 
 3226000   0.73511525   -7.7247577    751.37183  0.019409274  0.018977144            5 
 3227000   0.73878709   -7.7206819    750.45727  0.019379642  0.018971402            5 
 3228000     0.733963   -7.7476002    749.71484  0.019354472  0.018965628            1 
 3229000   0.74213533   -7.7425038    749.31035  0.019338039  0.018959865            3 
 3230000   0.74023719   -7.7409877    751.12579   0.01937889  0.018954092            5 
 3231000   0.74232279   -7.7357797    749.84445  0.019339845  0.018948322            5 
 3232000   0.72907758     -7.72717    750.32408  0.019346227  0.018942581            6 
 3233000   0.73921533   -7.7154522    750.86897  0.019354288  0.018936836            9 
 3234000   0.73037988   -7.7280895    750.93043  0.019349887  0.018931102            5 
 3235000      0.73042   -7.7257235    749.79398  0.019314631  0.018925358            3 
 3236000   0.73528895   -7.7167382     751.5264  0.019353276   0.01891962            5 
 3237000   0.73616189   -7.7331585     751.8829  0.019356475  0.018913889            5 
 3238000   0.73748735   -7.7499129    752.04574  0.019354688  0.018908161            2 
 3239000   0.73846065   -7.7339861     751.3435  0.019330645  0.018902456            5 
 3240000   0.72675596    -7.723845    750.71084  0.019308406  0.018896728            6 
 3241000   0.73094242   -7.7085466    750.52986  0.019297795  0.018891005            2 
 3242000   0.73647822   -7.7367299    751.04467  0.019305076   0.01888528            4 
 3243000   0.73704008   -7.7469623    751.03747  0.019298938  0.018879559            3 
 3244000   0.74313953   -7.7369901    751.74228  0.019311094  0.018873807            4 
 3245000   0.74217854   -7.7466085    751.36786  0.019295528  0.018868033            7 
 3246000   0.74230856   -7.7212505    751.12579  0.019283369  0.018862261            5 
 3247000   0.73052317   -7.7267595       751.09  0.019276512  0.018856515            4 
 3248000   0.74079419   -7.7368118    751.95608  0.019292798  0.018850783            5 
 3249000   0.72384323   -7.7375112    751.21768   0.01926792  0.018845062            7 
 3250000   0.73471261   -7.7265214    751.81036  0.019277189  0.018839345            5 
 3251000    0.7288939   -7.7415966    751.82609  0.019271662  0.018833645            3 
 3252000    0.7112125   -7.7014368    751.17846  0.019249141  0.018827932            3 
 3253000   0.74207088   -7.7268253    753.41472   0.01930051  0.018822216            4 
 3254000   0.73077565   -7.7096084    753.32482  0.019292277  0.018816493            3 
 3255000   0.73446664   -7.7470069    751.39135   0.01923685  0.018810788            5 
 3256000   0.73468041   -7.7435702    751.50077  0.019233742  0.018805084            3 
 3257000   0.75527576   -7.7290786    751.95208  0.019239384  0.018799393           10 
 3258000   0.72192584   -7.7366878    750.44469  0.019194923    0.0187937            6 
 3259000   0.73590116   -7.7540937    749.29186  0.019159555  0.018787988            5 
 3260000   0.75283828   -7.7460295    751.16633  0.019201593  0.018782291            3 
 3261000   0.71953168   -7.7384927    751.28264  0.019198677  0.018776579            3 
 3262000   0.73205343   -7.7551047     750.8742  0.019182357  0.018770885            7 
 3263000   0.72577297   -7.7442087    752.42805  0.019216162   0.01876516            3 
 3264000   0.72312121   -7.7497779    751.90746  0.019196984  0.018759418            3 
 3265000    0.7172556   -7.7373076    750.55632  0.019156619   0.01875369            5 
 3266000   0.71096188   -7.7403684    752.88914  0.019210276  0.018747979            5 
 3267000   0.73430475    -7.737004    751.40429  0.019166521  0.018742267            4 
 3268000   0.73415656   -7.7523375    750.92577  0.019148454  0.018736551            2 
 3269000   0.73381338   -7.7505377    750.78504  0.019139009  0.018730834            6 
 3270000   0.72809766   -7.7608863    751.07637   0.01914058  0.018725114            3 
 3271000   0.73132745   -7.7550839    752.19246  0.019163163  0.018719396            5 
 3272000   0.74081843   -7.7403526    752.58252   0.01916724   0.01871367            4 
 3273000   0.72653231   -7.7389603    751.13431  0.019124511  0.018707939            4 
 3274000   0.73617003   -7.7688334    749.96449  0.019088895   0.01870221            2 
 3275000   0.73749127    -7.754268     752.0377  0.019135819  0.018696466            6 
 3276000   0.72282108   -7.7605693    751.43224  0.019114577  0.018690716            9 
 3277000   0.73781162   -7.7339877    751.81171  0.019118394   0.01868496            3 
 3278000    0.7238081   -7.7641158    752.62595  0.019133261   0.01867924           10 
 3279000   0.72837834   -7.7318182    751.82356  0.019107034  0.018673498            3 
 3280000   0.72622736   -7.7531239    751.49745  0.019092923  0.018667757            3 
 3281000   0.72065044   -7.7476384    751.84707  0.019095984   0.01866204            3 
 3282000   0.71645509   -7.7401598    751.99604  0.019093948   0.01865632            3 
 3283000   0.73392344   -7.7622543     750.9921  0.019062649    0.0186506            4 
 3284000   0.72355799   -7.7367219      752.449  0.019093813  0.018644902            4 
 3285000   0.71959242   -7.7516856    751.35725  0.019060306    0.0186392            2 
 3286000   0.72278691   -7.7347339    752.84606  0.019092262  0.018633485            4 
 3287000   0.72898864   -7.7436143    751.87749  0.019061898  0.018627791            3 
 3288000   0.73052553   -7.7536558    752.35183  0.019068122  0.018622095            6 
 3289000   0.72809387   -7.7573565    752.65895  0.019070106  0.018616424            2 
 3290000   0.73159562   -7.7354856    752.39094  0.019057521  0.018610761            4 
 3291000   0.71408489   -7.7423402    753.48886  0.019079532  0.018605107            8 
 3292000   0.72456274   -7.7365973    752.33876  0.019044622  0.018599458            3 
 3293000   0.72706889   -7.7086052    752.47669  0.019042329  0.018593832            5 
 3294000   0.71762452   -7.7208117    752.57368  0.019039002  0.018588219            2 
 3295000   0.71299388    -7.754764    752.57972  0.019033377  0.018582539            4 
 3296000   0.72054753   -7.7367775    752.90385  0.019035797  0.018576854            7 
 3297000   0.71083662    -7.733061    752.29687  0.019014682   0.01857116            4 
 3298000   0.73161539   -7.7332732    751.33054  0.018984499  0.018565471            4 
 3299000   0.71031893   -7.7675075    752.29869    0.0190032  0.018559794            3 
 3300000   0.71618723   -7.7360893    751.51271  0.018977594  0.018554108            8 
 3301000    0.7154622    -7.720754    752.07775  0.018986109  0.018548445            2 
 3302000   0.73476162    -7.743689    753.38318  0.019013305  0.018542772            7 
 3303000   0.70939903   -7.7414645    753.67514  0.019014914  0.018537104            4 
 3304000   0.73879931   -7.7672232    751.13189  0.018945013  0.018531417            3 
 3305000    0.7229267   -7.7402994    752.08396  0.018963287  0.018525737            6 
 3306000   0.70673551   -7.7485818    753.13189  0.018983966  0.018520059            4 
 3307000   0.70189839   -7.7646977    750.86066  0.018920992  0.018514367            7 
 3308000   0.72308863   -7.7490821    751.87459  0.018940815  0.018508668            7 
 3309000   0.73566585   -7.7400716    752.38405  0.018947921  0.018502979            3 
 3310000   0.74250256   -7.7498884     751.2707  0.018914167  0.018497288            5 
 3311000   0.72155679   -7.7524495    752.45253  0.018938199  0.018491587            3 
 3312000   0.72317309   -7.7755915    752.78196   0.01894077  0.018485891            3 
 3313000   0.74118143   -7.7647026    752.12304  0.018918479  0.018480193            4 
 3314000   0.74659725   -7.7433235    752.22156  0.018915248  0.018474504            4 
 3315000   0.71781125   -7.7699826    752.98626  0.018928765  0.018468816            7 
 3316000   0.72065928   -7.7551072    753.30282  0.018931012  0.018463121            5 
 3317000   0.71610482   -7.7474737    751.92257  0.018890628  0.018457436            3 
 3318000   0.71997276   -7.7762331    750.25638  0.018843088  0.018451713            2 
 3319000   0.71452587   -7.7719116    752.09982  0.018883695  0.018445997            3 
 3320000   0.71691186   -7.7792159    750.75525  0.018844258   0.01844028            4 
 3321000   0.71341494   -7.7685597    752.70403  0.018887484  0.018434552            4 
 3322000   0.72766463    -7.758249    750.91096  0.018836819  0.018428819            3 
 3323000   0.71556511   -7.7713063    752.00869  0.018858679  0.018423108            4 
 3324000   0.72264953   -7.7703338    751.75696  0.018846695  0.018417388            5 
 3325000   0.71822973   -7.7839621    749.79424  0.018791836  0.018411658            4 
 3326000   0.72621915   -7.7767723    751.69791  0.018833882  0.018405942            5 
 3327000   0.71147055   -7.7841017    751.62559   0.01882641  0.018400229            3 
 3328000    0.7114416    -7.755774    753.25884   0.01886165  0.018394521            4 
 3329000   0.72155062   -7.7475299    752.34626   0.01883314  0.018388831            6 
 3330000   0.71861464   -7.7974434    752.32748  0.018827014  0.018383105            2 
 3331000   0.72585187   -7.7689774    750.71631  0.018781055  0.018377388            2 
 3332000   0.71420275   -7.7912337    751.70834  0.018800229  0.018371684            4 
 3333000   0.73297983   -7.7614809    752.87045  0.018823643  0.018365985            6 
 3334000   0.72302416    -7.779644    751.88133  0.018793275  0.018360278            3 
 3335000     0.709702   -7.7716527    750.75759   0.01875956  0.018354562            8 
 3336000   0.73168846   -7.7750318    752.17298  0.018789293  0.018348853            9 
 3337000   0.72490947   -7.7725403    751.58802  0.018769055  0.018343151            6 
 3338000   0.72449353   -7.7923801    751.27068  0.018755509  0.018337446            8 
 3339000   0.70134367    -7.791329    750.51396  0.018731006  0.018331738            7 
 3340000   0.71880223   -7.7604235    751.73496  0.018755862  0.018326041            4 
 3341000   0.72374754   -7.7732762    752.44379  0.018767928  0.018320343            6 
 3342000   0.73182299   -7.7842661    751.75778  0.018745207  0.018314665            4 
 3343000    0.7336331   -7.7885543    752.81104  0.018765855  0.018308989            3 
 3344000   0.71332335   -7.7831181    752.01239  0.018740341  0.018303325            4 
 3345000   0.71364047    -7.783776    752.37233  0.018743705  0.018297662            2 
 3346000   0.72978956   -7.7654151    753.93066  0.018776914   0.01829199            4 
 3347000   0.71009614   -7.7787879    752.05289  0.018724552  0.018286321            4 
 3348000   0.72334631   -7.7764364    751.25676  0.018699143  0.018280665            5 
 3349000    0.7181662   -7.7834957    750.87476  0.018684054  0.018275016            5 
 3350000   0.71602592   -7.7422055    752.59633  0.018721302  0.018269348            5 
 3351000   0.72607776   -7.7673535     753.4609  0.018737215  0.018263675            3 
 3352000   0.70812163   -7.7878221    753.04062  0.018721177  0.018258008            7 
 3353000   0.71899963   -7.7656784    754.34738  0.018748071  0.018252333            3 
 3354000   0.71312695   -7.7796614    750.30719  0.018642099  0.018246663            4 
 3355000   0.71264947   -7.7866177    751.55587  0.018667558     0.018241            3 
 3356000   0.71831359   -7.7772666    752.79872  0.018692857  0.018235342            5 
 3357000   0.70394605   -7.7548938    754.67528  0.018733871  0.018229699            4 
 3358000   0.70207848   -7.7629415    754.33927  0.018719954  0.018224075            5 
 3359000   0.70649692   -7.7832108     752.2164  0.018661715   0.01821843            3 
 3360000   0.71720885   -7.7736327    752.30513  0.018658361  0.018212788            7 
 3361000   0.71609837   -7.7865094    752.91474  0.018667925  0.018207161           12 
 3362000   0.70087578   -7.7700519    753.09707  0.018666891  0.018201523           10 
 3363000   0.72964963   -7.7661952     755.3507  0.018717185  0.018195888            3 
 3364000   0.71734814   -7.7947909    752.71507   0.01864633  0.018190251            5 
 3365000   0.71636463   -7.7868047     753.1401  0.018651315   0.01818461            4 
 3366000    0.7050955   -7.8033815    752.87187  0.018639133  0.018178979            3 
 3367000   0.71651538   -7.8023683    751.74519  0.018605712  0.018173331            3 
 3368000   0.71042781   -7.8217535    752.74303  0.018624877   0.01816767            3 
 3369000   0.70397911    -7.779628    751.98749   0.01860066  0.018162014            3 
 3370000   0.70686649   -7.7793404    752.94588   0.01861884  0.018156367            2 
 3371000    0.7099287   -7.8016418    753.34623  0.018623213  0.018150718            7 
 3372000   0.71861884   -7.7926028    753.34739  0.018617719  0.018145065            3 
 3373000   0.71061624   -7.8057995    753.32724  0.018611702  0.018139428            3 
 3374000   0.71766853   -7.7631094    754.44278  0.018633738  0.018133813            3 
 3375000   0.70010309   -7.7787151    754.73437  0.018635417  0.018128194            3 
 3376000   0.70789111   -7.7802199    753.01578  0.018587475   0.01812258            3 
 3377000    0.7120168   -7.8185558    752.64958  0.018572934  0.018116964            4 
 3378000   0.73302669   -7.7616367     752.5678  0.018565418  0.018111345            2 
 3379000   0.70728596   -7.7826682    752.40237  0.018555844  0.018105721            5 
 3380000   0.69821253   -7.8015204    754.00747  0.018589928  0.018100104            3 
 3381000    0.7123351   -7.7808299    753.99475  0.018584116  0.018094505            4 
 3382000    0.7131664   -7.7980268    753.68563  0.018571004  0.018088896            3 
 3383000   0.71093944   -7.7750174    753.30555  0.018556152  0.018083292            5 
 3384000   0.72620407    -7.755577    753.44089  0.018554001  0.018077707            5 
 3385000   0.71283056   -7.7816108    752.48252  0.018524927  0.018072115            6 
 3386000   0.72340789   -7.7675157    754.11489   0.01855963  0.018066534            4 
 3387000    0.7036137   -7.7851357    751.72116  0.018495255  0.018060942            5 
 3388000   0.71925759    -7.815674    752.70106  0.018513899  0.018055331            4 
 3389000   0.70947277   -7.7855248    752.97392  0.018515145  0.018049704            3 
 3390000   0.70954604   -7.8058522    751.87562  0.018482685  0.018044071            2 
 3391000   0.70411575   -7.7991327    752.64646  0.018496178  0.018038443            3 
 3392000   0.70800214   -7.8031012    752.43225  0.018485462  0.018032818            4 
 3393000   0.70712385   -7.8245797    752.71312  0.018486912  0.018027198            6 
 3394000   0.71259475   -7.8048973       753.13  0.018491701  0.018021571            5 
 3395000   0.69751713   -7.8219311    751.60226  0.018448754  0.018015932            4 
 3396000   0.71023301     -7.82908    752.00722  0.018453259  0.018010285            5 
 3397000   0.71376321    -7.810271    752.87834  0.018469197  0.018004642            4 
 3398000   0.69484707   -7.7771702    753.72479   0.01848452  0.017999006            6 
 3399000    0.7111355   -7.8136532    752.61757  0.018451936  0.017993396            4 
 3400000   0.71723988    -7.799957    753.19015  0.018460543  0.017987786            7 
 3401000   0.70374401    -7.794817    752.44161  0.018436774  0.017982178            4 
 3402000   0.70075395   -7.8194205    753.42729  0.018455499   0.01797658            3 
 3403000   0.71861978    -7.812229    753.63404  0.018455139  0.017970963           13 
 3404000    0.7196825   -7.8176909    752.00813  0.018409913  0.017965352            3 
 3405000   0.70688734   -7.8054566    753.95363   0.01845212  0.017959749            4 
 3406000   0.68971882   -7.8244392    753.15482  0.018427158  0.017954124            6 
 3407000   0.71235787   -7.8108208    752.50143  0.018405768  0.017948507            3 
 3408000   0.71767543   -7.8120398    752.17071  0.018392281  0.017942898            3 
 3409000   0.70676978   -7.8302726    752.60687  0.018397547  0.017937289            4 
 3410000   0.71064919   -7.7802959    752.67427  0.018393799  0.017931679            4 
 3411000   0.71213687   -7.8006104     753.0696  0.018398065  0.017926068            3 
 3412000   0.70955441   -7.8073926    753.76366  0.018409624  0.017920471            3 
 3413000   0.72113878   -7.8159598    754.83182  0.018430311  0.017914862            5 
 3414000   0.70536795   -7.7802161    753.68304  0.018396872  0.017909245            3 
 3415000    0.7241159   -7.8215111    754.42119  0.018409497  0.017903637            4 
 3416000   0.71940378   -7.7856399    752.67259  0.018361451  0.017898051            2 
 3417000    0.7074363   -7.8065585    752.25398  0.018345868  0.017892457            2 
 3418000   0.72085348   -7.8342932    753.16752  0.018362774  0.017886844            2 
 3419000   0.69823229   -7.8176343    753.27617  0.018360051  0.017881237            2 
 3420000   0.69631922   -7.7862395      754.008  0.018372515  0.017875628            2 
 3421000   0.69587817   -7.8266238    753.24958  0.018348669  0.017870023            8 
 3422000   0.71023955   -7.8162064    752.15245   0.01831659  0.017864415            3 
 3423000   0.71040678   -7.8224026    752.41869  0.018317721  0.017858815            4 
 3424000    0.6922206   -7.8164718    753.77048  0.018345271  0.017853213            3 
 3425000   0.71268937   -7.7937629    754.29183  0.018352599  0.017847618            3 
 3426000   0.69246639   -7.8100949    753.21173   0.01832097  0.017842025            3 
 3427000   0.70546837   -7.8127928    753.36271  0.018319296  0.017836445            5 
 3428000   0.70638068   -7.8143433    753.81009  0.018324827   0.01783086            6 
 3429000   0.69423914   -7.8455181    753.80301  0.018319311  0.017825264            4 
 3430000    0.7070472   -7.8551309    751.83568  0.018266173  0.017819665            5 
 3431000   0.70653839   -7.8422402     754.0259  0.018314046  0.017814054            4 
 3432000   0.69314907   -7.8180966    754.08461  0.018310135  0.017808473            3 
 3433000    0.6899914   -7.8421565     751.6877  0.018246619  0.017802879            2 
 3434000   0.71713405   -7.8213202    753.42158  0.018283381  0.017797281            3 
 3435000   0.69154602    -7.844506    752.66506  0.018259706   0.01779169            3 
 3436000   0.69759325   -7.8465611    752.93845  0.018261022   0.01778611            7 
 3437000   0.69673898   -7.8372529    751.28138  0.018215531  0.017780521            2 
 3438000   0.70276676   -7.8139173     754.5179  0.018288683  0.017774945            3 
 3439000   0.69638272   -7.8350645    753.11908  0.018249469  0.017769379            3 
 3440000   0.70972263    -7.800658    753.33335  0.018249354  0.017763803            5 
 3441000   0.71089362   -7.8355064    754.06079  0.018261668  0.017758218            4 
 3442000   0.69574031   -7.8273525    753.97756  0.018254347  0.017752653            5 
 3443000   0.68743009    -7.845998    752.71735  0.018218544  0.017747085            7 
 3444000   0.70924655   -7.8359593    752.97081  0.018219387  0.017741505            5 
 3445000    0.7118369   -7.8147807    753.77413   0.01823353  0.017735924            4 
 3446000   0.69750639   -7.8403573    753.45674  0.018220563   0.01773035            5 
 3447000   0.69020227   -7.8009319    754.16486  0.018232397  0.017724798            3 
 3448000   0.69604075    -7.830666    752.39818  0.018184411  0.017719224            5 
 3449000   0.69412461   -7.8437976    752.86081  0.018190316  0.017713639            6 
 3450000    0.7108802   -7.8279597    751.09067  0.018142287   0.01770807            3 
 3451000   0.69604156   -7.8421678    754.35988  0.018215973    0.0177025            5 
 3452000    0.7027361   -7.8377105    753.05868  0.018179285  0.017696926            2 
 3453000   0.70268498   -7.8308567    752.59068  0.018162725  0.017691347            7 
 3454000   0.68985255    -7.847824     754.3533  0.018199993  0.017685767            3 
 3455000    0.6917917   -7.8183782    753.90243   0.01818385    0.0176802            6 
 3456000    0.6904588   -7.8262855     752.9275  0.018155081  0.017674642            4 
 3457000   0.67868464   -7.8474792    753.90099  0.018173295  0.017669083            2 
 3458000   0.69913385   -7.8682984    752.59775  0.018136634  0.017663532            3 
 3459000   0.70082483   -7.8267817    754.64104  0.018180617  0.017657988            4 
 3460000   0.69901572   -7.8066679    753.57918  0.018149788  0.017652442            3 
 3461000   0.68450769   -7.8287802    753.82869  0.018150551  0.017646915            4 
 3462000   0.69607567   -7.7971979    754.16588  0.018153425  0.017641384            6 
 3463000   0.70842468   -7.8024499    754.25384  0.018150299  0.017635862            5 
 3464000    0.6993654    -7.816198    755.45147  0.018173871  0.017630342            6 
 3465000   0.70807115   -7.8286479    753.59111  0.018123884  0.017624811            7 
 3466000   0.71631586   -7.8181071    754.59144  0.018142706  0.017619281            4 
 3467000   0.69546725   -7.8078024    754.78293  0.018142076  0.017613759            5 
 3468000    0.6882873   -7.8496751    752.79876  0.018089167  0.017608234            4 
 3469000   0.71507901   -7.8473624    754.31975   0.01812049  0.017602697            5 
 3470000   0.67538403   -7.8118221    753.67516  0.018099788  0.017597181            5 
 3471000   0.70636786     -7.82334    753.80132  0.018097602   0.01759166            4 
 3472000   0.71966827   -7.8372548     754.0085  0.018097362  0.017586128            4 
 3473000   0.70514288   -7.8408322    753.35999  0.018076591  0.017580594            9 
 3474000   0.70872271   -7.8392814    752.51972  0.018051231  0.017575058            1 
 3475000   0.68983744   -7.8287131    754.03092  0.018082276  0.017569528            3 
 3476000   0.70154625   -7.8136338    754.15816  0.018080125  0.017563993            2 
 3477000   0.67098505   -7.8226631    754.46754   0.01808234  0.017558464            4 
 3478000   0.69304433   -7.8200053    753.28058  0.018048701  0.017552928            8 
 3479000   0.70657532    -7.828965    755.01631  0.018085089  0.017547404            5 
 3480000   0.69277295   -7.8679095    753.16338  0.018035522  0.017541872            5 
 3481000    0.6970895   -7.8496836    754.39985  0.018059941  0.017536339            4 
 3482000   0.69110045   -7.8157046    753.81031  0.018040645  0.017530821            3 
 3483000   0.69391835   -7.8381772    753.36194  0.018024738  0.017525318           12 
 3484000   0.70692093   -7.8479003    753.30871  0.018018291  0.017519818            4 
 3485000   0.69645036   -7.8437922    755.35647  0.018062087  0.017514312            2 
 3486000   0.70308823   -7.8345789    754.65383  0.018040109  0.017508821            3 
 3487000   0.68781116   -7.8319839    754.46547  0.018030434  0.017503342            3 
 3488000   0.69688879   -7.8282036    754.95655  0.018036997  0.017497864            5 
 3489000   0.68831139   -7.8339479     753.9265  0.018007225  0.017492393            3 
 3490000   0.69985556   -7.8354527    753.69258   0.01799648  0.017486913            3 
 3491000   0.70345258   -7.8171358    754.69349  0.018015218  0.017481434            7 
 3492000   0.68760814   -7.8277814    754.93674  0.018015863   0.01747597            7 
 3493000   0.67013956   -7.8315916    756.05498  0.018037384  0.017470502            4 
 3494000   0.68980203   -7.8325872    754.75329  0.018001176  0.017465048            6 
 3495000   0.69789282    -7.790059    755.37798   0.01801092  0.017459591            2 
 3496000   0.70311149   -7.8184821    756.57195  0.018034228  0.017454154            3 
 3497000   0.67761648   -7.7988145    754.86988  0.017988511  0.017448716            3 
 3498000   0.69485869   -7.8188043    755.67859  0.018002634  0.017443261            3 
 3499000   0.68183182   -7.8376535     754.5534  0.017970692  0.017437797            7 
 3500000   0.69088448   -7.8544245    753.27147  0.017935035   0.01743231            7 
 3501000   0.68526797   -7.8482786    753.50226  0.017935406   0.01742683            3 
 3502000   0.67615228   -7.8234366    754.72671  0.017959421  0.017421349            4 
 3503000   0.68576928   -7.8410065     755.9795  0.017984097  0.017415884            5 
 3504000   0.69973802   -7.8576372    753.01848  0.017908545  0.017410423            4 
 3505000   0.67856392   -7.8450495    754.56016  0.017940089  0.017404951            3 
 3506000   0.67674111   -7.8568964    753.46685  0.017908986  0.017399475            3 
 3507000   0.67879767   -7.8255385    754.30273  0.017923741  0.017393988            5 
 3508000   0.69814224   -7.8371401    754.97289  0.017934552  0.017388509            6 
 3509000   0.68803817   -7.8275545      754.066  0.017907903  0.017383061            3 
 3510000   0.68148625   -7.8439196    753.61421  0.017892075  0.017377606            9 
 3511000   0.68787573   -7.8432176    755.06432  0.017921397  0.017372141            4 
 3512000   0.69281342    -7.837458    753.83942   0.01788723  0.017366692            5 
 3513000   0.70093858   -7.8349646    755.30245  0.017916843  0.017361245            3 
 3514000   0.70227784   -7.8363551    755.07307  0.017906305  0.017355807            2 
 3515000   0.68006118   -7.8631667    754.94298  0.017898127  0.017350368            5 
 3516000   0.69007435   -7.8344141     755.7901  0.017913114  0.017344926            3 
 3517000   0.69280885   -7.8584251    754.20235    0.0178704  0.017339482            3 
 3518000   0.70015692   -7.8195211    756.59204  0.017921926  0.017334051            6 
 3519000   0.69224746   -7.8318924    754.56288  0.017868781  0.017328609            7 
 3520000   0.68236858    -7.833076    754.67996  0.017866476  0.017323174            5 
 3521000   0.68540763   -7.8512539    755.27407  0.017875463  0.017317747            3 
 3522000   0.68953339   -7.8214826    754.32457  0.017847922  0.017312308            2 
 3523000   0.69958751   -7.8483948    754.89309  0.017856303  0.017306869            7 
 3524000   0.68154275   -7.8278051    755.60927  0.017868172  0.017301449            7 
 3525000   0.69075544   -7.8643146    755.79749  0.017867553  0.017296012            2 
 3526000   0.69423296   -7.8119999    756.38025  0.017876259  0.017290588            3 
 3527000   0.68977354   -7.8240368    755.97783  0.017861682  0.017285172            6 
 3528000   0.69253392   -7.8313708    755.91712  0.017855185   0.01727975            2 
 3529000   0.68510087   -7.8612129    755.33529  0.017836386  0.017274331            5 
 3530000   0.68456973   -7.8526072    755.14445  0.017826828   0.01726891            6 
 3531000    0.6826935   -7.8356067    755.88356  0.017839223  0.017263492            4 
 3532000   0.69349006    -7.851853    755.39856  0.017822729  0.017258085            2 
 3533000    0.6835155   -7.8507397    754.67161  0.017800538  0.017252683            5 
 3534000   0.69294868   -7.8435877    755.18785  0.017807674  0.017247279            8 
 3535000   0.70315743   -7.8684015    755.09338   0.01780041  0.017241874            4 
 3536000   0.68832491    -7.824848    756.64894  0.017832036  0.017236477            9 
 3537000   0.66931064   -7.7997359    756.93116  0.017833643   0.01723111            4 
 3538000   0.68249343    -7.836356    756.77043  0.017824817  0.017225748            4 
 3539000   0.68367627    -7.810762    756.54624  0.017814501  0.017220368            2 
 3540000   0.69333918   -7.8295708      757.054  0.017821422  0.017215002            5 
 3541000   0.69217865   -7.8265163     755.1638  0.017771905  0.017209625            2 
 3542000   0.69936268    -7.823433    757.06048  0.017811511  0.017204256            4 
 3543000   0.69285248   -7.8169023    756.99797  0.017805014  0.017198902            2 
 3544000   0.68754868   -7.8354123    758.12551  0.017826503  0.017193554            2 
 3545000   0.68842429   -7.8136008     758.1342  0.017821678  0.017188204            2 
 3546000   0.69941886   -7.8518158    756.76646   0.01778451  0.017182852            3 
 3547000   0.70402293    -7.865029    756.77385  0.017779669  0.017177489            3 
 3548000   0.67386887   -7.8339623    757.15029    0.0177835  0.017172129            6 
 3549000   0.68031553   -7.8305767    756.21113  0.017756437  0.017166758            3 
 3550000   0.66996532   -7.8140476    757.76529  0.017787918  0.017161407            7 
 3551000   0.69352164   -7.8353089    756.07235  0.017743179  0.017156064            4 
 3552000   0.68836251   -7.8330282    754.96486  0.017712201  0.017150698            3 
 3553000   0.67996807   -7.8640678     755.7894  0.017726555  0.017145321            4 
 3554000   0.68388788   -7.8736942    755.51297  0.017715086  0.017139939            4 
 3555000   0.68814072   -7.8440676     756.3722  0.017730244  0.017134565            5 
 3556000   0.66969178   -7.8686377    756.61879  0.017731036  0.017129199            5 
 3557000   0.68789451   -7.8744773     756.5608  0.017724693  0.017123832            4 
 3558000   0.68647683   -7.8682655    755.84084  0.017702849  0.017118466            7 
 3559000   0.68874958   -7.8717977    756.35074  0.017709814   0.01711311            2 
 3560000   0.68762305   -7.8552822    756.37054  0.017705303  0.017107738            3 
 3561000   0.67407104    -7.855357    756.22968  0.017697034  0.017102377            5 
 3562000   0.69433982   -7.8457225    756.21819  0.017691798  0.017097029            5 
 3563000     0.669486   -7.8319727    756.43828   0.01769198  0.017091667            5 
 3564000   0.69585345   -7.8597327    755.96446  0.017675937  0.017086309            3 
 3565000   0.69155002   -7.8518794    756.31854  0.017679255  0.017080956            3 
 3566000   0.69408323   -7.8746415    757.17199  0.017694242  0.017075596            4 
 3567000    0.6980554   -7.8619496    755.58574  0.017652223  0.017070239            4 
 3568000   0.68959635   -7.8605569    755.29782  0.017640551  0.017064878            5 
 3569000   0.67409125   -7.8516957    756.22625  0.017657286  0.017059524            4 
 3570000   0.67429076   -7.8379535    757.26482  0.017676583  0.017054177            3 
 3571000   0.67516188   -7.8472589    756.51931  0.017654236  0.017048837            3 
 3572000   0.67801856   -7.8501016     755.6495  0.017629001  0.017043481            3 
 3573000    0.6815612   -7.8596457    756.11109  0.017634833  0.017038128            7 
 3574000   0.68652818   -7.8758796    755.23283  0.017609421  0.017032779            3 
 3575000   0.66741996   -7.8598615    756.14104  0.017625665  0.017027429            4 
 3576000   0.67629523   -7.8641596     756.9933  0.017640597  0.017022076            5 
 3577000   0.68524926    -7.874888    756.72183  0.017629341  0.017016729            4 
 3578000   0.68125173   -7.8819111    756.50995  0.017619479  0.017011383            4 
 3579000   0.68486177   -7.8801904    758.38516  0.017658218  0.017006027            5 
 3580000   0.67243531   -7.8609389    757.01787  0.017621459  0.017000689            3 
 3581000   0.68281525   -7.8565302    755.42628    0.0175795   0.01699536            6 
 3582000   0.68148997   -7.8495082    756.66152   0.01760333  0.016990034            4 
 3583000   0.68552897   -7.8597005    758.46499  0.017640362  0.016984719            4 
 3584000   0.67536016   -7.8756014      755.305  0.017561965   0.01697939            3 
 3585000   0.68400068   -7.8703132    755.35185  0.017558156   0.01697405            3 
 3586000   0.67976146   -7.8662131     756.0999  0.017570643  0.016968709            2 
 3587000   0.64469312   -7.8731825     756.0698  0.017565045  0.016963371            3 
 3588000    0.6769603   -7.8683689    757.05878  0.017583119  0.016958048            5 
 3589000   0.65914656   -7.8687373    756.47809  0.017564737  0.016952732            5 
 3590000   0.68638236   -7.8769255    758.06146  0.017596598  0.016947402            3 
 3591000   0.68782979   -7.8697594    756.47966  0.017554991  0.016942078            2 
 3592000   0.66820454   -7.8755593    755.67089   0.01753134  0.016936746            4 
 3593000   0.67402892   -7.8709543    757.42123  0.017567057  0.016931431            2 
 3594000   0.68933483   -7.8644886    756.82808  0.017548416  0.016926126            3 
 3595000   0.66962174   -7.8620116    756.78109  0.017542445  0.016920817            3 
 3596000   0.68152495   -7.8826926    756.69351  0.017535537  0.016915501            2 
 3597000   0.68870759   -7.8744878    756.90353  0.017535528   0.01691018            4 
 3598000   0.66851008   -7.8746915    756.69523   0.01752583  0.016904873            3 
 3599000   0.67592955   -7.8719869    756.25003  0.017510652  0.016899566            4 
 3600000   0.66809075    -7.854413    757.90734  0.017544151  0.016894269            3 
 3601000   0.67542456   -7.8856107     757.3035  0.017525306   0.01688897            9 
 3602000   0.67720562   -7.8663697    756.97983  0.017512952  0.016883664            8 
 3603000   0.68107348   -7.8692547    754.79353  0.017457524  0.016878349            7 
 3604000   0.67816055   -7.8708998     756.9355  0.017502208  0.016873047            4 
 3605000   0.68418667   -7.8896865    755.28984  0.017459312  0.016867733            2 
 3606000   0.67700825   -7.8874698    757.69409  0.017510032  0.016862432            3 
 3607000   0.67335834   -7.8676378    756.85893  0.017485882  0.016857127            5 
 3608000   0.67803849   -7.8952559    757.05034  0.017485457  0.016851816            7 
 3609000    0.6801266   -7.8685081    756.25163  0.017462169  0.016846503            3 
 3610000   0.68275676   -7.8566021    756.51324  0.017463371  0.016841202            4 
 3611000   0.66909207   -7.8974526    758.50328   0.01750446  0.016835909            3 
 3612000   0.65660726   -7.8508437    757.06397  0.017466407  0.016830611            7 
 3613000   0.67678271   -7.8872131    754.81153  0.017409621  0.016825318            4 
 3614000   0.67308754   -7.8729156    757.27802  0.017461677  0.016820028            5 
 3615000   0.66863233   -7.8639145    755.84579  0.017423831  0.016814725            6 
 3616000    0.6852445   -7.8907244    756.02398  0.017423119  0.016809431            3 
 3617000   0.66518563   -7.8987862    754.01999  0.017372131  0.016804137            6 
 3618000   0.68163567   -7.8772455    755.44129  0.017400067  0.016798844            3 
 3619000   0.67348433   -7.8938487    756.03446  0.017408917  0.016793551            4 
 3620000   0.69282412   -7.8646521    755.44133  0.017390454  0.016788268            5 
 3621000   0.67335692   -7.8699839    755.57574  0.017388745  0.016782994            3 
 3622000   0.67442386   -7.8909485    755.29448  0.017377473  0.016777719            3 
 3623000   0.67355676   -7.8899117    757.08248  0.017413803  0.016772444            6 
 3624000   0.66071369   -7.8800023    756.55279  0.017396817  0.016767162            8 
 3625000     0.656927   -7.8967878    758.36864  0.017433762  0.016761876            5 
 3626000   0.66995855   -7.8767722    757.25749  0.017403417  0.016756606            7 
 3627000    0.6661347   -7.8777975    756.70832  0.017386001  0.016751346            4 
 3628000    0.6786983   -7.8647807    757.56239  0.017400827  0.016746091            3 
 3629000   0.67675203   -7.8680748    756.46868  0.017370917  0.016740842            5 
 3630000      0.66649   -7.9032814    755.71127  0.017348744  0.016735583            6 
 3631000   0.67021747   -7.8894851    756.31602  0.017357845  0.016730301            4 
 3632000   0.67986006   -7.8787078    755.91655    0.0173439  0.016725029            4 
 3633000    0.6697795   -7.8893501    756.73232  0.017357838   0.01671975            3 
 3634000   0.68319911   -7.8702509     756.0373  0.017337124  0.016714489            6 
 3635000   0.65934901   -7.8735546    758.14313  0.017380631  0.016709234            5 
 3636000    0.6868621   -7.8732999    756.15483  0.017330281  0.016703978            7 
 3637000   0.65570143   -7.8732466    758.56768  0.017380801  0.016698725            3 
 3638000   0.66798567   -7.8873672    757.43166  0.017350001  0.016693462            4 
 3639000   0.67948374   -7.8683764    755.56559  0.017302501  0.016688202            3 
 3640000   0.66688462   -7.8461222     756.0906  0.017309767  0.016682951            2 
 3641000   0.68245375   -7.9059117    756.16031  0.017306608  0.016677693            4 
 3642000   0.67592524   -7.8931281     756.9072  0.017318946  0.016672432            2 
 3643000   0.68170191   -7.8935921    755.97077  0.017292771  0.016667179            3 
 3644000   0.68387168   -7.8759271    757.91749  0.017332544  0.016661922            4 
 3645000   0.64637953    -7.877256    756.10534  0.017286359  0.016656671            4 
 3646000   0.66669934   -7.8891973    757.37003  0.017310524  0.016651433           10 
 3647000   0.66858253   -7.8844756    755.08602  0.017253588  0.016646178            3 
 3648000   0.65900854   -7.8875493    758.09253  0.017317538  0.016640932           11 
 3649000   0.67712612   -7.8832771    756.02699   0.01726562   0.01663567            8 
 3650000   0.66694851   -7.8847774    757.17427  0.017287084  0.016630409            5 
 3651000   0.65337248   -7.8623465    756.03653   0.01725638  0.016625162            7 
 3652000   0.66658839   -7.8726449     755.8937  0.017248396  0.016619912            2 
 3653000   0.66004881   -7.8707137    759.25957  0.017320457  0.016614679            7 
 3654000   0.66762859    -7.878553    757.30126  0.017271056   0.01660944            8 
 3655000   0.67721449   -7.8742402    757.13005  0.017262427  0.016604212            6 
 3656000   0.66540387   -7.8810099    757.36309  0.017263017   0.01659899            4 
 3657000   0.65787572   -7.8622004    756.72708  0.017243804  0.016593768            5 
 3658000   0.66864555   -7.8959501    756.31923  0.017229798  0.016588534            8 
 3659000    0.6727569   -7.9022711    757.27579  0.017246875  0.016583315            2 
 3660000   0.66833484   -7.8820759    757.51581  0.017247628  0.016578095            4 
 3661000   0.66489495   -7.8724527    758.69304  0.017269713  0.016572867            6 
 3662000   0.65499669   -7.9091411    756.47386  0.017214497  0.016567641            4 
 3663000   0.66145416   -7.9080072    755.42879  0.017186022  0.016562408            5 
 3664000   0.66114815   -7.8880159    755.81372  0.017190086  0.016557169            7 
 3665000   0.66315236   -7.9058362    755.36716  0.017175242  0.016551937            3 
 3666000   0.67986706   -7.9127316    756.06111  0.017186332  0.016546697            4 
 3667000   0.67605814   -7.9095349    756.58397  0.017193527  0.016541463            6 
 3668000   0.67548098   -7.8847942    758.35327  0.017229036  0.016536238            5 
 3669000   0.66355459   -7.8962077    756.31821  0.017178119  0.016531006            4 
 3670000    0.6692073   -7.9141405    755.82069  0.017162141  0.016525762            4 
 3671000   0.67153146   -7.9197154    754.75296  0.017133228  0.016520521            5 
 3672000    0.6639026   -7.8900829    756.07138  0.017158483  0.016515274            4 
 3673000   0.66716643   -7.8969009    756.60028  0.017165811  0.016510045            6 
 3674000   0.66119256   -7.8882096    757.86092  0.017189732  0.016504823            4 
 3675000   0.67711933   -7.9023437    757.96705  0.017187462  0.016499586            9 
 3676000   0.65255732   -7.8997058    756.65773  0.017153104  0.016494366            5 
 3677000   0.65463705   -7.9177806     754.9622  0.017110013  0.016489138            6 
 3678000   0.65786915   -7.9055876    757.10828  0.017153985   0.01648391            3 
 3679000   0.66529915   -7.9101576    756.34839   0.01713211  0.016478685            4 
 3680000   0.66983806   -7.8762687    757.99783  0.017164806  0.016473469           14 
 3681000     0.645755   -7.9005621    758.62262  0.017174287  0.016468252            7 
 3682000   0.68012451   -7.9103504    755.55311  0.017100152  0.016463026            5 
 3683000   0.65385763   -7.8839491    756.45197  0.017115847   0.01645779            3 
 3684000   0.66196633   -7.9051148    755.90114  0.017098741  0.016452566            3 
 3685000   0.65013114   -7.8905352    756.04282  0.017097305  0.016447342            3 
 3686000   0.65267419   -7.9121638    754.17933  0.017050537  0.016442121            8 
 3687000    0.6495275   -7.9104381    757.96627  0.017131504  0.016436879            6 
 3688000    0.6719845   -7.8981455    756.87676  0.017102241  0.016431651            4 
 3689000   0.66317739   -7.9267035    756.07604  0.017079517  0.016426421            4 
 3690000    0.6493859   -7.9409455     754.8792  0.017047859  0.016421191            2 
 3691000   0.65491062   -7.9086242    755.96495  0.017067754   0.01641597            3 
 3692000   0.65433512    -7.901038    757.50836  0.017097968  0.016410746            3 
 3693000   0.66310456   -7.9415354    755.04845  0.017037829  0.016405527           10 
 3694000   0.67064496   -7.9041534    754.75944  0.017026697  0.016400306            4 
 3695000   0.65062398   -7.9333683    754.15869  0.017008541  0.016395076            5 
 3696000   0.65958871    -7.909889    756.75279  0.017062428  0.016389858            5 
 3697000   0.66950179   -7.9105047    757.89802  0.017083627  0.016384638            3 
 3698000    0.6653828   -7.9078216    755.97849  0.017035751  0.016379424            4 
 3699000   0.66162846   -7.9087106    756.91148  0.017052164  0.016374225            5 
 3700000   0.65736749   -7.9174868    755.55889  0.017017092  0.016369018            4 
 3701000   0.66923917   -7.8960671    757.11025  0.017047425  0.016363815            2 
 3702000   0.65480367   -7.9407607     756.4205  0.017027294  0.016358622            3 
 3703000   0.65139092   -7.9263834    756.62316  0.017027256  0.016353431            5 
 3704000   0.65676726   -7.9193415    757.38014   0.01703969  0.016348238            4 
 3705000    0.6534539   -7.9303589      756.294  0.017010661  0.016343057            6 
 3706000   0.64822315   -7.9240686    755.98678  0.016999163  0.016337866            7 
 3707000   0.66063021   -7.9041576    755.89952  0.016992616  0.016332685            8 
 3708000   0.64576984   -7.9235758    755.28846    0.0169743  0.016327508           10 
 3709000   0.65489017   -7.9192538    757.65034   0.01702279  0.016322341            3 
 3710000   0.66030914   -7.9193111    756.48167  0.016991951  0.016317165            7 
 3711000   0.67290486   -7.9156117    756.09198  0.016978622  0.016311991            5 
 3712000   0.66382444   -7.8918348    757.25689    0.0170002  0.016306819            6 
 3713000   0.63505886   -7.8955452    756.19534  0.016971796  0.016301666            5 
 3714000   0.65333442   -7.9170574    756.50544  0.016974184  0.016296513            8 
 3715000   0.66204654   -7.9475453    756.18269  0.016962375  0.016291354            3 
 3716000   0.64801851   -7.9168766    756.54164   0.01696586   0.01628618            5 
 3717000   0.66568744   -7.9075489    756.54923  0.016961466  0.016281018            3 
 3718000   0.64775779   -7.9157982    757.95925  0.016988507  0.016275855            4 
 3719000    0.6653852   -7.9392576    757.06671   0.01696394  0.016270701           10 
 3720000    0.6437868   -7.9398604    757.22976  0.016963032  0.016265546            6 
 3721000   0.65080176   -7.9132977    756.04669  0.016931978  0.016260392            4 
 3722000   0.65934193   -7.9185809    756.47182  0.016936948  0.016255247            6 
 3723000   0.65210481   -7.9168759    758.25048   0.01697221  0.016250106            5 
 3724000   0.64791773   -7.9218236    758.12173  0.016964772  0.016244964            3 
 3725000   0.66468165   -7.9315097    758.90941  0.016977839  0.016239824            5 
 3726000   0.65375662   -7.9222207    756.89144   0.01692815  0.016234698            2 
 3727000    0.6650042   -7.9269331     757.7021  0.016941734  0.016229571            3 
 3728000   0.64882539   -7.9233965    757.22402  0.016926503  0.016224442            5 
 3729000   0.65959424   -7.9151674    757.83821  0.016935689  0.016219319            2 
 3730000   0.66801557   -7.9304992    757.05595  0.016913672  0.016214192            2 
 3731000   0.65260379   -7.9196133    757.19457  0.016912235  0.016209074            3 
 3732000   0.65035038   -7.9157091    758.14115  0.016928839  0.016203948            5 
 3733000   0.65963787   -7.9310759    756.51622  0.016888031  0.016198827            6 
 3734000   0.65319563   -7.9171666    757.56439    0.0169069  0.016193708            5 
 3735000   0.65272091    -7.927042    758.16951  0.016915875  0.016188586            3 
 3736000   0.64948079   -7.9380816    758.69748  0.016923124  0.016183469            3 
 3737000      0.65352     -7.91186    759.15943  0.016928896  0.016178364            4 
 3738000   0.65086455   -7.9223635    758.38106  0.016907015  0.016173261            2 
 3739000   0.65284093   -7.9253473    758.27241  0.016900072  0.016168172            3 
 3740000    0.6801642   -7.9179705    758.83293  0.016908042  0.016163074            3 
 3741000   0.65715021   -7.9243564     757.0208  0.016863156  0.016157967            5 
 3742000      0.63698   -7.9303582    757.15171  0.016861565  0.016152847            4 
 3743000   0.65694746   -7.9326427    757.79402   0.01687136  0.016147742            3 
 3744000   0.65998371   -7.9268641    757.59304  0.016862381  0.016142623            2 
 3745000   0.66297426   -7.9555335    756.40351  0.016831409  0.016137501            4 
 3746000   0.64756301   -7.9357576    756.41932  0.016827267  0.016132371            5 
 3747000   0.65239197   -7.9374425     756.0273  0.016814058  0.016127237            5 
 3748000    0.6465258   -7.9374457    756.75643  0.016825783  0.016122108            3 
 3749000   0.65586124   -7.9513702    757.27723  0.016832872  0.016116988            3 
 3750000   0.64864265    -7.925618    756.41549  0.016809233  0.016111875            4 
 3751000   0.65904358   -7.9375275    756.72255  0.016811574  0.016106753            4 
 3752000   0.63159348   -7.9288808    757.38006  0.016821696  0.016101637            3 
 3753000   0.64853998   -7.9574331    755.93491  0.016785125  0.016096523            6 
 3754000   0.63671012   -7.9386038    756.55471  0.016794413  0.016091406            3 
 3755000   0.67243937   -7.9461889    756.35831  0.016785582  0.016086288            4 
 3756000   0.66455536   -7.9608723    756.92903  0.016793775  0.016081169            3 
 3757000   0.65928869   -7.9349456    757.49574  0.016801875  0.016076059            5 
 3758000   0.65594286   -7.9546393    756.52736   0.01677593  0.016070935            4 
 3759000   0.64087965    -7.947915    757.70615    0.0167976  0.016065815            3 
 3760000   0.64323694   -7.9483276    757.97317  0.016799051  0.016060702            4 
 3761000   0.66589222    -7.937451    754.86618  0.016725742  0.016055583            8 
 3762000   0.65200736   -7.9539686    756.16086  0.016749975  0.016050471            4 
 3763000   0.64071464   -7.9289641    756.75908  0.016758771  0.016045371           10 
 3764000   0.65392637   -7.9378862    758.27802  0.016787948  0.016040271            3 
 3765000   0.66649965   -7.9414236    757.94451  0.016776107  0.016035164            8 
 3766000   0.64604335   -7.9147795    757.36311  0.016758787  0.016030065            7 
 3767000   0.64137724   -7.9376291    757.65764  0.016760854  0.016024955            9 
 3768000   0.65770524      -7.9451    755.62195  0.016711384  0.016019846            5 
 3769000   0.66177986   -7.9464605    756.77416  0.016732426  0.016014739            5 
 3770000   0.65078051   -7.9350982    757.71255   0.01674873  0.016009636            5 
 3771000   0.66206363   -7.9380574    755.36813   0.01669248  0.016004537            4 
 3772000   0.65463069   -7.9324046    757.11606  0.016726671  0.015999443            4 
 3773000   0.64419478   -7.8950514    757.14576  0.016722894  0.015994345            4 
 3774000   0.64157054   -7.9364344    755.76282  0.016687927  0.015989261            3 
 3775000   0.65308467   -7.9401601    757.19161  0.016715047  0.015984161            3 
 3776000   0.65976852   -7.9562248    754.78139  0.016657428  0.015979055            4 
 3777000   0.64274133   -7.9351504    756.09063  0.016681904  0.015973946            2 
 3778000   0.65407499   -7.9539081    757.46886  0.016707889  0.015968844            4 
 3779000   0.64784292   -7.9471605    756.07581  0.016672749  0.015963735            2 
 3780000   0.66167715   -7.9550985    756.44893  0.016676564  0.015958629            5 
 3781000   0.66133196      -7.9455    756.29531  0.016668767  0.015953529            4 
 3782000   0.66893912   -7.9436234    756.49814  0.016668829   0.01594843            3 
 3783000   0.65325825   -7.9549082    756.74286  0.016669814  0.015943345            7 
 3784000   0.65202566   -7.9616071    755.20849  0.016631617  0.015938243            3 
 3785000   0.64877123   -7.9506566    755.96613  0.016643904  0.015933148            2 
 3786000   0.65323195   -7.9412775    755.51869   0.01662966  0.015928055           11 
 3787000   0.63804444   -7.9502769     755.8349  0.016632226  0.015922948            5 
 3788000   0.63435369   -7.9558491    756.70074  0.016646884  0.015917854            3 
 3789000   0.63139601    -7.960877    756.45378  0.016637059  0.015912752            2 
 3790000   0.66030911   -7.9563341    756.80944  0.016640489  0.015907654            4 
 3791000   0.63247866     -7.96696    756.43516  0.016627872  0.015902566            5 
 3792000   0.64849984   -7.9537088    756.39153  0.016622528   0.01589748            3 
 3793000   0.64831714   -7.9664441     757.6562  0.016645931  0.015892386            7 
 3794000   0.64309108   -7.9540994    757.36385  0.016635122  0.015887292           10 
 3795000   0.63246682   -7.9437976    755.63995  0.016592884    0.0158822            4 
 3796000   0.65391067   -7.9516622    757.55468  0.016630547  0.015877121            9 
 3797000    0.6647054   -7.9628895    755.81507  0.016587988  0.015872037            9 
 3798000   0.63124593   -7.9620065    756.60071  0.016600858  0.015866953            4 
 3799000   0.64198487   -7.9478395    756.59988   0.01659647  0.015861879            3 
 3800000    0.6428883   -7.9438642    756.54264  0.016590847  0.015856802            3 
 3801000   0.64903797    -7.984583    756.32131   0.01658163  0.015851725            5 
 3802000   0.63827438   -7.9699291    757.09684  0.016594267  0.015846661            4 
 3803000   0.64609784   -7.9473343    754.95279  0.016542922  0.015841606            7 
 3804000    0.6349273   -7.9646477    757.06722  0.016584894  0.015836544            6 
 3805000   0.64444941   -7.9650285     755.8126  0.016553057  0.015831463            4 
 3806000   0.63428673   -7.9627101    756.67374  0.016567563  0.015826391            6 
 3807000   0.65207997   -7.9701266    756.78706  0.016565692  0.015821329            7 
 3808000   0.62713883   -7.9459749    755.69905  0.016537532  0.015816265            4 
 3809000   0.64128652   -7.9478261    756.39001  0.016548307  0.015811202            4 
 3810000   0.63208596   -7.9386048    756.42166  0.016544656  0.015806152            3 
 3811000   0.63814223   -7.9364569    757.24694   0.01655836  0.015801113            4 
 3812000   0.64385495   -7.9447924    756.38756   0.01653523   0.01579607            2 
 3813000   0.64146216   -7.9563596    755.95695  0.016521482  0.015791008            2 
 3814000   0.63916725   -7.9630223     755.7773  0.016513225  0.015785957            6 
 3815000    0.6397669   -7.9374411    755.78793  0.016509129  0.015780908            2 
 3816000   0.64978744   -7.9594812    755.68225  0.016502495  0.015775854            5 
 3817000   0.63428045   -7.9636685    756.20402  0.016509563  0.015770801            2 
 3818000   0.64767502   -7.9677216    756.87985   0.01651999  0.015765753            2 
 3819000   0.63465616   -7.9626081    756.06078  0.016497791  0.015760703            5 
 3820000   0.65542472    -7.957698    755.99591  0.016492057  0.015755664            2 
 3821000   0.64040113   -7.9550582    756.81295   0.01650556  0.015750621            2 
 3822000   0.61804429     -7.96412    755.74465  0.016477949  0.015745568            4 
 3823000   0.62987061   -7.9725782    755.77951  0.016474399  0.015740518            3 
 3824000   0.64388119   -7.9702627    757.05895  0.016497972  0.015735471            4 
 3825000   0.65192804   -7.9788992    755.83947  0.016467091  0.015730432            9 
 3826000   0.64009945   -7.9368558     755.4635  0.016454598  0.015725381            6 
 3827000   0.64641029   -7.9472481    755.60924  0.016453472  0.015720343            4 
 3828000   0.64429796   -7.9598602    756.93188  0.016477967  0.015715304            6 
 3829000   0.63935538   -7.9704794    755.88201  0.016450814  0.015710265            5 
 3830000   0.65185974   -7.9761164    756.60027  0.016462147   0.01570522            8 
 3831000   0.64520454   -7.9574465    756.01407  0.016445099  0.015700179            4 
 3832000   0.63036454   -7.9754977    755.82481  0.016436691  0.015695139            6 
 3833000   0.62220126   -7.9824387    756.37166  0.016444292  0.015690099            6 
 3834000   0.63303054   -7.9886062    755.11819  0.016412758  0.015685057            9 
 3835000   0.63033257   -7.9748756    755.60457  0.016419048  0.015680015            6 
 3836000   0.63867822   -7.9692064    756.06263  0.016424718  0.015674974           10 
 3837000   0.63822093   -7.9826786    756.28973   0.01642537  0.015669943            3 
 3838000   0.63986673   -7.9654469    754.76574     0.016388  0.015664908            4 
 3839000   0.64070661   -7.9976191    754.93709  0.016387451  0.015659869            7 
 3840000   0.63614032   -7.9672404    756.37885  0.016414472  0.015654839            4 
 3841000   0.63857633   -7.9727611    755.84252  0.016398562  0.015649813            6 
 3842000   0.65215147    -7.965289    755.36309  0.016383895  0.015644798            4 
 3843000    0.6344101    -7.981857    755.08191  0.016373534   0.01563977           10 
 3844000   0.64534464   -7.9621603    755.87883  0.016386551  0.015634746            6 
 3845000   0.64743659   -7.9818469    755.87048  0.016382108  0.015629719            8 
 3846000   0.63968526   -7.9602938    755.42713  0.016368242  0.015624701            5 
 3847000   0.65096904   -7.9579292    756.19019  0.016380517  0.015619682            4 
 3848000   0.62831814   -7.9726564    755.81372  0.016368107  0.015614664            4 
 3849000   0.63772425   -7.9704677    755.89012  0.016365509  0.015609646            6 
 3850000   0.65386429    -7.989034    756.35444  0.016371308  0.015604625            6 
 3851000   0.63783114    -7.972985    755.90761  0.016357388  0.015599607            3 
 3852000   0.65580045    -7.985223    754.73052  0.016327677  0.015594587            3 
 3853000   0.62983237   -7.9741709    755.23241  0.016334294  0.015589572            8 
 3854000   0.62308395   -7.9784763    756.78258  0.016363574  0.015584558           10 
 3855000    0.6366997   -7.9612608    756.55661  0.016354445   0.01557955            4 
 3856000   0.64148264   -7.9855766    755.56778  0.016328833  0.015574549            4 
 3857000      0.63841   -7.9756902    754.89866  0.016310143  0.015569534            4 
 3858000   0.62233363   -7.9970525    756.50783  0.016340674  0.015564516            7 
 3859000   0.64260643   -7.9967628    754.70168  0.016297436  0.015559502            7 
 3860000   0.63132419   -7.9672942     757.0915  0.016344808  0.015554499            6 
 3861000   0.63846374   -7.9686914     755.5551  0.016307414    0.0155495            9 
 3862000   0.63422469   -7.9708837    756.10983  0.016315161  0.015544498           12 
 3863000   0.64633846   -7.9780337    755.41701  0.016295992  0.015539492            6 
 3864000   0.62363167   -7.9720521    754.21928  0.016265944  0.015534482            5 
 3865000   0.63440006   -7.9723622    754.66522   0.01627135  0.015529465            8 
 3866000   0.63703946   -7.9713307    755.15599   0.01627772  0.015524454            7 
 3867000   0.63363967   -7.9766153    755.93633  0.016290327  0.015519451            6 
 3868000   0.63168839   -7.9618875    755.80682  0.016283325  0.015514442            4 
 3869000   0.64503701   -7.9967887     756.1523  0.016286558  0.015509434            4 
 3870000   0.64602821   -7.9800668    755.81806  0.016275152  0.015504433            5 
 3871000    0.6391147    -7.997741    753.77504  0.016226966  0.015499415            2 
 3872000   0.63738821   -7.9868651    754.86497  0.016246233  0.015494404            3 
 3873000   0.61904782   -7.9980503    754.66224  0.016237676  0.015489392            3 
 3874000   0.63289005    -7.998727    754.88593  0.016238297  0.015484385            3 
 3875000   0.64062657   -7.9697998    755.83909  0.016254604  0.015479392            7 
 3876000    0.6448363   -7.9929821    755.94917  0.016252777    0.0154744            4 
 3877000   0.63517885    -7.992025     754.6141  0.016219889  0.015469406            9 
 3878000   0.63498543   -7.9776957    755.86755  0.016242641  0.015464411            7 
 3879000   0.61303143   -7.9746618    755.45573  0.016229607  0.015459423            3 
 3880000   0.63359887   -7.9961906    755.52501  0.016226912   0.01545443           11 
 3881000   0.63477054   -7.9712342    756.00025  0.016232935  0.015449458            3 
 3882000   0.63073131   -7.9776377    754.69431  0.016200719   0.01544447            6 
 3883000    0.6349692   -7.9859642    755.22678  0.016207975  0.015439494            7 
 3884000   0.62238068   -7.9842378    755.88071  0.016217832  0.015434516            6 
 3885000   0.63031265   -7.9900372    754.85734  0.016191706  0.015429537            5 
 3886000   0.63840494   -7.9754562    756.49335  0.016222623  0.015424565            3 
 3887000   0.64113772   -7.9996574    755.65702  0.016200519  0.015419594            4 
 3888000   0.63064036   -7.9952074    754.51041  0.016171777  0.015414611            4 
 3889000   0.61849184   -7.9976695    754.85588  0.016175021  0.015409623            5 
 3890000   0.62608362   -7.9751273    755.80172  0.016191125  0.015404644            6 
 3891000    0.6200358   -7.9861723    755.06823  0.016171255  0.015399669            8 
 3892000   0.62697881   -7.9728572    756.69384  0.016201907  0.015394693            6 
 3893000   0.62324503   -8.0035921    755.23047   0.01616642  0.015389726            4 
 3894000   0.62698109   -7.9593348    755.31039  0.016163979  0.015384754            8 
 3895000   0.62894016   -7.9830961    754.67002  0.016146128   0.01537978            6 
 3896000   0.62354948   -7.9739824    755.44784  0.016158621  0.015374794            8 
 3897000    0.6219008   -7.9813972    755.27347  0.016150746  0.015369819            6 
 3898000   0.61926795   -7.9954379    756.80249  0.016179291   0.01536485            4 
 3899000   0.63535494   -8.0046042    755.35789  0.016144265   0.01535988            4 
 3900000   0.62781743   -7.9842495    757.62157  0.016188495  0.015354925            3 
 3901000    0.6279328   -7.9718232      756.732  0.016165342  0.015349965            5 
 3902000   0.62104928    -7.955547    757.09567  0.016168966  0.015345004            3 
 3903000   0.62353698   -7.9852291    754.46131  0.016108577  0.015340043            7 
 3904000   0.62775551   -7.9962533    755.21933  0.016120631   0.01533508            4 
 3905000   0.63019475   -7.9655808    754.36808  0.016098337   0.01533012            5 
 3906000   0.63183914   -7.9884771    753.80303   0.01608216  0.015325156            6 
 3907000   0.63117738   -8.0039343    754.97187  0.016102975  0.015320192            6 
 3908000   0.63428017   -7.9965578    754.37799  0.016086191  0.015315233            5 
 3909000   0.62755412   -7.9938589    754.23572  0.016079042  0.015310273            6 
 3910000   0.62212883    -7.988684    754.53287  0.016081263  0.015305312            7 
 3911000   0.62970899   -7.9688521    754.13561  0.016068687  0.015300352            4 
 3912000   0.63237424   -8.0171003    753.26628  0.016046061  0.015295391            7 
 3913000   0.62737067   -8.0019416    754.67779   0.01607202  0.015290437            4 
 3914000   0.62391012    -7.975098    754.46952   0.01606348  0.015285492            3 
 3915000     0.632657   -7.9914483     755.3825   0.01607881   0.01528055            5 
 3916000   0.62040762   -7.9937982    754.18801  0.016049285  0.015275607            3 
 3917000   0.62140153   -7.9995193    755.21366  0.016067008  0.015270661            5 
 3918000   0.62690953   -8.0022419    754.63014  0.016050496  0.015265727            4 
 3919000   0.62485471   -8.0024131    754.62201  0.016046228  0.015260786            4 
 3920000   0.63410659   -7.9888335    755.10777  0.016052461  0.015255858            9 
 3921000   0.62292341   -8.0145342    755.36074  0.016053743  0.015250922            6 
 3922000   0.61373973   -8.0076935    755.04233  0.016042885  0.015245973            5 
 3923000   0.62162874   -7.9895586    753.82292  0.016012892  0.015241033            4 
 3924000   0.61794538   -7.9863142    754.33965  0.016019785  0.015236098            5 
 3925000   0.62100877   -8.0000155    754.64972  0.016022287   0.01523116            4 
 3926000    0.6349203   -7.9866104    754.52282  0.016015512  0.015226227            3 
 3927000   0.62382245    -7.998848    754.56148  0.016012254  0.015221288            5 
 3928000   0.63064406    -7.989778    755.36027  0.016025124  0.015216349            4 
 3929000    0.6262059   -7.9922585    754.49119  0.016002613  0.015211415            3 
 3930000   0.61741214   -7.9858561    753.84481  0.015984835  0.015206484            8 
 3931000   0.62269672     -8.00688    755.03649  0.016006031  0.015201547            6 
 3932000   0.62833714    -8.023657     755.2005  0.016005436  0.015196605           12 
 3933000   0.62682802   -8.0273528    754.48132  0.015986128   0.01519167            7 
 3934000   0.62927865   -7.9988485    752.77573  0.015945936  0.015186739            6 
 3935000    0.6115026    -7.978532    755.18772  0.015992963  0.015181804            6 
 3936000   0.62726047   -8.0189248    754.08559  0.015965566   0.01517687            5 
 3937000   0.61750357   -7.9870873     755.6564  0.015994759  0.015171946            6 
 3938000    0.6240789   -8.0198065    755.27319  0.015982588  0.015167022            3 
 3939000   0.62500837   -8.0091677    755.16703  0.015976285  0.015162094           10 
 3940000   0.63944446   -7.9937644     754.9046  0.015966679  0.015157162            8 
 3941000   0.62199636   -8.0143326    755.27925   0.01597055  0.015152231            5 
 3942000   0.62135471   -7.9715795    754.30867  0.015945981  0.015147308            3 
 3943000    0.6282651   -8.0318064    754.38436  0.015943536  0.015142384            3 
 3944000   0.62017449   -8.0165768    754.23142  0.015936262  0.015137462            6 
 3945000   0.63428215   -7.9984353    752.89471  0.015903986  0.015132532            7 
 3946000   0.61926803   -7.9928318    754.46056  0.015933024  0.015127614            4 
 3947000    0.6200849   -8.0192763    754.83932  0.015936984  0.015122696            3 
 3948000    0.6162083   -8.0267952    753.64973  0.015907838  0.015117769            5 
 3949000   0.61793421   -8.0043737    753.60225  0.015902808  0.015112853            6 
 3950000   0.60992579   -8.0151894    752.58714  0.015877366  0.015107932            8 
 3951000   0.60940082   -8.0139805    754.78881  0.015919784  0.015103006            2 
 3952000    0.6228622   -8.0159157    755.12519  0.015922849  0.015098085            3 
 3953000   0.61811248   -8.0239117    754.24297  0.015900223  0.015093161            6 
 3954000   0.61942078   -8.0346155    754.53215  0.015902296  0.015088236            5 
 3955000   0.61804535   -8.0076191     755.3618  0.015915756   0.01508332            4 
 3956000   0.63427483   -8.0042264    754.12689   0.01588572  0.015078409            6 
 3957000   0.61239458   -8.0286937     754.9036  0.015898063  0.015073498            6 
 3958000   0.62639559   -8.0061064     753.8566  0.015872002  0.015068596            4 
 3959000    0.6287792   -8.0118341    752.86201  0.015847057  0.015063691            3 
 3960000   0.60593081    -7.997896     754.0632  0.015868333  0.015058792            4 
 3961000   0.62412946   -8.0117478    754.47713  0.015873036  0.015053887            5 
 3962000   0.62257304   -8.0252242    753.54928  0.015849514  0.015048988            5 
 3963000   0.62209893   -8.0278571    753.61508  0.015846898  0.015044088            3 
 3964000   0.63419091   -8.0049963    753.58756  0.015842322  0.015039184           11 
 3965000   0.60848237   -8.0046171    754.74324  0.015862615  0.015034286            7 
 3966000   0.61360633   -8.0234282    753.89184  0.015840726  0.015029389            6 
 3967000   0.62387284   -8.0036141    754.35649  0.015846494  0.015024495            3 
 3968000   0.63246971   -8.0451481    753.64812  0.015827624    0.0150196            3 
 3969000   0.60577501   -8.0341816    752.85458  0.015806974  0.015014707            3 
 3970000   0.63176608   -8.0073497    755.15415  0.015851263  0.015009815            6 
 3971000   0.62014008   -8.0232652    753.89318  0.015820809  0.015004933            6 
 3972000    0.6201989   -8.0196013    754.88099   0.01583755  0.015000063            5 
 3973000   0.61327614   -8.0281678    753.14414  0.015797134  0.014995188            9 
 3974000   0.61191433   -8.0046375    754.28761  0.015817137  0.014990309            4 
 3975000   0.60792304   -8.0102663    755.33155  0.015835043   0.01498543            4 
 3976000   0.62046241   -8.0263291    753.75826  0.015798086  0.014980556            3 
 3977000   0.61695129   -8.0162919    754.63293  0.015812441  0.014975684            4 
 3978000   0.61385107   -8.0098788     755.8205  0.015833344  0.014970819            4 
 3979000   0.61904085   -7.9875867    754.21975   0.01579584  0.014965966            3 
 3980000   0.61294015   -8.0152597    754.53882  0.015798551  0.014961108           11 
 3981000   0.61486054   -8.0226888    755.41207  0.015812863  0.014956253            9 
 3982000   0.60594538    -8.026011    754.11815  0.015781813  0.014951398           11 
 3983000   0.61982025   -8.0247015    755.44639   0.01580564  0.014946545            5 
 3984000   0.61041319   -8.0325356    753.28202  0.015756401  0.014941689            6 
 3985000     0.624892   -8.0260661    755.87018   0.01580657  0.014936836            7 
 3986000   0.60247612   -8.0525135    754.72969  0.015778761  0.014931981            5 
 3987000   0.61427866    -8.039026    754.77171  0.015775682   0.01492713            4 
 3988000   0.60458772   -8.0404392     753.1263  0.015737343  0.014922276            4 
 3989000   0.61795793   -8.0178623    755.01767   0.01577291  0.014917427            6 
 3990000   0.62666455   -8.0468143    755.08836  0.015770434  0.014912573           11 
 3991000   0.61636868   -8.0206581    754.44046  0.015752954  0.014907719            4 
 3992000   0.60868781   -8.0077336    753.31939  0.015725605   0.01490287            7 
 3993000   0.60507115   -8.0294791    754.15813  0.015739171  0.014898026            6 
 3994000   0.62054872   -8.0018013    754.33384  0.015738897  0.014893179            4 
 3995000   0.61512898   -8.0415874    754.55903  0.015739654  0.014888334            5 
 3996000    0.6204853   -8.0242902    753.88203  0.015721597  0.014883494            7 
 3997000      0.62148   -8.0223297    752.77889  0.015694664  0.014878652            9 
 3998000   0.60321231   -8.0334528    753.38236  0.015703317  0.014873816            5 
 3999000   0.60944114   -8.0234651    755.50785  0.015743683   0.01486898            7 
 4000000   0.60203251   -8.0343279    754.47882  0.015718309  0.014864148            4 
 4001000   0.60106054   -8.0310103     754.8424  0.015721953   0.01485931            5 
 4002000    0.6096703   -8.0253769    753.84904   0.01569734   0.01485447            7 
 4003000   0.61539067   -8.0419863     754.1681   0.01570006  0.014849638            3 
 4004000   0.60791132   -8.0335226    753.51711  0.015682591  0.014844815            5 
 4005000   0.61432111   -8.0235678    752.71884  0.015662065      0.01484            3 
 4006000   0.60787536   -8.0326454    753.68851  0.015678326  0.014835171            4 
 4007000   0.60365838   -8.0536936     754.3522  0.015688216  0.014830354            5 
 4008000   0.61036544   -8.0372904    753.49947  0.015666572  0.014825539            5 
 4009000   0.61819249   -8.0421341    754.40947   0.01568158  0.014820723            4 
 4010000   0.60511986   -8.0469254     754.3805  0.015677068  0.014815903            3 
 4011000   0.61076629   -8.0217486    754.86667   0.01568326  0.014811092            8 
 4012000   0.61377873   -8.0492798    754.04048   0.01566219  0.014806278            9 
 4013000   0.60373179   -8.0348871     753.6272  0.015649705  0.014801465            6 
 4014000     0.614566   -8.0280216    754.25757  0.015658893  0.014796657           14 
 4015000   0.61767015   -8.0017666     753.9092  0.015647762  0.014791848            7 
 4016000   0.60877108    -8.027792      754.197  0.015649838  0.014787037            3 
 4017000   0.60855052   -8.0318721    754.84039  0.015659289  0.014782223            7 
 4018000   0.60184009   -8.0077413    753.03993  0.015618051  0.014777411            4 
 4019000   0.60760776   -8.0215697    752.82359  0.015609679  0.014772603            8 
 4020000   0.61692761   -8.0428074    754.51415   0.01564084  0.014767804            6 
 4021000   0.60778154   -8.0343457    754.38865   0.01563435  0.014762998           11 
 4022000   0.59957825   -8.0382922    754.01493  0.015622719  0.014758189            8 
 4023000   0.61322493   -8.0354825    754.26339  0.015623983  0.014753385            6 
 4024000   0.61587754   -8.0299197    754.25207  0.015619866  0.014748588            6 
 4025000   0.62255975   -8.0238705    754.18193  0.015614533  0.014743788            4 
 4026000   0.61923935   -8.0268312    755.00443  0.015627679  0.014738995            8 
 4027000   0.60393807   -8.0515865    754.69548  0.015617405  0.014734198            7 
 4028000   0.61332037    -8.052202    752.39779  0.015565992  0.014729395            4 
 4029000   0.60218497   -8.0434426    753.66794    0.0155884  0.014724602            8 
 4030000   0.60213948   -8.0506288    752.75054  0.015565561  0.014719807            4 
 4031000    0.5999335   -8.0270725    752.86767  0.015564121   0.01471501            7 
 4032000   0.61209207   -8.0376673    753.25698  0.015568307   0.01471022            4 
 4033000   0.60606238   -8.0369748    754.35926  0.015587223  0.014705424            3 
 4034000   0.60715212   -8.0505515    752.63422  0.015547724  0.014700634            3 
 4035000   0.59534117   -8.0486043    752.55079  0.015542148  0.014695835            7 
 4036000   0.61072536   -8.0359209     754.2946  0.015574302  0.014691047            5 
 4037000   0.60264862   -8.0255293    754.20533  0.015568602   0.01468626            3 
 4038000    0.5983888   -8.0431276    753.69488  0.015554212  0.014681481            3 
 4039000   0.61375971   -8.0419114    753.92617  0.015555133  0.014676703            6 
 4040000   0.59512607   -8.0235492    754.00235  0.015552854  0.014671909           11 
 4041000   0.61031565   -8.0379471    753.45597  0.015537737  0.014667119            6 
 4042000   0.60948942    -8.038738    753.79369  0.015540856  0.014662333            3 
 4043000   0.61494507   -8.0580028    753.34081  0.015527678   0.01465755            8 
 4044000   0.59310934   -8.0746732     752.1904  0.015500132  0.014652771            7 
 4045000   0.58969086   -8.0534546    753.49569  0.015523191  0.014647982            4 
 4046000     0.594698   -8.0513126     754.0564  0.015530903  0.014643204            7 
 4047000   0.61024445   -8.0467859     753.6636  0.015518977  0.014638423            3 
 4048000   0.60735842   -8.0401172    754.11747  0.015524487  0.014633639            5 
 4049000   0.60606387    -8.056698    753.37488  0.015505369  0.014628861            4 
 4050000   0.59439552   -8.0505906    753.77332  0.015509739  0.014624079            3 
 4051000   0.60653189   -8.0690102    752.94137  0.015488796    0.0146193            2 
 4052000   0.59923878   -8.0544397    752.79532   0.01548197  0.014614519            4 
 4053000    0.5981661    -8.066258    753.09045  0.015484218  0.014609742            7 
 4054000   0.59858864   -8.0549287    753.74576  0.015493869  0.014604969            4 
 4055000   0.60592496   -8.0507531    753.06795  0.015476119   0.01460019            4 
 4056000   0.58532948   -8.0570387    752.95796  0.015470044  0.014595423            4 
 4057000   0.59944159   -8.0455613    753.59276   0.01547927   0.01459065            4 
 4058000   0.59590477   -8.0765818    753.26112  0.015468645  0.014585887            8 
 4059000   0.58504361    -8.049762    753.71378  0.015474127   0.01458112            5 
 4060000   0.59740267   -8.0740927    751.99621  0.015435062  0.014576353            7 
 4061000   0.60101568   -8.0529207    753.00512  0.015451964  0.014571584            4 
 4062000   0.60444146   -8.0584162     753.0401  0.015448878  0.014566815            7 
 4063000   0.60855995   -8.0500149    753.59283  0.015456412  0.014562049            4 
 4064000   0.60340579    -8.065158    753.69065  0.015454615  0.014557298            3 
 4065000    0.6014469    -8.067011    752.99034  0.015436456  0.014552544            4 
 4066000   0.61772292   -8.0560731    753.32023  0.015439421  0.014547798            7 
 4067000   0.60552335   -8.0259682    752.00882  0.015408754  0.014543048            4 
 4068000   0.60141661   -8.0498726    753.33561  0.015432145  0.014538307            4 
 4069000   0.59486747   -8.0546419    754.29083  0.015447916   0.01453357            3 
 4070000   0.60737902    -8.043045    753.08201   0.01541937  0.014528833            4 
 4071000   0.59726851    -8.060224    752.49997  0.015403668  0.014524088            3 
 4072000   0.60150291   -8.0389997    753.35962  0.015417477  0.014519353            5 
 4073000   0.60614882    -8.047394    753.46323  0.015415812  0.014514618            8 
 4074000   0.61671385   -8.0418045    753.76334  0.015418167  0.014509886            9 
 4075000   0.60779114   -8.0522417    753.72539  0.015413607  0.014505155            4 
 4076000   0.58548774   -8.0705483    753.57895  0.015406832   0.01450043            6 
 4077000   0.59003259   -8.0522669    754.82805  0.015428584  0.014495702            3 
 4078000   0.60778172   -8.0656399    752.23281  0.015371767  0.014490978            8 
 4079000   0.59712669   -8.0447481     754.4543  0.015413384  0.014486257            7 
 4080000   0.60193776   -8.0490115    753.04206  0.015380761  0.014481531            4 
 4081000   0.61834184   -8.0291454    754.37687  0.015404249   0.01447681            6 
 4082000     0.601148   -8.0598997    752.73563  0.015366969  0.014472087            5 
 4083000   0.59156129   -8.0671423    753.75342  0.015383979  0.014467366            6 
 4084000   0.60541277    -8.043515    753.50891  0.015375223  0.014462647            4 
 4085000   0.59795172   -8.0634057    752.99127  0.015360899  0.014457929            4 
 4086000   0.60640895   -8.0369593    753.69562  0.015371505  0.014453218            5 
 4087000   0.59520088   -8.0564704    753.12385  0.015356085    0.0144485            4 
 4088000    0.6052958    -8.044898    752.12092  0.015331884  0.014443792            6 
 4089000   0.60458053    -8.061577    752.45665  0.015334977  0.014439077            8 
 4090000   0.60437776   -8.0543015    754.79872  0.015378947  0.014434371            4 
 4091000   0.58918058   -8.0685711    754.00043  0.015358927  0.014429667            5 
 4092000   0.59528603   -8.0616286    753.05068  0.015335832  0.014424952            6 
 4093000   0.59175331   -8.0724346    753.35706  0.015338323  0.014420239            4 
 4094000   0.59387511   -8.0558838    752.18083  0.015310634  0.014415532            5 
 4095000   0.58669046   -8.0674706    753.09991  0.015325599  0.014410823            5 
 4096000   0.59415119   -8.0765264    753.36278  0.015327205  0.014406106            4 
 4097000   0.58655584   -8.0685124    752.90825  0.015314219  0.014401399            7 
 4098000   0.60581587   -8.0716921    753.13395  0.015315071  0.014396697            4 
 4099000   0.60081371   -8.0542124    752.29667  0.015294313  0.014391996            3 
 4100000   0.60136681   -8.0771065    752.33482  0.015291358  0.014387287            6 
 4101000   0.59185402   -8.0851227    752.65829  0.015294203  0.014382587            5 
 4102000   0.58674417   -8.0583093    752.48647  0.015286983   0.01437789            8 
 4103000   0.58082964   -8.0639907    752.28041  0.015279072  0.014373194            6 
 4104000   0.58871063   -8.0699049    754.09604  0.015312217  0.014368494            5 
 4105000   0.60888512   -8.0617683    753.31775  0.015292687  0.014363804            3 
 4106000   0.59567277   -8.0897358    752.98934  0.015282297  0.014359119            4 
 4107000   0.60000476   -8.0670133    753.07855  0.015280386   0.01435443            7 
 4108000   0.58634093   -8.0587548    754.36576  0.015302778   0.01434974            6 
 4109000   0.59967338   -8.0601759    754.23862  0.015296476   0.01434506            7 
 4110000   0.59492097   -8.0747292    752.67993   0.01526115  0.014340373            4 
 4111000   0.60090407   -8.0638961    752.71448  0.015258138  0.014335684            8 
 4112000   0.59213751   -8.0685092    752.43801  0.015248825  0.014330995            2 
 4113000   0.59278359   -8.0786177    752.68124  0.015250045  0.014326307            4 
 4114000   0.58865059   -8.0649152    752.03352  0.015233218  0.014321618            5 
 4115000   0.58822331   -8.0657283    753.40092  0.015257208  0.014316927            9 
 4116000   0.59213545    -8.080035    753.47701  0.015255042  0.014312239            6 
 4117000   0.59359928   -8.0963707    752.71235  0.015235858   0.01430755            4 
 4118000   0.58770468   -8.0799516    753.08096  0.015239618  0.014302868            5 
 4119000   0.59126163   -8.0795374    750.61278  0.015185983  0.014298178            6 
 4120000   0.58553779   -8.1105326    752.01547  0.015210669  0.014293488            5 
 4121000   0.57875855   -8.0599721    752.89162  0.015224695  0.014288804            3 
 4122000   0.59744332   -8.0881477    752.13073  0.015205619  0.014284129            4 
 4123000   0.58506466   -8.0693835     753.5786  0.015231195  0.014279452            3 
 4124000   0.59349455   -8.0789825    752.76158  0.015210992  0.014274773            4 
 4125000    0.5913374   -8.0871106    752.55778  0.015203188   0.01427009            5 
 4126000    0.5977678   -8.0880328     752.6902  0.015202177  0.014265421           11 
 4127000   0.59090555   -8.0466157    752.87348  0.015202195  0.014260752            3 
 4128000   0.59201595   -8.0570769    753.71768  0.015215554  0.014256085            5 
 4129000   0.59736987   -8.0773713    752.80542  0.015193457  0.014251413            4 
 4130000   0.59742778   -8.0761602    750.76521  0.015148612  0.014246739           11 
 4131000    0.5891612   -8.0664719    753.06657   0.01519137  0.014242072            4 
 4132000   0.58747907   -8.0855707    752.80024  0.015182322  0.014237409            6 
 4133000   0.59115803   -8.0851727    752.10225  0.015164575  0.014232748            6 
 4134000   0.61075481   -8.0707228    751.22384  0.015143199  0.014228091            3 
 4135000    0.5866524   -8.1058434    751.23501  0.015139762  0.014223427            2 
 4136000   0.57382473   -8.0773886    752.90349  0.015169719  0.014218769            5 
 4137000   0.58051837   -8.0852245    752.18596  0.015151599  0.014214114            6 
 4138000   0.58730952   -8.0829612    752.26813  0.015149592   0.01420946            5 
 4139000   0.59150979   -8.0627314    751.98806  0.015140293  0.014204811            9 
 4140000   0.59960644   -8.0624596    751.73752  0.015131592   0.01420016            5 
 4141000   0.58949352    -8.095012    751.58588  0.015124887  0.014195506            8 
 4142000    0.5945949   -8.0801876     752.5488  0.015140608   0.01419086            6 
 4143000   0.59314426   -8.0830921    752.02378  0.015126394  0.014186209            8 
 4144000   0.57868845   -8.0783288    752.78096   0.01513797  0.014181563            7 
 4145000   0.58819533   -8.0804883    753.01373  0.015138997  0.014176916            9 
 4146000   0.58990775   -8.0864095    752.73278  0.015129699  0.014172277            9 
 4147000   0.59620216   -8.0877552    750.90602  0.015089342  0.014167631            6 
 4148000   0.58586012   -8.0718199    752.70162  0.015121778  0.014162989            7 
 4149000   0.59588649   -8.0929636     751.2031  0.015088035  0.014158351           13 
 4150000    0.5752402   -8.1125035    752.90618  0.015118598  0.014153701            7 
 4151000   0.59762137   -8.1004949    751.12972  0.015079292  0.014149062            7 
 4152000   0.59144764    -8.096664    752.44016  0.015101962  0.014144427            8 
 4153000    0.5885379   -8.1077911     751.9334  0.015088157  0.014139788            5 
 4154000   0.59707595    -8.075847    751.63632  0.015078565  0.014135151            4 
 4155000   0.58265506   -8.0800336    752.17652  0.015085771  0.014130519            5 
 4156000   0.59291163   -8.0981825    751.50233  0.015068622  0.014125889            4 
 4157000   0.56723827   -8.0939806    752.44802  0.015083955  0.014121249           10 
 4158000   0.59647781   -8.1001782    751.03874  0.015052083  0.014116621            7 
 4159000   0.59782925   -8.0904644    751.83062  0.015064331  0.014111998            7 
 4160000   0.59002287   -8.0864052    752.25573  0.015069225  0.014107365            8 
 4161000   0.59275132    -8.102374    751.02246  0.015040905  0.014102741            6 
 4162000   0.56733471   -8.0839599    753.23417  0.015081575  0.014098114           10 
 4163000   0.59245907   -8.0708848    751.85344  0.015050313    0.0140935            6 
 4164000   0.57301531   -8.0798648    752.18008  0.015053236  0.014088885           10 
 4165000   0.57990274   -8.0998422    752.37165  0.015053454  0.014084265            9 
 4166000   0.58371092   -8.1104061    751.92768   0.01504096  0.014079655            9 
 4167000   0.59141504   -8.0996742    752.79344  0.015054664  0.014075046            4 
 4168000   0.58787159   -8.0774699    751.99725  0.015035134   0.01407044           13 
 4169000   0.58060461   -8.1016648    752.34962  0.015038571  0.014065839            9 
 4170000   0.58126598   -8.0994768    751.84069  0.015024794  0.014061243            4 
 4171000   0.57519642   -8.0940116    752.17557  0.015027882  0.014056639            7 
 4172000   0.58654785    -8.094092     752.8031  0.015036815  0.014052033            8 
 4173000    0.5801675   -8.0899091    752.90254  0.015035197  0.014047435           11 
 4174000   0.57507127   -8.1038985    750.35909  0.014980816   0.01404283            4 
 4175000   0.58961037   -8.0976539    751.41502  0.014998304  0.014038229            7 
 4176000   0.59347307   -8.1085035    753.30077  0.015032343   0.01403363           12 
 4177000   0.58572275   -8.0986721     752.0998  0.015004784  0.014029037           12 
 4178000   0.56615573   -8.1005546    751.49199   0.01498907  0.014024444            9 
 4179000   0.58050359   -8.1168644    752.78375  0.015011242  0.014019843            6 
 4180000   0.57156264   -8.1035831    752.36598  0.014999322  0.014015246            7 
 4181000   0.56657149   -8.0838192    751.53282  0.014979128  0.014010658            9 
 4182000   0.58052302    -8.112519    751.45744  0.014974044  0.014006074            5 
 4183000   0.59263544   -8.0962545     751.9781  0.014980837  0.014001495            6 
 4184000   0.58765472   -8.1061896    751.30646  0.014963879  0.013996917           12 
 4185000   0.58907464    -8.094202    751.96227  0.014973363  0.013992337           11 
 4186000   0.58906763   -8.0714165    752.17481  0.014974017  0.013987758            8 
 4187000   0.58056863   -8.1057084    753.02088   0.01498728  0.013983187           10 
 4188000   0.57954724   -8.0698809    753.23571  0.014987976  0.013978621            8 
 4189000   0.58050132   -8.0955578    753.84959   0.01499661   0.01397406            7 
 4190000   0.56692589   -8.0925973    753.58352  0.014987739  0.013969495            7 
 4191000   0.57268488    -8.081745    753.65733  0.014985631  0.013964932            9 
 4192000    0.5909688   -8.0815239    751.45709  0.014938317  0.013960376           15 
 4193000   0.57165983   -8.1093574    752.50862  0.014955653  0.013955814           12 
 4194000   0.59192779   -8.1062895    751.89005  0.014939796  0.013951254            8 
 4195000   0.58207374   -8.1009587    751.94944  0.014937414  0.013946693            5 
 4196000   0.57327088   -8.0981668    752.43468  0.014943491  0.013942131           11 
 4197000   0.57570551   -8.0986465     751.6611  0.014924571  0.013937573           15 
 4198000   0.58308097   -8.0888953    751.23921  0.014912641  0.013933008           14 
 4199000   0.58709625   -8.1135257    753.12556  0.014946526  0.013928448            7 
 4200000   0.57396543   -8.1047772    751.88307  0.014918315  0.013923891            7 
 4201000   0.59047722   -8.0985468    751.80719  0.014913259  0.013919333           10 
 4202000   0.58969485   -8.1058627    751.63395  0.014906274  0.013914772            9 
 4203000   0.58353108   -8.1221226    752.15148  0.014912988  0.013910218            4 
 4204000   0.58029584   -8.1232214    751.79421  0.014902359  0.013905667           11 
 4205000   0.58881978   -8.0941514    751.10438  0.014885144  0.013901125            8 
 4206000   0.57722779   -8.1095305    752.25171  0.014904337  0.013896581           10 
 4207000   0.57667139   -8.1033252    752.10745  0.014897937  0.013892038           10 
 4208000   0.57630776   -8.1199119    752.00714   0.01489241  0.013887497            7 
 4209000   0.59042683   -8.1165375     752.2366  0.014893415  0.013882949           15 
 4210000   0.56943363   -8.0866402    750.46554  0.014854821  0.013878406            9 
 4211000   0.56761997   -8.1004501    751.37738  0.014869338  0.013873863            7 
 4212000    0.5758042   -8.0877238    751.85252  0.014875208  0.013869324           12 
 4213000   0.59243743   -8.0946121    751.46422  0.014863997  0.013864791            7 
 4214000   0.58300688   -8.0940316    751.66941  0.014864527  0.013860255            8 
 4215000   0.58496331   -8.1122152    752.40156  0.014875476  0.013855723           12 
 4216000   0.57394766   -8.1012918    752.12302  0.014866442  0.013851192            8 
 4217000   0.57205209   -8.1033478    752.34852  0.014867373  0.013846667           11 
 4218000   0.57608116   -8.1131402    752.53312  0.014867495  0.013842143            9 
 4219000   0.57279068   -8.0768639    752.48116  0.014862945   0.01383762            9 
 4220000   0.57474816   -8.1115203    750.77315  0.014825694  0.013833102            9 
 4221000   0.57809189   -8.1114459    752.86034  0.014863388  0.013828584            7 
 4222000   0.58295744   -8.1140323    751.69259  0.014836819  0.013824066           13 
 4223000   0.57616813   -8.0926563    751.69533   0.01483336   0.01381955            7 
 4224000      0.56503   -8.0963311    751.27156  0.014821487  0.013815036           14 
 4225000    0.5832851   -8.0983349    751.59537  0.014824366  0.013810524           12 
 4226000   0.56735922   -8.1117292    751.74552  0.014823819  0.013806005           12 
 4227000   0.57715656   -8.1051655    751.25592   0.01481066  0.013801492           15 
 4228000    0.5730821   -8.1197499    751.86927  0.014819246  0.013796976           17 
 4229000   0.56692346   -8.0877484    751.30246  0.014804573  0.013792458           21 
 4230000   0.57565721   -8.1069273    751.73753  0.014809644  0.013787942           11 
 4231000   0.57079007   -8.1119131    751.47903  0.014801052  0.013783429           14 
 4232000   0.59161599   -8.1048668    751.21373  0.014792331  0.013778919           11 
 4233000   0.57704698    -8.118654    751.86498  0.014801657  0.013774414           20 
 4234000   0.57407516   -8.1015729    750.85695  0.014778321  0.013769906           11 
 4235000   0.57021285   -8.1118762    750.61801   0.01477013  0.013765404           21 
 4236000   0.56528734   -8.1171435    749.01517  0.014735111  0.013760904            8 
 4237000   0.57104856   -8.1199186     752.0823  0.014791958    0.0137564            9 
 4238000   0.57670314    -8.109135    750.71867  0.014761654  0.013751901           13 
 4239000   0.56593728   -8.1231843    750.96252  0.014762965  0.013747405           16 
 4240000   0.58944917   -8.1222421    751.85222   0.01477697  0.013742912           12 
 4241000   0.57345349   -8.0994649    752.03929  0.014777161  0.013738417           22 
 4242000   0.57471924   -8.1192763    752.74428  0.014787527  0.013733923           19 
 4243000    0.5738783   -8.1292302    751.18588  0.014753435  0.013729438            8 
 4244000   0.55820797    -8.097029     751.5019  0.014756164  0.013724951           15 
 4245000   0.56182962   -8.1357167     751.2999  0.014748722  0.013720462           20 
 4246000   0.57131037   -8.0965001    752.38945  0.014766632  0.013715981            8 
 4247000    0.5610166    -8.111521    750.95639  0.014735036  0.013711505            7 
 4248000   0.56801444   -8.1060709    750.63116  0.014725187  0.013707026           15 
 4249000   0.57172424   -8.0926424    751.70787  0.014742839  0.013702549            8 
 4250000   0.56823506   -8.1068141    750.92416  0.014724003  0.013698081           16 
 4251000   0.57185177   -8.1128738    750.29107  0.014708129  0.013693608            9 
 4252000    0.5738796   -8.1391694    751.96854  0.014737546  0.013689139           11 
 4253000   0.57851301    -8.113962    751.86882  0.014732127  0.013684664           15 
 4254000   0.56917324   -8.1195483    750.91269  0.014709934  0.013680187            7 
 4255000   0.57073453   -8.1356243    749.96053  0.014687829  0.013675717           11 
 4256000   0.56381693   -8.1277449    751.23328  0.014709298  0.013671245           18 
 4257000   0.58843412   -8.1160481    750.29278  0.014687432  0.013666772            9 
 4258000   0.57121399   -8.1096126    750.78939  0.014693702  0.013662304           13 
 4259000   0.57043256   -8.1241527    752.26469  0.014719118  0.013657834           13 
 4260000    0.5739814   -8.1266039    751.85281  0.014707606  0.013653367           11 
 4261000   0.56521222    -8.097724    750.16078  0.014671063  0.013648901           14 
 4262000   0.58552577    -8.099389    752.72018  0.014717663  0.013644445            5 
 4263000   0.56353537   -8.1187119    751.00044  0.014680594   0.01363999            4 
 4264000   0.56492079   -8.0943574    751.68484  0.014690526  0.013635528            9 
 4265000   0.57182069    -8.135247    752.09699  0.014695135  0.013631074            6 
 4266000   0.57040154   -8.1231136    750.71539  0.014664701  0.013626622           17 
 4267000   0.56755206   -8.1233755    751.60089  0.014678558  0.013622175            6 
 4268000   0.55685105   -8.1222064     750.4649  0.014652939  0.013617723            4 
 4269000   0.57401761   -8.1205173    750.17956  0.014643936  0.013613275            4 
 4270000   0.54978438   -8.1476351    749.51808  0.014627597  0.013608821            9 
 4271000   0.56616613   -8.1208099    751.91923  0.014671022   0.01360437            7 
 4272000   0.56654724   -8.1165159    749.78476  0.014625951  0.013599927           11 
 4273000   0.55845449   -8.1382589    750.86877  0.014643669   0.01359548            6 
 4274000   0.57166292   -8.1084762    750.13787  0.014625992  0.013591033           12 
 4275000   0.56609604   -8.1241333    750.31486  0.014626021  0.013586586            6 
 4276000   0.57097865   -8.1428239     750.8486  0.014633002  0.013582138            6 
 4277000   0.56133893   -8.1286017     750.2806  0.014618514  0.013577693            8 
 4278000   0.57301747   -8.1334816    751.30423  0.014635036  0.013573257            4 
 4279000    0.5730009   -8.1175549    751.34617  0.014632433  0.013568818            5 
 4280000   0.56881632   -8.1074779    751.24915  0.014627125  0.013564388            4 
 4281000   0.55648655    -8.125222    752.22181  0.014642642   0.01355996           20 
 4282000   0.57505491    -8.149352    751.93173  0.014633577  0.013555533            4 
 4283000   0.55704782    -8.124164    749.97391  0.014592068    0.0135511            7 
 4284000   0.55728408   -8.1483504    752.01541  0.014628373  0.013546675            3 
 4285000   0.57093945   -8.1347853      752.817  0.014640548  0.013542253            5 
 4286000   0.56512703   -8.1302873    751.33101   0.01460824  0.013537829           15 
 4287000     0.565017   -8.1170389    750.95442  0.014597512  0.013533413           12 
 4288000   0.56378623   -8.1319322    750.09112   0.01457733  0.013528988           15 
 4289000   0.56814617   -8.1370373    750.70868  0.014585931  0.013524559           10 
 4290000   0.56872013   -8.1275981    750.02842  0.014569317  0.013520134            8 
 4291000   0.57076189   -8.1320938    750.82013  0.014581297  0.013515715            4 
 4292000    0.5579277   -8.1417671    751.29815  0.014587181  0.013511296            9 
 4293000    0.5730621   -8.1356365    751.02598  0.014578499  0.013506882           11 
 4294000   0.56589386   -8.1374079    751.47927  0.014583901  0.013502466            6 
 4295000   0.55760129    -8.130635     751.8158  0.014587035  0.013498049           13 
 4296000   0.55700736   -8.1557552    750.91418   0.01456615  0.013493638            7 
 4297000   0.57200422   -8.1542629    751.81503  0.014580231  0.013489224            9 
 4298000   0.58448481   -8.1180077    750.73677  0.014555932  0.013484812            3 
 4299000   0.56449575   -8.1288263    750.92066  0.014556111  0.013480407            4 
 4300000   0.57142097   -8.1307828    750.38875  0.014542418     0.013476            7 
 4301000   0.56879651   -8.1368652    751.19666   0.01455469   0.01347159            5 
 4302000   0.57356022   -8.1319045    750.95391  0.014546604  0.013467184            5 
 4303000   0.57724363   -8.1359004    751.09755  0.014546006  0.013462779            5 
 4304000   0.55642657   -8.1392214    750.85487  0.014537927  0.013458377            4 
 4305000   0.55565654   -8.1312117    750.05659  0.014519098  0.013453975            6 
 4306000   0.56156369   -8.1380389    751.21858  0.014538214  0.013449571            3 
 4307000   0.56781076   -8.1476555    750.54103  0.014521729  0.013445172            8 
 4308000   0.56439585   -8.1487162    751.26325  0.014532328  0.013440767            6 
 4309000   0.56123417   -8.1264947    751.58147   0.01453511  0.013436376            5 
 4310000   0.56236729   -8.1315702    750.52938  0.014511396  0.013431986            4 
 4311000     0.558817   -8.1396655    749.84945  0.014494886  0.013427596            4 
 4312000   0.55873296   -8.1325967    751.43389  0.014522145  0.013423208            5 
 4313000   0.55988185   -8.1704827    750.40749  0.014498947  0.013418823            5 
 4314000   0.56586024   -8.1345866    749.61534  0.014480284  0.013414429            6 
 4315000    0.5613059   -8.1378138    751.21921  0.014507903   0.01341004            8 
 4316000   0.54437866   -8.1372084    750.33591  0.014487487  0.013405652            4 
 4317000   0.57108614   -8.1573625    750.09265  0.014479435  0.013401265            6 
 4318000   0.55508971   -8.1250312    750.25029  0.014479124   0.01339688            5 
 4319000   0.57206111   -8.1487309    751.54484  0.014500749  0.013392501            5 
 4320000   0.55949609   -8.1538227    751.11429  0.014489087  0.013388119            6 
 4321000   0.56981451   -8.1592856     750.3021  0.014470071  0.013383741            5 
 4322000   0.56816659   -8.1409307    750.97957  0.014479785  0.013379359            5 
 4323000   0.55719415   -8.1575798    750.14535  0.014460355  0.013374985            6 
 4324000   0.55787557   -8.1452105    751.12842  0.014475956  0.013370611            7 
 4325000   0.55439698   -8.1678887    749.85912  0.014448153  0.013366236           15 
 4326000   0.55676304   -8.1415577    749.69102  0.014441575  0.013361862            2 
 4327000   0.54944856   -8.1522628     751.4128  0.014471397  0.013357491            6 
 4328000     0.557727   -8.1429738    751.31607  0.014466191  0.013353121            6 
 4329000   0.56992437   -8.1664164    750.51202  0.014447371  0.013348758            6 
 4330000   0.54919526   -8.1712404    749.55378  0.014425592  0.013344389            6 
 4331000     0.565627   -8.1403257    750.96907  0.014449493  0.013340023            7 
 4332000   0.54309608   -8.1448423    750.37272  0.014434686  0.013335664            4 
 4333000   0.57190956   -8.1527135    749.19713  0.014408745  0.013331303            5 
 4334000   0.54518447   -8.1473766    749.30564  0.014407507  0.013326947            6 
 4335000   0.55294386   -8.1540574    750.53015  0.014427723  0.013322592            5 
 4336000   0.55784913   -8.1584127    751.66795  0.014446263  0.013318233            3 
 4337000   0.54221652    -8.136084    750.36033  0.014417807  0.013313878            4 
 4338000   0.55289126   -8.1482541    750.41027  0.014415442   0.01330952            6 
 4339000    0.5465636   -8.1576797     749.5965  0.014396491  0.013305166            4 
 4340000    0.5669351   -8.1489893    751.01888  0.014420485   0.01330082            9 
 4341000   0.56227367   -8.1404026    749.01805  0.014378754  0.013296473            5 
 4342000   0.55025063   -8.1662631    750.78315  0.014409319  0.013292125           10 
 4343000   0.55655458   -8.1405661     749.3422  0.014378352  0.013287779            4 
 4344000   0.55974962   -8.1456316    750.95475  0.014405977  0.013283432            5 
 4345000   0.55923582    -8.159661    750.30917  0.014390279  0.013279089            8 
 4346000   0.55087605   -8.1556299    748.37394  0.014349861  0.013274751            3 
 4347000   0.55414669   -8.1434889    749.63956  0.014370822  0.013270409            5 
 4348000   0.56006315    -8.152156    751.30268  0.014399392  0.013266072            5 
 4349000   0.54848419   -8.1496581    751.00393  0.014390357   0.01326173            6 
 4350000   0.55163304    -8.139885    750.92422  0.014385521  0.013257397            5 
 4351000   0.55961638   -8.1631789    751.27398  0.014388914  0.013253065           17 
 4352000   0.55079446   -8.1420194    750.47288  0.014370268  0.013248735            8 
 4353000   0.55349716   -8.1529111    750.48351   0.01436717  0.013244399            7 
 4354000   0.55226091   -8.1435208    751.12999  0.014376244  0.013240071           12 
 4355000   0.54646442    -8.170368    750.23516   0.01435582  0.013235745           11 
 4356000   0.55390221   -8.1740031    749.31316  0.014334886  0.013231417            3 
 4357000   0.56099098   -8.1564537     750.7422  0.014358928  0.013227096            5 
 4358000   0.55933045   -8.1506236     749.7467  0.014336597  0.013222776            5 
 4359000   0.54094809   -8.1639336    749.95101  0.014337214  0.013218459            4 
 4360000   0.54404032   -8.1525932    750.39714  0.014342453  0.013214141           14 
 4361000   0.55529175   -8.1376975    748.97562  0.014312001  0.013209823            9 
 4362000    0.5548779   -8.1644329    750.41531  0.014336224  0.013205513            6 
 4363000   0.56309154   -8.1645794    750.21768  0.014329163    0.0132012            5 
 4364000   0.56037224   -8.1620494    750.58351  0.014332866  0.013196885            5 
 4365000   0.55669952   -8.1556583    749.72521  0.014313196  0.013192569            4 
 4366000   0.55927354   -8.1577331    750.83372  0.014331076   0.01318826            8 
 4367000   0.55457631   -8.1553696    751.02691  0.014331481  0.013183952            7 
 4368000   0.56033679   -8.1695378     750.1185  0.014310869  0.013179641           13 
 4369000   0.55982483   -8.1715088    749.17428  0.014289584  0.013175335            3 
 4370000   0.53488886   -8.1705448     750.4205  0.014310078   0.01317103           10 
 4371000   0.55236483   -8.1655994    750.05252  0.014299789  0.013166728            5 
 4372000   0.54495346   -8.1554001    750.41996  0.014303522  0.013162429            5 
 4373000    0.5367572   -8.1528446    749.93518  0.014291013  0.013158131            4 
 4374000   0.55165365   -8.1537424     748.9006  0.014268035  0.013153834            3 
 4375000   0.54069214   -8.1613898    749.91837  0.014284159  0.013149541            4 
 4376000   0.55615843   -8.1574126    750.30559  0.014288269  0.013145248            6 
 4377000   0.56212607   -8.1757847    748.90633  0.014258364  0.013140961            3 
 4378000    0.5518404   -8.1482526    748.71495  0.014251465  0.013136672           14 
 4379000   0.55091774   -8.1387543    749.67622  0.014266503  0.013132387            5 
 4380000   0.54895523   -8.1639653    749.23236  0.014254801  0.013128104            5 
 4381000   0.55902441   -8.1696736    749.64285  0.014259356  0.013123816            5 
 4382000   0.55866638   -8.1628914    752.30978  0.014306819  0.013119534           14 
 4383000   0.55531972   -8.1493506    751.79528  0.014293773  0.013115255            7 
 4384000   0.54857214   -8.1715694    748.93816  0.014236203  0.013110974            4 
 4385000   0.55972778   -8.1467128    749.57499  0.014245059  0.013106694            8 
 4386000   0.56111848   -8.1579361    749.88971  0.014247791  0.013102416            6 
 4387000   0.55374474   -8.1620478      750.199  0.014250418  0.013098139            6 
 4388000   0.54794197   -8.1639354    749.78813  0.014239367   0.01309386            8 
 4389000   0.54866595    -8.158456     749.8237  0.014236798   0.01308959           10 
 4390000   0.54191813   -8.1693483    748.17852  0.014202326  0.013085316            4 
 4391000   0.54916493   -8.1658802    750.40866  0.014241415  0.013081043            3 
 4392000   0.56374219   -8.1688738     749.6621  0.014224008   0.01307677            5 
 4393000   0.55838648   -8.1489499    749.01601  0.014208514  0.013072505            4 
 4394000   0.55161396   -8.1733876    749.41618   0.01421287  0.013068237            4 
 4395000   0.55111476   -8.1651791    750.10657  0.014222726  0.013063977            4 
 4396000   0.54116857   -8.1465129    749.64422  0.014210726  0.013059718            6 
 4397000   0.55386918   -8.1761383    749.25843  0.014200183  0.013055464            8 
 4398000   0.54200318   -8.1836454     750.1676  0.014214181  0.013051211            6 
 4399000   0.54492628   -8.1382679     749.2805  0.014194144  0.013046957            4 
 4400000   0.54488562   -8.1625935    749.92852  0.014203192   0.01304271            6 
 4401000   0.55807169   -8.1562779    749.95598  0.014200484  0.013038464            4 
 4402000   0.55430212   -8.1477333    749.46523  0.014187968  0.013034211            7 
 4403000   0.54498003   -8.1511989    750.50303  0.014204388  0.013029965            3 
 4404000   0.54541835   -8.1611524    750.97801   0.01421015   0.01302572            3 
 4405000   0.54739806   -8.1481423    750.44034  0.014196753  0.013021475            2 
 4406000   0.53949579    -8.181903    748.86251  0.014163688  0.013017229            4 
 4407000   0.54970243   -8.1785615    749.69923  0.014176296  0.013012989            7 
 4408000   0.54876005   -8.1749559      748.762  0.014155362  0.013008747            3 
 4409000   0.55318725   -8.1670714    751.57193  0.014205261  0.013004513            4 
 4410000   0.54671113    -8.162604    749.80785  0.014168705  0.013000279            2 
 4411000   0.55998891   -8.1461196    750.42973  0.014177241  0.012996047            3 
 4412000   0.54861062   -8.1558731    749.68877  0.014160033  0.012991817            3 
 4413000   0.54470014   -8.1611484    749.67341  0.014156534  0.012987587            3 
 4414000   0.54674883   -8.1643422    750.24997  0.014164212  0.012983356            4 
 4415000   0.55582593   -8.1642651    751.12813  0.014177579  0.012979128            3 
 4416000   0.54693592   -8.1559007    750.58542  0.014164127  0.012974905            3 
 4417000   0.53957261   -8.1568691    750.06058  0.014151018  0.012970681            4 
 4418000   0.54680063    -8.161235      751.399  0.014173061  0.012966458            3 
 4419000   0.54931779   -8.1721219    749.96442    0.0141428  0.012962233            5 
 4420000   0.54446715   -8.1608097    748.84576   0.01411851  0.012958015            6 
 4421000   0.54607492   -8.1727376    750.68605  0.014150005  0.012953795            3 
 4422000   0.54628773   -8.1774085    749.99946  0.014133866  0.012949575            5 
 4423000   0.54412219   -8.1896931    750.25599  0.014135504  0.012945353            4 
 4424000   0.54548634    -8.161425    749.31488  0.014114581   0.01294114            4 
 4425000   0.54316813   -8.1662457    749.57625  0.014116314  0.012936927            3 
 4426000   0.54867176   -8.1623592    750.46621   0.01412988  0.012932715            7 
 4427000   0.55163341   -8.1581223    750.23423  0.014122322  0.012928503           10 
 4428000   0.53820325   -8.1729674    749.34499  0.014102397  0.012924292            8 
 4429000   0.54369163   -8.1603197    749.58972  0.014103818  0.012920077            9 
 4430000   0.54687359   -8.1584049    749.45038  0.014098013  0.012915872            5 
 4431000   0.54554687   -8.1707651    751.45057  0.014132449  0.012911667            4 
 4432000   0.52986081   -8.1835136     750.7501  0.014116089  0.012907461            4 
 4433000     0.550594   -8.1705418    749.72013  0.014093543  0.012903256            5 
 4434000   0.53894361   -8.1704519    750.26499  0.014100605  0.012899054            4 
 4435000   0.54663204   -8.1790031    749.11426  0.014075803  0.012894852            5 
 4436000   0.54798293   -8.1655816    749.86302  0.014086696  0.012890651            4 
 4437000   0.54621604   -8.1657057    749.71672  0.014080774  0.012886457            8 
 4438000   0.54035266   -8.1723976    749.47461  0.014073055  0.012882258            7 
 4439000   0.53261396   -8.1712298    749.93368  0.014078503  0.012878064            3 
 4440000       0.5461   -8.1667258    748.51498  0.014048705  0.012873868            4 
 4441000   0.54298137    -8.178518    749.59051  0.014065723   0.01286967            4 
 4442000   0.55305205   -8.1793336    749.59185  0.014062582  0.012865483            8 
 4443000   0.53617125   -8.1624258    750.13671  0.014069636   0.01286129            4 
 4444000   0.53996938   -8.1752744    749.88314  0.014061715  0.012857101            6 
 4445000   0.52563385   -8.1637896    748.68475  0.014036085   0.01285291            4 
 4446000   0.55041133   -8.1770684    749.68903  0.014051751  0.012848726            4 
 4447000   0.52887791   -8.1832341    749.82987  0.014051231  0.012844542            6 
 4448000   0.53484198   -8.1623424    749.93551  0.014050051  0.012840361            7 
 4449000   0.54844515   -8.1518704    750.12063   0.01405036  0.012836178            5 
 4450000   0.53954211   -8.1639848    750.12249  0.014047238  0.012832002            3 
 4451000   0.55068872   -8.1874244    748.90651  0.014021316  0.012827823            5 
 4452000   0.53974496   -8.1801099     749.6892  0.014032817  0.012823642            3 
 4453000    0.5372812   -8.1708803    749.38455  0.014023964  0.012819466            3 
 4454000   0.54478727   -8.1732045    749.03415   0.01401426  0.012815291            7 
 4455000   0.53035534   -8.1721863    748.76297  0.014006041  0.012811113            6 
 4456000   0.52586025   -8.1702401    749.18418  0.014010775  0.012806939           12 
 4457000   0.53126483   -8.1727188    749.77686  0.014018713  0.012802764            7 
 4458000   0.54813443   -8.1823009     749.6349  0.014012915  0.012798587            3 
 4459000    0.5425276   -8.1839338     749.0278  0.013998426  0.012794411            4 
 4460000   0.54821137   -8.1705509    748.59793  0.013987256  0.012790239            5 
 4461000   0.53826807   -8.1807855     747.8394  0.013969951  0.012786066            4 
 4462000    0.5402713   -8.1772314    748.28468  0.013975136    0.0127819            5 
 4463000    0.5424587   -8.1778803     748.0887  0.013968345  0.012777731            6 
 4464000   0.53936612   -8.1947389    749.93646   0.01399971  0.012773565            7 
 4465000   0.55183035   -8.1906256    749.70143  0.013992188  0.012769398            4 
 4466000   0.52783285   -8.1696162     748.8589  0.013973334  0.012765236            4 
 4467000   0.53964215   -8.2006975    749.41644  0.013980607   0.01276107            5 
 4468000   0.51972854   -8.1947378    749.31255   0.01397554  0.012756907            6 
 4469000   0.53627464   -8.1850219    749.04311  0.013967388  0.012752748            8 
 4470000   0.52750846   -8.1902851    748.85284  0.013960717   0.01274859            6 
 4471000   0.53280999   -8.1945499    748.61519  0.013953165   0.01274444            8 
 4472000     0.538916   -8.1801716     748.4434  0.013946843  0.012740285            7 
 4473000   0.53795888   -8.1741507    749.95893   0.01397196  0.012736137            5 
 4474000   0.52677249   -8.1956296    750.06276  0.013970771  0.012731986            7 
 4475000   0.53073726   -8.1779705    749.20106  0.013951603  0.012727832            4 
 4476000   0.54391334   -8.1839727     749.7482  0.013958672  0.012723684            6 
 4477000   0.54974275   -8.1743519    748.67869  0.013935647  0.012719539            4 
 4478000   0.52882755   -8.1737353     748.7956   0.01393471  0.012715397            7 
 4479000   0.53683924   -8.1809646    748.37876  0.013923844  0.012711254            6 
 4480000   0.52857198   -8.1806372    750.23216  0.013955211  0.012707115            6 
 4481000    0.5545947   -8.1820576    750.12077  0.013950025   0.01270298            8 
 4482000   0.53573003   -8.1814296    749.54795  0.013936263  0.012698847            4 
 4483000   0.53315001   -8.1855494    749.36167  0.013929691  0.012694712            7 
 4484000   0.54596939   -8.1922986    748.23184  0.013905587  0.012690579            5 
 4485000   0.53610323   -8.1767628    749.99179  0.013935188  0.012686451            6 
 4486000   0.53036518   -8.1894423    749.78659  0.013928269   0.01268232            5 
 4487000   0.53429659   -8.1781731    748.94118  0.013909464   0.01267819            4 
 4488000   0.52300034   -8.1844422    748.17742  0.013892183   0.01267406            5 
 4489000    0.5278186   -8.1813367    749.43032  0.013912347  0.012669935            6 
 4490000   0.52642571   -8.2012538     748.9254  0.013899877  0.012665807            7 
 4491000   0.52838968   -8.2041226    748.49033  0.013888709   0.01266168            6 
 4492000   0.54044876   -8.1870611    748.14628  0.013879235  0.012657553            8 
 4493000   0.53867065   -8.1960936    750.05821  0.013911607  0.012653433            5 
 4494000   0.52725904   -8.1889934    748.95143  0.013887988   0.01264931            6 
 4495000   0.54004422   -8.1828596    748.31735  0.013873143  0.012645194            8 
 4496000   0.53217114   -8.1848272     748.5097  0.013873623  0.012641074            8 
 4497000   0.52729172   -8.1793653    749.84456  0.013895274  0.012636959            9 
 4498000   0.52253649   -8.1979498    748.61749  0.013869451  0.012632842            6 
 4499000   0.52969555     -8.19051    748.81086   0.01386995  0.012628729            5 
 4500000   0.51735741   -8.1838346    749.08425  0.013871931  0.012624615           16 
 4501000   0.52744366   -8.1887502     747.9541  0.013847925  0.012620507            9 
 4502000   0.53496571   -8.1886991    748.45493  0.013854119    0.0126164            4 
 4503000   0.52561728   -8.2080457    748.88527  0.013859006  0.012612295            7 
 4504000   0.54042311   -8.1783797    749.28832  0.013863387  0.012608194            5 
 4505000   0.52708058   -8.1941591    748.10764  0.013838469  0.012604093            4 
 4506000   0.52599953   -8.1960165    750.05188  0.013871354  0.012599992            5 
 4507000    0.5366968   -8.1951886     748.1829   0.01383372  0.012595895            8 
 4508000   0.53049039   -8.1910095    748.79864  0.013842033  0.012591797            4 
 4509000   0.52059344   -8.1820879    748.57219  0.013834778  0.012587694            8 
 4510000   0.52758795    -8.201849    750.64625  0.013870034  0.012583597            7 
 4511000   0.52221736   -8.1878178    748.51424  0.013827574  0.012579501            6 
 4512000   0.53477785   -8.1799512     747.8784  0.013812766  0.012575407            5 
 4513000   0.52693989   -8.1990067    747.70851  0.013806568  0.012571314            4 
 4514000   0.53336487   -8.1794331    748.80881  0.013823822  0.012567226            7 
 4515000   0.52140856   -8.2039864    748.22073  0.013809906  0.012563137            5 
 4516000   0.53489097   -8.2050845    747.40188  0.013791738  0.012559043            5 
 4517000   0.52944048   -8.2053095    747.53591  0.013791158  0.012554954            7 
 4518000   0.52525285   -8.2100261    748.09612  0.013798438  0.012550871            4 
 4519000   0.52218965   -8.2011527    748.88311  0.013809897  0.012546789            3 
 4520000    0.5294759   -8.2007345    749.09065  0.013810668  0.012542703            7 
 4521000   0.53242197   -8.2027488    748.21246  0.013791426  0.012538621            7 
 4522000    0.5326754   -8.1917488    748.69901  0.013797343  0.012534535            6 
 4523000   0.51955036   -8.2047844    747.74327  0.013776683  0.012530451            7 
 4524000   0.52133452   -8.2057492    747.45023   0.01376824  0.012526373            3 
 4525000   0.51887944   -8.2164158    749.26769  0.013798668  0.012522294            5 
 4526000   0.53656912   -8.1840617    747.57868  0.013764521  0.012518218            3 
 4527000   0.53761477   -8.1907459    748.09435  0.013770973  0.012514142            3 
 4528000   0.54372524   -8.1972813    748.89154  0.013782603  0.012510067            4 
 4529000   0.51803566   -8.2082864    748.75915  0.013777124  0.012505994            4 
 4530000   0.52372041   -8.2021949    748.55578  0.013770342  0.012501921            2 
 4531000   0.51852082    -8.197712    748.08573  0.013758658  0.012497845            4 
 4532000   0.55007381    -8.202469    746.57083  0.013727766  0.012493776            4 
 4533000   0.52740486   -8.1957934    748.06433  0.013752194  0.012489708            9 
 4534000   0.52301837   -8.2020847    748.06043  0.013749089  0.012485648            4 
 4535000   0.53966396   -8.2034443    747.86337  0.013742436  0.012481586            9 
 4536000   0.52790818   -8.2048401    748.82514  0.013757076   0.01247752           10 
 4537000   0.52014669   -8.2204601    748.06127  0.013740013  0.012473455            3 
 4538000   0.51388721   -8.2082124    748.14249  0.013738477  0.012469392            4 
 4539000   0.52668656   -8.2064097    747.15257  0.013717276  0.012465332            3 
 4540000   0.51879913   -8.2042477    747.50901  0.013720797  0.012461272            5 
 4541000   0.53010371   -8.2067845    747.60774  0.013719587  0.012457216            5 
 4542000   0.52232261    -8.194331    748.39196  0.013730955  0.012453171            3 
 4543000   0.51693348   -8.1873539    747.32858  0.013708427  0.012449116            9 
 4544000   0.52263488   -8.2125748    748.39062  0.013724887  0.012445068            8 
 4545000   0.52640566   -8.2011468    748.56931  0.013725143  0.012441019           11 
 4546000   0.51741612   -8.2133253    748.84484  0.013727175  0.012436973            6 
 4547000   0.50671012    -8.215578     748.3468  0.013715028  0.012432928            3 
 4548000   0.52800258   -8.1960574    748.16618  0.013708703  0.012428883            7 
 4549000   0.51229317   -8.1940089    748.74534  0.013716299  0.012424844            4 
 4550000   0.52960756    -8.211004    748.58867  0.013710415  0.012420801            4 
 4551000   0.53800598   -8.1979624    749.00746  0.013715071  0.012416769            5 
 4552000   0.52820359   -8.1977748    748.24952  0.013698182  0.012412735            8 
 4553000   0.51352303    -8.218777    748.54998  0.013700673    0.0124087            3 
 4554000   0.51475726   -8.1830033     747.5454  0.013679282  0.012404661           10 
 4555000   0.52715047   -8.2082969    748.02845  0.013685116  0.012400626            5 
 4556000   0.52514119   -8.2062626    748.84277  0.013697007  0.012396593            4 
 4557000   0.52338563   -8.2275575    748.86891  0.013694479  0.012392561            5 
 4558000   0.52403964   -8.2052666    748.86993  0.013691494   0.01238853            7 
 4559000   0.50989995   -8.2091621    748.33572  0.013678726  0.012384503            4 
 4560000   0.53248945   -8.2048042    747.87085   0.01366723  0.012380477            4 
 4561000   0.52198033   -8.2050149     747.4006  0.013655642  0.012376454            4 
 4562000   0.51507517   -8.2021611    747.29913  0.013650795   0.01237243            4 
 4563000   0.51903765   -8.2111808    748.13006  0.013662979  0.012368407            4 
 4564000   0.52533234   -8.2246486    746.56064  0.013631329  0.012364383            9 
 4565000   0.51448687   -8.2200613    749.02917  0.013673406  0.012360361            6 
 4566000    0.5224966   -8.2010531    747.61829  0.013644661  0.012356339            5 
 4567000   0.51792833   -8.2070262    748.62912  0.013660118  0.012352315            3 
 4568000   0.52204196   -8.2026579    747.94099  0.013644574  0.012348296            4 
 4569000   0.52439521   -8.2304851     748.0601   0.01364376  0.012344279            8 
 4570000   0.52486855   -8.2187211    747.59514  0.013632296  0.012340268            7 
 4571000   0.53151001   -8.1990011    747.84762  0.013633917  0.012336253            9 
 4572000   0.52503209   -8.2244328    747.23614   0.01361979  0.012332241            3 
 4573000   0.52480165   -8.2066342    746.99654  0.013612445  0.012328232            5 
 4574000   0.52924976   -8.2378599    748.93944  0.013644867  0.012324227            5 
 4575000   0.51372957   -8.2140503    747.19391  0.013610089  0.012320222            5 
 4576000   0.52728948   -8.2151609    747.97019  0.013621252  0.012316216            4 
 4577000   0.53145203   -8.2245978    749.06168  0.013638149  0.012312212            6 
 4578000   0.53347418    -8.221698    747.57398  0.013608089  0.012308209           13 
 4579000   0.51588722    -8.228214    747.87671  0.013610627  0.012304206            4 
 4580000   0.51968755   -8.2309408    748.05776  0.013610949  0.012300204            4 
 4581000   0.50951538   -8.2197941    747.36036  0.013595291  0.012296204            5 
 4582000   0.51914828   -8.2139469    747.73412  0.013599122  0.012292209            6 
 4583000   0.50873668   -8.2062002     748.2752  0.013605993  0.012288215            5 
 4584000   0.51919834   -8.2215729    748.17425   0.01360119  0.012284221            5 
 4585000   0.51948294   -8.2297886    748.36478  0.013601686  0.012280231            3 
 4586000    0.5110512   -8.2284542    748.57412  0.013602524  0.012276245            3 
 4587000   0.52664212   -8.2179766     747.7089   0.01358384  0.012272255            4 
 4588000   0.51123793   -8.2369687    748.87903  0.013602133  0.012268272            4 
 4589000   0.51817118   -8.2236983    747.68183  0.013577429  0.012264286            8 
 4590000   0.52148152    -8.197978    746.62206   0.01355523  0.012260306            4 
 4591000   0.51302734   -8.2177445    747.33834  0.013565279  0.012256326            9 
 4592000   0.52880842   -8.2162721    746.77243  0.013552055  0.012252346            6 
 4593000   0.52125685   -8.2106926     747.9054   0.01356966  0.012248372            6 
 4594000    0.5305083   -8.2312471    747.39672  0.013557479  0.012244398            5 
 4595000   0.51826067   -8.2058504    747.95808  0.013564709  0.012240427            5 
 4596000   0.50871374   -8.2247035    748.02375  0.013562949  0.012236457            4 
 4597000   0.50737818   -8.2102844    748.30584  0.013565112  0.012232485            7 
 4598000   0.51474239    -8.209729    747.14126  0.013541055  0.012228514            7 
 4599000   0.51347671   -8.2283548    747.53658  0.013545274  0.012224544            5 
 4600000   0.50197925    -8.226319    747.57253  0.013542981  0.012220578            6 
 4601000   0.51767895   -8.2245038     747.1334  0.013532084  0.012216614            7 
 4602000   0.51558278   -8.2162643    749.01181  0.013563158   0.01221265            3 
 4603000   0.51275541   -8.2296552     746.8354  0.013520809  0.012208685            3 
 4604000   0.51306983   -8.2230593    747.45451  0.013529078  0.012204723            6 
 4605000   0.51218697   -8.2332606    747.20357  0.013521599  0.012200761            7 
 4606000   0.52631879   -8.2365894     747.3331  0.013521007    0.0121968            5 
 4607000   0.52280426    -8.244219    747.72273   0.01352512  0.012192839            7 
 4608000   0.51868642   -8.2129801    747.94499  0.013526204  0.012188881            8 
 4609000   0.50968232   -8.2360342    747.14093  0.013508732  0.012184923            5 
 4610000   0.51959845   -8.2083034    747.10889  0.013505222  0.012180968            7 
 4611000   0.50379801   -8.2254166    747.90646  0.013516707  0.012177018           10 
 4612000   0.50638151   -8.2228357    748.53435  0.013525122  0.012173068            3 
 4613000   0.51038379   -8.2185675    747.70718  0.013507247  0.012169122            3 
 4614000   0.50227347   -8.2362236    747.46643  0.013499972  0.012165172            4 
 4615000   0.51252479   -8.2236081    747.76843    0.0135025  0.012161229            7 
 4616000   0.51639852   -8.2189031    746.86328  0.013483234  0.012157283            6 
 4617000   0.51540985   -8.2285491    746.26859   0.01346958  0.012153338            3 
 4618000   0.51581462    -8.237905    748.42411   0.01350556  0.012149394            4 
 4619000   0.51849104   -8.2333679    747.67752  0.013489166  0.012145453            4 
 4620000   0.51670231   -8.2390361    747.11702  0.013476137  0.012141512            6 
 4621000   0.51382994   -8.2246483    747.86461  0.013486702  0.012137577            4 
 4622000   0.51553585   -8.2173398    748.03516  0.013486859   0.01213364            6 
 4623000   0.50952053   -8.2301091    747.75231  0.013478843  0.012129706            5 
 4624000   0.50483756    -8.227275    746.94333  0.013461349  0.012125771            5 
 4625000   0.52286533   -8.2262558    747.34424  0.013465662  0.012121839            4 
 4626000   0.50139739   -8.2214529    746.43456  0.013446364  0.012117908            7 
 4627000   0.50572451   -8.2183106    747.77682  0.013467632  0.012113978            5 
 4628000   0.51218688   -8.2174361    746.97068  0.013450207   0.01211005            5 
 4629000   0.51088046   -8.2228306    748.30826  0.013471381  0.012106126            5 
 4630000   0.51175023   -8.2364169    747.88472  0.013460848    0.0121022            8 
 4631000   0.50754221   -8.2270843    746.48996  0.013432843  0.012098275            3 
 4632000   0.50890427   -8.2350733    746.12839  0.013423438  0.012094351            5 
 4633000   0.50528217   -8.2283526    746.02381   0.01341866  0.012090431            6 
 4634000   0.50257323   -8.2287014    747.73925  0.013446613  0.012086511            5 
 4635000   0.51593518   -8.2479759    746.97009  0.013429883  0.012082586            6 
 4636000   0.51294889   -8.2444738    747.65402   0.01343928  0.012078666            5 
 4637000   0.49876405   -8.2206556    747.33978  0.013430734  0.012074752            8 
 4638000   0.50646171   -8.2264064    746.78261  0.013417828  0.012070838            5 
 4639000   0.51632918   -8.2375341    746.10572  0.013402776  0.012066926            3 
 4640000   0.49891298   -8.2668007     747.0116  0.013416157  0.012063012            5 
 4641000   0.51007811   -8.2436656    745.72073  0.013390087  0.012059095            4 
 4642000   0.51559383   -8.2452215    747.16927  0.013413207  0.012055183            4 
 4643000   0.51413295    -8.234895    747.37291  0.013413973  0.012051277            5 
 4644000   0.50880716   -8.2051902    745.93637  0.013385307  0.012047373            5 
 4645000   0.51882881   -8.2297346    747.05106  0.013402423   0.01204347            5 
 4646000   0.50382402   -8.2140709    746.91028  0.013397013  0.012039569            3 
 4647000   0.50145609   -8.2252749    747.24102  0.013400061  0.012035668            8 
 4648000   0.51913487   -8.2229506    747.43378  0.013400634   0.01203177            5 
 4649000   0.50105897   -8.2430543    746.12458  0.013374284  0.012027869            4 
 4650000   0.50925594   -8.2279928    747.42035   0.01339463  0.012023969            5 
 4651000   0.50253962   -8.2502481    747.14386  0.013386796  0.012020075            5 
 4652000   0.50798952   -8.2435018    747.50248  0.013390342  0.012016181            5 
 4653000   0.50688134   -8.2449219    747.36135  0.013384937  0.012012289            5 
 4654000   0.50401882   -8.2157407     746.6282  0.013368934    0.0120084            6 
 4655000   0.50379939   -8.2290982    748.18502  0.013393932  0.012004513            5 
 4656000   0.50848134   -8.2276002     747.8168  0.013384465  0.012000628            4 
 4657000   0.49961449    -8.246221    749.22796  0.013406842   0.01199674            8 
 4658000   0.50745756   -8.2328691    746.81977   0.01336088  0.011992856            8 
 4659000   0.50397529   -8.2444544     745.6691  0.013337431  0.011988971            4 
 4660000   0.51189404   -8.2316458     746.5918  0.013351069  0.011985093            5 
 4661000   0.49796427   -8.2520912    748.46206  0.013381643  0.011981213            4 
 4662000   0.49688358    -8.246379    747.00577  0.013352742  0.011977333            6 
 4663000   0.51026419   -8.2425682    747.67983  0.013361924  0.011973456            5 
 4664000   0.51116315   -8.2484464    746.78138  0.013343006  0.011969585            5 
 4665000   0.51536066   -8.2329299    746.54667  0.013335953  0.011965716            5 
 4666000   0.51031686   -8.2269528    746.39711  0.013330424  0.011961848            6 
 4667000    0.5122798   -8.2241322    747.63229  0.013349623  0.011957977            8 
 4668000   0.51427342   -8.2381441    748.04591  0.013354147  0.011954109            4 
 4669000   0.51094031   -8.2316247    746.92633  0.013331304  0.011950242            4 
 4670000   0.50684865     -8.20526    747.97673  0.013347194  0.011946385            4 
 4671000   0.49015503    -8.241914    746.76522  0.013322722  0.011942526            8 
 4672000   0.51530201   -8.2278321     746.9142  0.013322528  0.011938664            3 
 4673000   0.51155651   -8.2371611    747.06508  0.013322367  0.011934802            4 
 4674000   0.50731422   -8.2492613    746.82645  0.013315263  0.011930944            5 
 4675000   0.50660949   -8.2352654    746.80027  0.013311948  0.011927085            5 
 4676000   0.49999465   -8.2427517    746.16618    0.0132978  0.011923226           10 
 4677000   0.50333114   -8.2302749    746.71547  0.013304744  0.011919371            4 
 4678000   0.50366199   -8.2357092    746.89519  0.013305102   0.01191552            4 
 4679000   0.50356976   -8.2470667    747.48748  0.013312807  0.011911672            3 
 4680000   0.51517839    -8.249064    747.06051   0.01330236  0.011907823            4 
 4681000    0.5018404   -8.2494349    746.16399  0.013283557  0.011903972            3 
 4682000   0.50872504   -8.2405156    747.72248  0.013308459  0.011900121            4 
 4683000   0.50752302   -8.2310087    747.09668  0.013294481   0.01189627            5 
 4684000   0.50527352     -8.23228    745.82977  0.013269104  0.011892424            8 
 4685000   0.50577968   -8.2398911    746.54142   0.01327893  0.011888575            7 
 4686000   0.49457981   -8.2364771    747.05604  0.013285248   0.01188473            3 
 4687000   0.50943731   -8.2568801    746.79465  0.013277766  0.011880887            4 
 4688000   0.49982327   -8.2332313    746.47685  0.013269284  0.011877041            9 
 4689000   0.50397569   -8.2377492    746.56157   0.01326796    0.0118732            4 
 4690000   0.51119334   -8.2355814    746.02897  0.013255667  0.011869359            9 
 4691000   0.49829047   -8.2599404    746.74168  0.013265503   0.01186552            5 
 4692000   0.51843797   -8.2703355    746.55687  0.013259393  0.011861684            4 
 4693000   0.48538864   -8.2615773    745.96134  0.013245993   0.01185785            7 
 4694000    0.5027539   -8.2368626    745.71322  0.013238766  0.011854013            6 
 4695000   0.50386651   -8.2525948    746.52138  0.013250291  0.011850181            5 
 4696000   0.50854074   -8.2483837    746.90216  0.013254226  0.011846354            4 
 4697000   0.49652604   -8.2462522    745.92582  0.013234082  0.011842525            6 
 4698000   0.50261515   -8.2437263    747.11975  0.013252443  0.011838698            6 
 4699000   0.49952805   -8.2325625     746.1532  0.013232482  0.011834871            6 
 4700000   0.50492167   -8.2475885    746.40779  0.013234181  0.011831045            7 
 4701000   0.50770589    -8.241057    747.64151  0.013253235  0.011827225            6 
 4702000   0.50639689   -8.2304976    746.02534  0.013221773  0.011823402            4 
 4703000   0.49227668    -8.256759    745.69426  0.013213096  0.011819583            5 
 4704000   0.49541122   -8.2428221    746.28103  0.013220681  0.011815758            4 
 4705000   0.48786293     -8.25229    745.79569  0.013209275  0.011811937           12 
 4706000   0.50060531   -8.2322472    745.91511  0.013208583  0.011808123            5 
 4707000    0.4941654   -8.2525753    745.97447  0.013206828   0.01180431            9 
 4708000   0.49780154   -8.2689359    747.13741  0.013224607  0.011800498            9 
 4709000   0.49771642   -8.2387007    746.87111  0.013217086  0.011796687            6 
 4710000   0.49882996   -8.2486509    746.11546   0.01320091  0.011792876            3 
 4711000   0.49611129   -8.2446813    747.04236  0.013214504   0.01178907            8 
 4712000   0.49503249   -8.2723861    745.53906  0.013185114  0.011785261            4 
 4713000   0.49017747   -8.2397692    745.95085  0.013189597  0.011781456            6 
 4714000   0.49461168   -8.2451367     746.9881  0.013205135  0.011777655            5 
 4715000    0.5028524   -8.2470956    746.95637  0.013201774   0.01177385            7 
 4716000   0.50366482   -8.2476018    745.47158  0.013172738   0.01177005            4 
 4717000   0.50588632   -8.2670822    746.08184  0.013180726  0.011766255            3 
 4718000   0.49385859   -8.2291281    746.88251  0.013192075  0.011762456            3 
 4719000   0.50200683   -8.2331427    746.79641  0.013187759  0.011758663            4 
 4720000   0.49569808   -8.2473503     745.7308  0.013166151  0.011754867            3 
 4721000   0.49857234   -8.2501307    746.39864  0.013175151  0.011751078            3 
 4722000   0.49080816   -8.2490854    745.37474  0.013154291   0.01174729            5 
 4723000   0.49275481   -8.2475211    747.47878   0.01318863  0.011743502            7 
 4724000   0.49705415   -8.2312406    745.90531  0.013158081  0.011739712            5 
 4725000    0.4809883   -8.2321383    746.74187  0.013170051  0.011735923            4 
 4726000   0.50928832   -8.2652233    746.35179  0.013160386  0.011732141            5 
 4727000   0.50264664   -8.2483478    746.81481  0.013165764  0.011728357            4 
 4728000   0.48922169   -8.2417248     746.3774   0.01315527  0.011724577            6 
 4729000   0.49643034    -8.256528     745.6389  0.013139475  0.011720794            6 
 4730000   0.49609923   -8.2675571    746.78087  0.013156816  0.011717012            3 
 4731000   0.48519463   -8.2428416    747.78088  0.013171649  0.011713235            5 
 4732000   0.49096107   -8.2491472    747.60933  0.013165845  0.011709464            5 
 4733000   0.48974098    -8.249558    745.83817  0.013131878   0.01170569            4 
 4734000   0.49335751   -8.2473303    746.55456  0.013141715  0.011701913            7 
 4735000   0.49303241   -8.2567353    746.04772   0.01313002  0.011698145            6 
 4736000   0.49664981   -8.2543435    745.02702  0.013109287   0.01169437            5 
 4737000   0.49341401   -8.2376104    745.52352  0.013115254    0.0116906            4 
 4738000   0.50080257   -8.2488476    744.91772  0.013101831  0.011686829            7 
 4739000    0.4916064   -8.2639887    745.62689  0.013111537  0.011683062            6 
 4740000   0.49512553   -8.2607514    746.90137  0.013131177  0.011679296            6 
 4741000   0.50296955   -8.2607186    746.26958  0.013117303  0.011675528            9 
 4742000   0.48120071   -8.2545377    745.65666  0.013103765  0.011671762            9 
 4743000   0.48445858   -8.2557519    745.40732  0.013096622  0.011667999            6 
 4744000    0.4958215   -8.2526117    745.99976  0.013104268  0.011664236            8 
 4745000   0.48702138    -8.245965    747.79622  0.013133056  0.011660476            8 
 4746000    0.4842999   -8.2572617    746.13405  0.013101104  0.011656721            5 
 4747000   0.49545407   -8.2528655    746.77804  0.013109649  0.011652967           10 
 4748000   0.49346428   -8.2664968    746.93884   0.01310971  0.011649211            5 
 4749000   0.48387503   -8.2412074    744.92033   0.01307153   0.01164546           11 
 4750000   0.48751051    -8.280932    745.34966   0.01307631  0.011641707            8 
 4751000    0.4867914   -8.2584879    746.36497  0.013091366  0.011637956            5 
 4752000   0.48772796   -8.2553173    746.49306  0.013090858  0.011634209            5 
 4753000   0.49743496   -8.2479803    745.99045  0.013079291  0.011630466           14 
 4754000    0.4819617   -8.2531727    745.50034  0.013067949   0.01162672            3 
 4755000   0.50292606   -8.2691946    744.73065  0.013051711  0.011622975            3 
 4756000   0.48753292   -8.2867771    745.93193  0.013070016  0.011619228           11 
 4757000   0.49317628   -8.2622854    745.46938  0.013059165  0.011615485            3 
 4758000   0.49030314   -8.2541721    746.01085  0.013065904  0.011611748            5 
 4759000   0.48875303   -8.2669297    745.36935  0.013051925   0.01160801            5 
 4760000   0.48926948   -8.2450041    745.05322  0.013043649  0.011604272            6 
 4761000   0.48976175   -8.2538525     747.0598  0.013076031  0.011600535            5 
 4762000   0.49802474   -8.2593697    745.51788  0.013046302  0.011596801            4 
 4763000   0.49384785   -8.2688521    746.28258  0.013056942  0.011593066            7 
 4764000   0.48973505   -8.2266239    747.38592  0.013073501  0.011589336            6 
 4765000   0.50050884   -8.2827105    746.09732  0.013048222  0.011585607            4 
 4766000   0.47840225     -8.25471    745.70115  0.013038557  0.011581876            4 
 4767000   0.48312982    -8.262972    745.18636  0.013026823  0.011578152            8 
 4768000    0.4885538   -8.2749852    745.99199  0.013038171  0.011574427            7 
 4769000   0.48878415   -8.2580797    745.94274  0.013034576  0.011570705            3 
 4770000   0.47478845   -8.2617273     745.9304  0.013031628  0.011566979            7 
 4771000   0.48506228   -8.2555478    745.75507  0.013025834  0.011563259            9 
 4772000   0.48522143   -8.2730283    746.43518  0.013034982  0.011559537            4 
 4773000   0.49616362    -8.263699    745.80439  0.013021237   0.01155582            4 
 4774000   0.48498583   -8.2757909    746.06847   0.01302312  0.011552105            6 
 4775000   0.48823347   -8.2717706     746.4121  0.013026389   0.01154839            6 
 4776000   0.47950341   -8.2686301    746.65762  0.013027946  0.011544682            6 
 4777000   0.49846931   -8.2520362    745.61976  0.013007113  0.011540971            4 
 4778000   0.48328118   -8.2622337    746.48906  0.013019552  0.011537263            6 
 4779000    0.4900193   -8.2618275    746.60941  0.013018927  0.011533554            9 
 4780000   0.48132045   -8.2516148    745.44875  0.012995969  0.011529842            3 
 4781000   0.47738617   -8.2670149    745.26489  0.012990046  0.011526135            2 
 4782000   0.50157304   -8.2692799    746.01283  0.013000363  0.011522433            9 
 4783000   0.48553877   -8.2632302    747.11431  0.013016836   0.01151873            7 
 4784000   0.48960316   -8.2742847    745.17543  0.012980341  0.011515027            5 
 4785000   0.48376024   -8.2536985    745.95032  0.012991124  0.011511327            4 
 4786000   0.48884212   -8.2612583    744.69842  0.012966611  0.011507625            5 
 4787000   0.48715322   -8.2775575    745.82936   0.01298359  0.011503922            4 
 4788000   0.48698871   -8.2557691    746.31053  0.012989253  0.011500225            7 
 4789000    0.4796681   -8.2647028    744.82231  0.012960644  0.011496529            5 
 4790000   0.49287232   -8.2786143    746.18384  0.012981626  0.011492832            6 
 4791000   0.48000112   -8.2698784    745.52566  0.012967468   0.01148914            6 
 4792000   0.48539331   -8.2731743    744.97162  0.012955127  0.011485448            3 
 4793000   0.48750785   -8.2768402    744.76373   0.01294881  0.011481755            3 
 4794000   0.48255324   -8.2701855      745.924  0.012966277  0.011478067            7 
 4795000   0.48179988   -8.2809339    746.54369  0.012974343  0.011474382            8 
 4796000    0.4824881   -8.2801109     745.3903  0.012951597  0.011470696            4 
 4797000   0.47644816   -8.2624427    744.84741  0.012939466  0.011467012            5 
 4798000   0.47509175   -8.2556636    745.41673  0.012946657  0.011463332            7 
 4799000   0.49136261   -8.2685251    745.68587  0.012948633  0.011459652            5 
 4800000   0.50289037   -8.2736725    744.36047  0.012922925  0.011455969           10 
 4801000   0.47851173   -8.2738656    745.41871  0.012938602  0.011452287            4 
 4802000   0.48912137   -8.2585796    745.89646  0.012944198  0.011448611            7 
 4803000   0.49377658   -8.2880502    744.88552  0.012923963  0.011444936            4 
 4804000   0.48657369   -8.2668948     744.5655  0.012915721  0.011441259            5 
 4805000   0.48208847   -8.2732672    745.28144   0.01292545  0.011437585            6 
 4806000   0.48034432   -8.2680579     747.0946    0.0129542  0.011433911            4 
 4807000   0.49512692   -8.2646146    745.41848  0.012922448  0.011430241            6 
 4808000    0.4734718    -8.271095      745.753  0.012925558  0.011426571            8 
 4809000   0.48646567   -8.2672139    745.83541  0.012924298  0.011422905            8 
 4810000   0.47439394   -8.2611593    745.47494  0.012915366   0.01141924            4 
 4811000   0.48784657    -8.275978    745.88873  0.012919849  0.011415579            4 
 4812000   0.47901806    -8.273301    745.41743  0.012909002  0.011411916            7 
 4813000   0.47970352   -8.2719759    745.15724  0.012901815  0.011408252            5 
 4814000   0.48374419    -8.267269    746.14128  0.012916169  0.011404594            5 
 4815000   0.47658444   -8.2692289    745.52346  0.012902794  0.011400937            5 
 4816000   0.48851336   -8.2769462    745.16563  0.012893924   0.01139728            4 
 4817000   0.48414167   -8.2726358    745.36335  0.012894667  0.011393625            7 
 4818000   0.48844968   -8.2593424    746.37133  0.012909425  0.011389975            7 
 4819000    0.4866788   -8.2662532    745.90187  0.012898628  0.011386324            8 
 4820000   0.47344064   -8.2722041    745.40144    0.0128873  0.011382673            3 
 4821000   0.48542295   -8.2652917     747.1736   0.01291526  0.011379025            6 
 4822000   0.48112897   -8.2658337    745.31409  0.012880445  0.011375376            6 
 4823000   0.47848837   -8.2799744    745.53609   0.01288161  0.011371729            5 
 4824000   0.48776036    -8.262191    744.73369  0.012865079  0.011368085            4 
 4825000   0.47651966    -8.272879    745.43794  0.012874576  0.011364444            4 
 4826000   0.48152356   -8.2663316    745.95248  0.012880793  0.011360805            9 
 4827000   0.48702779   -8.2648807    745.83227  0.012876049  0.011357163            7 
 4828000   0.47535674   -8.2748634    745.22779  0.012862949  0.011353524            5 
 4829000   0.48056914   -8.2825505    744.96842  0.012855809  0.011349886            6 
 4830000   0.48307075   -8.2808928    746.29031  0.012875954   0.01134625            4 
 4831000   0.47330357   -8.2936066    745.57321  0.012860919  0.011342616            5 
 4832000   0.47319063   -8.2739548    744.45771   0.01283902   0.01133898            6 
 4833000   0.48769803    -8.287001    745.95916  0.012862252   0.01133535            2 
 4834000   0.48039097   -8.2825042    745.45548  0.012850908  0.011331722            5 
 4835000   0.48065541   -8.2834368    746.35024  0.012863672  0.011328094            8 
 4836000    0.4691664   -8.2919569    744.34389  0.012826439  0.011324465            4 
 4837000   0.47030869   -8.2791892    746.09317  0.012853924   0.01132084            6 
 4838000   0.48062311   -8.2798299    745.17522  0.012835456  0.011317216            3 
 4839000   0.47199717    -8.292356    745.35281  0.012835862  0.011313592            3 
 4840000   0.47460412   -8.2906707    745.01355  0.012827368  0.011309967            3 
 4841000   0.46392164   -8.2784628    746.37635  0.012848178  0.011306346            6 
 4842000   0.47973587   -8.2862157    745.38815  0.012828517  0.011302725            5 
 4843000   0.47443887   -8.2920013    743.98615  0.012801744  0.011299103            4 
 4844000   0.48763913   -8.2902875    745.56065  0.012826188  0.011295484            3 
 4845000   0.47555154   -8.2709368    745.62245  0.012824604  0.011291866            9 
 4846000   0.48006826   -8.2877394    745.78518  0.012824755   0.01128825           10 
 4847000   0.47330269   -8.2905857    744.46728  0.012799451  0.011284636            6 
 4848000   0.47850112   -8.2829054    744.27256  0.012793464  0.011281021            8 
 4849000   0.46887445   -8.2642017    745.85879  0.012818086  0.011277411            5 
 4850000   0.47047725   -8.2784555     745.5227  0.012809668  0.011273802            4 
 4851000   0.47423725   -8.2759474    745.73569  0.012810687  0.011270193            5 
 4852000   0.48422724   -8.2832433    746.41793  0.012819764  0.011266585            8 
 4853000   0.47160011   -8.2748539    744.89474  0.012790967   0.01126298            7 
 4854000   0.46954168    -8.290714       745.05  0.012790997  0.011259374            5 
 4855000   0.47480033   -8.2796882    744.79285  0.012783949  0.011255773            4 
 4856000   0.46753459   -8.2947127     744.5853  0.012777754   0.01125217            8 
 4857000   0.47208361   -8.2881826    744.10881  0.012766948  0.011248568            6 
 4858000   0.47651983   -8.2871691    745.40944  0.012786631  0.011244968            7 
 4859000   0.47833549   -8.2818108    745.18697  0.012780184  0.011241369            4 
 4860000   0.47594936   -8.2797606     745.0964  0.012776001   0.01123777            7 
 4861000   0.47017761    -8.275329     744.9431  0.012770745  0.011234175            4 
 4862000   0.47873387    -8.286036    744.20568  0.012755479   0.01123058            8 
 4863000   0.46674428   -8.2771977    744.37321  0.012755727  0.011226988            6 
 4864000   0.46871416   -8.3004287    744.70893  0.012758856  0.011223396            4 
 4865000   0.46461819   -8.2847073    745.72131  0.012773575  0.011219805            5 
 4866000   0.46541829   -8.3032166    744.79898  0.012755154  0.011216218            6 
 4867000   0.46563761    -8.276368    745.32578  0.012761554  0.011212632            6 
 4868000    0.4762399   -8.2877057    745.73337   0.01276591  0.011209052            4 
 4869000    0.4866732   -8.2894759      745.214  0.012754399  0.011205471            7 
 4870000   0.47913652   -8.2895248    744.94862  0.012747239  0.011201892            7 
 4871000   0.48372123   -8.2679819    744.84636  0.012742872  0.011198314            4 
 4872000    0.4704748   -8.2906225    745.55982   0.01275246  0.011194737            7 
 4873000   0.46473196   -8.2846205    746.05478  0.012758307   0.01119116            6 
 4874000   0.48160703   -8.2933681    744.31802  0.012725995  0.011187587            4 
 4875000   0.46573677    -8.289418    744.53614  0.012727113  0.011184013            6 
 4876000   0.46483205   -8.2983315    746.39209  0.012756223  0.011180441            7 
 4877000    0.4649091   -8.2799955    745.83001  0.012744003  0.011176873            4 
 4878000   0.47025918   -8.2814434    743.77087  0.012706213  0.011173306            4 
 4879000   0.47117888   -8.2773718    745.73276  0.012737118  0.011169741            4 
 4880000   0.46846589   -8.2888452    746.66711  0.012750463  0.011166179            3 
 4881000   0.46347087   -8.2895815    744.57985  0.012712215  0.011162619            3 
 4882000   0.46816983   -8.2706636    744.43745   0.01270718  0.011159059            4 
 4883000   0.45788431   -8.3117479    745.63172  0.012724959  0.011155498            3 
 4884000   0.47763583   -8.2961836    744.24849  0.012698753  0.011151938            2 
 4885000   0.47486632   -8.2815438    745.33597  0.012714704   0.01114838            4 
 4886000   0.47097637   -8.2876838    745.08373    0.0127078  0.011144826            7 
 4887000    0.4597228   -8.2853978    743.99329  0.012686605  0.011141273            6 
 4888000   0.46920541   -8.2806827    745.16291   0.01270395  0.011137719            6 
 4889000   0.46875673   -8.2855931    745.19785  0.012701947  0.011134164            6 
 4890000   0.47271575   -8.2818034    744.54005   0.01268814  0.011130613            6 
 4891000   0.47234061   -8.2954287    745.85632  0.012707972  0.011127068            3 
 4892000   0.47778507   -8.2819565    745.05444  0.012691715  0.011123519            3 
 4893000   0.46068221    -8.290668     745.0903  0.012689732  0.011119973            4 
 4894000   0.48021445   -8.2989261    745.42078  0.012692766  0.011116427            5 
 4895000   0.46639301   -8.2916226    745.48592  0.012691282  0.011112882            5 
 4896000   0.47860301   -8.2995085    745.35347  0.012686436  0.011109339            4 
 4897000   0.46300276   -8.2969313    744.95193  0.012677012  0.011105797            4 
 4898000   0.47777324   -8.2921759    743.87977  0.012656182  0.011102256            6 
 4899000   0.47070733   -8.2973305    744.78064  0.012668923  0.011098715            4 
 4900000    0.4651947   -8.2906233    743.88972  0.012651186  0.011095175            6 
 4901000   0.46777093   -8.2880201    744.95404  0.012666701  0.011091638            2 
 4902000   0.46916428   -8.3021825    745.10014  0.012666601  0.011088102            6 
 4903000   0.46518514   -8.2854395    745.15509  0.012664952  0.011084571            4 
 4904000   0.46137921   -8.2861328    744.34199  0.012648552   0.01108104            3 
 4905000    0.4631296   -8.2817846    745.73708  0.012669675  0.011077506            4 
 4906000   0.47023575   -8.2895869    744.26909  0.012642157  0.011073977            4 
 4907000      0.46771   -8.3081122    746.00086  0.012668991  0.011070447            2 
 4908000   0.45836986   -8.2843493    745.35602  0.012655461  0.011066919           11 
 4909000   0.46911197   -8.2944984    744.53096  0.012638877  0.011063395            2 
 4910000   0.46037845   -8.3002925    744.16085  0.012630021  0.011059869            3 
 4911000   0.46807012   -8.2937048    743.19676   0.01261109  0.011056344            8 
 4912000   0.46413174   -8.2989612    746.20199  0.012659507  0.011052824            8 
 4913000   0.45730552   -8.2825455    744.50957  0.012628224  0.011049302            4 
 4914000   0.46411739   -8.2952515     744.6217  0.012627556  0.011045783            3 
 4915000   0.46267476   -8.3242249    744.18896  0.012617649  0.011042263            3 
 4916000   0.46484744   -8.3142417    746.00451  0.012645859  0.011038746            3 
 4917000   0.46465083    -8.294529    744.21803   0.01261301  0.011035231            3 
 4918000    0.4685641   -8.2895384    744.61593  0.012617187  0.011031718            5 
 4919000   0.45851241   -8.3063291    745.24167  0.012625223  0.011028206            3 
 4920000    0.4622724   -8.3013908    744.71265  0.012613697  0.011024694            3 
 4921000   0.46412607   -8.2984877    743.91104  0.012597559  0.011021185            3 
 4922000   0.46189931   -8.3034083    744.40814  0.012603416  0.011017675            4 
 4923000    0.4696018   -8.3032872     745.6238  0.012621433   0.01101417            5 
 4924000   0.46548729   -8.3018513    744.34655  0.012597254  0.011010663            3 
 4925000   0.46118264   -8.2909872    743.44796  0.012579492  0.011007159            3 
 4926000   0.47375679   -8.3009711    744.79235  0.012599681  0.011003655            4 
 4927000   0.45456889    -8.310433    744.62436  0.012594282  0.011000153           10 
 4928000   0.46015658   -8.2995107    743.92262   0.01257986  0.010996651            4 
 4929000   0.46212138   -8.2885906     743.5362  0.012570775   0.01099315            3 
 4930000   0.46002271   -8.2899752    744.35777  0.012582112  0.010989653            4 
 4931000   0.45329215   -8.2915655    744.54689  0.012582757  0.010986157            5 
 4932000   0.47055395    -8.290492    744.05922  0.012571966  0.010982661            5 
 4933000    0.4658116   -8.2937802    744.80076  0.012581944  0.010979169            5 
 4934000   0.46091784   -8.3185377    745.23662  0.012586755  0.010975675            5 
 4935000   0.46025338   -8.2961721    744.30258  0.012568433  0.010972183            7 
 4936000   0.45894353   -8.2985053    744.42257  0.012567912  0.010968694            5 
 4937000    0.4616572   -8.3072946      744.958  0.012574404  0.010965208            4 
 4938000   0.47656357   -8.2897101    744.63854  0.012566466  0.010961721            6 
 4939000   0.45008877   -8.2885543    745.07719  0.012571323  0.010958236            5 
 4940000   0.46708823   -8.3001581    743.95484  0.012549846  0.010954752            5 
 4941000   0.46261753   -8.3047119    744.88376  0.012562972  0.010951269            3 
 4942000   0.47139978   -8.2954511    744.47599  0.012553554   0.01094779            4 
 4943000   0.46691906   -8.3009728    744.14946   0.01254551  0.010944309            5 
 4944000   0.46841341   -8.2964148    744.66444  0.012551653  0.010940831            2 
 4945000   0.46550197   -8.2890984    742.98452  0.012520804  0.010937352            3 
 4946000   0.45179944   -8.3009133    745.02292  0.012552617  0.010933876            4 
 4947000   0.45180043   -8.2896663    744.83741  0.012546955  0.010930401            2 
 4948000   0.46772446   -8.3045777     745.0153  0.012547415  0.010926929            4 
 4949000   0.45965844   -8.3002611    744.40973  0.012534683  0.010923458            5 
 4950000   0.47692371   -8.3017592    745.12114  0.012544127  0.010919986            3 
 4951000   0.46028569   -8.3003864    744.55732  0.012532103  0.010916517            4 
 4952000   0.45379503   -8.3049475    743.93396  0.012519082  0.010913049            2 
 4953000   0.45455269     -8.29977    744.50412  0.012526148  0.010909581            4 
 4954000    0.4598916    -8.308214    744.01385  0.012515372  0.010906115            2 
 4955000   0.45151732   -8.3102103    744.92466  0.012528165  0.010902651            4 
 4956000   0.45599742   -8.2917742    744.21157  0.012513646  0.010899189            4 
 4957000   0.46041778   -8.3138463    744.52471  0.012516386  0.010895727            4 
 4958000   0.46051194   -8.3033969    743.56036  0.012497653  0.010892265            3 
 4959000   0.45449239   -8.3043541    744.46603  0.012510352  0.010888804            5 
 4960000   0.46482081   -8.3103445    745.04844  0.012517615  0.010885348            3 
 4961000   0.46682742   -8.3209065    744.37649  0.012503805   0.01088189            5 
 4962000   0.45528903   -8.3015164    744.12594  0.012497077  0.010878435            5 
 4963000   0.45936503   -8.3079179    744.35485  0.012498402  0.010874982            6 
 4964000   0.46823883   -8.2894997    743.79784  0.012486534  0.010871532            3 
 4965000   0.45474765   -8.2978637    744.12798   0.01248956  0.010868084            4 
 4966000     0.452573   -8.3154283     743.7481   0.01248067  0.010864636            8 
 4967000   0.45396616   -8.3008912    744.88235  0.012497187  0.010861187            2 
 4968000   0.45892629   -8.3117916    743.94967  0.012479027  0.010857741            2 
 4969000   0.45205952   -8.3133674    745.34839  0.012499973  0.010854295            3 
 4970000   0.45395429    -8.305877    743.45503  0.012465711  0.010850852            3 
 4971000   0.46854502    -8.317858      744.252  0.012476564  0.010847409            3 
 4972000   0.44798559   -8.3028234    745.32841  0.012492096  0.010843967            6 
 4973000   0.45671288   -8.3148889    743.81994  0.012464306  0.010840528            4 
 4974000   0.45963717   -8.3232043    744.21697  0.012468452  0.010837089            4 
 4975000    0.4613791   -8.3079945    743.80438  0.012459035  0.010833649            4 
 4976000   0.45459469   -8.3129633    744.44106  0.012467193  0.010830214            5 
 4977000   0.45356033   -8.3134195    743.49696  0.012448881  0.010826778            4 
 4978000   0.46094417   -8.3032585    743.79683    0.0124514  0.010823344            3 
 4979000   0.46417831   -8.3132546    744.01609  0.012452569  0.010819908            4 
 4980000   0.45017936   -8.3136578    743.48519  0.012441184  0.010816477            4 
 4981000   0.45413395   -8.3050687    743.39764  0.012437222  0.010813045            3 
 4982000   0.46239131   -8.3302452    743.94274  0.012443843  0.010809616            3 
 4983000   0.45746146   -8.3131471    745.05501  0.012459947  0.010806188            5 
 4984000    0.4559827   -8.3177739    744.15062  0.012442326  0.010802759            5 
 4985000   0.47517318    -8.306196    744.21758  0.012440949  0.010799334            6 
 4986000    0.4537801   -8.3083509    743.63028  0.012428638  0.010795912            5 
 4987000   0.46108201   -8.3119543    743.29537   0.01242055  0.010792487            3 
 4988000   0.45231063   -8.3101518    744.57607  0.012439456  0.010789064            4 
 4989000   0.44077297   -8.3123626    744.37682  0.012433634  0.010785645            3 
 4990000   0.45688238   -8.3235811    743.65556  0.012419098  0.010782226            5 
 4991000   0.46267716   -8.3177033    743.85274  0.012419902  0.010778808            4 
 4992000   0.45484523   -8.3157886    744.14439  0.012422282  0.010775394            4 
 4993000   0.45306747   -8.3009381    744.92096  0.012432755  0.010771981            4 
 4994000   0.45656155   -8.3287306     744.2757  0.012419498  0.010768568            3 
 4995000   0.44486676   -8.3199226    744.30259  0.012417461  0.010765158            4 
 4996000   0.44963047   -8.3268293    743.07381  0.012394479  0.010761745            2 
 4997000   0.44744878   -8.3213996    744.04762  0.012408239  0.010758335            3 
 4998000   0.45109237   -8.3260235    743.57695  0.012397908  0.010754926            4 
 4999000   0.45864069   -8.3173537    744.22881  0.012406295  0.010751519            7 
 5000000   0.44633913   -8.3101813    745.07598  0.012417933  0.010748115            4 
 5001000   0.45278814   -8.2935673    743.70856  0.012392664  0.010744713            5 
 5002000   0.44326172   -8.3114541    744.43367  0.012402267  0.010741309            4 
 5003000   0.44683456   -8.3194799    744.22671  0.012396341  0.010737907            6 
 5004000   0.45278549   -8.3159414     744.0693  0.012391242  0.010734505            5 
 5005000   0.44922645   -8.3342668     743.9356   0.01238654  0.010731104            4 
 5006000   0.44863107   -8.3310231    744.61541  0.012395382  0.010727706            3 
 5007000   0.44961325   -8.3290271    743.47022  0.012373847   0.01072431            6 
 5008000   0.44940374   -8.3138978     743.9739  0.012379757  0.010720915            7 
 5009000   0.45814105   -8.3334594    744.05843  0.012378692  0.010717519            4 
 5010000   0.44727492   -8.3298115    743.97494  0.012374833  0.010714125            3 
 5011000   0.44750535   -8.3285509     743.9399   0.01237178  0.010710735            3 
 5012000   0.45113241   -8.3123472    742.96772  0.012353148  0.010707344            3 
Loop time of 11628.6 on 48 procs for 5000000 steps with 4000 atoms

Performance: 74299.675 tau/day, 429.975 timesteps/s
99.4% CPU use with 48 MPI tasks x no OpenMP threads

MPI task timing breakdown:
Section |  min time  |  avg time  |  max time  |%varavg| %total
---------------------------------------------------------------
Pair    | 735.79     | 785.82     | 856.67     |  94.6 |  6.76
Neigh   | 74.457     | 77.891     | 88.804     |  25.2 |  0.67
Comm    | 693.92     | 768.43     | 830.14     | 110.0 |  6.61
Output  | 13.436     | 13.44      | 13.527     |   0.3 |  0.12
Modify  | 9852.8     | 9876.1     | 9901       |  10.8 | 84.93
Other   |            | 106.9      |            |       |  0.92

Nlocal:        83.3333 ave          93 max          78 min
Histogram: 5 1 14 8 9 4 4 0 2 1
Nghost:        1957.04 ave        1980 max        1925 min
Histogram: 1 0 5 5 6 6 11 5 6 3
Neighs:        12458.9 ave       14648 max       11301 min
Histogram: 5 6 9 10 10 4 1 1 1 1
FullNghs:      24918.4 ave       28102 max       23281 min
Histogram: 4 9 7 11 7 7 0 1 1 1

Total # of neighbors = 1196082
Ave neighs/atom = 299.02050
Neighbor list builds = 268518
Dangerous builds = 1

#clear
#
#next RN
#
#jump SELF
Total wall time: 3:13:51
