
units lj                  # Use reduced LJ style units
atom_style atomic         # Uncharged point particles
atom_modify map hash      # Needed for indexing of clusters etc
                          # Used to be able to find where atoms are in relation to each other.

lattice fcc 1.0 spacing 1 1 1
Lattice spacing in x,y,z = 1.5874011 1.5874011 1.5874011
region box block 0 10 0 10 0 10 units lattice
create_box 2 box
Created orthogonal box = (0.0000000 0.0000000 0.0000000) to (15.874011 15.874011 15.874011)
  3 by 4 by 4 MPI processor grid
create_atoms 1 box
Created 4000 atoms
  using lattice units in orthogonal box = (0.0000000 0.0000000 0.0000000) to (15.874011 15.874011 15.874011)
  create_atoms CPU = 0.003 seconds
set type 1 type/fraction 2 0.09 78393
Setting atom values ...
  390 settings made for type/fraction
mass 1 1.0
mass 2 1.0
pair_style lj/cut  3.5
pair_modify tail  yes
pair_coeff 1  1  1.0  1.0   # Intearaction between 1 and 1 set with epsilon = 1 and sigma = 1
pair_coeff 1  2  1.5  0.8
pair_coeff 2  2  0.5  0.88

write_data data.0
System init for write_data ...
Neighbor list info ...
  update every 1 steps, delay 10 steps, check yes
  max neighbors/atom: 2000, page size: 100000
  master list distance cutoff = 3.8
  ghost atom cutoff = 3.8
  binsize = 1.9, bins = 9 9 9
  1 neighbor lists, perpetual/occasional/extra = 1 0 0
  (1) pair lj/cut, perpetual
      attributes: half, newton on
      pair build: half/bin/atomonly/newton
      stencil: half/bin/3d
      bin: standard
WARNING: Not all mixed pair coeffs generated from mixing. Use write_data with 'pair ij' option to store all pair coeffs. (../write_data.cpp:312)


#############################
#   M E L T   S Y S T E M   #
#############################

velocity all create 2.4 3143649 mom yes dist gaussian # Assign velocities
                                                    # Temperature 2.4, random number seed, zero linear momentum
                                                                                # Gaussian distribution

timestep 0.002   # simulation timestep
thermo 1000       # output thermodynamic data every 1000 steps bf 100

# Define a fix  in this case with index 1 applied to all
# particles in the simulation. This fix is for simulations
# in the anisotropic NPT ensemble. Note that we use the MTK
# correction.
fix 1 all npt temp 2.4 2.4 0.1 iso 5.68 5.68 0.5 mtk yes tchain 5 pchain 5 # Use NPT ensemble
                                                                         # Set temperature and pressure and damping
                                                                         # Numbers of thermostats in chain and in barostat
run 10000          # run for 10000 steps
Per MPI rank memory allocation (min/avg/max) = 3.642 | 3.644 | 3.648 Mbytes
Step Temp E_pair E_mol TotEng Press Volume 
       0          2.4   -7.7460071            0   -4.1469071   -2.9736732         4000 
    1000    2.3944304   -4.6005127            0    -1.009765    5.6227589    4867.7365 
    2000    2.3982297   -4.5905072            0    -0.994062    5.5010439    4891.1566 
    3000    2.4094582   -4.5252486            0  -0.91196476    5.6749961    4907.3366 
    4000     2.373916   -4.6109929            0   -1.0510091    5.6744426    4852.3721 
    5000    2.3952845   -4.6214792            0   -1.0294508    5.8120936    4830.8718 
    6000     2.406921   -4.5676341            0  -0.95815523    6.0778121    4845.1421 
    7000    2.4095389   -4.6146583            0   -1.0012535    5.9197257    4820.0097 
    8000    2.3862567   -4.5715072            0  -0.99301697    5.6246982    4880.8026 
    9000    2.4050904    -4.569082            0  -0.96234835    5.8244168    4871.0563 
   10000    2.3992791   -4.5936912            0  -0.99567231     5.721184    4860.3896 
Loop time of 2.18794 on 48 procs for 10000 steps with 4000 atoms

Performance: 789783.257 tau/day, 4570.505 timesteps/s
99.6% CPU use with 48 MPI tasks x no OpenMP threads

MPI task timing breakdown:
Section |  min time  |  avg time  |  max time  |%varavg| %total
---------------------------------------------------------------
Pair    | 0.88874    | 0.95596    | 1.0947     |   3.9 | 43.69
Neigh   | 0.18887    | 0.19659    | 0.21896    |   1.3 |  8.99
Comm    | 0.64566    | 0.77626    | 0.85602    |   5.8 | 35.48
Output  | 0.00024042 | 0.00024461 | 0.0003074  |   0.0 |  0.01
Modify  | 0.20091    | 0.24443    | 0.28601    |   5.4 | 11.17
Other   |            | 0.01446    |            |       |  0.66

Nlocal:        83.3333 ave          93 max          75 min
Histogram: 2 5 6 8 6 8 5 4 3 1
Nghost:        1441.90 ave        1467 max        1422 min
Histogram: 4 3 6 5 10 7 9 2 0 2
Neighs:        7831.77 ave        9276 max        6910 min
Histogram: 2 9 8 7 11 3 2 5 0 1

Total # of neighbors = 375925
Ave neighs/atom = 93.981250
Neighbor list builds = 903
Dangerous builds = 179

# Equilibrate just above the melting temperature to avoid step fn in T

fix 1 all npt temp 1.25 1.25 0.1 iso 5.68 5.68 0.5 mtk yes tchain 5 pchain 5
run 2000
Per MPI rank memory allocation (min/avg/max) = 3.642 | 3.644 | 3.648 Mbytes
Step Temp E_pair E_mol TotEng Press Volume 
   10000    2.3992791   -4.5936912            0  -0.99567231     5.721184    4860.3896 
   11000    1.2431809   -6.1822892            0   -4.3179841    5.8304103    4002.1547 
   12000    1.2419728    -6.155524            0   -4.2930306    5.8907353    4001.9223 
Loop time of 0.47748 on 48 procs for 2000 steps with 4000 atoms

Performance: 723800.138 tau/day, 4188.658 timesteps/s
99.7% CPU use with 48 MPI tasks x no OpenMP threads

MPI task timing breakdown:
Section |  min time  |  avg time  |  max time  |%varavg| %total
---------------------------------------------------------------
Pair    | 0.19771    | 0.22156    | 0.25996    |   2.3 | 46.40
Neigh   | 0.030789   | 0.0327     | 0.036728   |   0.6 |  6.85
Comm    | 0.12906    | 0.16706    | 0.19431    |   3.4 | 34.99
Output  | 4.7642e-05 | 4.8956e-05 | 6.1793e-05 |   0.0 |  0.01
Modify  | 0.03987    | 0.05184    | 0.069876   |   3.8 | 10.86
Other   |            | 0.004268   |            |       |  0.89

Nlocal:        83.3333 ave          90 max          76 min
Histogram: 4 0 5 7 7 7 2 9 4 3
Nghost:        1635.48 ave        1660 max        1622 min
Histogram: 6 8 4 9 10 7 1 1 1 1
Neighs:        9531.94 ave       10421 max        8584 min
Histogram: 2 3 8 5 6 6 6 2 4 6

Total # of neighbors = 457533
Ave neighs/atom = 114.38325
Neighbor list builds = 142
Dangerous builds = 9

#############################
# L I N E A R  Q U E N C H  #
#############################

# Define solid atoms. This closely follows ten Wolde  Ruiz-Montero and Frenkel  Faraday Discuss  1996  104  93-110
# Compute components of the per-atom q6 vector
compute q6 all orientorder/atom degrees 1 6 components 6 nnn NULL cutoff 1.3 # compute the Q6 parameter.
                                                                             # Use all neighbours within 1.3 unit cell.

# get number of connections
compute coord_number all coord/atom orientorder q6 0.5

# An atom is solid if it has 8 or more connections (of a possible 14)
variable is_solid atom c_coord_number>=8
group solid dynamic all var is_solid    # Must be dynamic to update
dynamic group solid defined

# do clustering
compute cluster solid cluster/atom 1.3 # Create a cluster where all atoms within are solid and max 1.3 units from another member

# define chunks one chunk per cluster
compute clus_chunks solid chunk/atom c_cluster nchunk every compress yes  # Says which atoms are in which chunk

# count the size of each chunk
compute size_chunks solid property/chunk clus_chunks count


# Find the maximum entry in the vector of chunk sizes
variable max_n equal max(c_size_chunks)


# Thermo style which includes this variable
# thermo_style custom step temp pe vol v_max_n

thermo ${N}  # Print the thermo information every 100 steps
thermo 1000  

# Reset the npt fix at a lower temperature (below freezing)
fix 1  all npt temp  ${temp} ${temp}  0.1  iso  5.68  5.68  0.5  mtk yes tchain  5  pchain  5
fix 1  all npt temp  0.45 ${temp}  0.1  iso  5.68  5.68  0.5  mtk yes tchain  5  pchain  5
fix 1  all npt temp  0.45 0.45  0.1  iso  5.68  5.68  0.5  mtk yes tchain  5  pchain  5

dump dmp2 all dcd ${N} traj.dcd
dump dmp2 all dcd 1000 traj.dcd


compute msd all msd com yes
variable twopoint equal c_msd[4]/6/(step*dt+1.0e-6)
fix 9 all vector 10 c_msd[4]
variable fit equal slope(f_9)/6/(10*dt)
thermo_style custom step temp pe c_msd[4] v_twopoint v_fit v_max_n

fix 1 all npt temp 1.25 ${temp} 0.1 iso 5.68 5.68 0.5 mtk yes tchain 5 pchain 5
fix 1 all npt temp 1.25 0.45 0.1 iso 5.68 5.68 0.5 mtk yes tchain 5 pchain 5
run 500000 # 5000000  # Run for this many steps
Neighbor list info ...
  update every 1 steps, delay 10 steps, check yes
  max neighbors/atom: 2000, page size: 100000
  master list distance cutoff = 3.8
  ghost atom cutoff = 3.8
  binsize = 1.9, bins = 9 9 9
  4 neighbor lists, perpetual/occasional/extra = 1 3 0
  (1) pair lj/cut, perpetual
      attributes: half, newton on
      pair build: half/bin/atomonly/newton
      stencil: half/bin/3d
      bin: standard
  (2) compute orientorder/atom, occasional
      attributes: full, newton on
      pair build: full/bin/atomonly
      stencil: full/bin/3d
      bin: standard
  (3) compute coord/atom, occasional
      attributes: full, newton on
      pair build: full/bin/atomonly
      stencil: full/bin/3d
      bin: standard
  (4) compute cluster/atom, occasional
      attributes: full, newton on
      pair build: full/bin/atomonly
      stencil: full/bin/3d
      bin: standard
Per MPI rank memory allocation (min/avg/max) = 9.748 | 9.753 | 9.756 Mbytes
Step Temp PotEng c_msd[4] v_twopoint v_fit v_max_n 
   12000    1.2419728    -6.155524 4.6132586e-30 3.2036517e-32 8.3333333e+20            3 
   13000    1.2692839   -6.1662247   0.57909693 0.0037121597  0.047766163            2 
   14000    1.2259704    -6.214755    1.1172128  0.006650076  0.046372377           11 
   15000    1.2248379    -6.185937    1.6471253 0.0091506958  0.045540999            3 
   16000    1.2375267   -6.1958245    2.1675979  0.011289572  0.045421466            2 
   17000    1.2379881   -6.2051346    2.6452509  0.012966916  0.044090239            2 
   18000    1.2362772   -6.2103826     3.119781   0.01444343  0.043098498            3 
   19000    1.2456995   -6.2087051    3.6152873  0.015856523  0.042413012            3 
   20000    1.2643774   -6.1906971    4.1328858  0.017220357  0.042262376            2 
   21000    1.2401836   -6.1878494    4.6455444  0.018434699  0.042126724            2 
   22000    1.2420328   -6.2114735    5.1394976  0.019467794  0.042199488            2 
   23000    1.2295142   -6.2101456    5.6263254  0.020385236  0.042200658            2 
   24000    1.2652372   -6.1951186    6.1384535  0.021314074  0.042072816            1 
   25000    1.2242398   -6.2281364    6.6541957  0.022180652  0.042024353            3 
   26000    1.2209931   -6.2161968    7.1602918  0.022949653  0.042070443            1 
   27000    1.2384084   -6.2274287    7.6229608  0.023527656  0.041957948            1 
   28000    1.2181066   -6.2196978    8.0733709  0.024027889  0.041895804            2 
   29000    1.2302993    -6.205574    8.5837334    0.0246659  0.041777831            1 
   30000    1.2410121   -6.2163303    9.0923834   0.02525662  0.041699748            2 
   31000    1.2248529   -6.2514363    9.5621321  0.025704656  0.041634405            5 
   32000    1.2098621   -6.2083964    9.9888857  0.026012723  0.041509565            1 
   33000    1.2353378   -6.2021103    10.404121  0.026273032  0.041350525            2 
   34000    1.2100571   -6.2517911    10.983083   0.02691932  0.041234034            5 
   35000    1.2092602   -6.2281707    11.483084  0.027340676  0.041175376            2 
   36000    1.2142207   -6.2349337     11.94828  0.027658056  0.041071192            1 
   37000    1.2250144   -6.2683961    12.466132  0.028076874   0.04101739            2 
   38000    1.1906806   -6.2421577    12.980788  0.028466641  0.040990941            3 
   39000    1.2020479   -6.2268752    13.546944  0.028946461   0.04099495            2 
   40000    1.1762146   -6.2381042    13.981099  0.029127289  0.041023574            5 
   41000     1.194453   -6.2530195    14.524461  0.029521262  0.041047657            2 
   42000    1.2096245   -6.2751246    15.122512  0.030004984  0.041082732            5 
   43000    1.2195581   -6.2907419     15.43577  0.029914282  0.041125314            1 
   44000    1.1665114   -6.2832738    15.975501   0.03025663  0.041144819            3 
   45000    1.1840611   -6.2541981    16.388886  0.030349789  0.041124415            2 
   46000     1.215736   -6.2436907    16.908317  0.030631009  0.041106404            1 
   47000    1.1547482   -6.2524521     17.54893  0.031115123  0.041115055            3 
   48000    1.1929107   -6.2601067    18.023083  0.031290074   0.04115682            8 
   49000    1.1792948   -6.2703867    18.605938  0.031642752  0.041209913            1 
   50000    1.2090918   -6.2885219     19.03177  0.031719616  0.041232179            1 
   51000    1.1987279   -6.3342552     19.52589  0.031905049  0.041257751            2 
   52000    1.1600854   -6.2715939    20.021674  0.032086016  0.041268992            2 
   53000    1.1720278   -6.2910743    20.275314  0.031879425  0.041257704            4 
   54000    1.1736124   -6.3179608    20.630241  0.031836791  0.041187704            6 
   55000    1.1910728    -6.310693    21.184521  0.032097759  0.041133911            3 
   56000    1.1860146    -6.302864    21.447733  0.031916269  0.041046481            3 
   57000    1.1620815   -6.2860477    21.882449  0.031991885  0.040949253            2 
   58000    1.1737353   -6.2746142    22.246726  0.031963687  0.040845544            2 
   59000     1.183719    -6.329273    22.754965  0.032139781  0.040742882            2 
   60000    1.1642218   -6.3204321    23.192147  0.032211314  0.040636918            4 
   61000    1.1661174   -6.3079998    23.624599  0.032274042  0.040531316            5 
   62000    1.1865278   -6.3244662     23.93654  0.032172768  0.040423628            2 
   63000    1.1785985   -6.2765886    24.563625  0.032491568  0.040316724            2 
   64000    1.1913384   -6.2902217    24.964651  0.032506056  0.040221223            2 
   65000    1.1804055   -6.3156587    25.350995  0.032501275  0.040117715            2 
   66000    1.1415022   -6.3459922    25.753446  0.032516976  0.040023161            2 
   67000    1.1751848   -6.3013105    26.154829  0.032530881  0.039917573            4 
   68000     1.152896   -6.3661751    26.711646  0.032734861  0.039834477            4 
   69000    1.1560775   -6.3042207    27.177097  0.032822581  0.039765181            2 
   70000    1.1704051   -6.3446912    27.435203  0.032660955  0.039685344            4 
   71000    1.1728057   -6.3704881    27.963851  0.032821422  0.039596255            2 
   72000    1.1585207   -6.3744569    28.259121  0.032707316  0.039504882            4 
   73000    1.1586793   -6.3343639    28.734318  0.032801733  0.039410051            1 
   74000    1.1581747   -6.3355023    28.978027  0.032632913  0.039318688            3 
   75000    1.1663572    -6.377618     29.38487  0.032649856  0.039223303            3 
   76000    1.1498732   -6.3752208    30.060804  0.032961408  0.039137859            2 
   77000    1.1585097   -6.3465155    30.532608  0.033043948  0.039063918            5 
   78000    1.1460386   -6.3978171    30.957392  0.033074136  0.038998924            4 
   79000    1.1307274   -6.3845935    31.316862  0.033034665  0.038932861            3 
   80000    1.1649409   -6.3928249    31.628418  0.032946269  0.038861268            1 
   81000    1.1387444   -6.3955188    32.113014   0.03303808  0.038794515            2 
   82000    1.1351199    -6.401348    32.693473  0.033225074  0.038732501            4 
   83000    1.1280091   -6.3958722    32.983162  0.033115624  0.038669202            3 
   84000    1.1689744   -6.4073799    33.373013  0.033108148   0.03860566            4 
   85000    1.1333422   -6.3633005     34.07665   0.03340848  0.038555226            3 
   86000    1.1303762   -6.4014917    34.379862   0.03331382  0.038502989            2 
   87000    1.1269063   -6.3873323    34.782247  0.033316328  0.038449019            6 
   88000    1.1347132   -6.3832309    35.166906  0.033301994  0.038397084            4 
   89000    1.1108169   -6.3332738    35.731276  0.033456251     0.038342            3 
   90000    1.1505672    -6.354645    36.195899  0.033514721  0.038294409            3 
   91000     1.101109   -6.3938626    36.287969  0.033230741  0.038236459            7 
   92000    1.1206679   -6.3816942    36.720376   0.03326121  0.038168619            3 
   93000    1.1282917   -6.4213113    37.174435  0.033310425  0.038105349            3 
   94000    1.1045874   -6.3838924    37.496082  0.033241207  0.038036841            4 
   95000    1.1240367   -6.3725165    37.888525  0.033235548  0.037972446           10 
   96000    1.1139947   -6.4244956    37.957607  0.032949312   0.03789499            2 
   97000     1.111681   -6.3833892    38.264977  0.032873691  0.037812322            4 
   98000    1.0943155   -6.4754238    38.631572  0.032849976  0.037727298            2 
   99000    1.1098934   -6.4339973    39.159702  0.032962712   0.03764866            2 
  100000    1.1250131   -6.4604287    39.738999  0.033115833   0.03757822            2 
  101000    1.1134241   -6.4548459    40.000009  0.033003308  0.037510214            4 
  102000    1.1177296   -6.4193814    40.287792  0.032914863  0.037435258            2 
  103000    1.1028703   -6.4377511    40.720327  0.032945248  0.037361158            2 
  104000    1.1015003   -6.4274591     41.13112  0.032957628  0.037283733            2 
  105000    1.0976277   -6.4466184    41.420158  0.032873141  0.037205776            2 
  106000    1.1013811   -6.4766512    41.868303  0.032915332  0.037128997            3 
  107000    1.0725771   -6.4370983    42.241505  0.032898368  0.037054726            2 
  108000    1.1049937   -6.4511752    42.558328  0.032838216  0.036981903            3 
  109000     1.090918   -6.4692256    42.737683  0.032674069  0.036906271            5 
  110000    1.0890796    -6.496774    43.127134  0.032672071  0.036825819            2 
  111000    1.0728377   -6.4596196    43.492483  0.032652014  0.036747411            3 
  112000    1.0967374   -6.4238917    43.788903  0.032581029  0.036670032            6 
  113000    1.0844965   -6.4716746     44.12951  0.032543886  0.036590262            2 
  114000    1.0724415   -6.4911306    44.522384  0.032545602  0.036505659            3 
  115000    1.0839669   -6.4797759    44.511557  0.032254752  0.036417414            6 
  116000     1.087712   -6.4879832    45.083277  0.032387412  0.036330067            3 
  117000    1.0856846    -6.483714    45.312358  0.032273759  0.036245545            3 
  118000    1.0827525   -6.4810083     45.61874  0.032216624  0.036160254            3 
  119000    1.0904474    -6.518711    45.832455  0.032095556  0.036069252            8 
  120000    1.0861393    -6.446838    45.995606  0.031941393  0.035971602            4 
  121000    1.0799502   -6.4818264    46.342339  0.031916211   0.03586932            2 
  122000    1.0932627   -6.4919476    46.448483  0.031727105  0.035767069            8 
  123000    1.0992929   -6.5253124    46.712375   0.03164795  0.035664117            3 
  124000    1.0612168   -6.5177844    47.021687  0.031600596  0.035559662            5 
  125000    1.0554446   -6.5049655    47.306525  0.031537683  0.035455303            2 
  126000    1.0816509   -6.4941502     47.59169  0.031475985  0.035346672            6 
  127000    1.0722704   -6.5152816    48.016565  0.031506932   0.03524275            2 
  128000     1.084046   -6.5439142    48.280423  0.031432567  0.035141215            6 
  129000    1.0972673   -6.5413324    48.480968  0.031318454  0.035039583            3 
  130000    1.0562246   -6.5231794    48.858529  0.031319569  0.034938159            4 
  131000    1.0461526   -6.5327435    49.073504  0.031217242   0.03483626            4 
  132000    1.0497395    -6.523146    49.350977  0.031155919  0.034738254            4 
  133000    1.0673167   -6.5237634    49.764603  0.031180829  0.034642203            3 
  134000    1.0594401    -6.548698    49.936724  0.031055177  0.034545594            6 
  135000    1.0557031   -6.5684177     50.45701  0.031146303  0.034449903            9 
  136000    1.0586924   -6.5265621    50.713403  0.031074389  0.034358757            4 
  137000    1.0385857     -6.56202     51.00115  0.031022597  0.034268552            2 
  138000    1.0375428   -6.5294873    51.421063  0.031051366  0.034179387            5 
  139000    1.0462652   -6.5443805     51.87106  0.031097758  0.034093242            2 
  140000    1.0469338   -6.5505952     51.81752  0.030843762  0.034006184            7 
  141000    1.0384781   -6.5443186    52.381943  0.030958595  0.033918811            1 
  142000    1.0245827     -6.57311    52.584191  0.030859267  0.033833882            4 
  143000    1.0500339    -6.572639    52.919797  0.030839043  0.033750364            2 
  144000    1.0323603   -6.5874039    53.168023  0.030768532  0.033666695            4 
  145000    1.0345878   -6.5382368    53.521013  0.030759203   0.03358464            6 
  146000     1.033054   -6.5626295    54.044553  0.030847347  0.033503589            3 
  147000    1.0410307   -6.5919975     54.20912  0.030730793  0.033424742            9 
  148000    1.0392666   -6.5281459    54.585508  0.030735083  0.033346177            2 
  149000    1.0185473   -6.5562008    54.816421  0.030657953  0.033268119            5 
  150000    1.0218586   -6.5702358    54.688449  0.030382472  0.033185063            2 
  151000    1.0325878   -6.5747103    55.137771  0.030429233  0.033101703            6 
  152000    1.0061874   -6.5803262     55.32429  0.030331299  0.033018321            3 
  153000    1.0128671   -6.5871214    55.781259  0.030381949  0.032935173            3 
  154000    1.0290467   -6.6489652    55.898243  0.030247967  0.032853425            4 
  155000    1.0232408   -6.6061586    56.077211  0.030149038  0.032769689            4 
  156000    1.0139643   -6.6413696    56.259596  0.030053203  0.032685109            2 
  157000    1.0115265    -6.605268    56.434253  0.029954487  0.032600232            2 
  158000    1.0129054   -6.6116192    56.815123  0.029965782  0.032514968            2 
  159000    1.0238367   -6.5729819    57.279725   0.03002082  0.032433055            4 
  160000   0.99921235   -6.6037915    57.553655  0.029975862  0.032352388            3 
  161000   0.99384117   -6.5969895    57.684501  0.029857402  0.032273592            4 
  162000    1.0007302   -6.6060173     58.16924  0.029922449  0.032197716            8 
  163000     1.000362   -6.5949673    58.450169  0.029882499  0.032122577            6 
  164000   0.99934476   -6.5836106    58.845712  0.029901276  0.032048229            2 
  165000   0.99182119    -6.616444    59.077663  0.029837204  0.031973414            6 
  166000    1.0110439   -6.6663558     59.44841  0.029843579  0.031902414            6 
  167000    1.0010373   -6.6338874    59.784531    0.0298326  0.031833159            1 
  168000   0.99180343   -6.6252495    59.916697  0.029720584  0.031764378            5 
  169000   0.98986771   -6.6375395    60.420275  0.029793035  0.031694669            7 
  170000    1.0060726   -6.6341398    60.804101  0.029805932  0.031627781            2 
  171000   0.99147948   -6.6397819    61.107502  0.029779484  0.031563727            3 
  172000    0.9937272   -6.6449532    61.115045  0.029610002  0.031497648            4 
  173000    0.9894066   -6.6806242    61.422265  0.029586833   0.03143165            5 
  174000   0.97363543   -6.6970059     61.68753  0.029543836  0.031366802            4 
  175000   0.99867049   -6.6753592    61.982912  0.029515672  0.031304129            3 
  176000   0.99042837   -6.6799665    62.373941  0.029533116  0.031242501            6 
  177000    1.0037908   -6.6819952    62.790536  0.029562399  0.031182287            5 
  178000   0.96087324   -6.6484318    62.946091  0.029469144  0.031121556            4 
  179000   0.97863083   -6.7059082    63.293192  0.029466104  0.031061635            6 
  180000   0.97335848   -6.6690461    63.608755  0.029448498  0.031002407            2 
  181000   0.97610404   -6.6566386    63.900066   0.02941992  0.030943438            4 
  182000   0.97694363   -6.6822013    64.008985  0.029308143  0.030884449            4 
  183000   0.98982403   -6.6877329    64.513503  0.029377733  0.030825524            4 
  184000   0.96374886   -6.6812149     64.60934  0.029261476   0.03076776            6 
  185000   0.97193071   -6.6894896    64.857763  0.029215208  0.030709456            3 
  186000    0.9702843   -6.6803227    65.194012  0.029208787  0.030650338            7 
  187000   0.96346549   -6.7086809    65.158779  0.029036889  0.030590039            7 
  188000   0.97142809   -6.6767044    65.341747   0.02896354  0.030527542            4 
  189000   0.95289512   -6.6650389    65.636696  0.028940342  0.030463852            6 
  190000   0.96750213   -6.6864488    65.617969  0.028779811  0.030398675            3 
  191000   0.96691787   -6.7016331    65.917495  0.028759814  0.030333752            5 
  192000   0.95830896   -6.7145942    66.291557  0.028772377  0.030270264            3 
  193000   0.96066428   -6.6887928    66.145273  0.028560135  0.030204896            3 
  194000   0.97505766   -6.7677727    66.404407   0.02852423  0.030137287            4 
  195000    0.9539646   -6.7335822     66.75112   0.02852612  0.030070111            2 
  196000    0.9614123   -6.7522323     66.95632  0.028467823  0.030003954            4 
  197000   0.95128631   -6.6933773    67.058155  0.028366394  0.029938527            7 
  198000   0.96623072   -6.7532115    67.155034  0.028263903   0.02987304            4 
  199000   0.95446154    -6.706492    67.450747  0.028245706  0.029807364            6 
  200000    0.9505951   -6.7598162    67.551667  0.028146528  0.029740377            7 
  201000    0.9432122   -6.7461162    67.877236  0.028141474  0.029673012            5 
  202000   0.94251689   -6.7327376    68.182928   0.02812827  0.029607106            4 
  203000   0.95392728   -6.7070717    68.325565  0.028048261  0.029540743            5 
  204000   0.93883511   -6.7284167    68.456645  0.027964316  0.029474183            4 
  205000   0.95386694   -6.7539655    68.814688   0.02797345  0.029407209            6 
  206000   0.92615998   -6.7364827    69.143993  0.027970871  0.029342992            5 
  207000   0.93417877   -6.7859419    69.222958  0.027867536  0.029279322            4 
  208000   0.95082814   -6.7779237    69.369161  0.027792132  0.029213456            5 
  209000   0.94122598   -6.7535949     69.33274  0.027644633  0.029146746           10 
  210000   0.95664802   -6.7669811    69.619082   0.02762662  0.029079235            6 
  211000   0.93364689   -6.7537343     69.91815  0.027613803  0.029011301            4 
  212000   0.93268535   -6.7680723    70.057316  0.027538253  0.028944496            4 
  213000   0.95195966   -6.7881611    70.083253  0.027419113  0.028877119           12 
  214000    0.9159877   -6.7708921    70.320245  0.027383273  0.028809819           10 
  215000   0.94094134   -6.8123381    70.493419   0.02732303  0.028742992            5 
  216000   0.91685201   -6.7874539    70.850814  0.027334419  0.028675809            6 
  217000   0.90735181   -6.7882192    71.003562  0.027267113  0.028608893            7 
  218000   0.92018676   -6.8036604    70.942057  0.027118523  0.028542333            4 
  219000   0.89859289   -6.8149627    71.080451  0.027047356  0.028474254            3 
  220000   0.91079709   -6.7971401    71.292551  0.027004754  0.028407441            8 
  221000   0.91455703   -6.7859114    71.810043  0.027077693  0.028341407            4 
  222000   0.91936675   -6.8025712     72.12333  0.027073322  0.028276095            3 
  223000   0.91787318   -6.7879211    72.208258  0.026983654  0.028211471            8 
  224000   0.91405002    -6.809311    72.273996  0.026887647  0.028145611            9 
  225000   0.90753851    -6.820131    72.513717  0.026856932  0.028080923            8 
  226000   0.89639799   -6.7973536    72.685395  0.026801399  0.028016357            8 
  227000   0.92005127   -6.7640215    72.876453   0.02675347   0.02795239            5 
  228000   0.90689196   -6.8273075    73.183497  0.026748354  0.027888401            4 
  229000   0.89205491   -6.8267244    73.086394  0.026596213  0.027823133            9 
  230000   0.87199956   -6.8405391    73.100422   0.02648566  0.027757072            6 
  231000   0.87516113   -6.8276204    73.308441  0.026446047  0.027690478            4 
  232000   0.91133804   -6.8350305    73.569016  0.026425652  0.027623992           12 
  233000   0.89883198   -6.8431918    73.652105  0.026341954  0.027556769           24 
  234000   0.90814257   -6.8457344    73.927473  0.026327448  0.027491144            8 
  235000   0.89409783   -6.8451703     73.81941  0.026177096  0.027425319            5 
  236000    0.8806752   -6.8438937    74.336498  0.026248763  0.027359302            4 
  237000   0.89204174   -6.8470599    74.584673  0.026225272  0.027295176            9 
  238000   0.89513027   -6.8267399    74.704256  0.026156952  0.027231961            4 
  239000   0.87622392   -6.8367271    75.041327  0.026165037  0.027167763            6 
  240000   0.87959846   -6.8558053    75.071073  0.026066345  0.027105489            3 
  241000   0.88650122   -6.8739345    75.188482  0.025998783  0.027042926           29 
  242000   0.88912147   -6.8874657    75.442505  0.025978824  0.026981222            8 
  243000   0.85514159   -6.8502876    75.654602  0.025944651  0.026918888           11 
  244000   0.87822985   -6.8872961    75.658582   0.02583968  0.026856627           15 
  245000   0.87895206   -6.8705041    75.780037  0.025775523  0.026794187            9 
  246000   0.87347179   -6.8880468    76.137948  0.025791988  0.026731979            6 
  247000   0.86572333   -6.8942251    76.112626  0.025679023  0.026669633           12 
  248000   0.86517286   -6.8882691    76.316252  0.025643902  0.026606695           11 
  249000   0.86065157   -6.8889993    76.501318  0.025602851  0.026543763           10 
  250000   0.86589252   -6.8955481    76.721699  0.025573899  0.026481379            7 
  251000   0.86739921   -6.9202954    76.788998  0.025494355  0.026419067            6 
  252000    0.8557404   -6.9259414    76.762703  0.025384492  0.026356718            6 
  253000    0.8613788   -6.9551444     76.89371  0.025327309  0.026293905           12 
  254000   0.87003238   -6.9355597    76.998823  0.025262081  0.026229878            5 
  255000   0.86545763   -6.9385491    76.938446  0.025143283   0.02616515            7 
  256000   0.86116705   -6.9348256    76.827023  0.025008797  0.026099688            7 
  257000   0.85997947   -6.9511498    77.134838  0.025011296  0.026034527           12 
  258000   0.84554488   -6.9302497    77.379398  0.024993345  0.025969523            4 
  259000   0.86268572   -6.9220518    77.374016  0.024895115  0.025903814            7 
  260000   0.84846124   -6.9296182    77.605918  0.024873692  0.025837904            4 
  261000   0.85995142   -6.9466123    77.549151  0.024760265  0.025771982            9 
  262000   0.85191511    -6.921156    77.351664  0.024602946  0.025705935            6 
  263000   0.85402228     -6.94291    77.731328  0.024629698   0.02563987           11 
  264000   0.85006798   -6.9711748    77.698347  0.024525993  0.025573387            6 
  265000   0.85360577   -6.9517639    77.979045  0.024521712   0.02550682            6 
  266000   0.82152182   -6.9652589    78.222957  0.024505939  0.025441273            6 
  267000   0.84315545   -6.9830929    78.343992  0.024451932  0.025375924            6 
  268000   0.84533682   -6.9476111    78.415701  0.024382991  0.025310976            7 
  269000   0.83643157   -6.9700221    78.333458   0.02426687  0.025245166            8 
  270000   0.82704911   -6.9600716    78.803527  0.024322076  0.025179723            5 
  271000   0.83729397   -6.9816307    78.558419  0.024156955  0.025114603            5 
  272000   0.84584212   -6.9782057    78.784746  0.024137483  0.025049587            4 
  273000   0.81396638   -6.9779149    79.154358  0.024161892  0.024984764           10 
  274000   0.84162633   -6.9641594    79.136455  0.024068265   0.02492077            5 
  275000    0.8291202   -6.9449461    79.153701   0.02398597  0.024856368           13 
  276000    0.8137792   -6.9728193     79.34345  0.023956356  0.024791605            7 
  277000   0.83488309    -7.016308    79.161837  0.023815234  0.024727072            6 
  278000   0.81966732   -6.9913501     79.41179  0.023804493  0.024662085            8 
  279000   0.81481695   -6.9744895    79.680986  0.023799578  0.024597234            9 
  280000   0.83206398   -6.9688402    79.831307  0.023759318  0.024532887           15 
  281000   0.82014612   -6.9715237    79.809568  0.023668318  0.024468326            6 
  282000   0.81476884   -6.9906555    79.921855  0.023617569  0.024403769            5 
  283000   0.81935245    -6.990244    79.879497  0.023521642  0.024339045           12 
  284000   0.82002191   -7.0239358    79.931597  0.023454107  0.024274413           10 
  285000   0.80582891   -6.9849013     79.98872  0.023388515  0.024210413           24 
  286000   0.82218849   -7.0237436     80.37149  0.023418266  0.024146799            5 
  287000   0.79537568   -7.0106237    80.384342  0.023340401  0.024083541           17 
  288000    0.8142045   -7.0202316    80.503801  0.023293924  0.024020272           11 
  289000    0.8241551   -7.0159147    80.812778  0.023302416  0.023957609           11 
  290000   0.80390313   -7.0261205    80.609027  0.023163513  0.023894651           14 
  291000   0.78305203   -7.0088721    80.608434  0.023083744  0.023831172            6 
  292000    0.8010504   -7.0173611    80.789317  0.023056312  0.023768194           13 
  293000   0.80047379   -7.0339572    80.839241   0.02299182   0.02370506            9 
  294000   0.80284192   -7.0326453    81.066717  0.022978094  0.023641832            9 
  295000   0.79345297   -7.0272206    80.870987  0.022844912  0.023578408            7 
  296000   0.79435217   -7.0473299    81.365478  0.022906948  0.023515045            6 
  297000    0.7917455   -7.0312336    81.318403  0.022816611  0.023451987            8 
  298000   0.78166561    -7.035577    81.289919   0.02273208   0.02338838            8 
  299000   0.78151459   -7.0538254    81.358704  0.022675224  0.023324518            8 
  300000   0.78138043    -7.065539    81.207327  0.022557591  0.023260781           12 
  301000   0.79619145   -7.0518193    81.402462  0.022536673  0.023197008           19 
  302000   0.77802534   -7.0567276    81.252325  0.022420619  0.023132929           12 
  303000   0.79796511   -7.0794362    81.419029  0.022392472  0.023069077            5 
  304000   0.78789266   -7.0726511    81.477027  0.022334711   0.02300511           12 
  305000   0.77751179   -7.0834952     81.43479  0.022249943  0.022941528           13 
  306000   0.78860533   -7.0774804    81.597891  0.022221648  0.022877659            6 
  307000   0.79271421    -7.108054    81.845596  0.022216503  0.022813772            4 
  308000   0.76891641   -7.0830942    81.634736   0.02208732  0.022750212           11 
  309000   0.77852966    -7.114665    81.745485  0.022045708  0.022686697           14 
  310000   0.76607559   -7.0943187    81.831311  0.021997664  0.022623602            5 
  311000   0.76988024   -7.0811692    82.018428  0.021977071  0.022560594            3 
  312000   0.77565668   -7.0745767    82.278521  0.021976101  0.022498333            7 
  313000       0.7743   -7.0924458    82.019555  0.021836942  0.022436061           10 
  314000    0.7738189   -7.0927687    82.185789  0.021811515  0.022373694           10 
  315000   0.76132279   -7.0669785    82.333581  0.021781371  0.022311292           12 
  316000   0.76010566   -7.0984947    82.436129  0.021739485  0.022248538           10 
  317000   0.77530394   -7.1378168     82.00283  0.021557001  0.022185765           13 
  318000    0.7720944   -7.1323909    82.230861  0.021548968  0.022122925            7 
  319000   0.77137623   -7.1199666    82.571227  0.021570331  0.022060696            6 
  320000   0.75371244   -7.1291999    82.563174  0.021500826  0.021998864            7 
  321000   0.76037421   -7.1445064    82.613864  0.021447005  0.021936877            9 
  322000   0.75009167    -7.134504    82.576402  0.021370704  0.021874767           18 
  323000   0.75107574   -7.1298393    82.616283  0.021314831  0.021813058           38 
  324000   0.74597971   -7.1555973    82.776198  0.021290174  0.021751466           15 
  325000   0.74898286    -7.126184    82.584922  0.021175621  0.021689708            9 
  326000   0.74760102   -7.1353156    82.802914  0.021166389  0.021628183            7 
  327000    0.7690429   -7.1587986    82.652218  0.021063256  0.021566525            5 
  328000   0.73558024   -7.1533789    82.947742  0.021074121  0.021504633            7 
  329000   0.73372885   -7.1567501    82.863525  0.020988735  0.021443184           13 
  330000   0.74494932   -7.1404719    82.855539  0.020923116  0.021381704           15 
  331000   0.74145945   -7.1408367     83.12939  0.020928849  0.021320594            7 
  332000   0.74325974    -7.188804     83.11349   0.02086182  0.021259883           15 
  333000   0.72690938    -7.149172    83.202731  0.020821504  0.021199221           29 
  334000   0.73255574   -7.1852529    83.178244  0.020753055  0.021138758            7 
  335000   0.73230835   -7.1793329    83.400945  0.020746504  0.021078962           13 
  336000   0.73439675   -7.1692747    83.305974  0.020661204  0.021018991           26 
  337000   0.72902648   -7.1818611    83.276847  0.020592692  0.020958802           21 
  338000   0.73731312   -7.1859528    83.570787  0.020604237  0.020899106           18 
  339000    0.7228754    -7.183933    83.451889   0.02051423  0.020839696           24 
  340000   0.71961501   -7.1998198    83.431405  0.020448874   0.02077966           13 
  341000   0.71546701   -7.1768865    83.319291  0.020361508  0.020719818           21 
  342000   0.70564146   -7.1954104    83.676926  0.020389114  0.020660425           14 
  343000   0.71442286   -7.2072473    83.551669  0.020299239  0.020600875           10 
  344000   0.72511452   -7.2132366    83.472501  0.020221052  0.020541338           21 
  345000   0.70554068   -7.2114505    83.616399  0.020197198  0.020482122           21 
  346000    0.7093749   -7.2198827    83.659126  0.020149115  0.020423047           18 
  347000   0.70311876   -7.2198613    83.606896  0.020078505  0.020364027           25 
  348000   0.72188801   -7.2149133    83.730008  0.020050289  0.020305535           16 
  349000   0.72154946   -7.2354985    83.652281  0.019974279   0.02024702           33 
  350000   0.70289412   -7.1976081    83.902563  0.019976801  0.020188395           29 
  351000   0.70162954   -7.2098313    83.920862  0.019924231   0.02013003           13 
  352000   0.71411993     -7.24929     83.92361  0.019868279   0.02007181           22 
  353000   0.70621379   -7.2210413    84.031701  0.019837512  0.020013799           32 
  354000   0.68565821   -7.2458231    83.979666  0.019769225   0.01995567           30 
  355000   0.68765468   -7.2612588    84.171299  0.019758521  0.019897819           24 
  356000   0.70817298   -7.2754713    83.999189  0.019662731  0.019840299           41 
  357000   0.68332648   -7.2545048    83.851998  0.019573295  0.019782589           29 
  358000   0.70540006   -7.2697541       83.903  0.019530493  0.019724962           31 
  359000   0.68155124   -7.2675375    84.054698  0.019511304  0.019667416           37 
  360000   0.70774672   -7.2853451    83.998768  0.019444159  0.019610162           49 
  361000   0.70350157   -7.2631236    84.334355  0.019467764  0.019553018           61 
  362000    0.6857406   -7.2764225    84.062296  0.019351357  0.019496231           32 
  363000   0.68986364   -7.2785597    84.103669  0.019307546  0.019439201           49 
  364000    0.6997252   -7.3017868     84.10458  0.019254711  0.019382252           28 
  365000   0.69581291    -7.271919     84.29714  0.019245922  0.019325253           50 
  366000    0.6932246   -7.2653879    84.292045  0.019192178  0.019268401           56 
  367000   0.67497576   -7.2662587    84.185784  0.019115755  0.019211718           75 
  368000   0.68509954   -7.3037681    84.197336  0.019066426  0.019155039           19 
  369000   0.68013314   -7.2682359    84.413657  0.019063608  0.019098671           43 
  370000   0.68574574   -7.2909752    84.351524  0.018998091  0.019042617           52 
  371000   0.66039988   -7.3016107    84.460084  0.018971268  0.018986667           45 
  372000   0.66646761   -7.2923393    84.504589  0.018930239  0.018930655           30 
  373000   0.67589735   -7.3078535    84.397487   0.01885556  0.018874932           33 
  374000   0.68615766   -7.3113246    84.384727  0.018802301  0.018819146           29 
  375000   0.68932924   -7.3049188    84.182506  0.018707223  0.018763298           47 
  376000   0.66954289   -7.2956991    84.329998  0.018690159  0.018707435           58 
  377000   0.65311325   -7.3421563    84.227131  0.018617845  0.018651683           40 
  378000   0.66913356   -7.3130639    84.517687  0.018632647  0.018596091           59 
  379000   0.65032052   -7.3248264    84.524911  0.018585073  0.018540945           37 
  380000   0.65145342   -7.3389585    84.462642  0.018522509  0.018486033           38 
  381000   0.65323968   -7.3170818    84.567041  0.018496728  0.018431101           19 
  382000   0.64162385   -7.3139749    84.433342  0.018419141  0.018376275           34 
  383000   0.66311878   -7.3479304    84.390872  0.018361808  0.018321367           27 
  384000   0.64235594   -7.3672156    84.388087  0.018313387  0.018266553           21 
  385000   0.64822372   -7.3756882    84.479898  0.018285692   0.01821179           20 
  386000   0.65198433    -7.349883    84.441744  0.018230083  0.018157296           30 
  387000   0.63857583   -7.3578907     84.55578  0.018207532  0.018102943           34 
  388000   0.65276539   -7.3715215    84.566311  0.018162867  0.018048761           32 
  389000   0.63135297   -7.3875021     84.48236  0.018098192  0.017994783           27 
  390000   0.64241808    -7.374074    84.593793  0.018075597  0.017941015           33 
  391000   0.64653534   -7.3781051    84.521521  0.018013964  0.017887316           28 
  392000   0.64279474    -7.374872     84.38802   0.01793963  0.017833401           24 
  393000   0.64431523   -7.3731796    84.344332  0.017884718  0.017779805           14 
  394000   0.63170858   -7.3919629    84.370252  0.017844808  0.017726212           27 
  395000   0.63377968   -7.3660557    84.524583   0.01783219  0.017672786           35 
  396000   0.63406253   -7.3914997    84.465391  0.017774703  0.017619526           34 
  397000   0.62878761    -7.385577    84.389637   0.01771403  0.017566256           27 
  398000   0.63236318   -7.3753617    84.214116  0.017632771   0.01751317           26 
  399000   0.63724704   -7.4009714    84.408937  0.017629268  0.017460213           17 
  400000     0.625154   -7.3831294    84.613826   0.01762788  0.017407448           14 
  401000   0.64064152   -7.4194501    84.378777  0.017535074  0.017354793           42 
  402000   0.63318959   -7.4152104    84.661082  0.017549976  0.017302302           32 
  403000   0.61795177   -7.4247227    84.494367  0.017471953  0.017249925           28 
  404000   0.61340224   -7.4060646    84.709698  0.017473123  0.017197812           14 
  405000   0.61750453   -7.4141262    84.777967  0.017444026  0.017145889           31 
  406000   0.61098748   -7.4154715    84.481623  0.017340235  0.017094112           28 
  407000   0.61750285   -7.3941289    84.541103  0.017309808  0.017042405           21 
  408000   0.62858603   -7.4185539    84.589646  0.017277297  0.016990892           23 
  409000   0.62248241    -7.436798    84.576369  0.017232349  0.016939551           23 
  410000   0.61336646   -7.4433211    84.853174   0.01724658  0.016888563           47 
  411000   0.61479237   -7.4309931    84.631895  0.017159752  0.016837596           21 
  412000   0.61705642    -7.439939    84.544912  0.017100508  0.016786593           25 
  413000   0.61623735   -7.4524803    84.687663  0.017087906  0.016735934           21 
  414000   0.61316961   -7.4545024    84.658894   0.01704084  0.016685419           13 
  415000   0.60786721   -7.4193072    84.509499  0.016969779  0.016634912           24 
  416000   0.59149114   -7.4525229     84.67905  0.016962951  0.016584634           28 
  417000   0.61166605   -7.4552327     84.64096   0.01691466  0.016534417           41 
  418000   0.61317918   -7.4701474    84.477495  0.016841606  0.016484261           35 
  419000   0.61031441   -7.4626823    84.650656   0.01683585  0.016434354           44 
  420000   0.59428202   -7.4536335    84.510627  0.016767982  0.016384428           47 
  421000   0.58933868   -7.4739955    84.538814  0.016733732  0.016334607           33 
  422000   0.58652693   -7.4740571    84.538921    0.0166941  0.016284791           25 
  423000   0.60353036   -7.4665729     84.70696  0.016687738  0.016235225           21 
  424000   0.59296212   -7.4813707    84.681935  0.016643462  0.016185859           37 
  425000   0.59330626   -7.4735157    84.686734  0.016605242  0.016136484           22 
  426000   0.59956292    -7.498295     84.41788   0.01651367   0.01608725           26 
  427000   0.58315677   -7.4757617    84.391234  0.016469796  0.016038004           25 
  428000   0.59468106   -7.4844593    84.506397  0.016453738  0.015989047           13 
  429000   0.57390854   -7.4862174    84.426317  0.016399828  0.015940133           12 
  430000    0.5846213    -7.492002    84.294618  0.016336166  0.015891203           44 
  431000   0.60614176   -7.4998552    84.553374  0.016348294  0.015842456           34 
  432000   0.57884627   -7.4732303    84.541497  0.016308159  0.015794031           40 
  433000   0.57053813   -7.5147459    84.467865  0.016256325  0.015745786           32 
  434000    0.5775854   -7.4780991    84.254697  0.016177937  0.015697656           27 
  435000   0.58443129   -7.5005886    84.494791  0.016186741  0.015649763           63 
  436000   0.56905661   -7.5064221    84.474566   0.01614575   0.01560208           28 
  437000   0.57649008   -7.5055225    84.478994  0.016109648  0.015554536           22 
  438000   0.57869679   -7.4862072    84.512545  0.016079251  0.015507225           18 
  439000    0.5656109   -7.5121623    84.432321  0.016027396  0.015459897           19 
  440000    0.5817537   -7.5163861    84.527395  0.016008976  0.015412839           41 
  441000   0.56671936   -7.5142239    84.248834  0.015920037  0.015365791           38 
  442000   0.56622801   -7.5345588    84.431746  0.015918504  0.015318808           33 
  443000   0.56738479   -7.5254209    84.523709   0.01589987  0.015272074           50 
  444000   0.54614158   -7.5304928    84.446958  0.015849654  0.015225453           23 
  445000   0.54869088    -7.534565    84.325132  0.015791223  0.015178792           49 
  446000   0.54586247   -7.5214099    84.375761  0.015765277  0.015132362           49 
  447000   0.56233525    -7.558459    84.409369  0.015736273  0.015085919           59 
  448000   0.54824838   -7.5533603    84.520551  0.015721829  0.015039714           62 
  449000   0.55289933     -7.54941     84.34265  0.015653795  0.014993705           35 
  450000   0.54700905   -7.5379132    84.290161  0.015609289  0.014947798           58 
  451000   0.53376208   -7.5685749    84.481252  0.015609987  0.014902096           82 
  452000   0.54442788   -7.5685201    84.210732  0.015525577  0.014856525          112 
  453000   0.52845477   -7.5498234    84.262412  0.015500812  0.014811046           79 
  454000   0.54779447   -7.5639244    84.224506  0.015459711  0.014765709          121 
  455000   0.54559632   -7.5620286    84.285144   0.01543684  0.014720461          105 
  456000   0.53335401    -7.568695    84.454632   0.01543396  0.014675451          100 
  457000   0.53271555   -7.5770822    84.299026  0.015371814  0.014630501          117 
  458000   0.53606898    -7.569796    84.397972  0.015356254  0.014585763          100 
  459000   0.54439865   -7.5777084    84.369178   0.01531757  0.014541236           77 
  460000   0.53279495     -7.57555    84.265825  0.015265548   0.01449694          112 
  461000   0.53556255   -7.5755611    84.365983  0.015250539  0.014452737          109 
  462000   0.52000996    -7.585176     84.24973   0.01519656  0.014408665          100 
  463000   0.51317708   -7.5945178    84.342048  0.015180354  0.014364679           91 
  464000   0.51677776   -7.6103792    84.309124  0.015141725  0.014320781           75 
  465000   0.52781906   -7.5958338    84.283767  0.015104618  0.014277177          118 
  466000   0.52016349   -7.6133479    84.353264  0.015084632  0.014233679          108 
  467000   0.52231604    -7.587319    84.236427  0.015031482  0.014190366          113 
  468000   0.50013619   -7.5907398    84.205186  0.014993801  0.014147102           87 
  469000   0.51409371   -7.6077291    84.540431  0.015021398  0.014104094          109 
  470000   0.52043956   -7.5918174    84.238681  0.014935936  0.014061217          104 
  471000   0.52215579   -7.6194556     84.26107  0.014908186  0.014018372          120 
  472000   0.52656746   -7.6090248    84.407732  0.014902495  0.013975779          117 
  473000   0.51455825   -7.5986994     84.10413    0.0148175  0.013933348           93 
  474000   0.51396143    -7.607619    84.221427  0.014806861  0.013891004          125 
  475000   0.51301298   -7.6342346    84.186754  0.014769606  0.013848748          130 
  476000   0.50001373   -7.6094716    84.167215  0.014735157  0.013806573          134 
  477000   0.50427651   -7.6152134     84.11057  0.014694369  0.013764614          117 
  478000   0.50467796   -7.6297678     84.28347  0.014693771  0.013722722          126 
  479000   0.50783098   -7.6467521    84.156807  0.014641059  0.013681035          109 
  480000   0.49921675   -7.6149877    84.082367  0.014597633  0.013639357          143 
  481000   0.50914618   -7.6448197     84.22191   0.01459146  0.013597845          132 
  482000      0.49708   -7.6460184    84.289389  0.014572854  0.013556485          147 
  483000   0.49235656     -7.64152    83.942512  0.014482835  0.013515189          100 
  484000   0.48728022   -7.6413315    84.127451  0.014484754  0.013474076          178 
  485000   0.50465969   -7.6489314    84.157293  0.014460016  0.013433136           75 
  486000   0.49160537   -7.6564894    84.146717  0.014428449  0.013392385          180 
  487000   0.48371601   -7.6680501    84.147195  0.014398904   0.01335173          111 
  488000   0.48833366   -7.6438148    84.050305  0.014352853  0.013311244          110 
  489000   0.48848548   -7.6617696    84.041522  0.014322004  0.013270899           90 
  490000   0.47294616   -7.6601036     84.03092  0.014290973  0.013230718          101 
  491000   0.48660894   -7.6545693    84.078692  0.014269975  0.013190687           96 
  492000   0.47196631   -7.6586945    84.053424  0.014236691  0.013150761           78 
  493000   0.47893826   -7.6543536    84.069907    0.0142106  0.013110946          122 
  494000   0.48083692   -7.6782855    84.163396  0.014197604  0.013071349           97 
  495000   0.49276866   -7.6656465    83.897937  0.014124232  0.013031822           82 
  496000   0.47589741   -7.6744831     83.92031  0.014099514  0.012992368          109 
  497000   0.48735876   -7.6710261    83.973602  0.014080081  0.012953089          111 
  498000   0.46603143   -7.6863521    83.978859  0.014052687   0.01291391          109 
  499000   0.47650336   -7.6717841     83.83276  0.014000127  0.012874857           95 
  500000   0.46417636   -7.6893435      84.0575  0.014009583  0.012835936           93 
  501000   0.47000277   -7.6724727    83.962165  0.013965763  0.012797184          116 
  502000   0.45388833   -7.7005083    83.972929  0.013939729  0.012758553          111 
  503000   0.46996484   -7.7028862    83.925566  0.013904169  0.012720068          120 
  504000   0.45901042    -7.691018    83.906458  0.013873422  0.012681731           96 
  505000   0.46480121   -7.6840033    83.851098  0.013836815  0.012643534          104 
  506000   0.45028657   -7.6924539    83.938671  0.013823892  0.012605396           98 
  507000   0.45062053   -7.7018657    83.877263  0.013786532  0.012567475          113 
  508000   0.44701008   -7.7096259    83.800079  0.013746732  0.012529625          109 
  509000   0.45279796   -7.7007373    83.900695  0.013736198  0.012491894          104 
  510000   0.44745563   -7.7115136    84.005902  0.013726455  0.012454359          148 
  511000   0.44834219    -7.697374    83.846312  0.013673567  0.012416981          113 
  512000   0.45168727    -7.712439    83.908476  0.013656978   0.01237961          125 
Loop time of 1085.66 on 48 procs for 500000 steps with 4000 atoms

Performance: 79583.044 tau/day, 460.550 timesteps/s
99.4% CPU use with 48 MPI tasks x no OpenMP threads

MPI task timing breakdown:
Section |  min time  |  avg time  |  max time  |%varavg| %total
---------------------------------------------------------------
Pair    | 66.129     | 71.34      | 74.671     |  21.8 |  6.57
Neigh   | 6.7238     | 6.9251     | 7.1239     |   3.6 |  0.64
Comm    | 58.649     | 63.68      | 68.853     |  30.1 |  5.87
Output  | 0.80202    | 0.80249    | 0.8125     |   0.2 |  0.07
Modify  | 925.47     | 930.35     | 935.47     |   7.6 | 85.69
Other   |            | 12.56      |            |       |  1.16

Nlocal:        83.3333 ave          89 max          77 min
Histogram: 3 2 3 4 5 14 6 4 3 4
Nghost:        1801.02 ave        1817 max        1789 min
Histogram: 4 6 7 7 6 3 7 5 1 2
Neighs:        11077.2 ave       12474 max        9842 min
Histogram: 1 3 7 8 7 8 7 4 2 1
FullNghs:      22153.1 ave       23749 max       20416 min
Histogram: 2 4 2 5 12 7 2 7 3 4

Total # of neighbors = 1063349
Ave neighs/atom = 265.83725
Neighbor list builds = 26966
Dangerous builds = 0

#clear
#
#next RN
#
#jump SELF
Total wall time: 0:18:08
