
units lj                  # Use reduced LJ style units
atom_style atomic         # Uncharged point particles
atom_modify map hash      # Needed for indexing of clusters etc
                          # Used to be able to find where atoms are in relation to each other.

lattice fcc 1.0 spacing 1 1 1
Lattice spacing in x,y,z = 1.5874011 1.5874011 1.5874011
region box block 0 10 0 10 0 10 units lattice
create_box 2 box
Created orthogonal box = (0.0000000 0.0000000 0.0000000) to (15.874011 15.874011 15.874011)
  3 by 4 by 4 MPI processor grid
create_atoms 1 box
Created 4000 atoms
  using lattice units in orthogonal box = (0.0000000 0.0000000 0.0000000) to (15.874011 15.874011 15.874011)
  create_atoms CPU = 0.003 seconds
set type 1 type/fraction 2 0.87 78393
Setting atom values ...
  3472 settings made for type/fraction
mass 1 1.0
mass 2 1.0
pair_style lj/cut  3.5
pair_modify tail  yes
pair_coeff 1  1  1.0  1.0   # Intearaction between 1 and 1 set with epsilon = 1 and sigma = 1
pair_coeff 1  2  1.5  0.8
pair_coeff 2  2  0.5  0.88

write_data data.0
System init for write_data ...
Neighbor list info ...
  update every 1 steps, delay 10 steps, check yes
  max neighbors/atom: 2000, page size: 100000
  master list distance cutoff = 3.8
  ghost atom cutoff = 3.8
  binsize = 1.9, bins = 9 9 9
  1 neighbor lists, perpetual/occasional/extra = 1 0 0
  (1) pair lj/cut, perpetual
      attributes: half, newton on
      pair build: half/bin/atomonly/newton
      stencil: half/bin/3d
      bin: standard
WARNING: Not all mixed pair coeffs generated from mixing. Use write_data with 'pair ij' option to store all pair coeffs. (../write_data.cpp:312)


#############################
#   M E L T   S Y S T E M   #
#############################

velocity all create 2.4 5833274 mom yes dist gaussian # Assign velocities
                                                    # Temperature 2.4, random number seed, zero linear momentum
                                                                                # Gaussian distribution

timestep 0.002   # simulation timestep
thermo 1000       # output thermodynamic data every 1000 steps bf 100

# Define a fix  in this case with index 1 applied to all
# particles in the simulation. This fix is for simulations
# in the anisotropic NPT ensemble. Note that we use the MTK
# correction.
fix 1 all npt temp 2.4 2.4 0.1 iso 5.68 5.68 0.5 mtk yes tchain 5 pchain 5 # Use NPT ensemble
                                                                         # Set temperature and pressure and damping
                                                                         # Numbers of thermostats in chain and in barostat
run 10000          # run for 10000 steps
Per MPI rank memory allocation (min/avg/max) = 3.642 | 3.644 | 3.648 Mbytes
Step Temp E_pair E_mol TotEng Press Volume 
       0          2.4   -3.3406884            0   0.25841159    -2.808294         4000 
    1000     2.382366      -2.4911            0    1.0815555    5.8610948    3899.7566 
    2000    2.4139345   -2.4472605            0     1.172736    6.0559489     3915.673 
    3000    2.4121237   -2.4852512            0    1.1320298    5.5773466    3941.4115 
    4000    2.3797418   -2.4896431            0    1.0790771    5.9740414      3881.98 
    5000    2.4086087   -2.4514126            0    1.1605972    5.6325666    3963.6797 
    6000    2.3879798   -2.4496472            0     1.131427    5.7831903    3946.2337 
    7000    2.3497255   -2.5077777            0    1.0159294    5.3331347    3944.5364 
    8000    2.4301934   -2.4649035            0    1.1794753    5.6235703    3954.7121 
    9000    2.3940167   -2.4859196            0    1.1042078    5.6421278     3928.311 
   10000     2.384721   -2.4791111            0    1.0970762    5.7057649    3928.6604 
Loop time of 2.49907 on 48 procs for 10000 steps with 4000 atoms

Performance: 691456.046 tau/day, 4001.482 timesteps/s
99.6% CPU use with 48 MPI tasks x no OpenMP threads

MPI task timing breakdown:
Section |  min time  |  avg time  |  max time  |%varavg| %total
---------------------------------------------------------------
Pair    | 1.0984     | 1.1688     | 1.2421     |   2.7 | 46.77
Neigh   | 0.20813    | 0.21659    | 0.23426    |   0.9 |  8.67
Comm    | 0.76576    | 0.85275    | 0.93406    |   4.3 | 34.12
Output  | 0.00024075 | 0.00024492 | 0.00031573 |   0.0 |  0.01
Modify  | 0.19354    | 0.24562    | 0.28096    |   5.2 |  9.83
Other   |            | 0.01509    |            |       |  0.60

Nlocal:        83.3333 ave          92 max          75 min
Histogram: 3 0 7 0 16 10 7 3 1 1
Nghost:        1659.90 ave        1684 max        1634 min
Histogram: 2 3 4 4 11 4 4 11 2 3
Neighs:        9713.92 ave       11274 max        8548 min
Histogram: 4 1 5 12 12 5 5 3 0 1

Total # of neighbors = 466268
Ave neighs/atom = 116.56700
Neighbor list builds = 910
Dangerous builds = 227

# Equilibrate just above the melting temperature to avoid step fn in T

fix 1 all npt temp 1.25 1.25 0.1 iso 5.68 5.68 0.5 mtk yes tchain 5 pchain 5
run 2000
Per MPI rank memory allocation (min/avg/max) = 3.643 | 3.645 | 3.649 Mbytes
Step Temp E_pair E_mol TotEng Press Volume 
   10000     2.384721   -2.4791111            0    1.0970762    5.7057649    3928.6604 
   11000    1.2377534   -3.6622497            0   -1.8060837    5.6853195    3054.1272 
   12000    1.2410719   -3.6638488            0   -1.8027063    5.6784967     3051.459 
Loop time of 0.616162 on 48 procs for 2000 steps with 4000 atoms

Performance: 560891.314 tau/day, 3245.899 timesteps/s
99.6% CPU use with 48 MPI tasks x no OpenMP threads

MPI task timing breakdown:
Section |  min time  |  avg time  |  max time  |%varavg| %total
---------------------------------------------------------------
Pair    | 0.27477    | 0.29693    | 0.32688    |   2.1 | 48.19
Neigh   | 0.039525   | 0.042055   | 0.044322   |   0.6 |  6.83
Comm    | 0.19641    | 0.22793    | 0.25497    |   2.7 | 36.99
Output  | 5.4262e-05 | 5.5973e-05 | 7.4077e-05 |   0.0 |  0.01
Modify  | 0.041133   | 0.044306   | 0.047971   |   0.9 |  7.19
Other   |            | 0.004886   |            |       |  0.79

Nlocal:        83.3333 ave          94 max          77 min
Histogram: 2 8 14 3 9 7 1 2 1 1
Nghost:        1969.75 ave        2004 max        1935 min
Histogram: 2 3 7 4 8 5 8 5 5 1
Neighs:        12508.8 ave       14783 max       11113 min
Histogram: 3 6 8 11 6 8 4 0 0 2

Total # of neighbors = 600422
Ave neighs/atom = 150.10550
Neighbor list builds = 144
Dangerous builds = 14

#############################
# L I N E A R  Q U E N C H  #
#############################

# Define solid atoms. This closely follows ten Wolde  Ruiz-Montero and Frenkel  Faraday Discuss  1996  104  93-110
# Compute components of the per-atom q6 vector
compute q6 all orientorder/atom degrees 1 6 components 6 nnn NULL cutoff 1.3 # compute the Q6 parameter.
                                                                             # Use all neighbours within 1.3 unit cell.

# get number of connections
compute coord_number all coord/atom orientorder q6 0.5

# An atom is solid if it has 8 or more connections (of a possible 14)
variable is_solid atom c_coord_number>=8
group solid dynamic all var is_solid    # Must be dynamic to update
dynamic group solid defined

# do clustering
compute cluster solid cluster/atom 1.3 # Create a cluster where all atoms within are solid and max 1.3 units from another member

# define chunks one chunk per cluster
compute clus_chunks solid chunk/atom c_cluster nchunk every compress yes  # Says which atoms are in which chunk

# count the size of each chunk
compute size_chunks solid property/chunk clus_chunks count


# Find the maximum entry in the vector of chunk sizes
variable max_n equal max(c_size_chunks)


# Thermo style which includes this variable
# thermo_style custom step temp pe vol v_max_n

thermo ${N}  # Print the thermo information every 100 steps
thermo 1000  

# Reset the npt fix at a lower temperature (below freezing)
fix 1  all npt temp  ${temp} ${temp}  0.1  iso  5.68  5.68  0.5  mtk yes tchain  5  pchain  5
fix 1  all npt temp  0.45 ${temp}  0.1  iso  5.68  5.68  0.5  mtk yes tchain  5  pchain  5
fix 1  all npt temp  0.45 0.45  0.1  iso  5.68  5.68  0.5  mtk yes tchain  5  pchain  5

dump dmp2 all dcd ${N} traj.dcd
dump dmp2 all dcd 1000 traj.dcd


compute msd all msd com yes
variable twopoint equal c_msd[4]/6/(step*dt+1.0e-6)
fix 9 all vector 10 c_msd[4]
variable fit equal slope(f_9)/6/(10*dt)
thermo_style custom step temp pe c_msd[4] v_twopoint v_fit v_max_n

fix 1 all npt temp 1.25 ${temp} 0.1 iso 5.68 5.68 0.5 mtk yes tchain 5 pchain 5
fix 1 all npt temp 1.25 0.45 0.1 iso 5.68 5.68 0.5 mtk yes tchain 5 pchain 5
run 5000000 # 5000000  # Run for this many steps
Neighbor list info ...
  update every 1 steps, delay 10 steps, check yes
  max neighbors/atom: 2000, page size: 100000
  master list distance cutoff = 3.8
  ghost atom cutoff = 3.8
  binsize = 1.9, bins = 8 8 8
  4 neighbor lists, perpetual/occasional/extra = 1 3 0
  (1) pair lj/cut, perpetual
      attributes: half, newton on
      pair build: half/bin/atomonly/newton
      stencil: half/bin/3d
      bin: standard
  (2) compute orientorder/atom, occasional
      attributes: full, newton on
      pair build: full/bin/atomonly
      stencil: full/bin/3d
      bin: standard
  (3) compute coord/atom, occasional
      attributes: full, newton on
      pair build: full/bin/atomonly
      stencil: full/bin/3d
      bin: standard
  (4) compute cluster/atom, occasional
      attributes: full, newton on
      pair build: full/bin/atomonly
      stencil: full/bin/3d
      bin: standard
Per MPI rank memory allocation (min/avg/max) = 9.826 | 9.832 | 9.837 Mbytes
Step Temp PotEng c_msd[4] v_twopoint v_fit v_max_n 
   12000    1.2410719   -3.6638488 1.1501592e-30 7.9872163e-33 8.3333333e+20            3 
   13000    1.2529572   -3.6741523   0.91990393 0.0058968198  0.077629334            2 
   14000    1.2633226   -3.6842771    1.8737468  0.011153254   0.07933547            2 
   15000    1.2368824   -3.7088068    2.7789711  0.015438728  0.077989291            2 
   16000    1.2085836    -3.713234    3.6991528   0.01926642  0.077102309            3 
   17000    1.2501508   -3.6552754    4.6577774  0.022832242  0.077226971            1 
   18000    1.2489658    -3.688747    5.6763428  0.026279364  0.078193778            2 
   19000    1.2442477   -3.6835731    6.7044406   0.02940544  0.079359755            2 
   20000    1.2438191   -3.6967433     7.600999  0.031670829  0.079772707            3 
   21000    1.2378931   -3.6965319    8.5667284  0.033994953  0.080008183            4 
   22000    1.2514677   -3.7011805     9.526532  0.036085348  0.080117867            3 
   23000    1.2649574   -3.6583663    10.427308  0.037780101  0.080053352            1 
   24000    1.2270724   -3.6741781    11.496362  0.039917921   0.07984856       -1e+20 
   25000    1.2705361   -3.6866183    12.467465  0.041558216  0.080097084            1 
   26000    1.2319915   -3.6964399    13.514645   0.04331617  0.080331971            3 
   27000    1.2466781   -3.7044138    14.727017  0.045453755  0.080969296            4 
   28000    1.2348026   -3.6876024    15.876599  0.047251783  0.081689371            1 
   29000    1.2437122   -3.6822493    17.104608  0.049151171  0.082435272            2 
   30000    1.2581172   -3.7004745    17.955185  0.049875513  0.083116659            1 
   31000    1.2192758   -3.7022557    19.155396  0.051492999  0.083559776            3 
   32000    1.2788781   -3.6987463    20.014266  0.052120482  0.083905365            2 
   33000    1.2304505   -3.6940437    21.036129  0.053121537  0.084104489            1 
   34000    1.2331687   -3.6769257    22.245311  0.054522821  0.084380173            2 
   35000    1.2145235   -3.6568838    23.390386  0.055691396  0.084774842            1 
   36000    1.2339843   -3.6769557    24.492591  0.056695812  0.085220094            1 
   37000    1.2611585   -3.6725091    25.530377  0.057500849  0.085574913            1 
   38000    1.2468737   -3.6520411    26.340953  0.057765248  0.085738832            2 
   39000    1.2422703   -3.7008925    27.424311  0.058598955  0.085846818            1 
   40000    1.2141858   -3.6876367    28.416961     0.059202  0.085945772            2 
   41000    1.2362642   -3.6948375    29.431009  0.059819124  0.086006838            2 
   42000    1.2282537   -3.6980321    30.557035  0.060629037  0.086055929            2 
   43000    1.2842781   -3.6871263    31.342468  0.060741216  0.086065465            3 
   44000    1.2191831   -3.7188055    32.246976  0.061073818  0.086003207            2 
   45000    1.2217641   -3.6975539    33.287527  0.061643568  0.085946629            1 
   46000    1.2616189   -3.6773038    34.406712     0.062331  0.085879857            1 
   47000    1.2528986   -3.7129568     35.32508   0.06263312  0.085814248            3 
   48000     1.254133   -3.6659828    36.244862  0.062925108  0.085719526            4 
   49000     1.261335   -3.6889817    37.236597  0.063327546  0.085595167            1 
   50000    1.2671637    -3.664827    37.887052  0.063145086  0.085432144            2 
   51000    1.2237822   -3.6944843    38.851908  0.063483508   0.08523451            2 
   52000    1.2189844   -3.6978622    39.865691  0.063887325  0.085033375            2 
   53000    1.2384809   -3.6741818    41.253049  0.064863284  0.084927188            2 
   54000    1.2439269   -3.7081223    42.544049  0.065654396  0.084899496            3 
   55000    1.2537185    -3.703958    43.591516  0.066047751  0.084940992            1 
   56000    1.2215488   -3.6615865    44.522267  0.066253373  0.084941983            2 
   57000    1.2394227    -3.681253    45.676173  0.066778031  0.084983674            2 
   58000    1.2658129   -3.6806636    46.678501  0.067066811  0.085015319            2 
   59000     1.255008   -3.6978729    47.734297  0.067421322  0.085039056            3 
   60000    1.2577984   -3.7204616    48.916144  0.067939088   0.08509171            2 
   61000    1.2398413   -3.7202316    49.989608  0.068291814  0.085144249            2 
   62000    1.2457835   -3.6720056    51.063679  0.068633977  0.085197173            2 
   63000    1.2555004   -3.7314672    52.213725  0.069065773  0.085291409            3 
   64000     1.259865   -3.7201389    53.185774  0.069252309  0.085395806            1 
   65000    1.2479389    -3.720636    54.102624  0.069362338  0.085473488            1 
   66000    1.2317136   -3.6992026    54.872876  0.069283933  0.085484805            2 
   67000     1.233001   -3.6994701    55.380118  0.068880743  0.085446132            1 
   68000    1.2236675   -3.7167869    56.491917   0.06923029  0.085393025            1 
   69000    1.2531397   -3.6840873    57.714558  0.069703572  0.085328013            2 
   70000    1.2531123   -3.6910331    58.673335  0.069849208  0.085272483            3 
   71000    1.2401047    -3.702492    59.761712  0.070142854  0.085252506            2 
   72000    1.2677511   -3.7066129    61.134135  0.070757101  0.085250204            1 
   73000    1.2214674   -3.7184376    62.152398  0.070950226  0.085258404            2 
   74000    1.2455218   -3.7252327    63.265612  0.071245058   0.08527147            3 
   75000    1.2518924     -3.70193    64.166713  0.071296348  0.085301858            1 
   76000    1.2650193   -3.6917015    65.470217  0.071787518  0.085320054            1 
   77000    1.2311232   -3.7062753    66.601703  0.072079765  0.085361854            2 
   78000     1.224777   -3.7165714    67.205426  0.071800668  0.085383166            2 
   79000    1.2302508    -3.695512    68.035918  0.071767846  0.085376945            3 
   80000    1.2335614   -3.6781366    69.170721  0.072052834  0.085380223            4 
   81000    1.2704279   -3.6754212    70.046164  0.072063954  0.085390285            4 
   82000     1.242123   -3.6802192    71.092857  0.072248838  0.085384723            2 
   83000    1.2401615   -3.7161402    72.030537  0.072319816  0.085358793            2 
   84000    1.2317154   -3.6947634    73.175608  0.072594848  0.085335173            4 
   85000    1.2296447   -3.6721702    74.198665  0.072743789  0.085310201            2 
   86000    1.2540758   -3.6969937    74.850006  0.072529075  0.085278742            1 
   87000    1.2355294   -3.6539641    75.899735  0.072700895  0.085236433            1 
   88000     1.231289   -3.6770077    76.683268  0.072616731  0.085195284            2 
   89000    1.2278251   -3.6981904    77.540877  0.072603817  0.085122309            1 
   90000    1.2280901   -3.7203951    77.965821  0.072190574  0.085022406            2 
   91000    1.2236828   -3.7491252    79.131829  0.072465045   0.08493995            3 
   92000    1.2518042   -3.6890182    80.589865  0.072998066  0.084866368            1 
   93000    1.2170325    -3.723314    81.668825   0.07317995  0.084806695            1 
   94000    1.2267663   -3.6612924    82.662865  0.073282681  0.084747235            4 
   95000    1.1906041   -3.6938631    83.023757  0.072827857  0.084667419            2 
   96000    1.2564732   -3.6766949    84.490821  0.073342727  0.084593258            2 
   97000    1.2319015   -3.6481815    85.655378  0.073587094  0.084544859            1 
   98000    1.2027216   -3.7101891    85.977163  0.073109832  0.084493386            2 
   99000    1.2156766   -3.6771596    87.529785   0.07367827  0.084436011            1 
  100000    1.2308031    -3.696834    88.087976  0.073406647   0.08438545            1 
  101000     1.228336   -3.6686046    89.407262  0.073768368  0.084339987            1 
  102000    1.2311445   -3.7580086     89.96238  0.073498676  0.084297223            2 
  103000    1.2461814   -3.7451185    90.859867  0.073511219  0.084245919            1 
  104000    1.2456968   -3.7129247    91.816279  0.073570736   0.08419646            1 
  105000     1.252321   -3.7112535      92.6736  0.073550476  0.084143709            1 
  106000    1.2177838   -3.7285532     93.60653  0.073590039  0.084090835            1 
  107000    1.2470537   -3.7335195    94.766618  0.073805777  0.084034619            1 
  108000    1.2446663   -3.7185513    95.608088  0.073771673  0.083984944            2 
  109000    1.2038727   -3.7223859    96.795834  0.074002931    0.0839342            2 
  110000    1.2335503   -3.7047412    97.961415  0.074213193  0.083890038            4 
  111000    1.2363895    -3.692591    99.011872  0.074333237  0.083859819            3 
  112000    1.2507342   -3.6971904    99.895886  0.074327296  0.083827574            1 
  113000    1.2071876   -3.6888514    101.51855  0.074866186  0.083797204            4 
  114000    1.2361728    -3.720559    101.74526  0.074375189  0.083750115            2 
  115000    1.2205382   -3.6816827    102.57747  0.074331499  0.083692025            1 
  116000    1.2430256   -3.7275277    103.56516  0.074400259  0.083637985            2 
  117000    1.2399559   -3.7294691    104.37626  0.074342064  0.083587061            2 
  118000    1.2201258   -3.7239901      105.725  0.074664548  0.083535086            3 
  119000    1.2483518   -3.7109421     106.5699  0.074628779  0.083484575            5 
  120000    1.2184651   -3.7115767     106.7629  0.074140904  0.083420593            2 
  121000    1.2304609   -3.7018397    108.05492  0.074417987  0.083355015            2 
  122000    1.2208058   -3.7126656    108.34414  0.074005558  0.083285522            3 
  123000    1.2209781   -3.6883058    109.54281  0.074215997  0.083209825            3 
  124000    1.2511686   -3.7062162    110.62029  0.074341594  0.083143923            2 
  125000    1.2288392   -3.7462145    110.91071  0.073940475  0.083076356            2 
  126000    1.2589717   -3.7048406    111.93352  0.074030104  0.082999151            1 
  127000    1.2163439   -3.7001762    113.41541  0.074419559  0.082929344            1 
  128000    1.2119236   -3.6683632    114.29839  0.074413015  0.082857869            1 
  129000     1.236284   -3.7323952    114.04759  0.073674156  0.082778509            1 
  130000    1.2504423   -3.7273443    115.44638   0.07400409  0.082710481            1 
  131000    1.2378441   -3.6846676    116.92376  0.074378984  0.082650302            2 
  132000    1.2336632   -3.7299116    118.12809  0.074575815  0.082586736            2 
  133000    1.2337485     -3.67645    119.10707  0.074628491  0.082532223            1 
  134000    1.2349161   -3.6785169    119.94095  0.074590146  0.082486704            3 
  135000    1.2042976   -3.7241898    120.95191  0.074661671  0.082437502            2 
  136000    1.2498573   -3.7126228    121.86733  0.074673608  0.082389187            1 
  137000    1.2305388   -3.7039248    123.07136  0.074860924  0.082345308            1 
  138000    1.2101341   -3.6841696    124.27619  0.075046006  0.082314309            1 
  139000    1.2456118   -3.7344151    125.29383  0.075116204  0.082289789            1 
  140000    1.2376823   -3.7119421    126.49432  0.075294239  0.082265876            2 
  141000    1.2306875   -3.6925103    128.18887  0.075761745   0.08224202            1 
  142000    1.2356808   -3.7366008    129.05662  0.075737455  0.082231615            2 
  143000    1.2611553   -3.7469658    129.47583  0.075452115  0.082222457            2 
  144000    1.2190685   -3.7086783    130.82685  0.075709981  0.082209588            1 
  145000    1.2444494   -3.7220478    131.59526  0.075629462  0.082194612            4 
  146000    1.2053541   -3.7072979    132.19388  0.075453126  0.082177503            1 
  147000    1.2181799   -3.7173698    133.51959  0.075691375  0.082157221            1 
  148000    1.2376846   -3.7310438    134.01362  0.075458121  0.082147859            2 
  149000    1.2420179   -3.7053831    135.75475  0.075925477  0.082139895            4 
  150000    1.2275883   -3.7520836    136.06003  0.075588903  0.082127244            3 
  151000    1.1816349   -3.7283327    137.17055  0.075701185   0.08212175            2 
  152000    1.1999774   -3.7022496    139.13825  0.076281936  0.082126077            2 
  153000    1.2415501   -3.6888735    140.56038   0.07655794  0.082128637            2 
  154000    1.2279125   -3.6902215    140.52149  0.076039765  0.082130772            1 
  155000    1.2155676    -3.688705    141.80028  0.076236709  0.082123828            1 
  156000    1.2346495   -3.6820721     142.3973  0.076066931  0.082115764            3 
  157000    1.2089268   -3.6749988    143.38013  0.076104104  0.082104684            3 
  158000    1.2251498   -3.7429281    143.41138  0.075638913  0.082093879            2 
  159000     1.231717   -3.7030366    145.44828  0.076230752  0.082081203            3 
  160000    1.2339536   -3.7188234    146.54636  0.076326228  0.082063051            2 
  161000    1.2215578   -3.7292203    146.41253  0.075782882  0.082046537            2 
  162000    1.2014328    -3.760222     147.6865  0.075970422  0.082020203            2 
  163000    1.2156361   -3.7300733    148.75609  0.076051169  0.082000738            1 
  164000    1.2411484   -3.7479507    149.87847  0.076157759  0.081986488            4 
  165000    1.2344135    -3.723276    151.20863  0.076367996  0.081973889            1 
  166000    1.2323488   -3.7141033    151.68582  0.076147498  0.081965007            4 
  167000    1.2285766   -3.7213168    152.79019  0.076242609  0.081951527            2 
  168000    1.2076779   -3.7384075    153.27716  0.076030338  0.081936492            2 
  169000    1.2246237   -3.7353538    154.58261  0.076224165  0.081920099            4 
  170000    1.2338222   -3.7658589    154.83619  0.075900093  0.081903707            2 
  171000     1.232401   -3.7361611    156.40708  0.076221773  0.081894111            3 
  172000    1.1916992   -3.6835721    157.71025  0.076410006  0.081881071            2 
  173000    1.2034404   -3.7080114    158.78631  0.076486664  0.081860867            2 
  174000    1.2280349   -3.7209648     159.2124  0.076251149  0.081846217            1 
  175000    1.2109992   -3.7336344    160.59013  0.076471492  0.081837776            3 
  176000    1.1975681   -3.7401897    162.05723  0.076731643  0.081827982            2 
  177000    1.2314603   -3.6922666    163.08034  0.076779822  0.081824432            2 
  178000    1.2074187   -3.7137963    164.50105  0.077013599   0.08182611            3 
  179000    1.1964221   -3.7375251    164.37089   0.07652276  0.081821575            3 
  180000    1.2131826   -3.7311056    165.39565  0.076572059  0.081813262            3 
  181000    1.2305504   -3.7032679    166.85667  0.076821672  0.081802145            3 
  182000    1.2122154   -3.7716586    167.28157  0.076594124  0.081797216            4 
  183000    1.2240588   -3.7440343    169.07125  0.076990551  0.081792459            3 
  184000    1.2320648   -3.7201729    169.48832  0.076761014  0.081785652            2 
  185000    1.2255595   -3.7229107    170.21608  0.076673911  0.081785562            4 
  186000     1.212965   -3.7490815    170.39336  0.076341111  0.081777932            2 
  187000     1.224144   -3.7357987    172.02284  0.076659018  0.081764517            1 
  188000    1.2412551    -3.742204    172.89239  0.076636699  0.081752634            2 
  189000    1.2027305   -3.6935661    174.83098  0.077085972  0.081739554            1 
  190000    1.2184758   -3.7055999    175.08854   0.07679322  0.081727811            1 
  191000    1.2294178   -3.7056338    175.91966  0.076753777  0.081714043            2 
  192000    1.2200757   -3.7307592    176.58759  0.076643917  0.081697749            3 
  193000    1.2139841   -3.7298868    177.34749  0.076574908  0.081676524            3 
  194000    1.2006922   -3.7083535    178.82283  0.076813932  0.081661395            1 
  195000    1.2447664   -3.7726912    179.45873  0.076691763  0.081647066            1 
  196000    1.2452546   -3.7615745    179.65013  0.076381859   0.08163062            2 
  197000    1.2076654   -3.7236974    181.62658  0.076830195  0.081616745            1 
  198000    1.2652251   -3.7066495    182.14568  0.076660639  0.081603533            2 
  199000    1.2094456   -3.6970968    183.97086  0.077039723  0.081592467            1 
  200000    1.2088965   -3.7307278    184.06771   0.07669488  0.081583635            2 
  201000    1.2180629   -3.7515945    184.79353  0.076614233  0.081573135            2 
  202000    1.1861231   -3.7320339     186.8595  0.077087252   0.08156076            4 
  203000    1.2323244   -3.7314702    187.56666   0.07699781  0.081553258            1 
  204000    1.2351416   -3.7023855    188.32733  0.076931099   0.08154472            2 
  205000    1.2038857   -3.7148565    189.88678  0.077189747  0.081533252            2 
  206000    1.2278932   -3.7259788    190.47345  0.077052366  0.081518063            1 
  207000    1.2060951    -3.717726    191.01016  0.076896201  0.081507228            4 
  208000    1.1876577    -3.707034    192.38404   0.07707694   0.08149752            3 
  209000    1.2188518   -3.6967674    193.58021  0.077185093  0.081486714            4 
  210000    1.2234137   -3.7348314     193.8916  0.076941109  0.081477078            1 
  211000    1.1754173   -3.7554557    195.04343  0.077031371  0.081470699            6 
  212000    1.1986542   -3.7112392    197.00819  0.077440327  0.081467068            5 
  213000    1.2469797   -3.7263199    196.87333  0.077023993   0.08146465            1 
  214000    1.2334839   -3.7266967    198.63467  0.077349949  0.081458966            4 
  215000    1.2304316   -3.7150244    200.59392  0.077749582  0.081459743            2 
  216000    1.2258842   -3.7656659    199.21581   0.07685795  0.081458907            2 
  217000    1.2001199   -3.7418261    202.23042   0.07766145  0.081460935            2 
  218000    1.2110441    -3.736977    203.54555  0.077807932  0.081468807            2 
  219000    1.1955264   -3.7248192    203.42862   0.07740815  0.081476688            2 
  220000    1.2165094   -3.7739938     204.3616  0.077409695  0.081478103            2 
  221000    1.1738858   -3.7040365    205.75562  0.077585075  0.081476058            2 
  222000    1.2268602   -3.7482894    206.51831  0.077521889  0.081476092            2 
  223000    1.2264418   -3.7458239    207.74684  0.077633348  0.081478512            2 
  224000    1.2132761    -3.730747    209.08014   0.07778279  0.081480413            2 
  225000    1.2179175   -3.7204181    209.48845  0.077588314  0.081478418            2 
  226000    1.2352127   -3.7205308    210.08545  0.077465135  0.081478623            1 
  227000    1.1802297   -3.7315742    211.16437  0.077519958  0.081480511            3 
  228000    1.2390752   -3.7444604    211.38524  0.077260686  0.081478068            1 
  229000    1.2147973   -3.7521997    212.93576   0.07748754  0.081478215            1 
  230000    1.2012418   -3.7283828    213.86817  0.077488466  0.081478509            2 
  231000    1.2193175   -3.7384224    216.53347  0.078114527  0.081483918            3 
  232000    1.2026643   -3.7212668    217.70265   0.07819779  0.081492527            2 
  233000    1.2098957   -3.7143057    218.38536  0.078106352  0.081503133            1 
  234000    1.2377025   -3.7440865    218.39714   0.07777676  0.081509928            1 
  235000    1.2258353   -3.7407009    219.96556  0.078001971  0.081513286            3 
  236000    1.2160977   -3.7236014    221.41534  0.078183382  0.081518828            2 
  237000    1.2112462   -3.7519742    220.30758  0.077463986  0.081518634            2 
  238000    1.2010866   -3.7295024    222.01383  0.077735934  0.081516565            2 
  239000    1.2342748   -3.7172542    223.51752  0.077934978  0.081513381            1 
  240000    1.2051257   -3.7238811    223.65886  0.077659327  0.081506186            4 
  241000    1.2134179    -3.730361    224.35342  0.077577255   0.08149613            2 
  242000    1.2181953   -3.7076953    224.75427  0.077394721  0.081485906            3 
  243000    1.2070472   -3.7439708     225.9375  0.077481997   0.08147534            2 
  244000    1.2175462   -3.7363436    226.55454  0.077375186  0.081464656            3 
  245000    1.2121406    -3.773397    226.94962  0.077193749  0.081454737            1 
  246000    1.2043058   -3.7505983    228.05649  0.077254909  0.081440544            2 
  247000    1.2170329   -3.7475171    228.92948  0.077236666  0.081425082            2 
  248000    1.2072414   -3.7279414    229.37809  0.077075969  0.081407037            4 
  249000     1.194479   -3.7851274    229.74174  0.076888131  0.081387649            4 
  250000    1.2235119   -3.7381772    233.01191  0.077670638   0.08136847            2 
  251000    1.1904869   -3.7066717    233.11627  0.077395839  0.081352898            1 
  252000    1.1956665   -3.7484186    233.29076  0.077146415  0.081338338            1 
  253000    1.2173082   -3.7307651    235.39279  0.077533858   0.08132673            2 
  254000    1.2223685   -3.7217593    236.13528  0.077472205  0.081310746            2 
  255000    1.2206191   -3.7395068    234.92688  0.076773491  0.081291417            1 
  256000    1.2013429   -3.7137945    237.88103  0.077435232  0.081271472            2 
  257000    1.2188884   -3.7552962    238.47027  0.077324991   0.08125419            1 
  258000    1.2046982   -3.7468558    238.72013  0.077105985  0.081236807            2 
  259000    1.2199545   -3.6960578    240.59683  0.077412107  0.081219068            2 
  260000    1.1964588   -3.7225706    243.09897  0.077916336  0.081203326            1 
  261000    1.2154818   -3.7354528    241.96959  0.077257213  0.081187413            2 
  262000    1.2433072   -3.7581011    242.80834  0.077229115  0.081172675            1 
  263000     1.221344   -3.7435267    245.00675  0.077632051  0.081158444            2 
  264000    1.2229429   -3.7411111    245.14882  0.077382834  0.081150482            1 
  265000    1.1983303   -3.7307407    246.48206   0.07751008  0.081140931            1 
  266000    1.1905559   -3.7209082    249.36135  0.078120725   0.08113293            1 
  267000    1.2101875   -3.7635328    248.55694  0.077577073  0.081123527            1 
  268000    1.1789502   -3.7848172    249.28759  0.077514796  0.081112148            2 
  269000    1.2091611   -3.7418557    250.51724   0.07760757  0.081105762            2 
  270000    1.2092379   -3.7547958    250.81144  0.077410937  0.081093708            2 
  271000    1.2055381    -3.751619    251.83738  0.077440768  0.081079745            2 
  272000    1.2184973   -3.7549652    254.01962  0.077824639  0.081065688            1 
  273000    1.1885699   -3.7357955    253.94882  0.077517956    0.0810534            1 
  274000    1.2322306   -3.7968295    253.38106  0.077062365   0.08103889            2 
  275000    1.2038195   -3.7416777    256.57007  0.077748506  0.081023409            1 
  276000    1.2290952   -3.7632583    256.07812  0.077318274   0.08100958            1 
  277000     1.200426   -3.7561742    256.05676   0.07703272  0.080995382            1 
  278000     1.174444   -3.7554565    258.06103  0.077356425  0.080980725            2 
  279000    1.2020899    -3.736673     258.4125  0.077184139  0.080963751            2 
  280000     1.193779   -3.7478586    258.53083  0.076943698  0.080947506            2 
  281000    1.1899183   -3.7265797    261.08978  0.077428761  0.080930167            1 
  282000    1.2027728   -3.7508001    262.07662   0.07744581   0.08091496            5 
  283000    1.2204954   -3.7554963    262.08997  0.077176081  0.080897047            2 
  284000    1.2087218   -3.7751832    262.11961   0.07691303  0.080879847            3 
  285000    1.2114216   -3.7595672    264.38509  0.077305581  0.080863071            4 
  286000    1.2174517   -3.7690265    265.21168  0.077276132  0.080848209            3 
  287000    1.2182217   -3.7650703    264.81004  0.076890257  0.080834076            3 
  288000    1.1937684   -3.7470292    266.29175   0.07705201  0.080819267            2 
  289000    1.1908379   -3.7272336    267.62973  0.077171204   0.08080158            2 
  290000    1.2187323   -3.7448754    267.81763  0.076959088  0.080783499            3 
  291000    1.1880523   -3.7417243    268.25834  0.076820831   0.08076193            2 
  292000    1.2111219   -3.7520228    269.32477  0.076862092  0.080739829            2 
  293000    1.1713905   -3.7720332    271.05258  0.077091177   0.08071855            2 
  294000    1.2217669   -3.7586577    271.88945  0.077066171  0.080695049            2 
  295000     1.192119   -3.7646016    271.80873  0.076782127  0.080671842            3 
  296000    1.1983252   -3.7294191    273.53497   0.07700872  0.080651312            2 
  297000    1.2306163   -3.7575916    274.21567  0.076940422  0.080631889            1 
  298000    1.1956219   -3.7654198    275.82445  0.077132116  0.080616269            1 
  299000    1.2017985    -3.751334    277.12791  0.077237433  0.080603706            2 
  300000    1.2010894   -3.7516237    279.21646  0.077560129  0.080590044            2 
  301000    1.2149103   -3.7452042    279.99485  0.077517955   0.08057671            1 
  302000    1.2182678   -3.7644825    279.88736  0.077231611  0.080560022            3 
  303000    1.1882229    -3.754126    280.54905  0.077158705  0.080541389            3 
  304000     1.225577   -3.7364789    281.37306  0.077130774  0.080521584            2 
  305000    1.1989823   -3.7652447     282.6638  0.077230547  0.080509344            2 
  306000    1.1736143   -3.7543334    283.74424  0.077272397  0.080494183            2 
  307000    1.1873496   -3.7518657    283.99285  0.077088178  0.080481259            1 
  308000    1.1952589   -3.7489837    285.66491  0.077290289  0.080465192            2 
  309000    1.1873462   -3.7117926    287.20113  0.077454456  0.080446941            1 
  310000    1.2060283   -3.7706367    286.33703  0.076972319  0.080428247            2 
  311000    1.2217399   -3.7312442     287.1477  0.076942043  0.080407173            1 
  312000    1.2062682   -3.7403098     288.8275  0.077144097  0.080388415            2 
  313000    1.2334859   -3.7583932     289.1907  0.076994329  0.080367515            2 
  314000    1.2208785   -3.7808941    288.93637  0.076681626  0.080345693            3 
  315000    1.2179252   -3.8102619    289.70111  0.076640505  0.080325387            1 
  316000    1.2067684   -3.7477218    292.08813  0.077027461  0.080304918            1 
  317000    1.2058729   -3.7475903    294.34706  0.077378301  0.080289472            2 
  318000    1.2004228   -3.7595282    295.50322   0.07743795  0.080272059            4 
  319000    1.2239931   -3.7296676    296.24702  0.077389504  0.080256108            1 
  320000     1.187621   -3.7338861    296.32829  0.077168825  0.080240779            2 
  321000      1.20622   -3.7438853    297.34937  0.077193501  0.080226076            1 
  322000    1.2145407   -3.7570437    297.32882  0.076948451  0.080208352            1 
  323000    1.1927859   -3.7366467    298.30861  0.076963004  0.080190256            2 
  324000    1.2176259   -3.7428799    299.51393  0.077035477   0.08017187            3 
  325000    1.2188452   -3.7516565    299.79442  0.076870363  0.080150503            2 
  326000    1.2082917   -3.7693563    301.03086   0.07695063  0.080129895            2 
  327000    1.1972065   -3.7805144    300.42989  0.076562153  0.080106519            1 
  328000    1.1832466   -3.7655789    301.09451  0.076497588  0.080082768            1 
  329000    1.1916949   -3.7514165    301.10968  0.076268915  0.080055184            2 
  330000    1.1957621   -3.7528072    303.10565  0.076541832  0.080027566            2 
  331000    1.1944165   -3.7366358    304.14618  0.076572553  0.079998962            1 
  332000    1.1988879   -3.7155748    304.69574  0.076479855  0.079972135            2 
  333000    1.2098149   -3.7606354    305.16611  0.076367896  0.079943583            3 
  334000    1.1889352   -3.7789102    304.10396  0.075874243  0.079913769            2 
  335000    1.1957513   -3.7566822    306.92362  0.076349159  0.079880819            3 
  336000    1.1889995   -3.7613989    307.06123  0.076156058  0.079848257            3 
  337000    1.2059881   -3.7689115     307.5608   0.07605361  0.079816162            3 
  338000    1.2198345   -3.7596939    308.55688  0.076074182  0.079784001            3 
  339000    1.2015796   -3.7746083    309.73562  0.076139534  0.079752538            3 
  340000    1.1685818   -3.7601304    310.54103  0.076112997  0.079719963            3 
  341000    1.2187817   -3.7660179    311.08608  0.076022992  0.079683734            3 
  342000    1.1873535   -3.7537129    311.38879  0.075874463  0.079651556            6 
  343000    1.1854695    -3.773651    313.42661   0.07614835   0.07961912            2 
  344000    1.1767758    -3.759503    313.40808  0.075922499  0.079588026            1 
  345000    1.1798061     -3.75313    313.56085  0.075739335  0.079559256            3 
  346000    1.1848327   -3.7827973    316.82676  0.076307024   0.07952793            1 
  347000     1.182668   -3.7732448    315.43825  0.075753661  0.079496937            2 
  348000    1.1867473   -3.7450193    316.76724  0.075854224  0.079466209            3 
  349000    1.1913139   -3.7648854    317.98151  0.075926818  0.079438795            1 
  350000    1.2009592   -3.7727031    319.92592  0.076172839  0.079411521            2 
  351000    1.2062276   -3.7496503    321.43827  0.076314879  0.079386936            2 
  352000    1.2068543   -3.7655017    321.88177   0.07620307  0.079358453            1 
  353000    1.2061422   -3.7651543    321.61918  0.075925208  0.079331723            2 
  354000    1.2005498   -3.7821657    321.84895  0.075764819   0.07930424            2 
  355000    1.2212965   -3.7420024     323.9354  0.076041174  0.079278183            2 
  356000     1.186477   -3.7696355    324.27374  0.075906773  0.079252256            4 
  357000    1.2486246   -3.7727408    326.76343  0.076275311  0.079227318            2 
  358000    1.1877159   -3.7588848    327.68281  0.076276259  0.079200949            2 
  359000    1.2063746   -3.7627115     326.0601  0.075687118  0.079174324            1 
  360000    1.1906793   -3.7768124    328.74178  0.076097635   0.07914688            1 
  361000    1.1576642   -3.7604586     329.7693   0.07612403  0.079121478            2 
  362000    1.2079272   -3.7722204    330.17472  0.076007071  0.079097033            1 
  363000    1.1997245    -3.768264    331.05666  0.076000152  0.079073564            2 
  364000    1.1862752   -3.7610406    332.27415  0.076070089   0.07904899            3 
  365000    1.2013021   -3.7382915    333.90809  0.076234723  0.079022577            2 
  366000    1.2081832   -3.7724144    332.14913  0.075625939  0.078995803            1 
  367000    1.1820651   -3.7296508    335.90557  0.076272836  0.078969021            3 
  368000    1.2006743   -3.7661156    335.11496  0.075886539  0.078943468            1 
  369000    1.1977391   -3.7459555    336.84724  0.076072097  0.078919937            2 
  370000    1.1896237    -3.763954    336.77676   0.07585062  0.078892964            1 
  371000    1.1997504   -3.7797054    336.13166  0.075501271  0.078866269            2 
  372000    1.2004554   -3.7712368    338.12849   0.07574563  0.078839834            2 
  373000    1.2033353    -3.816165    339.50842  0.075850854  0.078813981            1 
  374000    1.1849808   -3.7794359    337.96093  0.075303237  0.078785761            2 
  375000    1.2007577   -3.7791593     342.4296  0.076095467  0.078763103            2 
  376000    1.1521179   -3.7523938    343.93744   0.07622727  0.078738983            5 
  377000    1.1958248   -3.7603382    344.15353  0.076072839  0.078717749            1 
  378000    1.2125604   -3.7601484    345.53195  0.076175474  0.078697631            1 
  379000    1.1877149   -3.7820707    345.69132  0.076009525  0.078677369            1 
  380000    1.1978201   -3.7705546    345.73775  0.075819683  0.078654449            2 
  381000    1.1763044   -3.7727552    346.77709  0.075848008  0.078630758            3 
  382000    1.1859822   -3.7537831    348.09664  0.075937311  0.078607777            2 
  383000    1.1958475   -3.7855749    347.41172  0.075590018  0.078584129            1 
  384000    1.1858018   -3.7940515    348.07489  0.075537085    0.0785578            2 
  385000    1.1837969   -3.7573785    348.58826  0.075452004  0.078529815            1 
  386000    1.1741449   -3.7949658    350.17168  0.075598376  0.078501893            4 
  387000    1.1626492   -3.7899697    351.30234  0.075646498   0.07847685            3 
  388000    1.1974167   -3.7535097    352.56051  0.075721758  0.078452067            4 
  389000    1.2079525   -3.7937326    352.71019  0.075559166  0.078428102            3 
  390000    1.1960781   -3.7799305    352.34979  0.075288417  0.078402916            5 
  391000     1.193292   -3.7733814    353.33894   0.07530668  0.078378434            5 
  392000    1.1782879   -3.7990391    356.08244  0.075697799  0.078358139            5 
  393000    1.1934455    -3.799162    358.03975  0.075920218  0.078335947            1 
  394000    1.2143858   -3.7623329    357.35303  0.075582283  0.078314093            2 
  395000    1.1873817   -3.7274667     359.1935   0.07577922   0.07829293            2 
  396000    1.1997422   -3.7909912     359.5129  0.075655071  0.078271734            3 
  397000     1.167914   -3.7621045    362.20325   0.07602923  0.078249875            2 
  398000    1.2060268   -3.7692111    360.33992  0.075448056  0.078226813            2 
  399000    1.1760152   -3.7863633    361.21556  0.075441847  0.078201258            2 
  400000    1.1590984   -3.7782858    363.43302  0.075715211  0.078175729            1 
  401000    1.2132447   -3.7747015    363.65549   0.07557263  0.078152148            2 
  402000    1.2171523   -3.7877445    363.84401  0.075423716  0.078126085            2 
  403000    1.2045265   -3.7792416    364.49739  0.075371669  0.078100748            3 
  404000    1.1927651   -3.7987136    365.77731  0.075449115  0.078074675            1 
  405000    1.1711333   -3.7775365    364.39396   0.07497818  0.078047131            3 
  406000     1.195952   -3.7745918    365.34352  0.074988408   0.07802174            1 
  407000    1.1975915   -3.7797717    366.82734  0.075107974  0.077994669            2 
  408000    1.1738214   -3.7621367    367.47773  0.075056726  0.077968843            1 
  409000    1.2071497   -3.7685888    371.03683  0.075598376  0.077946468            2 
  410000    1.1780062   -3.7814703    369.88899  0.075180689  0.077922591            1 
  411000    1.2069311   -3.7678987    373.10102   0.07564903  0.077899054            1 
  412000    1.1732755   -3.7728998    371.37032  0.075115355  0.077873485            2 
  413000    1.1944177   -3.7800755     371.8802   0.07503636  0.077846613            3 
  414000    1.1775159   -3.7560133    374.10754   0.07530345  0.077822747            3 
  415000    1.1661555   -3.8066495    373.84645  0.075069568  0.077798672            2 
  416000    1.1889589   -3.7681014    376.18412  0.075357395  0.077775675            3 
  417000    1.1904173   -3.7881953    378.74024  0.075687498  0.077754623            2 
  418000    1.1758321   -3.7587473    379.24082  0.075606223  0.077733875            3 
  419000    1.2011677    -3.807482    379.17819  0.075413324  0.077713598            1 
  420000    1.2199814   -3.7662197    380.84606  0.075564695  0.077694135            2 
  421000    1.2005936   -3.7685282    381.65378  0.075545087  0.077675102            5 
  422000    1.1876462   -3.7804818    382.17083  0.075468173  0.077655927            6 
  423000    1.1962619   -3.7909573    382.05385  0.075266716  0.077636704            1 
  424000    1.1817007    -3.741526    383.94302  0.075460499  0.077618151            1 
  425000    1.1704585   -3.8017803    383.07615  0.075112971  0.077598007            2 
  426000    1.1690397      -3.7483    385.15047  0.075342425   0.07757951            3 
  427000    1.1878428   -3.7632163    385.63968  0.075261452  0.077557781            1 
  428000    1.1820563   -3.8037497    385.69698  0.075096763   0.07753603            2 
  429000     1.194816   -3.7861584    387.63418  0.075298014  0.077514588            1 
  430000    1.1827816   -3.8145583    387.47762  0.075092563  0.077493482            1 
  431000    1.1857228   -3.8136801    387.98148  0.075015754  0.077470218            2 
  432000    1.2018113   -3.7958894    387.87103  0.074820801  0.077446675            7 
  433000    1.1786861   -3.7836732    390.21521  0.075099154  0.077422302            3 
  434000    1.2013826   -3.7718441    388.97522  0.074688022  0.077396528            1 
  435000    1.1865574   -3.7896996    390.87611  0.074880481   0.07737338            3 
  436000    1.1735518   -3.8033857    391.81926  0.074889002  0.077349967            3 
  437000    1.1625551   -3.7481909     393.8847  0.075111498  0.077326901            2 
  438000    1.1923934   -3.7754889    395.51221   0.07524966  0.077303483            1 
  439000    1.1803691   -3.7683959    396.75734  0.075314605  0.077282645            3 
  440000     1.183286   -3.7891665    397.80921  0.075342654  0.077264225            4 
  441000    1.1810003   -3.7849653    398.27201  0.075259262  0.077244506            3 
  442000    1.1760184   -3.7976373    399.67876  0.075354216  0.077224899            2 
  443000    1.1856448    -3.770012    401.52594  0.075531591  0.077208555            1 
  444000    1.1557177   -3.8053519     401.6257  0.075380199  0.077191349            3 
  445000    1.1616519   -3.7878895    402.64502  0.075401689  0.077175032            1 
  446000    1.1844704   -3.7709981    402.81588  0.075264551  0.077161251            2 
  447000    1.2049886    -3.828176    403.70995  0.075262854  0.077146001            2 
  448000    1.1886078   -3.7937641    403.32572  0.075023385  0.077127899            3 
  449000    1.1739685   -3.7875305    407.54784  0.075639911  0.077113075            2 
  450000    1.1856799   -3.8123131    406.17761  0.075218076  0.077098925            2 
  451000    1.1716477   -3.7809781     407.6966  0.075331966  0.077084568            2 
  452000    1.1641262   -3.7727045    410.93659  0.075762646  0.077070013            2 
  453000    1.1962176    -3.764654    411.16692   0.07563777  0.077055821            1 
  454000    1.1863968    -3.792582    410.46905   0.07534307  0.077039593            1 
  455000    1.1860082   -3.8125583    410.52869  0.075188405  0.077022338            3 
  456000    1.1681927   -3.7970305    409.79099  0.074888704   0.07700478            2 
  457000    1.1860075   -3.7686872    412.97091  0.075304688  0.076987315            3 
  458000    1.1946754   -3.7631781    413.43679  0.075225035  0.076969325            4 
  459000    1.1639199   -3.7985901    412.89627  0.074963012  0.076951851            1 
  460000    1.1851906   -3.7905198     412.4338  0.074716267   0.07693508            2 
  461000    1.1575552   -3.8074334    414.14801  0.074864065  0.076915314            2 
  462000    1.1850845   -3.7842198    414.12612  0.074698073  0.076895395            2 
  463000    1.1727174   -3.7668324    415.32033  0.074751679  0.076874573            1 
  464000    1.1783901   -3.7862146    416.95527  0.074884208  0.076855653            3 
  465000    1.1890277   -3.7778618    418.53022  0.075005415  0.076838664            1 
  466000    1.1790725   -3.8020139    417.85223  0.074723218  0.076819821            1 
  467000    1.1815592   -3.7864828    416.92732  0.074398166  0.076799785            2 
  468000    1.1561898   -3.8270135    419.33471  0.074667861  0.076778663            1 
  469000    1.1671507   -3.8009942    420.65348  0.074742977  0.076759037            2 
  470000    1.1603778   -3.7521496    423.07789   0.07501381  0.076739367            1 
  471000     1.174423    -3.808125    420.13852  0.074334487  0.076718009            2 
  472000    1.1627187   -3.7989088    423.26653  0.074729261  0.076697494            1 
  473000    1.1645451    -3.807296    421.10064  0.074189683  0.076676179            2 
  474000    1.1559051   -3.8048697    426.05748  0.074904621  0.076654552            2 
  475000     1.219099   -3.8215839    425.42341  0.074635686  0.076635224            3 
  476000    1.1581472   -3.7795182    426.82408  0.074724104  0.076617834            1 
  477000    1.1651142   -3.7772285     426.5038  0.074511495  0.076599925            1 
  478000    1.1662817   -3.7867677    427.91363    0.0746014  0.076580838            3 
  479000    1.1715863   -3.7439239    429.65899  0.074749302  0.076564191            2 
  480000    1.1705394   -3.7838659    429.82082   0.07462167   0.07654453            4 
  481000    1.1900126   -3.7785736    431.02849  0.074675761  0.076525429            2 
  482000    1.2057939    -3.765702    430.90785  0.074499974  0.076506177            1 
  483000    1.1818383   -3.7963861    431.58914  0.074463275  0.076484031            2 
  484000    1.1855464   -3.7631149    432.21313  0.074416861  0.076463381            3 
  485000    1.1889392   -3.8155682    430.21114   0.07391944  0.076440839            3 
  486000    1.1632232   -3.7991853    433.39311  0.074312948  0.076418275            2 
  487000    1.1747156   -3.8219246    433.69191  0.074211483  0.076396249            1 
  488000    1.1649694   -3.8006044    435.43457  0.074356996  0.076375414            2 
  489000    1.1822708   -3.7628904     437.6959  0.074590302  0.076357988            2 
  490000    1.1824898   -3.7968699    437.64322  0.074429118  0.076340254            3 
  491000    1.1769626   -3.7518615    440.15244  0.074703401  0.076320501            1 
  492000    1.1650272   -3.7661007    439.86128  0.074502249  0.076301264            2 
  493000    1.1826845   -3.8180014    439.53517  0.074296005   0.07628165            1 
  494000    1.1841005   -3.7934383     439.9362  0.074213259   0.07626156            3 
  495000    1.1687851   -3.8261714    439.95582  0.074066637  0.076241522            2 
  496000    1.1761165   -3.7963178    441.45972  0.074169979  0.076220167            4 
  497000    1.1429882   -3.7878919    442.64312  0.074219168  0.076199022            2 
  498000    1.1648348   -3.7782262    443.40097   0.07419695  0.076178209            2 
  499000    1.1871156   -3.8343773    444.07742  0.074161225  0.076156673            2 
  500000     1.154637   -3.8144655    443.23486  0.073872477  0.076134767            4 
  501000    1.1695828   -3.8067731     444.9341  0.074007667  0.076111407            2 
  502000    1.1641603   -3.7911256    446.36594  0.074097931  0.076089929            2 
  503000    1.1584791   -3.8161198    448.55055   0.07431255  0.076069768            1 
  504000    1.1861949   -3.8074671    448.46722  0.074151325  0.076048822            1 
  505000    1.1960746   -3.7720895    451.49097   0.07450346  0.076029891            1 
  506000    1.2049905   -3.7775417    451.26739  0.074319398  0.076010734            1 
  507000    1.1949743   -3.8010449    453.16433  0.074484604  0.075992944            4 
  508000    1.1581541   -3.7585676    453.21872  0.074346903  0.075975592            2 
  509000    1.1860934   -3.7894618      455.219  0.074528324  0.075958198            2 
  510000    1.1536686    -3.749975    455.13133  0.074367864  0.075940631            2 
  511000    1.1938951   -3.8061147     454.2579  0.074079893   0.07592459            3 
  512000    1.1735263   -3.8366289      453.655  0.073837077  0.075904704            3 
  513000    1.1563524   -3.8162744      457.238  0.074275179  0.075884612            2 
  514000    1.1614619   -3.7974257    457.04258  0.074098992  0.075864864            1 
  515000    1.1617179    -3.792081    458.17768  0.074138783  0.075845863            2 
  516000     1.179128   -3.8070133    458.51011  0.074048791  0.075825373            1 
  517000    1.1418192   -3.7736568    458.71889  0.073939214  0.075805013            3 
  518000    1.1713315   -3.7979328    461.34381   0.07421876  0.075785857            4 
  519000    1.1751555   -3.7800837    462.74062  0.074300036  0.075767104            3 
  520000    1.1549069   -3.8048128    462.40733  0.074103739   0.07574925            3 
  521000    1.1521485   -3.7905287     463.0366  0.074062155  0.075729875            3 
  522000    1.1541142   -3.7983396    463.51996  0.073997439  0.075711201            2 
  523000    1.1500817   -3.8375275    461.89308  0.073596731  0.075691883            1 
  524000    1.1690675   -3.7985623    463.95596  0.073784345  0.075671498            4 
  525000    1.1661192   -3.8293812    465.48819  0.073887015  0.075651289            1 
  526000    1.1634301   -3.8093497    467.43789  0.074055433  0.075632889            3 
  527000    1.1819957   -3.8276793    464.97631  0.073525665    0.0756156            1 
  528000     1.166511   -3.8183145    465.96848  0.073543005  0.075595363            3 
  529000    1.1617393   -3.8143029    466.94758   0.07355822   0.07557515            2 
  530000    1.1613852   -3.8192413    468.24627  0.073623628  0.075555511            2 
  531000    1.1710532   -3.8335325    468.98434  0.073600807  0.075536074            2 
  532000    1.1508538   -3.7840994     471.1605  0.073803337  0.075515544            2 
  533000      1.18603   -3.8313908    469.32527  0.073377935  0.075494714            2 
  534000    1.1933182   -3.7963629    472.17418  0.073685109  0.075475101            6 
  535000    1.1850379   -3.8382712     472.1161  0.073538333  0.075455093            2 
  536000    1.1665049    -3.763664    474.20553  0.073725983  0.075434904            2 
  537000    1.1781779   -3.8259525     472.7627  0.073364788  0.075413895            2 
  538000    1.1596454   -3.8071104    474.03948  0.073426189  0.075392173            1 
  539000    1.1787269   -3.8127786    475.39948  0.073500228  0.075368785            3 
  540000    1.1586212   -3.8027846    474.73862  0.073262132  0.075346161            3 
  541000    1.1692514   -3.7997003    479.06906  0.073793755  0.075323661            2 
  542000     1.128411   -3.8061436     478.6798  0.073597755  0.075301147            1 
  543000    1.1667416   -3.7801091    477.32171  0.073253793  0.075278498            2 
  544000    1.1475212   -3.7971255    479.10606  0.073392472  0.075256329            2 
  545000    1.1642765   -3.8190206    479.00379   0.07324217  0.075235217            1 
  546000    1.1533792   -3.8474979    480.53726  0.073342073  0.075214437            1 
  547000    1.1584456   -3.8121066    481.87721  0.073412127   0.07519196            2 
  548000    1.1565337   -3.8357514    480.19719  0.073022688  0.075169793            2 
  549000    1.1527236   -3.8388526    480.55247  0.072943605  0.075146024            3 
  550000    1.1647301   -3.7969284    482.06521  0.073040183   0.07512317            2 
  551000    1.1792651   -3.8272769    485.45535   0.07342035  0.075101029            3 
  552000    1.1534016   -3.7851629    485.58064  0.073306255  0.075078892            4 
  553000    1.1578988   -3.8312257    484.69089  0.073039615   0.07505628            5 
  554000    1.1454632   -3.8231556    488.71807  0.073513549  0.075034585            3 
  555000    1.1578549    -3.806132    487.80504  0.073243999  0.075013394            2 
  556000    1.1487906   -3.8215506    488.45071  0.073209039   0.07499384            3 
  557000    1.1493669   -3.8295491    489.07881  0.073171575  0.074974174            6 
  558000    1.1546914   -3.8069631    489.56621  0.073113234  0.074954021            2 
  559000    1.1656221    -3.828773    490.56467  0.073131287  0.074935285            2 
  560000    1.1685731   -3.7920237    492.92632  0.073352131  0.074915328            1 
  561000    1.1466536   -3.7956237    495.03816   0.07353508  0.074897385            3 
  562000    1.1540229   -3.7862253    495.37859  0.073454714  0.074879505            1 
  563000    1.1426212   -3.8055402    495.02767  0.073272301  0.074862217            3 
  564000    1.1691482   -3.8337398    497.92175  0.073569999  0.074845328            2 
  565000    1.1609582   -3.8107656    495.08082   0.07302077  0.074828239            2 
  566000    1.1633591   -3.8288896    497.22911  0.073208054  0.074809645            3 
  567000     1.143168   -3.8014764    499.18418  0.073366281  0.074791938            3 
  568000    1.1574845    -3.801913    499.79333  0.073326487  0.074774089            6 
  569000    1.1457394   -3.8192002    499.90036  0.073213293  0.074754545            2 
  570000    1.1676299   -3.8065035    502.62548  0.073483258  0.074735663            4 
  571000    1.1539412   -3.7627774    502.76416  0.073374804  0.074717006            1 
  572000    1.1801609   -3.8191618    504.73808  0.073534103  0.074699741            3 
  573000    1.1902271   -3.8545037    501.63824   0.07295495    0.0746824            2 
  574000    1.1381409   -3.8031251    505.23199  0.073349593  0.074664765            2 
  575000    1.1603956   -3.7950928    505.59402  0.073274496  0.074648242            1 
  576000    1.1534346   -3.7957496    505.43383  0.073124107   0.07462982            2 
  577000    1.1622895   -3.8501328    507.56325  0.073304917  0.074613246            1 
  578000    1.1673347   -3.8295252     508.6144  0.073329642    0.0745962            2 
  579000    1.1719478    -3.823212    506.50015  0.072898697  0.074580149            1 
  580000     1.162457   -3.7670685    511.53776  0.073496804  0.074565109            1 
  581000    1.1645246   -3.8482664    509.57565  0.073088877  0.074548337            2 
  582000    1.1578458   -3.8218188    508.99795  0.072880577  0.074530582            3 
  583000    1.1648532   -3.7888748    511.78027  0.073153268  0.074512974            3 
  584000    1.1548341   -3.8398494    513.04184  0.073208025  0.074495357            2 
  585000    1.1621948   -3.7917301    511.70167  0.072891975  0.074477646            4 
  586000    1.1384655   -3.8271993    513.24652  0.072987275  0.074459233            1 
  587000      1.15359   -3.8042076    514.16043  0.072992679  0.074441329            1 
  588000    1.1583056   -3.8211049      514.695  0.072944303  0.074422392            3 
  589000    1.1299104   -3.8459883    515.02447  0.072867073  0.074403357            3 
  590000    1.1406935   -3.8614183    515.21409  0.072770351  0.074383437            1 
  591000    1.1515214   -3.8303281     516.7062  0.072857614  0.074363153            5 
  592000    1.1441692   -3.7952343    517.80024  0.072888547  0.074343226            2 
  593000    1.1435051   -3.8246049     518.4599  0.072858334  0.074324264            1 
  594000     1.150822   -3.7794645    520.35016  0.073000863  0.074305016            3 
  595000    1.1623537   -3.8067142    519.05413  0.072696657  0.074286098            4 
  596000    1.1414725   -3.8558755    521.28298  0.072886322  0.074265669            2 
  597000    1.1623922   -3.7947885    521.33509  0.072771509  0.074246563            2 
  598000    1.1417868   -3.8265821    521.49426  0.072671999  0.074226452            2 
  599000    1.1670554   -3.8269164    523.86946  0.072881116  0.074207583            2 
  600000    1.1806018   -3.8269725    526.17181  0.073079418  0.074188425            2 
  601000    1.1748615   -3.8091114    526.42372  0.072992751  0.074171154            2 
  602000    1.1582769   -3.8383606    525.67638  0.072768048  0.074154162            3 
  603000    1.1487706   -3.8089638    527.96523  0.072963685  0.074136516            3 
  604000    1.1529782   -3.8240989    527.94161  0.072839626   0.07411976            2 
  605000    1.1585576    -3.828672    528.35804   0.07277659  0.074102998            2 
  606000    1.1542122   -3.8204672     530.2695  0.072919348  0.074086043            2 
  607000    1.1440293   -3.8297781    530.83584  0.072876969   0.07406901            2 
  608000    1.1460375   -3.8074355    530.14163  0.072661956  0.074052759            1 
  609000    1.1677607    -3.778581    533.33931  0.072980201  0.074037101            3 
  610000     1.158522   -3.8142081    533.61794  0.072898626  0.074019835            2 
  611000    1.1435745   -3.7749221    534.51211   0.07290127  0.074003867            2 
  612000    1.1757036   -3.8200411    533.89946  0.072698728  0.073988262            1 
  613000    1.1481298   -3.8166683    535.99771  0.072865376  0.073972509            2 
  614000    1.1710661   -3.8039592     538.6926  0.073112459  0.073956832            1 
  615000    1.1627808   -3.8553428    536.83657  0.072742083  0.073940967            2 
  616000    1.1463877   -3.8216577    535.84175  0.072489414  0.073924712            4 
  617000    1.1685406   -3.8057134    537.49883  0.072595736  0.073909081            2 
  618000    1.1575377   -3.8014851    541.27056  0.072986861  0.073892993            3 
  619000    1.1938181    -3.827434    541.89237  0.072952662  0.073877599            1 
  620000    1.1475834    -3.789584    542.42687  0.072906838  0.073861328            3 
  621000    1.1225971   -3.8723253     540.7533  0.072564855  0.073844951            2 
  622000    1.1686026   -3.8343434    540.85065  0.072461234  0.073827883            2 
  623000     1.155813   -3.8191756    542.53008  0.072569567   0.07381034            2 
  624000    1.1775833    -3.810562    544.29585  0.072689082  0.073793477            2 
  625000     1.169533   -3.8233629    544.55004  0.072606671  0.073776514            1 
  626000    1.1534173   -3.8307248    542.67466  0.072241036  0.073758563            4 
  627000    1.1406351   -3.8164111    544.58128  0.072379224    0.0737399            1 
  628000    1.1386118   -3.8429731    548.05118  0.072724413    0.0737226            1 
  629000    1.1711746   -3.8590266    544.09317  0.072084415  0.073704193            3 
  630000    1.1713256   -3.8360067    547.18766   0.07237932  0.073686398            4 
  631000    1.1272227   -3.8213861    547.93949  0.072363905  0.073669494            1 
  632000     1.164514   -3.8154556    548.50366  0.072323795  0.073652895            3 
  633000    1.1871637   -3.8038805    548.71352  0.072237166  0.073635385            2 
  634000     1.151697   -3.8252446    550.21645  0.072320775   0.07361857            3 
  635000    1.1692292   -3.8345024    550.16576  0.072200231  0.073600746            4 
  636000    1.1609498   -3.8334647    551.70175  0.072287965  0.073583418            2 
  637000    1.1614798   -3.8054852     554.1911  0.072500143  0.073566217            2 
  638000    1.1363934   -3.8328599    554.89929  0.072479009  0.073549245            2 
  639000    1.1349304    -3.795858    556.44655  0.072567364  0.073532387            3 
  640000    1.1468784    -3.852153    556.41522  0.072449898   0.07351551            1 
  641000      1.14209   -3.8352452    556.35445  0.072328971  0.073499726            3 
  642000    1.1298331   -3.8093754    556.35085  0.072215842  0.073484418            2 
  643000    1.1545042   -3.8456393    559.49522  0.072511045  0.073468472            4 
  644000    1.1584297   -3.8288632    559.11983  0.072349874  0.073452942            3 
  645000    1.1370545   -3.8141575     558.9008  0.072209405  0.073437158            4 
  646000    1.1577915   -3.8207659    559.40932  0.072163226  0.073420227            3 
  647000    1.1335159   -3.8101616    560.78828    0.0722293  0.073402894            3 
  648000     1.162372   -3.8546969     559.6547  0.071972056  0.073386123            2 
  649000    1.1455828   -3.8271426    562.63482  0.072243814  0.073369062            2 
  650000    1.1337672   -3.8415599    563.17039  0.072201332  0.073351413            3 
  651000    1.1517859   -3.8234759     568.9299  0.072827688   0.07333617            1 
  652000    1.1441304   -3.8192988    565.46684   0.07227337  0.073321581            2 
  653000    1.1489641   -3.8111144    568.61801   0.07256483  0.073307049            3 
  654000    1.1607103   -3.8129427    568.01257  0.072376729  0.073292336            2 
  655000    1.1789066   -3.8390142    568.23449  0.072294464  0.073278475            1 
  656000    1.1630688   -3.8222747    571.91852  0.072652251  0.073264801            3 
  657000    1.1728649   -3.7998215    570.87769  0.072409651  0.073251914            2 
  658000    1.1487648    -3.808007    571.83759  0.072421175   0.07323803            2 
  659000    1.1558874   -3.8596708    568.99728  0.071952109  0.073224029            3 
  660000    1.1567796   -3.8569256    570.15539  0.071989316   0.07320935            2 
  661000    1.1208856   -3.8312782    570.92732  0.071977726  0.073194904            2 
  662000    1.1421362   -3.8442162    571.01688  0.071880272  0.073180354            3 
  663000    1.1518672   -3.8355232    576.00758  0.072399142   0.07316724            1 
  664000    1.1421617   -3.8343589      576.635  0.072368851  0.073153212            1 
  665000    1.1462835   -3.8214444    577.72784  0.072396972  0.073140021            1 
  666000    1.1502533   -3.8115964    577.73755  0.072289483  0.073126054            1 
  667000    1.1509629   -3.8292481    578.09763  0.072226091  0.073111832            3 
  668000    1.1461866   -3.8294549    579.07506  0.072239902   0.07309839            3 
  669000    1.1335446   -3.8265945    579.89368  0.072233891  0.073084128            2 
  670000    1.1362247   -3.8297547    582.89296  0.072499124  0.073070368            1 
  671000    1.1655408   -3.8502229    583.70472  0.072491892  0.073056973            2 
  672000    1.1349004   -3.8375164     583.1714  0.072317882  0.073043418            1 
  673000    1.1240472   -3.8069894    583.71188   0.07227735  0.073029709            3 
  674000    1.1475213   -3.8537686    585.17881  0.072351485  0.073016145            4 
  675000    1.1629411   -3.8410297    586.63918   0.07242459  0.073003861            1 
  676000    1.1479455    -3.827099    589.23121  0.072636984  0.072992626            2 
  677000    1.1598827   -3.8591448    585.86147  0.072114903  0.072980769            3 
  678000    1.1369615    -3.839767    588.37163  0.072317064  0.072968807            2 
  679000    1.1367419   -3.8798273    587.42674  0.072094593  0.072957293            2 
  680000    1.1420773   -3.8165776    589.60661  0.072255712  0.072944936            1 
  681000    1.1466492   -3.8486417    589.10912  0.072088732  0.072933098            4 
  682000    1.1389024   -3.8641295    591.20567  0.072239207  0.072920552            2 
  683000     1.110057   -3.8165281    593.53166  0.072417235   0.07290746            2 
  684000    1.1328932   -3.8130471    594.22228  0.072395502  0.072894758            1 
  685000    1.1619769   -3.8403497    592.42001   0.07207056  0.072882452            3 
  686000    1.1372257   -3.8376747    592.60421  0.071987877  0.072869713            1 
  687000    1.1502424   -3.8397777    597.51523    0.0724788   0.07285615            2 
  688000     1.131879   -3.8467473    597.82091  0.072410478  0.072843806            2 
  689000    1.1482023   -3.8408988    597.68735  0.072289229  0.072831888            4 
  690000    1.1473244   -3.8340544     597.1062  0.072114275  0.072817355            3 
  691000    1.1313847   -3.8736581    596.21973  0.071903006  0.072802744            2 
  692000     1.127491   -3.8461136    600.62175  0.072329209  0.072789045            1 
  693000    1.1303737   -3.8444747    600.20747   0.07217502  0.072775428            1 
  694000    1.1596824   -3.8355059    600.25014  0.072076145  0.072763123            2 
  695000    1.1515644   -3.8504645    602.94471  0.072295528  0.072750897            1 
  696000    1.1297256    -3.870072    602.26123  0.072109822  0.072738861            3 
  697000    1.1571714   -3.8631667    601.28898  0.071890122  0.072725995            2 
  698000    1.1240792   -3.8370969    605.24173  0.072259041  0.072713725            1 
  699000    1.1442411    -3.863562    606.11836  0.072260176  0.072703032            1 
  700000    1.1266633   -3.8708707    603.47962  0.071842811  0.072691295            2 
  701000    1.1339867   -3.8348817    606.08379  0.072049904   0.07267959            3 
  702000     1.131741   -3.8408894     608.2077  0.072199394  0.072669157            3 
  703000    1.1497027   -3.8420052    609.71848   0.07227578  0.072658486            2 
  704000    1.1135369   -3.8427792    610.72657  0.072292444  0.072648098            2 
  705000    1.1630646    -3.865963    610.09581  0.072115344  0.072636627            2 
  706000    1.1313566   -3.8246071    612.01992  0.072240312  0.072624946            2 
  707000    1.1683973   -3.8296592    614.41259  0.072420155  0.072613656            4 
  708000    1.1331402   -3.8588234     611.3789  0.071960794  0.072602281            2 
  709000     1.126255   -3.8817756    611.08126  0.071824313  0.072589708            3 
  710000    1.1404318   -3.8242677    613.77936  0.072039831  0.072577262            3 
  711000    1.1601164   -3.8495676    613.82393  0.071943733  0.072564206            7 
  712000    1.1269019   -3.8379609    614.51939  0.071924085  0.072551591            4 
  713000     1.116392   -3.8511222    615.92704  0.071987732   0.07253984            2 
  714000    1.1510146   -3.8449779    615.14146  0.071795222  0.072527997            2 
  715000    1.1373875   -3.8729599    614.73345  0.071647255  0.072515977            1 
  716000    1.1545913   -3.8384963    618.13617  0.071943222  0.072504718            4 
  717000     1.116573   -3.8179017    620.15679   0.07207773  0.072492942            3 
  718000    1.1354662   -3.8320374    624.00099  0.072423514  0.072480967            2 
  719000    1.1160293   -3.8927259    619.86398  0.071843298  0.072468823            3 
  720000    1.1273288   -3.8448926     622.8306  0.072086875  0.072457919            1 
  721000    1.1393777   -3.8581289    625.20787  0.072261658  0.072448135            2 
  722000    1.1375059    -3.835721    627.63765  0.072442019  0.072439479            2 
  723000     1.118642   -3.8380611    627.25747  0.072298003  0.072429603            5 
  724000    1.1530019   -3.8419228    628.05325  0.072289738  0.072420091            1 
  725000    1.1021301   -3.8602897     626.7686  0.072042368  0.072410993            2 
  726000    1.1320902   -3.8547019    628.54133  0.072146617  0.072401612            2 
  727000    1.0822093    -3.860872      628.429  0.072034503  0.072392573            2 
  728000    1.1466139   -3.8704636    630.79651   0.07220656  0.072382977            3 
  729000    1.1443892   -3.8537485    634.34565  0.072513221  0.072374392            1 
  730000    1.1505821   -3.8491707     630.8404  0.072013744   0.07236606            1 
  731000    1.1741006   -3.8618298    635.77956   0.07247829  0.072357067            1 
  732000    1.1203576   -3.8508203    633.77397  0.072150953  0.072347865            4 
  733000    1.1345771   -3.8627976    634.69458  0.072157182  0.072339293            3 
  734000    1.1475385   -3.8764924    634.14608  0.071996603  0.072330231            1 
  735000    1.1445154   -3.8711128    637.83746  0.072317172  0.072321695            6 
  736000    1.1358926   -3.8342656    639.12593  0.072364801  0.072314009            4 
  737000    1.1239936   -3.8535051    636.00065  0.071913235  0.072305166            3 
  738000    1.1442316   -3.8498632    638.08982  0.072051696  0.072296427            8 
  739000    1.1437117   -3.8596458    639.00134  0.072056985  0.072286914            1 
  740000    1.1381528   -3.8977859    636.54374  0.071682853  0.072276712            5 
  741000    1.1295101   -3.8305064    642.07397  0.072208049   0.07226624            3 
  742000    1.1394964   -3.8476248    638.71421  0.071733402  0.072255754            2 
  743000    1.1320175   -3.8293678    641.76455  0.071978976  0.072245531            1 
  744000    1.1208352   -3.8689405    642.00257   0.07190889  0.072236147            2 
  745000    1.1370829   -3.8628338    640.32458  0.071624674  0.072226023            2 
  746000    1.1299504   -3.8668331    642.74928  0.071799517  0.072217237            1 
  747000    1.1291146   -3.8337233    643.84328  0.071825444  0.072206813            2 
  748000    1.1154436   -3.8662296    642.82935  0.071616461  0.072196147            2 
  749000    1.1241869   -3.8788015    641.25581  0.071345773    0.0721859            3 
  750000    1.1244099   -3.8487535    647.87331  0.071985924  0.072175448            1 
  751000    1.1166656    -3.857874    646.44155  0.071731197  0.072164024            5 
  752000    1.1216736   -3.8744685    645.21459  0.071499843  0.072153053            2 
  753000     1.125538   -3.9010811    647.73382   0.07168369  0.072141545            2 
  754000    1.1437401   -3.8686262    650.09564   0.07184965  0.072130289            2 
  755000    1.1239242   -3.8430572    650.19274  0.071765203   0.07212073            3 
  756000    1.1435003   -3.8710202      649.358  0.071578263  0.072111337            2 
  757000    1.1283172   -3.8340589    653.96291  0.071990633  0.072102526            2 
  758000    1.1272967   -3.8368379    654.69274  0.071975895  0.072093672            1 
  759000    1.1449626   -3.8791851    653.27778  0.071725711  0.072084104            1 
  760000    1.1201521   -3.8403799     657.0975  0.072050164  0.072074911            3 
  761000    1.1317087   -3.8825417    655.86932  0.071820994  0.072065167            1 
  762000    1.1502438   -3.8873427    657.18868  0.071871028  0.072055069            2 
  763000     1.137835   -3.8900801     654.7287  0.071508159  0.072045406            1 
  764000    1.1449186   -3.8728123    659.27506  0.071910455  0.072035672            2 
  765000    1.1295541    -3.836907    658.48095  0.071729951  0.072026505            2 
  766000    1.1108112   -3.8308394     660.9463  0.071904515  0.072017415            2 
  767000    1.1360777   -3.8598541     658.1904  0.071511343  0.072008897            2 
  768000    1.1134352   -3.8546158     662.4721  0.071882824  0.071999505            4 
  769000    1.1672233   -3.8904292    658.81227  0.071392747  0.071989429            3 
  770000    1.1367338   -3.8424689    663.23699  0.071778895  0.071979046            2 
  771000    1.1477677   -3.8697261    665.24217  0.071902526  0.071969222            3 
  772000    1.1515579   -3.8428814    666.77823  0.071975197  0.071959588            2 
  773000     1.124838   -3.8949191    663.88863  0.071570572  0.071949246            2 
  774000    1.1268811    -3.856825    667.90312  0.071910327  0.071938858            3 
  775000    1.1133498   -3.8500691    666.31036  0.071646275  0.071928609            2 
  776000     1.149326    -3.862197    666.19566  0.071541631  0.071918456            1 
  777000      1.12498   -3.8374934     668.9703  0.071747136   0.07190896            2 
  778000    1.1199969   -3.8732812     668.9068  0.071648114  0.071899252            2 
  779000    1.1459774   -3.8696416    670.19358  0.071693794  0.071889163            3 
  780000    1.1206385   -3.8658685    668.85603  0.071458977  0.071878856            4 
  781000    1.1015138   -3.8697442     671.0141  0.071597749  0.071868076            3 
  782000    1.1284318   -3.8924468    670.31182  0.071431353  0.071857751            3 
  783000    1.1197723    -3.894845    671.84107  0.071502881  0.071847106            1 
  784000    1.1296702   -3.9015596    671.95766  0.071424071  0.071836028            1 
  785000    1.1284719   -3.8463832    673.12862   0.07145739  0.071824703            3 
  786000    1.1470349   -3.9124908    672.63474  0.071314116  0.071814231            2 
  787000     1.134171   -3.8647959    678.73448  0.071869386  0.071803793            1 
  788000    1.1241145    -3.883761     675.0315   0.07138658  0.071793843            2 
  789000    1.1253514   -3.8754675    675.82455  0.071379863  0.071783378            1 
  790000     1.141931   -3.8707789    677.35975  0.071451451  0.071774048            2 
  791000    1.1243256   -3.8784608     678.0594  0.071434829  0.071763542            3 
  792000    1.1239549   -3.8979849    680.40398  0.071591328  0.071753356            2 
  793000    1.1205519   -3.8690287    682.11621   0.07168098   0.07174437            5 
  794000    1.1351231   -3.8541521    684.22399  0.071811922  0.071734962            2 
  795000    1.1075068   -3.8406115    684.62081  0.071763187  0.071726609            2 
  796000    1.1312546   -3.8316059    684.86379   0.07169847  0.071717862            4 
  797000    1.1196887    -3.851923    687.66633   0.07190154  0.071711037            2 
  798000    1.0993381   -3.8862608    686.12977  0.071650978  0.071703251            4 
  799000    1.1178496   -3.8828767    684.98633  0.071442045     0.071694            2 
  800000    1.1052838   -3.8505622    689.79897  0.071854059  0.071684577            3 
  801000     1.118482   -3.8658658    686.94398  0.071467331  0.071675852            4 
  802000    1.1286104   -3.8985392    687.03997  0.071388193  0.071667789            2 
  803000    1.1338748   -3.8514469    690.79799  0.071689289  0.071659716            3 
  804000    1.1285589   -3.8708146    692.63961  0.071791004  0.071651157            2 
  805000    1.1097536   -3.8820613    689.74848  0.071402534  0.071644013            2 
  806000      1.12228   -3.8673706    692.23881  0.071571424  0.071636026            3 
  807000    1.1276998   -3.8633214    692.23748  0.071482598  0.071628614            3 
  808000     1.107413   -3.8817038    694.99071  0.071678085  0.071620823            3 
  809000    1.1261453   -3.9042012    694.21273  0.071509346  0.071612713            3 
  810000    1.1279874   -3.8783052    696.49522  0.071655887  0.071604925            2 
  811000    1.1219511    -3.846128    696.36107  0.071553747  0.071596246            1 
  812000    1.1367659    -3.870397    695.31879   0.07135866  0.071587476            1 
  813000     1.119681   -3.8634656    694.52527  0.071189552  0.071578981            2 
  814000    1.1297978   -3.8807123      697.857  0.071443182  0.071570673            2 
  815000    1.1011201   -3.8770291     699.5839  0.071532096  0.071562298            3 
  816000    1.1202793   -3.8791792    699.98752  0.071485653   0.07155355            2 
  817000    1.1055014   -3.8087046    701.86146  0.071589296  0.071544182            3 
  818000    1.0912532   -3.8788133    701.40568  0.071455347  0.071534965            1 
  819000    1.1251716   -3.8905821     702.3286  0.071462006  0.071525592            2 
  820000    1.1299039   -3.8621534    702.30842  0.071372806  0.071516063            4 
  821000     1.141436   -3.8771174    700.57498  0.071109925  0.071506522            2 
  822000    1.1178945   -3.8699861      701.708  0.071138281  0.071495837            3 
  823000    1.1316287   -3.8970401    702.95829  0.071178442  0.071485243            3 
  824000    1.0883527    -3.880717    702.65487  0.071061375  0.071475534            4 
  825000    1.1287338   -3.8810111      703.865  0.071097475  0.071464782            3 
  826000    1.1290113   -3.8920028    702.43939  0.070867573  0.071454555            2 
  827000    1.1224793    -3.886322    708.19306  0.071361655  0.071445057            3 
  828000    1.0942446   -3.8600659    707.56775  0.071212535  0.071435818            3 
  829000     1.147156   -3.8478315    711.36932  0.071508778  0.071427044            2 
  830000     1.107009   -3.8957695     708.7239  0.071157018  0.071418613            1 
  831000    1.1419755   -3.9007543    706.56125  0.070854518  0.071409972            3 
  832000    1.1021735   -3.8830203     710.0641  0.071120202  0.071400568            2 
  833000    1.1061897   -3.8694943    709.09368  0.070937743  0.071391435            5 
  834000    1.1201879    -3.873707    711.09328  0.071052486  0.071382468            3 
  835000    1.1263518   -3.8682263    713.97901  0.071255391  0.071373563            3 
  836000    1.1095876   -3.8578666    712.58867  0.071031566  0.071364825            3 
  837000    1.1067819   -3.8539593    717.56663  0.071442317  0.071356811            2 
  838000    1.1325496   -3.8438081    719.33267  0.071532684  0.071348798            3 
  839000     1.122504   -3.8558834    716.67984  0.071183933  0.071341143            3 
  840000    1.1017196   -3.8804003    718.22375  0.071252357  0.071333408            2 
  841000    1.1101683   -3.8835207    716.80522  0.071027073  0.071325017            2 
  842000    1.1296997    -3.901049    722.42018  0.071498435  0.071316774            2 
  843000    1.1115174   -3.8705791    720.13561  0.071187782   0.07130879            2 
  844000    1.1244871   -3.8755926    720.90158  0.071179066  0.071300964            1 
  845000    1.1588298   -3.9032811    722.02426  0.071205549  0.071293418            2 
  846000    1.1443361   -3.8843273    724.34746  0.071350223  0.071286615            2 
  847000    1.1131047   -3.8950559       725.49  0.071378395  0.071279559            2 
  848000    1.0893388   -3.8704697    725.72262  0.071317082  0.071272533            3 
  849000    1.0952496   -3.8864232    724.98634  0.071160811  0.071265113            2 
  850000    1.1252779   -3.8883512    725.46061  0.071123589  0.071258251            2 
  851000    1.1213744   -3.8999748    728.15399  0.071303759  0.071250759            3 
  852000    1.1301251   -3.8851312    731.41635  0.071539158  0.071243648            2 
  853000    1.1070471   -3.8719002    732.63062  0.071573918  0.071236688            2 
  854000    1.1438957   -3.8776911     732.1346  0.071441706  0.071230064            3 
  855000    1.1342253   -3.9024686    729.18996  0.071071146  0.071222718            1 
  856000    1.1286194   -3.9055168    730.42284  0.071108143  0.071214624            2 
  857000    1.1264719   -3.8961644    732.37623  0.071215114  0.071205699            2 
  858000    1.0918967   -3.8841824    732.18876  0.071113904  0.071197725            3 
  859000    1.1105066   -3.8624734    731.62268  0.070976201  0.071189653            2 
  860000    1.1303417   -3.8760238    731.99784  0.070930024  0.071181744            3 
  861000    1.1113063   -3.8679931    733.94102  0.071035716  0.071173231            2 
  862000    1.0953288   -3.8660934    734.86144  0.071042289  0.071164666            2 
  863000    1.1120387   -3.8989064    736.83969  0.071150994   0.07115636            4 
  864000    1.1214855   -3.8921123    735.15072  0.070905741   0.07114783            2 
  865000    1.1002536   -3.8912234    735.78745   0.07088511  0.071138378            4 
  866000    1.1172176   -3.8786981    736.88333  0.070908711  0.071130049            3 
  867000    1.1078708   -3.8436576    743.29018  0.071442731   0.07112211            3 
  868000    1.1181264   -3.8959306    742.29915  0.071265279  0.071114338            3 
  869000    1.1136073   -3.8882404     740.3859  0.070999798    0.0711057            2 
  870000    1.1179149   -3.8841015    742.89221  0.071158257  0.071097868            1 
  871000    1.1044397   -3.8973965    740.47177  0.070844984  0.071089625            2 
  872000    1.1220403    -3.889477    743.53435  0.071056417  0.071081612            2 
  873000    1.1279456   -3.9048717    744.30457  0.071048547  0.071073129            4 
  874000    1.1279646   -3.8914872    747.29206  0.071252103    0.0710649            1 
  875000    1.0920208   -3.8568443    744.01005    0.0708581  0.071056543            2 
  876000    1.1261872   -3.8968983     748.3607  0.071191086  0.071048629            2 
  877000    1.1499382   -3.8679139    747.66912  0.071044196  0.071040503            1 
  878000    1.1177884   -3.8953147    748.61524  0.071053079   0.07103383            4 
  879000    1.1264218   -3.8870101    748.72465  0.070982618  0.071025842            2 
  880000    1.1150762   -3.8469735     754.7621  0.071473684  0.071018658            3 
  881000     1.108463   -3.8723102    750.44592  0.070984291   0.07101249            1 
  882000    1.0917433   -3.8788232     754.1625   0.07125496  0.071005827            4 
  883000    1.1212529   -3.8514155    754.49286  0.071205442  0.070999191            3 
  884000    1.1133984   -3.8861223    753.84398  0.071063723  0.070992087            1 
  885000    1.0976774   -3.9016345    753.17912  0.070920821  0.070984868            2 
  886000     1.107074   -3.8898906    758.90848  0.071379654  0.070978092            4 
  887000    1.1234324   -3.9159465    756.34104  0.071057971  0.070970607            2 
  888000    1.1011998   -3.9043834    758.32806   0.07116442  0.070963932            2 
  889000    1.0903207    -3.877326    760.14104  0.071254316  0.070957414            4 
  890000    1.1045955   -3.9260079    758.38055  0.071009415  0.070950429            3 
  891000    1.0848382   -3.8756288    760.10022  0.071090556   0.07094332            2 
  892000    1.1040393   -3.8638154    761.56124   0.07114735  0.070936857            2 
  893000     1.113121   -3.8622735    764.15681  0.071309893  0.070930666            3 
  894000    1.0978297   -3.8743952      764.977  0.071306581  0.070924325            3 
  895000    1.0924697   -3.9091521    761.53646  0.070906561  0.070918683            1 
  896000     1.124394   -3.8590242    768.35325  0.071461426  0.070912397            1 
  897000    1.0959649   -3.8811023    766.60223  0.071219085  0.070906476            2 
  898000    1.1110759    -3.878197    766.50631  0.071130875  0.070899957            2 
  899000    1.1334634   -3.9046582    767.08552  0.071105443  0.070894161            2 
  900000    1.1129093   -3.9111385    767.05534  0.071023643  0.070887901            3 
  901000    1.1120767   -3.9010851    771.25772  0.071333493  0.070881268            2 
  902000    1.1260289   -3.8849424    771.05553  0.071235729   0.07087494            5 
  903000    1.0868671   -3.9102974    771.69908  0.071216231  0.070868511            6 
  904000    1.1207236   -3.8551304    771.96868  0.071162305  0.070862418            3 
  905000    1.1170949   -3.8735542    775.37314  0.071397158  0.070856241            4 
  906000    1.0956647   -3.8772213    775.96296  0.071372605  0.070850013            3 
  907000    1.1335986     -3.89593    773.44314  0.071062398  0.070843663            1 
  908000    1.1061778   -3.8803336    773.44679  0.070984471  0.070836997            1 
  909000    1.0934747   -3.9055364    774.07466  0.070963941  0.070831154            6 
  910000    1.0954486   -3.8734735    773.95757  0.070875236  0.070824428            3 
  911000    1.1089358   -3.8947374    779.17566  0.071274758  0.070817579            4 
  912000    1.0838604   -3.8919393    777.05791  0.071003099  0.070810511            3 
  913000    1.1127684   -3.8916187    777.95637  0.071007335  0.070803332            3 
  914000    1.0887063   -3.8882955    777.99181  0.070932878   0.07079617            1 
  915000    1.0966936   -3.9412796    778.25704  0.070879512  0.070789035            2 
  916000    1.0859907    -3.914538    777.18299  0.070704421   0.07078187            1 
  917000    1.1068448   -3.8905722    780.35597  0.070915665  0.070775425            3 
  918000    1.1103009   -3.8968447    782.06772  0.070993802   0.07076877            1 
  919000    1.1126272   -3.9228031    779.65147  0.070697449  0.070762047            2 
  920000    1.0883567   -3.8749435    784.84111   0.07109068  0.070755121            2 
  921000    1.1239704   -3.9264805    785.11228  0.071038027  0.070747512            4 
  922000    1.0969799   -3.9004914    784.80435  0.070933148  0.070739958            5 
  923000    1.1055136   -3.9115344    784.40763  0.070820479  0.070732316            5 
  924000    1.1261576   -3.8794488    786.86503  0.070965461   0.07072478            5 
  925000    1.0984745   -3.9027656    786.10178  0.070819981  0.070717445            4 
  926000    1.0917787   -3.8769512    788.91882  0.070997014  0.070711137            4 
  927000    1.1320472   -3.8939851    786.44395  0.070697945  0.070703771            6 
  928000    1.0947309   -3.9013997    786.35687  0.070613943  0.070696414            4 
  929000    1.1018113   -3.9095052    789.32989  0.070804618  0.070688778            2 
  930000    1.0988146   -3.9036536     788.5389  0.070657608  0.070680871            2 
  931000    1.0987615   -3.9171649    788.61319  0.070588363   0.07067269            2 
  932000    1.1140467   -3.8950989    790.33235   0.07066634  0.070663775            3 
  933000    1.1246227   -3.8905789    791.17069  0.070665478  0.070654845            1 
  934000    1.1144065   -3.8787745    791.26294   0.07059805  0.070647061            5 
  935000    1.0888819   -3.9052125    793.27539  0.070701907  0.070639182            1 
  936000    1.0802016   -3.9122298    792.91077  0.070593908   0.07063104            3 
  937000    1.1090724   -3.8977987    793.93238  0.070609425   0.07062263            1 
  938000    1.0775758    -3.923534    793.98779  0.070539072  0.070614281            2 
  939000    1.0970306   -3.9232516    793.59103  0.070428739  0.070605678            3 
  940000    1.1069328   -3.9111511    793.64158  0.070358296  0.070596354            1 
  941000    1.1029669   -3.8861718    796.66831  0.070551568  0.070587856            2 
  942000    1.1013747   -3.8976916     797.2322  0.070526557   0.07057973            3 
  943000    1.1071827   -3.8963969    798.80883  0.070591095  0.070571263            4 
  944000    1.1036735   -3.8822455     800.7108  0.070684216  0.070563133            2 
  945000    1.1159414   -3.8931775    798.46127  0.070411047  0.070554155            2 
  946000    1.0687243   -3.8861501    798.12036  0.070306585  0.070545344            2 
  947000    1.1268421   -3.8938869    798.79588  0.070291788  0.070536612            3 
  948000    1.0878701   -3.8684763      801.655  0.070468969   0.07052793            3 
  949000    1.1185765   -3.9164121    798.80874  0.070144778  0.070518925            3 
  950000    1.1178115   -3.9283789     798.4679  0.070041044  0.070509397            1 
  951000    1.0969497   -3.9133856    800.80293  0.070172005  0.070498739            4 
  952000    1.1037244   -3.8752467    801.58143  0.070166442   0.07048892            4 
  953000    1.1122702    -3.909188    802.23032  0.070149556   0.07047815            2 
  954000    1.0841392   -3.9009586    802.26726  0.070079251  0.070467908            2 
  955000    1.0973509   -3.8786761    804.62648  0.070211734  0.070457518            3 
  956000    1.0931158   -3.8921615    803.35207  0.070027203  0.070447634            2 
  957000    1.0947401   -3.9024236    801.95422  0.069832308  0.070436662            1 
  958000    1.1131051   -3.9237574    804.26685  0.069960582  0.070425891            1 
  959000    1.1021174   -3.9299246    804.25278  0.069886408  0.070414242            1 
  960000    1.0835584   -3.8789047     810.4468  0.070351285  0.070403638            2 
  961000    1.1070434   -3.9130144    807.04751  0.069983308  0.070393103            2 
  962000    1.1118773    -3.903585    806.98111  0.069904808  0.070382292            3 
  963000    1.1098054   -3.8931081    811.11746  0.070190157  0.070371336            2 
  964000    1.0860454   -3.9243681    808.04629  0.069851858  0.070360878            2 
  965000    1.1089194   -3.9172115    807.91479  0.069768117  0.070349651            4 
  966000    1.1072982   -3.9136627    807.20868  0.069634979   0.07033863            2 
  967000     1.080817   -3.9056995    806.63018  0.069513114   0.07032745            2 
  968000    1.0973426   -3.9159968     808.7047  0.069619895  0.070316217            2 
  969000    1.0849432   -3.8993825    811.93469  0.069825825  0.070304718            2 
  970000     1.095777   -3.8866851    811.70268  0.069733907  0.070292876            2 
  971000    1.1045704   -3.8923642    815.40449  0.069979788  0.070281962            4 
  972000    1.1103768   -3.9042717    811.10287  0.069538998   0.07027043            2 
  973000    1.1164503   -3.9115182    808.57568  0.069251086  0.070258539            2 
  974000    1.1066109   -3.9147827    814.63801  0.069698666  0.070246778            1 
  975000     1.115224   -3.9357339    815.32106  0.069685561  0.070234916            3 
  976000    1.0943859   -3.9271276    814.98213  0.069585223  0.070222955            2 
  977000    1.1062949   -3.8778688    817.88516  0.069761614  0.070211171            4 
  978000    1.0938608   -3.9289707    815.04502   0.06944828  0.070199913            2 
  979000    1.0903712   -3.9080395    816.47332   0.06949892  0.070187676            2 
  980000     1.101723   -3.9024211     816.8033  0.069456063  0.070175873            1 
  981000    1.1254657   -3.9343728    818.33573  0.069515437  0.070165207            3 
  982000    1.0847782    -3.947464    817.71998  0.069392395  0.070153991            2 
  983000     1.097458   -3.9267729    822.94086    0.0697644  0.070142593            1 
  984000    1.1031947   -3.8757816    823.98478  0.069781909  0.070131179            5 
  985000    1.1078205   -3.9102073    820.25591  0.069395593  0.070119439            4 
  986000    1.1204109   -3.9096619    821.02464  0.069390182  0.070107181            2 
  987000    1.1071949   -3.8891132    821.49963  0.069359982  0.070094676            3 
  988000    1.0863068   -3.9271964    822.41934  0.069367353  0.070081863            3 
  989000    1.0815473   -3.9450434    823.02328  0.069348103  0.070069415            3 
  990000    1.0846981   -3.9160912     824.5934  0.069410219  0.070057442            4 
  991000    1.0783036    -3.904159    827.51103  0.069585522  0.070044869            3 
  992000     1.085865    -3.909912    827.14283  0.069484444  0.070032648            4 
  993000    1.0959106   -3.9063004    827.53824  0.069447653  0.070020726            2 
  994000    1.1084197   -3.9024365     829.7722  0.069565073  0.070009058            3 
  995000    1.0990316   -3.9213451    830.43278  0.069550484  0.069997568            2 
  996000    1.0940789   -3.8874555    830.53289   0.06948903  0.069986186            2 
  997000    1.0879501   -3.8995804    830.88564  0.069448816  0.069974488            3 
  998000    1.0687229   -3.8955713    831.04071  0.069392177   0.06996244            2 
  999000    1.0924158   -3.9460013    830.62744  0.069288242  0.069950179            2 
 1000000    1.0621412   -3.9098365     834.8824  0.069573533  0.069937951            2 
 1001000    1.0888302   -3.9056812    833.92578  0.069424391  0.069925913            2 
 1002000    1.1193152   -3.9142424    836.97804  0.069608952  0.069914072            3 
 1003000    1.1065074   -3.9172065    836.21264  0.069475959  0.069902841            4 
 1004000     1.075336   -3.9401413    835.50456  0.069347988  0.069891388            4 
 1005000    1.0635498   -3.9323305     835.0337  0.069239942  0.069879048            2 
 1006000    1.0691971   -3.9128439    836.85668  0.069322124   0.06986681            1 
 1007000    1.0733444   -3.9115325     838.5581  0.069394083  0.069855044            7 
 1008000    1.0976211   -3.8947533    837.41296  0.069230569  0.069843811            4 
 1009000    1.0785285   -3.9124002    838.50515   0.06925216  0.069832138            4 
 1010000    1.0742717   -3.9614239    834.97214  0.068892091  0.069819793            2 
 1011000    1.0754086   -3.9551768    836.58993  0.068957297  0.069808114            3 
 1012000    1.0712693   -3.9347071    842.53003  0.069378296  0.069796244            2 
 1013000    1.0848931   -3.9427596    837.75357  0.068916878  0.069784026            2 
 1014000    1.0833804   -3.9528989    839.21025  0.068968627  0.069771883            2 
 1015000    1.0963801   -3.9121029     843.0049  0.069212225  0.069759618            2 
 1016000    1.0755876   -3.9031665    844.10151  0.069234048  0.069746884            3 
 1017000    1.0990223   -3.9161038    842.67124  0.069048774  0.069734287            2 
 1018000    1.0820334    -3.915395    844.65054  0.069142972  0.069722039            3 
 1019000     1.080207   -3.9076169     842.2357  0.068877634  0.069709605            2 
 1020000    1.0886284   -3.9497686    845.29949  0.069060416   0.06969675            2 
 1021000    1.1089523   -3.9405157    842.10511  0.068732053  0.069683965            3 
 1022000     1.082371   -3.8883947    850.74267  0.069369103  0.069671829            2 
 1023000    1.1107274   -3.9248103    846.76455  0.068977236  0.069659975            4 
 1024000    1.1042656    -3.915789     850.5735  0.069219849  0.069648603            3 
 1025000     1.071466   -3.9129543    848.16829  0.068956771  0.069637116            2 
 1026000    1.0839889    -3.968323    848.48215  0.068915055  0.069625253            2 
 1027000     1.091705    -3.900357    850.21376  0.068988458  0.069613097            1 
 1028000    1.1067488   -3.9314126    852.66896  0.069120376  0.069602153            1 
 1029000    1.0995121     -3.91327    853.36829  0.069109839  0.069590656            3 
 1030000    1.0956875   -3.9125628    859.08587   0.06950533  0.069579182            2 
 1031000     1.098364   -3.9733732    854.80476  0.069091881  0.069567216            2 
 1032000    1.1093538   -3.9586335    853.40594  0.068911979   0.06955498            4 
 1033000    1.1107802    -3.907672    852.20738  0.068748579  0.069543367            1 
 1034000    1.0825748   -3.9135715    856.41232   0.06902098  0.069531683            4 
 1035000    1.1123905   -3.9566008    857.17608  0.069015788  0.069519779            3 
 1036000    1.0708381   -3.9258679    856.03649  0.068857504  0.069507916            3 
 1037000    1.0967181   -3.9194905    858.19887  0.068964872  0.069495982            5 
 1038000    1.1028041   -3.9035374    860.04941  0.069046998  0.069484313            2 
 1039000    1.1104241   -3.9352744    853.40245  0.068447421  0.069472392            3 
 1040000    1.0666244   -3.9188165    860.74038  0.068969582  0.069460348            6 
 1041000    1.0742171   -3.9193911    859.35969  0.068792803  0.069448324            1 
 1042000    1.0690442   -3.9539568    858.97918  0.068696352  0.069436588            5 
 1043000    1.0710713   -3.9385919    860.74365  0.068771464  0.069424453            2 
 1044000    1.0640237   -3.9456547    863.11942  0.068895228  0.069413036            2 
 1045000    1.1106095   -3.9421913    862.10393   0.06874832   0.06940121            1 
 1046000    1.0743922   -3.9577048    862.17891  0.068688569  0.069388827            6 
 1047000    1.0748804   -3.9354583    864.30393  0.068792099  0.069376559            4 
 1048000    1.0813096   -3.9358403    865.40748  0.068814208  0.069364285            1 
 1049000    1.0988517   -3.9130884    864.78459  0.068699125  0.069352475            4 
 1050000    1.0630277   -3.9255062    869.93756  0.069042663  0.069340502            2 
 1051000    1.0771056   -3.9457962    868.08559  0.068830129  0.069329173            4 
 1052000    1.0815689   -3.9317788    868.79995  0.068821288  0.069317663            5 
 1053000    1.0921595   -3.9214546    870.99018  0.068929264   0.06930602            4 
 1054000    1.0881276   -3.9395979    875.15606  0.069193237  0.069294867            1 
 1055000    1.0814908   -3.9158048    874.10314  0.069044482  0.069283884            1 
 1056000    1.0820168   -3.9281681    877.66555  0.069260223  0.069272863            2 
 1057000    1.0870151    -3.940143    872.78981  0.068810297  0.069261761            2 
 1058000    1.0595878   -3.9231911    872.47174  0.068720206  0.069250385            3 
 1059000    1.0813544   -3.9426478    872.30948  0.068642546  0.069239088            2 
 1060000    1.0941046   -3.9191545      878.395  0.069056211  0.069227644            2 
 1061000     1.065413   -3.9586671    872.79632  0.068551392  0.069216242            2 
 1062000    1.0808349   -3.9112497    876.58378  0.068784038  0.069204643            1 
 1063000    1.1178717   -3.9333739    876.53355  0.068715393  0.069193265            4 
 1064000    1.1001581   -3.9304298    874.00647  0.068452888  0.069182245            1 
 1065000    1.1077264   -3.9334968    880.37417  0.068886868  0.069171103            4 
 1066000    1.0854938    -3.959289    876.62736  0.068529344  0.069159467            3 
 1067000    1.1033737   -3.9477147    879.00999  0.068651202  0.069147422            8 
 1068000    1.0705341   -3.8822102    884.11527  0.068985274  0.069136202            2 
 1069000    1.0928645   -3.9120473    882.46033  0.068791731  0.069125254            4 
 1070000    1.0955348   -3.9326173    881.79847  0.068675893  0.069113982            3 
 1071000    1.0831772   -3.9393066    883.14052  0.068716194  0.069102962            2 
 1072000    1.0935769   -3.9347718    884.77683  0.068779293  0.069092121            1 
 1073000    1.0646942   -3.9417975    888.00559  0.068965951  0.069081887            1 
 1074000     1.063873   -3.9352473    884.57032   0.06863519  0.069071567            2 
 1075000    1.0819844   -3.8992826    886.50783  0.068721537   0.06906091            3 
 1076000    1.0597851   -3.9573708    884.29984  0.068486667  0.069049909            1 
 1077000    1.0595794   -3.9412887    888.05599   0.06871371  0.069039034            4 
 1078000    1.0791743   -3.9649146    886.73391  0.068547766  0.069028329            2 
 1079000     1.068968   -3.9324894    888.48117  0.068619182  0.069017186            2 
 1080000    1.0955622   -3.9235446      892.861  0.068893595  0.069006465            2 
 1081000    1.0570942   -3.9201392    891.80917   0.06874878  0.068996231            4 
 1082000    1.0742516    -3.906128    893.21373  0.068793417   0.06898601            3 
 1083000    1.0443216   -3.9172875    894.14122  0.068801263  0.068975555            2 
 1084000    1.0664936   -3.9355646    893.12449  0.068659632  0.068965079            4 
 1085000    1.0829562   -3.9253215    895.36846  0.068768699   0.06895492            3 
 1086000    1.0634844    -3.954365    893.48205  0.068560624   0.06894423            2 
 1087000    1.0790339   -3.9469803    890.99104  0.068306581  0.068933526            2 
 1088000     1.080709   -3.9613485    893.13622  0.068408105  0.068922495            1 
 1089000    1.0965003   -3.9406296     897.7169  0.068695814  0.068911387            6 
 1090000    1.0638337   -3.9434627    896.07055  0.068506923  0.068900035            4 
 1091000    1.0815659   -3.9386922    895.03807  0.068365267  0.068888644            2 
 1092000    1.0840541   -3.9679996    897.13477  0.068462666  0.068877951            3 
 1093000    1.0595274   -3.9405602    897.48539  0.068426761  0.068866827            3 
 1094000    1.0931426    -3.915375    905.64234  0.068985553  0.068856317            4 
 1095000    1.0536904   -3.9192768    903.22505  0.068738588  0.068846442            2 
 1096000    1.0741936   -3.9425496    903.24022  0.068677024  0.068836375            2 
 1097000     1.089484   -3.9431845    907.68601  0.068952143  0.068827035            2 
 1098000    1.0787656   -3.9174409    905.33966  0.068711267  0.068816961            1 
 1099000    1.0825204   -3.9375779    903.91084  0.068540404  0.068806841            2 
 1100000    1.0788046   -3.9808143    903.76366  0.068466944  0.068797043            4 
 1101000    1.0894609   -3.9646755    906.47752  0.068610167  0.068787291            2 
 1102000    1.0798839   -3.9564477     903.9382  0.068355883  0.068777228            2 
 1103000    1.0642078     -3.93019    907.58978  0.068569793  0.068767524            1 
 1104000    1.0605476   -3.9386559    905.91074  0.068380944   0.06875738            2 
 1105000     1.084551   -3.9321867    912.68634   0.06883004  0.068747237            3 
 1106000    1.0895423    -3.960807    908.21833  0.068431158  0.068737205            3 
 1107000      1.07461    -3.916012    909.80832  0.068489033    0.0687274            3 
 1108000    1.0565964   -3.9565989    908.58471  0.068335192   0.06871721            5 
 1109000    1.0832098   -3.9471786      914.073  0.068685978    0.0687071            5 
 1110000     1.058213   -3.9395145    916.23882  0.068786698  0.068697233            3 
 1111000    1.0888794   -3.9521552    913.41257  0.068512794  0.068687161            2 
 1112000      1.09127   -3.9321541    915.58289  0.068613826  0.068676761            6 
 1113000    1.0897233   -3.9140552    914.41574   0.06846479  0.068667399            4 
 1114000    1.0750216   -3.9136632    917.84214  0.068659646  0.068657491            2 
 1115000    1.0904198   -3.9452751    918.07716  0.068615632  0.068647769            2 
 1116000    1.0663537    -3.938026    920.20814  0.068713272  0.068638635            2 
 1117000    1.0961716   -3.9856769    917.48699  0.068448746   0.06862909            2 
 1118000     1.075702   -3.9341454    918.18641  0.068439655  0.068619691            3 
 1119000    1.0825866   -3.9370796    920.47843  0.068549183  0.068610278            2 
 1120000    1.0773885   -3.9390436    920.24321  0.068470477  0.068600492            3 
 1121000    1.0446351   -3.9395432    920.30028   0.06841364  0.068590814            2 
 1122000    1.0716252   -3.9752437    916.72777  0.068087327  0.068580919            2 
 1123000    1.0652257   -3.9409838    924.61519  0.068611991  0.068570748            5 
 1124000    1.0483406   -3.9720525    921.67864  0.068333233  0.068560615            3 
 1125000    1.0799519   -3.9519518    922.97105  0.068368226  0.068550856            4 
 1126000    1.0609847   -3.9699928     924.0643  0.068388418  0.068540421            1 
 1127000    1.0581271   -3.9176696    926.11031  0.068479023  0.068530361            1 
 1128000    1.0605235    -3.960608     922.4512  0.068147991   0.06852031            3 
 1129000    1.0684382   -3.9539124    927.78286  0.068481168  0.068510303            3 
 1130000     1.072078   -3.9172698    929.77681  0.068567611  0.068501144            3 
 1131000     1.071035   -3.9327512    928.59335  0.068419787  0.068491489            3 
 1132000    1.0595257   -3.9615119    928.84901  0.068378166  0.068481576            2 
 1133000    1.0509065   -3.9408942     928.5569   0.06829633  0.068471168            5 
 1134000    1.0674252   -3.9208848    928.66239  0.068243856  0.068460927            1 
 1135000    1.0672141   -3.9433512    931.64089  0.068402415  0.068450224            3 
 1136000    1.0720345   -3.9400653    928.49567  0.068111478  0.068439368            2 
 1137000    1.0686167   -3.9583994      927.197  0.067956391  0.068428327            3 
 1138000    1.0912063   -3.9630925     927.6454  0.067929511  0.068417338            2 
 1139000    1.0612143   -3.9658708    929.29745  0.067990741  0.068406194            3 
 1140000    1.0534774    -3.951264     927.5858  0.067805979  0.068395426            3 
 1141000    1.0679852   -3.9496383    929.80412  0.067908569  0.068384514            3 
 1142000    1.0758596   -3.9413238    933.43646  0.068114161   0.06837439            5 
 1143000    1.0737482   -3.9437055    934.83361  0.068156431  0.068364512            3 
 1144000    1.0868146   -3.9520204    934.46357  0.068069899  0.068354192            2 
 1145000    1.0747856   -3.9410698     935.6065  0.068093632  0.068344345            3 
 1146000    1.1040508   -3.9842847    936.26617  0.068082182  0.068334068            3 
 1147000     1.074129   -3.9063886     939.9026  0.068287024  0.068324044            2 
 1148000    1.0634408   -3.9421276    937.84407  0.068078112  0.068314208            2 
 1149000    1.0650676   -3.9382198    939.44332  0.068134851  0.068304051            3 
 1150000    1.0741684   -3.9558478    941.06694  0.068193257   0.06829359            3 
 1151000    1.0744952   -3.9228561    939.77874  0.068040743  0.068283611            2 
 1152000    1.0739966   -3.9180791    944.07871  0.068292731  0.068273316            3 
 1153000    1.0679547   -3.9695702    941.64779  0.068057805  0.068262972            4 
 1154000    1.0574807   -3.9433829    943.06116  0.068100893  0.068252822            1 
 1155000    1.0862911   -3.9228462    946.38754  0.068281929  0.068243601            2 
 1156000    1.1022482   -3.9667481    943.62207  0.068023505  0.068233397            2 
 1157000    1.0718418    -3.957362     944.5935   0.06803468  0.068222672            2 
 1158000    1.0795955   -3.9787577    941.76775  0.067772579  0.068212157            2 
 1159000    1.0871087   -3.9450899    948.02036  0.068163673  0.068202356            1 
 1160000     1.044842   -3.9528944      945.759  0.067942457  0.068192126            1 
 1161000    1.0630718   -3.9389189    945.50131   0.06786544  0.068182129            2 
 1162000    1.0648177   -3.9738686    944.84858  0.067760225  0.068171805            2 
 1163000    1.0875288   -3.9575263     945.2376  0.067729837  0.068161239            4 
 1164000    1.0528792   -3.9569928     947.5044  0.067833935  0.068151044            2 
 1165000    1.0557867   -3.9463886    949.81306  0.067940849   0.06814093            3 
 1166000    1.0640083   -3.9561762    949.51428  0.067861226   0.06813051            3 
 1167000    1.0663862   -3.9802368    950.86399  0.067899456  0.068120067            4 
 1168000    1.0685838   -3.9695792    950.01619  0.067780836  0.068109312            2 
 1169000    1.0595345   -3.9717276    950.01743  0.067722942  0.068098711            3 
 1170000    1.0630721    -3.992317      947.116  0.067458405  0.068087937            3 
 1171000    1.0593876   -3.9844077    945.41308   0.06727961  0.068076549            4 
 1172000    1.0687982   -3.9159051    952.54233  0.067729119   0.06806573            2 
 1173000    1.0357183   -3.9284084    955.80323  0.067903043  0.068054993            1 
 1174000    1.0695452   -3.9564523    953.69618   0.06769564   0.06804417            3 
 1175000    1.0570971   -3.9615978    954.56834  0.067699882  0.068033404            2 
 1176000    1.0661846   -3.9345382    954.72433  0.067653368  0.068022741            2 
 1177000    1.0881603   -3.9639122    958.76986  0.067882318  0.068011941            3 
 1178000    1.0736328   -3.9676408    955.28175  0.067577939  0.068001543            2 
 1179000    1.0688005   -3.9533453     958.3762  0.067739341  0.067990469            2 
 1180000    1.0552881   -3.9788664    957.44911  0.067616462   0.06797929            3 
 1181000    1.0559218   -3.9580109    957.32447  0.067550414  0.067967835            3 
 1182000    1.0752729   -3.9722546    959.04398  0.067614493   0.06795684            3 
 1183000    1.0732127    -3.942329    961.70475   0.06774477  0.067946353            2 
 1184000    1.0656234   -3.9549351     961.0706   0.06764292  0.067935699            2 
 1185000    1.0800374   -3.9819772    959.41101  0.067469129   0.06792448            2 
 1186000    1.0470978   -3.9027484     962.2015  0.067608312  0.067913302            4 
 1187000    1.0701985   -3.9413419     960.9576  0.067464027  0.067902327            1 
 1188000    1.0655202   -3.9456746    964.74123  0.067672645  0.067891037            5 
 1189000    1.0607051   -3.9645721    962.85486   0.06748352  0.067879536            3 
 1190000    1.0533228   -3.9680756    963.88562  0.067498993  0.067868111            4 
 1191000    1.0550355   -3.9729264    959.76416  0.067153944  0.067856658            4 
 1192000    1.0507294   -3.9560741    963.39405  0.067351373  0.067845128            2 
 1193000    1.0574145   -3.9906683     965.5693  0.067446864  0.067834299            2 
 1194000    1.0541572   -3.9376063    966.35031  0.067444885  0.067822924            3 
 1195000    1.0540505   -3.9466174    966.56015  0.067403079  0.067812181            3 
 1196000    1.0654973   -3.9662601    968.04829   0.06745041  0.067801139            1 
 1197000    1.0564482     -3.97213    972.07662  0.067674507  0.067790219            2 
 1198000    1.0776187   -3.9932546    967.24232  0.067281741  0.067779122            2 
 1199000    1.0576992    -3.979847     969.9117  0.067411155  0.067768185            2 
 1200000    1.0724369   -3.9896592    971.12475  0.067439219  0.067757138            4 
 1201000    1.0729256    -4.003138    969.10387  0.067242844  0.067745912            2 
 1202000    1.0417828    -3.935107    971.28821  0.067338339  0.067734875            2 
 1203000    1.0427412   -3.9528909    968.87657  0.067115307   0.06772383            2 
 1204000    1.0728017   -3.9432252    975.86584  0.067543317  0.067713101            2 
 1205000    1.0514117   -3.9812069    973.07641  0.067294358  0.067702459            2 
 1206000    1.0618837   -3.9799171    975.28366  0.067391077  0.067691236            3 
 1207000     1.053501   -3.9612606    974.79974  0.067301832  0.067680173            7 
 1208000    1.0395074   -3.9737315    973.56586     0.067161  0.067669893            2 
 1209000    1.0511827   -4.0022989    973.74224  0.067117607  0.067658224            3 
 1210000    1.0774333   -3.9756629     979.6383  0.067468202  0.067647288            2 
 1211000    1.0697078   -3.9490995    976.99223  0.067230404  0.067635841            2 
 1212000    1.0622887    -3.963313    977.18873  0.067188444  0.067624607            3 
 1213000    1.0376448   -3.9958731    974.54987  0.066951764    0.0676134            2 
 1214000    1.0923363   -3.9334132     977.3592  0.067089456  0.067602242            2 
 1215000    1.0761035   -3.9652651    983.44754  0.067451821  0.067591264            3 
 1216000    1.0452169   -3.9382566    988.53512  0.067745006  0.067580476            2 
 1217000    1.0589486   -3.9690738    978.75765  0.067019833  0.067569661            5 
 1218000    1.0745473   -3.9647718    981.68227  0.067164906  0.067558584            5 
 1219000    1.0464278   -3.9589244    985.68282  0.067383294  0.067547877            4 
 1220000     1.067444   -3.9813197    981.92791  0.067071579  0.067537267            3 
 1221000    1.0748066   -4.0222546    981.16188  0.066964365  0.067526451            1 
 1222000    1.0502746   -3.9645841    985.37805  0.067197085  0.067515895            3 
 1223000    1.0783496   -3.9748014    988.29987  0.067341229  0.067505137            1 
 1224000    1.0181517   -3.9861489    985.10344  0.067068589  0.067493628            3 
 1225000    1.0445968   -3.9772211    985.30608  0.067027625  0.067482745            3 
 1226000    1.0749248   -3.9247589    987.31449  0.067109468  0.067471423            1 
 1227000    1.0816961   -3.9748763    987.39324  0.067060122  0.067460183            3 
 1228000    1.0626062   -3.9617393     988.2594  0.067064292  0.067449035            5 
 1229000    1.0525306   -3.9641984    990.40123  0.067154952  0.067437304            2 
 1230000    1.0556037   -3.9883586    987.56117  0.066907938  0.067426112            4 
 1231000    1.0637971    -3.942668    994.05434  0.067293145  0.067415094            2 
 1232000    1.0437852   -3.9654685    992.70402  0.067147188  0.067404158            6 
 1233000     1.071142   -3.9673765    990.44705   0.06694019  0.067393043            4 
 1234000    1.0441763   -3.9789375    994.58373  0.067165298  0.067381304            2 
 1235000    1.0244892   -3.9750052    993.51834  0.067039024  0.067370291            2 
 1236000    1.0506008   -3.9810331    992.21364  0.066896821  0.067359419           10 
 1237000     1.060915     -4.02041    990.77518  0.066745835  0.067348529            3 
 1238000    1.0459669   -3.9915801    998.96727  0.067243354  0.067337898            2 
 1239000    1.0529505   -3.9699523    997.86069  0.067114655  0.067326757            6 
 1240000    1.0535309   -3.9799292    992.67493  0.066712025   0.06731581            7 
 1241000    1.0446466   -3.9574528    1000.1179  0.067158063  0.067304589            2 
 1242000    1.0417738   -3.9681837    994.33829  0.066716203  0.067293408            4 
 1243000    1.0527719   -3.9718526    995.72779  0.066755685  0.067282413            3 
 1244000     1.065794   -3.9491436    999.77112  0.066972878  0.067271057            2 
 1245000    1.0581913   -3.9848159    995.64614  0.066642982  0.067259954            2 
 1246000    1.0577344   -3.9998662    1000.2902  0.066900091  0.067248528            2 
 1247000    1.0568966   -3.9704703    1001.8509  0.066950739  0.067236837            2 
 1248000    1.0613735   -3.9949199    1001.6319  0.066882475  0.067225437            1 
 1249000    1.0336032   -3.9882788    1004.5386  0.067022856  0.067214104            2 
 1250000    1.0537265   -3.9648926    1004.4253  0.066961686  0.067202603            4 
 1251000    1.0517515   -3.9703381    1002.9522  0.066810032  0.067191201            2 
 1252000     1.037964   -3.9884272    1002.6236  0.066734798  0.067179786            3 
 1253000    1.0618087   -4.0146581     1004.046  0.066776136  0.067168664            1 
 1254000     1.048729   -3.9434158    1005.3232  0.066807765  0.067157507            2 
 1255000    1.0419987   -3.9739447    1005.5571  0.066770062  0.067146042            2 
 1256000    1.0568049   -3.9634961    1011.0474  0.067081172  0.067134524            3 
 1257000    1.0596168   -3.9811821    1007.1337  0.066768346  0.067123441            3 
 1258000    1.0616399   -3.9421588    1012.9157  0.067098283  0.067112635            1 
 1259000    1.0400705   -3.9503177    1010.8404  0.066907625  0.067101563            2 
 1260000    1.0692755   -3.9903713    1010.0631  0.066803115  0.067090616            2 
 1261000    1.0635537   -3.9700738    1012.3415  0.066900707  0.067079853            4 
 1262000     1.050684   -4.0123916    1004.4561  0.066326999  0.067068094            4 
 1263000    1.0386635   -3.9773828    1008.3665  0.066532497  0.067056803            3 
 1264000    1.0553447   -3.9871672    1007.6669  0.066433733  0.067045199            4 
 1265000    1.0480904   -3.9806937    1007.3773   0.06636214  0.067033341            3 
 1266000    1.0349517   -3.9859601    1012.9108  0.066673962  0.067021155            4 
 1267000    1.0516045   -3.9805765    1011.3779  0.066520515  0.067009897            3 
 1268000    1.0381473   -3.9602315    1007.4909  0.066212601  0.066998269            4 
 1269000    1.0629143    -4.001649    1012.9562  0.066519321  0.066986317            4 
 1270000    1.0602406   -3.9518659    1015.6912  0.066646403   0.06697457            2 
 1271000    1.0241636   -3.9941899    1013.6272  0.066458643  0.066962656            3 
 1272000    1.0548131   -3.9791631    1017.5163  0.066661183  0.066950708            3 
 1273000    1.0541341   -3.9509549    1017.2947  0.066594312    0.0669392            3 
 1274000    1.0340267   -3.9750532    1012.8389  0.066250585  0.066927526            2 
 1275000    1.0453965   -4.0203069    1013.0935  0.066215259  0.066914898            3 
 1276000    1.0490855   -3.9837641    1018.0006   0.06648384   0.06690286            2 
 1277000    1.0532378   -3.9659637    1020.5277  0.066596689  0.066891022            2 
 1278000    1.0432409    -3.964456    1022.3346    0.0666624  0.066879441            4 
 1279000    1.0413961   -3.9499843     1019.399  0.066419014  0.066867615            2 
 1280000    1.0337121   -3.9728986     1019.618  0.066381377  0.066855895            2 
 1281000    1.0456309   -3.9780299    1019.5472  0.066324957  0.066843982            3 
 1282000    1.0416287   -3.9547759     1020.875  0.066359531  0.066832025            2 
 1283000    1.0265789   -3.9908348    1019.7863  0.066237096  0.066820146            3 
 1284000    1.0548026   -4.0153757    1022.8889  0.066386869  0.066808696            2 
 1285000    1.0446609   -3.9670296    1023.9912  0.066406693  0.066796523            2 
 1286000    1.0521772   -4.0006197    1020.6831  0.066140687  0.066784575            3 
 1287000    1.0316738   -3.9928218    1021.5155  0.066143197  0.066772183            4 
 1288000    1.0586428   -3.9734863    1021.4917  0.066090303  0.066759863            3 
 1289000    1.0473741   -3.9466465    1026.8693  0.066386685  0.066747455            2 
 1290000    1.0783625    -3.983706    1027.1423  0.066352862  0.066735499            4 
 1291000    1.0499508   -3.9951114    1032.1805   0.06662668  0.066723484            4 
 1292000    1.0240094   -3.9814185    1025.1207  0.066119758  0.066711127            1 
 1293000    1.0707832   -3.9952658    1025.7101  0.066106606  0.066698691            2 
 1294000    1.0412185   -4.0332041    1022.4618  0.065846329  0.066686571            2 
 1295000     1.038438   -3.9844304    1028.7204  0.066198223  0.066674543            4 
 1296000    1.0434567    -3.971661    1027.6529  0.066078504  0.066662839            2 
 1297000    1.0158575   -3.9893696    1029.6789  0.066157727  0.066651015            5 
 1298000    1.0417841   -3.9496093    1034.4181  0.066411026  0.066639471            4 
 1299000    1.0477667   -4.0339991    1025.5654  0.065791981  0.066627328            5 
 1300000    1.0244418   -4.0318876    1025.6224  0.065745027   0.06661492            3 
 1301000    1.0387641   -3.9956071    1030.0971  0.065981111  0.066602908            7 
 1302000    1.0518989     -4.00745    1033.1428  0.066125372  0.066590547            2 
 1303000    1.0269427   -3.9982781    1034.9747  0.066191784  0.066578331            3 
 1304000     1.052845    -4.002106    1031.0978  0.065893262  0.066566341            4 
 1305000     1.057348   -3.9858632    1036.3431   0.06617772   0.06655415            2 
 1306000    1.0304618   -4.0007412    1032.3364  0.065871387  0.066541908            2 
 1307000    1.0407485   -4.0194973    1032.8166  0.065851607   0.06652934            8 
 1308000    1.0301379   -3.9937103     1036.493  0.066035484  0.066516702            3 
 1309000    1.0532072   -4.0058093    1035.9404  0.065949861  0.066504615            2 
 1310000    1.0628932   -3.9864406    1037.7904  0.066017198   0.06649248            6 
 1311000    1.0217657   -4.0229638    1036.6209  0.065892506  0.066480521            1 
 1312000    1.0506498   -4.0333474    1035.9058  0.065796865   0.06646842            2 
 1313000       1.0493   -4.0276563    1040.3796  0.066030691  0.066456455            4 
 1314000    1.0460062   -4.0055527    1041.6338  0.066059982  0.066444767            3 
 1315000    1.0057342   -4.0186321    1044.1258  0.066167669  0.066433474            3 
 1316000    1.0348725    -4.006028    1040.8629  0.065910771  0.066421703            3 
 1317000    1.0346815   -3.9877411     1046.567  0.066221652  0.066410279            2 
 1318000     1.055964   -3.9812885    1041.5414  0.065853653  0.066398674            4 
 1319000    1.0353342   -4.0075255    1042.4302  0.065859882  0.066387098            2 
 1320000    1.0354834   -3.9805002    1046.6481  0.066076269  0.066375474            3 
 1321000    1.0170227    -4.034008    1040.7661  0.065655191   0.06636349            1 
 1322000    1.0345302   -4.0206074    1043.2321  0.065760975  0.066351701            3 
 1323000    1.0480746   -3.9892259    1044.7069  0.065804166  0.066339864            2 
 1324000      1.03757   -4.0131545    1043.6185  0.065685958   0.06632845            2 
 1325000    1.0064419   -3.9702721    1049.6558  0.066016091  0.066317316            3 
 1326000    1.0482145   -3.9854557    1050.1802  0.065999261  0.066305816            3 
 1327000    1.0523328   -4.0125067    1047.5142  0.065782104  0.066293935            3 
 1328000    1.0538039   -4.0132479    1043.1637  0.065459567  0.066282092            2 
 1329000    1.0255944   -4.0026531    1048.3469  0.065735322   0.06626951            2 
 1330000    1.0404842   -4.0327146    1046.4849  0.065569231  0.066256833            5 
 1331000    1.0179597   -4.0012589    1049.7729  0.065725824  0.066244549            1 
 1332000    1.0189752   -3.9904022    1050.3301  0.065711344  0.066232279            4 
 1333000    1.0216061   -3.9902435    1051.9617  0.065764045  0.066220202            3 
 1334000    1.0489928   -3.9883287     1053.995  0.065841765  0.066208265            2 
 1335000    1.0297882   -4.0020673    1054.6992  0.065836407  0.066196204            3 
 1336000    1.0112625   -3.9682453    1053.4616  0.065709933  0.066183959            7 
 1337000    1.0172358   -3.9873285    1055.0908  0.065762331  0.066171894            4 
 1338000    1.0289613   -4.0161111    1049.5124  0.065365748   0.06615939            2 
 1339000    1.0321975   -3.9870685    1052.9479  0.065530736  0.066146907            2 
 1340000     1.022166   -4.0298762    1054.7114  0.065591507  0.066134616            3 
 1341000    1.0312903   -4.0300118    1054.8963  0.065554084  0.066122537            2 
 1342000    1.0215823   -3.9918773    1056.0207  0.065575056  0.066110352            2 
 1343000    1.0287433   -4.0050836    1059.4138  0.065736769  0.066098171            2 
 1344000    1.0170353    -3.999074    1057.2968  0.065556595  0.066085725            3 
 1345000    1.0131047   -3.9981223    1057.5552  0.065523867  0.066073727            4 
 1346000    1.0433469   -3.9929207    1057.8269  0.065492007  0.066061241            1 
 1347000     1.061246   -4.0054953    1057.7022  0.065435674  0.066049118            1 
 1348000    1.0583294   -3.9747757    1059.3532  0.065489194  0.066037268            1 
 1349000    1.0361229   -3.9998213    1060.2566  0.065496456   0.06602516            2 
 1350000     1.017513   -3.9882763    1062.1706  0.065566088  0.066013157            3 
 1351000    1.0224733    -3.980756    1061.1122  0.065452273  0.066001171           10 
 1352000    1.0348608   -3.9851927    1065.7955  0.065692521  0.065988851            2 
 1353000    1.0412308   -4.0121874    1060.5376  0.065320131  0.065976416            3 
 1354000    1.0060191    -3.996977    1064.2512  0.065500441   0.06596427            3 
 1355000    1.0453879    -4.005099     1061.312  0.065271339   0.06595179            3 
 1356000    1.0404409   -4.0140508    1061.0571  0.065207538  0.065939318            1 
 1357000    1.0409822   -4.0020512    1058.7696   0.06501901  0.065926849            5 
 1358000    1.0347492   -4.0460009    1061.4688  0.065136772   0.06591401            6 
 1359000    1.0417643   -3.9926038    1065.0905  0.065310919  0.065901251            4 
 1360000    1.0397707    -4.023329     1062.747  0.065119303  0.065888506            1 
 1361000    1.0473294   -4.0059392    1068.9171  0.065449248  0.065876122            2 
 1362000    1.0113049   -4.0192941    1063.8416  0.065090649  0.065863291            2 
 1363000    1.0102075   -4.0443351    1063.2348  0.065005793  0.065850549            1 
 1364000    1.0166432   -3.9620748    1070.0797  0.065376326  0.065837788            1 
 1365000    1.0177226   -4.0191961    1072.0831  0.065450737  0.065825272            5 
 1366000    1.0504759   -3.9998316    1068.3831  0.065177102  0.065812549            5 
 1367000    1.0134749   -4.0091627    1071.6619  0.065329302  0.065799932            1 
 1368000    1.0259768   -4.0037333    1072.4706   0.06533081  0.065786885            5 
 1369000    1.0363035   -4.0013483    1074.2776  0.065393083  0.065774335            4 
 1370000    1.0128361   -4.0274421    1069.1532  0.065033649  0.065761628            3 
 1371000     1.058002   -4.0160415    1069.6307  0.065015239  0.065748926            2 
 1372000    1.0367012   -4.0043599    1068.7878  0.064916656   0.06573601            3 
 1373000     1.024418   -4.0125511    1074.0857  0.065190927  0.065723152            3 
 1374000    1.0272657   -4.0215711    1075.2737  0.065215531  0.065710353            1 
 1375000    1.0242092   -4.0138115    1073.1697  0.065040588  0.065697398            2 
 1376000    1.0465323   -4.0291791    1073.1458  0.064991874  0.065684052            2 
 1377000    1.0263308   -4.0033144     1074.099  0.065002361  0.065670819            3 
 1378000    1.0240756   -4.0165858    1075.5236  0.065041342   0.06565734            1 
 1379000    1.0238859   -4.0289752    1071.2389  0.064735247  0.065644271            3 
 1380000      1.02104   -4.0034042    1076.5471   0.06500888  0.065630927            2 
 1381000    1.0392701   -3.9842982    1076.8377  0.064979342  0.065617757            3 
 1382000    1.0193451   -4.0260341    1072.5764  0.064675373   0.06560453            3 
 1383000    1.0242431   -4.0273284    1075.9947  0.064834583  0.065590926            4 
 1384000    1.0338807   -3.9989583    1080.4561  0.065056363  0.065577686            4 
 1385000    1.0306677   -3.9977816    1078.7572  0.064907171   0.06556454            4 
 1386000     1.045424   -4.0094507    1078.8573  0.064866362  0.065551619            2 
 1387000    1.0185764   -4.0157249    1078.6915  0.064809632  0.065538528            7 
 1388000    1.0236819    -4.003935    1081.4385  0.064927863  0.065525473            3 
 1389000     1.035642   -4.0124518    1077.4816  0.064643725  0.065512773            4 
 1390000    1.0219376   -4.0297045    1079.0155  0.064689176  0.065499736            6 
 1391000    1.0572535   -4.0101318    1073.3273  0.064301898  0.065486602            4 
 1392000     1.030594   -4.0410643    1076.7037  0.064457839  0.065473451            3 
 1393000    1.0226696   -3.9859476    1087.2723  0.065043806  0.065460253            3 
 1394000    1.0167104   -4.0275507     1081.363  0.064643891  0.065447026            2 
 1395000    1.0155736   -4.0181581    1083.0257  0.064696876  0.065433703            2 
 1396000      1.03589   -4.0359054    1080.8437  0.064520277  0.065420223            4 
 1397000    1.0230664   -3.9919669     1081.879  0.064535848  0.065407104            3 
 1398000    1.0503268   -4.0340351    1083.9227  0.064611511   0.06539419            2 
 1399000    1.0407152   -4.0270239    1091.5559  0.065020007  0.065380962            3 
 1400000    1.0222773   -4.0137015    1086.8169   0.06469148  0.065367909            3 
 1401000    1.0333827    -4.017947    1088.4912  0.064744895  0.065355062            2 
 1402000    1.0083459   -4.0035718    1089.4304   0.06475454  0.065342126            2 
 1403000    1.0258514   -4.0281142    1091.1417  0.064810032  0.065329294            3 
 1404000    1.0263778   -4.0090712    1093.6539   0.06491298  0.065317098            4 
 1405000    1.0206084   -4.0369333    1089.3176  0.064609585  0.065304306            3 
 1406000    1.0023609   -4.0232293    1089.6663    0.0645843   0.06529163            6 
 1407000    1.0481323   -4.0543764    1087.7759  0.064426434  0.065278597            4 
 1408000     1.019088     -4.02832    1094.1289  0.064756682  0.065265686            3 
 1409000    1.0286153   -4.0180966    1095.1833  0.064773085  0.065252855            4 
 1410000     1.001861   -4.0372829    1094.6924  0.064698131  0.065240163            9 
 1411000    1.0377201   -4.0057099    1096.7982  0.064776649  0.065227159            2 
 1412000    1.0339373   -4.0446284    1090.2936  0.064346884  0.065213706            3 
 1413000    1.0250992   -4.0571903    1086.8392  0.064097615  0.065200267            2 
 1414000    1.0168711   -4.0078201    1094.0645  0.064478103  0.065186897            3 
 1415000    1.0421223    -4.035945    1095.5901  0.064522386  0.065173672            3 
 1416000    1.0092737   -4.0286575    1093.7745  0.064369969  0.065160227            3 
 1417000    1.0215293    -4.019059    1088.1155  0.063991739  0.065146595            5 
 1418000    1.0395823   -4.0227401    1094.1283  0.064299972  0.065133265            4 
 1419000    1.0270224    -4.031474    1089.7608  0.063998165  0.065120005            4 
 1420000    1.0257097   -4.0220893    1094.9509  0.064257679  0.065106534            4 
 1421000    1.0157544   -4.0022729    1097.1802  0.064343198   0.06509325            5 
 1422000      1.06196   -4.0505058    1095.6175  0.064206369  0.065079879            3 
 1423000    1.0435467   -3.9928929    1101.7055  0.064517774  0.065066446            3 
 1424000    1.0393143   -4.0063866    1098.0433  0.064258152  0.065052914            2 
 1425000    1.0263565   -4.0190903    1104.2594  0.064576575  0.065039586            1 
 1426000     1.028389   -3.9988741    1102.2162  0.064411884   0.06502612            5 
 1427000     1.029547    -4.041732    1097.8327  0.064110765  0.065012245            4 
 1428000    1.0458871   -4.0065492    1101.2048  0.064262649  0.064998716            2 
 1429000    1.0349917   -4.0207823    1101.8374  0.064254574  0.064985422            3 
 1430000    1.0409082   -4.0160409    1102.2848  0.064235711  0.064972067            2 
 1431000    1.0137016   -4.0334334    1099.6046  0.064034741  0.064958625            5 
 1432000    1.0300552   -4.0176178    1103.8564  0.064237453  0.064944859            5 
 1433000    1.0193172   -4.0450234    1098.7037  0.063892979  0.064931603            1 
 1434000    1.0262681   -4.0322493     1102.675   0.06407921  0.064918403            1 
 1435000    1.0094043    -4.012082    1109.1545  0.064410828  0.064905448            2 
 1436000    1.0076539   -4.0369945    1104.0989  0.064072592  0.064892243            1 
 1437000    1.0169943   -4.0060746    1110.2494  0.064384681  0.064878666            3 
 1438000    1.0128158   -4.0457976    1107.0515  0.064154584  0.064865397            6 
 1439000    1.0198936   -4.0061273    1108.0023  0.064165065  0.064852002            2 
 1440000    1.0240225   -3.9955121    1107.8865  0.064113801  0.064838335            2 
 1441000    1.0496488   -3.9936501    1106.1416  0.063968404  0.064824716            3 
 1442000     1.043321   -4.0191838    1106.1864   0.06392663  0.064810969            3 
 1443000    1.0248036   -4.0172517     1111.905   0.06421258  0.064797553            3 
 1444000    1.0336821   -4.0256085    1106.9696  0.063883287  0.064784053            4 
 1445000    1.0283738   -3.9751521    1113.9518   0.06424174  0.064770543            7 
 1446000    1.0535468    -4.033061    1111.2396   0.06404101  0.064757254            2 
 1447000    1.0313404   -4.0456549    1107.4905  0.063780841  0.064743605            1 
 1448000     1.025339   -4.0250262    1109.1514  0.063832375  0.064729987            3 
 1449000    1.0170982   -4.0559351    1113.0659  0.064013451  0.064716538            5 
 1450000    1.0218646   -4.0488238    1113.2363  0.063979096  0.064703319            5 
 1451000     1.019728   -4.0160144    1114.2948  0.063995795  0.064690385            4 
 1452000    1.0198677   -4.0432052    1111.4932  0.063790931  0.064677152            3 
 1453000    1.0122008   -4.0108187    1115.1988  0.063959555  0.064664169            2 
 1454000    1.0153246   -4.0299177    1113.9822  0.063845838  0.064651306            8 
 1455000    1.0307887   -4.0212712    1117.5631  0.064007052  0.064638214            1 
 1456000     1.019039   -4.0349411    1114.6331  0.063795393  0.064624942            3 
 1457000    1.0162666   -4.0453409    1114.0899  0.063720539  0.064611554            2 
 1458000    1.0278015   -4.0127763    1119.3318  0.063976443  0.064597773            2 
 1459000   0.99951437   -4.0546567     1117.698  0.063839272  0.064585089            5 
 1460000    1.0156107   -4.0334224    1118.9457  0.063866761  0.064571839            2 
 1461000   0.99470498   -4.0255316    1121.5914  0.063973954  0.064558497            3 
 1462000    1.0250162   -4.0526798     1119.028  0.063784087  0.064545224            2 
 1463000    1.0214224    -4.036472    1120.4679  0.063822504  0.064531882            2 
 1464000    1.0174282   -4.0307236    1122.1265  0.063873319  0.064518552            3 
 1465000    1.0015505   -4.0703539     1121.498  0.063793969  0.064505635            2 
 1466000    1.0123144    -4.003991    1127.3551  0.064083398  0.064492741            1 
 1467000    1.0013331      -4.0383    1122.2283  0.063748482  0.064479725            2 
 1468000    1.0213859   -4.0194422     1128.851  0.064081005  0.064466851            3 
 1469000    1.0518311   -4.0182344    1127.0696  0.063936331  0.064454533            3 
 1470000    1.0328375   -4.0328513    1124.8063  0.063764529  0.064441903            3 
 1471000   0.99943257   -4.0414998    1126.1694    0.0637984  0.064428909            5 
 1472000    1.0343576   -3.9929964    1128.1708  0.063868364  0.064416221            2 
 1473000    1.0064236   -4.0650083    1123.3005  0.063549474  0.064403116            4 
 1474000    1.0368865   -4.0388486    1126.9991  0.063715463  0.064390158            1 
 1475000    1.0082358    -4.013384    1129.3482  0.063804984  0.064377009            3 
 1476000    1.0095609   -4.0419955    1128.7311  0.063726912  0.064363716            2 
 1477000    1.0185368   -4.0640163    1131.2748  0.063827285  0.064350614            2 
 1478000   0.99784629   -4.0456311    1129.9255  0.063708022   0.06433765            6 
 1479000    1.0288014   -4.0499194    1123.2698  0.063289936  0.064324413            2 
 1480000    1.0211362   -3.9935006    1134.5783  0.063883913  0.064311168            3 
 1481000    1.0146016    -4.012379    1131.7523  0.063681763  0.064298417            1 
 1482000    1.0049314   -4.0413548    1130.6471  0.063576649  0.064285654            1 
 1483000    1.0056755   -4.0159855     1136.698  0.063873792  0.064272806            3 
 1484000    1.0022109   -4.0406391    1136.0929  0.063796769  0.064260149            3 
 1485000   0.98745408   -4.0563703    1129.0141  0.063356573  0.064247121            5 
 1486000   0.99061304   -4.0723227    1131.8572  0.063473376  0.064234238            6 
 1487000    1.0202175   -4.0616883    1135.2896  0.063623041  0.064221269            3 
 1488000    1.0216917   -4.0163292    1141.7598   0.06394264  0.064208799            2 
 1489000    1.0203729   -4.0389248    1137.3747   0.06365428  0.064196187            5 
 1490000    1.0287615   -4.0484051    1139.3567   0.06372241  0.064183594            2 
 1491000    1.0175156   -4.0676448    1140.2763  0.063731068  0.064171416            2 
 1492000    1.0214916   -4.0517195    1136.4735  0.063475952  0.064158824            2 
 1493000    1.0029157   -4.0616451    1136.7376  0.063448182  0.064146252            2 
 1494000     1.011874   -4.0734605    1139.8581  0.063579769  0.064133768            4 
 1495000    1.0118261   -4.0335076    1145.1534   0.06383241  0.064121294            2 
 1496000    1.0047558   -4.0341528    1142.5512  0.063644786  0.064108778            2 
 1497000   0.99365664   -4.0400585    1145.3075  0.063755707  0.064096475            4 
 1498000    1.0209701   -4.0242208     1147.142  0.063815199  0.064083983            2 
 1499000    1.0185083   -4.0328373    1143.6834  0.063580355  0.064071423            2 
 1500000    1.0189375   -4.0292369    1147.8273  0.063768184  0.064058881            3 
 1501000    1.0032575   -4.0363023    1146.0934  0.063629434  0.064046387            5 
 1502000    1.0096304   -4.0287724    1147.1291  0.063644537  0.064033597            2 
 1503000    1.0074008   -4.0406096    1141.1733  0.063271973  0.064020947            5 
 1504000    1.0215693   -4.0663753    1145.2606  0.063456369  0.064007923            2 
 1505000     1.016985   -4.0307141    1148.7872  0.063609479  0.063995261            3 
 1506000   0.97097967   -4.0547693    1146.5722  0.063444679  0.063982622            4 
 1507000   0.99870023   -4.0431786    1146.0345  0.063372842  0.063969702            3 
 1508000    1.0106799   -3.9921828    1154.0211  0.063772164  0.063957147            3 
 1509000    0.9917141   -4.0412953    1147.8345  0.063388252   0.06394457            4 
 1510000    1.0133099   -4.0304159    1147.8008  0.063344415  0.063931782            2 
 1511000    1.0009458   -4.0423401    1149.9649  0.063421843  0.063918802            4 
 1512000    1.0047846   -4.0597301    1147.1458  0.063224524  0.063905683            3 
 1513000    0.9919112   -4.0358912     1148.952   0.06328222  0.063892905            3 
 1514000    0.9961409    -4.004096    1149.0348  0.063244979  0.063880074            1 
 1515000    1.0259427   -4.0225625    1152.4633  0.063391818  0.063867497            2 
 1516000    1.0022628    -4.028243     1152.528  0.063353564  0.063854874            2 
 1517000   0.99191207   -4.0509969    1150.0801  0.063177329  0.063842125            6 
 1518000    1.0030719   -4.0366208    1153.9377  0.063347481  0.063829285            2 
 1519000    1.0359875   -4.0705933    1154.6277  0.063343628  0.063816731            3 
 1520000    1.0056405   -4.0643028    1152.5596  0.063188576  0.063804117            5 
 1521000    1.0074019   -4.0354209     1157.819  0.063435186  0.063791426            4 
 1522000    1.0168682   -4.0739692     1157.784  0.063391588   0.06377884            5 
 1523000   0.99895323   -4.0271388     1159.314  0.063433683  0.063766481            2 
 1524000   0.99620904   -4.0590087    1154.6475  0.063136893  0.063754281            4 
 1525000    1.0000964   -4.0167893     1156.924  0.063219892  0.063741192            3 
 1526000    1.0134769   -4.0740622    1157.4664  0.063208083  0.063728565            2 
 1527000    1.0262904   -4.0317501    1157.7189  0.063180469   0.06371609            1 
 1528000    1.0084585   -4.0456071    1163.0135  0.063427874  0.063703504            3 
 1529000    1.0161839   -4.0260109    1161.3289  0.063294578  0.063690833            2 
 1530000     1.014261   -4.0814567    1155.4329  0.062932077  0.063678105            2 
 1531000    1.0279152   -4.0471168    1162.9256  0.063298801  0.063665699            3 
 1532000    1.0312685   -4.0252474    1163.1943  0.063272102  0.063653198            6 
 1533000     1.015148   -4.0286902     1165.461  0.063354043  0.063640615            1 
 1534000    1.0210464   -4.0280644    1163.1279  0.063186002  0.063628085            2 
 1535000    1.0055965   -4.0570202    1160.9909  0.063028823  0.063615989            2 
 1536000     1.030294     -4.06603    1163.7913  0.063139721  0.063603771            3 
 1537000    1.0091861    -4.027825    1166.3385  0.063236742  0.063591076            3 
 1538000    1.0021536   -4.0456643    1162.8464  0.063006416  0.063578412            3 
 1539000    1.0185192   -4.0905853    1167.0601  0.063193636  0.063566015            3 
 1540000    1.0183139   -4.0173245    1167.7829  0.063191713  0.063553892            3 
 1541000    1.0059166   -4.0617199    1165.5727  0.063031185  0.063541665            2 
 1542000    1.0073148   -4.0554562    1165.7246   0.06299852  0.063529179            6 
 1543000    1.0060107   -4.0824637    1168.6209   0.06311411  0.063516874            3 
 1544000    1.0093539   -4.0606651    1169.5287  0.063122232  0.063504658            2 
 1545000    1.0240307   -4.0438203    1170.6095  0.063139672   0.06349286            4 
 1546000   0.98884882    -4.043891    1170.3603    0.0630854  0.063480529            4 
 1547000    1.0243708   -4.0253274    1174.8661  0.063287334  0.063468447            2 
 1548000    1.0140788   -4.0517213    1171.3326  0.063056232  0.063456394            6 
 1549000    1.0335376   -4.0365415    1177.6139   0.06335345  0.063444379            6 
 1550000   0.99870659   -4.0686879    1175.7188  0.063210689  0.063432482            2 
 1551000    1.0181801   -4.0501225    1176.6247  0.063218604  0.063420465            2 
 1552000    1.0218003   -4.0581706    1172.2174  0.062941226  0.063408401            4 
 1553000    1.0022343   -4.0645209    1170.7101  0.062819818  0.063396204            6 
 1554000    1.0063319     -4.07618    1176.9228   0.06311255  0.063384011            3 
 1555000    1.0039304   -4.0730496    1172.5999  0.062840297  0.063371988            3 
 1556000    1.0004356   -4.0504256    1176.6425  0.063016416  0.063359581            2 
 1557000   0.99420231   -4.0607855    1174.2388  0.062847293  0.063347326            3 
 1558000   0.99361566   -4.0657479    1179.7031  0.063099224  0.063334844            1 
 1559000   0.99547994   -4.0525636    1176.4961  0.062887325  0.063322252            3 
 1560000   0.98279762    -4.047566    1173.3344  0.062678121  0.063309488            3 
 1561000     0.984899     -4.04736    1176.8546  0.062825892  0.063297009            2 
 1562000   0.99437203   -4.0783467    1171.8983   0.06252125  0.063284314            5 
 1563000   0.98892498   -4.0760201    1174.5639  0.062623371   0.06327154            2 
 1564000    1.0121197   -4.0615297    1177.8618   0.06275905  0.063258835            3 
 1565000   0.99415219   -4.0380361    1178.7294  0.062765142   0.06324611            4 
 1566000    1.0097489   -4.0782394    1174.6201  0.062506392  0.063233504            3 
 1567000   0.98590699   -4.0489351    1180.6945  0.062789538  0.063220767            3 
 1568000    1.0296726   -4.0703995    1181.2726  0.062780221   0.06320783            2 
 1569000    1.0016008   -4.0963376    1180.8993  0.062720378  0.063195216            5 
 1570000    1.0123754   -4.0840568    1181.9562  0.062736529  0.063182133            2 
 1571000   0.98673145    -4.037943    1180.8237  0.062636519  0.063169309            2 
 1572000    1.0057275   -4.0866004    1179.6679  0.062535409  0.063156543            4 
 1573000   0.98879335   -4.0342516    1183.8723  0.062718386  0.063143595            2 
 1574000    1.0037929   -4.0866342    1184.8602  0.062730846  0.063130619            4 
 1575000   0.98450523   -4.0608542    1182.7788  0.062580891  0.063117554            2 
 1576000    1.0008941   -4.0642667    1189.1912  0.062880247  0.063104439            4 
 1577000    1.0101491   -4.0610889    1185.9075  0.062666853  0.063091575            5 
 1578000    1.0023321   -4.0570191    1184.5635  0.062556162  0.063078653            3 
 1579000   0.98904038   -4.0433657    1181.6175  0.062361069  0.063065864            2 
 1580000   0.99860033   -4.0456048     1184.458  0.062471416  0.063052901            3 
 1581000    1.0055549   -4.0875831    1183.4848  0.062380602  0.063040069            2 
 1582000   0.99923749   -4.0480928    1188.4674  0.062603635  0.063027375            6 
 1583000   0.99464505   -4.0407165    1188.0772  0.062543545  0.063014706            3 
 1584000   0.99175873   -4.0516342     1187.763  0.062487532  0.063001981            5 
 1585000   0.98010833   -4.0390343     1184.619   0.06228281  0.062989414            6 
 1586000   0.98457282    -4.062728    1189.2755  0.062488202  0.062977012            3 
 1587000     1.013587   -4.0554127    1192.6583  0.062626461  0.062964573            1 
 1588000   0.98995905   -4.0468106    1191.1195  0.062506269  0.062951806            8 
 1589000   0.98111008   -4.0964062    1188.7945  0.062345004  0.062938998            4 
 1590000    0.9994825    -4.055131    1193.2626  0.062539969  0.062926477            2 
 1591000   0.98805889   -4.0567142    1190.7864  0.062370959  0.062913775            2 
 1592000   0.99552292   -4.0707567    1189.8435   0.06228243  0.062901378            4 
 1593000   0.99252508    -4.056684    1192.8103  0.062398529  0.062888757            4 
 1594000   0.99999885   -4.0915203    1192.8142  0.062359587  0.062876229            1 
 1595000   0.99278668   -4.0839987    1195.2051  0.062445409  0.062863765            2 
 1596000   0.99125572   -4.0692942    1195.9121  0.062443198  0.062851305            3 
 1597000    1.0010112   -4.0793908    1197.1064  0.062466418  0.062838837            1 
 1598000    1.0011729    -4.069961    1201.1376  0.062637548  0.062826622            3 
 1599000   0.97987396   -4.0945066    1194.3406   0.06224414  0.062814328            5 
 1600000   0.99953068   -4.0696107    1197.6785  0.062379086  0.062801847            8 
 1601000    1.0032886   -4.0942073    1193.7861  0.062137522  0.062789592            3 
 1602000    1.0235536   -4.0507029    1201.4035  0.062494978  0.062777428            2 
 1603000    1.0151284   -4.0619251    1196.8427  0.062218898  0.062764854            2 
 1604000    1.0062804   -4.0668157     1198.297  0.062255662  0.062752457            7 
 1605000   0.97431364   -4.0469147    1201.7418  0.062395734  0.062740106            2 
 1606000   0.98288904    -4.063529     1204.317  0.062490505  0.062727488            5 
 1607000    1.0073574   -4.0924746    1199.1775  0.062185104  0.062715261            2 
 1608000     0.972095   -4.0464944    1204.3527   0.06241463  0.062703164            2 
 1609000   0.99121836   -4.0952005     1205.988  0.062460535  0.062691244            2 
 1610000   0.99696159   -4.0653373    1205.7352  0.062408653  0.062679444            3 
 1611000   0.98791119   -4.0693157    1208.3017  0.062502676  0.062667604            2 
 1612000   0.97836002    -4.051797    1208.9289  0.062496324  0.062655984            2 
 1613000   0.99103475   -4.0736573    1208.7885  0.062450325  0.062644376            5 
 1614000    1.0065293   -4.0854622    1211.3338  0.062543051  0.062632741            3 
 1615000   0.99391693   -4.0730754    1208.0999  0.062337454  0.062621276            2 
 1616000   0.99001916   -4.0815697    1211.2006  0.062458778  0.062609736            2 
 1617000   0.97307176   -4.0833148    1207.6877   0.06223911  0.062597964            4 
 1618000   0.98388773   -4.0734426    1209.0869  0.062272709   0.06258637            8 
 1619000   0.98787826   -4.0673153    1210.9875  0.062332073  0.062574918            2 
 1620000   0.98538325   -4.0450932    1212.0507  0.062348287  0.062563477            4 
 1621000    1.0159196   -4.0566469    1213.4821  0.062383409  0.062552069            2 
 1622000   0.98325475   -4.0915378    1211.8396  0.062260563  0.062540553            3 
 1623000   0.99651785   -4.0716248    1210.8431  0.062171035  0.062529036            4 
 1624000   0.99938121   -4.0745596    1213.5824  0.062273315  0.062517418            2 
 1625000   0.99166147   -4.0823148    1216.2147  0.062369987  0.062506245            4 
 1626000   0.98669793   -4.0665559     1215.925  0.062316782   0.06249483            2 
 1627000   0.99480412   -4.1225219    1214.7073  0.062216108  0.062483561            4 
 1628000   0.96535478   -4.0319641    1219.0625  0.062400825  0.062472326            4 
 1629000    0.9823853   -4.0664024    1219.3241  0.062375898   0.06246088            4 
 1630000    1.0087653    -4.085327     1220.869  0.062416614   0.06244964            4 
 1631000   0.98588859   -4.0285797    1221.6818  0.062419875  0.062438595            2 
 1632000   0.98457821   -4.0815259    1215.8706  0.062084898  0.062427501            4 
 1633000    1.0035588   -4.0700481    1221.4536  0.062331784  0.062415895            2 
 1634000    0.9922727   -4.0667565    1222.8499  0.062364844  0.062404457            2 
 1635000   0.98126813   -4.0815975    1222.1643  0.062291756  0.062393234            3 
 1636000   0.97408102   -4.0936421     1220.813  0.062184851  0.062381849            4 
 1637000   0.98689425   -4.0941686    1222.1602  0.062215446  0.062370358            4 
 1638000   0.98568631   -4.1019836    1217.3762  0.061934077  0.062358907            4 
 1639000   0.99158637   -4.0902236     1223.016  0.062183038  0.062347442            4 
 1640000   0.99266307   -4.0677585    1228.8268  0.062440387  0.062336591            2 
 1641000    1.0047985    -4.082191    1224.9138  0.062203626  0.062325452            2 
 1642000   0.99273808   -4.0588269    1228.3819  0.062341751  0.062314207            2 
 1643000   0.98383111   -4.0559416    1224.2775  0.062095634  0.062303012            4 
 1644000   0.97477389   -4.0936057    1233.8269  0.062541914  0.062292362            2 
 1645000   0.95286575   -4.0712288    1228.9366  0.062256161  0.062281247            2 
 1646000   0.98011685   -4.0886376    1231.0626   0.06232597    0.0622702            3 
 1647000   0.98569169   -4.0487992    1231.7175  0.062321268  0.062259166            3 
 1648000      1.00768   -4.1134693    1227.4691  0.062068623  0.062248418            2 
 1649000   0.96778478   -4.0754079    1232.5829  0.062289413  0.062237461            4 
 1650000   0.97648158   -4.0949297    1231.7118  0.062207666    0.0622265           10 
 1651000   0.98140016   -4.0568321    1228.8857  0.062027343  0.062215577            2 
 1652000   0.98906407   -4.0807986    1228.8498  0.061987984  0.062204613            2 
 1653000   0.98752496    -4.086614    1232.7684  0.062148034  0.062193703            2 
 1654000   0.99318263   -4.0816354    1235.0758  0.062226712  0.062182674            2 
 1655000   0.99487045    -4.083501    1233.1653  0.062092917  0.062171748            2 
 1656000   0.98098748    -4.080507    1238.0467  0.062301062  0.062160645            2 
 1657000   0.98089073    -4.074074    1236.5199  0.062186676  0.062149378            2 
 1658000    0.9924099   -4.0755356    1234.2906  0.062037122  0.062138094            2 
 1659000   0.99210589   -4.0830806    1235.9087   0.06208101  0.062126677            5 
 1660000   0.98425947   -4.0924609     1236.339  0.062065211  0.062115104            3 
 1661000   0.98537955   -4.0747864    1234.0666  0.061913839   0.06210359            2 
 1662000    1.0069029   -4.0855896     1235.372   0.06194204  0.062092129            2 
 1663000   0.99623275   -4.0810501    1236.0993  0.061941234  0.062080619            2 
 1664000   0.99100378   -4.0905282    1239.2363  0.062061113  0.062069225            4 
 1665000   0.98314289   -4.0686843    1238.2539  0.061974671  0.062057911            2 
 1666000   0.96469377   -4.1115145     1237.573  0.061903409  0.062046358            3 
 1667000   0.97698493   -4.0897658    1235.9382  0.061784552  0.062034783            7 
 1668000   0.96072803   -4.1003663    1230.6789  0.061484759  0.062022588            2 
 1669000    0.9887121   -4.0727509    1238.8868  0.061857739  0.062010848            3 
 1670000   0.98801261   -4.0934583    1238.3474  0.061793782  0.061998979            3 
 1671000   0.98701188   -4.0550033    1241.0078  0.061889475  0.061987258            4 
 1672000   0.99905256   -4.1053793    1235.1111  0.061558567  0.061975689            2 
 1673000   0.99492704   -4.0684665    1238.4368  0.061687428  0.061964026            5 
 1674000   0.98621157   -4.0676148    1239.6015  0.061708559  0.061952309            5 
 1675000   0.96167739   -4.0867003    1236.4415  0.061514503   0.06194097            4 
 1676000   0.97823095   -4.0629922    1242.2332  0.061765773   0.06192954            3 
 1677000   0.97669864   -4.0657475    1245.0832  0.061870562  0.061918059            3 
 1678000   0.97674564   -4.0815355    1241.3327  0.061647433  0.061906544            6 
 1679000   0.96234905   -4.0819705    1247.1304  0.061898469  0.061895153            4 
 1680000    1.0027543    -4.076555    1243.8552  0.061699166  0.061883735            2 
 1681000   0.98336329   -4.1191564    1240.2912  0.061485782   0.06187235            5 
 1682000    1.0038121   -4.1317192    1242.8047  0.061573757  0.061860771            4 
 1683000   0.99192962   -4.0734956    1244.4441  0.061618345  0.061849431            3 
 1684000   0.99067914   -4.0884977    1245.1715   0.06161775   0.06183806            4 
 1685000   0.97876239   -4.1195295    1242.1247  0.061430497  0.061826937            5 
 1686000   0.98723773   -4.0811977    1243.9284  0.061483214   0.06181532            2 
 1687000   0.98052774   -4.0893031    1244.3293  0.061466575  0.061803999            2 
 1688000   0.97744036   -4.1149217    1245.9467  0.061510007  0.061792465            3 
 1689000   0.96534659   -4.0836898    1245.2126  0.061437368  0.061780757            5 
 1690000   0.96854498   -4.1040888    1245.1531  0.061398079  0.061769235            2 
 1691000   0.97521317   -4.1013791    1247.2587  0.061465538  0.061757754            3 
 1692000   0.96028657   -4.1004068    1248.7711  0.061503697  0.061746208            2 
 1693000   0.95065189   -4.0681175    1257.5467  0.061899325  0.061734786            3 
 1694000    0.9934108   -4.0656858    1251.5391   0.06156725  0.061723345            5 
 1695000   0.99261277   -4.1320877    1250.1821  0.061464212  0.061711929            6 
 1696000   0.98268472   -4.0984074    1251.0404  0.061470143  0.061700151            2 
 1697000   0.96190832   -4.0932819    1249.2063  0.061343856  0.061688554            7 
 1698000   0.99513959   -4.0919664    1254.4721  0.061566162  0.061676886            3 
 1699000   0.98236188   -4.0961015    1257.7789  0.061692116   0.06166547            5 
 1700000    1.0041655   -4.0952613    1253.7436   0.06145802  0.061653854            4 
 1701000   0.97746682   -4.0969394    1259.1278  0.061685665   0.06164254            4 
 1702000   0.96972965   -4.0878075     1256.112  0.061501763  0.061631196            3 
 1703000    1.0004939   -4.0654464    1255.7183  0.061446382  0.061619698            4 
 1704000   0.97624707   -4.0970655    1253.4927  0.061301484  0.061608438            3 
 1705000   0.99276315   -4.1218161    1255.5868  0.061367881  0.061596819            5 
 1706000   0.97735773    -4.098117    1257.2384  0.061412582  0.061585565            5 
 1707000   0.96541135     -4.12308    1258.6937  0.061447652  0.061574344            2 
 1708000   0.99242383   -4.0827516    1259.7867  0.061465002   0.06156297            3 
 1709000    0.9800609   -4.0974199    1259.4696  0.061413575  0.061551406            7 
 1710000   0.97466932    -4.091775    1261.3326  0.061468449  0.061540454            4 
 1711000   0.98153653   -4.0958001    1267.0865  0.061712766  0.061529307            2 
 1712000   0.98425755   -4.1017877     1264.118  0.061532223  0.061518403            3 
 1713000   0.99077407   -4.1104223    1261.3116  0.061359777  0.061507148            8 
 1714000   0.96445782   -4.0951663    1262.1712  0.061365772  0.061495994            4 
 1715000   0.97169567   -4.1106848    1263.0081  0.061370657  0.061484804            2 
 1716000   0.96628655   -4.0884766    1264.1145  0.061388622    0.0614736            5 
 1717000   0.97634165   -4.1196164    1260.7518  0.061189664  0.061462432            3 
 1718000   0.97763838   -4.0933364    1264.5415  0.061337869  0.061451179            3 
 1719000   0.95081103   -4.0870059    1264.3129  0.061291103  0.061439768            1 
 1720000   0.95500346   -4.0951599     1269.089  0.061486872  0.061428422            5 
 1721000   0.97445864   -4.0963128     1267.821  0.061389745  0.061417093            4 
 1722000   0.97411358   -4.0817798    1264.9551  0.061215402  0.061405656            4 
 1723000   0.96641899    -4.101995    1266.1845  0.061239335  0.061394074            3 
 1724000   0.95968594   -4.1015555    1267.1697  0.061251435  0.061382418            3 
 1725000   0.96655735   -4.0883645    1265.8043  0.061149964  0.061370793            3 
 1726000   0.97649639   -4.0860168    1263.1533  0.060986542  0.061359114            5 
 1727000   0.94321519   -4.0951811    1265.9179   0.06108463  0.061347432            4 
 1728000   0.94859141   -4.1180183    1269.5839  0.061226074  0.061335803            3 
 1729000   0.94739104   -4.1230158    1264.8241  0.060961256  0.061324185            3 
 1730000   0.97154804   -4.1261582    1268.2348  0.061090309  0.061312598            2 
 1731000    0.9531221   -4.0976528    1269.0701  0.061095231  0.061300489            4 
 1732000   0.98315091   -4.1141499    1266.6977  0.060945811  0.061288518            3 
 1733000   0.95173742    -4.105249    1270.8438  0.061110012  0.061276635            2 
 1734000   0.98694102   -4.0970516    1269.4972  0.061010055  0.061264782            3 
 1735000   0.98793776   -4.1088795    1266.4544   0.06082874  0.061252757            2 
 1736000   0.98067564   -4.1153485    1272.7378  0.061095324  0.061241021            3 
 1737000   0.96674459    -4.102853    1267.7294  0.060819873  0.061229086            5 
 1738000   0.98722447   -4.0975628    1272.3472   0.06100629  0.061217343            1 
 1739000   0.95546771   -4.1117794    1273.4528  0.061024191  0.061205662            4 
 1740000   0.97325516   -4.0836127    1277.7035  0.061192698   0.06119415            4 
 1741000   0.95053049   -4.1123887    1278.2688  0.061184606  0.061182588            3 
 1742000   0.96555142   -4.1245645    1276.6696  0.061072982  0.061171098            3 
 1743000   0.98838251   -4.0988961    1275.9254  0.061002362  0.061159487            2 
 1744000   0.99745966   -4.1419361    1272.8267  0.060819317  0.061147806            2 
 1745000   0.99363714   -4.0986709    1276.1473   0.06094304  0.061136182            3 
 1746000     0.962361    -4.090482     1274.603  0.060834432  0.061124542            3 
 1747000    1.0013736   -4.1125543    1276.8561  0.060907085  0.061112923            2 
 1748000   0.95086316   -4.1275299    1273.2315  0.060699443  0.061100888            6 
 1749000    0.9960769    -4.123846     1272.774  0.060642938  0.061088888            7 
 1750000   0.96389823   -4.1070474     1280.321  0.060967669  0.061076991            4 
 1751000   0.97869514   -4.0971444    1275.4116  0.060699199  0.061065002            6 
 1752000   0.95778332   -4.1078307    1274.7181  0.060631571  0.061053159            3 
 1753000   0.97963408   -4.1144114    1279.2008  0.060810079  0.061040967            3 
 1754000   0.97556438   -4.1164129    1277.7565  0.060706788  0.061028886            5 
 1755000   0.95670115   -4.1304867    1276.0649  0.060591875  0.061016886            4 
 1756000   0.95130757   -4.1071728    1273.0978  0.060416561  0.061004737            3 
 1757000   0.98600207   -4.1030846    1279.5402  0.060687737   0.06099244            2 
 1758000   0.96959301   -4.1046126      1276.79  0.060522846  0.060980465            2 
 1759000   0.97269877    -4.124846    1282.9996  0.060782623  0.060968523            2 
 1760000    0.9803035   -4.0818783     1286.862  0.060930967    0.0609565            3 
 1761000   0.98686344   -4.1259843    1277.1336  0.060436002   0.06094444            4 
 1762000   0.97053154    -4.091634    1285.4994  0.060797361  0.060932467            5 
 1763000   0.98034664   -4.1379719    1283.0356  0.060646415  0.060920188            3 
 1764000   0.96736412   -4.1097035    1280.0721  0.060472038  0.060907793            3 
 1765000   0.99215231   -4.1316646    1282.5125  0.060552997  0.060895595            3 
 1766000    0.9750781   -4.0842087    1284.3615   0.06060596  0.060883453            3 
 1767000   0.97993732    -4.082991    1285.1568  0.060609166  0.060871184            3 
 1768000   0.99917627   -4.1031787    1285.9068  0.060610239  0.060858933            4 
 1769000   0.95815392   -4.1514349    1282.9202  0.060435283  0.060846825            3 
 1770000    0.9631496   -4.0919461    1282.8272  0.060396759  0.060834534            6 
 1771000   0.98413858   -4.0840998    1278.6895   0.06016796  0.060822018            2 
 1772000   0.97514064   -4.1093712    1286.3941  0.060496338  0.060809479            3 
 1773000   0.97254356   -4.1073562    1283.2485   0.06031437  0.060796906            4 
 1774000   0.97874548   -4.1033917    1286.6699  0.060441088  0.060784102            4 
 1775000   0.96721767   -4.0999967    1290.0512  0.060565786  0.060771661            2 
 1776000   0.95367673   -4.1099073    1281.3251  0.060122238   0.06075954            6 
 1777000   0.98494977   -4.1260121    1283.8384  0.060206266  0.060746853            2 
 1778000   0.99764053   -4.1219517    1281.3824  0.060057291   0.06073415            2 
 1779000   0.96796375   -4.0971741    1286.8063  0.060277603  0.060721402            2 
 1780000   0.98331371   -4.1081191    1282.8796  0.060059908  0.060708734            2 
 1781000   0.94614665    -4.106665    1285.7369  0.060159879   0.06069596            4 
 1782000   0.97566297   -4.1349432    1291.0011  0.060372292  0.060683355            6 
 1783000    0.9641257   -4.0891955    1289.8053  0.060282542  0.060670493            2 
 1784000    0.9626627   -4.1210837    1288.4406  0.060185004  0.060658052            5 
 1785000   0.98562096   -4.1055211    1290.8303  0.060262851   0.06064529            1 
 1786000   0.95861795   -4.1052868    1288.1028  0.060101846  0.060632711            6 
 1787000    0.9357899   -4.1222311    1290.2324  0.060167523  0.060620037            4 
 1788000   0.98605199   -4.1472678    1287.4582  0.060004578  0.060607062            2 
 1789000   0.96435783   -4.1261268      1294.18  0.060284145  0.060594125            3 
 1790000   0.97160252   -4.1397203    1289.1664  0.060017057  0.060581478            4 
 1791000    0.9715753   -4.1396088    1289.6325  0.060005232  0.060568662            3 
 1792000   0.97476392   -4.0924281    1293.2469   0.06013983  0.060556209            1 
 1793000   0.93354108   -4.1111139    1295.0391  0.060189587  0.060543466            3 
 1794000   0.95531634    -4.144828    1293.6701  0.060092443  0.060530768            4 
 1795000   0.96120542   -4.0976495    1297.9833  0.060259208  0.060518207            2 
 1796000   0.97387586   -4.1153555     1294.298  0.060054658  0.060505317            2 
 1797000   0.95390634   -4.1392254    1292.3415  0.059930507  0.060492641            2 
 1798000   0.95843179     -4.11871    1292.9108  0.059923564  0.060479734            3 
 1799000   0.95423928   -4.1431083    1293.0554  0.059896954  0.060466987            3 
 1800000   0.94953392   -4.1398662    1289.9963  0.059722051  0.060453885            5 
 1801000   0.95251572   -4.1387711     1294.458  0.059895335  0.060440665            2 
 1802000   0.99457101   -4.1223607    1289.3667  0.059626652   0.06042735            4 
 1803000   0.96064166   -4.1203854    1295.3728  0.059871175  0.060414374            8 
 1804000   0.95508446   -4.1115424    1298.8092  0.059996728  0.060401484            6 
 1805000   0.96010167   -4.1184929    1296.6008  0.059861533  0.060388721            4 
 1806000   0.97739335   -4.1278158    1294.1652  0.059716003  0.060376012            3 
 1807000   0.98305333   -4.1182035    1300.6867  0.059983706  0.060363278            3 
 1808000   0.95424875   -4.1185693    1301.4801    0.0599871  0.060350641            6 
 1809000    0.9798719   -4.1250453    1300.0891   0.05988986  0.060338027            2 
 1810000   0.95353757   -4.1383471    1300.7464  0.059887036  0.060325694            3 
 1811000   0.96429869   -4.1187432    1303.7074  0.059990215  0.060313068            2 
 1812000   0.96947179   -4.1337627    1302.5921  0.059905819   0.06030025            3 
 1813000   0.95189474    -4.144679    1300.7757  0.059789285  0.060287619            4 
 1814000   0.97007376   -4.0969535    1303.8216  0.059896253  0.060275252            1 
 1815000   0.95442459    -4.098196    1307.6869  0.060040723  0.060262829            7 
 1816000   0.95673238   -4.1117617    1305.1384  0.059890714  0.060250533            2 
 1817000   0.96547119   -4.1419471    1305.4978  0.059874235  0.060237997            5 
 1818000   0.96602701   -4.1267018    1304.7789  0.059808348  0.060225543            3 
 1819000   0.95993929   -4.1387799    1301.1566  0.059609521  0.060213128            3 
 1820000   0.95727494   -4.1243727    1305.2227  0.059762945  0.060200738            3 
 1821000   0.93654888   -4.1128735    1303.0181  0.059629238  0.060188287            2 
 1822000    0.9474551   -4.1330143    1307.1862  0.059787148  0.060175834            4 
 1823000    0.9653706   -4.1252592    1307.0911  0.059750005  0.060163286            4 
 1824000   0.97940576   -4.1319176    1310.9451  0.059893323  0.060151271            3 
 1825000   0.97287681    -4.137528     1308.359  0.059742421  0.060139163            7 
 1826000   0.97761879   -4.1642496    1310.6568  0.059814568  0.060127123            2 
 1827000   0.96440954   -4.1324307    1309.1199  0.059711726  0.060115022            3 
 1828000   0.94356455   -4.1145907     1311.438  0.059784739   0.06010301            4 
 1829000   0.95916551   -4.1104279    1312.2278  0.059788036  0.060090971            2 
 1830000   0.97410402   -4.1457673    1313.3786  0.059807767  0.060078842            5 
 1831000   0.94493447   -4.1307154    1311.6804  0.059697814   0.06006684            3 
 1832000   0.98169054   -4.1365077    1315.8245  0.059853736  0.060054815            5 
 1833000   0.97262488   -4.1286247    1315.6977  0.059815318  0.060042934            7 
 1834000   0.96368066   -4.1387107     1313.121  0.059665621  0.060030967            6 
 1835000   0.94102994   -4.1217329    1317.3593  0.059825583  0.060018937            2 
 1836000   0.95789575   -4.1387018    1313.2551  0.059606715  0.060006882            6 
 1837000   0.95841913   -4.1097977    1314.3338  0.059623199  0.059994629            3 
 1838000   0.95872386   -4.1331393    1315.3748  0.059637958  0.059982384            6 
 1839000   0.96688161   -4.1509511     1314.802  0.059579572  0.059970111            2 
 1840000    0.9381934   -4.1242925    1314.5156   0.05953422  0.059957727            3 
 1841000    0.9523216   -4.1320007    1318.2681  0.059671743   0.05994547            4 
 1842000   0.96964371   -4.1358567    1311.9127  0.059351822  0.059933026            3 
 1843000   0.94405976   -4.1341892    1316.4371  0.059524193  0.059920934            3 
 1844000   0.95864628   -4.1547818    1316.7287  0.059505095  0.059908742           11 
 1845000   0.96298923   -4.1568004    1319.3865  0.059592887  0.059896683            8 
 1846000   0.96798451   -4.1544239    1316.3528  0.059423653  0.059884384            1 
 1847000    0.9650308   -4.1225617    1316.4264  0.059394803  0.059872029            2 
 1848000   0.95898807   -4.1199978     1327.944  0.059882035  0.059859761            8 
 1849000    0.9619428   -4.1190019    1323.3505  0.059642623  0.059847711            3 
 1850000   0.94352665   -4.1341148    1315.9659  0.059277744  0.059835508            3 
 1851000   0.94232501    -4.142417     1321.752  0.059506212  0.059823406            3 
 1852000   0.94792728    -4.143971     1317.277  0.059272721  0.059811067            2 
 1853000   0.95727404   -4.1328482    1325.2444  0.059599045  0.059798891            3 
 1854000    0.9480726   -4.0962332    1326.9508  0.059643599   0.05978688            4 
 1855000   0.94547436   -4.1283657    1323.6107  0.059461397  0.059774657            3 
 1856000   0.97253519   -4.1361728    1323.1302  0.059407786  0.059762149            3 
 1857000   0.96266351   -4.1416901    1319.4904  0.059212459  0.059749761            5 
 1858000   0.95242469   -4.1049494    1324.9786  0.059426741  0.059737346            6 
 1859000   0.96630034   -4.1544125    1320.2863  0.059184431  0.059725131            3 
 1860000    0.9328001   -4.1467626    1325.4559  0.059384227  0.059712774            2 
 1861000   0.97198632   -4.1312912    1326.5125  0.059399627  0.059700318            6 
 1862000   0.96894177   -4.1457675    1321.3353  0.059136023  0.059687719            2 
 1863000   0.94065967   -4.1163973    1330.0119   0.05949239  0.059675331            3 
 1864000   0.95952332    -4.145173    1325.4355  0.059255878  0.059662967            5 
 1865000   0.95509271   -4.1139394    1327.2275  0.059304176  0.059650555            3 
 1866000   0.94213847   -4.1016624    1327.2611  0.059273896  0.059638248            2 
 1867000   0.94129695   -4.1212599    1331.9568   0.05945174  0.059625892            7 
 1868000   0.95096919   -4.1395216    1330.5969  0.059359247  0.059613657            3 
 1869000   0.95627752   -4.1324188    1333.5916  0.059461015  0.059601373            7 
 1870000   0.95596531   -4.1082483    1330.8722  0.059308028  0.059589227            4 
 1871000   0.95422223   -4.1540663    1334.0801  0.059419211  0.059577292            4 
 1872000    0.9467763   -4.1020253    1336.8344  0.059510078  0.059565285            3 
 1873000    0.9455326   -4.1145975    1336.3749  0.059457861   0.05955301            5 
 1874000   0.95180718   -4.1622656    1334.1756  0.059328333  0.059540845            4 
 1875000   0.97158834   -4.1443255     1335.513  0.059356133  0.059528973            6 
 1876000   0.95543644   -4.1357748    1331.4484  0.059143941  0.059516776            4 
 1877000   0.94633524   -4.1152519    1336.0565  0.059317017  0.059504756            2 
 1878000   0.95013422   -4.1499123    1337.2304  0.059337521  0.059492604            5 
 1879000     0.941267   -4.1517469    1335.3837   0.05922404  0.059480454            3 
 1880000   0.94332324   -4.1413404    1338.1669  0.059315908  0.059468175            6 
 1881000   0.95626117    -4.134914    1330.7792  0.058957079  0.059456204            3 
 1882000   0.94717808   -4.1758012    1333.7449  0.059057072  0.059444165            5 
 1883000   0.94646237   -4.1870882    1333.0009  0.058992782  0.059431939            2 
 1884000   0.96118215   -4.1302002     1338.885  0.059221738  0.059419866            3 
 1885000   0.93640136   -4.1584932    1333.6618  0.058959408  0.059407603            4 
 1886000   0.93771249   -4.1431739    1337.6471  0.059104239  0.059395487            4 
 1887000   0.95640339   -4.1274164    1339.2097  0.059141922  0.059383111            2 
 1888000   0.95665048   -4.1329411    1339.1179  0.059106544  0.059370872            2 
 1889000   0.94367954   -4.1450093    1341.2976  0.059171413  0.059358781            5 
 1890000   0.95570657   -4.1552461    1337.2467  0.058961495  0.059346746            6 
 1891000   0.94882689   -4.1442414    1341.5273  0.059118956  0.059334681            3 
 1892000   0.93797717   -4.1307241    1343.4825  0.059173823  0.059322899            3 
 1893000   0.95465113   -4.1306528    1341.9496  0.059075082  0.059310916            2 
 1894000   0.94832856   -4.1573894    1338.9746  0.058912999  0.059298665            6 
 1895000   0.94837805   -4.1223305     1340.165  0.058934255  0.059286538            5 
 1896000    0.9431372    -4.159089    1339.6739   0.05888159  0.059274284            2 
 1897000   0.95001095   -4.1874181    1337.9801   0.05877614  0.059262129            6 
 1898000   0.96382284   -4.1041298    1344.8273  0.059045806   0.05924976           13 
 1899000   0.94167743    -4.145348    1342.6414   0.05891879  0.059237561           10 
 1900000   0.93966894   -4.1440243    1342.8762  0.058898077  0.059225488            1 
 1901000    0.9529719   -4.1595402     1341.467  0.058805321   0.05921342            9 
 1902000   0.92754369   -4.1280761    1347.5317  0.059040121  0.059201464            3 
 1903000   0.93631781    -4.104007    1348.1429  0.059035859  0.059189521            5 
 1904000   0.97718245   -4.1353961    1345.2302  0.058877373  0.059177512            3 
 1905000   0.95278357   -4.1333108    1347.1684   0.05893125  0.059165634            5 
 1906000    0.9275823   -4.1380788    1342.8321   0.05871074  0.059153495            4 
 1907000   0.96049833   -4.1461263     1346.276   0.05883045  0.059141505            3 
 1908000   0.96533705   -4.1321653    1348.7364  0.058907075  0.059129648            2 
 1909000   0.96641082   -4.1705088    1344.6766  0.058698997  0.059117409            2 
 1910000   0.93862696   -4.1819589      1344.18  0.058646598  0.059105485            4 
 1911000   0.94387453   -4.1364625    1351.2492  0.058924174  0.059093436            4 
 1912000   0.95240451   -4.1642115    1347.0524  0.058710444  0.059081308            2 
 1913000   0.96064584    -4.158224    1350.9702  0.058850419  0.059069048            8 
 1914000   0.95247908   -4.1624631    1350.4992  0.058799162  0.059057077            5 
 1915000    0.9503156   -4.1409468    1348.5825  0.058685053  0.059045176            4 
 1916000   0.94154526   -4.1658659    1353.6804  0.058876149   0.05903321            5 
 1917000   0.92958739   -4.1603059    1347.9984  0.058598434   0.05902134            4 
 1918000   0.93199691   -4.1740398    1347.6368  0.058552171  0.059009301            4 
 1919000   0.93627067   -4.1545239    1354.0735  0.058801176  0.058997457            2 
 1920000   0.92985208   -4.1542098    1352.7295  0.058712219  0.058985774            5 
 1921000   0.95723723   -4.1603154    1355.0941  0.058784232  0.058974112            4 
 1922000   0.95568985   -4.1374426    1352.6964  0.058649689  0.058962423            2 
 1923000   0.94317278   -4.1286754    1357.0677  0.058808621  0.058950608            1 
 1924000   0.95738722   -4.1523191    1355.3004  0.058701508  0.058938714            4 
 1925000    0.9458185   -4.1706898    1354.3237  0.058628731  0.058926816            3 
 1926000   0.94654823   -4.1735561    1355.7073  0.058658156  0.058914894            5 
 1927000    0.9604754    -4.179942     1359.463   0.05879013  0.058902974            4 
 1928000    0.9330339   -4.1442058    1361.8285   0.05886188  0.058891082            4 
 1929000   0.93746968   -4.1479869    1360.9963  0.058795418  0.058879107            4 
 1930000   0.93439694   -4.1630597    1358.9776  0.058677788  0.058867189            6 
 1931000   0.95468801   -4.1744386     1357.768  0.058595203  0.058855121            6 
 1932000   0.92855723   -4.1560337    1360.1136  0.058666048  0.058843173            3 
 1933000   0.95669776   -4.1766753    1360.8597  0.058667861  0.058831351            5 
 1934000   0.95959046    -4.184066    1357.9092  0.058510394  0.058819495            4 
 1935000   0.93527555   -4.1443995    1364.1155  0.058747438  0.058807977            3 
 1936000   0.93986511   -4.1399625    1364.3095  0.058725442  0.058796409            4 
 1937000   0.95127267   -4.1635405    1361.8542  0.058589494  0.058784675            3 
 1938000   0.93989823   -4.1468782    1362.2776   0.05857747  0.058773018            3 
 1939000   0.93241369   -4.1814157    1364.2251  0.058630955  0.058761339            3 
 1940000    0.9457998   -4.1643135    1363.4667  0.058568158  0.058749528            3 
 1941000   0.94650783   -4.1454804    1363.8293  0.058553553  0.058737796            3 
 1942000   0.94596556   -4.1556617    1362.7605  0.058477535    0.0587261            4 
 1943000   0.92318352   -4.1705977    1363.9475  0.058498347   0.05871438            3 
 1944000   0.94564869   -4.1443514    1367.3366  0.058613535  0.058702411            5 
 1945000   0.93434581   -4.1624802    1361.5355  0.058334853  0.058690428            3 
 1946000   0.93549902   -4.1535077    1361.4098  0.058299495  0.058678405            6 
 1947000   0.94209025   -4.1597192    1369.3866  0.058610966  0.058666637            4 
 1948000   0.92695362   -4.1747965     1365.822  0.058428388  0.058654832            4 
 1949000   0.93947682   -4.1778852    1366.9681  0.058447414  0.058642945            2 
 1950000   0.94337662     -4.16162    1365.5891  0.058358508  0.058631287            3 
 1951000   0.94905007   -4.1390275    1366.8159  0.058380998  0.058619737            2 
 1952000   0.91407933   -4.1593717    1370.4462   0.05850607  0.058608075            2 
 1953000    0.9582298   -4.1796285    1368.7238  0.058402618  0.058596504            3 
 1954000   0.93289418   -4.1705354    1367.3906  0.058315873  0.058584726            4 
 1955000    0.9502048   -4.1706931    1373.4745  0.058545377  0.058572964            3 
 1956000   0.94689953   -4.1604245     1364.376   0.05812781   0.05856145            3 
 1957000   0.95228393   -4.1537893    1371.4856  0.058400853  0.058549539            3 
 1958000   0.95328136   -4.1651217     1368.691  0.058252083   0.05853759            3 
 1959000   0.93345125   -4.1812371    1371.5951  0.058345885  0.058525725            2 
 1960000   0.96339273   -4.1777457    1373.3931  0.058392565  0.058513973            2 
 1961000    0.9447698   -4.1312778    1374.1588  0.058395325  0.058502379            3 
 1962000   0.93152582   -4.1815179     1370.639  0.058216062  0.058490682            2 
 1963000   0.95044175   -4.1708236    1375.1197   0.05837662  0.058478956            3 
 1964000   0.94797473   -4.1736214    1369.9103   0.05812586  0.058467357            2 
 1965000   0.96199805   -4.1551923    1380.6527  0.058551852  0.058455898            5 
 1966000   0.94650097   -4.1441406    1377.6126  0.058393209  0.058444386            1 
 1967000   0.93638444   -4.1833658    1379.7681  0.058454843  0.058433038            2 
 1968000   0.94234624   -4.1727057    1381.4489   0.05849631  0.058421737            2 
 1969000   0.96492502   -4.1756151    1376.7958  0.058269671  0.058410671            4 
 1970000   0.92509722   -4.1622703    1375.3872  0.058180509  0.058399485            7 
 1971000   0.95912337   -4.1979014    1373.3907  0.058066576  0.058388017           10 
 1972000   0.93345687   -4.1686893    1382.3689  0.058416534   0.05837653            4 
 1973000   0.94905357   -4.1564712     1379.965  0.058285394  0.058365007            2 
 1974000   0.91274532   -4.1694244    1379.1553  0.058221684  0.058353701            3 
 1975000   0.94861312   -4.1644472    1381.1926  0.058278168  0.058342463            7 
 1976000   0.93908636   -4.1829523    1382.6343  0.058309476  0.058331073            5 
 1977000   0.91565649   -4.1599308    1380.1412  0.058174895  0.058319601            5 
 1978000   0.94658569   -4.1673012    1378.9264  0.058094306  0.058308004            6 
 1979000   0.93940837   -4.1812049     1378.969  0.058066742  0.058296523            5 
 1980000    0.9192538   -4.1895672    1381.7863  0.058155987  0.058284689            2 
 1981000   0.95353958    -4.179176    1376.5941  0.057908218  0.058272849            3 
 1982000   0.95629166   -4.1527637    1379.9276  0.058019157  0.058261212            2 
 1983000   0.91230253   -4.1765939     1385.676  0.058231468  0.058249809            2 
 1984000    0.9451802   -4.1744538    1385.1585  0.058180381  0.058238405           10 
 1985000   0.91958603   -4.1578517    1382.0289  0.058019686  0.058226763            6 
 1986000   0.93225142   -4.1718756    1385.0502  0.058117244    0.0582152            4 
 1987000   0.93355367    -4.170756    1386.6687  0.058155877  0.058203261            2 
 1988000    0.9299485   -4.1816338    1382.5143  0.057952477  0.058191781            2 
 1989000   0.93654228   -4.1680457    1385.4794  0.058047571  0.058180179            6 
 1990000   0.93757296   -4.1419245    1390.0222  0.058208636   0.05816868            2 
 1991000   0.92465235   -4.2055852    1384.0417  0.057929084  0.058157314            3 
 1992000    0.9350891   -4.1586031    1386.9294  0.058020809  0.058145695            7 
 1993000   0.90372076   -4.1799013    1388.3377   0.05805058  0.058134153            6 
 1994000   0.93230533   -4.1664337    1395.7428  0.058330943  0.058122764            3 
 1995000   0.92791885   -4.1932628     1386.647  0.057921761   0.05811144            3 
 1996000   0.92046329   -4.1748001    1388.3134  0.057962315  0.058100102            3 
 1997000   0.92117476   -4.1988111    1386.9309  0.057875599  0.058088489            4 
 1998000    0.9447853   -4.1637052    1396.1035  0.058229207  0.058077219            3 
 1999000   0.92252165   -4.1807378    1392.1696  0.058036085  0.058066162            3 
 2000000   0.94345969    -4.165557    1395.5556  0.058148149  0.058054926            2 
 2001000   0.92912411   -4.1550886    1398.2807   0.05823258  0.058043853            4 
 2002000    0.9316033   -4.1584606    1396.1945  0.058116653   0.05803285            2 
 2003000   0.93330496   -4.1780386     1395.437  0.058056126  0.058021862            3 
 2004000   0.93541976   -4.1611395    1397.7304  0.058122522  0.058010716            3 
 2005000   0.92823515   -4.1776486    1393.7877  0.057929663  0.057999376            4 
 2006000   0.92453153   -4.1435837    1394.3321  0.057923401  0.057988031            7 
 2007000   0.93929708   -4.1817389    1389.4435   0.05769156   0.05797672            4 
 2008000   0.93772749   -4.1886347    1400.2865  0.058112821  0.057965253            5 
 2009000   0.92420063   -4.1513504    1398.2508  0.057999452  0.057953713            5 
 2010000   0.93748547   -4.1616439       1401.2   0.05809287  0.057942444            6 
 2011000   0.93601293   -4.1596029    1392.9877  0.057723672  0.057931248            1 
 2012000   0.93391833   -4.1751509    1396.9096  0.057857423   0.05792012            9 
 2013000   0.94284194   -4.1708637    1399.0533  0.057917423  0.057908901            4 
 2014000   0.90658007   -4.1620506    1398.6088  0.057870273  0.057897693            2 
 2015000   0.92642829   -4.1763825    1397.5337  0.057797093   0.05788611            3 
 2016000    0.9265947    -4.199822    1393.4385  0.057599145  0.057874827            4 
 2017000   0.93481881   -4.1791292    1397.4738  0.057737306  0.057863341            8 
 2018000   0.94368536   -4.1767003    1397.1327  0.057694609  0.057851968            2 
 2019000   0.92932535   -4.1595572    1401.7481  0.057856533  0.057840566            3 
 2020000   0.91799947   -4.1684279     1403.221  0.057888656  0.057829132            4 
 2021000   0.92982801   -4.1820838    1398.2221  0.057653889  0.057817543            2 
 2022000   0.91933695     -4.19015    1394.6035   0.05747624  0.057805789            2 
 2023000   0.92986619   -4.1456157    1404.2734   0.05784616  0.057794162            3 
 2024000   0.92418646   -4.1486817    1393.8329  0.057387718  0.057782653            3 
 2025000   0.93193312   -4.1960672    1400.3858  0.057629045  0.057770956            2 
 2026000    0.9216576   -4.1898934    1402.9505   0.05770609  0.057759134            7 
 2027000   0.91385594    -4.194937    1400.5351   0.05757832  0.057747514            3 
 2028000   0.92366185   -4.1468418    1405.8144  0.057766866  0.057735963            2 
 2029000   0.91785338   -4.1737797    1406.7526  0.057776927   0.05772455            4 
 2030000   0.92494439   -4.1872969    1402.8403  0.057587863  0.057712901            3 
 2031000   0.92447972   -4.1471588    1403.3558  0.057580659   0.05770118            5 
 2032000   0.91406497   -4.1985219    1405.5305  0.057641505  0.057689583            4 
 2033000   0.94052606   -4.1973689    1405.4468  0.057609722  0.057677968            5 
 2034000   0.93538238   -4.1523377    1406.1798  0.057611429  0.057666432            2 
 2035000   0.92820469   -4.1924176    1400.6064  0.057354891  0.057654966            3 
 2036000   0.92150202   -4.1705133    1405.7704  0.057538082  0.057643064            7 
 2037000   0.93490716   -4.1877641    1401.8977  0.057351405  0.057631308            4 
 2038000   0.92856763   -4.1801051    1406.4761   0.05751047  0.057619767            4 
 2039000   0.93863898   -4.1577833    1411.2693  0.057678165  0.057608221            4 
 2040000   0.93617994   -4.1835847    1408.9247  0.057554112  0.057596686            2 
 2041000   0.93342514   -4.1635434    1412.1163  0.057656226  0.057585132            5 
 2042000   0.92267668    -4.192258    1405.8075   0.05737053  0.057573263            4 
 2043000   0.93802439   -4.1671333    1406.1551   0.05735663  0.057561297            6 
 2044000   0.88940191   -4.1985394    1408.7611  0.057434813  0.057549414            4 
 2045000   0.91802163   -4.2079822      1407.66   0.05736186  0.057537597            5 
 2046000   0.92395716   -4.1845308    1408.7095  0.057376568  0.057525653            4 
 2047000   0.91335516   -4.1944748    1408.4675  0.057338686  0.057514001            4 
 2048000   0.90655314   -4.1752992    1410.4006  0.057389348  0.057502263            4 
 2049000   0.90135878   -4.2029672    1403.7488  0.057090808  0.057490656            6 
 2050000   0.89558655   -4.2069444    1406.5599  0.057177233  0.057478717            4 
 2051000   0.91515534   -4.2168986    1407.1684  0.057174078  0.057466758            4 
 2052000   0.90423848   -4.2078809    1410.1489  0.057267255  0.057454782           11 
 2053000   0.93135364   -4.1768583    1410.6423  0.057259389  0.057442922            3 
 2054000   0.92244296   -4.1674456    1410.9523  0.057244088  0.057431245            2 
 2055000   0.92633127   -4.1818113    1409.5319  0.057158634  0.057419486            3 
 2056000   0.92043772   -4.1819038    1414.6335  0.057337609  0.057407768            2 
 2057000   0.91328104   -4.1726692    1418.2298  0.057455428  0.057396097            6 
 2058000   0.92749996   -4.1730442    1420.0907  0.057502862  0.057384558            7 
 2059000   0.92401611   -4.1806909    1420.1352  0.057476738  0.057373098            3 
 2060000   0.89913508   -4.1519254    1421.0055   0.05748404  0.057361654            3 
 2061000   0.92603834    -4.190917    1416.0717   0.05725666  0.057350144            5 
 2062000   0.93675703   -4.2034944     1413.983  0.057144481  0.057338632            5 
 2063000   0.91622454   -4.1781538    1421.4576  0.057418711  0.057327028            3 
 2064000    0.9085491    -4.189842    1412.9739  0.057048363  0.057315414            3 
 2065000   0.90674485   -4.1706894    1418.0574  0.057225884  0.057303766            6 
 2066000   0.91429716   -4.1749559     1419.479  0.057255525  0.057292279            7 
 2067000   0.93090416    -4.156384    1419.0715  0.057211398  0.057280687            2 
 2068000   0.92846883   -4.1651341    1416.0143  0.057060539   0.05726917            6 
 2069000   0.92190043   -4.2006149    1417.6031   0.05709695  0.057257584            3 
 2070000   0.92161081   -4.1958325    1419.4455  0.057143538  0.057246035            3 
 2071000   0.92858893   -4.2023059    1417.3751  0.057032635  0.057234206            3 
 2072000   0.90410197   -4.1534373    1422.2091   0.05719953  0.057222573            3 
 2073000   0.93859058   -4.1855582    1421.6461  0.057149305  0.057210983            4 
 2074000   0.91388649   -4.2000047    1419.6896  0.057043138  0.057199548            4 
 2075000   0.91001458   -4.1950595    1423.1935  0.057156364  0.057187872            4 
 2076000   0.93439441   -4.1884063    1424.2787  0.057172396  0.057176509            5 
 2077000   0.91477354    -4.175728    1425.1233  0.057178757  0.057164937            7 
 2078000   0.92526272   -4.2018999    1424.4392  0.057123805  0.057153335            6 
 2079000   0.92159535   -4.1908788    1425.1255  0.057123839  0.057141767            4 
 2080000   0.93453201    -4.205026    1425.2545  0.057101544  0.057130377            6 
 2081000   0.91121188    -4.206052    1421.3303  0.056916957  0.057119063            2 
 2082000   0.92645917   -4.2114406    1424.6206  0.057021319   0.05710761            4 
 2083000   0.90445401   -4.2257487    1425.4771   0.05702821  0.057096219            5 
 2084000   0.90685619   -4.1952281    1425.8676   0.05701646  0.057084618            3 
 2085000   0.90394716   -4.1748909    1427.6889  0.057061906  0.057073253            5 
 2086000   0.93388013   -4.1713911     1423.763  0.056877716  0.057061963            4 
 2087000   0.92212196    -4.181845     1425.167  0.056906526  0.057050568            2 
 2088000    0.9124389   -4.1944105    1427.8771  0.056987432  0.057038953            3 
 2089000   0.91892842   -4.1910991    1431.2935  0.057096438  0.057027357            4 
 2090000   0.91756656   -4.2133163    1427.9393  0.056935377  0.057015861            2 
 2091000   0.92686599    -4.233131    1432.0157  0.057070607  0.057004477            3 
 2092000   0.89786308   -4.2054054    1426.6484  0.056829525  0.056992942            3 
 2093000   0.92368759   -4.2131312    1434.4536   0.05711314  0.056981563            4 
 2094000   0.92749462   -4.1875149    1434.1761   0.05707482  0.056970052            2 
 2095000   0.89229273   -4.2427763    1424.7449  0.056672432  0.056958601            4 
 2096000   0.90755317   -4.2250998    1435.0228  0.057054023   0.05694733            5 
 2097000   0.92260312   -4.1949745     1434.087  0.056989626  0.056936134            5 
 2098000   0.93545392   -4.1945878    1434.1874  0.056966452   0.05692494            6 
 2099000   0.93408836    -4.212765    1431.9078   0.05684881  0.056913763            2 
 2100000   0.92964102   -4.1911905     1435.904  0.056980316  0.056902809            3 
 2101000   0.91280429   -4.1963803    1437.0048  0.056996857  0.056891708            5 
 2102000   0.92337911   -4.2068782    1436.4925  0.056949432  0.056880469            2 
 2103000   0.91856789   -4.2151136    1432.3616  0.056758663  0.056869335            8 
 2104000   0.90073396   -4.1983807    1433.7641  0.056787235  0.056858095            4 
 2105000   0.90389478   -4.1923368    1439.3377  0.056980905  0.056846782            5 
 2106000   0.92112822    -4.192599    1437.6586  0.056887408  0.056835649            8 
 2107000   0.90750336   -4.2215729    1432.6611  0.056662753  0.056824415            3 
 2108000   0.90275867   -4.2049565    1438.3787  0.056861904  0.056813044            2 
 2109000   0.91473165   -4.2180722    1434.5829  0.056684956  0.056801734            3 
 2110000    0.9126828   -4.2269656    1435.6723  0.056701116  0.056790296            3 
 2111000   0.92449614   -4.1918767    1435.9084  0.056683577  0.056778636            2 
 2112000   0.90666132   -4.2171854    1437.5269  0.056720599  0.056767156            2 
 2113000   0.89103988   -4.2210437     1439.416   0.05676826  0.056755585            3 
 2114000   0.90534318   -4.2063673    1434.8181  0.056560159   0.05674384            6 
 2115000    0.9008179   -4.2320659    1433.2825  0.056472912  0.056732414            5 
 2116000   0.90030762   -4.1767626    1441.9087  0.056785943  0.056720983            2 
 2117000   0.91973813   -4.2125269    1442.0629  0.056765189   0.05670952            7 
 2118000    0.9156863   -4.1943968    1440.8186  0.056689431  0.056697925            2 
 2119000    0.9081291   -4.2351662    1440.8169  0.056662614  0.056686347            3 
 2120000   0.91467481   -4.2095838    1439.7456  0.056593775  0.056674769            2 
 2121000   0.93797034   -4.1963891    1439.9016   0.05657322  0.056663418            4 
 2122000   0.90817691   -4.1689233     1443.431  0.056685163  0.056652135            4 
 2123000   0.89677165   -4.2241201    1442.4576  0.056620253  0.056640803            2 
 2124000   0.91598142   -4.2153507    1445.1221  0.056698138  0.056629443            2 
 2125000   0.90420076   -4.1944651    1441.0979  0.056513641  0.056617981            8 
 2126000   0.92181178   -4.2472551    1447.1123   0.05672281  0.056606519            2 
 2127000   0.91545432   -4.1982924    1450.8857  0.056843977  0.056595394            4 
 2128000   0.91087313   -4.2148121    1448.0866  0.056707652  0.056584179            2 
 2129000   0.91186241   -4.2195663    1443.9752  0.056520088  0.056572933            3 
 2130000    0.9165083   -4.2247727    1447.2169  0.056620378  0.056561912            6 
 2131000   0.90773406   -4.2121522    1444.5074  0.056487855  0.056550788            4 
 2132000   0.88999045    -4.214814    1452.3839  0.056769226  0.056539697            3 
 2133000   0.92833508   -4.2063729    1451.6277  0.056713069  0.056528561            5 
 2134000   0.91976971   -4.2225116    1452.3002  0.056712754  0.056517511            6 
 2135000   0.92651787   -4.2205334    1453.1611  0.056719793   0.05650648            4 
 2136000   0.92759866   -4.2154538    1447.1281   0.05645787  0.056495562            4 
 2137000    0.8939366   -4.1783574    1452.2373  0.056630687   0.05648446            4 
 2138000   0.90546988   -4.2110279    1454.9157  0.056708595  0.056473425            6 
 2139000   0.91284485   -4.1942392    1450.2912  0.056501916  0.056462407            3 
 2140000   0.89928309   -4.2227816     1449.947   0.05646211  0.056451233            3 
 2141000   0.89914102   -4.2343562    1451.9257  0.056512756  0.056440235            3 
 2142000   0.88099404   -4.1967314    1455.2114  0.056614198  0.056429069            3 
 2143000   0.90139844   -4.2086587    1451.7929  0.056454849  0.056418142            1 
 2144000   0.90737477   -4.2313433    1458.8928  0.056704477    0.0564071            4 
 2145000   0.90253101   -4.2224497    1455.3787  0.056541521  0.056396068            8 
 2146000   0.89572874   -4.2193668    1454.1177  0.056466203  0.056385141            2 
 2147000   0.90609131   -4.2227474    1453.1872   0.05640379  0.056374101            3 
 2148000   0.90758212   -4.2379512    1447.0156  0.056138099  0.056363039            2 
 2149000   0.89901515   -4.1996548    1453.9656  0.056381478  0.056351996            2 
 2150000   0.91864514   -4.2254685    1452.1514  0.056284937  0.056340942            2 
 2151000   0.92332653   -4.1969444    1458.6563  0.056510783  0.056329869            3 
 2152000   0.90047094   -4.2051033    1454.4645  0.056322199  0.056318737            3 
 2153000    0.9030569   -4.2394454    1452.7203   0.05622853  0.056307639            4 
 2154000   0.91261359   -4.2150126    1461.4358  0.056539607  0.056296271            3 
 2155000   0.90384162   -4.2113293    1456.8093  0.056334468  0.056285359           13 
 2156000   0.90465399   -4.2015755     1460.811  0.056463011  0.056274093            3 
 2157000   0.91137292   -4.2174618     1458.496  0.056347396  0.056262827            3 
 2158000   0.90111204   -4.2411233    1453.8874  0.056143321   0.05625153            4 
 2159000   0.90466225   -4.2251017    1455.5023  0.056179649  0.056240167            4 
 2160000   0.90055719   -4.2016389    1459.8552  0.056321574   0.05622881            2 
 2161000   0.89543684   -4.2141207     1456.112  0.056151164  0.056217491            3 
 2162000   0.90174955    -4.237936    1456.5919  0.056143688  0.056206145            5 
 2163000   0.89299442   -4.2259345     1454.935  0.056053901  0.056194842            3 
 2164000   0.88016394    -4.209771    1464.0638  0.056379538  0.056183538            3 
 2165000    0.8917587   -4.2390805    1455.6992  0.056031532  0.056172187            4 
 2166000   0.90230152   -4.2234677    1458.8603  0.056127282  0.056160843            3 
 2167000   0.88170875   -4.2152462    1456.7182  0.056019004  0.056149538            6 
 2168000   0.89344496    -4.205723    1460.6243   0.05614331  0.056138429            3 
 2169000   0.91109587   -4.2214487    1466.9583  0.056360778  0.056127109            2 
 2170000   0.90534963   -4.2277726    1466.5771  0.056320164  0.056115866            4 
 2171000   0.89214708   -4.2045156    1463.4454  0.056174014  0.056104633            5 
 2172000   0.91252237   -4.2040378     1465.438    0.0562246  0.056093637            4 
 2173000   0.89294725   -4.2338734    1461.6943   0.05605516  0.056082457            3 
 2174000   0.90191436   -4.2228228    1464.0332  0.056119028  0.056071309            6 
 2175000   0.89811222   -4.2144428    1470.9106  0.056356728  0.056060249            7 
 2176000     0.906556   -4.2453001    1463.8735  0.056061333  0.056049239            2 
 2177000   0.89663459   -4.2141303    1466.4368  0.056133699  0.056038067            4 
 2178000   0.89177087   -4.2228179    1470.3493  0.056257626  0.056026963            3 
 2179000   0.92469827   -4.2384022    1462.2201  0.055920914  0.056015886            2 
 2180000   0.89435947   -4.2146207    1463.5734  0.055946996  0.056004566            3 
 2181000   0.87600058   -4.2210463    1467.4678  0.056070145  0.055993421            5 
 2182000   0.91060244   -4.1939462    1472.9326  0.056253153  0.055982543            2 
 2183000   0.90811428   -4.2332912    1462.4135  0.055825834   0.05597163            9 
 2184000   0.89437264   -4.2305657    1469.6718  0.056077221  0.055960538            5 
 2185000   0.89616028   -4.2330625    1467.1163  0.055954091  0.055949551            3 
 2186000   0.90732189   -4.2074773     1471.397  0.056091682  0.055938436            4 
 2187000   0.88351495   -4.2488075    1467.5852  0.055920791  0.055927538            3 
 2188000   0.90037346   -4.2224824    1471.3916  0.056040206  0.055916405            2 
 2189000   0.88641723   -4.2123321    1472.5007  0.056056827  0.055905296            3 
 2190000   0.90354945   -4.2199349    1470.1426  0.055941498   0.05589401            5 
 2191000   0.90942724   -4.2364944    1471.2652  0.055958664  0.055883032            6 
 2192000   0.91327644   -4.2106937    1472.9735  0.055998081  0.055871955            3 
 2193000   0.90454161   -4.2313142    1474.2558  0.056021273  0.055860811            3 
 2194000   0.89941968   -4.2214471    1471.7378  0.055900098  0.055849691            6 
 2195000   0.90075789   -4.2436168    1475.3954  0.056013495  0.055838633            3 
 2196000   0.88356706   -4.2375108    1472.0241  0.055860052  0.055827478            5 
 2197000   0.89638548   -4.2411065    1474.4095  0.055925105  0.055816401            3 
 2198000   0.89205064   -4.2247956    1473.5929  0.055868702  0.055805213            7 
 2199000   0.91198807    -4.247081    1471.1964  0.055752479  0.055794131            3 
 2200000   0.89407105   -4.2232557    1467.9708  0.055604953  0.055782855            3 
 2201000   0.90664825   -4.2393642    1468.7235  0.055608189  0.055771494            1 
 2202000   0.91243266   -4.2438565    1471.7042   0.05569574  0.055760233            3 
 2203000   0.89624379   -4.2049826    1475.1771  0.055801826  0.055748969            2 
 2204000   0.90492305   -4.2436545    1471.4302  0.055634838  0.055737693            3 
 2205000   0.90741036   -4.2306705    1475.0194  0.055745252  0.055726413            3 
 2206000   0.89502695   -4.2131837    1473.3805  0.055658073  0.055714969            5 
 2207000   0.87866767   -4.2378197    1476.0907  0.055735186  0.055703755            4 
 2208000   0.89939562   -4.2483374    1477.8991  0.055778195  0.055692316            7 
 2209000   0.90381508   -4.2536199    1477.9542  0.055755027  0.055681031            3 
 2210000   0.91606971   -4.2574868    1474.3576  0.055594177   0.05566961            3 
 2211000   0.90142681   -4.2669818    1476.2654   0.05564094  0.055658059            7 
 2212000    0.8923736   -4.2446929    1481.3522  0.055807423   0.05564679            7 
 2213000   0.89884805   -4.2510336    1475.3339  0.055555578  0.055635485            3 
 2214000   0.91522917   -4.2441726     1480.204  0.055713792  0.055624276            2 
 2215000   0.89913694    -4.227263    1475.1547  0.055498672  0.055612808            3 
 2216000   0.90009055   -4.2171872    1478.9203  0.055615235  0.055601335            3 
 2217000   0.90444462   -4.2397761    1476.3752  0.055494481  0.055589936            3 
 2218000   0.89026616   -4.2242965    1477.2175  0.055501108  0.055578578            5 
 2219000   0.89798877   -4.2403234    1479.1733  0.055549546  0.055567093            2 
 2220000   0.90483615    -4.259959    1478.6836  0.055506139  0.055555476            5 
 2221000   0.89976549   -4.2379276    1477.9224  0.055452589  0.055543997            2 
 2222000   0.89132982   -4.2411088    1477.6717  0.055418229  0.055532611            4 
 2223000   0.88546118   -4.2328108    1483.8461   0.05562476  0.055521335            3 
 2224000   0.92811155   -4.2343722    1480.2396  0.055464613  0.055509989            5 
 2225000   0.89922668   -4.2451907    1476.8602  0.055313115  0.055498563            2 
 2226000   0.89685052   -4.2357078    1486.5511   0.05565106  0.055487173            5 
 2227000   0.88816656   -4.2511761    1477.9827  0.055305445  0.055475862            2 
 2228000   0.90411736    -4.256723    1480.5477   0.05537656  0.055464568            3 
 2229000   0.88847894     -4.23313    1476.0184  0.055182385  0.055453009            6 
 2230000   0.90317916   -4.2331289    1483.6583  0.055443136  0.055441535            4 
 2231000   0.91268566   -4.2389344    1482.8046  0.055386398  0.055430066            3 
 2232000   0.90945502   -4.2359598    1480.3304  0.055269205  0.055418679            4 
 2233000   0.89506176   -4.2521978    1481.3923  0.055284083  0.055407152            8 
 2234000   0.87083332   -4.2482004     1483.388  0.055333782  0.055395704            3 
 2235000    0.8923461    -4.232933    1484.6136   0.05535472  0.055384327            1 
 2236000   0.89786338   -4.2840817    1482.7638  0.055261023  0.055373019            3 
 2237000   0.88900373    -4.217829    1492.9152  0.055614483   0.05536175            6 
 2238000   0.88986108   -4.2345519    1487.6369  0.055393094  0.055350507            5 
 2239000    0.9027581   -4.2440092    1487.1807  0.055351375   0.05533953            5 
 2240000   0.88652114   -4.2349913    1488.4019  0.055372093  0.055328288            4 
 2241000   0.88135292   -4.2415996    1490.8872  0.055439804  0.055317122            2 
 2242000   0.87321003   -4.2454997    1488.3476   0.05532068  0.055306022            4 
 2243000   0.89270952   -4.2247855    1491.4844  0.055412558  0.055294866            5 
 2244000   0.89095934   -4.2413841    1490.7492  0.055360563  0.055283782            4 
 2245000   0.89327789   -4.2222571    1497.5652   0.05558891  0.055272643            2 
 2246000   0.88175113    -4.273134    1490.5041  0.055302169  0.055261566            3 
 2247000   0.89039372   -4.2554343    1491.2902  0.055306713  0.055250618            3 
 2248000   0.90866777   -4.2258562    1495.0132  0.055420123  0.055239664            3 
 2249000   0.89259744   -4.2579462    1491.4352  0.055262903  0.055228904            2 
 2250000    0.8622534   -4.2491479    1499.9185  0.055552538  0.055217992            3 
 2251000   0.91668051   -4.2368787    1494.3419  0.055321411  0.055206868            2 
 2252000   0.88354067   -4.2367862    1490.8277  0.055166804  0.055195749            2 
 2253000   0.90458637   -4.2072517    1497.4298  0.055386513  0.055184761            3 
 2254000   0.89582786   -4.2319167    1493.6249   0.05522127  0.055173897            2 
 2255000   0.88138389   -4.2229343    1493.8539  0.055205242  0.055162691            4 
 2256000   0.89842099   -4.2653475    1488.9928  0.055001213  0.055151617            2 
 2257000   0.86430678   -4.2394447     1492.336   0.05510028  0.055140321            5 
 2258000   0.90112381   -4.2306588    1496.2045  0.055218649  0.055128942            3 
 2259000   0.90169368   -4.2558314     1498.175  0.055266894  0.055117897            4 
 2260000   0.88738204   -4.2504423    1500.3121  0.055321243  0.055106845            4 
 2261000   0.89492144   -4.2302229    1503.5152  0.055414831  0.055095914            3 
 2262000   0.91039065   -4.2383617    1499.6871  0.055249303  0.055084991            2 
 2263000   0.90916974   -4.2340474    1498.6804  0.055187819  0.055074011            2 
 2264000   0.90378152   -4.2602112    1507.6075  0.055492032  0.055063102            5 
 2265000    0.8806776   -4.2373281    1502.3318  0.055273431  0.055052204            3 
 2266000   0.89232475   -4.2723207     1502.211  0.055244593   0.05504102            4 
 2267000   0.89560606   -4.2413918    1500.9972  0.055175606  0.055030045            2 
 2268000    0.8909416   -4.2508793    1500.1586  0.055120464  0.055019025            4 
 2269000   0.87265532   -4.2624254    1503.2927  0.055211277  0.055008033            3 
 2270000    0.8740597   -4.2496764    1500.4184  0.055081439  0.054997073            3 
 2271000   0.88208676   -4.2597658    1499.1849  0.055011923  0.054986016            2 
 2272000   0.87697575   -4.2382324    1503.7239  0.055154194   0.05497502            3 
 2273000   0.90143381    -4.260347    1500.9397  0.055027851  0.054964061            3 
 2274000   0.88901345   -4.2396228    1504.2565  0.055125201  0.054953382            2 
 2275000   0.86762066   -4.2584256    1506.4718  0.055182116  0.054942557            7 
 2276000   0.88446735   -4.2354643    1509.2961  0.055261281  0.054931661            6 
 2277000   0.90699171   -4.2506612    1503.3077  0.055017851  0.054920774            4 
 2278000   0.88041167    -4.237891    1502.8879   0.05497834  0.054909892            3 
 2279000   0.89086987   -4.2404495     1505.575  0.055052471  0.054899119           11 
 2280000   0.88335454   -4.2344327    1507.1139  0.055084574  0.054888068            2 
 2281000   0.88949736   -4.2429747    1506.3609  0.055032914  0.054877157            2 
 2282000   0.87719761   -4.2641533    1505.5316  0.054978513   0.05486631            3 
 2283000   0.87879755   -4.2518308    1510.5481  0.055137542  0.054855556            2 
 2284000   0.87736302   -4.2252669    1515.9806  0.055311608  0.054844838            4 
 2285000   0.90030174   -4.2574697    1510.8904  0.055101765  0.054834144            2 
 2286000   0.89314249    -4.230623    1507.5569  0.054956144  0.054823485            3 
 2287000    0.8922798   -4.2411292    1512.7031  0.055119631  0.054812718            4 
 2288000   0.91182414    -4.243205     1506.573  0.054872268  0.054801903            3 
 2289000   0.88874393   -4.2178348    1512.7959  0.055074847  0.054791148            2 
 2290000   0.89599955   -4.1927239    1516.4282  0.055182975  0.054780487            7 
 2291000   0.88388745   -4.2685116    1509.5486  0.054908651  0.054769608            5 
 2292000   0.89567034   -4.2620894    1509.0442  0.054866355  0.054758738            2 
 2293000   0.87214025   -4.2315306    1516.2503  0.055104315  0.054748039            2 
 2294000   0.89502224   -4.2397428    1515.9871  0.055070733  0.054737296            4 
 2295000   0.87593279   -4.2526557    1516.1784  0.055053682  0.054726618            6 
 2296000   0.90318096   -4.2657218    1518.2542  0.055105045  0.054715806            3 
 2297000   0.88158726   -4.2825286    1513.8585  0.054921583  0.054705039            6 
 2298000   0.88051269   -4.2634157    1513.0343  0.054867793  0.054694052            4 
 2299000   0.87199071    -4.258377    1513.3166  0.054854163  0.054683262            5 
 2300000   0.87817737   -4.2517467    1513.1496  0.054824262  0.054672724            5 
 2301000   0.88681702   -4.2632168    1514.3864  0.054845226  0.054661857            2 
 2302000   0.88009032   -4.2288441    1515.6747  0.054868037  0.054651014            7 
 2303000   0.87119556     -4.24632     1520.798    0.0550296  0.054640177            3 
 2304000   0.88754574   -4.2563973    1512.0264  0.054688454   0.05462945            2 
 2305000   0.87484909   -4.2466422    1517.6089  0.054866555  0.054618647            3 
 2306000   0.88782876   -4.2503764    1518.3644  0.054870065  0.054607957            3 
 2307000   0.90634185   -4.2605626    1517.6777  0.054821474  0.054597065            7 
 2308000   0.88858348   -4.2527354    1513.4224  0.054644077  0.054586363            3 
 2309000   0.88144448   -4.2568592    1514.2325  0.054649651  0.054575616            3 
 2310000   0.89014741   -4.2684642    1518.0185  0.054762573  0.054564734           14 
 2311000   0.88870667   -4.2667269    1521.9681  0.054881297  0.054554039            4 
 2312000   0.88436946   -4.2507677    1523.0904  0.054898011  0.054543341            3 
 2313000   0.87617711   -4.2322716    1524.0576  0.054909121  0.054532833            3 
 2314000    0.8798021   -4.2751535    1517.8009  0.054660074  0.054522115            3 
 2315000   0.88074908   -4.2601514    1521.1526  0.054757115  0.054511493            5 
 2316000   0.88276962   -4.2814197    1517.7275  0.054610229  0.054500699            5 
 2317000   0.88568829   -4.2922323    1518.9888  0.054632023  0.054489745            4 
 2318000   0.87157584   -4.2922056    1521.9874  0.054716257  0.054478891            2 
 2319000    0.8972295   -4.2498277     1519.937  0.054618981  0.054468098            7 
 2320000    0.8730967   -4.2624863    1523.5671   0.05472583  0.054457409            5 
 2321000   0.88429052   -4.2406653    1523.9052   0.05471439  0.054446879            5 
 2322000   0.87906831   -4.2502792    1526.7635  0.054793406  0.054436189            2 
 2323000   0.87943436   -4.2624919    1526.8272  0.054772105   0.05442545            3 
 2324000   0.86288778    -4.252531    1526.4785  0.054736033  0.054414955            4 
 2325000    0.8721565   -4.2744466    1522.7783  0.054579867  0.054404364            4 
 2326000   0.86554783   -4.2727385    1526.2862   0.05468208  0.054393898            5 
 2327000   0.87572396    -4.278206    1524.4952  0.054594443  0.054383188            8 
 2328000   0.87747114   -4.2916437    1528.2526  0.054705492   0.05437266            3 
 2329000   0.86674358   -4.2760972    1526.3322   0.05461329  0.054362103            4 
 2330000   0.89248216   -4.2422546    1528.8644  0.054680415  0.054351502            5 
 2331000   0.88636138    -4.259527    1521.5252   0.05439458  0.054340911            8 
 2332000   0.87618055   -4.2572676    1528.8779  0.054634001  0.054330314            2 
 2333000   0.87270019   -4.2661549    1527.6769  0.054567684  0.054319586            3 
 2334000   0.87464067   -4.2880983    1521.1928  0.054312796  0.054308915            3 
 2335000   0.89158473   -4.2670347    1528.7426  0.054558981  0.054298224            3 
 2336000   0.86662937    -4.279577    1523.8091  0.054359629  0.054287537            5 
 2337000   0.89865013   -4.3006587    1530.8672  0.054588046  0.054276697            3 
 2338000   0.87018355   -4.2604882    1528.0674  0.054464905  0.054266111            4 
 2339000   0.87239982   -4.2547873     1533.143  0.054622452  0.054255392            3 
 2340000   0.88905264    -4.260234    1530.8196  0.054516367  0.054244731            2 
 2341000    0.8810511   -4.2575998    1525.1222  0.054290267   0.05423405            4 
 2342000   0.87115125   -4.2970272     1529.828  0.054434527  0.054223116            5 
 2343000   0.87008508   -4.2877476    1531.0347  0.054454213  0.054212471            8 
 2344000   0.88048445   -4.2811565     1532.564  0.054485352  0.054201748            7 
 2345000   0.88250876   -4.2703126    1533.2787  0.054487515  0.054191032            3 
 2346000   0.87864623     -4.29231    1532.4709  0.054435597   0.05418045            4 
 2347000   0.89109065   -4.2762451    1530.1626  0.054330444  0.054169776            4 
 2348000   0.87137483   -4.2713721    1532.6716  0.054396351  0.054159036            3 
 2349000     0.872992   -4.2565155    1535.8265  0.054485116  0.054148381            3 
 2350000   0.86882679   -4.2755782    1533.6159  0.054383543  0.054137704            2 
 2351000   0.88672263   -4.2870799    1531.8268  0.054296994  0.054127125            5 
 2352000   0.86315593   -4.2526305    1537.8255  0.054486449  0.054116572            5 
 2353000   0.86482058     -4.27888    1539.0757   0.05450757  0.054106125            4 
 2354000   0.86946963   -4.2718853    1531.0893   0.05420169  0.054095726            5 
 2355000   0.86746703   -4.2330774     1535.744  0.054343382  0.054085202            4 
 2356000   0.86860007   -4.2823298     1534.252  0.054267544  0.054074396            4 
 2357000   0.85953647   -4.2497123    1533.4511  0.054216203  0.054063729            3 
 2358000   0.86263796   -4.2497345    1537.0437  0.054320177     0.054053            2 
 2359000   0.87827916   -4.2936073    1535.7641  0.054251946   0.05404219            4 
 2360000   0.86397592    -4.276081    1538.5199  0.054326268  0.054031408            2 
 2361000   0.88119679   -4.2944268    1533.4698  0.054125011  0.054020674           10 
 2362000   0.87521219   -4.2959257    1541.0471  0.054369429  0.054010047            9 
 2363000   0.89700783   -4.2793552    1535.1985  0.054140165  0.053999394            6 
 2364000   0.88741066   -4.2867105    1535.8718  0.054140998  0.053988626            4 
 2365000   0.86610876   -4.2814064    1535.0393  0.054088772     0.053978            3 
 2366000   0.87864567   -4.2805392    1538.9743  0.054204505   0.05396726            4 
 2367000   0.85800897   -4.2839108    1542.8816  0.054319167    0.0539567            4 
 2368000   0.87741546    -4.307452    1539.6408   0.05418218  0.053945981            5 
 2369000   0.87018936   -4.2957872    1539.8815  0.054167776  0.053935277            4 
 2370000   0.86646205   -4.2891689    1542.2016  0.054226499  0.053924514            8 
 2371000    0.8581571   -4.2791595    1540.8155   0.05415491  0.053913754            4 
 2372000   0.88361356   -4.2581845    1540.2006  0.054110476  0.053903019            3 
 2373000    0.8703076   -4.2870475    1542.1056  0.054154573  0.053892571            3 
 2374000   0.85623386   -4.2661597    1544.9834   0.05423278  0.053881935            2 
 2375000   0.87205719   -4.2813461    1544.3689  0.054188384  0.053871372            3 
 2376000   0.87566614   -4.2719175    1540.9747  0.054046531  0.053860814            2 
 2377000   0.86547535   -4.2873737    1542.4001  0.054073767  0.053850369            4 
 2378000   0.87952323     -4.27948    1545.6062  0.054163379  0.053840013            5 
 2379000    0.8791407   -4.3100516    1541.1309  0.053983848  0.053829622            5 
 2380000   0.85581477   -4.2639269    1542.8993  0.054023086  0.053819196            2 
 2381000   0.87324912   -4.2619687    1540.8643  0.053929173  0.053808709            6 
 2382000   0.87155836   -4.2807729    1547.1118  0.054125096  0.053798387            6 
 2383000    0.8918157   -4.2749879    1547.8861  0.054129462  0.053787845            3 
 2384000   0.87161007    -4.278091    1544.9342  0.054003574   0.05377747            5 
 2385000   0.89953953   -4.3023006    1545.2714  0.053992713  0.053767076           10 
 2386000   0.85934584   -4.2544049    1548.3285  0.054076855   0.05375667            3 
 2387000   0.85823689   -4.2794215    1551.0459  0.054149069  0.053746332            2 
 2388000   0.86484795   -4.2908194    1552.3732  0.054172711  0.053735867            4 
 2389000   0.86728857   -4.3000478    1547.0758  0.053965252  0.053725313            5 
 2390000   0.86873097   -4.2709755    1549.7339  0.054035353  0.053714764            6 
 2391000   0.87134092   -4.3107912    1549.1179  0.053991285  0.053704233            3 
 2392000   0.87612267   -4.2904677    1550.0393  0.054000812  0.053693827            3 
 2393000   0.85512238   -4.2807105    1550.7139  0.054001737  0.053683461            2 
 2394000   0.84816874   -4.2695612    1554.7521  0.054119748  0.053673041            9 
 2395000    0.8832581    -4.296113     1549.289  0.053907065  0.053662735            5 
 2396000   0.86212214   -4.2747704     1553.513  0.054031477  0.053652291            6 
 2397000   0.88878853   -4.2719246    1558.0674   0.05416727  0.053641867            2 
 2398000   0.87178857   -4.2978868    1545.1173  0.053694651  0.053631551            5 
 2399000   0.86290816   -4.2617829     1555.839  0.054044705  0.053621086            4 
 2400000   0.88220956    -4.307069    1551.6252  0.053875874  0.053610652            2 
 2401000   0.85760848   -4.2977381    1555.2894  0.053980613  0.053600229            4 
 2402000   0.87707072   -4.2954152    1550.2388  0.053782916  0.053589672            2 
 2403000   0.85071884   -4.2852699     1557.039  0.053996359  0.053579326            2 
 2404000   0.83456225   -4.2756944    1556.9485  0.053970762  0.053568906            6 
 2405000   0.87026867   -4.2558505    1558.4227  0.053999399  0.053558475            4 
 2406000    0.8702355   -4.2749579    1561.3346  0.054077812  0.053548172            5 
 2407000   0.89123866   -4.2922893    1559.2636  0.053983646  0.053537849            2 
 2408000   0.86623618   -4.2827085    1554.3248  0.053790309  0.053527499            2 
 2409000   0.86224266   -4.2635792    1560.3644  0.053976906  0.053517052            2 
 2410000   0.87296917    -4.268711    1557.5667  0.053857769  0.053506806            3 
 2411000   0.84833162   -4.2919941    1558.8487  0.053879741  0.053496563            4 
 2412000   0.85042165   -4.2801826    1563.0845   0.05400375  0.053486432            3 
 2413000    0.8326319   -4.3040709    1559.7782  0.053867184  0.053476269            3 
 2414000   0.87649461   -4.2978237    1559.6463  0.053840316  0.053466094            5 
 2415000   0.87121111    -4.292857    1556.1464  0.053697254  0.053455786            3 
 2416000   0.85654314    -4.330324     1560.369  0.053820675  0.053445517            5 
 2417000   0.87122653    -4.298433    1564.4214  0.053938126  0.053435308            4 
 2418000   0.85629543   -4.2906247    1559.2396  0.053737234   0.05342515            4 
 2419000   0.87499591   -4.3102904     1559.406  0.053720753  0.053415025            4 
 2420000   0.87802776   -4.3134256     1565.141  0.053896039  0.053404896            5 
 2421000   0.85030948   -4.2953363    1561.0233  0.053732041  0.053394634            6 
 2422000   0.86815537   -4.3002932    1567.0992  0.053918909  0.053384442            4 
 2423000   0.86940302   -4.2863421    1562.0083  0.053721566  0.053374223            4 
 2424000   0.86593806   -4.3047314     1561.417  0.053679077  0.053363833            5 
 2425000   0.87930096   -4.2960587    1564.5124  0.053763313  0.053353476            5 
 2426000   0.84551758   -4.2692227    1562.6062  0.053675674  0.053343188            4 
 2427000   0.84628328   -4.3079224    1565.0952  0.053739019  0.053332884            4 
 2428000   0.84841155   -4.2607014    1570.7463  0.053910843  0.053322642            5 
 2429000   0.85734514   -4.3310219    1556.8536  0.053412021  0.053312487            6 
 2430000   0.85609261   -4.2995665    1564.1627  0.053640698  0.053302122            4 
 2431000   0.86221709   -4.2857545    1566.5158  0.053699293  0.053291928            3 
 2432000   0.88646173   -4.3056431    1569.8197  0.053790423  0.053281659            3 
 2433000    0.8584816   -4.3458324     1563.582  0.053554665  0.053271419            7 
 2434000   0.86441903   -4.2778713    1569.5494   0.05373697  0.053261267            3 
 2435000   0.85457731   -4.2848068    1569.2526  0.053704743  0.053250945            3 
 2436000   0.87670156   -4.3014772    1570.0428   0.05370973  0.053240676            4 
 2437000   0.86280045   -4.3004201    1572.5297   0.05377273  0.053230367            4 
 2438000   0.86735709    -4.275073    1573.8425  0.053795548  0.053220263            5 
 2439000   0.85326837   -4.3156747      1562.74   0.05339415  0.053210132            4 
 2440000   0.84888398   -4.3172021    1573.5012  0.053739796  0.053200027            5 
 2441000   0.86923113   -4.3004312    1570.3794  0.053611204  0.053189712            3 
 2442000   0.85737665   -4.3346501    1571.4504  0.053625799  0.053179584            3 
 2443000   0.88165175   -4.3085506     1573.016  0.053657254  0.053169561            7 
 2444000   0.87818935   -4.3160344     1572.906  0.053631547  0.053159619            3 
 2445000   0.85881261   -4.3193132    1575.6118  0.053701835  0.053149693            4 
 2446000   0.86339718   -4.2876987    1577.7846  0.053753905  0.053139641            3 
 2447000   0.85671154    -4.312094    1570.7061  0.053490877  0.053129617            3 
 2448000   0.87891674   -4.2748601    1577.4617  0.053698995  0.053119523            6 
 2449000   0.85262876   -4.2891715    1575.2552  0.053601988  0.053109724            3 
 2450000   0.86679068   -4.2912884    1579.3199  0.053718363  0.053099903            9 
 2451000   0.85449478   -4.3411734    1575.3746  0.053562307  0.053089865            2 
 2452000   0.85862618   -4.3040427    1577.7248  0.053620338  0.053079983            9 
 2453000    0.8668016   -4.3099479     1580.762  0.053701657   0.05307016            3 
 2454000   0.85679372   -4.2889509    1582.8763  0.053751571  0.053060267            7 
 2455000   0.86755351   -4.2927196    1577.4994  0.053547161  0.053050232            8 
 2456000   0.86164056   -4.3055666    1572.5528  0.053357518  0.053040185            5 
 2457000   0.86588618   -4.3253011    1573.9404  0.053382865  0.053030092            5 
 2458000   0.86292258   -4.2778693     1574.616  0.053384052  0.053020137            3 
 2459000   0.84678033    -4.312412    1580.8911  0.053574999  0.053010068            2 
 2460000   0.85068674     -4.30559     1578.473  0.053471309  0.053000013            4 
 2461000   0.86729041   -4.2936959    1580.3594  0.053513456  0.052989941            2 
 2462000   0.83768785   -4.2870526    1580.2787  0.053488989  0.052979843            5 
 2463000    0.8616448   -4.3247419    1578.0673  0.053392452  0.052969773            3 
 2464000   0.86144618   -4.2734155    1576.1776  0.053306873  0.052959701            6 
 2465000   0.85036818   -4.2982411    1582.8062  0.053509338   0.05294973            3 
 2466000   0.83767768     -4.29301    1580.7476  0.053418074   0.05293972            4 
 2467000   0.84748937   -4.3260799    1576.2092  0.053243117  0.052929705            4 
 2468000   0.84583657   -4.3174798    1579.7415  0.053340813   0.05291944            3 
 2469000   0.86316671   -4.3240913    1579.1268   0.05329846  0.052909431            5 
 2470000   0.85207339   -4.3066524    1585.1325  0.053479505  0.052899462            4 
 2471000   0.86987058   -4.3244545    1583.7506  0.053411256  0.052889556            5 
 2472000   0.86324823   -4.2858739     1585.836  0.053459952  0.052879686            5 
 2473000   0.82535338   -4.3063961    1581.0345  0.053276536  0.052869696            3 
 2474000   0.85775987   -4.3163964    1581.5077  0.053270941  0.052859514            2 
 2475000   0.83825449   -4.3050377    1580.3499  0.053210436  0.052849386            7 
 2476000    0.8544677   -4.2658581    1584.7831   0.05333815  0.052839504            3 
 2477000   0.84286576   -4.3219779    1581.0083  0.053189621  0.052829361            3 
 2478000   0.84960859   -4.2916602    1587.5485    0.0533881  0.052819215            4 
 2479000   0.86979414   -4.3143626    1583.6779   0.05323645  0.052809023            7 
 2480000   0.85005354   -4.3321961    1589.0471    0.0533954   0.05279894            3 
 2481000   0.85865342   -4.2998286    1587.4937  0.053321701  0.052788799            7 
 2482000   0.86334865   -4.3066907     1584.994  0.053216289  0.052778716            3 
 2483000    0.8641959   -4.3069998     1588.945  0.053327459  0.052768787            5 
 2484000   0.84978122   -4.3106027    1590.3807  0.053354157  0.052758909            7 
 2485000   0.84911823   -4.3394917    1581.3225  0.053028925  0.052748958            5 
 2486000   0.85411032   -4.3116624    1582.4193  0.053044359  0.052738834            4 
 2487000   0.86229285   -4.3124059    1591.9726  0.053343139  0.052728661            3 
 2488000   0.83560059    -4.289874    1594.6733  0.053412155  0.052718658            2 
 2489000   0.83447968   -4.3030621     1592.357  0.053313144  0.052708553            4 
 2490000   0.85361886   -4.3098268    1581.9665  0.052943993  0.052698359            5 
 2491000    0.8613277   -4.3471579    1583.6267  0.052978278  0.052688272            3 
 2492000   0.87408724   -4.3284973    1585.6941  0.053026155  0.052678245            4 
 2493000   0.85028288   -4.3329737     1587.468  0.053064181  0.052668219            4 
 2494000   0.85952977    -4.313663    1589.0804  0.053096778  0.052658053            4 
 2495000    0.8441712   -4.3115337    1588.5105  0.053056462  0.052648005            3 
 2496000   0.86094681   -4.3112083    1592.4151  0.053165567  0.052637947            4 
 2497000   0.86038616   -4.3038466    1597.1561  0.053302501   0.05262788            4 
 2498000   0.85567817   -4.3194945    1590.2003  0.053049116  0.052617824            2 
 2499000   0.86845349   -4.3055028    1589.3588  0.052999825  0.052607701            2 
 2500000   0.84031769   -4.3214707      1591.86     0.053062  0.052597568            5 
 2501000   0.83319307   -4.3393864    1590.1967  0.052985362  0.052587383            2 
 2502000   0.87374329   -4.2886941    1594.2133  0.053097966  0.052577179            4 
 2503000   0.85107621   -4.3468775    1588.0193  0.052870532  0.052567025            2 
 2504000   0.84115665   -4.3219586    1590.5199  0.052932637  0.052556703            9 
 2505000   0.85203251   -4.3283253    1594.3229  0.053038022  0.052546517            4 
 2506000   0.84322227   -4.3244754    1589.7737   0.05286558  0.052536317            7 
 2507000    0.8368584   -4.2876333    1594.7428  0.053009668    0.0525262            3 
 2508000   0.84021859   -4.2992045    1596.7766  0.053056106  0.052516075            3 
 2509000   0.84278176   -4.3368297    1592.9119    0.0529066  0.052505961            3 
 2510000   0.83778626   -4.3176172    1589.0433  0.052757083  0.052495749            5 
 2511000   0.83862679   -4.3110378    1593.3002  0.052877346  0.052485346            3 
 2512000   0.84324598   -4.3124589    1598.8506  0.053040426   0.05247512            8 
 2513000   0.83436703    -4.327012    1592.7923  0.052818422  0.052464798            4 
 2514000   0.85305612   -4.3103492    1593.9932  0.052837218  0.052454402            3 
 2515000   0.83987007   -4.3350887    1594.4076  0.052829941  0.052444156            7 
 2516000   0.84794515   -4.3117275    1597.1237  0.052898904  0.052433913            3 
 2517000   0.85117284    -4.316273    1594.4859  0.052790554    0.0524237            2 
 2518000   0.86066065   -4.3179002    1595.7296   0.05281075  0.052413444            2 
 2519000   0.85961664   -4.3292284    1600.4515  0.052945995  0.052403091            4 
 2520000   0.85893501   -4.3353456    1595.0883  0.052747629  0.052392877            5 
 2521000   0.85115662   -4.3004769    1596.0653     0.052759  0.052382689            7 
 2522000   0.83580898   -4.2911427    1601.4921  0.052917396  0.052372436            4 
 2523000   0.85920528   -4.3440483    1595.0139   0.05268245  0.052362174            7 
 2524000   0.84702257   -4.3169129    1598.2002   0.05276678  0.052351983            7 
 2525000   0.84866231    -4.316873    1595.7468  0.052664911  0.052341676            3 
 2526000   0.85052306   -4.3171874    1599.8024  0.052777858  0.052331383            3 
 2527000   0.85376044   -4.3008278      1601.13  0.052800753   0.05232123            7 
 2528000   0.83416037   -4.3315966    1598.2335  0.052684386  0.052311254            3 
 2529000    0.8413525   -4.3230599    1597.2414  0.052630862  0.052301097            2 
 2530000   0.84677987   -4.3560346    1596.9383  0.052600075   0.05229079            5 
 2531000   0.85024587   -4.3400161    1592.9282  0.052447261  0.052280495            3 
 2532000   0.83722891   -4.3448569    1600.3451  0.052670654  0.052270294            2 
 2533000   0.85042836   -4.3324724    1593.8902  0.052437499  0.052259981            3 
 2534000   0.83965917   -4.3139788    1599.1594   0.05259009  0.052249738            5 
 2535000   0.84687043   -4.3075131    1600.8753  0.052625751  0.052239618            3 
 2536000   0.85374358   -4.3108648     1601.067  0.052611297  0.052229438            5 
 2537000   0.84304695   -4.3282076     1600.756  0.052580346  0.052219294            7 
 2538000   0.82784348   -4.3406448    1602.7903   0.05262642  0.052209072            3 
 2539000   0.84806697   -4.3080287    1605.3512  0.052689746  0.052198828            6 
 2540000   0.81207113   -4.3066282    1608.1362  0.052760372   0.05218878            5 
 2541000   0.85941947   -4.3255084     1604.391  0.052616785  0.052178662            4 
 2542000   0.82048432    -4.350992    1605.9518  0.052647254  0.052168544            4 
 2543000   0.85540197   -4.3435262    1603.8368  0.052557241  0.052158357            4 
 2544000   0.85319421   -4.3271997    1607.4247  0.052654111  0.052148183            4 
 2545000   0.85702796   -4.3156526    1608.2823  0.052661503  0.052138143            4 
 2546000   0.84775993   -4.3345087    1604.9515  0.052531799  0.052128155            9 
 2547000   0.83976159   -4.3310272    1604.1305  0.052484313  0.052118095            4 
 2548000   0.86996208   -4.3102889    1610.6897  0.052678234  0.052107861            8 
 2549000   0.84985433   -4.3540262    1605.8216  0.052498417  0.052097829            6 
 2550000   0.85905766   -4.2909231    1606.7415  0.052507892  0.052087869            6 
 2551000   0.85648585   -4.3156877    1613.2336  0.052699385  0.052077984            3 
 2552000   0.84404651   -4.3401994    1608.6835  0.052530156  0.052068162            3 
 2553000   0.83486185   -4.3123399    1614.2301   0.05269063  0.052058238            3 
 2554000   0.85741772   -4.3149947      1611.47  0.052579939  0.052048375            4 
 2555000   0.84174571     -4.31568    1614.3224  0.052652393  0.052038469            6 
 2556000   0.82669686   -4.3138467    1613.7832  0.052614215  0.052028563            3 
 2557000   0.84718544   -4.3338522    1616.2612  0.052674397  0.052018687            2 
 2558000   0.83585712   -4.3505963    1612.3468  0.052526283   0.05200874            3 
 2559000   0.84930139   -4.3502961    1612.1543  0.052499489  0.051998819            7 
 2560000   0.83599119   -4.3430687    1611.4766   0.05245692  0.051988854            5 
 2561000   0.83229365    -4.337525     1618.488  0.052664583  0.051978777            3 
 2562000   0.84743456   -4.3246997    1615.9908  0.052562801  0.051968925            9 
 2563000   0.84287303    -4.335378    1604.4572  0.052167292   0.05195884            8 
 2564000   0.84715567    -4.340533    1617.3441  0.052565786  0.051948779            3 
 2565000    0.8270172   -4.2957449    1618.2345  0.052574222   0.05193878            7 
 2566000   0.82256881   -4.2999297     1620.912  0.052640686   0.05192881            3 
 2567000   0.83612204     -4.29973    1616.8547  0.052488467  0.051918826            6 
 2568000   0.82473506   -4.3453051    1614.7908  0.052401051  0.051908896            5 
 2569000   0.80984425   -4.3322332      1609.97  0.052224277  0.051898759            3 
 2570000    0.8449957   -4.3357059    1617.1078  0.052435402  0.051888632           10 
 2571000   0.84976304   -4.3309054    1614.3449  0.052325453  0.051878562            3 
 2572000   0.82130025   -4.3436035    1618.0504  0.052425169  0.051868555            2 
 2573000   0.85153892   -4.3668855    1612.6838  0.052230982  0.051858446            9 
 2574000   0.84707438   -4.3467676    1608.8959  0.052088056  0.051848274            6 
 2575000   0.83635124   -4.3592771    1608.3573  0.052050398  0.051838027            4 
 2576000   0.84434075   -4.2982966    1618.6337  0.052362634  0.051827737            3 
 2577000   0.84061745   -4.3207469     1620.166  0.052391863  0.051817607            5 
 2578000   0.82448906   -4.3270806    1614.5768  0.052190872  0.051807651            4 
 2579000   0.83528372   -4.3840383     1614.131  0.052156229  0.051797607            9 
 2580000   0.84198981   -4.3449129    1613.2465  0.052107444  0.051787511            5 
 2581000   0.83858031   -4.3695896    1611.2112  0.052021543  0.051777332            4 
 2582000   0.83194185   -4.3408853    1618.9927  0.052252541  0.051767169            4 
 2583000   0.84668964   -4.3585894    1615.9311  0.052133536  0.051757075            3 
 2584000   0.83087206   -4.3071508    1624.5674   0.05239188  0.051747124            5 
 2585000    0.8442492   -4.3705315    1618.5347  0.052177133   0.05173695            4 
 2586000   0.83924533   -4.3383058    1624.7462  0.052357123  0.051726938            4 
 2587000   0.82619369   -4.3405796    1621.8035  0.052242093  0.051717024            8 
 2588000   0.81876245   -4.3486575    1618.4997  0.052115523  0.051706963            4 
 2589000   0.85005409   -4.3417627    1622.7081  0.052230853  0.051697127            3 
 2590000   0.85549061   -4.3695468    1614.9959  0.051962546  0.051687182            7 
 2591000   0.84780428   -4.3230785     1627.264  0.052337063  0.051677292            4 
 2592000   0.83859418   -4.3605556    1620.5616   0.05210139  0.051667444            2 
 2593000   0.82221606   -4.3393177    1623.8239  0.052186139  0.051657602            8 
 2594000    0.8329054   -4.3671741    1627.7351  0.052291671  0.051647725            6 
 2595000   0.82052221    -4.364293    1622.0186  0.052087945  0.051637921            4 
 2596000   0.82477052    -4.347165    1625.3538  0.052174942  0.051628088            4 
 2597000   0.85201263   -4.3577301    1627.1938  0.052213893  0.051618341            7 
 2598000   0.84768584   -4.3439766    1627.7784  0.052212548  0.051608545            3 
 2599000   0.84207503    -4.347891    1629.5378   0.05224887  0.051598768            2 
 2600000   0.83565885   -4.3447236    1626.6362  0.052135774  0.051588919            7 
 2601000   0.82705238    -4.321395    1626.7575  0.052119619  0.051579069            7 
 2602000   0.85476708   -4.3553409     1628.831  0.052165995  0.051569187            5 
 2603000   0.83410181   -4.3507671    1630.0376  0.052184582  0.051559217            6 
 2604000    0.8443819   -4.3433904    1633.6792  0.052281081  0.051549409            4 
 2605000   0.84715925    -4.327341    1629.3977  0.052124047  0.051539679            2 
 2606000   0.81875722   -4.3681048     1622.575  0.051885872  0.051529854            2 
 2607000   0.82749963   -4.3413185    1630.6558  0.052124274  0.051520064            2 
 2608000   0.84385582   -4.3356632    1625.7128  0.051946343  0.051510202            5 
 2609000   0.84189991   -4.3459153    1632.2691  0.052135848   0.05150025            5 
 2610000   0.82226485   -4.3347047    1630.2269  0.052050669  0.051490476            3 
 2611000   0.84332341   -4.3317851    1634.1553  0.052156113  0.051480664            5 
 2612000   0.83201494   -4.3508959    1625.0246  0.051844839   0.05147094            5 
 2613000   0.83420907   -4.3291334    1633.6881  0.052101291  0.051461088            3 
 2614000   0.82872185   -4.3633289    1626.3237  0.051846585  0.051451308            3 
 2615000    0.8378215   -4.3244257    1632.9705  0.052038575  0.051441552            3 
 2616000   0.82916066   -4.3124255    1634.5056  0.052067583  0.051431647           10 
 2617000   0.85041349   -4.3522055    1628.7424  0.051864171  0.051421801            3 
 2618000   0.83123487   -4.3484877    1625.7219  0.051748214  0.051411876            7 
 2619000   0.84686378   -4.3569756    1636.2346  0.052062955  0.051402141            7 
 2620000   0.84277294   -4.3436421    1636.6533  0.052056402  0.051392267            4 
 2621000   0.83640481   -4.3350432    1639.1931  0.052117293  0.051382471            5 
 2622000   0.84833857   -4.3642279    1634.3328  0.051942946  0.051372762            9 
 2623000   0.82955883   -4.3514828    1640.6948  0.052125263  0.051362937            5 
 2624000   0.82026259   -4.3448539      1635.66  0.051945503  0.051353152            2 
 2625000    0.8360927   -4.3878684    1632.2411  0.051817177  0.051343379            3 
 2626000    0.8474356   -4.3526514     1633.524  0.051838157  0.051333553            5 
 2627000   0.82836534   -4.3776115    1633.4863  0.051817227  0.051323749            4 
 2628000    0.8185648   -4.3374079    1638.1267  0.051944658  0.051313991            5 
 2629000   0.82361836   -4.3300758    1637.5768  0.051907467  0.051304131            7 
 2630000   0.83060875   -4.3662292    1635.9024  0.051834675  0.051294333            7 
 2631000   0.83621962   -4.3494918    1637.5784  0.051868059  0.051284508            4 
 2632000   0.83827905   -4.3716955    1632.9048   0.05170038  0.051274677            4 
 2633000   0.81921095   -4.3486245    1638.9547  0.051872221  0.051264749           10 
 2634000   0.84988106   -4.3742833    1633.1682  0.051669458  0.051254695            8 
 2635000   0.84963945   -4.3772167         1634  0.051676155  0.051244839            4 
 2636000   0.84814227   -4.3683257    1640.6918  0.051868103  0.051234947            3 
 2637000   0.82854378   -4.3576979    1637.6294  0.051751657  0.051225049            3 
 2638000   0.82935746   -4.3702113    1632.0782  0.051556679  0.051215058            8 
 2639000   0.84003301   -4.3602054    1635.1876  0.051635328  0.051205094           12 
 2640000   0.83672607   -4.3531178    1638.2947  0.051713849    0.0511951            4 
 2641000   0.83562082   -4.3523666    1635.7424  0.051613732  0.051185132            6 
 2642000   0.81875424   -4.3259323    1636.9242  0.051631472  0.051175246            2 
 2643000   0.82310043    -4.323007    1639.7681  0.051701605  0.051165322            5 
 2644000   0.81077852   -4.3615767    1634.2624  0.051508522  0.051155399            4 
 2645000   0.82323182    -4.347655    1639.5374  0.051655241  0.051145483            5 
 2646000   0.83103172   -4.3323103    1639.7321  0.051641853  0.051135626            4 
 2647000   0.83402687   -4.3714919    1640.7755  0.051655192   0.05112556            6 
 2648000   0.83000438   -4.3331187    1646.0194  0.051800712  0.051115669            4 
 2649000   0.82259264   -4.3497949    1641.1265  0.051627235  0.051105893            7 
 2650000   0.83587482   -4.3783302    1643.1406  0.051671089  0.051095958            4 
 2651000   0.83550623   -4.3660165     1643.238  0.051654659   0.05108593            5 
 2652000   0.82073081   -4.3726949    1634.9165  0.051373697  0.051075777            3 
 2653000   0.83727419   -4.3649209    1638.4082  0.051464008  0.051065697            2 
 2654000   0.82494101   -4.3771526    1640.0412  0.051495893  0.051055567            4 
 2655000   0.80180107   -4.3518687    1641.1156  0.051510219  0.051045387           15 
 2656000   0.82381118   -4.3467577    1643.1348  0.051554179  0.051035253            5 
 2657000   0.82306125   -4.3548237    1636.0613  0.051312925  0.051025131            2 
 2658000   0.80582645   -4.3519856    1641.1661  0.051453664  0.051014968            2 
 2659000   0.82983355   -4.3738714    1637.1458  0.051308319  0.051004757            4 
 2660000   0.81550337   -4.3481443    1644.5408    0.0515207  0.050994597            3 
 2661000   0.83553823   -4.3699761    1641.1598   0.05139546  0.050984519            4 
 2662000   0.81897515   -4.3430164    1639.4439  0.051322436  0.050974387            5 
 2663000   0.81638607   -4.3607831      1644.59  0.051464202  0.050964214            4 
 2664000   0.82393495   -4.3477425    1639.2401  0.051277531  0.050954139            5 
 2665000   0.83036539   -4.3309313    1642.6201  0.051363979  0.050944118            3 
 2666000    0.8267224   -4.3440201    1643.1883  0.051362476  0.050933958            4 
 2667000   0.80355722   -4.3729553    1642.2195  0.051312947  0.050923795            4 
 2668000   0.82291313   -4.3715633    1643.0376  0.051319265  0.050913507           11 
 2669000   0.81963897   -4.3576336     1644.751  0.051353533  0.050903236            3 
 2670000   0.81864602   -4.3583643    1639.7619  0.051178587  0.050892972            6 
 2671000   0.81885923    -4.394217     1637.083  0.051075844  0.050882613            7 
 2672000   0.82531796   -4.3727794    1645.9111  0.051332057  0.050872306            5 
 2673000   0.82268797   -4.3894339    1641.0679  0.051161862  0.050862106            3 
 2674000    0.8366291     -4.36405      1643.25  0.051210732  0.050851715            4 
 2675000    0.8394199    -4.347047    1644.2653  0.051223218  0.050841355            3 
 2676000   0.82268897   -4.3628573    1642.3961  0.051145867  0.050830917            8 
 2677000   0.82095684   -4.3580445    1640.2188  0.051058985  0.050820479            4 
 2678000   0.82049676   -4.3795624    1639.8213  0.051027548  0.050810174            5 
 2679000    0.8247242   -4.3440182    1646.1792  0.051206272  0.050799738            3 
 2680000   0.83593724   -4.3794876    1644.0324  0.051120411  0.050789299            2 
 2681000    0.8058002   -4.3716355    1644.8282   0.05112608  0.050778859            4 
 2682000   0.84043052   -4.3545013    1645.5264  0.051128708  0.050768363            4 
 2683000   0.83776532   -4.3916959    1646.8216  0.051149883   0.05075799            5 
 2684000   0.81287652   -4.3856992    1639.4579  0.050902195  0.050747595           10 
 2685000   0.81677436   -4.3693499    1643.5724  0.051010938   0.05073709            6 
 2686000   0.82363579   -4.3507533    1645.2472  0.051043907  0.050726631            4 
 2687000   0.81923255   -4.3519511    1641.7035  0.050915007  0.050716243            4 
 2688000    0.8074214   -4.3760126    1646.0818  0.051031801  0.050705727            4 
 2689000   0.83096922   -4.3606218    1637.8141  0.050756605  0.050695228            4 
 2690000   0.84510342   -4.3565025     1655.229  0.051277231  0.050684856            2 
 2691000   0.81810973   -4.3696797     1644.255  0.050918339  0.050674369            5 
 2692000   0.81411196   -4.3575512    1643.4987  0.050876011  0.050663854            7 
 2693000   0.81414461   -4.3585099    1641.9417   0.05080894  0.050653368            7 
 2694000   0.83518026   -4.3534621    1648.5018  0.050993004  0.050642837            3 
 2695000    0.8211337   -4.3705533    1646.8149  0.050921921  0.050632465            4 
 2696000   0.81027092   -4.3753811    1642.5349  0.050770739   0.05062194            4 
 2697000   0.80821867   -4.3739355    1648.9126  0.050948974   0.05061142            4 
 2698000   0.82279212   -4.3812074     1649.402  0.050945206  0.050600991            8 
 2699000   0.81116202    -4.365074    1649.9171  0.050942236   0.05059056            4 
 2700000   0.80594813   -4.3803701    1654.3754  0.051060969  0.050580115            6 
 2701000   0.81927777   -4.3569273    1649.0971  0.050879213   0.05056956            6 
 2702000   0.82421135   -4.3736679    1651.8267  0.050944569  0.050559117            3 
 2703000   0.81512608   -4.3817837    1654.8758  0.051019726  0.050548599            6 
 2704000   0.81301649   -4.3893868    1649.4919  0.050834934  0.050538123            7 
 2705000   0.82968122   -4.3665737    1650.3058  0.050841214  0.050527718            5 
 2706000   0.83111224   -4.3871705     1645.094  0.050661923  0.050517218            8 
 2707000    0.8412551   -4.3474261    1651.9225  0.050853421  0.050506683            2 
 2708000   0.82672202    -4.401471    1648.8883  0.050741269   0.05049621           13 
 2709000   0.83354102   -4.3737263    1643.7562  0.050564668  0.050485586            9 
 2710000   0.81348969   -4.3707997    1647.5072  0.050661354  0.050474985            1 
 2711000   0.82650857   -4.3754105    1653.3561  0.050822454   0.05046437            7 
 2712000   0.80024481   -4.3805173    1652.4924  0.050777175  0.050453852            5 
 2713000   0.82054351   -4.3674971    1651.4149  0.050725364  0.050443299            4 
 2714000    0.8138697   -4.3623489    1644.9339  0.050507672  0.050432715            8 
 2715000   0.81228066   -4.3618195     1649.431  0.050627103  0.050422124            3 
 2716000   0.81455539   -4.3599285     1650.548  0.050642735  0.050411698            6 
 2717000   0.81697887   -4.3860273    1650.8751  0.050634127  0.050401271            3 
 2718000   0.80058236   -4.3909875    1649.8486  0.050584028  0.050390717            3 
 2719000   0.80065337   -4.3929697    1655.9397  0.050752107  0.050380109            2 
 2720000   0.84225628   -4.3702186    1655.2586  0.050712581   0.05036961            6 
 2721000   0.82363335   -4.3864882     1645.636  0.050399241  0.050359172            5 
 2722000   0.82086262   -4.3881525    1654.4738  0.050651291  0.050348543            3 
 2723000   0.81806205   -4.3723508    1647.8457  0.050429847  0.050337919            7 
 2724000   0.82474762   -4.3671381     1648.863  0.050442456  0.050327277            6 
 2725000   0.82140299   -4.4174106    1645.7151   0.05032768  0.050316567           10 
 2726000   0.81399568   -4.3959757    1651.6283  0.050489983  0.050305945            3 
 2727000   0.81574862   -4.3610039     1651.722   0.05047433  0.050295303            7 
 2728000   0.81128882   -4.4024987    1651.6062  0.050452292  0.050284524            4 
 2729000   0.80045132   -4.3834623    1650.4189  0.050397547  0.050273839            6 
 2730000   0.82545486   -4.3858394    1654.3496  0.050499071  0.050263201            7 
 2731000   0.82334528   -4.3950805    1645.9766  0.050225087    0.0502525            7 
 2732000   0.80921186   -4.3998221    1646.4062  0.050219809  0.050241825            5 
 2733000   0.81477695   -4.3906074    1647.0803  0.050221986  0.050231044            5 
 2734000   0.80646073   -4.3636133    1650.3248  0.050302511  0.050220418            5 
 2735000   0.81971998   -4.4124055    1647.0119  0.050183177  0.050209693            4 
 2736000   0.81646969   -4.3740018    1652.0062  0.050316952  0.050198984            5 
 2737000   0.81896808   -4.3877716    1656.8353  0.050445601  0.050188306            4 
 2738000   0.80544434    -4.353337    1655.1969   0.05037731  0.050177538            3 
 2739000   0.79766144   -4.3787629    1654.4551   0.05033635  0.050166856           11 
 2740000   0.80955239   -4.3767158       1655.4  0.050346716  0.050156104            3 
 2741000   0.80852674    -4.385013    1651.1732  0.050199841  0.050145335            4 
 2742000   0.78694394   -4.3672437    1659.4125  0.050431938  0.050134619            5 
 2743000   0.83059138   -4.3879534     1654.242  0.050256472  0.050123884            4 
 2744000   0.82805558   -4.3991586    1657.1635   0.05032688  0.050113091           14 
 2745000   0.81848964   -4.3939822    1654.4945  0.050227521  0.050102209            4 
 2746000   0.82457816   -4.3872901    1654.2101  0.050200597  0.050091493            4 
 2747000   0.80641077   -4.3927493    1653.4051  0.050157904   0.05008083           16 
 2748000   0.81278727   -4.3782359    1659.5174  0.050325008  0.050070116            2 
 2749000   0.80478699   -4.3648806    1657.2842  0.050239003  0.050059356            8 
 2750000   0.79607116    -4.356441    1661.1928  0.050339177  0.050048689            6 
 2751000   0.80861998   -4.3872404    1654.7642  0.050126142  0.050038033            4 
 2752000   0.80782248   -4.4005149    1655.0864  0.050117683  0.050027367            7 
 2753000   0.81371044   -4.3838044    1661.3884   0.05029024  0.050016782            5 
 2754000   0.81865963   -4.3946362     1659.303  0.050208878     0.050006            5 
 2755000   0.80969541   -4.3781101    1657.1543  0.050125659  0.049995271            5 
 2756000   0.81680096   -4.3795744    1659.7123  0.050184819  0.049984581            5 
 2757000   0.80319076   -4.3684825    1666.3987   0.05036872  0.049973941            5 
 2758000    0.8159044   -4.3933096    1658.5865  0.050114408   0.04996331            5 
 2759000   0.81130106   -4.4006289    1661.6911  0.050190016  0.049952652            3 
 2760000   0.81458834    -4.387548    1661.9023  0.050178208  0.049941931            4 
 2761000   0.81291757   -4.3761746     1657.938  0.050040385  0.049931249            4 
 2762000   0.79913853   -4.3892586    1660.4148  0.050096995  0.049920527            7 
 2763000   0.80254077   -4.3965838    1658.6713  0.050026277  0.049909888            2 
 2764000   0.82338498   -4.3797449    1657.6089  0.049976149  0.049899105            5 
 2765000   0.81352637   -4.4163849    1662.9858  0.050120126  0.049888452            5 
 2766000   0.80042412   -4.4095951    1659.1817  0.049987398  0.049877684            6 
 2767000    0.8131017   -4.3970405    1658.7781  0.049957176   0.04986709            7 
 2768000    0.8003985   -4.4057533    1659.6653  0.049965839  0.049856399            8 
 2769000   0.83073466   -4.4070524    1659.6526  0.049947413  0.049845743            3 
 2770000    0.7944494   -4.3638259    1662.0925  0.050002783  0.049835204            3 
 2771000   0.79888667   -4.4026413    1661.5602   0.04996873  0.049824522            2 
 2772000   0.78066673   -4.4040802    1660.5184  0.049919383  0.049813786            6 
 2773000    0.8146946   -4.4145623    1666.0765  0.050068412  0.049803252            5 
 2774000   0.79747726   -4.3916697    1661.9031  0.049924991  0.049792837            5 
 2775000   0.80094617   -4.3963849    1664.7278  0.049991825  0.049782187            3 
 2776000   0.81182418   -4.4066159    1668.2947  0.050080894  0.049771807            6 
 2777000   0.82154886   -4.3841597     1670.766  0.050137019  0.049761302            7 
 2778000   0.79441851   -4.4020467    1672.5368   0.05017209  0.049750936           19 
 2779000   0.80741474   -4.4173111    1668.8733   0.05004418  0.049740544            5 
 2780000   0.82428296   -4.3941444    1669.0444  0.050031307   0.04973003            5 
 2781000   0.79677677   -4.4115275    1673.1678  0.050136875  0.049719522            7 
 2782000   0.81951368   -4.3965413    1666.6069  0.049922325  0.049709111            3 
 2783000   0.81117471   -4.4040914    1668.3591  0.049956855  0.049698662            7 
 2784000   0.81994915   -4.3745371    1672.7265  0.050069639  0.049688172            3 
 2785000   0.82553066   -4.3929332    1672.0069  0.050030128  0.049677651           13 
 2786000   0.79689988   -4.3959528    1670.7217  0.049973729  0.049667097            5 
 2787000    0.8207597     -4.38543    1671.8192  0.049988615  0.049656652            2 
 2788000   0.82455893   -4.3873787    1672.1329  0.049980059  0.049646262            8 
 2789000    0.8142878   -4.4065994     1668.147  0.049843045  0.049635665            3 
 2790000   0.79148397   -4.3999235    1672.1388  0.049944408  0.049625264            3 
 2791000   0.80956484   -4.4188158    1671.1022  0.049895562  0.049614866            6 
 2792000    0.8039702   -4.3862185    1672.9878  0.049933974  0.049604451            5 
 2793000   0.79553613   -4.3972516    1669.2763  0.049805354  0.049594096            3 
 2794000   0.80606044   -4.4104949    1672.1556  0.049873406  0.049583745            4 
 2795000   0.78366618   -4.4077555    1672.6048  0.049868955  0.049573211            5 
 2796000   0.80528042   -4.4088386    1667.0596  0.049685849  0.049562669            6 
 2797000   0.80424398    -4.400059      1668.96  0.049724706  0.049552361            4 
 2798000   0.80665399   -4.3778684    1671.5448  0.049783916   0.04954182            3 
 2799000   0.81905353   -4.4174448     1671.993  0.049779476  0.049531407            4 
 2800000   0.81484686    -4.397848    1676.6216  0.049899453  0.049520891            4 
 2801000   0.79053537   -4.3990413    1675.6342   0.04985226  0.049510521            4 
 2802000   0.81737395   -4.3930904    1674.8036  0.049809766  0.049500094            6 
 2803000   0.82171674   -4.3876569    1672.3776  0.049719871  0.049489677            4 
 2804000   0.80871429   -4.3820868    1678.4523  0.049882676  0.049479337            6 
 2805000   0.80310158   -4.3934138    1676.5135  0.049807293  0.049469005            4 
 2806000   0.80750525   -4.3993621    1675.4326  0.049757442    0.0494586            5 
 2807000   0.80083999   -4.3998482    1676.1301  0.049760423  0.049448218            5 
 2808000   0.78458246    -4.404691    1678.2198  0.049804718  0.049437811            2 
 2809000   0.80937962    -4.395387    1676.8919  0.049747594  0.049427314            4 
 2810000   0.78987593    -4.381942    1678.8416  0.049787709  0.049416918            5 
 2811000   0.79030375   -4.3799296    1679.6442  0.049793791  0.049406707            6 
 2812000   0.80219698   -4.4231936    1674.5707  0.049625732  0.049396398            5 
 2813000   0.81224835   -4.4117396    1671.4197  0.049514745  0.049385913            4 
 2814000    0.7944453   -4.4105221    1677.1555  0.049667006  0.049375592            7 
 2815000   0.79627858   -4.4059729    1677.7972   0.04966836  0.049365164            4 
 2816000    0.8149831   -4.4046719    1673.7622  0.049531317  0.049354831            5 
 2817000   0.80330666   -4.4049813    1675.0664  0.049552312   0.04934453            4 
 2818000   0.80797465   -4.4241708    1682.0067  0.049739966  0.049334237            8 
 2819000   0.80374106   -4.4229422     1679.265  0.049641274   0.04932392            4 
 2820000   0.79315605   -4.3810385    1679.7375  0.049637634  0.049313589            2 
 2821000   0.78728881   -4.4336946    1678.9145  0.049595725  0.049303328            7 
 2822000   0.80571213   -4.4028774    1690.2149  0.049911851  0.049293193           11 
 2823000   0.79619541   -4.4270139    1681.2719  0.049630179  0.049282974            4 
 2824000   0.80814927   -4.4184917    1679.2357  0.049552517  0.049272703           14 
 2825000   0.78678255   -4.3995431    1683.6093   0.04966399  0.049262455            5 
 2826000   0.79333955   -4.4088313     1685.215  0.049693766  0.049252136            4 
 2827000   0.79766871   -4.4044719    1681.6213  0.049570255  0.049241928            5 
 2828000   0.79282777   -4.4008878    1687.0121  0.049711577  0.049231757            4 
 2829000   0.80217478   -4.4113111    1686.0461   0.04966555   0.04922155            6 
 2830000   0.79989382   -4.3871635     1683.605  0.049576119  0.049211297           10 
 2831000   0.79627188   -4.4253543     1681.148  0.049486284  0.049201106            7 
 2832000   0.79702783   -4.3920082    1681.2426  0.049471593  0.049190899            4 
 2833000   0.80466095   -4.4145309    1680.1882  0.049423113  0.049180745            5 
 2834000    0.8000956   -4.3979793    1685.9615  0.049575437  0.049170606            5 
 2835000   0.80957089   -4.4201848    1679.2766  0.049361451  0.049160352            9 
 2836000   0.79609232   -4.4186937    1681.2132  0.049400952  0.049149988            6 
 2837000   0.78469649   -4.3985955    1684.5427   0.04948134  0.049139692            4 
 2838000    0.7957664   -4.4095996    1683.8565  0.049443754  0.049129439            6 
 2839000   0.80345263   -4.4289207    1679.0698  0.049285834  0.049119177            5 
 2840000   0.79460155   -4.4211581    1682.1718  0.049359502  0.049108731            5 
 2841000   0.80026804   -4.4209371    1678.6445  0.049238664  0.049098456            4 
 2842000   0.80783327   -4.4438517    1682.1823  0.049325073  0.049088027            5 
 2843000   0.81059065   -4.4110828    1679.2557  0.049221939  0.049077686            2 
 2844000   0.79315152    -4.408036    1684.5445  0.049359603  0.049067182            3 
 2845000   0.80674456    -4.405447    1686.2516  0.049392256  0.049056785            3 
 2846000   0.79489754   -4.3945802    1687.0993   0.04939972  0.049046354            3 
 2847000   0.78072276   -4.4235119    1682.8335  0.049257507  0.049036012           22 
 2848000   0.80013075   -4.4095807    1685.8671  0.049328976  0.049025519            8 
 2849000   0.79565631   -4.4234379    1693.1715  0.049525317  0.049015203            3 
 2850000   0.80254803     -4.41688    1690.0901   0.04941784  0.049004831            5 
 2851000   0.79187761   -4.4384178    1681.7932  0.049157992  0.048994437            5 
 2852000   0.79428005   -4.4091859    1690.3111  0.049389642  0.048984055            4 
 2853000   0.79388046   -4.4236259    1679.6858  0.049061974  0.048973608            5 
 2854000   0.80369341   -4.4222716    1686.4201  0.049241419  0.048963151            4 
 2855000    0.7857623   -4.4124585    1691.6781  0.049377646  0.048952815            5 
 2856000   0.78992852   -4.4118453    1690.8924  0.049337429  0.048942548            4 
 2857000   0.79393093   -4.4169263    1686.6919  0.049197641   0.04893223            4 
 2858000   0.80817721   -4.4241727    1686.1199  0.049163747  0.048921915            4 
 2859000   0.79068086   -4.3916961     1687.984  0.049200887  0.048911505            4 
 2860000   0.80934054    -4.416603     1690.477  0.049256323  0.048901145            5 
 2861000   0.79426387   -4.4059826     1689.926  0.049223058  0.048890761            6 
 2862000   0.79996623   -4.4359829    1677.0486  0.048830905  0.048880299            5 
 2863000   0.80154974   -4.4340485    1687.8349  0.049127807  0.048869773            3 
 2864000   0.80156832   -4.4414946    1683.7572  0.048992005  0.048859331            6 
 2865000   0.80428675   -4.4129778    1689.5507  0.049143416  0.048848921           11 
 2866000   0.79896856   -4.4150826    1690.7619  0.049161487  0.048838475           11 
 2867000   0.80876048   -4.4284046    1686.5973  0.049023291     0.048828            3 
 2868000    0.7987538   -4.4230699    1691.0047   0.04913426  0.048817698            5 
 2869000   0.80343296    -4.415481    1689.2183  0.049065247  0.048807201            6 
 2870000   0.78863469   -4.4448516    1683.9013  0.048893767  0.048796776            3 
 2871000   0.79026371   -4.4315373    1693.1935  0.049146449  0.048786296            5 
 2872000   0.78461975   -4.4263036    1687.8226  0.048973497  0.048775876            6 
 2873000   0.79375482   -4.4204475    1691.3237  0.049058001  0.048765518            4 
 2874000   0.80411358   -4.4190147    1693.7526  0.049111359  0.048755095            7 
 2875000   0.79489244   -4.4147471    1688.7619  0.048949619  0.048744647            6 
 2876000   0.80381479   -4.4380015    1687.7469   0.04890319  0.048734208            6 
 2877000   0.78523712   -4.4127186    1683.8218    0.0487725  0.048723715            8 
 2878000   0.80095298   -4.4271907    1687.4712  0.048861224  0.048713273           10 
 2879000   0.79890502   -4.4269767    1689.1403  0.048892563  0.048702778            2 
 2880000   0.79561757   -4.4165734    1688.9497  0.048870073  0.048692267            5 
 2881000   0.78597896   -4.4294566    1690.6539  0.048902403  0.048681791            6 
 2882000   0.79285403   -4.4347973    1695.3559  0.049021396  0.048671277           11 
 2883000   0.79974986   -4.4108808    1689.7841  0.048843338  0.048660787            3 
 2884000    0.7898037   -4.4341759    1695.8401  0.049001389  0.048650429            5 
 2885000     0.795668   -4.4317761    1687.8524  0.048753681  0.048639853            6 
 2886000   0.79505699    -4.443162    1687.5183   0.04872714  0.048629366            5 
 2887000   0.78689557   -4.4293293    1690.4337  0.048794416   0.04861884           10 
 2888000   0.77489968   -4.4320481    1691.3997  0.048805394  0.048608271            6 
 2889000   0.79420902   -4.4420527    1689.4585  0.048732506  0.048597675            6 
 2890000   0.78469051    -4.406012    1694.3991  0.048858107  0.048586973            3 
 2891000   0.77781879   -4.4235434    1697.7618  0.048938136  0.048576478            4 
 2892000   0.78841565   -4.3999429    1697.4986   0.04891363  0.048565981            6 
 2893000    0.7953637   -4.4263511    1695.2529  0.048832033  0.048555523            5 
 2894000   0.79393829   -4.4169983    1693.5084  0.048764928  0.048544867            6 
 2895000   0.78242953   -4.4210644    1693.2853   0.04874166  0.048534257            4 
 2896000   0.79009026   -4.4118898    1690.8616  0.048655086  0.048523693            3 
 2897000   0.79408406   -4.4244118    1700.8877  0.048926698  0.048513206            8 
 2898000     0.780061   -4.4217193    1693.3101  0.048691918   0.04850271            3 
 2899000   0.78468299   -4.4384625    1702.4302  0.048937283  0.048492216            6 
 2900000   0.79540427   -4.4220919    1692.9854  0.048649006  0.048481637            4 
 2901000   0.79166998   -4.4304934    1698.8393  0.048800392  0.048471028            5 
 2902000   0.77392064    -4.418534    1696.9072  0.048728096  0.048460484            4 
 2903000   0.77766859   -4.4321311    1694.3879  0.048638991  0.048449989            7 
 2904000   0.79043223   -4.4310895     1696.734  0.048689567  0.048439479           11 
 2905000   0.79303287   -4.4200543    1695.5716  0.048639461  0.048429022            4 
 2906000   0.80682013   -4.4439578     1692.972  0.048548177  0.048418585            6 
 2907000   0.78906799   -4.4078745    1695.8664  0.048614448  0.048408066            7 
 2908000   0.78476514   -4.4464008    1695.8316  0.048596734   0.04839752            4 
 2909000   0.79003383   -4.4167318    1697.4101  0.048625247  0.048386844            8 
 2910000   0.77881999   -4.4362039     1699.881  0.048679295  0.048376296            5 
 2911000   0.78686944   -4.4162188    1698.2171  0.048614939  0.048365733            5 
 2912000   0.78006547   -4.4579616    1694.8168   0.04850094  0.048355238            6 
 2913000   0.76888048   -4.4487096    1695.9805  0.048517579  0.048344612            4 
 2914000    0.7836647   -4.4465417     1697.408  0.048541751  0.048334064           12 
 2915000   0.78105358   -4.4603717    1696.4299  0.048497137  0.048323488           11 
 2916000   0.79865439   -4.4256495    1696.8944  0.048493782  0.048313027            7 
 2917000   0.77279138   -4.4471115      1700.64  0.048584162  0.048302545            6 
 2918000   0.77639172   -4.4554135     1695.706  0.048426605  0.048292024            7 
 2919000   0.79916175   -4.4343607    1701.8176  0.048584491  0.048281594            7 
 2920000   0.78601192   -4.4372175    1700.1813  0.048521157  0.048271189           10 
 2921000    0.7974723   -4.4424898    1700.6241  0.048517177  0.048260703            6 
 2922000   0.77731578   -4.4498256    1698.2106  0.048431743  0.048250348            3 
 2923000   0.79034289   -4.4430488    1702.1484  0.048527437  0.048239924            3 
 2924000   0.78260448   -4.4552773    1699.9272  0.048447538  0.048229542            3 
 2925000   0.78612728   -4.4555317    1701.8043  0.048484452  0.048219136            3 
 2926000   0.77926932   -4.4489783    1698.8891  0.048384856  0.048208618            4 
 2927000    0.8083573    -4.455253    1701.3214  0.048437576  0.048198261            3 
 2928000   0.78511947   -4.4404801    1709.3009  0.048648136  0.048187924            3 
 2929000   0.76903975   -4.4592997    1697.6433  0.048299856  0.048177504           10 
 2930000     0.792009    -4.468472    1702.3855  0.048418245  0.048167061            6 
 2931000   0.78841165    -4.437895    1705.8264  0.048499556  0.048156719            2 
 2932000   0.78264913   -4.4593741     1702.396  0.048385516  0.048146368            6 
 2933000   0.79353476   -4.4432805    1703.0366   0.04838722  0.048136028            9 
 2934000   0.79823411   -4.4271403    1711.0216  0.048597523  0.048125825            6 
 2935000   0.77391635    -4.446608    1702.2896  0.048333039  0.048115584           15 
 2936000   0.79581811   -4.4216257    1707.5987  0.048467266  0.048105376            5 
 2937000   0.77997913   -4.4282478    1709.7519  0.048511856  0.048095203            3 
 2938000   0.78819985   -4.4388506    1714.9042  0.048641484  0.048084921            6 
 2939000   0.78623985    -4.445303    1707.8455  0.048424789  0.048074599            7 
 2940000   0.78124608   -4.4704529    1709.4006  0.048452398   0.04806429            3 
 2941000   0.78228396   -4.4579268    1708.1562  0.048400664  0.048054072            8 
 2942000   0.77536623   -4.4313508    1713.4474  0.048534088  0.048043889            4 
 2943000   0.78123484   -4.4418603    1710.8104  0.048442927  0.048033694            4 
 2944000   0.78443433   -4.4520325    1710.2865  0.048411643  0.048023532            6 
 2945000   0.79240105   -4.4512644    1709.7793  0.048380851  0.048013441            5 
 2946000   0.78145198   -4.4363511    1712.9856  0.048455126  0.048003287            5 
 2947000   0.78090132   -4.4455887    1708.1477   0.04830188  0.047993181            4 
 2948000   0.76937232   -4.4601618    1700.3473  0.048064997  0.047982976            5 
 2949000   0.79905345   -4.4294353    1712.9201  0.048403983  0.047972764            5 
 2950000   0.79700908   -4.4564727    1708.3959  0.048259771  0.047962467            3 
 2951000   0.76424955   -4.4285788    1715.1441  0.048433979  0.047952248            7 
 2952000   0.77226339   -4.4467474    1710.8397  0.048296062  0.047942027            3 
 2953000   0.78724975   -4.4499246    1711.9664  0.048311501  0.047931714            5 
 2954000   0.79188158   -4.4148239    1716.0299   0.04840978  0.047921522            6 
 2955000   0.78333013   -4.4471882    1716.9368  0.048418974  0.047911511            3 
 2956000   0.80201694   -4.4353332    1716.6213  0.048393699  0.047901347            6 
 2957000   0.76760226    -4.445115    1714.6832  0.048322713  0.047891071            7 
 2958000   0.77759473   -4.4381428    1711.3632  0.048212845  0.047880794            7 
 2959000   0.78884693   -4.4300936     1715.028  0.048299763  0.047870539            9 
 2960000   0.79276675   -4.4627993     1710.897  0.048167145  0.047860234            6 
 2961000   0.77571006   -4.4436423     1715.127  0.048269926  0.047850014            3 
 2962000   0.77190709   -4.4608395    1714.1135  0.048225115  0.047839847           10 
 2963000   0.79036607   -4.4370941    1717.8455    0.0483138  0.047829653            6 
 2964000    0.7633867   -4.4696332    1713.6629  0.048179907  0.047819456            4 
 2965000    0.7632836     -4.45319    1716.5534  0.048244895  0.047809324            5 
 2966000    0.7750137   -4.4605561    1711.6666  0.048091328  0.047799138            5 
 2967000   0.77817341   -4.4420534    1720.8518  0.048333104  0.047788927            6 
 2968000   0.77969254   -4.4675214    1714.7707  0.048146078  0.047778683            7 
 2969000   0.77812143   -4.4377568    1714.2361  0.048114855   0.04776843            8 
 2970000   0.78041468   -4.4452969    1720.8632  0.048284601  0.047758165            4 
 2971000   0.76739813   -4.4399902    1715.0613  0.048105613  0.047747981           10 
 2972000   0.75302577   -4.4467176    1715.1507  0.048091934  0.047737795            4 
 2973000   0.77091384   -4.4487995    1714.5903  0.048060048  0.047727477            5 
 2974000   0.77999496   -4.4856324    1713.2253  0.048005639  0.047717216           10 
 2975000   0.77680271   -4.4510055    1713.3155  0.047992032  0.047706939            7 
 2976000   0.77624957   -4.4466116    1717.1519   0.04808333   0.04769667            4 
 2977000   0.77463026   -4.4670926    1721.5119  0.048189227  0.047686426            9 
 2978000   0.79176854   -4.4628717    1716.0974  0.048021531  0.047676266           11 
 2979000   0.77353189   -4.4550375     1718.939  0.048084899  0.047666161            4 
 2980000   0.77429882   -4.4738528    1718.0661  0.048044355  0.047656003            7 
 2981000   0.76555891    -4.476832    1717.5649  0.048014225  0.047645779            5 
 2982000   0.77478346   -4.4278996    1718.1391  0.048014172  0.047635611            6 
 2983000   0.77303977   -4.4404948    1722.6314  0.048123574  0.047625473           12 
 2984000   0.79134683   -4.4724622    1718.0342   0.04797906  0.047615254            5 
 2985000   0.75822972   -4.4542238    1714.4855  0.047863917  0.047604986            4 
 2986000   0.76755043   -4.4160082    1717.7358  0.047938596  0.047594727            8 
 2987000   0.76350632    -4.456249    1719.4919  0.047971541  0.047584584            4 
 2988000    0.7753929   -4.4582018    1719.4333   0.04795385  0.047574237            9 
 2989000   0.77578975   -4.4695782    1720.4573  0.047966356  0.047564055            4 
 2990000   0.76933751   -4.4705637    1714.7217  0.047790461  0.047553797            4 
 2991000   0.75281382   -4.4404628    1717.8389   0.04786133  0.047543399            6 
 2992000   0.78104715   -4.4390851    1720.0831  0.047907841  0.047533102            4 
 2993000   0.77430318    -4.456757    1711.5721  0.047654864  0.047522776            5 
 2994000   0.78901423   -4.4573264    1717.1054  0.047792958  0.047512409            8 
 2995000   0.78914204   -4.4759626    1713.1916  0.047668102  0.047502074            4 
 2996000   0.76784238    -4.477033    1720.2972  0.047849832  0.047491756            3 
 2997000   0.78160984   -4.4597565     1720.634  0.047843233  0.047481471            7 
 2998000   0.78200053   -4.4761754     1718.825   0.04777699  0.047471189            8 
 2999000   0.77180499   -4.4325843    1723.9811  0.047904331  0.047460912            3 
 3000000    0.7674456   -4.4856531    1713.4361  0.047595448  0.047450555           10 
 3001000   0.75392067   -4.4623992    1715.7737    0.0476445  0.047440155            5 
 3002000   0.76848879   -4.4545554     1722.853  0.047825144  0.047429917            5 
 3003000     0.792284   -4.4486689    1724.1796  0.047846032  0.047419692            4 
 3004000   0.78143629   -4.4455206    1721.4937  0.047755594  0.047409476            3 
 3005000   0.78505533   -4.4754765    1718.7354  0.047663211  0.047399185            9 
 3006000   0.76615171   -4.4638608    1716.5264  0.047586116  0.047388833           11 
 3007000   0.74733557   -4.4866972     1722.038  0.047723036  0.047378491           13 
 3008000   0.76807366   -4.4682652    1722.6986  0.047725471  0.047368087            5 
 3009000   0.77093363   -4.4994779    1720.1253  0.047638342  0.047357669            5 
 3010000   0.77496644   -4.4499508    1720.9375  0.047645002  0.047347268            6 
 3011000    0.7788238   -4.4275819    1723.7049   0.04770577   0.04733687            3 
 3012000   0.76254177   -4.4715015    1718.0069  0.047532285  0.047326532            3 
 3013000   0.76999964    -4.472944    1721.6107  0.047616183  0.047316123            5 
 3014000   0.76474093    -4.455944    1720.8853  0.047580328   0.04730577            6 
 3015000   0.78178576   -4.4468458    1725.9646  0.047704937  0.047295335            3 
 3016000   0.76478541   -4.4818365    1723.1343  0.047610917  0.047284863            4 
 3017000    0.7613544   -4.4655887    1715.5651  0.047386066  0.047274447            4 
 3018000    0.7572214   -4.4573561    1719.4634  0.047478005  0.047263921            4 
 3019000   0.77220056   -4.4572766    1721.5497  0.047519866  0.047253495            8 
 3020000   0.77230184   -4.4758438    1722.8341  0.047539572  0.047243036           14 
 3021000   0.75313567   -4.4628409    1719.7485  0.047438721  0.047232522            6 
 3022000   0.75713093   -4.4733604    1726.3026  0.047603757  0.047222024            3 
 3023000   0.75474822   -4.4586292    1721.4208  0.047453435   0.04721158            5 
 3024000   0.78291285   -4.4698924    1724.0463  0.047510095  0.047201278           10 
 3025000   0.76597538   -4.4653908    1716.8135  0.047295137   0.04719076            4 
 3026000   0.76876044   -4.4848945    1720.6238  0.047384439  0.047180328            6 
 3027000   0.76504787   -4.4962393     1718.394  0.047307399  0.047169694            4 
 3028000   0.78251007   -4.4987806    1721.0272  0.047364244  0.047159175            6 
 3029000    0.7826395   -4.4719556    1720.0248  0.047321029  0.047148641            4 
 3030000   0.77296063   -4.4900592    1722.2338  0.047366167  0.047138197            5 
 3031000   0.78774171   -4.4616873    1724.8121  0.047421425  0.047127809            7 
 3032000   0.78506571   -4.4551735    1724.9388  0.047409269  0.047117335            4 
 3033000   0.75356566   -4.4651148    1721.5972  0.047301825  0.047106878            4 
 3034000   0.75310211   -4.4916738    1724.1079  0.047355195  0.047096443            5 
 3035000   0.76983432   -4.4909731    1723.3408  0.047318529  0.047085917            4 
 3036000   0.76579519   -4.4280785     1727.684  0.047422156   0.04707561            5 
 3037000   0.76369853   -4.4667769    1725.9762  0.047359681   0.04706533            3 
 3038000   0.75334014   -4.5048608    1725.1618  0.047321752  0.047054935            4 
 3039000   0.76851504   -4.4802612    1725.3829  0.047312243  0.047044452            7 
 3040000   0.78231041   -4.5146544    1720.3659  0.047159153  0.047033998            8 
 3041000   0.77186754   -4.4554479    1729.6878  0.047399094  0.047023552           10 
 3042000   0.77635852   -4.4864757    1728.3975  0.047348167  0.047013177            3 
 3043000   0.76038693   -4.4929022    1725.5627  0.047254975  0.047002721            3 
 3044000   0.76440038   -4.4628945     1725.191  0.047229277   0.04699233            5 
 3045000   0.76278274   -4.4797126     1724.011  0.047181473  0.046981859            6 
 3046000    0.7691575   -4.4613959    1728.2813   0.04728281  0.046971501            3 
 3047000   0.76235822   -4.5082478    1722.6652  0.047113696  0.046961083            4 
 3048000   0.76130264   -4.4859392    1732.8878  0.047377729  0.046950684            4 
 3049000   0.75054327   -4.4799244    1726.1682  0.047178533  0.046940312            4 
 3050000   0.74649751   -4.4709652     1731.243  0.047301721  0.046930084            6 
 3051000   0.74635817     -4.45993    1729.6464  0.047242608  0.046919827            5 
 3052000   0.75976919   -4.5098096    1726.1758  0.047132367   0.04690946            8 
 3053000   0.77309675   -4.4679096    1731.2426  0.047255229  0.046899176            9 
 3054000   0.75698485   -4.4896465    1729.3547  0.047188241  0.046888885            5 
 3055000    0.7603037   -4.4863225    1727.8293  0.047131187  0.046878451            4 
 3056000   0.75963526   -4.4586478    1730.5819  0.047190823  0.046868119            3 
 3057000   0.76638512   -4.4955703    1730.0076  0.047159731  0.046857858            5 
 3058000   0.77542344   -4.4855245    1729.6936  0.047135752  0.046847554            3 
 3059000    0.7680789   -4.4688692    1729.8633  0.047124967  0.046837183            7 
 3060000   0.77350699   -4.4692285    1727.7507  0.047052033  0.046826907            3 
 3061000   0.77272307   -4.4709627    1734.6413  0.047224254  0.046816667            5 
 3062000   0.76343502   -4.4830268     1731.376  0.047119966   0.04680633            7 
 3063000   0.76047152   -4.4873661    1726.3363  0.046967469  0.046795943            7 
 3064000   0.77495124   -4.4542642    1732.6016   0.04712254  0.046785691            7 
 3065000   0.76309508   -4.4643975     1735.276  0.047179881  0.046775398            5 
 3066000   0.76241999   -4.4773166    1736.5305  0.047198588  0.046765063            5 
 3067000   0.76578027   -4.4649988    1737.9185  0.047220913  0.046754803            4 
 3068000   0.74004813   -4.4826968    1731.6203  0.047034449  0.046744495            5 
 3069000   0.76394398   -4.4983744    1728.4913  0.046934162    0.0467342           10 
 3070000   0.76621807   -4.4861979    1733.4222  0.047052719  0.046723813            2 
 3071000   0.77177442   -4.4856249      1737.84  0.047157279  0.046713456            5 
 3072000   0.78062758   -4.4860493    1738.5588  0.047161425  0.046703238           11 
 3073000   0.76098203   -4.4830926    1735.5774   0.04706523  0.046693006            7 
 3074000   0.75525651   -4.4930987    1737.0626  0.047090181  0.046682832            5 
 3075000    0.7618091   -4.4769418    1740.5517  0.047169422  0.046672659           12 
 3076000   0.75252244   -4.4843069    1734.3189  0.046985232  0.046662473            8 
 3077000   0.75888614   -4.4909086    1737.2485  0.047049305  0.046652274           11 
 3078000   0.76850707   -4.4902787    1735.5906  0.046989132  0.046642088            7 
 3079000   0.74329715   -4.4967841    1730.8661  0.046846003  0.046631796            3 
 3080000   0.76093531   -4.4925257    1732.2612   0.04686854  0.046621496            2 
 3081000   0.75732682   -4.4988479    1733.4588   0.04688572   0.04661126            6 
 3082000   0.74576674   -4.4912564     1737.305  0.046974502  0.046601013           11 
 3083000   0.75670513    -4.504038    1739.7368  0.047024998  0.046590588            7 
 3084000   0.76532087   -4.4773367    1734.9795  0.046881201  0.046580319           11 
 3085000   0.75974223   -4.4891665    1734.3528  0.046849077  0.046570006            5 
 3086000   0.77073429    -4.495097    1734.4766  0.046837238  0.046559734            9 
 3087000   0.75237142   -4.4993602    1736.4142  0.046874371  0.046549554           12 
 3088000   0.75519261   -4.4658786    1738.4082  0.046913002    0.0465394            4 
 3089000   0.76948307   -4.4890208    1733.4798  0.046764859  0.046529174           12 
 3090000    0.7781177   -4.4782071    1736.2064  0.046823257   0.04651898            8 
 3091000   0.77314088   -4.4958997    1738.8258  0.046878728   0.04650868            4 
 3092000   0.76217422   -4.4861741    1736.6628  0.046805272  0.046498416            4 
 3093000    0.7534604   -4.4698264    1741.9676  0.046933065  0.046488224            4 
 3094000   0.76271874   -4.4873723     1742.764  0.046939346  0.046477986            4 
 3095000    0.7450924   -4.4760103    1742.0369  0.046904602  0.046467694            2 
 3096000    0.7519658   -4.5122919    1737.9359  0.046779066  0.046457429            8 
 3097000   0.74904954   -4.5178041    1737.0467  0.046740036   0.04644719            8 
 3098000   0.74753071   -4.5070188    1743.8273  0.046907342  0.046436991            5 
 3099000    0.7519406   -4.5021053    1738.7665  0.046756119  0.046426662            4 
 3100000   0.74804291   -4.4728098    1742.1533  0.046832079  0.046416398            9 
 3101000   0.75748095   -4.4741754    1742.5122  0.046826619  0.046406143            5 
 3102000    0.7505671   -4.4705009    1742.4731  0.046810473  0.046395862           11 
 3103000   0.74624303   -4.4872545    1742.4181  0.046793913  0.046385695            8 
 3104000   0.74753684   -4.4966999    1742.4043  0.046778466  0.046375449            3 
 3105000   0.76141962   -4.5017509    1738.1779  0.046649969  0.046365215            6 
 3106000   0.75211949   -4.4794268    1740.1733  0.046688487   0.04635496            8 
 3107000   0.74368382   -4.5096779    1738.8766  0.046638681  0.046344775            6 
 3108000   0.72848023    -4.488306    1741.0707  0.046682506  0.046334615            4 
 3109000   0.75693077   -4.4985562    1741.9336  0.046690618  0.046324383            6 
 3110000   0.75769597   -4.5017933    1744.1147  0.046734048  0.046314182            6 
 3111000   0.75892631   -4.4925151    1735.8963  0.046498884  0.046303917            5 
 3112000   0.76480314   -4.4977402    1736.8277  0.046508883   0.04629366            5 
 3113000   0.75112883   -4.5051364    1740.3003  0.046586902  0.046283378            4 
 3114000   0.76207707   -4.4983299    1741.7318   0.04661025  0.046273074            5 
 3115000   0.75201441   -4.5130279    1737.8436  0.046491267  0.046262876           11 
 3116000   0.78024184    -4.504037    1744.0513  0.046642365  0.046252602            7 
 3117000   0.75463834   -4.5231427    1744.4213  0.046637293  0.046242422            8 
 3118000    0.7532156   -4.5292694    1738.1328  0.046454266  0.046232143           10 
 3119000   0.73967156   -4.5208162    1736.4715  0.046394984  0.046221787            7 
 3120000   0.75994828   -4.5036834    1743.9441  0.046579704  0.046211504            9 
 3121000     0.755883   -4.5159982    1739.4986  0.046446082  0.046201236            5 
 3122000   0.74012568   -4.5189479    1739.9281  0.046442668  0.046190909            6 
 3123000   0.75379801    -4.507606    1738.8343   0.04639861  0.046180636            9 
 3124000   0.77711156    -4.468462    1743.8883  0.046518575  0.046170437            7 
 3125000   0.74310325   -4.5201199    1741.0144  0.046427051   0.04616005            6 
 3126000   0.75092405   -4.4876829    1742.3461    0.0464477  0.046149724            2 
 3127000   0.74207158   -4.5050038    1742.4903  0.046436688  0.046139495            7 
 3128000   0.76292067   -4.4935163    1741.2712  0.046389365  0.046129264            6 
 3129000   0.74772302   -4.5102594    1750.0601  0.046608609  0.046119112            7 
 3130000    0.7387987   -4.4911881    1744.2449  0.046438896  0.046108909            3 
 3131000    0.7551362   -4.5131789    1743.1992  0.046396232  0.046098586           10 
 3132000   0.73756742   -4.5111725    1747.1442  0.046486383  0.046088314           14 
 3133000   0.75372866   -4.5104972    1745.6996   0.04643312  0.046077945            3 
 3134000   0.72870668   -4.5133002     1744.805  0.046394517  0.046067675            5 
 3135000   0.75235283   -4.5067772    1740.5532  0.046266698  0.046057294            6 
 3136000   0.75220038   -4.5083234    1743.9468  0.046342123  0.046046919            7 
 3137000   0.75582735   -4.4924118    1744.7089  0.046347596  0.046036644            7 
 3138000   0.74144806   -4.5099718    1742.4355  0.046272453  0.046026381            6 
 3139000    0.7407565   -4.4988823    1740.9856  0.046219221  0.046015952            9 
 3140000   0.74864503   -4.4953467    1744.2224  0.046290402  0.046005579            4 
 3141000   0.75603112    -4.493424    1745.3034  0.046304345  0.045995312           10 
 3142000   0.73368446   -4.4931524     1748.273  0.046368369  0.045985014            6 
 3143000   0.75568819    -4.509482    1743.2464  0.046220343  0.045974648            5 
 3144000   0.75425188    -4.499893     1740.443  0.046131334  0.045964313            5 
 3145000   0.74394307   -4.4985626     1744.731  0.046230285  0.045954041            4 
 3146000   0.75865911     -4.51711    1743.7228  0.046188884  0.045943783            5 
 3147000   0.74445628   -4.4932985    1744.7879  0.046202413  0.045933485            5 
 3148000   0.73266167   -4.5060572    1745.2385  0.046199664  0.045923311            5 
 3149000   0.73972889   -4.5062376    1750.6603  0.046328473  0.045913015            4 
 3150000   0.74897009   -4.4947417    1751.2492  0.046329345   0.04590273            8 
 3151000   0.74297245   -4.4910644    1741.2444  0.046050047  0.045892448            6 
 3152000   0.74306442   -4.5015839    1753.4536  0.046358228  0.045882133            5 
 3153000   0.74158734   -4.4855555    1746.0282  0.046147272  0.045871919            7 
 3154000   0.72551263   -4.4960163    1749.5376  0.046225366  0.045861678            6 
 3155000   0.75219731   -4.4987749    1749.9184  0.046220772  0.045851502            4 
 3156000   0.74700099   -4.5120517    1752.4962  0.046274193  0.045841301            6 
 3157000   0.74292363    -4.530834    1748.5991  0.046156665  0.045831099            8 
 3158000   0.74962284   -4.5102856    1751.0561  0.046206885  0.045820935            5 
 3159000   0.74216495   -4.5042931    1747.7979  0.046106309  0.045810706            5 
 3160000   0.75534899   -4.5206265    1748.0546  0.046098487  0.045800451            9 
 3161000   0.75348643   -4.4947988    1751.5821  0.046176897  0.045790305            6 
 3162000   0.74693185   -4.5223429    1744.2775  0.045969785  0.045780055            4 
 3163000   0.72845543   -4.5264836    1753.8416   0.04620723  0.045769854            6 
 3164000   0.75025176   -4.5142239    1754.6523  0.046213978  0.045759649            6 
 3165000   0.75356471   -4.5164624     1754.608   0.04619821  0.045749444           11 
 3166000   0.76286426   -4.5023359    1747.6893  0.046001509  0.045739188            3 
 3167000   0.74513718   -4.5120411    1747.8013  0.045989931  0.045728942            5 
 3168000   0.74533447   -4.5053014     1746.847   0.04595031  0.045718754            6 
 3169000   0.75065398   -4.5111318    1750.2869  0.046026268  0.045708524            4 
 3170000   0.74074676   -4.4976858    1757.3417  0.046197205  0.045698355            6 
 3171000   0.73530149   -4.5028828    1749.5513  0.045977906   0.04568803            6 
 3172000   0.73422636   -4.5180401    1751.7138  0.046020225  0.045677776            3 
 3173000   0.74879717   -4.4914746    1756.5991  0.046134024   0.04566754            7 
 3174000   0.73507766   -4.5055424    1756.8605  0.046126353  0.045657273            6 
 3175000   0.72836732   -4.5047837    1756.2394  0.046095522  0.045647175            7 
 3176000   0.74584999   -4.5347688    1750.8025  0.045938354    0.0456369            3 
 3177000   0.74537924   -4.4853674    1757.1817   0.04609122  0.045626798            9 
 3178000   0.73953903   -4.5291131    1752.7298  0.045959981  0.045616655            5 
 3179000   0.71473401   -4.5310811    1753.2722  0.045959742  0.045606439            5 
 3180000   0.74392111   -4.5262355    1752.6511  0.045929012   0.04559623            6 
 3181000    0.7356599   -4.5431199    1755.5864  0.045991471  0.045586077           13 
 3182000     0.731198   -4.5203743     1757.542  0.046028232  0.045575936           10 
 3183000   0.74679978   -4.5178179    1756.8938  0.045996802    0.0455658            8 
 3184000   0.73864753   -4.5143967     1752.815  0.045875601  0.045555641            5 
 3185000   0.72968303   -4.5242761    1753.1617   0.04587027  0.045545496            4 
 3186000   0.74115551   -4.5153323    1758.1658  0.045986759  0.045535316           13 
 3187000   0.74258669   -4.4838887    1756.6998  0.045933998  0.045525118            7 
 3188000   0.75381305   -4.5073849    1756.0656  0.045903011  0.045514985            4 
 3189000   0.72272699   -4.5250977    1758.1226   0.04594237  0.045504792            6 
 3190000   0.72009117   -4.5190826    1752.2135  0.045773603  0.045494714            4 
 3191000   0.75960357    -4.510975      1758.54  0.045924474  0.045484648            7 
 3192000   0.74579894   -4.5075304    1760.7849  0.045968696  0.045474623            7 
 3193000   0.73263642   -4.5195064    1763.7069  0.046030558  0.045464635           22 
 3194000   0.76169076   -4.5284976    1762.6976  0.045989813  0.045454629            5 
 3195000   0.73097277   -4.5304432    1756.4075  0.045811359  0.045444532            3 
 3196000   0.72945281   -4.5341897    1760.1718  0.045895176  0.045434386            8 
 3197000    0.7513782   -4.5022208    1756.2218   0.04577786  0.045424207            7 
 3198000    0.7477053   -4.5414491    1757.1318  0.045787257  0.045414063            5 
 3199000   0.74785389   -4.5386269    1761.5333  0.045887604  0.045404072            9 
 3200000   0.74128667   -4.5476574    1754.2977  0.045684835  0.045393944           11 
 3201000   0.73911438   -4.5320841    1757.8355  0.045762666    0.0453838            4 
 3202000   0.73447565   -4.5163904    1759.2306   0.04578468  0.045373711            3 
 3203000   0.73766018   -4.4993757    1761.1106    0.0458193  0.045363637            3 
 3204000   0.73462903    -4.519287    1763.1182  0.045857216  0.045353532            8 
 3205000   0.71804528    -4.528257     1750.535  0.045515731  0.045343381            4 
 3206000   0.73423506   -4.5245153    1761.9275  0.045797658  0.045333191            3 
 3207000   0.73244215   -4.5423242    1758.8429  0.045703224   0.04532307            4 
 3208000   0.73577792   -4.5215359    1764.0155  0.045823346  0.045313051            3 
 3209000   0.74915626   -4.5322088    1752.9713  0.045522262  0.045302847            7 
 3210000    0.7498571   -4.5277521    1758.7548  0.045658224  0.045292658            4 
 3211000   0.73002123   -4.5401228    1758.6258  0.045640656  0.045282502            8 
 3212000   0.73177931   -4.5268169    1763.1648   0.04574421  0.045272316            8 
 3213000   0.75031263   -4.5054126    1764.0172   0.04575208   0.04526224            5 
 3214000   0.73855416   -4.5257555    1764.2272   0.04574329  0.045252092            6 
 3215000   0.71708498   -4.5408261    1759.9542  0.045618305  0.045241875            5 
 3216000   0.72469798   -4.5126851    1763.8137  0.045704129  0.045231635            4 
 3217000   0.73633396    -4.560747    1759.6744  0.045582697  0.045221321            5 
 3218000    0.7420591   -4.5426134    1759.6538  0.045567997   0.04521108            7 
 3219000   0.73604072   -4.5297586    1762.0458  0.045615767  0.045200953            7 
 3220000   0.73550531     -4.54713    1759.0826  0.045524912  0.045190904            9 
 3221000   0.74861344   -4.5273445    1758.9634  0.045507693  0.045180776            1 
 3222000   0.74460373   -4.5125961    1769.6793  0.045770726  0.045170713            6 
 3223000    0.7390119   -4.5243812    1762.7311  0.045576873  0.045160671            5 
 3224000   0.72872928   -4.5332785    1764.3497  0.045604573  0.045150572            7 
 3225000   0.72544965    -4.517714    1765.8808  0.045629995  0.045140553            7 
 3226000    0.7390715    -4.524761    1758.7946    0.0454328  0.045130522            9 
 3227000   0.74770317   -4.5133253    1767.9064  0.045654024   0.04512056            3 
 3228000   0.72397533    -4.534326     1763.937  0.045537406  0.045110558            4 
 3229000   0.72419588   -4.5450728    1766.6026  0.045592099  0.045100524            7 
 3230000   0.73967966   -4.5182885    1771.1217  0.045694575   0.04509053            5 
 3231000   0.75763914   -4.5375529    1761.1383  0.045422941   0.04508046            8 
 3232000   0.73415914   -4.5325483    1764.1981   0.04548778  0.045070347            4 
 3233000    0.7281716   -4.5288561    1762.7917   0.04543746  0.045060263            4 
 3234000    0.7281536   -4.5484119    1762.1706  0.045407406  0.045050072           10 
 3235000   0.73357681   -4.5232881    1767.0226  0.045518356  0.045040034            6 
 3236000    0.7288632    -4.537771     1767.627  0.045519855  0.045030035            9 
 3237000   0.73362453   -4.5492906    1768.3854  0.045525318  0.045019993           10 
 3238000   0.73204074   -4.5341307    1765.5649  0.045438668  0.045010025            6 
 3239000   0.73765501   -4.5512352    1769.6387   0.04552945  0.044999956            5 
 3240000   0.71963426   -4.5188353     1765.992  0.045421604   0.04498999            4 
 3241000   0.73014973    -4.551208    1764.9987  0.045382051  0.044980001            5 
 3242000    0.7330603   -4.5258153    1769.4645  0.045482842  0.044969974            6 
 3243000   0.73296086   -4.5212403    1769.0455  0.045458051  0.044959891            4 
 3244000   0.72453223   -4.5563203    1770.6429  0.045485073  0.044949818            6 
 3245000   0.72469861   -4.5439916    1763.1415  0.045278416  0.044939777           11 
 3246000   0.74875451    -4.527086    1770.7601  0.045460055  0.044929732            4 
 3247000   0.72487326   -4.5385654    1769.1518  0.045404778  0.044919712           14 
 3248000   0.71783649   -4.5475164    1763.8044  0.045253602  0.044909642            9 
 3249000    0.7311752   -4.5457453    1771.6642   0.04544127  0.044899707           14 
 3250000   0.73280573    -4.532058    1770.2109  0.045390024  0.044889702           11 
 3251000   0.73808822   -4.5267755    1771.2354  0.045402322  0.044879701            6 
 3252000   0.72427204    -4.535519    1768.3481  0.045314374  0.044869709            6 
 3253000   0.73509559   -4.5268984      1771.74  0.045387334  0.044859737            7 
 3254000   0.73400751   -4.5334139    1776.4668  0.045494438  0.044849783            4 
 3255000   0.72666932   -4.5265159    1768.8959  0.045286633  0.044839899           11 
 3256000   0.74028246   -4.5280442    1772.2808  0.045359357  0.044830016            4 
 3257000   0.71976819   -4.5300667    1773.4823  0.045376171  0.044820062           21 
 3258000   0.73082796   -4.5333928    1772.8056  0.045344937   0.04481017            5 
 3259000   0.73688189   -4.5360858    1767.2342  0.045188559  0.044800171           14 
 3260000   0.72530011   -4.5671321    1774.1231  0.045350794  0.044790156            5 
 3261000   0.74225649   -4.5547503    1770.9969  0.045256999  0.044780178            5 
 3262000   0.74056814   -4.5275935    1771.6219  0.045259092  0.044770224           10 
 3263000   0.74021376   -4.5208908    1769.2382  0.045184345  0.044760224            3 
 3264000   0.71741286   -4.5183513    1779.0996  0.045422273  0.044750252            4 
 3265000   0.71771751   -4.5037123    1777.2267  0.045360558  0.044740361            7 
 3266000   0.72915184    -4.523659    1776.5545   0.04532952  0.044730506           12 
 3267000   0.72197324   -4.5337616    1771.8356  0.045195276  0.044720638            6 
 3268000   0.72011494   -4.5700807    1765.0218  0.045007696  0.044710636            8 
 3269000   0.71800636   -4.5155444    1776.4642  0.045285618  0.044700695            5 
 3270000   0.72523927   -4.5221225    1775.6925  0.045252103    0.0446908            4 
 3271000   0.72718001   -4.5542089    1772.5981  0.045159435   0.04468086           13 
 3272000   0.72587993   -4.5516821    1774.8659   0.04520339  0.044670893           12 
 3273000   0.72876291   -4.5689411     1770.228  0.045071494  0.044660865            6 
 3274000   0.71980819   -4.5457926    1768.8137   0.04502173  0.044650886            4 
 3275000   0.75326872   -4.5354946    1779.0006   0.04526719  0.044640905            7 
 3276000   0.71968065   -4.5249179    1775.4199  0.045162288   0.04463089            9 
 3277000   0.71853661   -4.5574709    1772.2901  0.045068918  0.044620971            4 
 3278000   0.71267157   -4.5508536    1776.8231  0.045170406  0.044611035            7 
 3279000    0.7355233   -4.5502446    1777.7203  0.045179433  0.044600993            8 
 3280000   0.72511128   -4.5425022    1772.5867  0.045035232  0.044591064            8 
 3281000   0.73186051   -4.5275847    1776.3669  0.045117517  0.044581127            5 
 3282000   0.71237855   -4.5481122    1775.7643  0.045088471  0.044571228            5 
 3283000   0.72126973    -4.553249    1778.6756  0.045148635   0.04456128           11 
 3284000   0.71274298   -4.5645181    1775.2618  0.045048258  0.044551294           13 
 3285000   0.70915733   -4.5530474    1775.2767  0.045034924  0.044541292            4 
 3286000   0.71788768   -4.5704983    1778.2722  0.045097186  0.044531285            9 
 3287000   0.72793933   -4.5410776    1777.5331  0.045064728  0.044521343            5 
 3288000   0.71876874   -4.5476218    1771.4176  0.044896027   0.04451142           10 
 3289000   0.73061515   -4.5513907    1777.5369   0.04503742   0.04450146           12 
 3290000   0.72711426   -4.5606678    1777.2296  0.045015948  0.044491472            8 
 3291000   0.73683816   -4.5508188    1771.5003  0.044857194  0.044481487            6 
 3292000    0.7259294   -4.5585367     1779.182  0.045038022  0.044471468            3 
 3293000   0.71727008   -4.5533028    1774.9491  0.044917225  0.044461515            4 
 3294000   0.72295418   -4.5506059      1777.79   0.04497546  0.044451542            5 
 3295000   0.73381633   -4.5651766    1770.4511  0.044776205  0.044441474            8 
 3296000   0.73046786   -4.5423882    1782.6593   0.04507128  0.044431427           10 
 3297000    0.7279845   -4.5483711    1777.2832  0.044921726  0.044421398            3 
 3298000   0.73722847   -4.5978034    1773.3424  0.044808529  0.044411315            6 
 3299000   0.70625397   -4.5582826    1774.8332  0.044832605  0.044401227            8 
 3300000   0.73166663   -4.5451302    1773.2241  0.044778386  0.044391245            7 
 3301000   0.72043507   -4.5278336    1789.6879  0.045180449  0.044381299            4 
 3302000    0.7313236   -4.5425012    1776.7861  0.044841159   0.04437145           12 
 3303000   0.72822317   -4.5451468    1778.8842  0.044880519  0.044361474            4 
 3304000   0.72085675   -4.5488572    1775.9353  0.044792556  0.044351427            4 
 3305000   0.72003269   -4.5508459    1777.5725  0.044820284  0.044341394            7 
 3306000   0.74579115    -4.527889    1782.3402  0.044926905  0.044331416           15 
 3307000    0.7312356   -4.5343975    1777.8972  0.044801361  0.044321502            5 
 3308000   0.72021383   -4.5679132    1773.6979   0.04468203  0.044311485           10 
 3309000    0.7410721    -4.554856    1773.1913   0.04465577   0.04430143            6 
 3310000    0.7090681   -4.5409979    1773.1669  0.044641665  0.044291378            4 
 3311000   0.71156286   -4.5614254    1779.9957  0.044800052  0.044281262            8 
 3312000   0.70770454   -4.5285921    1776.7861   0.04470577  0.044271252            7 
 3313000    0.7235107   -4.5452541    1774.5471  0.044635958  0.044261348            5 
 3314000   0.72765165   -4.5586139    1776.0427  0.044660095  0.044251302           10 
 3315000   0.73025374   -4.5445304    1775.7114  0.044638295  0.044241232            8 
 3316000    0.7163573   -4.5755167    1773.0027  0.044556763  0.044231261            3 
 3317000   0.70216358    -4.531182    1774.9978  0.044593454  0.044221234            6 
 3318000   0.71517838   -4.5320296    1779.7855   0.04470026  0.044211199            3 
 3319000   0.74886566   -4.5513685    1781.9866  0.044742056  0.044201223            6 
 3320000   0.71934646   -4.5403133    1781.6515  0.044720168  0.044191266            6 
 3321000   0.72511704   -4.5264748    1785.4319  0.044801565  0.044181382            7 
 3322000    0.7199817   -4.5863617    1780.5809  0.044666389   0.04417132            4 
 3323000    0.7240169   -4.5632053    1782.6002  0.044703586  0.044161329            8 
 3324000   0.70182287    -4.548425    1778.0038  0.044574904  0.044151279            9 
 3325000   0.70374819   -4.5527127    1781.6016   0.04465167  0.044141243            3 
 3326000    0.7273149   -4.5551733    1779.9183  0.044596069  0.044131297            7 
 3327000   0.73084595   -4.5707288    1773.2896  0.044416632  0.044121273            4 
 3328000   0.70693792   -4.5483806    1777.7122  0.044514027  0.044111254            5 
 3329000   0.72576428   -4.5740447    1777.4518  0.044494137  0.044101208            6 
 3330000   0.72627276   -4.5350301      1782.59  0.044609359  0.044091145            8 
 3331000    0.7216494   -4.5520129    1780.1277  0.044534366  0.044081106           14 
 3332000   0.73139389   -4.5348296    1782.2451  0.044573957  0.044071055            5 
 3333000   0.70414875   -4.5567688    1778.7947  0.044474314  0.044061046            3 
 3334000   0.73341757   -4.5765358    1775.8648  0.044387742  0.044051022            4 
 3335000   0.71604024   -4.5974679    1776.1954  0.044382694  0.044040842            6 
 3336000   0.71365279     -4.57796    1778.0328  0.044415287  0.044030714           11 
 3337000   0.71574741   -4.5970864    1775.1211  0.044329266  0.044020511           15 
 3338000   0.71943822   -4.5837637    1773.4678   0.04427471  0.044010318           12 
 3339000   0.69547911   -4.6093518    1777.1915  0.044354385   0.04400015            5 
 3340000   0.71574124   -4.5709685    1773.7274  0.044254675  0.043989975            6 
 3341000   0.71369891   -4.5667584    1779.1426  0.044376499  0.043979832            6 
 3342000   0.73962782   -4.5713107    1773.3172  0.044217964  0.043969697            9 
 3343000   0.72572491   -4.5543222    1783.3762  0.044455483  0.043959594            2 
 3344000    0.7285459   -4.5573385     1778.859  0.044329621  0.043949488            4 
 3345000    0.7162489   -4.5772545    1777.0498  0.044271295  0.043939373           10 
 3346000    0.7143024   -4.5611681    1779.5887  0.044321297  0.043929187            5 
 3347000   0.71309134   -4.6051443    1778.1917  0.044273272  0.043919086           14 
 3348000   0.71438266   -4.5729619    1779.0048  0.044280286  0.043908946            4 
 3349000   0.71782317   -4.5754643    1777.2448   0.04422327  0.043898849            8 
 3350000   0.72484031   -4.5850217    1779.4015  0.044263719  0.043888729            8 
 3351000   0.72915969   -4.5871167    1782.4014  0.044325111  0.043878505            4 
 3352000   0.71926523   -4.5888395    1783.3819  0.044336264  0.043868282           11 
 3353000   0.70992316   -4.5829722    1781.4159  0.044274179  0.043858115           12 
 3354000   0.72287588   -4.5936362     1779.067   0.04420262  0.043847994            4 
 3355000   0.70627276   -4.6034639    1784.5458  0.044325528  0.043837911            5 
 3356000    0.7287241   -4.5790107    1780.2359  0.044205302  0.043827782            6 
 3357000   0.72019293   -4.5541256    1781.6209  0.044226515   0.04381769           13 
 3358000   0.71954647   -4.5618374     1780.899  0.044195429   0.04380763            7 
 3359000   0.70577951   -4.5747524    1780.9245  0.044182905  0.043797538            8 
 3360000   0.70284085   -4.5862147    1773.5156  0.043986003  0.043787537            8 
 3361000   0.71268441   -4.5604741     1788.262  0.044338541  0.043777491            9 
 3362000   0.70259527   -4.5629223    1784.7213   0.04423759  0.043767477            7 
 3363000   0.71578641    -4.560703    1787.0376  0.044281831  0.043757475            4 
 3364000   0.72166382   -4.5821414    1782.3291  0.044152029  0.043747508            7 
 3365000    0.7105717   -4.5909455    1784.0232  0.044180861  0.043737426           14 
 3366000   0.70701548   -4.5952496    1782.6565    0.0441339  0.043727256            8 
 3367000   0.71243769   -4.5807957    1781.5925  0.044094458  0.043717112            9 
 3368000   0.70494168   -4.5670402     1781.975  0.044090832  0.043707042            6 
 3369000   0.70708759   -4.5866229    1782.9341  0.044101466  0.043696962            2 
 3370000   0.70802056   -4.5799215    1782.8209  0.044085581   0.04368682           10 
 3371000   0.73531969   -4.5985562      1785.79  0.044145901  0.043676676           11 
 3372000   0.70153659   -4.5783782    1779.0504  0.043966253  0.043666607            9 
 3373000   0.71640385    -4.562501    1781.3241   0.04400939   0.04365657           16 
 3374000   0.71306439   -4.5922905    1786.0965  0.044114218  0.043646486           10 
 3375000   0.70662759   -4.5656664    1788.1697  0.044152338  0.043636389            4 
 3376000   0.70022162   -4.5581517    1785.4514  0.044072161  0.043626279            9 
 3377000   0.71136765   -4.5720301    1780.9215  0.043947326  0.043616242            5 
 3378000   0.69322965   -4.5849932    1780.0835  0.043913643  0.043606048            6 
 3379000   0.71126602   -4.5844486    1782.7999  0.043967642  0.043595819           12 
 3380000   0.72637245   -4.5882611    1781.9984  0.043934871  0.043585694            9 
 3381000   0.70597039   -4.5821815    1783.8174  0.043966712  0.043575597            7 
 3382000   0.71235985   -4.5810087    1782.1154  0.043911774  0.043565556            8 
 3383000   0.70790784   -4.5635354    1788.9551  0.044067275  0.043555501            2 
 3384000   0.71806302     -4.59099    1784.2619   0.04393868  0.043545331            7 
 3385000   0.70965085   -4.5857366    1786.6749  0.043985103  0.043535219            8 
 3386000   0.70954463   -4.6006265    1783.6003  0.043896443  0.043525109            5 
 3387000   0.72370313   -4.5615219    1784.8677  0.043914666  0.043515063            5 
 3388000   0.70885327   -4.5942831    1782.4749   0.04384285  0.043504993            7 
 3389000   0.71311836   -4.5932996    1784.2515  0.043873598  0.043494925           10 
 3390000   0.71328877   -4.5894154     1784.422  0.043864848  0.043484762            8 
 3391000   0.69808253   -4.5623726    1790.5348  0.044002134  0.043474706            9 
 3392000   0.69584647   -4.5941375    1787.8826  0.043924003  0.043464694            7 
 3393000   0.72904486   -4.5862541    1785.7522  0.043858734  0.043454678            7 
 3394000   0.71992879   -4.5743777     1790.672  0.043966608  0.043444591            4 
 3395000   0.70542011   -4.5778182    1785.7711  0.043833361  0.043434484           10 
 3396000   0.71212582   -4.5784798    1785.6968   0.04381863  0.043424455            8 
 3397000    0.7016769   -4.5892953    1786.3528  0.043821824  0.043414436            8 
 3398000   0.71260188   -4.5745464    1787.6977   0.04384191  0.043404332            4 
 3399000   0.72315935   -4.5667726    1789.1542  0.043864721  0.043394296            6 
 3400000   0.69263161   -4.5789843    1780.1215   0.04363043  0.043384217            3 
 3401000   0.70781605   -4.6046742    1787.2702  0.043792763  0.043374049           15 
 3402000   0.72190727   -4.5592158    1789.4617  0.043833571  0.043363988            6 
 3403000   0.70381778    -4.595214    1779.8036   0.04358418  0.043353902           16 
 3404000   0.70020797   -4.5869764     1783.933  0.043672468   0.04334374           11 
 3405000   0.69793318   -4.5933318    1786.6479  0.043726086  0.043333696            4 
 3406000   0.69381414    -4.601002    1786.2604  0.043703767  0.043323597            6 
 3407000   0.70691745   -4.5853629    1782.4901   0.04359872  0.043313496            9 
 3408000   0.71707304   -4.5953275    1785.4675  0.043658731  0.043303417            7 
 3409000   0.72169929   -4.5891333    1785.1727  0.043638719  0.043293391           13 
 3410000    0.7082607   -4.5747264    1790.6658  0.043760161  0.043283385            8 
 3411000   0.68625403   -4.5672744    1790.4196  0.043741317  0.043273336            9 
 3412000   0.70156498    -4.615555    1782.0225  0.043523411  0.043263263            5 
 3413000   0.70435868   -4.5934851    1790.1521  0.043709153  0.043253141            6 
 3414000   0.69923492   -4.6003965    1785.3583  0.043579336  0.043243025            5 
 3415000   0.71194056   -4.5796144    1789.1851  0.043659958  0.043232944            4 
 3416000   0.70408589   -4.6037354    1789.3303  0.043650719  0.043222871           10 
 3417000   0.70414054   -4.5953081    1794.1722  0.043756029  0.043212747            7 
 3418000   0.70867855   -4.5999338    1784.5092  0.043507635  0.043202665            5 
 3419000   0.70518724   -4.5916908    1792.5065  0.043689835  0.043192525            9 
 3420000   0.70434197   -4.5913217    1790.5327  0.043628965  0.043182471            6 
 3421000   0.69638399   -4.5931953     1786.724  0.043523435   0.04317238            9 
 3422000   0.69343693   -4.5939174    1792.3929  0.043648766  0.043162336           10 
 3423000   0.72680156   -4.5937355    1787.0752  0.043506553  0.043152287            4 
 3424000   0.70377864   -4.5875085     1788.275  0.043523048  0.043142277            6 
 3425000   0.71725315   -4.5893765    1796.6839  0.043714937  0.043132255            8 
 3426000   0.70921327   -4.6050575    1791.1847  0.043568415  0.043122222           13 
 3427000   0.71076039   -4.5864615     1790.348  0.043535358  0.043112286           10 
 3428000   0.72253398   -4.5662288    1792.1197  0.043565725  0.043102262           14 
 3429000   0.69449966   -4.5715784    1788.2902  0.043459953  0.043092273            8 
 3430000   0.70321064   -4.5785908    1792.3321  0.043545484  0.043082221            6 
 3431000   0.71641013   -4.6195318    1787.6094  0.043418085  0.043072172           10 
 3432000   0.69629815   -4.6133282    1789.4869  0.043451021  0.043062097           10 
 3433000   0.70704599   -4.5979171    1787.2324   0.04338364  0.043052025            5 
 3434000   0.69601051   -4.6342368    1786.9538  0.043364244   0.04304194            7 
 3435000   0.69741505   -4.6130303    1794.2175  0.043527839  0.043031818           12 
 3436000   0.70540926   -4.6024392    1790.3691  0.043421835  0.043021801            6 
 3437000   0.69981559   -4.6007011    1792.7089  0.043465932  0.043011777            6 
 3438000   0.70874438   -4.6028039    1787.4026   0.04332467  0.043001796           10 
 3439000   0.70119881   -4.5801958    1797.4738  0.043556115   0.04299184            3 
 3440000    0.7133853   -4.6203122      1794.49  0.043471174  0.042981811            3 
 3441000   0.70170835   -4.5712951    1797.1034  0.043521831  0.042971837            6 
 3442000   0.70648705   -4.5883908    1791.9021  0.043383258  0.042961941            4 
 3443000   0.69474158   -4.5833227    1798.0688  0.043519914  0.042951992            5 
 3444000   0.69197519    -4.596105    1797.4415  0.043492101  0.042942107           14 
 3445000   0.70518408   -4.6302574    1787.7514  0.043245075  0.042932125            4 
 3446000    0.6784321   -4.6018568    1790.6257  0.043302033  0.042922071            6 
 3447000   0.70366037   -4.5899562    1790.5307  0.043287175  0.042912039            5 
 3448000   0.69242337   -4.5819938    1791.2058  0.043290938  0.042902059           11 
 3449000   0.70886698   -4.5935057    1798.3869  0.043451891  0.042892017            5 
 3450000   0.69430666   -4.5924462    1792.4349   0.04329553   0.04288197            7 
 3451000   0.71305703   -4.5887206    1797.2784  0.043399941  0.042872049            4 
 3452000   0.70130254   -4.5876246    1795.1664  0.043336384  0.042862104            8 
 3453000   0.69646107   -4.6360031     1789.024  0.043175595  0.042852053           11 
 3454000   0.69426678   -4.6008066    1796.3909  0.043340835  0.042842049           11 
 3455000   0.69177199   -4.5808667    1794.2671  0.043277066  0.042832035           11 
 3456000   0.69213761   -4.6193231      1794.62  0.043273053  0.042822019            5 
 3457000   0.70059282   -4.5889817    1796.8643  0.043314635  0.042812011            5 
 3458000   0.69120494   -4.6111017    1794.0335  0.043233889  0.042801993            3 
 3459000   0.69470991   -4.6124167    1792.8341  0.043192495   0.04279191           11 
 3460000   0.70475245    -4.628096    1794.6181  0.043222979  0.042781793           16 
 3461000   0.70241119   -4.6174606    1791.1587  0.043127196  0.042771698           12 
 3462000   0.69233555   -4.6048132    1792.9733  0.043158417  0.042761626           11 
 3463000   0.69353094   -4.5972388    1796.2247  0.043224195  0.042751656           13 
 3464000   0.70375951   -4.6010304    1796.0313  0.043207067  0.042741642            6 
 3465000   0.71325138   -4.6064305     1789.237  0.043031193  0.042731547            9 
 3466000   0.69519372   -4.6231393    1793.5899  0.043123435  0.042721444           15 
 3467000   0.71173708   -4.6165826     1793.882  0.043118018  0.042711436           13 
 3468000   0.69129019   -4.6229626    1797.7196  0.043197798  0.042701491            3 
 3469000   0.68799272   -4.6123774     1793.086  0.043074036  0.042691538            6 
 3470000   0.70285999   -4.6099091     1794.843  0.043103819  0.042681512            5 
 3471000   0.71201081   -4.6085802     1799.994  0.043215068  0.042671576            9 
 3472000   0.69664617   -4.6176329    1798.2228  0.043160108  0.042661624            8 
 3473000   0.69259676   -4.6003358    1794.4121  0.043056245  0.042651634           19 
 3474000   0.69394517   -4.5924293       1798.9  0.043151507  0.042641757           13 
 3475000   0.67958335   -4.5844198    1794.9554  0.043044493  0.042631905            5 
 3476000    0.7141958   -4.6104024    1792.7588   0.04297945  0.042621926            6 
 3477000   0.69879275   -4.5944884    1796.1382  0.043048082  0.042611996            3 
 3478000    0.7004538   -4.6234717    1789.9743  0.042888018  0.042601993            9 
 3479000     0.702811   -4.6172425    1795.9287  0.043018318  0.042592022            5 
 3480000   0.69986278   -4.5993696    1800.5124  0.043115717  0.042582031            5 
 3481000   0.68611837   -4.5909779     1798.319  0.043050825  0.042572092           12 
 3482000   0.70268328   -4.5995519    1797.5602    0.0430203  0.042562158            6 
 3483000   0.69532413   -4.6009545    1799.4161  0.043052351  0.042552197            7 
 3484000   0.70871041   -4.5986218    1799.7313  0.043047534  0.042542267            9 
 3485000   0.69146647   -4.6152958    1799.3663  0.043026453  0.042532311            4 
 3486000   0.69871431   -4.6295127    1801.9495  0.043075862  0.042522237            4 
 3487000    0.7035544   -4.6169293    1792.9827  0.042849218  0.042512272            4 
 3488000   0.69524508   -4.6107718    1795.1472  0.042888647   0.04250223            5 
 3489000   0.68986101   -4.6069133    1801.2997  0.043023305  0.042492276            7 
 3490000   0.71575853   -4.5732278    1800.8764  0.043000868  0.042482333            5 
 3491000   0.69308316   -4.6028957    1799.4363  0.042954174  0.042472415            8 
 3492000   0.69790665   -4.6203553    1802.5774  0.043016834  0.042462487           13 
 3493000   0.67882583   -4.5844324    1804.5897  0.043052526  0.042452613            8 
 3494000   0.70040341   -4.6110215    1795.3354  0.042819486  0.042442697           10 
 3495000    0.6931893   -4.6499884    1795.5712  0.042812856  0.042432658           12 
 3496000     0.681346   -4.6195954    1791.9816  0.042715046  0.042422543            7 
 3497000    0.7031877   -4.6113096    1799.4687  0.042881249  0.042412483            4 
 3498000   0.69656186   -4.6503369    1793.8796   0.04273584  0.042402421            6 
 3499000   0.70662008   -4.5998132    1795.9953  0.042774013  0.042392433            5 
 3500000   0.68890774   -4.6192816    1804.8508  0.042972639  0.042382397            4 
 3501000   0.68420512    -4.598812    1799.4601  0.042832051  0.042372346           12 
 3502000   0.68710747   -4.6228282    1797.1155  0.042764028  0.042362329            6 
 3503000    0.6894281   -4.6178878    1797.8662  0.042769678   0.04235228           11 
 3504000   0.69177015   -4.6120017    1796.9446  0.042735555  0.042342208            8 
 3505000   0.68420225   -4.6088684    1798.4414  0.042758949  0.042332134            5 
 3506000   0.68978165   -4.6314646    1798.5887  0.042750253  0.042322092            6 
 3507000   0.67601513   -4.6152828    1799.6051  0.042762217  0.042312105            9 
 3508000   0.70965255   -4.6094959    1803.3575  0.042839166  0.042302156            5 
 3509000    0.6818713     -4.59454    1799.4614  0.042734431   0.04229219            6 
 3510000   0.68479314   -4.6115273    1800.4261  0.042745159  0.042282285            8 
 3511000   0.69522041   -4.6088074    1803.3871  0.042803264  0.042272336            7 
 3512000   0.68353014   -4.6130719    1802.0498  0.042759344  0.042262414            7 
 3513000   0.69637774   -4.6199511    1800.6098  0.042713014   0.04225254            5 
 3514000    0.6855604   -4.5979454    1803.2966  0.042764574  0.042242658           10 
 3515000    0.6831806   -4.6146569    1802.5522   0.04273476  0.042232793           10 
 3516000   0.67291045   -4.5953381     1805.153  0.042784247  0.042222904            7 
 3517000   0.69020125   -4.6275931    1800.8443  0.042669991  0.042212987            8 
 3518000   0.69147774   -4.6445128    1797.0584  0.042568183  0.042203064           11 
 3519000   0.68539037   -4.6245868    1798.3087  0.042585693  0.042193089           11 
 3520000   0.68975757   -4.6141991    1804.3443  0.042716485   0.04218315           10 
 3521000   0.67907751    -4.625121    1802.0985  0.042651201  0.042173274            7 
 3522000    0.6886503   -4.6076564    1803.9508  0.042682918  0.042163359           14 
 3523000   0.67858689   -4.6438666    1800.5498  0.042590353  0.042153455           21 
 3524000   0.69240688   -4.6289291    1799.7502   0.04255936  0.042143436            5 
 3525000   0.67808164   -4.6179035    1807.0218  0.042719191  0.042133508            9 
 3526000   0.69714903   -4.6282606    1805.3704  0.042668047  0.042123635            4 
 3527000   0.68946439   -4.6220196    1806.1116  0.042673461  0.042113733            7 
 3528000   0.69298375   -4.5948016    1804.0359  0.042612336  0.042103819           15 
 3529000   0.70095348   -4.6355565    1800.1031  0.042507394  0.042093966           10 
 3530000   0.68353522   -4.6442761    1804.3952  0.042596676  0.042083977            8 
 3531000   0.67187455   -4.6335784    1804.5758  0.042588875  0.042074061           12 
 3532000    0.6965885   -4.6289578     1802.242  0.042521754  0.042064145            6 
 3533000   0.69006927   -4.6457195    1802.8404  0.042523833  0.042054238           11 
 3534000   0.70496781   -4.6130626    1802.7922  0.042510664  0.042044329            6 
 3535000   0.69660734    -4.607305    1805.9072  0.042572069  0.042034457            7 
 3536000   0.68944856   -4.6145709    1802.8274  0.042487447  0.042024618            5 
 3537000   0.67418643   -4.6305184    1802.1146  0.042458642  0.042014714            8 
 3538000   0.68117743   -4.6239166    1802.5493  0.042456879  0.042004755            5 
 3539000   0.70054137   -4.6205373    1799.4856  0.042372741  0.041994811            6 
 3540000   0.67120147   -4.5994062    1804.8505  0.042487065  0.041984862            6 
 3541000   0.69526021   -4.6102036    1804.5333    0.0424676  0.041974964            8 
 3542000   0.68348614   -4.6165379    1803.3812  0.042428506  0.041965066            6 
 3543000   0.68631781   -4.6531191    1802.1646  0.042387916  0.041955121            9 
 3544000   0.68566111   -4.6465018    1800.8368  0.042344733  0.041945176            6 
 3545000   0.67349014   -4.6478421    1808.5949   0.04251516  0.041935228            6 
 3546000   0.70090126   -4.6260471    1803.2038  0.042376475  0.041925253            5 
 3547000   0.69980056   -4.6315334    1811.2663  0.042553948   0.04191529           10 
 3548000   0.67920278   -4.6293407    1804.0328  0.042372059  0.041905349            5 
 3549000   0.68763382   -4.6375463    1806.6675  0.042421985  0.041895376           11 
 3550000   0.67709655   -4.6402096     1805.493  0.042382464  0.041885426           22 
 3551000   0.68039818   -4.6022602    1808.7419  0.042446774  0.041875521           15 
 3552000   0.68043564   -4.6286369    1797.8944  0.042180329  0.041865588           10 
 3553000   0.68771025   -4.6368043    1803.2966  0.042295163  0.041855612            7 
 3554000   0.70493135   -4.6383907    1808.5174  0.042405679  0.041845727           12 
 3555000   0.68447246   -4.6367666    1803.3637  0.042272942  0.041835818            5 
 3556000   0.67928924   -4.6332087    1804.2158  0.042281024   0.04182581            7 
 3557000   0.68360119   -4.6309872    1799.2719  0.042153311  0.041815798            8 
 3558000   0.67649054   -4.6486315    1801.7105  0.042198578  0.041805841           10 
 3559000   0.69481012   -4.6407277    1804.3292  0.042248037  0.041795905            5 
 3560000   0.68233252   -4.6269812    1801.3464  0.042166349  0.041785874           13 
 3561000   0.69368407       -4.625    1807.6369  0.042301716  0.041775893            8 
 3562000   0.67044457   -4.6298188    1807.5909  0.042288764  0.041765913            5 
 3563000   0.67907166   -4.6202446    1803.4203  0.042179349  0.041755999            6 
 3564000    0.6857839   -4.6286077    1802.3933  0.042143502  0.041746072            9 
 3565000   0.70105553   -4.6455025    1804.4898  0.042180688  0.041736096           11 
 3566000    0.6789371   -4.6270653    1808.5374  0.042263447  0.041726126           12 
 3567000   0.69849941   -4.6183188    1802.8561  0.042118869  0.041716183            5 
 3568000   0.68627099   -4.6597254    1808.1937  0.042231728  0.041706177            5 
 3569000   0.68574767   -4.6491981    1805.1253  0.042148252  0.041696178           10 
 3570000   0.66795115   -4.6301976    1808.7865  0.042221907  0.041686127            4 
 3571000   0.66443854   -4.6370268    1804.6482  0.042113511  0.041676095            3 
 3572000   0.68136145    -4.640679    1803.3034  0.042070347  0.041666084            6 
 3573000   0.67132945   -4.6176955    1806.1118  0.042124075  0.041656043           11 
 3574000   0.66968988   -4.6656018    1805.9117  0.042107622  0.041645991            5 
 3575000   0.67914763    -4.607705    1809.0854  0.042169822  0.041635954           11 
 3576000   0.67586968   -4.6244603    1802.0644  0.041994417  0.041626004           10 
 3577000   0.68352727   -4.6494974    1806.6337  0.042089127  0.041615969            9 
 3578000   0.65877487   -4.6281976       1810.7   0.04217207  0.041605973            8 
 3579000   0.67971453   -4.6245028    1806.7982  0.042069437  0.041595978            7 
 3580000   0.69417955   -4.6412583    1804.6835  0.042008461  0.041585983           12 
 3581000   0.69231723   -4.6290886    1806.9069  0.042048471   0.04157601            7 
 3582000   0.68034783   -4.6450065    1806.7546  0.042033188  0.041565986            5 
 3583000    0.6835823   -4.6459464    1804.8307  0.041976711  0.041555979            4 
 3584000   0.67268391   -4.6423438    1802.6461  0.041914204  0.041545933           11 
 3585000   0.68705099   -4.6454359    1802.3772  0.041896261  0.041535882            7 
 3586000   0.69446656    -4.659658    1799.6283  0.041820699  0.041525803           24 
 3587000   0.68828131   -4.6682204    1800.3163  0.041825024  0.041515683            8 
 3588000    0.6869254   -4.6243169     1804.079  0.041900758  0.041505589            6 
 3589000   0.66855433   -4.6501364    1806.5034  0.041945374  0.041495604            9 
 3590000   0.66663566   -4.6402382    1803.9496   0.04187441  0.041485587           13 
 3591000   0.66464564   -4.6503552    1800.4454  0.041781431  0.041475552            8 
 3592000   0.68845062   -4.6513427    1805.7599  0.041893093  0.041465451           12 
 3593000    0.6772785   -4.6669284    1799.0019  0.041724695  0.041455415            7 
 3594000   0.67306686   -4.6536815    1805.6416  0.041867037  0.041445388            8 
 3595000   0.66312063   -4.6525024    1804.4176  0.041827018  0.041435345           11 
 3596000   0.69807398   -4.6419705    1808.8148  0.041917288  0.041425294           13 
 3597000   0.67527061   -4.6350258    1806.4227  0.041850216  0.041415268            5 
 3598000   0.68045996   -4.6345736    1808.6918  0.041891139  0.041405283            9 
 3599000   0.68070987   -4.6312664    1806.2274  0.041822437  0.041395275            9 
 3600000   0.68192083   -4.6403929    1802.9702  0.041735422  0.041385228            6 
 3601000    0.6867588   -4.6543605    1802.8578  0.041721231  0.041375183            8 
 3602000   0.68053577   -4.6355951    1807.0537  0.041806722  0.041365118            3 
 3603000   0.68101012   -4.6540355    1806.0015   0.04177078  0.041355053           12 
 3604000   0.66881878   -4.6539457    1807.6687   0.04179774  0.041344971            6 
 3605000   0.67268954   -4.6536999    1798.5514   0.04157539  0.041334829            6 
 3606000   0.66286248   -4.6717067    1805.7113  0.041729323  0.041324715            7 
 3607000   0.67524839   -4.6433903    1805.7847   0.04171945  0.041314639            9 
 3608000   0.67706465   -4.6513814    1804.8993  0.041687437  0.041304636           19 
 3609000   0.68489548   -4.6502719    1806.4121  0.041710819  0.041294589            6 
 3610000   0.67717276    -4.639189    1806.2434  0.041695369  0.041284532            8 
 3611000   0.68363198   -4.6595301     1804.446  0.041642343  0.041274465            5 
 3612000   0.67870538   -4.6500403    1806.5054  0.041678326  0.041264367           11 
 3613000   0.67353851   -4.6560442     1807.089  0.041680252  0.041254318            8 
 3614000   0.67848307   -4.6611869     1809.954  0.041734781  0.041244287            9 
 3615000   0.67557195   -4.6549613    1806.9028  0.041652899  0.041234181           13 
 3616000   0.67659411   -4.6634294    1807.3847  0.041652486  0.041224133            9 
 3617000    0.6781197    -4.654627    1809.8796  0.041698451  0.041214088            7 
 3618000   0.66144916   -4.6520802     1805.689  0.041590405  0.041204057            6 
 3619000   0.67587378    -4.646852    1812.1128  0.041726832  0.041194059            5 
 3620000   0.66540416   -4.6459407    1802.4625  0.041493152  0.041184105           13 
 3621000   0.68011425   -4.6609154    1812.6007  0.041715013  0.041174172            6 
 3622000   0.67753312   -4.6528388    1804.2929  0.041512352  0.041164214            8 
 3623000   0.66156227   -4.6500641    1807.8285  0.041582218   0.04115424            5 
 3624000   0.66198136   -4.6386004    1810.1677  0.041624533   0.04114423            7 
 3625000   0.67622687   -4.6447241     1809.092  0.041588323  0.041134258            4 
 3626000   0.68785983   -4.6634742    1806.7271  0.041522502  0.041124265            6 
 3627000   0.68120383   -4.6337565    1810.5804  0.041599587  0.041114256           14 
 3628000   0.66497389   -4.6543676    1804.9228  0.041458169  0.041104299            8 
 3629000   0.66049007   -4.6564381    1810.4711  0.041574151  0.041094386           12 
 3630000   0.67267699   -4.6676856    1814.7032  0.041659853  0.041084398            8 
 3631000   0.67133101    -4.661744    1810.2336    0.0415458  0.041074435           10 
 3632000   0.67080735   -4.6579514    1810.0533  0.041530224   0.04106456            5 
 3633000   0.66484278   -4.6541217    1808.5146  0.041483498  0.041054578            6 
 3634000   0.66175796   -4.6634979    1812.5255  0.041564059  0.041044588            4 
 3635000   0.64766504   -4.6971694    1808.7932   0.04146706  0.041034561            5 
 3636000   0.67379392   -4.6533898    1811.3944  0.041515272  0.041024627            4 
 3637000   0.67672914   -4.6686452    1814.0362  0.041564389   0.04101471           14 
 3638000   0.67285743   -4.6546113    1806.4593  0.041379404   0.04100478           12 
 3639000   0.66779134   -4.6428723    1809.3902  0.041435152  0.040994866            9 
 3640000   0.66917168   -4.6658014    1810.0897  0.041439783   0.04098493           16 
 3641000   0.66677038   -4.6437334    1819.4667  0.041643018  0.040975038           10 
 3642000   0.66448488      -4.6747    1809.3593  0.041400314  0.040965124            9 
 3643000    0.6511353   -4.6597868    1811.0151  0.041426826  0.040955181            7 
 3644000   0.66891741   -4.6733052    1813.5963  0.041474485  0.040945263            6 
 3645000   0.66158272   -4.6666481    1814.3368  0.041480037   0.04093539            4 
 3646000   0.67837258   -4.6694893    1804.1448  0.041235709  0.040925468            5 
 3647000   0.67293019   -4.6810569    1816.0736  0.041496974  0.040915555            7 
 3648000   0.66549444   -4.6603852    1808.8498  0.041320583  0.040905729            5 
 3649000   0.67658625   -4.6655972    1813.3662    0.0414124  0.040895826           12 
 3650000   0.68119485   -4.6572886    1816.3827  0.041469925  0.040885933            5 
 3651000   0.65620701   -4.6749144    1813.3709  0.041389823  0.040876084           20 
 3652000   0.65753636   -4.6545808    1809.7314  0.041295442  0.040866278            7 
 3653000   0.65398199   -4.6375794    1815.2066  0.041409038  0.040856495            6 
 3654000   0.68058144   -4.6595526    1818.0178  0.041461819   0.04084666           13 
 3655000   0.66909703   -4.6436839    1815.4181  0.041391201  0.040836868            8 
 3656000     0.682449   -4.6731506    1814.8746  0.041367491   0.04082709            4 
 3657000   0.67345125   -4.6841904    1819.1217   0.04145296  0.040817238           15 
 3658000   0.67339896    -4.683254    1815.7136  0.041363987  0.040807401            8 
 3659000   0.66089415   -4.6404183    1814.9307  0.041334852  0.040797561           11 
 3660000   0.67214496   -4.6662824    1811.1223  0.041236846  0.040787717            5 
 3661000   0.67841705   -4.6792588    1819.3238   0.04141227  0.040777919           10 
 3662000   0.66356585   -4.6781811    1817.3005  0.041354918   0.04076809           11 
 3663000      0.66334   -4.6832195    1814.7813  0.041286315  0.040758296            7 
 3664000   0.66239771   -4.6520272    1819.1793  0.041375074  0.040748482           11 
 3665000   0.68098906   -4.6649448    1819.0546   0.04136095  0.040738735            8 
 3666000   0.67504885   -4.6957991    1816.2464  0.041285835   0.04072895           14 
 3667000   0.67529828   -4.6738548    1819.0983  0.041339385  0.040719158            9 
 3668000   0.65866696    -4.662351    1813.7779   0.04120724  0.040709315            5 
 3669000   0.66308978   -4.6750361    1812.2303  0.041160858   0.04069951           10 
 3670000   0.66400924   -4.6676923    1817.4202  0.041267488  0.040689678           11 
 3671000   0.68230478   -4.6586121    1815.4088  0.041210588  0.040679858            8 
 3672000   0.66580894   -4.6746515    1812.6969   0.04113782  0.040670048           14 
 3673000    0.6438613   -4.6682236    1817.1846  0.041228437  0.040660237            8 
 3674000   0.66978428   -4.6791253    1816.5176  0.041202087  0.040650464            9 
 3675000   0.65745273    -4.688526    1815.0151  0.041156804  0.040640732            4 
 3676000   0.65969369    -4.673324    1814.6807  0.041138029  0.040630943            8 
 3677000   0.66612433   -4.6664008    1817.6375  0.041193851   0.04062117            7 
 3678000   0.66347749   -4.6804524    1818.1942  0.041195265  0.040611363           10 
 3679000   0.66874564   -4.6795886    1815.4802  0.041122592  0.040601563           23 
 3680000   0.66515306   -4.6837583     1813.672  0.041070471  0.040591777           15 
 3681000   0.66814438   -4.6841248    1817.5112  0.041146228  0.040581932            4 
 3682000   0.66601691   -4.6464975    1816.4643   0.04111136  0.040572105            7 
 3683000   0.67266525   -4.6468529    1818.4968  0.041146185  0.040562282            3 
 3684000   0.65220064   -4.6725185    1818.2632  0.041129731  0.040552526           14 
 3685000   0.64972813   -4.6804158    1815.5862  0.041058033  0.040542744            8 
 3686000   0.66944952   -4.6543652    1819.2141  0.041128914  0.040532939            4 
 3687000   0.67959959   -4.6868733    1817.4273  0.041077373  0.040523186            8 
 3688000   0.66164604   -4.6918002    1820.3347  0.041131931  0.040513422            6 
 3689000   0.65505677   -4.6700885    1817.9965  0.041067961  0.040503607            7 
 3690000   0.66143297    -4.689525    1816.6093  0.041025505  0.040493845            7 
 3691000   0.65075611   -4.6659991    1825.1118  0.041206354  0.040484123            6 
 3692000   0.66432213   -4.6733234    1823.0148  0.041147859  0.040474412            6 
 3693000   0.65965729   -4.6681308    1822.2108  0.041118576  0.040464722            5 
 3694000   0.65423648   -4.6707205    1820.5095  0.041069065  0.040454945            5 
 3695000   0.66205765   -4.6814708    1818.3612  0.041009499  0.040445177           10 
 3696000   0.67146581   -4.6861388    1813.8061  0.040895701  0.040435356            8 
 3697000   0.65873734     -4.67668    1819.7286  0.041018136  0.040425569           10 
 3698000   0.65430335   -4.6725089    1822.5509  0.041070644  0.040415848            9 
 3699000   0.66830259   -4.6716839     1818.166  0.040960756  0.040406144            5 
 3700000   0.65270642   -4.6855048    1824.4815  0.041091926  0.040396441            7 
 3701000   0.67362669   -4.6423997    1823.3268  0.041054822  0.040386767            9 
 3702000   0.65473347   -4.6909726    1817.0637  0.040902748  0.040377002            5 
 3703000   0.66433895   -4.6798717    1820.8874  0.040977752  0.040367244            6 
 3704000   0.65704653   -4.6769734    1819.7332  0.040940722  0.040357538            6 
 3705000   0.66050387   -4.6867123    1820.3751  0.040944109  0.040347826            9 
 3706000   0.65371617   -4.6758748     1820.052  0.040925796  0.040338086            7 
 3707000    0.6543943    -4.691952    1812.7585  0.040750799  0.040328345           12 
 3708000   0.67122967   -4.6626214    1822.2035  0.040952074  0.040318607            9 
 3709000   0.66102007   -4.6878727    1819.5813  0.040882119  0.040308883            5 
 3710000   0.65704518   -4.6663616     1819.661   0.04087289   0.04029914            5 
 3711000   0.64466508    -4.681723    1815.2301  0.040762375  0.040289434            9 
 3712000   0.65916002   -4.6772636    1819.1236  0.040838802  0.040279632           12 
 3713000   0.67120023   -4.6897131    1813.6258  0.040704412  0.040269788            6 
 3714000   0.64772941   -4.6846283    1816.2466  0.040752256  0.040259989           10 
 3715000   0.66260845   -4.6786893    1817.7006  0.040773903  0.040250205            8 
 3716000   0.66052908   -4.6919467    1819.8701  0.040811582   0.04024044            7 
 3717000    0.6478493    -4.697539     1822.875  0.040867971  0.040230699           11 
 3718000   0.65907745   -4.6853037    1822.7267  0.040853655  0.040220951           10 
 3719000   0.64405151   -4.6735734     1820.104  0.040783903  0.040211224            9 
 3720000    0.6564024   -4.6673778    1818.8159  0.040744084  0.040201394            8 
 3721000   0.64734117   -4.7007678    1818.7906  0.040732568  0.040191632           12 
 3722000   0.66068652   -4.6956302    1820.6134  0.040762435  0.040181893            7 
 3723000   0.64966927   -4.6990428    1815.7269  0.040642111  0.040172082            7 
 3724000   0.64948558    -4.695226    1819.2718  0.040710522  0.040162347            6 
 3725000   0.65939671    -4.701872    1816.4057  0.040635474  0.040152614            7 
 3726000   0.67316331   -4.7015824    1820.0005  0.040704966  0.040142874            7 
 3727000   0.66561272   -4.6908785    1822.5092  0.040750139  0.040133139            5 
 3728000   0.63821875   -4.6869976    1819.5989  0.040674152  0.040123427            8 
 3729000   0.66324657   -4.6854078    1820.7161  0.040688211  0.040113663            5 
 3730000   0.65892385   -4.6682129     1824.371  0.040758958  0.040103982           11 
 3731000   0.65353283   -4.7053289     1820.199   0.04065485  0.040094232            6 
 3732000   0.66408651   -4.7099415     1817.705  0.040588267  0.040084444            5 
 3733000   0.65405466   -4.6848043    1822.4548  0.040683427  0.040074662           11 
 3734000   0.65532169   -4.7082329    1819.1631  0.040599069  0.040064909            5 
 3735000   0.65685094   -4.6839041    1823.5011  0.040684986  0.040055171           10 
 3736000   0.66931504    -4.699713    1826.5116  0.040741247  0.040045461            9 
 3737000   0.65845269   -4.6813854    1819.8178  0.040581077  0.040035732            5 
 3738000   0.65804194   -4.6898479    1821.0199   0.04059702  0.040025957            6 
 3739000   0.66195157   -4.6952354    1826.2338  0.040702368  0.040016201           10 
 3740000   0.64680079   -4.6864119    1821.2173  0.040579708   0.04000642            7 
 3741000   0.64028822   -4.6955254    1818.8331  0.040515752  0.039996637            5 
 3742000   0.65314772   -4.6759903    1819.9013  0.040528713  0.039986834           17 
 3743000   0.64496834   -4.7007484    1821.2633  0.040548207  0.039977067            7 
 3744000    0.6544049   -4.6823778    1826.5244  0.040654479  0.039967347            9 
 3745000   0.65110489    -4.715522    1823.5134  0.040576623  0.039957609            5 
 3746000   0.64124339   -4.7163553    1820.6716  0.040502573  0.039947865           17 
 3747000    0.6464918   -4.6931131    1818.9322  0.040453077  0.039938116           13 
 3748000   0.64415677    -4.691128    1819.2477  0.040449301  0.039928327           15 
 3749000   0.64181187   -4.7106488    1820.9032  0.040475309  0.039918545            6 
 3750000   0.65887373   -4.6959462    1820.1231  0.040447179  0.039908744            6 
 3751000   0.65264851   -4.6912648    1822.7154  0.040493989  0.039899013            5 
 3752000   0.66064347   -4.7111478    1819.6584  0.040415298  0.039889302           14 
 3753000   0.64562355   -4.6681875    1827.1953  0.040571883   0.03987956            4 
 3754000    0.6517051   -4.7062118    1820.5353  0.040413232  0.039869892           12 
 3755000   0.65753747    -4.706491    1822.6771  0.040450002  0.039860198           17 
 3756000   0.64150444   -4.6945851    1826.1912  0.040517198   0.03985053            4 
 3757000   0.64992813    -4.703179    1824.4216  0.040467164  0.039840881            9 
 3758000   0.64808937   -4.7371975    1819.5197  0.040347696  0.039831152           10 
 3759000   0.63952303   -4.7002966    1824.5906   0.04044938  0.039821367           12 
 3760000    0.6539444   -4.6873112    1821.4652  0.040369354  0.039811694            8 
 3761000   0.64767121    -4.706712    1824.9954  0.040436838   0.03980202            8 
 3762000   0.64280094   -4.6935909    1824.4902  0.040414898  0.039792319           11 
 3763000   0.65061853    -4.696156    1825.0867  0.040417368  0.039782634            7 
 3764000   0.63902314   -4.7175461    1822.3123  0.040345207  0.039772953            8 
 3765000   0.64616905   -4.6844376    1830.3009  0.040511308  0.039763327            5 
 3766000   0.65351944   -4.6886071    1829.8386  0.040490322  0.039753692           11 
 3767000   0.66179786    -4.688699    1828.3586  0.040446833  0.039744079            7 
 3768000   0.64420938   -4.6839102    1824.7494  0.040356278  0.039734461            6 
 3769000   0.64347495   -4.6985495    1829.5102  0.040450832  0.039724795            6 
 3770000   0.64450545   -4.6882016    1822.2912   0.04028053  0.039715131            5 
 3771000   0.64525902   -4.7002945    1821.0229  0.040241821  0.039705479            4 
 3772000   0.64881442   -4.7081962    1824.9677  0.040318304  0.039695817            6 
 3773000   0.65792439   -4.6923102    1831.3357  0.040448267  0.039686161           17 
 3774000   0.65904191   -4.6976746    1825.8726  0.040316918  0.039676532            3 
 3775000   0.65533347   -4.6936663    1826.2776  0.040315178  0.039666893            7 
 3776000   0.65007663   -4.7196513    1828.7554  0.040359186  0.039657277            8 
 3777000    0.6664893   -4.6755051    1833.1069  0.040444509  0.039647726            5 
 3778000   0.66032298   -4.7103844    1828.5722  0.040333778  0.039638169           11 
 3779000   0.64222006   -4.7169336    1826.3979  0.040275159  0.039628536            9 
 3780000   0.63656441    -4.690515    1827.4487   0.04028767  0.039618915           16 
 3781000   0.63375921   -4.7065065    1821.5482  0.040146966  0.039609273            6 
 3782000   0.64379416   -4.7072124    1825.3486   0.04022009  0.039599668           10 
 3783000    0.6326866   -4.7406521    1820.4996  0.040102643  0.039589957           14 
 3784000   0.64054851   -4.7183633     1827.463  0.040245398  0.039580277           12 
 3785000   0.64621753   -4.7286668    1823.6086  0.040149903  0.039570658           10 
 3786000   0.63739702   -4.6986686    1827.1878  0.040218079  0.039561018           10 
 3787000   0.63500378   -4.6980622    1827.0757  0.040204993   0.03955145            8 
 3788000   0.63730378   -4.6822633    1831.7879  0.040298045  0.039541888           12 
 3789000   0.63852862   -4.7080876    1826.1582  0.040163591  0.039532295           15 
 3790000   0.63798099   -4.7112618    1830.2976  0.040244011  0.039522717            5 
 3791000   0.63930084   -4.6953834    1822.6023  0.040064238  0.039513117           12 
 3792000   0.65545929   -4.7053064    1828.4466  0.040182106  0.039503502           10 
 3793000   0.64599594   -4.7075442    1825.0753  0.040097445  0.039493884           18 
 3794000   0.63622755   -4.7144259    1827.1811  0.040133129  0.039484298           16 
 3795000   0.64777547   -4.6883934     1830.313  0.040191326  0.039474729            5 
 3796000   0.65144649   -4.7326814    1827.6604  0.040122506  0.039465104           10 
 3797000   0.65349219   -4.6830948    1828.5702  0.040131907   0.03945551            8 
 3798000   0.63973053   -4.6808447    1832.6496  0.040210847   0.03944602            7 
 3799000   0.62331481   -4.7058399    1830.3301  0.040149383  0.039436521           11 
 3800000   0.65277644   -4.7123592    1830.1602  0.040135093  0.039426959            8 
 3801000   0.63310951   -4.7121437    1831.0113  0.040143193  0.039417438            7 
 3802000   0.65858417   -4.6920122    1830.7287   0.04012644  0.039407883            9 
 3803000   0.63953818   -4.7178775    1832.5603  0.040156024  0.039398356           11 
 3804000   0.64344154    -4.744087     1825.003  0.039979912  0.039388746            8 
 3805000   0.65588137   -4.7164365    1829.7122   0.04007254  0.039379174           18 
 3806000    0.6584141   -4.7188481    1826.8775  0.039999945  0.039369625            9 
 3807000   0.62491481    -4.693947    1829.3964  0.040044576   0.03936009            8 
 3808000   0.63627389   -4.7157558    1832.7191  0.040106774  0.039350475            9 
 3809000   0.64748537   -4.6975317    1829.6327  0.040028718  0.039340944           12 
 3810000   0.64353612     -4.70055    1828.6426  0.039996556  0.039331386            8 
 3811000   0.64937065   -4.7070908    1834.9987  0.040125049  0.039321856           11 
 3812000   0.63723951   -4.7269115     1831.056  0.040028331  0.039312271            5 
 3813000   0.63874435   -4.7008801    1827.6392  0.039943159  0.039302691           13 
 3814000   0.64516135   -4.7136918     1828.942  0.039961153  0.039293166           18 
 3815000   0.64983372   -4.7179683    1827.5314  0.039919864  0.039283594           14 
 3816000   0.64031883   -4.7088955    1830.2649  0.039969098  0.039274022           12 
 3817000   0.64009273   -4.6995766    1829.3076  0.039937725  0.039264471           14 
 3818000   0.63268072   -4.7101983     1830.748  0.039958704  0.039254879           10 
 3819000   0.64892966   -4.7148698    1829.0915  0.039912095  0.039245256           13 
 3820000   0.64355889   -4.7130193     1826.818  0.039852051  0.039235691            8 
 3821000   0.64353679    -4.705055    1827.9719  0.039866786  0.039226113            8 
 3822000   0.63863873   -4.7160182    1826.2763  0.039819386  0.039216508           19 
 3823000   0.64869214    -4.710927    1828.3766  0.039854751  0.039206936            6 
 3824000   0.62627837   -4.7210463    1827.2515  0.039819811  0.039197391            8 
 3825000   0.63875035   -4.7307119    1834.3823  0.039964756  0.039187883            8 
 3826000   0.64722357   -4.7285496    1832.9995  0.039924192   0.03917834           16 
 3827000   0.64604927   -4.7153422    1827.3279  0.039790259  0.039168774            9 
 3828000   0.63019788    -4.712401    1825.8132  0.039746892   0.03915921           10 
 3829000     0.631776   -4.7389623    1829.6884   0.03982085  0.039149635            6 
 3830000   0.64238076   -4.7486038    1827.2739  0.039757918  0.039140052            9 
 3831000   0.64069655   -4.7291844    1829.5785  0.039797671  0.039130434            8 
 3832000   0.62622261   -4.7315931    1827.1864  0.039735264  0.039120821           10 
 3833000   0.65845928   -4.7272517    1830.7082  0.039801464  0.039111206            9 
 3834000    0.6431379   -4.7240167    1833.3897  0.039849368  0.039101701            6 
 3835000   0.62510487   -4.7312971    1829.3024  0.039750161  0.039092176            8 
 3836000   0.63164232   -4.7329159    1827.4099  0.039698686  0.039082602           10 
 3837000   0.64390002   -4.7094144     1824.501  0.039625163  0.039073002            8 
 3838000   0.63788097   -4.7289992    1827.6938  0.039684164  0.039063434           10 
 3839000   0.63783603   -4.7165486    1830.4495  0.039733643  0.039053886            5 
 3840000   0.62778168   -4.7200187    1832.5197  0.039768223  0.039044408            6 
 3841000   0.64434979   -4.7297253     1833.785   0.03978532  0.039034925            8 
 3842000   0.63247857   -4.7097008    1832.1605   0.03973973  0.039025461           20 
 3843000   0.64578534   -4.7289367    1835.2682  0.039796777   0.03901597           12 
 3844000   0.62704623   -4.7300832    1827.5474  0.039619047  0.039006476            9 
 3845000    0.6292943   -4.7460061     1828.664  0.039632944  0.038997004            7 
 3846000   0.63812107   -4.7403534    1831.8196  0.039691011  0.038987505           14 
 3847000   0.63275524   -4.7204259    1831.0178  0.039663326  0.038978042            7 
 3848000   0.63982817   -4.7268979     1833.599  0.039708919  0.038968565           12 
 3849000   0.63608743   -4.7109234    1835.9706  0.039749949  0.038959088           23 
 3850000   0.63027115   -4.7276646    1837.8635  0.039780596  0.038949619           11 
 3851000   0.64159308   -4.7308609    1831.5914  0.039634542  0.038940083            4 
 3852000   0.63893816   -4.7314203    1829.9891  0.039589588  0.038930553           10 
 3853000   0.63829046   -4.7369308    1828.4129  0.039545223  0.038921013           16 
 3854000   0.64062511   -4.7108854    1825.6675    0.0394756  0.038911516            7 
 3855000   0.64193338   -4.7385683    1833.8155  0.039641494  0.038902011            5 
 3856000   0.63234111   -4.7382314     1833.141  0.039616636  0.038892556            6 
 3857000   0.64312613   -4.7319424     1841.346  0.039783639  0.038883098            8 
 3858000   0.63778003   -4.7101785    1834.3017   0.03962117  0.038873661           11 
 3859000   0.63362032   -4.7343258    1833.7645  0.039599303  0.038864262            9 
 3860000   0.62955339   -4.7404022    1838.6925  0.039695433  0.038854778            9 
 3861000   0.63796694   -4.7393924    1836.2868  0.039633231  0.038845343           15 
 3862000   0.63432961   -4.7090406    1833.6375  0.039565802  0.038835965           10 
 3863000   0.63166329   -4.7269754    1832.3303   0.03952736  0.038826524           11 
 3864000   0.63597007   -4.7498667    1835.0621  0.039576046  0.038817122            9 
 3865000   0.62255682   -4.7231747    1837.0702  0.039609104  0.038807692            5 
 3866000   0.63945985    -4.740685    1833.1592  0.039514553  0.038798309           11 
 3867000   0.63296842   -4.7230839    1837.3412  0.039594457  0.038788975            6 
 3868000    0.6302613   -4.7354602    1834.5871  0.039524887  0.038779627            6 
 3869000   0.62849795   -4.7274195    1832.8086  0.039476362  0.038770234            9 
 3870000   0.63374519   -4.7359452    1837.5253  0.039567728  0.038760761           18 
 3871000   0.63743246   -4.7599976    1830.6043  0.039408515  0.038751322            7 
 3872000    0.6413945   -4.7240235    1834.1343  0.039474309   0.03874188            5 
 3873000   0.62836941   -4.7332694    1841.9549  0.039632388  0.038732478           12 
 3874000   0.64784921   -4.7692589    1836.7985  0.039511239  0.038723071           10 
 3875000   0.63835055   -4.7569993    1830.8693  0.039373533  0.038713659           11 
 3876000   0.63811483   -4.7631869    1835.5912  0.039464896  0.038704248            6 
 3877000   0.61929483   -4.7580608    1829.6934  0.039327948  0.038694817           21 
 3878000   0.63833528   -4.7342237    1830.9124  0.039344001  0.038685365            7 
 3879000   0.63295194   -4.7604185    1835.3484  0.039429157  0.038675932           10 
 3880000   0.62886788   -4.7497743    1838.2538  0.039481396  0.038666534            7 
 3881000   0.62906366   -4.7371525    1835.1127  0.039403777   0.03865711           17 
 3882000   0.62855307   -4.7309879    1832.6276   0.03934028  0.038647705            6 
 3883000   0.63912863   -4.7571717    1836.6935  0.039417407  0.038638253           34 
 3884000   0.62644766   -4.7433949    1837.3665  0.039421699  0.038628843            9 
 3885000   0.64078926   -4.7394748    1831.0845  0.039276803   0.03861939            9 
 3886000   0.62601765    -4.741633    1835.0007  0.039350675  0.038609978            7 
 3887000   0.63447705   -4.7320273    1832.1351  0.039279116  0.038600521            9 
 3888000    0.6233542   -4.7511282    1834.5753  0.039321315  0.038591092           12 
 3889000   0.63085836    -4.738031    1836.0785  0.039343415  0.038581721           40 
 3890000    0.6225661   -4.7494672    1835.5235  0.039321411  0.038572294           10 
 3891000   0.62675333   -4.7473278    1833.5602  0.039269257  0.038562811            7 
 3892000   0.61801927   -4.7266986    1835.7172  0.039305352  0.038553369            9 
 3893000   0.63303829   -4.7459588    1840.3995  0.039395485  0.038543933           14 
 3894000    0.6234835   -4.7485221    1835.3826  0.039278005  0.038534507           25 
 3895000   0.62564648    -4.731614    1836.1285  0.039283878  0.038525082            8 
 3896000    0.6170888   -4.7541424    1838.8994  0.039333065  0.038515676            7 
 3897000   0.63111901   -4.7419471    1835.8498  0.039257759   0.03850623            8 
 3898000   0.62371488   -4.7644664     1831.872  0.039162648  0.038496722           10 
 3899000   0.62644836   -4.7647523     1834.287   0.03920422  0.038487181            8 
 3900000   0.62694806   -4.7427641    1835.8376  0.039227299  0.038477699           12 
 3901000   0.63056605   -4.7417576    1833.7842  0.039173378  0.038468272            4 
 3902000   0.62804886   -4.7241038    1837.5712  0.039244217  0.038458839            5 
 3903000   0.63981236   -4.7273767    1832.2157  0.039119816  0.038449369            4 
 3904000   0.64258446   -4.7478856    1830.9969  0.039083779  0.038439949           17 
 3905000   0.63083533    -4.739011    1838.4406  0.039232622  0.038430531            9 
 3906000   0.61101485   -4.7448943    1830.7994  0.039059553  0.038421056           10 
 3907000   0.64653916   -4.7406461    1835.0284  0.039139757  0.038411588           11 
 3908000   0.61755126   -4.7733288    1833.0704   0.03908799  0.038402117            8 
 3909000   0.62731494   -4.7569462    1836.0718  0.039141977  0.038392662           27 
 3910000   0.62270549   -4.7415785    1834.1581  0.039091178  0.038383239           21 
 3911000   0.63921879    -4.756183    1834.8909  0.039096798  0.038373808           14 
 3912000   0.63652532   -4.7456713    1835.2384  0.039094205   0.03836439            7 
 3913000   0.62951879   -4.7390079     1836.482  0.039110699  0.038354937           14 
 3914000   0.63001478   -4.7438891    1831.2581  0.038989485  0.038345422            4 
 3915000   0.62207452   -4.7546927    1836.2152  0.039085041  0.038335976            9 
 3916000   0.63400715    -4.753538    1836.1191  0.039073016  0.038326524           11 
 3917000   0.61673187   -4.7450682    1838.5216  0.039114151  0.038317101            6 
 3918000   0.62610297   -4.7774359    1835.6114   0.03904227  0.038307701           11 
 3919000   0.61807017    -4.764461    1832.2705  0.038961269  0.038298261            9 
 3920000   0.61680151    -4.759157    1836.6283  0.039043968  0.038288813            8 
 3921000   0.62736307   -4.7265312    1832.7893  0.038952421  0.038279342            5 
 3922000    0.6357365   -4.7456016    1839.5607  0.039086365  0.038269927            4 
 3923000   0.61924667   -4.7816338    1832.3077  0.038922333  0.038260473           17 
 3924000   0.63235982   -4.7407535    1834.4926  0.038958813  0.038251068           22 
 3925000   0.62227587   -4.7648202    1837.3862  0.039010324  0.038241654           14 
 3926000   0.63184091   -4.7562449    1842.1965  0.039102489  0.038232256           19 
 3927000   0.63849148   -4.7350124    1837.7171  0.038997476  0.038222821           13 
 3928000   0.62468354   -4.7453319    1840.5625  0.039047915  0.038213449           12 
 3929000   0.61331194   -4.7599752    1836.2941  0.038947444  0.038204024            5 
 3930000    0.6365299   -4.7824684    1837.0107  0.038952728  0.038194585            8 
 3931000   0.62669723   -4.7504372    1838.2363  0.038968802  0.038185178           13 
 3932000   0.62907132   -4.7356885    1836.7377  0.038927129  0.038175723           12 
 3933000   0.61510238   -4.7676307    1836.4486  0.038911107    0.0381663            6 
 3934000    0.6161637   -4.7587797     1837.865   0.03893122  0.038156879            7 
 3935000   0.62582192   -4.7510463    1841.4386  0.038997004  0.038147509            7 
 3936000   0.62179962    -4.771299    1834.5199  0.038840613  0.038138095            6 
 3937000   0.61449341   -4.7632266    1829.7724   0.03873026   0.03812869            8 
 3938000   0.62114702   -4.7797565    1837.7359  0.038888944  0.038119262           21 
 3939000   0.60707055   -4.7668958    1842.0527  0.038970397  0.038109958            7 
 3940000   0.62428558   -4.7567781    1837.7712  0.038869949  0.038100615            8 
 3941000   0.61020091   -4.7700639     1835.876  0.038820012  0.038091221           10 
 3942000   0.62041806   -4.7557007    1836.9038  0.038831891  0.038081868            4 
 3943000   0.61588177   -4.7571674    1846.3016  0.039020662   0.03807253           19 
 3944000   0.62906274   -4.7756129    1835.4218  0.038780887  0.038063111           15 
 3945000   0.61559305   -4.7463749    1844.1667  0.038955783  0.038053751           17 
 3946000    0.6142567   -4.7462083    1842.3883  0.038908353  0.038044432            6 
 3947000   0.62644626   -4.7615609    1841.9788   0.03888985  0.038035056           11 
 3948000   0.63025226   -4.7685233    1843.9384  0.038921361  0.038025713           14 
 3949000   0.61870179   -4.7634364    1836.9228  0.038763458   0.03801634           12 
 3950000     0.612489   -4.7592815    1841.7825  0.038856171  0.038006996           13 
 3951000   0.60500537   -4.7561039    1836.3058  0.038730824   0.03799762           16 
 3952000   0.62589858   -4.7832284    1835.5677   0.03870546  0.037988261           11 
 3953000   0.60140887    -4.762348    1840.0736  0.038790657  0.037978862           14 
 3954000   0.63375647   -4.7644697    1843.3067  0.038848986  0.037969495            5 
 3955000   0.63158386   -4.7818298    1838.8308  0.038744855  0.037960145           19 
 3956000   0.61303522   -4.7606164    1842.9418  0.038821659  0.037950877           12 
 3957000   0.61973278   -4.7845165     1843.051  0.038814148  0.037941573           15 
 3958000   0.62949962   -4.7713907    1844.1983  0.038828496  0.037932243           21 
 3959000   0.61381491   -4.7657893    1839.6197  0.038722313  0.037922923           25 
 3960000   0.63040225   -4.7611591    1841.4349  0.038750733  0.037913612            8 
 3961000   0.62747024   -4.7641551    1838.8281  0.038686107  0.037904333            8 
 3962000   0.61146229      -4.7724     1844.148  0.038788237  0.037895059            7 
 3963000   0.62040895   -4.7505161    1840.1219   0.03869379  0.037885806            9 
 3964000   0.63211307   -4.7618056     1842.559  0.038735264  0.037876533           12 
 3965000   0.61454578   -4.7671276    1839.3562   0.03865818  0.037867256            8 
 3966000   0.62002281   -4.7820439    1838.5607  0.038631718  0.037858012           11 
 3967000     0.615551    -4.778486    1840.3792  0.038660181  0.037848778            7 
 3968000   0.60878215   -4.7663535    1840.5662  0.038654363  0.037839466           10 
 3969000   0.61331055   -4.7449614     1848.106  0.038802931  0.037830219            5 
 3970000   0.61103061   -4.7800831    1841.3609  0.038651571   0.03782096           40 
 3971000   0.61098188   -4.7619481    1842.9847  0.038675915  0.037811718            7 
 3972000   0.61122141   -4.7663823    1842.7293  0.038660819  0.037802482           14 
 3973000   0.62047562   -4.7647466     1842.673  0.038649907   0.03779325           18 
 3974000   0.61261364   -4.7882734    1840.5903  0.038596509  0.037784001            5 
 3975000   0.62961885   -4.7642768    1843.2616  0.038642802  0.037774716            9 
 3976000   0.62155195    -4.760997    1838.3354  0.038529832  0.037765445            9 
 3977000   0.61939008   -4.7798235    1843.9245  0.038637257  0.037756155           14 
 3978000   0.62479382   -4.7818343    1841.5331  0.038577448   0.03774688            8 
 3979000   0.60436769   -4.7795494    1844.5503  0.038630943  0.037737546            6 
 3980000   0.60868497   -4.7734951    1841.0384  0.038547704   0.03772831            7 
 3981000   0.62415891   -4.7576699    1839.6971  0.038509946  0.037719045           18 
 3982000   0.60712082   -4.7873797    1838.8469  0.038482482  0.037709802           12 
 3983000   0.60810282    -4.762513    1841.1933  0.038521911  0.037700507           13 
 3984000    0.6150342   -4.7617606    1840.9619  0.038507402  0.037691252            8 
 3985000   0.60938511   -4.7710779    1842.9488  0.038539289  0.037681951            6 
 3986000   0.62115674   -4.7600375    1842.9136  0.038528884  0.037672691           11 
 3987000   0.60960483   -4.7855615    1843.9662  0.038541222  0.037663448           12 
 3988000   0.60469608   -4.7597232    1844.9819  0.038552782  0.037654174           11 
 3989000   0.61429173   -4.7569727    1840.4682  0.038448821  0.037644877           14 
 3990000   0.61797321   -4.7590567    1841.2995  0.038456548  0.037635571           20 
 3991000   0.61808335   -4.7836504    1839.3976  0.038407199  0.037626274            7 
 3992000   0.61460092    -4.758227    1844.4888  0.038503857  0.037617037            6 
 3993000   0.59190438   -4.7776767    1846.8983    0.0385445  0.037607793            8 
 3994000    0.6205271   -4.7618383    1843.7339  0.038468826  0.037598597            9 
 3995000   0.61002204   -4.7820111    1839.5903  0.038372763  0.037589346           10 
 3996000   0.60308045   -4.7834057    1842.3332  0.038420362  0.037580143            9 
 3997000   0.62439434   -4.7670786      1843.04  0.038425486  0.037570886           14 
 3998000   0.61651654   -4.7960561    1840.8894  0.038371048  0.037561651           10 
 3999000   0.61872855    -4.773603    1847.0391  0.038489603  0.037552386           10 
 4000000   0.61601114   -4.7575385    1843.3222  0.038402545  0.037543103           16 
 4001000   0.61048765   -4.7836944    1845.7221  0.038442933  0.037533859           21 
 4002000   0.61800323   -4.7994602    1841.5267  0.038345968  0.037524601           23 
 4003000   0.61263655   -4.7886412    1841.0508  0.038326479   0.03751533            5 
 4004000   0.60523606   -4.7737923    1846.5046  0.038430416  0.037506107           12 
 4005000   0.61582112   -4.7897694    1842.4959   0.03833741  0.037496855           10 
 4006000    0.5977612   -4.8154378    1843.5615  0.038350007  0.037487642            6 
 4007000   0.61120583   -4.7730373    1841.6875  0.038301463   0.03747838           28 
 4008000   0.61357445   -4.7825932    1847.4566  0.038411855   0.03746914           11 
 4009000   0.61275556   -4.7823538    1843.4082  0.038318121  0.037459918           15 
 4010000   0.61758479   -4.7964359    1840.3863  0.038245766  0.037450665            8 
 4011000   0.61815984   -4.7906394    1841.4628  0.038258597  0.037441417            8 
 4012000   0.61959867    -4.775064    1845.6761  0.038336577  0.037432241            7 
 4013000   0.60947345   -4.7608402    1847.0854  0.038356288  0.037423045            9 
 4014000   0.60928741    -4.769001    1846.7275  0.038339303  0.037413867           19 
 4015000   0.61044383   -4.8070404    1842.6279  0.038244664  0.037404606           15 
 4016000   0.61923379   -4.7948684    1841.2125  0.038205771  0.037395328            9 
 4017000    0.5990084   -4.8004969    1843.1622  0.038236706  0.037386064           19 
 4018000   0.60451265    -4.787844    1838.1289    0.0381228  0.037376829           20 
 4019000   0.60298274   -4.7870515    1843.5926  0.038226603  0.037367595            8 
 4020000   0.58932912   -4.7878256    1845.8957  0.038264837  0.037358392           11 
 4021000   0.61495533   -4.7967838      1843.97   0.03821541   0.03734916            8 
 4022000   0.61218084   -4.7830913    1845.9543  0.038247022  0.037339956           14 
 4023000   0.60612534   -4.7727353    1846.8387  0.038255836  0.037330792           25 
 4024000   0.61160895   -4.7748866    1849.0674  0.038292482  0.037321638            6 
 4025000   0.61413848   -4.7730275    1845.3213  0.038205409  0.037312496           15 
 4026000   0.60103878   -4.7822901    1843.7624  0.038163654  0.037303336           17 
 4027000   0.61393314   -4.7823095    1841.8586   0.03811478  0.037294158           27 
 4028000   0.60732797   -4.7755291     1843.111  0.038131228  0.037284963           11 
 4029000   0.61162985   -4.7860977    1845.6034  0.038173314  0.037275784           17 
 4030000   0.61370868   -4.7625467    1848.8162  0.038230277  0.037266595           11 
 4031000   0.61110919   -4.7766494    1848.8543  0.038221581  0.037257428            9 
 4032000   0.60977996   -4.7935799    1840.7992  0.038045619  0.037248256            8 
 4033000   0.60372266   -4.8114661    1840.0496  0.038020695  0.037239053            9 
 4034000   0.61122686   -4.8003632    1842.1899  0.038055485  0.037229827           16 
 4035000   0.62019309   -4.7993014     1844.456  0.038092854  0.037220597           18 
 4036000   0.60186776   -4.7755693    1843.9025  0.038071987  0.037211422           15 
 4037000   0.60069311   -4.7749719    1846.0703  0.038107306   0.03720226           11 
 4038000   0.60798715    -4.770655    1837.4208  0.037919366  0.037193039            8 
 4039000   0.60866636   -4.8150555    1841.3756  0.037991574   0.03718384           12 
 4040000   0.60747926   -4.7976377    1839.6214  0.037945987  0.037174561           10 
 4041000    0.6119615   -4.7979832    1843.1331  0.038009014  0.037165358           13 
 4042000   0.61026703   -4.7842405    1842.7326  0.037991353  0.037156143           10 
 4043000   0.61333535   -4.8033453    1841.3541  0.037953543  0.037146919            4 
 4044000   0.60363295   -4.7712552    1842.9926  0.037977922  0.037137692            9 
 4045000   0.61641187   -4.8036832    1848.5809   0.03808366   0.03712854            8 
 4046000   0.60512148    -4.804204    1847.6489  0.038055052  0.037119328           15 
 4047000   0.60516706   -4.7943636    1844.2009  0.037974651  0.037110181           14 
 4048000   0.60257021   -4.7941762    1843.4344  0.037949489  0.037100979            4 
 4049000   0.60342061   -4.8033855    1846.0466   0.03799388  0.037091779            9 
 4050000   0.61180596   -4.7848034     1847.702   0.03801856   0.03708258            6 
 4051000   0.60641669   -4.7763099    1848.4682  0.038024937  0.037073441            9 
 4052000    0.6081424   -4.7832414    1846.5111  0.037975302  0.037064328           17 
 4053000   0.60118574   -4.7814215    1851.1164  0.038060622  0.037055208           12 
 4054000   0.59095327   -4.7945917    1842.0482  0.037864829  0.037046049           14 
 4055000    0.5849166    -4.813168     1847.121   0.03795974  0.037036899            8 
 4056000   0.60154116   -4.8072489    1843.8385  0.037882941  0.037027704           16 
 4057000   0.60096049   -4.8027337    1844.1555  0.037880114  0.037018551           17 
 4058000   0.59398113   -4.8059373    1847.9142  0.037947968   0.03700938           13 
 4059000   0.59825495   -4.7844411    1846.4173  0.037907885  0.037000255            4 
 4060000   0.59917519   -4.7917946    1847.6272  0.037923383   0.03699112           12 
 4061000   0.60138717   -4.7872939     1845.719  0.037874888  0.036981977           13 
 4062000    0.6028888   -4.7989865    1845.3297  0.037857577  0.036972813           17 
 4063000   0.59708976    -4.812983    1844.6529  0.037834378  0.036963633            9 
 4064000   0.61864037   -4.8138272    1842.5391  0.037781723  0.036954463            5 
 4065000   0.59869077   -4.8055407    1842.7319  0.037776382  0.036945278           17 
 4066000    0.6017338   -4.7739938    1844.9399  0.037812345  0.036936158           12 
 4067000   0.60512995   -4.8186064    1842.1326  0.037745524  0.036927009            8 
 4068000   0.61366085   -4.8097759    1843.5537  0.037765358  0.036917869            7 
 4069000   0.60527569   -4.8155529    1846.0952  0.037808126   0.03690872           16 
 4070000   0.59561437   -4.7883104    1848.2094  0.037842125  0.036899586           13 
 4071000   0.58694267   -4.8277564    1849.5562  0.037860399  0.036890441           16 
 4072000   0.59871615   -4.8174013    1847.7797  0.037814745  0.036881312           13 
 4073000   0.60257267   -4.8109244    1849.1631  0.037833764  0.036872221            9 
 4074000   0.61266393   -4.8070343     1847.238  0.037785101  0.036863169           16 
 4075000   0.58976135   -4.8024694    1851.1041  0.037854889  0.036854103            8 
 4076000   0.59677815   -4.8195039    1845.8181  0.037737531  0.036844965           12 
 4077000   0.61771388   -4.8194499    1847.6101  0.037764902  0.036835844           14 
 4078000   0.59454057   -4.8132599    1846.4116  0.037731151  0.036826762           20 
 4079000    0.6010789   -4.8110112    1851.8871  0.037833765  0.036817737           23 
 4080000   0.59843239   -4.7919287    1848.6994  0.037759384  0.036808685            5 
 4081000   0.60466746   -4.7948006    1851.0883  0.037798911  0.036799624            7 
 4082000   0.59994944   -4.7901943    1847.0977  0.037708184  0.036790569            8 
 4083000   0.59169983    -4.796671    1849.0417  0.037738626  0.036781486           20 
 4084000   0.59676356   -4.8244735    1844.6214  0.037639191  0.036772431           18 
 4085000   0.60142418   -4.8106551     1848.256  0.037704121  0.036763331           13 
 4086000    0.6012001   -4.8108047    1846.0326  0.037649548  0.036754196            8 
 4087000   0.59817545   -4.8052243    1847.6306  0.037672918  0.036745062           10 
 4088000   0.60515626   -4.8153089    1847.3184  0.037657338  0.036735967            5 
 4089000   0.58907096   -4.8164468    1846.7053  0.037635634   0.03672686            9 
 4090000   0.61299414   -4.8179518     1845.156  0.037594866  0.036717738           11 
 4091000   0.58310704   -4.8068475    1847.9098   0.03764177  0.036708642           10 
 4092000   0.60020132   -4.8075121    1848.1536  0.037637536  0.036699579           12 
 4093000   0.58250317   -4.8065777    1852.0085  0.037706827  0.036690536           14 
 4094000   0.59736512   -4.8120723    1844.2916  0.037540539  0.036681461           11 
 4095000   0.58863398   -4.8075056    1845.1196  0.037548221  0.036672382           13 
 4096000   0.59640614   -4.8041608    1854.0023  0.037719774  0.036663307            8 
 4097000    0.5865908   -4.8158587    1847.2339  0.037572897  0.036654234           36 
 4098000   0.60489743   -4.8153839    1852.6397  0.037673656  0.036645155           15 
 4099000   0.59344081   -4.8288625    1847.3385  0.037556691   0.03663605            9 
 4100000   0.59404104   -4.8159853    1849.9973   0.03760157  0.036626969           21 
 4101000   0.59467918   -4.8094108    1847.5775  0.037543232  0.036617902           21 
 4102000   0.60191283   -4.8010218    1852.6125  0.037636366  0.036608882           27 
 4103000   0.59393172    -4.808409    1848.1098  0.037535743  0.036599872           22 
 4104000   0.58698972   -4.7893609    1850.8963  0.037583176  0.036590867           19 
 4105000   0.60680303   -4.8049713    1849.8265  0.037552303  0.036581847           21 
 4106000     0.594997   -4.8148313    1851.8349  0.037583921   0.03657284           13 
 4107000   0.58751509   -4.8283132    1852.7918  0.037594185  0.036563845           15 
 4108000   0.59230788   -4.8241184    1849.6384  0.037521065  0.036554806           10 
 4109000     0.587609   -4.8207658    1848.2246   0.03748326  0.036545755            6 
 4110000   0.60087556   -4.8489771    1850.3259  0.037516746   0.03653671           11 
 4111000   0.59626943   -4.8213386    1852.7489  0.037556736  0.036527708           11 
 4112000   0.59586741   -4.8220062     1853.423  0.037561264  0.036518721            8 
 4113000   0.59389187   -4.8263289    1848.3452   0.03744925  0.036509708            8 
 4114000   0.59596223   -4.8346979    1847.6366  0.037425794  0.036500696            6 
 4115000     0.591493   -4.8274082    1849.9403  0.037463351  0.036491675            7 
 4116000   0.59021359   -4.8223173    1856.8232  0.037593603   0.03648272           10 
 4117000   0.58373477    -4.799012    1852.4832  0.037496624  0.036473762           10 
 4118000   0.59225594    -4.810208    1853.2825  0.037503694  0.036464784           11 
 4119000   0.59999128   -4.8290836    1853.7118  0.037503274  0.036455822           10 
 4120000     0.594799    -4.835854    1849.5066  0.037409113  0.036446894            5 
 4121000    0.6043746   -4.8327118    1855.3753   0.03751871   0.03643792           11 
 4122000   0.59815834   -4.8147982    1856.9106  0.037540648  0.036428972           15 
 4123000   0.58413842   -4.8025041    1855.2703   0.03749839  0.036420031            8 
 4124000   0.60039527   -4.8105703    1855.8979  0.037501978  0.036411108           13 
 4125000   0.60672478    -4.818957    1854.4629  0.037463898  0.036402179           15 
 4126000   0.59782183   -4.8256637    1852.4589  0.037414342  0.036393225           11 
 4127000   0.58929453   -4.8207296    1854.5423  0.037447345  0.036384267            8 
 4128000   0.60215917   -4.8221355    1853.7688  0.037422659  0.036375328           13 
 4129000    0.5873212   -4.8362603     1851.182  0.037361388  0.036366353           11 
 4130000   0.58402673   -4.8166192    1852.5462  0.037379867  0.036357366            7 
 4131000    0.5811312   -4.8405347    1851.6445  0.037352629  0.036348403           10 
 4132000   0.60726627   -4.8249774     1851.937  0.037349487  0.036339397           11 
 4133000   0.57511713   -4.8212673    1855.1635  0.037405506  0.036330446           11 
 4134000    0.5898665   -4.8129816    1848.6852  0.037265869  0.036321448           10 
 4135000   0.59674148   -4.8591559    1851.0042  0.037303592  0.036312439            9 
 4136000   0.60002906   -4.8417977    1853.4342  0.037343532  0.036303421           14 
 4137000   0.58007911    -4.822929    1850.5479  0.037276365   0.03629443           17 
 4138000   0.57474485   -4.8238861     1848.805  0.037232258  0.036285462           14 
 4139000   0.58655218   -4.8143708    1852.8646  0.037304998   0.03627649            8 
 4140000   0.59288969   -4.8222559    1852.5101   0.03728885  0.036267496           11 
 4141000   0.58334978    -4.825842    1851.4232  0.037257974  0.036258551           10 
 4142000   0.59958104   -4.8334602    1853.9083  0.037298976  0.036249615           10 
 4143000   0.59583414   -4.8236416    1854.8582  0.037309079  0.036240636            9 
 4144000   0.57794169   -4.7912835    1854.0162  0.037283144  0.036231682            9 
 4145000   0.59122488   -4.8453703    1852.4798  0.037243261  0.036222733           14 
 4146000   0.58058679   -4.8190101    1855.7847  0.037300705  0.036213754           16 
 4147000   0.58812809   -4.8367341    1848.0032  0.037135342  0.036204817           11 
 4148000   0.60085041   -4.8340317    1852.3534  0.037213786  0.036195884           10 
 4149000   0.59048232   -4.8299149     1850.446  0.037166506  0.036186952           10 
 4150000   0.58998252   -4.8393285    1846.9938  0.037088229  0.036178007           20 
 4151000   0.58436244   -4.8456621    1850.8317  0.037156342   0.03616899           16 
 4152000   0.58036212    -4.842615    1852.4328  0.037179528  0.036160036            9 
 4153000   0.58690622   -4.8366767    1855.0934  0.037223962  0.036151118           10 
 4154000   0.59225956   -4.8207156    1854.6697  0.037206501  0.036142182           13 
 4155000   0.59066222   -4.8632266    1850.0019  0.037103928  0.036133252            8 
 4156000   0.60758109   -4.8335543    1854.3429  0.037182044  0.036124322           10 
 4157000   0.59318039   -4.8177057    1853.3663  0.037153523  0.036115398            5 
 4158000   0.58092906   -4.8398659    1851.5521  0.037108228  0.036106478           21 
 4159000   0.58576137   -4.8130453    1850.8146  0.037084527  0.036097538           14 
 4160000   0.59333526   -4.8311141    1853.0973   0.03712134  0.036088618           30 
 4161000    0.5866987     -4.81992    1855.1822  0.037154173  0.036079716           18 
 4162000   0.59281473   -4.8106639    1853.4754  0.037111072  0.036070813           18 
 4163000   0.58967714   -4.8015219    1855.5236  0.037143158   0.03606195            5 
 4164000   0.57947676    -4.821088    1855.8699  0.037141168  0.036053087            9 
 4165000   0.59026695   -4.8342291    1851.7964  0.037050748  0.036044192           37 
 4166000   0.57010303   -4.8347857    1851.6429  0.037038784  0.036035264            9 
 4167000   0.57700959   -4.8189797    1854.5456  0.037087946   0.03602632            8 
 4168000   0.59334265   -4.8192739    1850.5866  0.036999891  0.036017393           23 
 4169000   0.58990668   -4.8212271    1852.6097  0.037031456  0.036008459           10 
 4170000   0.59021724   -4.8290989    1853.7022  0.037044408  0.035999526           23 
 4171000   0.57449022   -4.8257755    1852.9403  0.037020305  0.035990598           24 
 4172000   0.59036892   -4.8128439    1855.9441   0.03707143  0.035981684           11 
 4173000   0.60088072   -4.8519582    1857.1985  0.037087597  0.035972802            8 
 4174000   0.59429144    -4.835685    1853.6198  0.037007264  0.035963895           11 
 4175000   0.59311055   -4.8499316    1847.2646  0.036871549  0.035954935           14 
 4176000   0.58094205   -4.8306616    1852.7938  0.036973056  0.035945977           17 
 4177000   0.59063752   -4.8470963    1850.3677  0.036915803  0.035937022           15 
 4178000   0.58530623    -4.870389    1854.8662  0.036996693  0.035928062           15 
 4179000   0.57305482   -4.8375478    1848.2612  0.036856129  0.035919119           13 
 4180000   0.58036476   -4.8553596    1857.1096  0.037023716  0.035910195           12 
 4181000   0.59116348   -4.8404137    1855.1288   0.03697538  0.035901288           15 
 4182000   0.57147092   -4.8242793     1851.999  0.036904173  0.035892384           11 
 4183000   0.56703542   -4.8493278     1850.923  0.036873915  0.035883444           12 
 4184000   0.58768785   -4.8380955     1855.716  0.036960563  0.035874481           11 
 4185000   0.59309362    -4.834175    1859.2143  0.037021392   0.03586556           32 
 4186000   0.58247154   -4.8483094    1854.5158  0.036919011  0.035856614           23 
 4187000   0.58600441    -4.831912    1853.5845  0.036891659  0.035847685           40 
 4188000   0.58000863   -4.8371656    1851.6426   0.03684421  0.035838793           30 
 4189000   0.59007039   -4.8418235    1848.7659  0.036778186  0.035829881           14 
 4190000   0.57980628   -4.8644658    1850.3198  0.036800315  0.035820936           13 
 4191000   0.59604638   -4.8456399     1850.486  0.036794838  0.035811972            6 
 4192000   0.57412942   -4.8466067    1850.2004  0.036780383  0.035803017            9 
 4193000   0.59281692   -4.8327502     1854.191  0.036850922  0.035794071            7 
 4194000   0.58685578   -4.8340432    1852.9498  0.036817473  0.035785188           16 
 4195000   0.59074735   -4.8281184    1856.9264  0.036887691  0.035776264           19 
 4196000   0.57495459   -4.8500109    1848.8068  0.036717644  0.035767317           10 
 4197000   0.58119901   -4.8366186    1853.6076  0.036804216  0.035758409           19 
 4198000   0.57228693   -4.8459873    1850.9777  0.036743245  0.035749462           10 
 4199000   0.57722416   -4.8499712    1854.9651  0.036813628  0.035740539           23 
 4200000   0.57577346   -4.8309394    1852.1832  0.036749666   0.03573165           16 
 4201000    0.5884642   -4.8439648    1854.4301   0.03678549  0.035722794            8 
 4202000   0.58405528   -4.8320623    1853.6347   0.03676096  0.035713887           13 
 4203000   0.58300823   -4.8488334    1852.4237  0.036728203   0.03570497            7 
 4204000   0.56852073   -4.8668475    1855.5176  0.036780797  0.035696065           16 
 4205000   0.57871171   -4.8372542    1850.3999  0.036670628  0.035687157           19 
 4206000   0.59033472   -4.8349187    1851.8413  0.036690468   0.03567824           16 
 4207000   0.57250192   -4.8309345    1850.7603  0.036660333  0.035669349           22 
 4208000    0.5742296   -4.8580315      1857.53  0.036785687  0.035660448            5 
 4209000   0.58045762   -4.8449139    1854.9282  0.036725434  0.035651551            6 
 4210000   0.58368391   -4.8555815     1850.003   0.03661922  0.035642652            9 
 4211000   0.58445858   -4.8636913    1848.2395  0.036575625  0.035633725            6 
 4212000   0.57083034   -4.8602528    1851.0153   0.03662186  0.035624763           14 
 4213000   0.57665979   -4.8423825    1852.6972  0.036646436  0.035615847            8 
 4214000   0.57025066   -4.8532227    1851.9238  0.036622446  0.035606884           16 
 4215000   0.57763924   -4.8337651     1853.747  0.036649801  0.035597979            9 
 4216000   0.57530908   -4.8419527    1850.1455  0.036569922  0.035589071           13 
 4217000    0.5556632   -4.8364026    1855.2631  0.036662381  0.035580178           17 
 4218000   0.57206613   -4.8596405    1849.5585  0.036540985   0.03557126           16 
 4219000   0.57741892   -4.8412148    1851.3571   0.03656785  0.035562309            9 
 4220000   0.59011933   -4.8636125     1852.435  0.036580469   0.03555338           24 
 4221000   0.58157131   -4.8404599    1849.0168   0.03650432  0.035544467           11 
 4222000   0.55708098   -4.8339238    1852.2928  0.036560335  0.035535571           23 
 4223000    0.5895385   -4.8438713    1852.0247  0.036546387  0.035526661           10 
 4224000   0.57169075   -4.8401364    1849.4951  0.036487829  0.035517752            9 
 4225000   0.58263681   -4.8711963      1851.07  0.036510256  0.035508858           19 
 4226000   0.58172491    -4.862237    1854.2183  0.036563699   0.03549996            8 
 4227000   0.58488409   -4.8496773    1852.9134  0.036529322  0.035491069            9 
 4228000   0.58332025   -4.8676892    1852.2525  0.036507656   0.03548216           10 
 4229000   0.56986755   -4.8474927    1859.8757  0.036649241  0.035473268            9 
 4230000   0.56597286   -4.8612246     1854.308   0.03653089  0.035464337           19 
 4231000   0.57460617   -4.8588072    1849.3429  0.036424465  0.035455416           14 
 4232000   0.57508717   -4.8517427    1853.1541  0.036490904  0.035446533           26 
 4233000   0.56770344   -4.8609581    1858.3199  0.036583981  0.035437663           18 
 4234000   0.57206874   -4.8413753    1850.8962  0.036429227  0.035428748           23 
 4235000   0.57668898   -4.8442309    1854.5841  0.036493194  0.035419879           19 
 4236000   0.56726621   -4.8718848    1853.0038   0.03645349  0.035410984           12 
 4237000   0.57656066   -4.8727298    1848.9143  0.036364453  0.035402062           11 
 4238000   0.59039037   -4.8711688    1851.7773  0.036412169  0.035393147           15 
 4239000    0.5776834   -4.8438733    1849.3131  0.036355137  0.035384264           14 
 4240000   0.57802195   -4.8653276    1855.9593  0.036477188  0.035375388           10 
 4241000   0.57591692   -4.8519664    1855.8561  0.036466559  0.035366515           19 
 4242000   0.58331467   -4.8527375    1855.0946  0.036443002  0.035357635           12 
 4243000    0.5778573   -4.8529979     1850.828  0.036350617  0.035348758           13 
 4244000   0.56603518   -4.8689908     1850.103  0.036327816  0.035339908            9 
 4245000   0.57275809   -4.8639512    1851.9578  0.036355669  0.035331032           15 
 4246000   0.56344452   -4.8901009    1849.3966   0.03629684  0.035322126           21 
 4247000   0.58184861   -4.8640615    1851.4981  0.036329528  0.035313223           13 
 4248000   0.57358633   -4.8772627    1853.6792  0.036363764  0.035304339           25 
 4249000   0.57626539   -4.8948778    1848.6704   0.03625697  0.035295419           21 
 4250000   0.56717883   -4.8523804    1853.3318   0.03633984  0.035286512           18 
 4251000   0.58254784   -4.8785742    1851.8379  0.036302006  0.035277595           26 
 4252000   0.56191667   -4.8678431    1852.9341  0.036314951  0.035268683           30 
 4253000   0.58669589   -4.8959391    1849.9632  0.036248202  0.035259751           80 
 4254000    0.5718599   -4.8843142    1852.6622  0.036292552  0.035250844           16 
 4255000   0.56224829   -4.8639076    1849.9238  0.036230391  0.035241961           20 
 4256000    0.5799163   -4.8780396    1853.4318  0.036290565  0.035233064           27 
 4257000   0.58587511   -4.8838549    1854.6073  0.036305053  0.035224187           19 
 4258000   0.57215735   -4.8531618    1851.9762  0.036245034  0.035215301           16 
 4259000   0.55960402   -4.8731147    1858.7167  0.036368411  0.035206437           14 
 4260000   0.56948707   -4.8780735    1851.3703  0.036216164  0.035197543           38 
 4261000   0.55751991   -4.8687287    1852.6263  0.036232228  0.035188674           23 
 4262000    0.5600296   -4.8945189    1853.0045  0.036231122  0.035179814           17 
 4263000   0.55616294   -4.8838693    1854.4893  0.036251648  0.035170948           42 
 4264000   0.57139032   -4.8599675    1860.2189  0.036355122   0.03516212           15 
 4265000    0.5645634   -4.8449404    1854.0538   0.03622614  0.035153306           12 
 4266000   0.57621744   -4.8760833    1856.4444  0.036264346  0.035144474           19 
 4267000    0.5733073   -4.8671194    1852.8296  0.036185251  0.035135608           21 
 4268000   0.58006305   -4.8658868    1858.4604  0.036286715  0.035126812           17 
 4269000   0.55717187   -4.8609338    1855.9361  0.036228939  0.035117994            9 
 4270000   0.55647099   -4.8677738     1855.385  0.036209699  0.035109183            7 
 4271000   0.55508521   -4.8612943      1853.57  0.036165808  0.035100351           17 
 4272000   0.56752404   -4.8804597    1850.1378  0.036090392  0.035091547           11 
 4273000     0.565698   -4.8676237    1855.0377  0.036177503  0.035082745            8 
 4274000   0.56626023   -4.8731259    1856.3765  0.036195144  0.035073931           13 
 4275000   0.56559904   -4.8810176    1852.2384  0.036106012  0.035065072            4 
 4276000   0.57707017   -4.8538642    1851.2706  0.036078706  0.035056235           13 
 4277000   0.57092068   -4.8742374    1853.6224  0.036116094  0.035047417           26 
 4278000   0.56397616   -4.8830349    1853.2186  0.036099785  0.035038621           22 
 4279000   0.57128439    -4.914263    1856.2904  0.036151172  0.035029787           29 
 4280000   0.55265374   -4.8635656    1854.4788  0.036107454  0.035020957           11 
 4281000   0.57157844   -4.8805346    1856.7623   0.03614347   0.03501216           24 
 4282000   0.57105751   -4.8683021    1851.8962  0.036040327  0.035003354           14 
 4283000   0.55621877   -4.8795129    1855.8461  0.036108765  0.034994548           21 
 4284000    0.5593536   -4.8785894    1855.3581  0.036090843  0.034985815            9 
 4285000   0.56983801     -4.87207    1856.6054  0.036106679  0.034977044           24 
 4286000   0.55482173   -4.8843304    1850.4246  0.035978079  0.034968236            7 
 4287000    0.5597487   -4.8883729    1857.6641  0.036110414  0.034959439           14 
 4288000   0.57375603   -4.8701145    1855.7097  0.036064011  0.034950657           11 
 4289000     0.566739   -4.8943415    1857.6771  0.036093827  0.034941832            8 
 4290000   0.57421718    -4.900373    1853.6144  0.036006495  0.034933029            5 
 4291000   0.56706306   -4.8813834    1853.7113  0.035999986  0.034924237            9 
 4292000   0.56905339   -4.8810879    1853.1133  0.035979989  0.034915392           13 
 4293000   0.56486398   -4.8853692    1854.0488  0.035989766  0.034906571            9 
 4294000    0.5598023   -4.8890692    1853.7533   0.03597565  0.034897781           19 
 4295000   0.56198715   -4.8946066    1850.9417  0.035912722   0.03488899           21 
 4296000   0.56508995   -4.8494574    1853.9026  0.035961798  0.034880225           10 
 4297000   0.56565162   -4.8713787    1852.4086  0.035924454  0.034871436            7 
 4298000   0.55200354   -4.8965291    1852.2354  0.035912738  0.034862628            7 
 4299000   0.56124319   -4.8975538    1854.2028  0.035942521  0.034853834           21 
 4300000   0.56468195   -4.8740253    1860.7608  0.036061257  0.034845084            9 
 4301000   0.56815904   -4.8768493     1855.902  0.035958731  0.034836317           25 
 4302000   0.57171188   -4.8759917    1853.2462  0.035898927    0.0348275           12 
 4303000   0.56076794   -4.8997432    1852.3308  0.035872857   0.03481871           31 
 4304000   0.57649451   -4.8962948    1852.1076  0.035860201  0.034809915           19 
 4305000   0.57048336   -4.9007663    1854.2642  0.035893616  0.034801129           19 
 4306000   0.56195824   -4.8806318    1849.9234  0.035801273  0.034792303           34 
 4307000   0.56266911   -4.8823961    1851.8907  0.035831024  0.034783483           20 
 4308000   0.55819824   -4.8933526    1855.1258  0.035885287  0.034774677           26 
 4309000   0.57967054   -4.8882581    1855.3938  0.035882143  0.034765879           16 
 4310000   0.55461252   -4.8923295    1856.9804  0.035904494  0.034757119           12 
 4311000   0.56509348   -4.8911588     1859.736  0.035949431  0.034748382           27 
 4312000   0.55371796   -4.8888249    1853.7643  0.035825686  0.034739609           20 
 4313000   0.56106353   -4.8809289    1853.1747  0.035805988  0.034730835           17 
 4314000   0.55825905   -4.8757141    1852.8552  0.035791515  0.034722099            6 
 4315000   0.56575978   -4.8844336    1856.5168  0.035853935   0.03471334           11 
 4316000   0.55273123   -4.8931299    1855.9836  0.035835333  0.034704573           14 
 4317000   0.56696616   -4.8995877     1857.492  0.035856151  0.034695774           25 
 4318000   0.56347278   -4.8761795    1856.6763  0.035832104  0.034687049           19 
 4319000    0.5492932   -4.8826436    1848.4969  0.035665989  0.034678295           36 
 4320000   0.56399777   -4.8772953     1855.728  0.035797223  0.034669527           15 
 4321000   0.55047556   -4.8807926    1852.4374  0.035725475  0.034660814            8 
 4322000   0.55901478   -4.8920185     1855.271  0.035771846  0.034652074           13 
 4323000    0.5637728   -4.8869728     1858.725  0.035830153   0.03464335           17 
 4324000   0.56511858   -4.8913481    1852.6088  0.035703994  0.034634625            8 
 4325000   0.54964702   -4.8844146      1854.45  0.035731214  0.034625927            6 
 4326000   0.57384637    -4.881703    1857.2898  0.035777659  0.034617259           23 
 4327000   0.55593097   -4.8932479    1854.5617  0.035716851  0.034608566           17 
 4328000   0.56188769   -4.8801435     1857.236  0.035760089  0.034599866           15 
 4329000   0.55402551   -4.8819076    1861.7956    0.0358396  0.034591174           10 
 4330000   0.54635265   -4.8924079    1855.9838  0.035719472  0.034582502           11 
 4331000   0.56192768   -4.8682499    1858.1988  0.035753844  0.034573824           16 
 4332000    0.5510243   -4.8877691    1853.7069  0.035659181  0.034565109            9 
 4333000   0.55834039   -4.8964082     1858.462  0.035742402  0.034556428           10 
 4334000   0.56501312   -4.8920144    1860.8383  0.035779848  0.034547775           10 
 4335000    0.5651931    -4.887804     1858.762  0.035731679  0.034539108           10 
 4336000   0.56215646   -4.8979548    1858.0277  0.035709328   0.03453045           11 
 4337000   0.56219709   -4.8841872    1857.5737   0.03569237  0.034521807           14 
 4338000   0.55545484   -4.8731972    1858.9097  0.035709808  0.034513139            8 
 4339000   0.55234463   -4.8764002    1854.7905  0.035622464  0.034504501            7 
 4340000   0.55148008   -4.9055291    1856.7146  0.035651202  0.034495832           10 
 4341000    0.5686769   -4.9001653    1856.1654  0.035632446   0.03448716           11 
 4342000   0.56301734    -4.906737     1861.623  0.035728984  0.034478465           21 
 4343000   0.53899564   -4.8993276    1852.4489  0.035544725  0.034469778           15 
 4344000   0.55790362   -4.8999141    1860.3627  0.035688358  0.034461063           15 
 4345000   0.54537149   -4.8956159    1858.0953  0.035636657  0.034452378           15 
 4346000    0.5659769   -4.8962123    1854.3844  0.035557302   0.03444368           21 
 4347000    0.5534159   -4.8928995    1859.1513  0.035640506  0.034435008           12 
 4348000   0.55020421   -4.8896704     1859.665  0.035642154  0.034426378           21 
 4349000   0.56270717   -4.8853304     1859.402  0.035628919  0.034417783           31 
 4350000   0.54460204   -4.9133955    1856.1633  0.035558683  0.034409143           10 
 4351000   0.55221221   -4.9134362    1856.8631  0.035563914  0.034400488           21 
 4352000   0.55454538   -4.8899913    1859.8527  0.035612989  0.034391845           19 
 4353000    0.5651983   -4.9066571    1857.3607    0.0355571  0.034383181           15 
 4354000   0.56074339   -4.9110403    1857.1623  0.035545136   0.03437447           12 
 4355000   0.55719685   -4.8939663    1860.3608  0.035598179  0.034365809           11 
 4356000   0.55428284   -4.8932578    1863.9333   0.03565835  0.034357195            7 
 4357000   0.54818653   -4.9029664    1860.6458  0.035587288  0.034348584           10 
 4358000   0.54745907   -4.9077243    1857.6593  0.035522014  0.034339943           14 
 4359000   0.55175935   -4.8980415    1862.9659  0.035615315  0.034331308           21 
 4360000   0.55872983   -4.8841341    1858.2901  0.035517777  0.034322661           15 
 4361000   0.55674544   -4.9054054    1856.4126  0.035473757  0.034314008           16 
 4362000   0.55981353   -4.9097453    1853.4501  0.035409027  0.034305329           10 
 4363000    0.5522667   -4.9161366    1858.4415  0.035496247  0.034296659           10 
 4364000   0.57201809    -4.920294    1855.6072   0.03543399  0.034287998           43 
 4365000   0.54582905   -4.9257231    1860.9759  0.035528367  0.034279362           29 
 4366000    0.5621912   -4.8755319    1861.8488  0.035536891  0.034270752           21 
 4367000   0.55517335   -4.8890029    1859.1741  0.035477713  0.034262165           12 
 4368000    0.5618156   -4.9000311    1861.1823  0.035507904  0.034253551           10 
 4369000   0.55188581   -4.9113558    1860.6987  0.035490552  0.034244915           10 
 4370000   0.55128207   -4.9209227    1857.0418  0.035412696  0.034236287           14 
 4371000   0.55287788   -4.8957977    1861.8498  0.035496259  0.034227675           13 
 4372000   0.55184891   -4.9000788    1860.2521  0.035457688  0.034219061           12 
 4373000    0.5549629   -4.9106553    1857.5895  0.035398839  0.034210462           12 
 4374000   0.54522279   -4.9009904    1861.0442  0.035456565  0.034201907           14 
 4375000   0.55244799   -4.8872931    1857.4748  0.035380473  0.034193353            7 
 4376000   0.55678108   -4.9029857    1860.2336  0.035424923  0.034184818            8 
 4377000   0.54049078   -4.8841383    1862.9974  0.035469451    0.0341763           16 
 4378000   0.54875423   -4.9008991    1859.0537  0.035386282  0.034167786           17 
 4379000   0.56016849   -4.9053388    1861.4273  0.035423372  0.034159247           16 
 4380000   0.54683027   -4.8959383    1863.9141  0.035462597   0.03415071           18 
 4381000   0.55557514   -4.8949913    1867.7014  0.035526543  0.034142172           12 
 4382000   0.54978245   -4.9336605    1859.4234  0.035361011  0.034133594           28 
 4383000    0.5500294   -4.9199655    1858.1826  0.035329352  0.034125004           18 
 4384000   0.55470369   -4.9190135    1857.8667  0.035315289  0.034116461           13 
 4385000   0.54793775   -4.9131667    1860.7521   0.03536207  0.034107924           27 
 4386000   0.55240533   -4.9015616    1860.4252  0.035347796  0.034099355           32 
 4387000    0.5575328   -4.8987634    1863.6644  0.035401269  0.034090757           16 
 4388000   0.55668768   -4.9057331    1858.8181  0.035301163  0.034082185           18 
 4389000    0.5352496   -4.9010805    1857.8862  0.035275427   0.03407363           14 
 4390000   0.54274386   -4.8988534     1858.479  0.035278645  0.034065091            9 
 4391000   0.54161872   -4.9170447    1859.9652  0.035298816  0.034056546           14 
 4392000   0.54867615   -4.9386334     1860.404  0.035299105  0.034048004            8 
 4393000   0.55315076   -4.9012706    1862.5655  0.035332072  0.034039464           17 
 4394000    0.5559536   -4.9086186    1861.2624  0.035299317  0.034030955            9 
 4395000     0.543583   -4.9132442    1859.9485  0.035266372  0.034022442           26 
 4396000   0.54540439   -4.9141248    1857.9464  0.035220397  0.034013913           42 
 4397000   0.54103782   -4.9025109     1859.702  0.035245661  0.034005365           38 
 4398000   0.55271966   -4.9197137     1861.941   0.03528007  0.033996797           15 
 4399000   0.54722262   -4.9357058    1854.5143  0.035131361  0.033988201           15 
 4400000   0.54815628    -4.915673    1859.3023  0.035214059  0.033979622           17 
 4401000   0.53481811   -4.9091153    1859.2078  0.035204268  0.033971073           14 
 4402000   0.55079157   -4.9204435    1859.6873  0.035205348  0.033962502           15 
 4403000   0.54120839   -4.9158372    1859.9664  0.035202634  0.033953961           17 
 4404000   0.56184464   -4.9130535    1859.5398  0.035186569   0.03394543           13 
 4405000   0.54030733   -4.9218084    1859.9328  0.035186016  0.033936915            7 
 4406000   0.54785351   -4.9318688    1859.7088  0.035173794  0.033928376           22 
 4407000   0.55542635   -4.9207682    1865.8915  0.035282722  0.033919843           15 
 4408000   0.54864247   -4.9146847    1861.5024  0.035191741  0.033911348           21 
 4409000   0.54159818   -4.9213709    1859.9962  0.035155292  0.033902828           18 
 4410000   0.54069896   -4.9082565    1855.4373  0.035061173  0.033894328           26 
 4411000   0.55395645   -4.9249956    1861.5347  0.035168418  0.033885802           14 
 4412000    0.5448831   -4.9413943    1860.4291  0.035139565  0.033877247           19 
 4413000   0.54370472   -4.9259993    1860.2257   0.03512776  0.033868724           26 
 4414000   0.55135179   -4.9112814     1857.595  0.035070137  0.033860212           18 
 4415000   0.55666313   -4.9217013    1861.5302   0.03513647  0.033851708           19 
 4416000   0.53643951   -4.9353811    1860.7929    0.0351146  0.033843183           34 
 4417000   0.54490414   -4.9387049    1860.5733  0.035102508  0.033834636           15 
 4418000   0.54100912   -4.9227887    1862.0209  0.035121867  0.033826122            9 
 4419000    0.5421414     -4.91338    1861.7377  0.035108579  0.033817638           20 
 4420000   0.53713524   -4.9262603     1861.821  0.035102206  0.033809176            5 
 4421000   0.53680736   -4.9115923    1860.8609  0.035076168  0.033800717           22 
 4422000   0.53773172   -4.9258736    1858.6981  0.035027477  0.033792236           30 
 4423000   0.53260424   -4.9112131    1863.7086  0.035113962  0.033783731           34 
 4424000   0.54231781   -4.9371901    1861.9012  0.035071979  0.033775261           17 
 4425000   0.53714804   -4.9187474    1862.0644  0.035067127  0.033766763           14 
 4426000    0.5434059   -4.9197878    1859.2081  0.035005425   0.03375828           16 
 4427000    0.5580923   -4.9273836    1864.7468  0.035101777  0.033749807           21 
 4428000   0.53653616   -4.9395111     1861.915  0.035040556   0.03374126           11 
 4429000   0.55307793   -4.9436664    1857.5045   0.03494966  0.033732712           16 
 4430000   0.53655258   -4.9451565    1856.8263  0.034929012  0.033724145           28 
 4431000   0.54370629   -4.9365901    1859.1172  0.034964215  0.033715598           24 
 4432000   0.53350365   -4.9246865    1857.3084  0.034922315  0.033707063           32 
 4433000   0.53773659    -4.937062     1860.517  0.034974753  0.033698527            9 
 4434000   0.55533461   -4.9311059     1859.204  0.034942188  0.033690041           14 
 4435000   0.54923275    -4.919262    1860.9198  0.034966551  0.033681563           23 
 4436000   0.54759735   -4.9108407    1857.8124  0.034900294  0.033673065            7 
 4437000   0.54153101   -4.9444963    1857.9627  0.034895251  0.033664557            8 
 4438000   0.54175939   -4.9237482    1858.1418   0.03489075  0.033656076           15 
 4439000   0.53652415   -4.9220278     1858.701  0.034893388  0.033647591           24 
 4440000   0.54126377   -4.9370542    1861.2557  0.034933478  0.033639071           13 
 4441000   0.54531471   -4.9231751    1861.1208   0.03492308  0.033630578           13 
 4442000   0.53127446    -4.931263    1861.0121  0.034913179   0.03362212           20 
 4443000   0.54712276    -4.922156    1860.6666  0.034898841  0.033613658           17 
 4444000    0.5363637   -4.9448583    1863.2004  0.034938502  0.033605228           16 
 4445000   0.54430896   -4.9339415    1861.8833  0.034905949  0.033596772           10 
 4446000   0.55253468   -4.9333242    1861.0033  0.034881603  0.033588306           17 
 4447000   0.54789909    -4.957482    1859.4036  0.034843783  0.033579826           29 
 4448000   0.53888163   -4.9226455    1863.1165   0.03490551  0.033571339           29 
 4449000   0.52826844   -4.9411231    1860.9065  0.034856268  0.033562897           28 
 4450000   0.53757071   -4.9376091    1865.2157  0.034929133  0.033554482           21 
 4451000   0.53557537   -4.9305568    1863.3942  0.034887184  0.033546029           27 
 4452000   0.53363691   -4.9356765    1863.1371  0.034874533    0.0335376           11 
 4453000   0.54869686   -4.9388696    1865.8192  0.034916896  0.033529179           13 
 4454000   0.53833583   -4.9188897    1864.0072  0.034875154  0.033520772           22 
 4455000   0.54108678   -4.9552985    1862.5414  0.034839907  0.033512338           22 
 4456000    0.5430401   -4.9260214    1867.1807   0.03491885  0.033503945           17 
 4457000   0.54363042   -4.9116895    1862.9435  0.034831792  0.033495524           13 
 4458000   0.53574512   -4.9250281    1864.3914  0.034851044  0.033487114           27 
 4459000   0.53853349   -4.9370945    1865.4811  0.034863593  0.033478691           12 
 4460000   0.54174334   -4.9308952    1862.1673  0.034793858  0.033470258           22 
 4461000   0.52821023   -4.9289284    1860.9167  0.034762696  0.033461835           29 
 4462000   0.54546509   -4.9319044    1864.5606  0.034822961  0.033453425           13 
 4463000   0.54894137   -4.9251416    1862.2918  0.034772795  0.033445008           15 
 4464000    0.5292372   -4.9388997    1859.9363  0.034721034   0.03343659           10 
 4465000   0.52944323   -4.9459247    1858.1767  0.034680416  0.033428178           35 
 4466000   0.53733125   -4.9273428    1861.4965  0.034734597  0.033419722           18 
 4467000   0.52764362   -4.9490194    1860.8182  0.034714166  0.033411279           10 
 4468000   0.52897326   -4.9480424    1859.4451  0.034680787  0.033402835           17 
 4469000   0.53955091    -4.934234    1861.7662  0.034716309  0.033394393           18 
 4470000   0.53068364   -4.9189633    1861.2282  0.034698512  0.033385993           12 
 4471000   0.54047576   -4.9369029    1863.4458  0.034732084  0.033377558           22 
 4472000   0.54401172   -4.9349971    1859.9078  0.034658388  0.033369102           24 
 4473000   0.53582267   -4.9363463      1861.77  0.034685334  0.033360673           39 
 4474000   0.53252949   -4.9496506    1860.6595  0.034656897  0.033352241           18 
 4475000   0.52955317   -4.9603992    1862.5206  0.034683811  0.033343791           11 
 4476000   0.54079573    -4.922539    1860.9563  0.034646937  0.033335368           26 
 4477000   0.54223719   -4.9078607    1858.0406  0.034584927  0.033326921           41 
 4478000   0.52637989   -4.9373561    1859.4535  0.034603496  0.033318477           20 
 4479000   0.54236017   -4.9351926    1861.9953  0.034643062  0.033310034           21 
 4480000   0.53683961   -4.9472875    1857.3859  0.034549589  0.033301614           19 
 4481000   0.53259291   -4.9512057    1862.7036  0.034640772  0.033293182            6 
 4482000   0.52868341   -4.9391677    1858.4955  0.034554802  0.033284765            7 
 4483000   0.52444178   -4.9456521    1854.2761  0.034468661  0.033276346            5 
 4484000   0.53200815   -4.9524537    1860.9873    0.0345857  0.033267909           12 
 4485000   0.53831161   -4.9402998    1861.6446    0.0345902  0.033259492           11 
 4486000   0.53506362   -4.9468274    1863.0482  0.034608563  0.033251066            7 
 4487000   0.52698655   -4.9529503    1859.9522   0.03454335  0.033242676           13 
 4488000   0.52530588    -4.957094    1861.5315  0.034564978  0.033234303           14 
 4489000   0.53259182   -4.9684144    1863.8601  0.034600506  0.033225942           22 
 4490000   0.53027751   -4.9527073    1862.4778  0.034567145  0.033217528           29 
 4491000    0.5258763   -4.9460443    1863.1744  0.034572375  0.033209153           18 
 4492000   0.52246155   -4.9465851    1860.6447  0.034517748  0.033200744            6 
 4493000   0.53070644   -4.9658265    1861.8738  0.034532862  0.033192358           14 
 4494000   0.54400951   -4.9681241    1861.8044  0.034523891  0.033183961           13 
 4495000   0.52403408   -4.9592644    1865.6597  0.034587685  0.033175554           35 
 4496000   0.52966599   -4.9545745    1862.2899  0.034517533  0.033167147           31 
 4497000   0.53555963   -4.9626249    1862.9732  0.034522519  0.033158753           54 
 4498000   0.52610719   -4.9367517    1862.0369  0.034497497  0.033150363           29 
 4499000   0.53005908   -4.9463871    1861.2644  0.034475521  0.033141969           18 
 4500000   0.51826584   -4.9503848      1859.03  0.034426482  0.033133567           25 
 4501000   0.52252212   -4.9615704    1858.4436  0.034407976   0.03312516           58 
 4502000   0.52566507    -4.946734    1864.7227  0.034516561  0.033116785           17 
 4503000    0.5289099   -4.9346495    1864.0291  0.034496061  0.033108422           37 
 4504000   0.52443719   -4.9628073    1858.0823  0.034378374  0.033100069           44 
 4505000   0.53963211   -4.9538109    1859.7481  0.034401556  0.033091728           20 
 4506000   0.52488029   -4.9812092    1863.7509  0.034467948  0.033083385            9 
 4507000   0.53010672   -4.9612375    1863.5141  0.034455922  0.033075008           14 
 4508000   0.52593888   -4.9587657    1858.8069  0.034361263  0.033066622           16 
 4509000   0.52432023   -4.9400579    1862.1379  0.034415205  0.033058279           31 
 4510000   0.53037239   -4.9692429    1862.7075  0.034418098  0.033049932           43 
 4511000   0.52492108   -4.9291284    1859.0313  0.034342557  0.033041573           54 
 4512000   0.54687474   -4.9659169    1866.1563  0.034466539  0.033033253           11 
 4513000   0.52774822    -4.957821     1866.042  0.034456792  0.033024934           17 
 4514000   0.52896142   -4.9538095    1861.3232  0.034362045  0.033016619           17 
 4515000   0.53421233   -4.9548079     1862.121  0.034369158  0.033008275           21 
 4516000   0.51661968   -4.9476609    1856.0671  0.034249836  0.032999952           27 
 4517000   0.53506932   -4.9622552    1864.9249  0.034405669  0.032991627           16 
 4518000   0.52622276   -4.9412947    1866.3043  0.034423496  0.032983305           14 
 4519000   0.52947583   -4.9338633    1866.1564  0.034413151  0.032975013           17 
 4520000   0.51280434   -4.9560455    1865.1595  0.034387159  0.032966693           14 
 4521000   0.53768246   -4.9607609    1863.2691  0.034344708  0.032958359            7 
 4522000   0.54581421   -4.9458676    1865.4637  0.034377556  0.032950068           19 
 4523000   0.53078594   -4.9475952    1863.8613  0.034340433  0.032941786           12 
 4524000   0.51884213   -4.9679927      1866.48  0.034381079  0.032933496           20 
 4525000   0.52417274   -4.9552031     1859.016  0.034236023  0.032925168           28 
 4526000   0.53909076   -4.9637539    1867.9758  0.034393427  0.032916864           41 
 4527000   0.52855444   -4.9380706    1863.1548  0.034297083  0.032908545           19 
 4528000    0.5195932   -4.9628924    1864.7057  0.034318052  0.032900246           24 
 4529000    0.5336769   -4.9656664    1865.2859  0.034321151  0.032891956           22 
 4530000   0.52475613   -4.9674889    1858.2178  0.034183551  0.032883656            8 
 4531000   0.51998518   -4.9584347    1863.7237   0.03427727  0.032875332           14 
 4532000   0.52523964   -4.9604127    1865.8026  0.034307933  0.032867052           13 
 4533000   0.53431051   -4.9709407    1865.3561  0.034292155   0.03285877           21 
 4534000   0.52470818   -4.9899272    1861.8375  0.034219921  0.032850501           51 
 4535000   0.51486207   -4.9717561    1862.6921  0.034228079  0.032842191           27 
 4536000   0.53436475    -4.956151    1864.7606  0.034258536  0.032833902           29 
 4537000   0.52524331    -4.984762    1865.7982  0.034270043  0.032825644           27 
 4538000   0.52874765   -4.9451747    1862.5961   0.03420369  0.032817384           39 
 4539000   0.52489767   -4.9739608     1866.754   0.03427249  0.032809151           10 
 4540000   0.51989495   -4.9614492    1863.8476  0.034211593  0.032800897           47 
 4541000   0.53809369   -4.9722964    1868.1671  0.034283329  0.032792657           19 
 4542000   0.52449462   -4.9642343    1861.8513  0.034159903  0.032784447           36 
 4543000   0.52782589   -4.9638503    1865.8192  0.034225166  0.032776199           26 
 4544000   0.52776681     -4.95239    1868.3158  0.034263421  0.032767993           23 
 4545000    0.5214671   -4.9571801    1863.4631  0.034166908  0.032759765           21 
 4546000   0.52417499   -4.9780495    1865.8743  0.034203591   0.03275153           15 
 4547000   0.52907441   -4.9561504    1865.5771  0.034190622  0.032743278           15 
 4548000   0.53578603   -4.9578971     1866.087  0.034192446  0.032735017           22 
 4549000   0.52877411   -4.9742518    1867.1174  0.034203806  0.032726774           17 
 4550000   0.52732923   -4.9941242    1863.5694  0.034131308  0.032718528           33 
 4551000   0.51960429   -4.9579606    1867.8615    0.0342024  0.032710282           21 
 4552000   0.52956682   -4.9299045    1866.8563  0.034176485  0.032702071           13 
 4553000   0.51630826   -4.9752665    1865.2199  0.034139027  0.032693853           37 
 4554000   0.53612558   -4.9543304    1869.1292  0.034203067  0.032685603           27 
 4555000   0.51781376   -4.9632207    1865.2418  0.034124438  0.032677384           18 
 4556000   0.52310635   -4.9686515    1862.5387  0.034067507  0.032669122           20 
 4557000   0.51935957   -4.9677047    1862.9102  0.034066824   0.03266086           14 
 4558000   0.51552428   -4.9513746    1867.7063  0.034147036  0.032652618           22 
 4559000   0.51996263   -4.9610396    1862.2276  0.034039402  0.032644403           13 
 4560000   0.51095124   -4.9626283    1866.0899  0.034102521   0.03263617            9 
 4561000   0.51453866   -4.9654983    1864.2735  0.034061857  0.032627944           14 
 4562000   0.51860457   -4.9595679    1864.7051  0.034062273  0.032619725           12 
 4563000   0.52300925   -4.9502449    1861.8163  0.034002051   0.03261148           16 
 4564000   0.51970356   -4.9832196    1867.0471   0.03409011  0.032603248           21 
 4565000   0.50640083    -4.976721    1864.3879  0.034034098  0.032594998           11 
 4566000   0.50970783   -4.9814845    1861.5067  0.033974061  0.032586773           11 
 4567000   0.52397913   -4.9848771    1862.1833  0.033978966  0.032578523           41 
 4568000   0.53830983   -4.9913546    1863.2934   0.03399178  0.032570271           13 
 4569000   0.51669207   -4.9829078    1860.7562  0.033938065  0.032562014           15 
 4570000   0.53804292   -4.9681693    1863.0542  0.033972542   0.03255379           20 
 4571000   0.51765106   -4.9657617    1863.9844  0.033982068  0.032545546           21 
 4572000   0.52782966   -4.9785011    1861.5443   0.03393016  0.032537314           33 
 4573000   0.52501169   -4.9745163    1863.5673  0.033959606  0.032529084           46 
 4574000    0.5146921   -4.9664639    1866.4144  0.034004053  0.032520856           29 
 4575000   0.50946331   -4.9744131     1864.205  0.033956375  0.032512627           49 
 4576000   0.51033366   -4.9736277    1862.7267  0.033922033  0.032504384           27 
 4577000   0.52374661   -4.9932425    1863.2673  0.033924465  0.032496119           86 
 4578000   0.51449805   -4.9932349    1864.8128  0.033945187  0.032487837           37 
 4579000   0.53198933   -4.9724315    1867.5202  0.033987045  0.032479569           81 
 4580000   0.51215394   -4.9730924     1860.627  0.033854203  0.032471327           54 
 4581000   0.52086329   -4.9776883    1861.6024  0.033864556  0.032463109           42 
 4582000   0.51447155   -4.9795319    1864.0531  0.033901736  0.032454901           66 
 4583000   0.51369523   -4.9823435    1868.8514  0.033981589  0.032446684          105 
 4584000   0.51349137   -4.9647114    1866.5858  0.033932988  0.032438479          115 
 4585000   0.51715026   -4.9862831    1863.0014  0.033860439  0.032430251           73 
 4586000   0.52369894   -4.9817408    1860.3578  0.033805019  0.032422002           75 
 4587000   0.52358546   -4.9749032    1865.8382  0.033897213  0.032413789           45 
 4588000   0.51751609   -4.9611469    1866.2363  0.033897056  0.032405594           22 
 4589000   0.52412954   -4.9783245    1862.7232  0.033825874  0.032397416           37 
 4590000    0.5226182   -4.9874065    1863.8876  0.033839644  0.032389228           65 
 4591000   0.51405547   -4.9686051    1866.1097  0.033872607  0.032381028           45 
 4592000   0.51517022   -4.9754769    1864.6559  0.033838849  0.032372839           33 
 4593000   0.51627588   -4.9951625    1859.0966  0.033730615  0.032364609           56 
 4594000   0.51841655    -5.003296    1861.1264  0.033760093  0.032356394           70 
 4595000   0.51584507   -4.9624542    1865.9948  0.033841037  0.032348193           16 
 4596000   0.51497622   -4.9718363    1867.6606  0.033863877  0.032340006           25 
 4597000   0.51525528   -4.9822903    1859.7984  0.033713987  0.032331816           23 
 4598000    0.5174531   -4.9900251    1863.4791  0.033773364  0.032323606           22 
 4599000   0.51116273   -4.9751701      1864.46  0.033783794  0.032315402           17 
 4600000   0.52221449   -4.9690234    1865.6515  0.033798035  0.032307192           13 
 4601000   0.52043561    -4.995454     1865.908  0.033795333  0.032298991            9 
 4602000   0.51030929   -4.9906722     1862.729  0.033730424  0.032290791           42 
 4603000   0.51772329   -4.9964673    1860.0505  0.033674606  0.032282625           29 
 4604000   0.51115909   -4.9831672     1865.012  0.033757096  0.032274437           11 
 4605000   0.52342462   -4.9948592    1863.2484   0.03371785  0.032266232           48 
 4606000   0.52084204   -5.0035804    1864.4583   0.03373242  0.032258031           73 
 4607000    0.5171877   -4.9882544    1862.1726  0.033683754  0.032249822           37 
 4608000   0.51403871   -4.9930706    1859.0521  0.033620011  0.032241626           22 
 4609000   0.51678676   -4.9782886    1862.9323  0.033682872  0.032233416           29 
 4610000   0.51319456   -4.9911476    1863.9055  0.033693158  0.032225233           20 
 4611000   0.51273843   -4.9881435    1861.1317  0.033635722  0.032217051           49 
 4612000   0.52212006   -4.9969497    1864.4547  0.033688471  0.032208865           45 
 4613000   0.51656119   -4.9801154    1865.1247   0.03369327  0.032200692           25 
 4614000   0.51274103    -4.980169    1865.2136  0.033687575  0.032192498           76 
 4615000   0.51395373   -4.9891013    1867.0413  0.033713277  0.032184328           57 
 4616000   0.50683208   -4.9853597    1863.3969   0.03364018  0.032176185           43 
 4617000    0.5249166   -4.9828733    1864.6131  0.033654847  0.032168042           19 
 4618000   0.51625137   -5.0048151     1866.014  0.033672839  0.032159898           15 
 4619000   0.51539813   -4.9925943    1861.2678   0.03357992   0.03215177           22 
 4620000   0.50671493    -4.990041     1866.582  0.033668506  0.032143651           17 
 4621000    0.5157425   -4.9976755    1865.7249  0.033645764  0.032135518           35 
 4622000    0.5093926   -5.0039367     1868.394  0.033686608  0.032127392           16 
 4623000   0.50937482   -4.9958254    1864.9365  0.033616997  0.032119258           30 
 4624000   0.51131649   -4.9983808    1867.0822  0.033648396  0.032111135           13 
 4625000   0.51987764   -4.9847191    1865.6697  0.033615671  0.032102995           13 
 4626000   0.51670812   -4.9890313    1865.5686  0.033606582  0.032094844            8 
 4627000   0.51524109   -4.9945349    1861.8867  0.033533008  0.032086686           18 
 4628000   0.51712715   -4.9847982    1864.6523   0.03357556  0.032078568           20 
 4629000   0.52119337   -4.9843543    1868.9453  0.033645591  0.032070457           16 
 4630000   0.51392943   -4.9932066    1864.6302  0.033560659   0.03206234           20 
 4631000   0.51084676   -4.9749612    1863.8883  0.033540062   0.03205424           14 
 4632000   0.50573333   -4.9941172    1862.8078  0.033513382  0.032046143           18 
 4633000   0.52054721   -5.0153797    1868.5123  0.033608755  0.032038023           41 
 4634000   0.51968501   -4.9803724    1862.4703  0.033492849  0.032029893           20 
 4635000    0.5138577   -5.0088388    1868.1494  0.033587727  0.032021764           26 
 4636000   0.50714701   -4.9924071    1865.0107  0.033524064  0.032013619           21 
 4637000   0.50210901   -5.0073268    1867.3177  0.033558293  0.032005493           37 
 4638000   0.49836499   -5.0053076    1860.2683  0.033424399  0.031997352           49 
 4639000   0.51092338   -5.0060803    1863.7205  0.033479207  0.031989215           30 
 4640000   0.51759251   -5.0090454    1865.1309  0.033497322  0.031981075           22 
 4641000   0.50903708   -5.0097908    1867.6418   0.03353519  0.031972944           32 
 4642000   0.50009117   -5.0253913    1863.3532  0.033450976  0.031964791           22 
 4643000   0.50402181   -5.0235621    1861.3686  0.033408151  0.031956637           43 
 4644000    0.5008084   -5.0112717    1863.0744  0.033431568  0.031948475           28 
 4645000   0.50007394     -5.00116    1862.2706   0.03340995  0.031940337           17 
 4646000   0.50883437   -5.0184035    1865.9233  0.033468275  0.031932198           53 
 4647000   0.50882184   -5.0169848    1860.7707  0.033368673  0.031924046           24 
 4648000   0.50847593   -5.0303829    1863.4336  0.033409236  0.031915915           28 
 4649000    0.5139956   -5.0045098    1865.6776  0.033442274  0.031907784           20 
 4650000   0.51193511   -5.0098627    1860.3625   0.03333983  0.031899661            9 
 4651000   0.50149716   -5.0095811    1859.8866  0.033324135   0.03189152            9 
 4652000   0.49421922   -5.0066273    1866.3193  0.033432203  0.031883405           26 
 4653000   0.50468977   -5.0026835    1860.3161  0.033317504  0.031875272           41 
 4654000   0.49919015   -5.0153892    1864.7691  0.033390078   0.03186715           30 
 4655000    0.4984589   -5.0374471    1859.3465   0.03328583  0.031859014           58 
 4656000   0.49782073   -5.0320066    1861.3694  0.033314888  0.031850889           40 
 4657000   0.50233399   -5.0086614    1863.9545  0.033353992  0.031842784           61 
 4658000   0.50684273   -5.0279815    1861.0958  0.033295689  0.031834638          157 
 4659000   0.50992379   -5.0050271    1861.7514  0.033300269  0.031826515          117 
 4660000   0.50952846   -5.0073556    1862.2953  0.033302849  0.031818395          143 
 4661000   0.49817135   -5.0161684    1867.5626  0.033389876  0.031810283           72 
 4662000   0.51646344   -5.0065726     1861.987  0.033283051  0.031802177           36 
 4663000   0.50583519   -5.0136644    1859.1435  0.033225097  0.031794058           39 
 4664000   0.50837772   -5.0026485     1863.909   0.03330312  0.031785963           15 
 4665000   0.49791992   -5.0055769    1859.5063  0.033217333   0.03177787           21 
 4666000   0.49425665   -5.0234259    1862.9227  0.033271229   0.03176977           16 
 4667000   0.51008405   -5.0315616    1861.0055  0.033229867  0.031761645           36 
 4668000   0.50490686   -5.0288583     1864.529   0.03328565  0.031753547           17 
 4669000   0.50623653   -5.0160755    1864.5469  0.033278842  0.031745441           26 
 4670000   0.50777397   -5.0187762    1864.3535  0.033268265  0.031737349           26 
 4671000   0.50786711   -5.0110787    1867.0515  0.033309275  0.031729274           11 
 4672000   0.49523685   -5.0077073    1869.4437  0.033344815  0.031721196           14 
 4673000   0.50640861   -5.0097575    1866.1256  0.033278507  0.031713117           22 
 4674000   0.49593099   -5.0227566    1864.6219  0.033244579  0.031705029           29 
 4675000   0.49777057   -5.0093039    1865.9739  0.033261567  0.031696956           43 
 4676000   0.50046903   -5.0171199    1862.7977   0.03319785  0.031688878           53 
 4677000   0.50413016    -5.006785    1863.8808  0.033210048  0.031680815           28 
 4678000   0.49081187   -5.0057123    1858.6158   0.03310916  0.031672762           16 
 4679000   0.50823298   -5.0143453    1863.1348  0.033182567  0.031664711           16 
 4680000   0.52292245   -5.0186177    1865.3267  0.033214506  0.031656664           12 
 4681000   0.49444957   -5.0130038    1862.9903  0.033165817  0.031648611           27 
 4682000   0.50140751    -5.022108    1864.0256  0.033177161  0.031640575           21 
 4683000   0.51372937    -4.998827    1864.7749   0.03318341   0.03163254           35 
 4684000   0.50236888   -5.0134743     1863.009  0.033144909  0.031624484           68 
 4685000   0.49599966    -5.000179    1866.7074  0.033203618  0.031616433           14 
 4686000   0.50423133   -5.0024473    1862.8002  0.033127049  0.031608365           23 
 4687000   0.50360694   -5.0131285    1867.4919  0.033203398  0.031600308           42 
 4688000   0.50612677   -5.0172839    1865.1988  0.033155554  0.031592226           32 
 4689000   0.51251587   -5.0198436    1865.6989  0.033157371  0.031584152           62 
 4690000   0.50298971   -5.0340473    1862.8729  0.033100087  0.031576045           66 
 4691000   0.50598594   -5.0195433    1863.2682  0.033100053  0.031567943           48 
 4692000   0.49367716   -5.0048492    1860.7181  0.033047707   0.03155986           54 
 4693000   0.49400382   -5.0164073    1859.2513  0.033014619  0.031551773           30 
 4694000   0.50925154    -5.011387    1862.6026  0.033067082  0.031543706           44 
 4695000   0.51735559   -5.0298712    1865.1153  0.033104638  0.031535672           80 
 4696000   0.49638127   -5.0307059    1861.3472  0.033030721  0.031527601           15 
 4697000   0.51155952   -5.0321833    1861.4135  0.033024866  0.031519538           19 
 4698000   0.49811223   -5.0159914    1862.4487  0.033036198  0.031511474           41 
 4699000   0.49780103   -5.0223477    1862.3302  0.033027065  0.031503443           15 
 4700000   0.49843135   -5.0309271    1866.1067  0.033086999  0.031495434           11 
 4701000   0.51113277    -5.025555    1862.8102  0.033021523  0.031487424           24 
 4702000   0.49788486   -5.0282277    1864.7639  0.033049126  0.031479426           17 
 4703000   0.51034625   -5.0128715    1861.2831  0.032980421  0.031471417           23 
 4704000   0.49257435   -5.0269004    1862.2021  0.032989691  0.031463395           25 
 4705000   0.48832861   -5.0274009    1867.7156  0.033080334  0.031455341           50 
 4706000   0.50627125   -5.0231426    1863.1921  0.032993202  0.031447304           32 
 4707000   0.50208576   -5.0328511    1862.0494  0.032965963  0.031439254           20 
 4708000   0.49762224   -5.0236512    1865.4855  0.033019781  0.031431208           23 
 4709000   0.49184081   -5.0255998    1861.5996  0.032944001  0.031423188           35 
 4710000   0.50618793   -5.0344969    1861.2806  0.032931362  0.031415172           37 
 4711000   0.48708827   -5.0142223    1863.4986  0.032963606  0.031407171           25 
 4712000    0.5023379   -5.0333185     1869.814    0.0330683  0.031399161           28 
 4713000   0.48890266   -5.0171897    1864.4181  0.032965877    0.0313912           22 
 4714000   0.50219163   -5.0183124    1863.5192  0.032942992  0.031383206           34 
 4715000   0.49621241   -5.0369283    1864.0016  0.032944532  0.031375222           22 
 4716000   0.50900624   -5.0335186    1859.9913  0.032866683  0.031367214           50 
 4717000   0.48210016   -5.0251306    1868.6406  0.033012519  0.031359237           29 
 4718000   0.48771518   -5.0059158    1865.3193  0.032946858  0.031351268           29 
 4719000   0.48676738   -5.0172574     1863.776  0.032912624  0.031343288           31 
 4720000   0.49323057   -5.0426994    1862.2963  0.032879525  0.031335309           17 
 4721000   0.48995799    -5.032076    1861.0186  0.032850007  0.031327307           28 
 4722000   0.51061239   -5.0346539    1864.9733  0.032912842  0.031319318           19 
 4723000   0.50555481   -5.0201844    1866.3911   0.03293089  0.031311331           18 
 4724000   0.50783544   -5.0360177    1861.6933  0.032841048  0.031303358           21 
 4725000   0.49992647   -5.0372742    1865.0743  0.032893726  0.031295357           19 
 4726000   0.49203112   -5.0299609    1865.9116  0.032901531  0.031287353           26 
 4727000   0.49453255   -5.0259596    1860.3409  0.032796362  0.031279381           20 
 4728000   0.49573702   -5.0550744      1862.51  0.032827657  0.031271417           33 
 4729000   0.48409541   -5.0292627    1866.3638  0.032888628  0.031263452           32 
 4730000   0.49888755   -5.0337561    1863.4199  0.032829808  0.031255483           59 
 4731000   0.49136567   -5.0441473    1862.4663  0.032806072  0.031247501           25 
 4732000   0.49603125    -5.031768    1864.7516  0.032839385  0.031239532           44 
 4733000   0.50059812   -5.0538759    1862.0005  0.032784008  0.031231556           35 
 4734000   0.48628617   -5.0386739    1863.7965  0.032808698  0.031223594           34 
 4735000   0.48833126   -5.0602924    1865.3069   0.03282835  0.031215624           32 
 4736000   0.49170014   -5.0474832    1865.6574  0.032827587  0.031207636           30 
 4737000   0.50016497   -5.0442002    1862.9587   0.03277318  0.031199671           19 
 4738000   0.49239028   -5.0399713    1865.4722  0.032810472  0.031191746           53 
 4739000   0.49338621   -5.0290973    1869.9048  0.032881493  0.031183815           10 
 4740000   0.50015186      -5.0362    1865.8442  0.032803169  0.031175887           20 
 4741000   0.49175322   -5.0392112    1866.9596  0.032815854  0.031167945           36 
 4742000    0.4994707   -5.0323887    1863.7416  0.032752383  0.031160001           25 
 4743000    0.4942294   -5.0341926    1864.0665  0.032751186  0.031152075           29 
 4744000   0.48783069   -5.0242153    1866.3817  0.032784951  0.031144146           90 
 4745000   0.49103438   -5.0257708    1864.1932  0.032739607  0.031136222           58 
 4746000   0.48055991   -5.0480707    1867.8217   0.03279642  0.031128293           44 
 4747000   0.48278005   -5.0218009    1869.8121  0.032824452  0.031120383           31 
 4748000   0.49713213   -5.0550228    1862.0235   0.03268084  0.031112456           37 
 4749000   0.48509313   -5.0377744    1865.2649  0.032730835  0.031104539           70 
 4750000   0.49738722   -5.0302636    1865.0938  0.032720943  0.031096622          137 
 4751000   0.49140616   -5.0229178    1863.4365  0.032684987  0.031088701           39 
 4752000   0.48782083   -5.0312632    1866.9679  0.032740038  0.031080773           48 
 4753000    0.5006578   -5.0273646    1865.7157  0.032711194  0.031072848           65 
 4754000   0.49572637   -5.0348406    1867.9695  0.032743821   0.03106497           56 
 4755000   0.49963217   -5.0209433     1869.924  0.032771188  0.031057092           59 
 4756000   0.50220146   -5.0397236     1864.751  0.032673658  0.031049198           44 
 4757000   0.48464521    -5.037657     1869.394  0.032748125  0.031041291           33 
 4758000   0.49453553    -5.039661     1864.298   0.03265199  0.031033371           66 
 4759000   0.49985551   -5.0457092    1862.6926  0.032617017  0.031025471           98 
 4760000   0.48767853   -5.0297389    1864.2216  0.032636932  0.031017541           69 
 4761000   0.49636402   -5.0319684    1870.4066  0.032738336  0.031009662          105 
 4762000   0.49449696   -5.0271674    1862.3882  0.032591141   0.03100177           98 
 4763000   0.48684791   -5.0159795    1869.1472  0.032702554  0.030993882           86 
 4764000    0.4929043   -5.0556664    1864.7753  0.032619215  0.030985997          145 
 4765000    0.4841713   -5.0418058    1871.1614  0.032724055  0.030978119           81 
 4766000   0.48299545    -5.043244    1866.5431  0.032636437  0.030970234           50 
 4767000   0.49228223   -5.0432823    1863.4749  0.032575954   0.03096235           57 
 4768000   0.49832871   -5.0431214    1865.2213  0.032599646  0.030954446          100 
 4769000   0.48739014   -5.0570934    1863.3206  0.032559596  0.030946537           97 
 4770000   0.48750573   -5.0551047    1861.4794  0.032520604  0.030938617          128 
 4771000   0.49724887   -5.0590942    1857.8361  0.032450151  0.030930699           93 
 4772000   0.48960813   -5.0531522    1859.0864  0.032465186  0.030922783           48 
 4773000    0.4790449   -5.0405691    1863.3611  0.032533017  0.030914858           80 
 4774000   0.48166795    -5.045643    1863.5474  0.032529455   0.03090695           74 
 4775000   0.48842791   -5.0498985    1870.9142  0.032651208  0.030899014          125 
 4776000   0.47957519   -5.0761619    1860.0428  0.032454684  0.030891076          137 
 4777000   0.48658386   -5.0406129    1866.9259  0.032567962  0.030883159          105 
 4778000   0.48644836   -5.0559522    1860.9264  0.032456509  0.030875244          133 
 4779000     0.488595   -5.0590921    1865.8831  0.032536149   0.03086734          137 
 4780000   0.48347049   -5.0568919    1864.3003  0.032501749  0.030859443          101 
 4781000   0.49285712   -5.0572987    1867.4201  0.032549329  0.030851554           80 
 4782000   0.48889106   -5.0336986    1863.7643  0.032478814   0.03084368           58 
 4783000   0.48680103   -5.0529523     1862.006  0.032441389  0.030835808           66 
 4784000    0.4881806      -5.0446    1863.5037  0.032460697  0.030827921          100 
 4785000   0.48476369     -5.04444    1863.2371  0.032449271  0.030820045           86 
 4786000   0.48519811   -5.0547004     1861.921  0.032419574  0.030812148          108 
 4787000   0.48857818   -5.0547597     1863.963  0.032448349  0.030804266          136 
 4788000   0.47629327   -5.0460595    1865.7373  0.032472454  0.030796384          110 
 4789000   0.48671743   -5.0407528    1865.7302   0.03246555  0.030788503           39 
 4790000   0.49548473   -5.0529946     1866.802  0.032477419  0.030780653           48 
 4791000   0.48298339   -5.0402001     1864.487  0.032430372  0.030772811          139 
 4792000   0.48892226   -5.0256101    1862.4031  0.032387365  0.030764964          126 
 4793000   0.47899285   -5.0432162    1866.1094  0.032445048  0.030757118           73 
 4794000   0.48021055   -5.0251042    1864.2324  0.032405653  0.030749272           85 
 4795000   0.48755053   -5.0437832    1866.0927  0.032431225   0.03074142           54 
 4796000   0.47988415   -5.0496208    1861.1961  0.032339381  0.030733552           44 
 4797000   0.49054321   -5.0602842    1866.4323  0.032423604  0.030725683           90 
 4798000   0.48013804   -5.0549304    1861.3592  0.032328735  0.030717791           47 
 4799000   0.48583411   -5.0596127    1862.5355  0.032342424  0.030709892           67 
 4800000    0.4929388   -5.0585028    1865.6582    0.0323899  0.030702003           70 
 4801000   0.46999792   -5.0508491    1865.0733  0.032373001   0.03069412           79 
 4802000   0.48014785   -5.0554706    1863.2168  0.032334041  0.030686241           70 
 4803000   0.49152864   -5.0721865    1861.4862  0.032297283  0.030678358           81 
 4804000   0.48678621   -5.0571518    1859.8706  0.032262534  0.030670465           93 
 4805000   0.48305428   -5.0588046    1866.5743  0.032372084  0.030662567           71 
 4806000    0.4919965   -5.0646426    1856.8843  0.032197328  0.030654671          161 
 4807000    0.4826106   -5.0638977    1858.5181  0.032218953  0.030646751           66 
 4808000    0.4669053   -5.0778393    1858.8808  0.032218539  0.030638808          102 
 4809000   0.48309568   -5.0747756     1859.564  0.032223678  0.030630882           76 
 4810000   0.48659969   -5.0684348     1862.149  0.032261764  0.030622958           71 
 4811000   0.48455477   -5.0762596    1860.4817  0.032226177  0.030615015          131 
 4812000   0.48620297   -5.0756564    1862.0691  0.032246972  0.030607084          105 
 4813000   0.48749024   -5.0665244    1861.1717  0.032224734  0.030599172          158 
 4814000   0.48606261   -5.0670052    1859.6016  0.032190859   0.03059127          141 
 4815000   0.48525265    -5.078078      1861.35  0.032214434  0.030583371          116 
 4816000   0.48896427   -5.0705796    1863.4821  0.032244638  0.030575473          112 
 4817000   0.48352896    -5.067614    1860.6308  0.032188617  0.030567579           55 
 4818000   0.48493956   -5.0731058    1863.0062  0.032223021  0.030559681           45 
 4819000   0.49204789    -5.084167    1859.6247  0.032157859  0.030551757           59 
 4820000   0.48192128   -5.0627811     1858.135  0.032125433  0.030543847           48 
 4821000   0.48098554   -5.0766008    1859.9693  0.032150475  0.030535938           56 
 4822000   0.47706974   -5.0693969    1862.7365  0.032191631  0.030528035           81 
 4823000   0.48175161   -5.0680299    1856.5627  0.032078282  0.030520136           53 
 4824000   0.47525246   -5.0624729    1859.8335  0.032128136  0.030512274          139 
 4825000   0.47547812   -5.0750225    1857.5592  0.032082197  0.030504416           93 
 4826000   0.49324024    -5.075237    1857.2245  0.032069769  0.030496563           45 
 4827000   0.48678324   -5.0576923    1863.3515  0.032168902  0.030488707           70 
 4828000   0.47549921   -5.0736386    1862.6326  0.032149831  0.030480833           40 
 4829000   0.48441609   -5.0527034    1860.5295   0.03210688  0.030472973           73 
 4830000   0.49311259   -5.0814517    1862.6788  0.032137315  0.030465102           82 
 4831000   0.47958238   -5.0650718    1859.8372  0.032081647  0.030457225           96 
 4832000   0.46876855    -5.048262    1858.7288  0.032055891  0.030449331          148 
 4833000   0.46788433   -5.0806368    1858.9559  0.032053174  0.030441436           67 
 4834000   0.47205928   -5.0622486    1855.3486  0.031984357  0.030433551          121 
 4835000   0.47627366   -5.0822291    1855.5942  0.031981976  0.030425652          176 
 4836000   0.46775795   -5.0748848    1859.7809  0.032047506  0.030417749           92 
 4837000    0.4882956   -5.0719193    1859.1725    0.0320304   0.03040986          152 
 4838000   0.48602719   -5.0791566    1860.6722  0.032049611     0.030402           67 
 4839000   0.47430431   -5.0722371      1865.05  0.032118378  0.030394148           87 
 4840000   0.46498588   -5.0814095    1860.4575   0.03203267  0.030386277           70 
 4841000   0.46574612   -5.0789605    1859.7844  0.032014467  0.030378403          144 
 4842000   0.47431441   -5.0727476    1858.8095  0.031991076   0.03037051          121 
 4843000   0.47941615   -5.0724029    1866.0012  0.032108218  0.030362635          168 
 4844000    0.4678896   -5.0581745     1858.795  0.031977619  0.030354768          198 
 4845000   0.47904799   -5.0810931     1858.873   0.03197236  0.030346911           67 
 4846000   0.48022339   -5.0632514    1860.4129  0.031992243  0.030339046          109 
 4847000   0.47025488   -5.0843239    1861.6956  0.032007695  0.030331183          117 
 4848000   0.46210322   -5.0759496    1859.2076  0.031958327  0.030323312          129 
 4849000   0.47651072   -5.0731283    1858.5084   0.03193972  0.030315455          129 
 4850000   0.48006699   -5.0679581    1860.1992  0.031962185  0.030307605           35 
 4851000   0.47302276    -5.073073    1861.7808  0.031982766  0.030299769           89 
 4852000   0.46966837   -5.0661285    1860.0899  0.031947133  0.030291938           66 
 4853000   0.47593679   -5.0661526      1863.99  0.032007522  0.030284125           40 
 4854000   0.47559895   -5.0692915    1862.1024  0.031968521  0.030276301           36 
 4855000   0.47840973   -5.0895711    1859.7098  0.031920868  0.030268471           31 
 4856000   0.47355957   -5.0833444    1858.2332  0.031888955  0.030260628           41 
 4857000   0.48038104   -5.0781522    1857.0642  0.031862332  0.030252804           53 
 4858000   0.46715625   -5.0679381     1859.765  0.031902103  0.030244957           41 
 4859000    0.4792088   -5.0791754    1862.2511  0.031938175  0.030237104           40 
 4860000   0.48160454    -5.067235    1857.0029  0.031841613  0.030229285           46 
 4861000   0.47128883   -5.0608834    1861.1252  0.031905733  0.030221459           42 
 4862000   0.47586995   -5.0879765    1858.7325  0.031858161  0.030213638           19 
 4863000    0.4877276   -5.0821971    1858.8294   0.03185327  0.030205813           59 
 4864000   0.47700149   -5.0732454    1857.7479  0.031828192  0.030197982           26 
 4865000    0.4774141   -5.0673607    1860.2427  0.031864383  0.030190144           41 
 4866000   0.47656683   -5.0775428    1857.2912  0.031807289  0.030182317           43 
 4867000   0.47167811   -5.0899796    1857.7522  0.031808646  0.030174471           34 
 4868000   0.48286227   -5.0851362    1858.3975   0.03181316  0.030166634           49 
 4869000   0.48286118   -5.0911713    1859.5624  0.031826563  0.030158808           48 
 4870000   0.47167086   -5.0791628    1858.3661  0.031799557  0.030150961           34 
 4871000   0.46862676   -5.0853346    1856.2408  0.031756668  0.030143114           43 
 4872000   0.47835848   -5.0863767    1858.9451  0.031796406  0.030135276           66 
 4873000   0.47689963   -5.0895608    1859.7546  0.031803725  0.030127427           32 
 4874000   0.47087673   -5.0830935    1858.2372  0.031771255  0.030119609           28 
 4875000   0.47308283    -5.095965    1860.4995   0.03180341  0.030111788           35 
 4876000   0.47330991   -5.1098672    1855.9724  0.031719518  0.030103939           47 
 4877000   0.47117196    -5.094401    1857.8559  0.031745197  0.030096095           25 
 4878000   0.48045783    -5.092188    1861.4396  0.031799911  0.030088246           24 
 4879000   0.47294989   -5.0875486    1857.4073  0.031724522  0.030080414           38 
 4880000   0.48448221   -5.0872082    1857.2259  0.031714924  0.030072583           33 
 4881000   0.47438069   -5.0951277    1857.2968  0.031709636  0.030064758           40 
 4882000   0.47239626   -5.1005136    1856.0921  0.031682577  0.030056946           18 
 4883000   0.47408528   -5.0986258     1856.588  0.031684552  0.030049116           28 
 4884000    0.4677587   -5.0971301    1856.5764  0.031677867  0.030041287           47 
 4885000   0.47260052   -5.0873825    1862.5794  0.031773786  0.030033464           44 
 4886000   0.47072099   -5.1086086    1857.2373  0.031676172  0.030025648           74 
 4887000   0.47469798   -5.0982323    1859.9184  0.031715407  0.030017822           69 
 4888000   0.46939506    -5.091143    1861.3805  0.031733846  0.030009996           76 
 4889000   0.47143593   -5.1002792    1859.7072  0.031698834  0.030002185           69 
 4890000   0.47040138   -5.1062001     1855.714  0.031624301  0.029994333           64 
 4891000   0.45906113   -5.1023931    1857.2052  0.031643242  0.029986501           54 
 4892000   0.46138266   -5.1084211    1858.2487  0.031654549  0.029978667           63 
 4893000   0.48978948   -5.1125398    1857.5582  0.031636321  0.029970831           76 
 4894000   0.47013814   -5.1121756    1858.1581  0.031640071  0.029963001           43 
 4895000   0.47163021   -5.1148764    1858.0792  0.031632265  0.029955165           45 
 4896000   0.46428234   -5.0783383    1856.6758  0.031601917   0.02994736          102 
 4897000   0.46800745   -5.1102417    1855.7356  0.031579464  0.029939557           47 
 4898000   0.46925601   -5.0988515    1858.1228  0.031613631  0.029931773           51 
 4899000   0.47195055   -5.1051565    1860.6019  0.031649348  0.029923989           38 
 4900000   0.47089485   -5.1170435    1852.7007  0.031508516  0.029916212           85 
 4901000   0.46928316   -5.1155506    1855.7495  0.031553925  0.029908405          103 
 4902000   0.46649168   -5.0897599    1858.8661  0.031600471  0.029900578           75 
 4903000   0.46113321   -5.1147813    1857.5635  0.031571886  0.029892779          107 
 4904000   0.47519869   -5.1095024    1857.1575  0.031558549  0.029884969           58 
 4905000   0.46397582   -5.1093203    1855.5996  0.031525648  0.029877151          112 
 4906000   0.47061456   -5.1066145    1858.6107  0.031570368  0.029869336           95 
 4907000   0.46337995   -5.1120369    1856.1143  0.031521539  0.029861519           91 
 4908000   0.46192192     -5.09687    1858.4785  0.031555259  0.029853723           99 
 4909000   0.47763118   -5.1087005    1857.8139  0.031537548  0.029845932          154 
 4910000    0.4725872   -5.0948026     1853.684  0.031461032  0.029838146           53 
 4911000    0.4660007   -5.1000751    1857.1302  0.031513103  0.029830354          128 
 4912000   0.46683395   -5.1070429    1852.1714   0.03142256  0.029822565           98 
 4913000   0.46164071   -5.1099127    1857.3589  0.031504154  0.029814774          153 
 4914000   0.46067661   -5.0925986     1855.211  0.031461318  0.029806988          167 
 4915000   0.46297426   -5.1144418    1857.8416  0.031499518  0.029799204           61 
 4916000    0.4736799   -5.0876883    1857.0884  0.031480343  0.029791431          140 
 4917000   0.46304155   -5.0986164    1851.9666  0.031387136  0.029783648           83 
 4918000   0.45729554   -5.1139173    1857.5686  0.031475679  0.029775868           86 
 4919000   0.47623546   -5.1201802    1854.0805  0.031410187  0.029768105          177 
 4920000   0.47106692   -5.1043471    1857.8089  0.031466954  0.029760338           29 
 4921000   0.45306584   -5.1131274    1854.3081  0.031401275  0.029752573           35 
 4922000   0.46614753    -5.095822    1857.4171  0.031447533   0.02974482           28 
 4923000    0.4668624   -5.1174592    1855.6408  0.031411078  0.029737081           50 
 4924000   0.46114178   -5.1173409    1857.0216  0.031428067  0.029729352           48 
 4925000   0.46648012   -5.1024074    1857.3022  0.031426433  0.029721625           65 
 4926000   0.47250787   -5.1021685     1857.987  0.031431638  0.029713899           54 
 4927000    0.4627371   -5.1097447    1858.6929  0.031437199  0.029706179           43 
 4928000    0.4736618   -5.1070962    1856.7601  0.031398134  0.029698456           74 
 4929000   0.45743396   -5.1211076    1860.0193  0.031446867  0.029690741           36 
 4930000   0.46186804   -5.1188153    1860.1574  0.031442823  0.029683031           69 
 4931000   0.45148438   -5.1031801    1860.0935  0.031435366  0.029675319           52 
 4932000    0.4684887   -5.0939941    1857.3737  0.031383038  0.029667582           54 
 4933000   0.45944117   -5.0856088    1855.9028  0.031351828  0.029659851           37 
 4934000   0.47622674   -5.1035446    1855.5899   0.03134019  0.029652107          102 
 4935000   0.47119674   -5.1009514    1856.3384  0.031346478  0.029644367           66 
 4936000   0.46598539   -5.0962399     1856.242    0.0313385  0.029636622           56 
 4937000   0.45534001   -5.1119071    1854.3183  0.031299682  0.029628891           27 
 4938000   0.46668981   -5.1078065    1856.9103  0.031337084  0.029621156           29 
 4939000   0.46675684   -5.1071554    1857.2022  0.031335665   0.02961342           43 
 4940000   0.45741213   -5.1015162    1860.5984  0.031386613  0.029605682           63 
 4941000   0.46569802   -5.1218298    1856.1476  0.031305195  0.029597924           53 
 4942000   0.47379096   -5.1133379    1856.9489  0.031312372  0.029590183           86 
 4943000   0.45302891   -5.0998725    1858.1383  0.031326089  0.029582443           55 
 4944000   0.45694082   -5.1317563    1854.3245   0.03125547  0.029574704           32 
 4945000   0.46499673   -5.1217464    1855.9394  0.031276363  0.029566964           53 
 4946000   0.45589395   -5.0960786    1854.5175  0.031246083  0.029559218           38 
 4947000    0.4664878   -5.1139797    1857.9026  0.031296789  0.029551502          103 
 4948000   0.45400593   -5.1033676    1857.0548  0.031276186  0.029543784          131 
 4949000   0.45584475   -5.1122197    1859.2928   0.03130755  0.029536076          111 
 4950000   0.46227703   -5.1033698    1856.3284   0.03125132  0.029528369           77 
 4951000   0.45794493   -5.0980985    1859.0449   0.03129073  0.029520665           59 
 4952000   0.46302737   -5.1061997    1859.2782  0.031288338  0.029512959           79 
 4953000   0.44987169   -5.1210315    1850.9154  0.031141318  0.029505264           65 
 4954000   0.45789074   -5.0935155    1855.5362  0.031212761  0.029497552          116 
 4955000   0.45729922   -5.1102571    1857.3454  0.031236889  0.029489838           82 
 4956000   0.46404039     -5.11158    1856.7675  0.031220868  0.029482135          132 
 4957000   0.47237547   -5.1129809    1856.8686   0.03121627   0.02947442           79 
 4958000   0.45122963   -5.1178799    1853.4427  0.031152391  0.029466718           69 
 4959000   0.46191371   -5.1195032    1855.2149  0.031175891  0.029459024           70 
 4960000   0.45686058   -5.1072196    1856.2219  0.031186523  0.029451326           76 
 4961000   0.45502664   -5.1255328    1852.8786  0.031124078  0.029443617           77 
 4962000   0.46410385   -5.1028222    1853.2889  0.031124696  0.029435909           58 
 4963000   0.45670402   -5.1213761    1855.7144  0.031159151   0.02942822           74 
 4964000   0.46153622   -5.1273757    1853.1448  0.031109736  0.029420502           54 
 4965000   0.45927885   -5.1148048    1859.0128   0.03120196  0.029412794          103 
 4966000   0.45099344   -5.1346226    1855.5854  0.031138163  0.029405093          117 
 4967000   0.45608359   -5.1207384    1858.5112  0.031180981  0.029397409           56 
 4968000   0.45501583   -5.1185126    1853.9661  0.031098465  0.029389721          138 
 4969000   0.45552568    -5.114009    1858.4437  0.031167299  0.029382009           30 
 4970000   0.45897093   -5.1267135    1853.3184  0.031075091  0.029374291           97 
 4971000   0.45866757   -5.1159364    1856.1181  0.031115773  0.029366588           93 
 4972000   0.46005877   -5.1276979    1852.5763  0.031050152   0.02935889          153 
 4973000     0.459092   -5.1214258    1854.5711  0.031077335  0.029351187           44 
 4974000   0.45090656   -5.1328934    1852.2738    0.0310326  0.029343467           91 
 4975000   0.45609191   -5.1173566    1855.2071  0.031075496  0.029335781           82 
 4976000    0.4609874   -5.1137378    1854.9395  0.031064769  0.029328104           93 
 4977000   0.45660088   -5.1199719    1855.1528  0.031062098  0.029320403           66 
 4978000   0.46078236   -5.1242081     1852.804   0.03101654  0.029312708           43 
 4979000   0.45011944      -5.1188    1851.8269  0.030993956  0.029305009           68 
 4980000   0.45486772   -5.1150737    1852.6661  0.031001775  0.029297328           45 
 4981000   0.45770314   -5.1107395    1853.3646  0.031007238  0.029289647          105 
 4982000   0.44969728   -5.1282947    1852.7415  0.030990592  0.029281936           65 
 4983000   0.45617664    -5.119866    1851.6148  0.030965529  0.029274234           42 
 4984000   0.45350703    -5.126968    1853.0482  0.030983283  0.029266525           77 
 4985000   0.45519573   -5.1252476    1853.1835   0.03097933   0.02925881           30 
 4986000   0.44880084   -5.1247616    1851.7087  0.030948467  0.029251096           71 
 4987000   0.45126764   -5.1289425    1860.1657  0.031083578  0.029243409           59 
 4988000   0.45267766   -5.1180531     1854.811  0.030987888  0.029235727           67 
 4989000   0.44946783   -5.1507532    1853.7282   0.03096359  0.029228053           53 
 4990000      0.46064   -5.1230279    1854.2576  0.030966226  0.029220385           42 
 4991000   0.45274088   -5.1413718    1853.9225  0.030954426  0.029212707           67 
 4992000   0.44904278   -5.1322565    1849.5715  0.030875592   0.02920503           55 
 4993000   0.45189709   -5.1391816     1853.099  0.030928283  0.029197352           67 
 4994000   0.44580554   -5.1207319    1855.1564  0.030956421  0.029189682          133 
 4995000    0.4612283   -5.1386062    1854.3864  0.030937378  0.029181997          114 
 4996000   0.45687031   -5.1208178    1854.5333  0.030933635   0.02917433           76 
 4997000   0.44745771   -5.1396148    1855.4627  0.030942945  0.029166651           77 
 4998000   0.44487621   -5.1330983    1851.5674  0.030871805  0.029158979           54 
 4999000   0.46135112   -5.1253273    1851.4893  0.030864328  0.029151317           62 
 5000000   0.46272204   -5.1251272    1853.9276  0.030898794  0.029143665          154 
 5001000   0.44870277   -5.1373903    1856.4698  0.030934976  0.029136019           70 
 5002000   0.45227974   -5.1284761    1854.2882  0.030892446  0.029128358           70 
 5003000   0.44946356   -5.1377244    1852.8113  0.030861671  0.029120707           50 
 5004000   0.45331562   -5.1233769      1855.63  0.030902445  0.029113068           88 
 5005000   0.44579168   -5.1329016    1854.9787  0.030885427  0.029105433           89 
 5006000   0.45322129   -5.1218205    1853.6599  0.030857303  0.029097792          139 
 5007000   0.45246416   -5.1269484    1858.1473  0.030925826  0.029090157           64 
 5008000   0.45529825   -5.1392263    1855.2108  0.030870787  0.029082539           93 
 5009000   0.45441774   -5.1240072    1853.6841  0.030839224  0.029074903          173 
 5010000   0.44332697   -5.1232242    1853.2737  0.030826242  0.029067282          100 
 5011000   0.45586929   -5.1308373    1855.2001  0.030852128   0.02905965          130 
 5012000   0.44758562   -5.1298248    1853.2335  0.030813274  0.029052017           70 
Loop time of 12487.3 on 48 procs for 5000000 steps with 4000 atoms

Performance: 69190.389 tau/day, 400.407 timesteps/s
99.4% CPU use with 48 MPI tasks x no OpenMP threads

MPI task timing breakdown:
Section |  min time  |  avg time  |  max time  |%varavg| %total
---------------------------------------------------------------
Pair    | 845.3      | 931.63     | 1017       | 120.0 |  7.46
Neigh   | 84.537     | 87.417     | 91.23      |  19.8 |  0.70
Comm    | 791.55     | 873.75     | 961.4      | 129.1 |  7.00
Output  | 13.98      | 13.985     | 14.083     |   0.4 |  0.11
Modify  | 10445      | 10465      | 10487      |   9.6 | 83.81
Other   |            | 115.5      |            |       |  0.93

Nlocal:        83.3333 ave          89 max          76 min
Histogram: 3 0 3 6 6 4 17 2 0 7
Nghost:        2289.50 ave        2307 max        2264 min
Histogram: 1 1 2 7 4 6 14 5 1 7
Neighs:        15464.0 ave       17659 max       14026 min
Histogram: 5 5 7 9 6 9 2 3 0 2
FullNghs:      30927.5 ave       33795 max       27655 min
Histogram: 2 3 2 7 5 12 8 3 1 5

Total # of neighbors = 1484521
Ave neighs/atom = 371.13025
Neighbor list builds = 269833
Dangerous builds = 0

#clear
#
#next RN
#
#jump SELF
Total wall time: 3:28:10
