
units lj                  # Use reduced LJ style units
atom_style atomic         # Uncharged point particles
atom_modify map hash      # Needed for indexing of clusters etc
                          # Used to be able to find where atoms are in relation to each other.

lattice fcc 1.0 spacing 1 1 1
Lattice spacing in x,y,z = 1.5874011 1.5874011 1.5874011
region box block 0 10 0 10 0 10 units lattice
create_box 2 box
Created orthogonal box = (0.0000000 0.0000000 0.0000000) to (15.874011 15.874011 15.874011)
  3 by 4 by 4 MPI processor grid
create_atoms 1 box
Created 4000 atoms
  using lattice units in orthogonal box = (0.0000000 0.0000000 0.0000000) to (15.874011 15.874011 15.874011)
  create_atoms CPU = 0.002 seconds
set type 1 type/fraction 2 0.65 78393
Setting atom values ...
  2613 settings made for type/fraction
mass 1 1.0
mass 2 1.0
pair_style lj/cut  3.5
pair_modify tail  yes
pair_coeff 1  1  1.0  1.0   # Intearaction between 1 and 1 set with epsilon = 1 and sigma = 1
pair_coeff 1  2  1.5  0.8
pair_coeff 2  2  0.5  0.88

write_data data.0
System init for write_data ...
Neighbor list info ...
  update every 1 steps, delay 10 steps, check yes
  max neighbors/atom: 2000, page size: 100000
  master list distance cutoff = 3.8
  ghost atom cutoff = 3.8
  binsize = 1.9, bins = 9 9 9
  1 neighbor lists, perpetual/occasional/extra = 1 0 0
  (1) pair lj/cut, perpetual
      attributes: half, newton on
      pair build: half/bin/atomonly/newton
      stencil: half/bin/3d
      bin: standard
WARNING: Not all mixed pair coeffs generated from mixing. Use write_data with 'pair ij' option to store all pair coeffs. (../write_data.cpp:312)


#############################
#   M E L T   S Y S T E M   #
#############################

velocity all create 2.4 1741580 mom yes dist gaussian # Assign velocities
                                                    # Temperature 2.4, random number seed, zero linear momentum
                                                                                # Gaussian distribution

timestep 0.002   # simulation timestep
thermo 1000       # output thermodynamic data every 1000 steps bf 100

# Define a fix  in this case with index 1 applied to all
# particles in the simulation. This fix is for simulations
# in the anisotropic NPT ensemble. Note that we use the MTK
# correction.
fix 1 all npt temp 2.4 2.4 0.1 iso 5.68 5.68 0.5 mtk yes tchain 5 pchain 5 # Use NPT ensemble
                                                                         # Set temperature and pressure and damping
                                                                         # Numbers of thermostats in chain and in barostat
run 10000          # run for 10000 steps
Per MPI rank memory allocation (min/avg/max) = 3.642 | 3.644 | 3.648 Mbytes
Step Temp E_pair E_mol TotEng Press Volume 
       0          2.4   -4.4517567            0  -0.85265669   -3.9326408         4000 
    1000    2.4532309   -4.1268232            0  -0.44789688    5.7615925    3631.3247 
    2000    2.4189706   -4.1883631            0  -0.56081425    5.5638052     3617.326 
    3000    2.3508175   -4.1238746            0  -0.59852986    5.4678855    3653.4858 
    4000    2.3901179   -4.1724903            0  -0.58820984    5.5472689    3618.7447 
    5000    2.4325484   -4.1950879            0   -0.5471775    5.6624171    3606.4545 
    6000    2.4418989   -4.2082034            0  -0.54627076    5.5374867    3607.7882 
    7000    2.3766225   -4.1452632            0  -0.58122069      5.68278    3624.2552 
    8000    2.4423167   -4.1699886            0  -0.50742939    5.8836263    3598.1908 
    9000     2.401611   -4.0968877            0  -0.49537192    5.9577421    3621.3136 
   10000    2.4328195   -4.1541856            0  -0.50586868    5.8214402    3609.0657 
Loop time of 2.67603 on 48 procs for 10000 steps with 4000 atoms

Performance: 645733.852 tau/day, 3736.886 timesteps/s
99.6% CPU use with 48 MPI tasks x no OpenMP threads

MPI task timing breakdown:
Section |  min time  |  avg time  |  max time  |%varavg| %total
---------------------------------------------------------------
Pair    | 1.2278     | 1.2707     | 1.4113     |   2.9 | 47.49
Neigh   | 0.21811    | 0.22481    | 0.25084    |   1.0 |  8.40
Comm    | 0.78068    | 0.90595    | 0.97761    |   3.6 | 33.85
Output  | 0.00025119 | 0.00025756 | 0.00032144 |   0.0 |  0.01
Modify  | 0.21202    | 0.25853    | 0.29765    |   5.3 |  9.66
Other   |            | 0.01575    |            |       |  0.59

Nlocal:        83.3333 ave          94 max          71 min
Histogram: 1 1 2 8 13 4 9 5 3 2
Nghost:        1758.94 ave        1784 max        1731 min
Histogram: 2 2 2 6 9 11 6 6 2 2
Neighs:        10583.8 ave       12283 max        8656 min
Histogram: 1 1 4 9 7 8 7 6 3 2

Total # of neighbors = 508020
Ave neighs/atom = 127.00500
Neighbor list builds = 907
Dangerous builds = 200

# Equilibrate just above the melting temperature to avoid step fn in T

fix 1 all npt temp 1.25 1.25 0.1 iso 5.68 5.68 0.5 mtk yes tchain 5 pchain 5
run 2000
Per MPI rank memory allocation (min/avg/max) = 3.644 | 3.646 | 3.650 Mbytes
Step Temp E_pair E_mol TotEng Press Volume 
   10000    2.4328195   -4.1541856            0  -0.50586868    5.8214402    3609.0657 
   11000    1.2531391   -6.1158615            0   -4.2366228    5.7818145    2766.8091 
   12000    1.2493771   -6.1713511            0    -4.297754    5.7085847    2756.4733 
Loop time of 0.6691 on 48 procs for 2000 steps with 4000 atoms

Performance: 516514.892 tau/day, 2989.091 timesteps/s
99.6% CPU use with 48 MPI tasks x no OpenMP threads

MPI task timing breakdown:
Section |  min time  |  avg time  |  max time  |%varavg| %total
---------------------------------------------------------------
Pair    | 0.30638    | 0.32611    | 0.35518    |   1.8 | 48.74
Neigh   | 0.042224   | 0.044381   | 0.048906   |   0.6 |  6.63
Comm    | 0.21875    | 0.24781    | 0.27235    |   2.3 | 37.04
Output  | 5.2333e-05 | 5.3592e-05 | 6.9485e-05 |   0.0 |  0.01
Modify  | 0.041398   | 0.045864   | 0.049985   |   1.1 |  6.85
Other   |            | 0.004882   |            |       |  0.73

Nlocal:        83.3333 ave          91 max          76 min
Histogram: 2 2 5 2 11 8 13 1 3 1
Nghost:        2109.90 ave        2130 max        2085 min
Histogram: 2 2 4 2 8 9 8 7 5 1
Neighs:        13834.0 ave       15610 max       11823 min
Histogram: 1 1 5 3 10 11 9 5 2 1

Total # of neighbors = 664034
Ave neighs/atom = 166.00850
Neighbor list builds = 144
Dangerous builds = 12

#############################
# L I N E A R  Q U E N C H  #
#############################

# Define solid atoms. This closely follows ten Wolde  Ruiz-Montero and Frenkel  Faraday Discuss  1996  104  93-110
# Compute components of the per-atom q6 vector
compute q6 all orientorder/atom degrees 1 6 components 6 nnn NULL cutoff 1.3 # compute the Q6 parameter.
                                                                             # Use all neighbours within 1.3 unit cell.

# get number of connections
compute coord_number all coord/atom orientorder q6 0.5

# An atom is solid if it has 8 or more connections (of a possible 14)
variable is_solid atom c_coord_number>=8
group solid dynamic all var is_solid    # Must be dynamic to update
dynamic group solid defined

# do clustering
compute cluster solid cluster/atom 1.3 # Create a cluster where all atoms within are solid and max 1.3 units from another member

# define chunks one chunk per cluster
compute clus_chunks solid chunk/atom c_cluster nchunk every compress yes  # Says which atoms are in which chunk

# count the size of each chunk
compute size_chunks solid property/chunk clus_chunks count


# Find the maximum entry in the vector of chunk sizes
variable max_n equal max(c_size_chunks)


# Thermo style which includes this variable
# thermo_style custom step temp pe vol v_max_n

thermo ${N}  # Print the thermo information every 100 steps
thermo 1000  

# Reset the npt fix at a lower temperature (below freezing)
fix 1  all npt temp  ${temp} ${temp}  0.1  iso  5.68  5.68  0.5  mtk yes tchain  5  pchain  5
fix 1  all npt temp  0.45 ${temp}  0.1  iso  5.68  5.68  0.5  mtk yes tchain  5  pchain  5
fix 1  all npt temp  0.45 0.45  0.1  iso  5.68  5.68  0.5  mtk yes tchain  5  pchain  5

dump dmp2 all dcd ${N} traj.dcd
dump dmp2 all dcd 1000 traj.dcd


compute msd all msd com yes
variable twopoint equal c_msd[4]/6/(step*dt+1.0e-6)
fix 9 all vector 10 c_msd[4]
variable fit equal slope(f_9)/6/(10*dt)
thermo_style custom step temp pe c_msd[4] v_twopoint v_fit v_max_n

fix 1 all npt temp 1.25 ${temp} 0.1 iso 5.68 5.68 0.5 mtk yes tchain 5 pchain 5
fix 1 all npt temp 1.25 0.45 0.1 iso 5.68 5.68 0.5 mtk yes tchain 5 pchain 5
run 2000000 # 5000000  # Run for this many steps
Neighbor list info ...
  update every 1 steps, delay 10 steps, check yes
  max neighbors/atom: 2000, page size: 100000
  master list distance cutoff = 3.8
  ghost atom cutoff = 3.8
  binsize = 1.9, bins = 8 8 8
  4 neighbor lists, perpetual/occasional/extra = 1 3 0
  (1) pair lj/cut, perpetual
      attributes: half, newton on
      pair build: half/bin/atomonly/newton
      stencil: half/bin/3d
      bin: standard
  (2) compute orientorder/atom, occasional
      attributes: full, newton on
      pair build: full/bin/atomonly
      stencil: full/bin/3d
      bin: standard
  (3) compute coord/atom, occasional
      attributes: full, newton on
      pair build: full/bin/atomonly
      stencil: full/bin/3d
      bin: standard
  (4) compute cluster/atom, occasional
      attributes: full, newton on
      pair build: full/bin/atomonly
      stencil: full/bin/3d
      bin: standard
Per MPI rank memory allocation (min/avg/max) = 9.846 | 9.851 | 9.856 Mbytes
Step Temp PotEng c_msd[4] v_twopoint v_fit v_max_n 
   12000    1.2493771   -6.1713511 2.0962006e-30 1.4556948e-32 8.3333333e+20            1 
   13000    1.2539914   -6.1845957   0.54902248 0.0035193747   0.04548642            5 
   14000    1.2690437   -6.1745758     1.062502 0.0063244162   0.04364233            1 
   15000    1.2423633   -6.1519887    1.6163512 0.0089797284  0.044222223            4 
   16000    1.2643711   -6.1929058    2.0928831  0.010900432  0.043840325            3 
   17000    1.2556702   -6.1286146    2.6208422  0.012847265   0.04310114            2 
   18000    1.2232647   -6.2195417    3.1133225  0.014413529  0.042778311            1 
   19000    1.2458145   -6.1965721    3.6698077  0.016095647  0.042886871            4 
   20000    1.2481642   -6.1748428    4.2399004  0.017666251  0.043371744            4 
   21000    1.2581679   -6.2318001    4.7256019  0.018752388  0.043447762            2 
   22000    1.2399674   -6.1779908    5.2885737  0.020032476  0.043525455            2 
   23000    1.2462536   -6.2607493     5.782709  0.020951844  0.043611275            4 
   24000    1.2246303   -6.2159714    6.2097833  0.021561747  0.043580218            2 
   25000    1.2385851    -6.221851    6.6917666  0.022305888  0.043328806            5 
   26000    1.2622414   -6.2285322    7.1264691  0.022841247  0.043016609            3 
   27000    1.2242192   -6.1929429    7.5749193   0.02337938  0.042628332            1 
   28000    1.2452992   -6.2385544    7.9658892  0.023708003  0.042178783            3 
   29000    1.2494545   -6.1923008     8.515835   0.02447079  0.041833769            2 
   30000    1.2284819   -6.2218335    9.0300977  0.025083604   0.04163405            3 
   31000     1.269416   -6.2266524    9.5883397  0.025775106   0.04158888            4 
   32000    1.2254762   -6.2106739    10.190482  0.026537713  0.041600085            2 
   33000    1.2434138   -6.2051291    10.719219  0.027068735  0.041670283            2 
   34000    1.2861211   -6.2383359    10.979896  0.026911511  0.041627755            4 
   35000    1.2278587   -6.2029222    11.380408   0.02709621  0.041469599            3 
   36000    1.2450359   -6.1787725    11.987143  0.027748015  0.041335584            3 
   37000    1.2067608   -6.2284047    12.388587  0.027902223  0.041233024            2 
   38000    1.2367892   -6.2360855    12.877687  0.028240541  0.041137932            3 
   39000    1.2312126   -6.2093419    13.413935  0.028662254  0.041077983            2 
   40000    1.2387284   -6.2022372    13.848869   0.02885181  0.040996109            3 
   41000    1.2095262   -6.2215354    14.231987  0.028926802  0.040890399            2 
   42000    1.2286878   -6.2161839    14.682256   0.02913146  0.040746617            3 
   43000    1.2546954   -6.2361962    15.102624   0.02926865  0.040617117            2 
   44000    1.2293552   -6.2531443    15.612486  0.029569101    0.0405055            4 
   45000    1.2523586   -6.2567391    16.031779   0.02968848  0.040410991            2 
   46000    1.2291245   -6.2533138    16.544814  0.029972489  0.040318612            1 
   47000    1.2425489   -6.2394572    16.972371  0.030092856  0.040231162            2 
   48000     1.242454   -6.2091044    17.649284  0.030641117  0.040198407            3 
   49000    1.2346764   -6.2224959    18.078513   0.03074577  0.040188277            3 
   50000    1.2314438   -6.2100695    18.754023  0.031256704  0.040195319            3 
   51000    1.2091126   -6.2627999    19.058675  0.031141626  0.040213127            3 
   52000    1.2593834   -6.2011799    19.570435  0.031362876  0.040207033            3 
   53000    1.2404586    -6.211686    19.971011   0.03140096  0.040191684            2 
   54000    1.2621675   -6.2091572    20.482494  0.031608786  0.040175983            2 
   55000    1.2305495   -6.2524146    20.758982  0.031453003  0.040138508            3 
   56000    1.2354509   -6.2115041    21.368509  0.031798377  0.040087537            7 
   57000    1.2208125   -6.2145271    21.778806  0.031840359  0.040038508            3 
   58000    1.2240645   -6.2413871    22.359314  0.032125451  0.040017601            1 
   59000    1.2445738   -6.2152168    23.003279  0.032490507  0.040026008            1 
   60000    1.2006796    -6.231235    23.445372  0.032563017  0.040045557            2 
   61000    1.2285488   -6.2413404    23.951295  0.032720348  0.040047629            2 
   62000    1.2004377    -6.234099    24.384409  0.032774742  0.040046452            2 
   63000     1.268977   -6.2311774    24.946513  0.032998033  0.040060673            2 
   64000    1.2247937   -6.2222287    25.461058  0.033152419  0.040073389            1 
   65000    1.2183902   -6.2206859    25.835334  0.033122223  0.040079955            2 
   66000    1.2258466   -6.3172215    26.074892  0.032922843  0.040065129           10 
   67000    1.2296336   -6.2557496     26.71181  0.033223644  0.040048526            2 
   68000    1.2334973   -6.2405202    27.058041  0.033159364  0.040038004            2 
   69000    1.2291416   -6.2446202    27.393225  0.033083605  0.040006267            2 
   70000    1.2575361   -6.2491275    28.014958   0.03335114  0.039981919            2 
   71000    1.2314201   -6.2265558    28.563634  0.033525392  0.039967772            4 
   72000    1.2212166   -6.2604748    28.919237  0.033471339  0.039945751            3 
   73000    1.2246737   -6.2451663    29.400838    0.0335626  0.039937896            1 
   74000    1.2238333   -6.2409051    30.040928  0.033829874  0.039928067            3 
   75000    1.2096622   -6.2786609    30.577901  0.033975446  0.039928207            2 
   76000    1.2011762   -6.2408087    31.005235  0.033996968  0.039929316            4 
   77000    1.2537336   -6.2299933    31.441385  0.034027473  0.039919394            5 
   78000    1.2353858   -6.2590938    31.792971   0.03396685  0.039908683            2 
   79000     1.218949   -6.3328923    32.295018  0.034066474  0.039902292            3 
   80000    1.1932607   -6.2255795    32.958641  0.034331917   0.03990269            4 
   81000    1.2429901   -6.2380773    33.343741   0.03430426  0.039898032            2 
   82000    1.2203253    -6.297801     33.62916  0.034175976  0.039883192            5 
   83000    1.1848072   -6.2373558    34.265834  0.034403448  0.039859264            6 
   84000    1.2638802   -6.2709588    34.531116  0.034257059  0.039843024            2 
   85000    1.2048747   -6.2570757    35.041218  0.034354135  0.039821725            4 
   86000    1.2195951    -6.240833    35.539037  0.034437051  0.039797942            4 
   87000    1.2310903   -6.2433644    35.778007  0.034270122  0.039762499            3 
   88000    1.2068069    -6.271235    36.178556  0.034259996  0.039731841            2 
   89000     1.224041   -6.2563457    36.655356  0.034321495   0.03969694            2 
   90000    1.1757458   -6.2812559    37.214663  0.034458021   0.03966888            1 
   91000     1.224233   -6.2704808    37.631998  0.034461536  0.039637899            6 
   92000    1.2420799   -6.2627811    38.296989  0.034689302  0.039622345            1 
   93000    1.2229831   -6.2503488    38.932157  0.034885446  0.039617032            2 
   94000    1.2025036   -6.2764502    39.691876  0.035187833  0.039627362            8 
   95000    1.1862537   -6.2635312    40.036355   0.03511961  0.039632786            2 
   96000      1.21674   -6.3087614    40.332738  0.035011057  0.039630946            1 
   97000    1.1834187    -6.290147    41.036735  0.035254927  0.039646137            3 
   98000    1.2032034   -6.2899409    41.311111  0.035128495  0.039658095            3 
   99000    1.2156359   -6.2758839    41.951111  0.035312383  0.039672531            2 
  100000    1.2216914   -6.2868402    42.535329  0.035446108   0.03968825            4 
  101000    1.2023275   -6.2935801    42.992697  0.035472522  0.039708588            4 
  102000    1.1998878   -6.2899405    43.371143   0.03543394  0.039720847            4 
  103000    1.2068722   -6.2844892    43.881651  0.035502953  0.039720973            3 
  104000    1.2279945   -6.3123825     44.13389  0.035363693  0.039718525            2 
  105000    1.2071344   -6.3074459    44.778068  0.035538149  0.039724198            3 
  106000    1.2362528   -6.2954555    45.260703  0.035582314  0.039733568            3 
  107000    1.2079563   -6.3195711    45.780095  0.035654279  0.039739406            2 
  108000    1.2005337   -6.3165851    46.255429  0.035690917  0.039741753            2 
  109000    1.2389254   -6.2691394    46.387847  0.035464715  0.039736414            4 
  110000    1.2095007   -6.2509405     46.88205  0.035516704  0.039723038            4 
  111000    1.2009706   -6.2950675    47.455474  0.035627232  0.039713162            3 
  112000    1.2023443   -6.3164988    48.023394  0.035731692  0.039711324            3 
  113000    1.1890303   -6.2539035    48.399763  0.035693041   0.03970455            4 
  114000    1.2284664   -6.2852702    48.854934  0.035712671   0.03969749            2 
  115000    1.2253748   -6.3194244    49.227347   0.03567199  0.039692419            2 
  116000    1.1790044   -6.2538384    50.069889  0.035969747  0.039685455            3 
  117000     1.230957   -6.3202806    50.370691  0.035876561  0.039685201            1 
  118000    1.2137689   -6.3018846    50.781359  0.035862541  0.039680805            3 
  119000    1.2098216   -6.2577633    51.387467  0.035985621  0.039678809            5 
  120000    1.2035513   -6.3167452    51.545666  0.035795601   0.03967325            5 
  121000    1.1932234   -6.3399765    52.081703  0.035868941  0.039661389            2 
  122000    1.1987238   -6.2949375     52.55183  0.035896059  0.039654751            5 
  123000    1.1864557   -6.3008246    53.193452  0.036038924  0.039647687            2 
  124000    1.2364753   -6.3182003    53.748798  0.036121504  0.039652939            1 
  125000    1.1960303   -6.3217933    54.236936  0.036157958  0.039655342            2 
  126000    1.1923868   -6.2948394    54.915272  0.036319624  0.039667599            4 
  127000    1.2117347   -6.3090539    55.277388  0.036271252  0.039672794            3 
  128000    1.2288771   -6.3156565    55.498961  0.036132136  0.039676553            2 
  129000    1.2180314   -6.3488285    56.176656   0.03628983  0.039678455            2 
  130000    1.2264759   -6.3217145    56.313636  0.036098485  0.039680837            1 
  131000    1.1754814   -6.3147584    57.174363   0.03637046  0.039683763            2 
  132000    1.2072396    -6.331558     57.51699  0.036311231  0.039685583            3 
  133000    1.2150625   -6.3793357    58.010667  0.036347536   0.03968163            2 
  134000    1.2185721   -6.3414756    58.293084  0.036251918  0.039679255            1 
  135000    1.1993644   -6.3385532    59.077744  0.036467743  0.039680073            3 
  136000    1.1865375   -6.2896918    59.579759  0.036507205  0.039683446            4 
  137000     1.205683   -6.2998371    60.083526  0.036547157  0.039688425            2 
  138000    1.2024633     -6.30148    60.532157  0.036553235  0.039689587            4 
  139000    1.2145497   -6.3390732    60.514709  0.036279802  0.039683752            2 
  140000    1.1959237   -6.3143961    61.094072  0.036365519  0.039677885            3 
  141000    1.2004791   -6.2973747     61.58114  0.036395472  0.039669911            2 
  142000    1.2367164   -6.3384902    61.895035  0.036323377  0.039661884            2 
  143000    1.1905392   -6.2896241    62.672239  0.036522284  0.039652065            2 
  144000    1.1921843   -6.3597877    62.718977  0.036295704  0.039641264            2 
  145000    1.1933217   -6.2886988    63.239452  0.036344512  0.039629656            3 
  146000    1.2192399    -6.335508    63.619368  0.036312424  0.039616806            3 
  147000    1.1902272   -6.2768787    63.894089  0.036221139  0.039603318            3 
  148000    1.1708557   -6.3100684    64.415086  0.036269756  0.039584753            2 
  149000    1.1943927   -6.3374245    64.800052   0.03624164  0.039561529            4 
  150000    1.1891197   -6.3066872    65.510784   0.03639488  0.039543846            2 
  151000    1.1732804   -6.3245707    65.573818  0.036188641  0.039523743            1 
  152000    1.1902778   -6.3607125    66.057994  0.036216006  0.039503402            3 
  153000    1.1980098   -6.2743204    66.861152   0.03641675  0.039484671            3 
  154000     1.210209   -6.2924157    67.273274  0.036403287  0.039466516            5 
  155000    1.1953039   -6.3286898    67.354451   0.03621207  0.039448133            3 
  156000     1.188939   -6.3494663    67.641589  0.036133327  0.039427488            4 
  157000     1.202221   -6.3581446    68.473717   0.03634486  0.039409884            4 
  158000    1.2120049   -6.3591397    68.996164  0.036390382  0.039394982            3 
  159000    1.2139316   -6.3262145    69.458606  0.036403881  0.039381677            1 
  160000    1.2070481   -6.3440043    69.943327  0.036428816  0.039364825            2 
  161000    1.1878818   -6.3152222    70.368508  0.036422623  0.039350772            2 
  162000    1.1850034   -6.2999197    70.716916  0.036377015  0.039336089            2 
  163000    1.2144617   -6.3274418    71.106371   0.03635295  0.039322588            2 
  164000     1.213182   -6.3659494    71.539187  0.036351213  0.039305132            2 
  165000    1.2039993   -6.4110198     71.61488  0.036169131   0.03928385            2 
  166000    1.1884875   -6.4011718    71.749324  0.036018737  0.039261627            3 
  167000    1.1963731   -6.3326359    72.793366  0.036324035  0.039240251            2 
  168000    1.1763987   -6.3874004      72.4025  0.035913938  0.039215593            2 
  169000    1.1955574   -6.3522003    72.990127  0.035991187  0.039184903            7 
  170000    1.1796157   -6.3308026    73.888878  0.036220038  0.039154174            2 
  171000    1.1603617   -6.3115471    73.659849  0.035896612  0.039124477            8 
  172000    1.1853093   -6.3767134    74.289495  0.035992972  0.039094211            1 
  173000    1.1780693   -6.3252271    74.640726  0.035954107  0.039065093            2 
  174000    1.2122365   -6.3439754     75.13948  0.035986341  0.039036324            2 
  175000    1.2064947   -6.3342124     76.07507  0.036226224   0.03900957            2 
  176000    1.1586546   -6.3562746    76.445286  0.036195685  0.038987079            1 
  177000    1.1736324   -6.3716173     76.95967  0.036233366  0.038968623            2 
  178000    1.1499915   -6.3219447    77.324087  0.036200415  0.038950353            3 
  179000    1.1694835   -6.3640209    77.782077  0.036211395  0.038927354            2 
  180000    1.1672414   -6.3327082    77.889524  0.036059965  0.038902224            3 
  181000    1.2057774   -6.3467395    78.394118  0.036093056  0.038879229            5 
  182000    1.1481708   -6.3352878    78.872232  0.036113659  0.038857644            6 
  183000    1.1644059   -6.3935902    79.097611  0.036018948  0.038832921            4 
  184000     1.205723   -6.3811466    79.618457  0.036059084  0.038806957            3 
  185000    1.1830977   -6.3443131    80.110008  0.036085589    0.0387822            3 
  186000    1.1628555   -6.3538726    80.593947  0.036108399  0.038757299            2 
  187000    1.1650649   -6.3988866    80.948521  0.036073316  0.038736196            2 
  188000    1.1839507   -6.3719458    81.188327  0.035987734  0.038712517            5 
  189000    1.1955755   -6.3746775    81.830697  0.036080554  0.038691214            2 
  190000     1.196733   -6.3494526    82.170498  0.036039692   0.03866932            3 
  191000    1.2091933   -6.3935858     82.65663  0.036063102  0.038646776            2 
  192000    1.1794723   -6.3744328     83.10855  0.036071419  0.038626352            4 
  193000    1.2124289   -6.3576839    83.580966    0.0360885  0.038606193            2 
  194000    1.1951288   -6.3701406    84.186463   0.03616257   0.03858921            3 
  195000    1.1885754   -6.3873466    84.366286  0.036053968  0.038567718            5 
  196000    1.2001238   -6.3206275    85.385225  0.036303242   0.03854776            3 
  197000    1.1624937   -6.3680511    85.212843  0.036046042  0.038528596            5 
  198000    1.1671071   -6.3330298    85.864732  0.036138355  0.038510251            2 
  199000     1.167262   -6.3756661     86.04096  0.036030553  0.038488769            1 
  200000    1.1785529   -6.4073614    86.583274  0.036076364  0.038466638            2 
  201000    1.1775255   -6.3699715    86.911273  0.036032866  0.038446796            1 
  202000    1.1712564   -6.3965432    87.306352  0.036017472   0.03842303            4 
  203000    1.1990075   -6.4531966    87.488437  0.035914793  0.038399274            1 
  204000    1.1772643   -6.3803893    88.209896  0.036033454  0.038379474            1 
  205000    1.2135603   -6.3465005    88.918991  0.036145931  0.038363518            2 
  206000    1.1748141   -6.3496804    89.550184  0.036225803  0.038347117            3 
  207000    1.1768072    -6.373646    89.755526  0.036133464  0.038330515            2 
  208000    1.1803431   -6.3442619    90.595549  0.036296294  0.038315667            4 
  209000    1.1726298   -6.2883991     91.38654  0.036438014   0.03830515            4 
  210000    1.1793839   -6.3443639    91.312797  0.036235237   0.03829385            2 
  211000     1.174483   -6.3884236      91.8292  0.036267456  0.038284251            3 
  212000    1.1606651   -6.3913754    92.278848  0.036273132  0.038274466            3 
  213000    1.1710247   -6.4248235    92.752199  0.036288028  0.038265897            3 
  214000    1.1372683   -6.3850625    93.210946  0.036297097  0.038254085            6 
  215000    1.1676919   -6.4478994    93.125078  0.036094991  0.038243936            2 
  216000    1.1785227   -6.4086422    94.246515  0.036360538  0.038234229            2 
  217000     1.160814   -6.4062171    94.414314  0.036257417  0.038224139            7 
  218000    1.1664487   -6.4066359    94.536889  0.036137955  0.038212307            3 
  219000    1.1977545   -6.3842394    94.950611  0.036130369  0.038199113            5 
  220000    1.1502935   -6.3874283    95.580853  0.036204868  0.038183809            9 
  221000    1.1723084   -6.4180517    96.397834  0.036349108  0.038171565            6 
  222000    1.1512296   -6.3781605    96.387804  0.036181608  0.038160639            1 
  223000    1.1420524    -6.384093    96.949218  0.036229155  0.038148334            3 
  224000    1.1685558   -6.4136556    96.851009  0.036030881  0.038135428            5 
  225000    1.1600219   -6.3818875    97.517719  0.036117674  0.038118142            2 
  226000    1.1875794   -6.4054277    97.618696  0.035995094  0.038099725            3 
  227000    1.1768531   -6.4111078    97.970191  0.035965562  0.038079713            3 
  228000    1.1459588   -6.4043348    98.038095  0.035832637   0.03805849            5 
  229000    1.1717164   -6.3864664    98.128055  0.035708899  0.038035523            2 
  230000    1.1791437   -6.3931549    98.601929  0.035725336  0.038009952            5 
  231000    1.1456225   -6.3779831    99.302292  0.035823337  0.037987409            4 
  232000    1.1687806   -6.4305909    99.595533  0.035774258  0.037963742            3 
  233000    1.1678605   -6.4189645    100.04947  0.035783071  0.037941304            3 
  234000    1.1831068   -6.4010516    100.67656  0.035853475  0.037918453            2 
  235000    1.1590782   -6.4257132    100.95036  0.035797999  0.037897203            4 
  236000    1.1767646   -6.4246222    100.97708  0.035655747  0.037874534            5 
  237000    1.1266402    -6.389371    101.84501  0.035810482  0.037852486            3 
  238000    1.1696509   -6.4230477    101.65532  0.035593598  0.037829398            2 
  239000    1.1316102   -6.3229082    102.99969  0.035913419  0.037807896            2 
  240000    1.1573218    -6.380147    102.60701  0.035627436  0.037784661            1 
  241000    1.1313344   -6.4049699    103.06887  0.035639304  0.037761188            2 
  242000    1.1314232   -6.3906823    103.76196  0.035730702  0.037739502            2 
  243000    1.1539788   -6.3830272    104.00228  0.035666078  0.037716642            6 
  244000    1.1507233   -6.4257311    104.23048  0.035597843  0.037692556            3 
  245000    1.1547534   -6.4529538    104.69672  0.035611128  0.037668101            4 
  246000    1.1641252   -6.4327429    104.95202  0.035552852  0.037646214            1 
  247000    1.1802754   -6.4250208    105.73965  0.035674647  0.037626403            2 
  248000    1.1695209    -6.423021    106.04639  0.035633867  0.037604918            2 
  249000    1.1498845   -6.3964872    106.68952  0.035705997  0.037586529            3 
  250000     1.161859   -6.4017873    106.94949   0.03564983  0.037566424            1 
  251000    1.1597662   -6.4181277    107.04786  0.035540458  0.037544608            3 
  252000    1.1738797   -6.4324743    107.95648  0.035699895  0.037524241            3 
  253000    1.1356377   -6.4062872    108.17788  0.035631713  0.037502406            4 
  254000    1.1177386   -6.4475801    108.21061  0.035502169  0.037480737            4 
  255000    1.1461732   -6.4420173    108.13347  0.035337734   0.03745697            4 
  256000    1.1343333   -6.4678422    108.68182  0.035378197  0.037431672            4 
  257000    1.1519107   -6.4002362    108.93089  0.035321299  0.037404715            2 
  258000    1.1620537   -6.4490731    109.17869  0.035264434  0.037378943            5 
  259000    1.1563499   -6.4244972    109.79824  0.035327621  0.037353592            5 
  260000    1.1288338    -6.436458    110.17002  0.035310903  0.037326891            2 
  261000    1.1514361    -6.435298    109.93739  0.035101336   0.03729807            5 
  262000    1.1169695   -6.4080242    110.52644   0.03515472  0.037268863            1 
  263000    1.1314317   -6.4403026     110.2882  0.034945564  0.037238815            2 
  264000    1.1608798   -6.4856142    110.29506  0.034815359  0.037206402            2 
  265000    1.1593464   -6.4356642    111.07371  0.034928839  0.037173083            4 
  266000    1.1501526   -6.4577405    111.66338  0.034982262  0.037142565            4 
  267000    1.1389008   -6.4523911    111.29327  0.034735728  0.037110314            6 
  268000    1.1493541   -6.4358604    112.35208  0.034935349  0.037078299            4 
  269000    1.1372166   -6.4389325    112.36238  0.034808667  0.037045172            6 
  270000    1.1212973   -6.3755844    113.09948  0.034907247  0.037011958            3 
  271000    1.1548405   -6.4305434    112.87806   0.03471035  0.036979795            5 
  272000    1.1480983   -6.4264271    113.68297   0.03482934  0.036947298            2 
  273000    1.1437952   -6.4671323    113.99281   0.03479634  0.036915114            1 
  274000    1.1363977   -6.4869758    114.32377  0.034770003  0.036883976            3 
  275000    1.1276599    -6.438316    114.87739   0.03481133  0.036854285            2 
  276000    1.1667198   -6.3990773    115.66033  0.034921598  0.036824554            1 
  277000    1.1371668   -6.4798369    115.17712  0.034650157  0.036795431            5 
  278000    1.1777183   -6.4815838    115.65327  0.034668247  0.036765817            3 
  279000     1.167988   -6.4285571    116.36336   0.03475608  0.036737804            9 
  280000    1.1412633   -6.4494452    117.02637  0.034829277  0.036708828            2 
  281000    1.1511608   -6.4359951      117.024  0.034704627  0.036680703            2 
  282000    1.1402296   -6.4677178     116.8457  0.034528871  0.036650562            3 
  283000    1.1281336   -6.4997528    117.70186  0.034658969  0.036620774            3 
  284000    1.1623046   -6.4780835    117.90345  0.034596083  0.036590304            1 
  285000    1.1428144   -6.4894581    118.27865  0.034584401  0.036560196            6 
  286000    1.1330472   -6.4817244    117.92145  0.034359396  0.036529143            2 
  287000    1.1340037   -6.4513767    119.06061  0.034570444  0.036497699            6 
  288000    1.1362222   -6.4777956     118.6972  0.034345254  0.036464547            3 
  289000    1.1470464   -6.4119668    120.23742  0.034670537  0.036434604            3 
  290000    1.1511245   -6.4527978    119.97871  0.034476641  0.036405638            2 
  291000    1.1488927   -6.4551762    120.35106  0.034464794  0.036375829            3 
  292000    1.1421884    -6.522365     120.6577  0.034434276  0.036345967            3 
  293000    1.1150365   -6.4676478     121.1096  0.034445278   0.03631655            4 
  294000    1.1578696   -6.5123826    121.04305  0.034309253  0.036286608            5 
  295000    1.1128997   -6.4449559    121.90501  0.034436445  0.036255421            3 
  296000    1.1520851   -6.4490202    122.21094  0.034406232  0.036225999            2 
  297000    1.1246915   -6.4245723    122.87833  0.034477645  0.036197533            3 
  298000    1.1186573   -6.4601303    123.04954  0.034409825   0.03616825            2 
  299000    1.1393582   -6.4535752    123.27352  0.034357168  0.036140189            3 
  300000     1.150571    -6.476127    123.86235  0.034406207  0.036113249            2 
  301000    1.1429605   -6.4337788    124.67499  0.034516885  0.036085703            5 
  302000    1.1186645   -6.4262472    124.61242  0.034385326  0.036056918            4 
  303000    1.1350409   -6.4724984    124.37853  0.034207517  0.036028574            2 
  304000    1.1430393   -6.4587927     124.7816  0.034205482  0.035999676            3 
  305000    1.1228424   -6.5104945    125.03709   0.03416314  0.035970119            3 
  306000    1.1353284    -6.507014    125.45816  0.034166167  0.035941408            2 
  307000    1.1309298   -6.4842242     126.0351  0.034211481  0.035912832            3 
  308000    1.0746493   -6.4583779    126.34243  0.034183557  0.035884287            2 
  309000    1.1465128   -6.5001461    126.34626  0.034073964  0.035855996            2 
  310000    1.1277307    -6.492047    126.72747  0.034066523  0.035827534            3 
  311000    1.1667262   -6.4674298    127.33862  0.034120744  0.035799108            3 
  312000    1.1311449   -6.4973289    127.32191  0.034006921    0.0357711            2 
  313000    1.1468583   -6.4620242    128.04736  0.034091417  0.035742881            3 
  314000    1.1475018    -6.504462    128.41424  0.034080212  0.035713724            1 
  315000    1.0997485   -6.4553469    128.66105  0.034037315  0.035685968            3 
  316000    1.1186796   -6.4360779     129.4256  0.034131224  0.035658843            2 
  317000    1.1473541   -6.5073483    129.28455  0.033986475  0.035630992            5 
  318000    1.1562776    -6.536899    129.28038  0.033878505    0.0356029            3 
  319000    1.1255298   -6.4910744    129.68419  0.033877793  0.035575472            2 
  320000    1.1327116   -6.5170732    130.01759  0.033858747  0.035547405            2 
  321000    1.1380067    -6.530441    130.56859   0.03389631  0.035519341            3 
  322000    1.1472413    -6.517801    130.68714  0.033821724  0.035490713            6 
  323000    1.1418762   -6.5322586    130.99667   0.03379687  0.035462842            2 
  324000    1.1379019    -6.478865    131.43503  0.033805307  0.035434565            3 
  325000    1.1193439   -6.4802466    131.74474  0.033780703  0.035405984            1 
  326000    1.1206244   -6.4701046    131.68979  0.033663035  0.035376011            3 
  327000    1.1311178   -6.4950928    132.51931  0.033771485  0.035346547            3 
  328000     1.106917   -6.4949318    132.49886  0.033663329  0.035317149            3 
  329000    1.1439709   -6.5070276    132.96879  0.033680039  0.035288234            2 
  330000    1.1450065    -6.491048    133.29846  0.033661228  0.035259012            7 
  331000    1.1400714   -6.5182346    133.57601  0.033629409  0.035230755            1 
  332000    1.1038588   -6.5414398     133.5347  0.033517746  0.035200391            3 
  333000    1.1381529   -6.4942321    134.11663  0.033562721  0.035170174            1 
  334000    1.1391899   -6.5154136    134.79196  0.033630727  0.035140764            2 
  335000    1.1136511   -6.5010178    135.03755   0.03359143   0.03511224            1 
  336000    1.1376197   -6.4856442    135.43187  0.033589254  0.035082539            2 
  337000    1.1445283   -6.5311339    135.18579  0.033428732  0.035052617            3 
  338000    1.1084409   -6.5062402    135.41376  0.033386035  0.035022664            3 
  339000    1.1300497    -6.525901     136.1312  0.033463913  0.034992889            4 
  340000      1.09051   -6.5021684    136.41975  0.033436212  0.034964029            5 
  341000     1.102454   -6.5065672    136.43296  0.033341387  0.034934883            1 
  342000    1.1145338   -6.4963592    137.31166  0.033458008  0.034906396            3 
  343000    1.1145592   -6.5028204    137.45559  0.033395431  0.034879375            4 
  344000    1.0992506   -6.5446528    137.54491  0.033319988  0.034851148            4 
  345000    1.1141888   -6.5256598    138.42795  0.033436703  0.034823376            2 
  346000    1.1207073     -6.48937    138.61913   0.03338611  0.034795832            5 
  347000    1.0869072   -6.5026628    138.88113  0.033352817  0.034767027            3 
  348000    1.1227334   -6.5107092    139.01764  0.033289665  0.034738253            4 
  349000    1.0970034   -6.5277807    139.32563  0.033267819  0.034709275            3 
  350000    1.1153857   -6.5367361    139.21099  0.033145474  0.034679532            4 
  351000    1.1121433   -6.5486698    138.98792  0.032998081  0.034648855            4 
  352000    1.1438864   -6.5104136     139.6468  0.033060322  0.034617837           16 
  353000     1.082802   -6.5227072     139.3325  0.032892469   0.03458714            3 
  354000    1.1168868   -6.5034468    140.23684  0.033012438  0.034555685            3 
  355000    1.1256856   -6.5050124    140.40424  0.032958742  0.034524094            2 
  356000    1.0924093   -6.5583069    140.15653  0.032808177  0.034492903            3 
  357000    1.1152669    -6.556004    140.08116  0.032698683  0.034460649            5 
  358000    1.1064068   -6.5609354    140.92137  0.032802926  0.034427825            2 
  359000    1.1135709   -6.5367467    141.03267  0.032737388  0.034394568            2 
  360000    1.1113392   -6.5790993     141.0151  0.032642383  0.034362393            4 
  361000    1.0850748   -6.5120221     141.4361  0.032649146  0.034330374            2 
  362000    1.1167101   -6.5583551    141.93343  0.032673441   0.03429884            4 
  363000    1.1176707     -6.50913    142.31137  0.032670195  0.034266481            2 
  364000    1.0983759   -6.5780468    142.23721  0.032563463  0.034234464            2 
  365000    1.1004119   -6.5665567    142.69642   0.03257909  0.034202371            4 
  366000    1.0928784   -6.5622512    143.37706   0.03264505  0.034170047            2 
  367000    1.0973808   -6.5581358    143.58675  0.032603713  0.034138773            2 
  368000    1.1145585   -6.5745288    143.39099  0.032470787  0.034106723            3 
  369000    1.0899355   -6.5189159    144.59535  0.032654776  0.034075446            3 
  370000    1.0865091    -6.536609    144.67159  0.032583692  0.034044339            6 
  371000    1.0882318   -6.5205094    145.01428   0.03257284  0.034013275            2 
  372000    1.0847025   -6.5411818    145.35198  0.032560928  0.033982834            2 
  373000    1.1276344   -6.5359439     145.2789  0.032457305  0.033952357            2 
  374000     1.133562   -6.5507067    145.55605  0.032432274  0.033921555            2 
  375000    1.1178432   -6.5574661    145.60439   0.03235653  0.033890842            4 
  376000     1.108955   -6.5237925    146.17904  0.032397838  0.033859157            3 
  377000    1.1024486   -6.5268926    146.62853  0.032411259  0.033827099            5 
  378000    1.0929619   -6.6168131    145.95723  0.032177519  0.033795645            3 
  379000    1.1144053   -6.5465542    146.88268  0.032296103  0.033764436            6 
  380000    1.0779197   -6.5369196     147.7615  0.032403837  0.033734187            4 
  381000    1.0716819   -6.5506868    147.91441  0.032352234  0.033703834            3 
  382000     1.101006   -6.5380082     148.8959  0.032481653  0.033674616            4 
  383000    1.0796793    -6.524188    148.77608  0.032370774  0.033646623            4 
  384000     1.100187   -6.5176824    149.72589  0.032492598  0.033618952            3 
  385000    1.0881852   -6.5366216    149.35311  0.032327513   0.03359041            3 
  386000    1.1112354   -6.5872705    148.96553  0.032160088  0.033561164            4 
  387000    1.0939932   -6.5558076    150.11265  0.032323999  0.033532855            3 
  388000     1.090652   -6.5568876    150.44839  0.032312799  0.033505172            4 
  389000    1.1055234   -6.5334271    151.08019   0.03236508  0.033477673            3 
  390000    1.1215584   -6.5516004    151.26289  0.032321131  0.033450567            5 
  391000    1.0994195   -6.5777558    151.11185  0.032206277  0.033424017            3 
  392000    1.0907286   -6.5732982    151.44543  0.032195033  0.033397461            2 
  393000    1.1036679   -6.5728789    151.78274  0.032184635  0.033370485            3 
  394000    1.1178166   -6.5658491    152.90724  0.032340787  0.033343922            2 
  395000    1.0978828   -6.6023992    152.10976  0.032090667  0.033316887            4 
  396000     1.089749   -6.5543723     152.7253  0.032139162  0.033289923            3 
  397000    1.0924448   -6.5812552    153.49816  0.032220437  0.033262921            4 
  398000    1.0882798   -6.5551346    153.65638  0.032172608  0.033235929            3 
  399000    1.0730395   -6.5999405    153.51266  0.032061958  0.033208972            4 
  400000    1.0873817   -6.5762051    153.85621  0.032053377  0.033181613            4 
  401000    1.0903056   -6.5637604     154.3262  0.032071113  0.033156013            5 
  402000    1.0812139   -6.5666113    155.10278  0.032152318  0.033131719            3 
  403000    1.0963442    -6.513381    155.97284  0.032252449  0.033107696            2 
  404000    1.0836626   -6.5452108    155.69578  0.032115467  0.033083751            3 
  405000    1.0753786   -6.5247252    156.15737  0.032131146  0.033059874            2 
  406000    1.0972559   -6.5672027     156.1337  0.032047148  0.033035018            8 
  407000     1.096737   -6.5939255    155.82902  0.031906024  0.033009991            5 
  408000     1.107451   -6.5771382    156.66591  0.031998757  0.032984825            2 
  409000    1.0903094   -6.5674904    157.27384  0.032044385  0.032960713            5 
  410000    1.0813233    -6.568701    157.76791  0.032066648  0.032937201            1 
  411000    1.0733841   -6.5784913    157.84852  0.032004971  0.032913556            2 
  412000    1.0854236   -6.6008173    158.10253  0.031978666  0.032889933            2 
  413000    1.0935066   -6.5789071    157.83335  0.031846923  0.032864341            6 
  414000    1.1037648   -6.5979142     158.2789  0.031859682  0.032838583            2 
  415000    1.0639882   -6.5912881    158.71417  0.031870316  0.032813075            5 
  416000    1.0866976   -6.6266404    158.91107  0.031833147  0.032788373            2 
  417000    1.0951105   -6.5958065    159.23156  0.031820855  0.032763029            8 
  418000    1.0725359   -6.5833452     159.7284   0.03184378  0.032737905            3 
  419000     1.079903   -6.6254057     160.4255  0.031906425  0.032713581            3 
  420000    1.0717266    -6.595494    160.38206  0.031821838  0.032689681            5 
  421000    1.0961038    -6.593447     159.9128  0.031653364  0.032665538            9 
  422000    1.1037501   -6.5838172    160.78602  0.031750793  0.032640312            2 
  423000    1.0984056   -6.6160174    160.90894  0.031699949  0.032615755            6 
  424000    1.1189111   -6.5789653    161.18562  0.031679563  0.032590951            5 
  425000    1.0911613   -6.6249532    161.45306  0.031657462  0.032565848            4 
  426000    1.0823513   -6.6207005    161.15309   0.03152447  0.032539899            5 
  427000    1.0742926   -6.6237403    161.04849  0.031430229  0.032514119            9 
  428000     1.069393   -6.6291161    161.61115  0.031466345  0.032487537            3 
  429000    1.0820827   -6.6116804    161.58097  0.031387136   0.03246027            2 
  430000    1.0837031   -6.6578449    161.30573    0.0312608  0.032432671            3 
  431000     1.067588    -6.584334    162.50034  0.031419245  0.032405084            3 
  432000    1.0772762   -6.6580365    162.46447  0.031339597  0.032378485            5 
  433000    1.0864254   -6.5911925    162.92704  0.031356243  0.032351492            3 
  434000    1.0860656   -6.6354243    162.56925  0.031215293   0.03232477            5 
  435000    1.0885031   -6.6322823    162.81054  0.031189759  0.032297643            5 
  436000    1.0953953   -6.5886533    163.11828  0.031177041  0.032271357            7 
  437000    1.0715441   -6.5964808    163.71478  0.031219448  0.032244742            3 
  438000    1.0668224    -6.588247     164.3851  0.031275705  0.032218854            5 
  439000    1.0756319   -6.6738644    164.04411  0.031139733  0.032192758            1 
  440000    1.0921455   -6.5694399     165.0167  0.031253164  0.032166719            3 
  441000    1.0720094   -6.6085757    164.88412   0.03115724  0.032140988           10 
  442000    1.0943773   -6.6482077    164.86783  0.031083679  0.032114856            9 
  443000    1.0728949   -6.5526297     166.5642  0.031332618  0.032090279            2 
  444000    1.0842813   -6.6003376    166.41885  0.031234769  0.032066186            4 
  445000    1.0631658   -6.6255479    166.78394  0.031232948  0.032041507            3 
  446000    1.0967613   -6.6743158    166.72509  0.031151923  0.032016993            3 
  447000    1.0627095   -6.6525875    167.17522  0.031166149  0.031991981            2 
  448000    1.0754991   -6.6450794    167.61889  0.031179108  0.031968283            1 
  449000    1.0797344   -6.6425325     168.3646   0.03124807  0.031944911            2 
  450000    1.0732825   -6.6150959    168.99504  0.031295377  0.031921151           10 
  451000    1.0871171   -6.6360576    169.01148  0.031229024  0.031898441            2 
  452000    1.0711123   -6.6484949    168.54118  0.031073227  0.031875449            6 
  453000    1.0785269   -6.6099154    169.64224  0.031207182  0.031852369           10 
  454000    1.0786419   -6.6230214    170.11639  0.031225476  0.031830445            2 
  455000    1.0986225   -6.6015259     170.5081   0.03122859  0.031808671            2 
  456000    1.0863373   -6.6164193    170.70481  0.031196055  0.031787299            3 
  457000    1.0649973    -6.621594    171.46614   0.03126662  0.031765911            3 
  458000    1.0697684   -6.6598548    170.37793  0.031000351  0.031743968            6 
  459000    1.0625785   -6.6522566    170.40149   0.03093709  0.031721622            6 
  460000    1.0561267   -6.6289545    171.12637  0.031001153     0.031699            3 
  461000    1.0726422   -6.6300054    171.33298  0.030971255  0.031676083            2 
  462000     1.068165   -6.6047143    172.77129  0.031163653  0.031653035            3 
  463000    1.0891618   -6.6655743    171.94701  0.030947985  0.031630227            5 
  464000    1.0535235   -6.6310197    171.58551  0.030816363  0.031606425            2 
  465000    1.0551636   -6.6224502    172.29555  0.030877339  0.031582907            5 
  466000    1.0758772   -6.6453811    173.03151  0.030942687  0.031559329            4 
  467000    1.0552222   -6.6553399    172.72176  0.030821156  0.031535745            6 
  468000      1.07398   -6.6267869    172.59991  0.030733602  0.031512621            3 
  469000    1.0539792    -6.621265    173.95272  0.030908444  0.031489839            6 
  470000    1.0500791   -6.6470306    173.70322  0.030798444   0.03146711            3 
  471000    1.0774382   -6.6662879    174.00785  0.030786951   0.03144392            4 
  472000    1.0785575   -6.6976074    173.74853  0.030675941  0.031420442            4 
  473000    1.0679437   -6.6854878    174.30189  0.030708579  0.031397415            4 
  474000    1.0679086   -6.6145275    175.40944   0.03083851  0.031374056            3 
  475000     1.075182   -6.6480565    175.23778  0.030743471   0.03135178            3 
  476000    1.0854662   -6.6352952    175.39396  0.030706225  0.031330061            3 
  477000    1.0559163   -6.6522151    175.51816   0.03066355  0.031308933            3 
  478000    1.0684892   -6.6439013    176.41606  0.030755937  0.031287558            3 
  479000    1.0593151   -6.6451544    176.51142  0.030708319  0.031266529            5 
  480000     1.067416   -6.6397542     176.8275  0.030699219  0.031245244            6 
  481000     1.080186   -6.6187925    177.84929  0.030812421  0.031224367            7 
  482000    1.0699231   -6.6573123    177.02087  0.030605267  0.031203752            7 
  483000    1.0557215   -6.6435099    177.67259  0.030654345  0.031182605            4 
  484000    1.0963554   -6.6707637    178.09612  0.030663933  0.031161254            4 
  485000    1.0510882   -6.6373591    177.75447  0.030542006  0.031139576            8 
  486000    1.0724764   -6.6416916    178.46557  0.030601091  0.031117587            2 
  487000     1.044211   -6.6589355    177.35215  0.030347733   0.03109484            2 
  488000    1.0967462   -6.6668964    178.47083  0.030476577  0.031072257            4 
  489000    1.0438273   -6.6615142    178.92007  0.030490809   0.03105023            5 
  490000    1.0709344   -6.6856597    179.05046  0.030450758   0.03102767            4 
  491000    1.0457358   -6.6374661    179.31006    0.0304328  0.031005469            3 
  492000    1.0768599   -6.6877873    179.13727  0.030341679  0.030983311            2 
  493000    1.0366781   -6.6748948    179.51013  0.030343158  0.030960336            4 
  494000    1.0589671   -6.6915883    179.60273  0.030297357  0.030937408            6 
  495000    1.0476744   -6.6725911    180.16367  0.030330585  0.030914507            4 
  496000    1.0349355   -6.6652774    179.82286  0.030212173  0.030891078            3 
  497000    1.0534216   -6.6849543    179.92585  0.030168654  0.030867158            5 
  498000    1.0505755   -6.6672601    180.72345  0.030241542  0.030843778            3 
  499000    1.0540942   -6.6998037    180.52832   0.03014835  0.030820117            7 
  500000    1.0599036   -6.6319928    181.48952  0.030248253   0.03079646            1 
  501000    1.0538054   -6.6666343    180.64992  0.030048223  0.030773489           11 
  502000    1.0466751   -6.6807378    181.15374  0.030072002  0.030750211            3 
  503000    1.0636033   -6.6737044     181.4454  0.030060537  0.030727207            3 
  504000    1.0830793   -6.6723793    181.39786  0.029993033  0.030704487            6 
  505000     1.066795   -6.6915845    182.53288  0.030120937  0.030681489            2 
  506000    1.0388547   -6.6785277    182.90929    0.0301234  0.030658532            7 
  507000    1.0742685    -6.657686    182.57398  0.030008873  0.030635727            2 
  508000    1.0353707   -6.6879059    182.40067   0.02992137   0.03061297            3 
  509000    1.0518614   -6.6844294    182.51337  0.029881036  0.030589814            5 
  510000    1.0569839   -6.7039591    182.99064  0.029900431  0.030566883            2 
  511000    1.0510063   -6.6665094    183.32858  0.029897029  0.030543328            8 
  512000    1.0537989   -6.6519004    183.99951  0.029947837  0.030520077            7 
  513000    1.0405419   -6.6993409    183.87725  0.029869599  0.030497098            6 
  514000    1.0578768   -6.6519646    184.51356   0.02991465  0.030473834            2 
  515000    1.0663315   -6.6732873    184.57091  0.029865843   0.03045119            6 
  516000    1.0710876    -6.661754    184.81886  0.029848007  0.030428759            4 
  517000    1.0529591   -6.7109586     184.6441  0.029762105  0.030406306            6 
  518000     1.041673   -6.7174301    184.70055   0.02971373  0.030383439            3 
  519000    1.0601317   -6.6977539    185.38236  0.029765954  0.030360083            3 
  520000    1.0410486   -6.7031424    185.32031  0.029698767  0.030336664            2 
  521000    1.0484852   -6.6937226    185.98486  0.029748059  0.030313474            5 
  522000    1.0183284   -6.7054087    186.15045  0.029717504  0.030290663            4 
  523000    1.0213839   -6.7211596    185.85684  0.029613901  0.030267344            2 
  524000      1.02661   -6.6916945    186.92374  0.029727057  0.030243936            6 
  525000     1.040436   -6.7114417    186.37043  0.029582608  0.030221221            2 
  526000    1.0543919   -6.6925094     186.7525  0.029586899  0.030197998            2 
  527000    1.0333952   -6.6885461    187.34166  0.029623919   0.03017441            6 
  528000    1.0071921   -6.6913475    187.21662  0.029548078  0.030150947            2 
  529000    1.0613547   -6.6958543    187.67725  0.029564784  0.030127721            3 
  530000     1.056284   -6.7350854    186.95239  0.029395029  0.030104179            2 
  531000    1.0488998   -6.7256318    187.89677  0.029487879  0.030080529            4 
  532000    1.0609638   -6.6925133    188.02447  0.029452454  0.030057006            7 
  533000    1.0268016   -6.7201716     188.0742  0.029404971  0.030033496            4 
  534000    1.0507849       -6.691    188.44029  0.029407037  0.030010495            9 
  535000    1.0591232   -6.7218619    188.78632   0.02940597  0.029987494            2 
  536000    1.0248004   -6.7028397    188.53059  0.029311348  0.029964048            4 
  537000    1.0420475   -6.7307064    188.05235  0.029182549  0.029940034            2 
  538000    1.0237463    -6.698049      189.016  0.029277571  0.029915373            4 
  539000    1.0477443   -6.7124163    188.87917  0.029202098  0.029890942            2 
  540000    1.0415153   -6.7098272    189.57007   0.02925464  0.029866859            2 
  541000    1.0438333    -6.720935    189.89881  0.029251203  0.029842695            3 
  542000    1.0400392    -6.749745     189.9457  0.029204443  0.029818824            4 
  543000    1.0485461   -6.7283982    190.03285  0.029164035  0.029794564            6 
  544000    1.0108084   -6.7220082    189.96368  0.029099828  0.029770385            5 
  545000    1.0288962   -6.7003522    190.36775  0.029108219   0.02974671            3 
  546000      1.05054   -6.6865676    190.67586  0.029101932  0.029722604            4 
  547000    1.0079867   -6.7375105    190.12733  0.028965164  0.029698682            3 
  548000    1.0185971   -6.7298597    191.29569  0.029089977  0.029674559            3 
  549000    1.0419442   -6.7397077    191.16173  0.029016656  0.029650209            6 
  550000    1.0329156   -6.7498394    191.29207  0.028983647  0.029625921            6 
  551000    1.0135818   -6.7362628    190.80019  0.028856653   0.02960173            4 
  552000     1.034533   -6.7099917    191.67013  0.028935708  0.029577114            5 
  553000    1.0115046   -6.7229491    191.75781  0.028896596  0.029552732            3 
  554000    1.0394695   -6.7239147    191.50886  0.028806989  0.029528091            5 
  555000    1.0204903   -6.7540327    191.69256  0.028782667  0.029503003            4 
  556000    1.0556701    -6.753222    192.10642  0.028792929  0.029477965            3 
  557000    1.0529863   -6.7573456    192.44349  0.028791665  0.029453117            4 
  558000    1.0284554    -6.689893      192.447  0.028740591   0.02942802            8 
  559000    1.0078573   -6.7359716    193.15986  0.028795447  0.029402986            3 
  560000    1.0408159   -6.7049576    193.76557  0.028834163  0.029379295            2 
  561000    1.0389374   -6.7304295    194.78059   0.02893354  0.029356251            5 
  562000    1.0352345   -6.7438088    194.59952  0.028855207  0.029333344            7 
  563000    1.0275415   -6.7464099    194.35871  0.028768312  0.029310362            5 
  564000     1.031097   -6.7785444    194.69974  0.028767692  0.029287152            5 
  565000    1.0247355   -6.7632152    194.72932  0.028721139  0.029263886            3 
  566000    1.0104613    -6.771748    194.54833  0.028643747   0.02923998            4 
  567000     1.020484   -6.7402116    194.89582    0.0286443  0.029216213            5 
  568000    1.0147264   -6.7646358    194.99047  0.028607757  0.029192039            4 
  569000     1.059143   -6.7217039    195.75442  0.028669364  0.029168441            7 
  570000    1.0213442    -6.763613     195.2462  0.028544766  0.029145163            3 
  571000    1.0075484   -6.7550166    196.19619   0.02863342  0.029122072            5 
  572000    1.0060366   -6.7570351     196.3579   0.02860692  0.029099088            4 
  573000    1.0170807   -6.7100876    196.27031  0.028544257  0.029076542            5 
  574000    1.0142479   -6.7900795    196.24364  0.028490656  0.029053598            4 
  575000    1.0179628    -6.765091    196.50944  0.028479628  0.029030448            6 
  576000     1.033035   -6.7970665    196.71119  0.028459374  0.029007273            3 
  577000    1.0410495   -6.7629147     196.8758  0.028433824  0.028983742            4 
  578000    1.0274151   -6.7389072    197.77611  0.028514433  0.028960362            5 
  579000    1.0297513   -6.7588706    197.17581  0.028378787  0.028937284            6 
  580000    1.0118529   -6.7955198    197.43686  0.028367364  0.028913886            6 
  581000    1.0208912   -6.7476435    198.01756   0.02840183  0.028890399            6 
  582000   0.99762255   -6.7832715    197.79904   0.02832174  0.028866597            2 
  583000    1.0265775    -6.791234     197.7854  0.028271212  0.028843404            3 
  584000   0.99459138    -6.795005    198.59888  0.028338881  0.028820245            6 
  585000    1.0046477   -6.8040175    198.32981   0.02825211  0.028797344            4 
  586000    1.0284027   -6.7911894    198.98263  0.028296734  0.028774844            6 
  587000    1.0264517   -6.7779913    199.10669  0.028266141  0.028752371            4 
  588000    1.0226956   -6.7632092     199.6974  0.028301786   0.02872972            5 
  589000    1.0091991   -6.8065194    199.14102  0.028175018  0.028707465            5 
  590000    1.0126352   -6.7938055    199.85369  0.028227922   0.02868479            2 
  591000    1.0220333   -6.7559778    199.95775  0.028194832  0.028662015            3 
  592000    1.0202824   -6.7794917     199.6937  0.028110037  0.028638647           11 
  593000    1.0231326   -6.7721792    200.71962  0.028206804  0.028615868            3 
  594000    1.0014615   -6.8169114    201.29851  0.028240532  0.028592863            4 
  595000   0.99997182    -6.790328    200.92958  0.028141398  0.028570049            4 
  596000    1.0333088   -6.7391616    201.30955  0.028147308  0.028547142            3 
  597000   0.99729797   -6.7873409    201.35784  0.028106901   0.02852445            2 
  598000    1.0094207   -6.7849186    202.27977  0.028188373  0.028501913            3 
  599000   0.99772938   -6.7377662    203.11064  0.028256906   0.02848032            5 
  600000    1.0118316   -6.7734057     202.7139  0.028154708  0.028458551            2 
  601000    1.0247707   -6.7853721    202.44436  0.028070488   0.02843701            5 
  602000    1.0051343   -6.8196303     202.5564  0.028039369  0.028415121            2 
  603000   0.99087354    -6.810015    202.95259  0.028047621    0.0283931            3 
  604000    1.0087675   -6.7401595    203.94887  0.028138641  0.028372353            3 
  605000    1.0130787   -6.7295118    204.72219  0.028198649  0.028351188            2 
  606000    1.0164418   -6.8072525    203.80348  0.028025781  0.028330361            4 
  607000    1.0217126   -6.8067031    203.69258  0.027964385  0.028309182            2 
  608000    1.0213112   -6.7594298    204.73482  0.028061241  0.028288494            4 
  609000   0.99026796   -6.7962206    205.57641  0.028130324  0.028267628           10 
  610000   0.98542926   -6.7781587    205.42876  0.028064039  0.028247289            8 
  611000    1.0177509   -6.7933712    205.53199  0.028032187  0.028226844            5 
  612000    1.0149186   -6.8051149    205.45927   0.02797648  0.028206711            4 
  613000    1.0205251   -6.7484106    206.04489  0.028010453  0.028186436            4 
  614000    1.0122046   -6.8017875    205.35993  0.027871869  0.028166066            6 
  615000    1.0364298   -6.8191549    205.34303  0.027824259  0.028145299            3 
  616000    1.0277898   -6.8567524    205.93209  0.027858778   0.02812443            5 
  617000    1.0187944   -6.8051751    206.91481  0.027946355  0.028103967            5 
  618000    1.0284717   -6.8088612    206.60353   0.02785916  0.028083609            2 
  619000    1.0158085   -6.8275084    206.56549  0.027809032  0.028063225            4 
  620000    1.0076989   -6.7468662    207.72949   0.02792063  0.028042962            2 
  621000   0.98818383    -6.779807    208.29591  0.027951678  0.028023265            3 
  622000    1.0068577   -6.7776935     207.9874  0.027865408   0.02800353            2 
  623000    1.0245258   -6.8318257    207.84729  0.027801938  0.027983234            5 
  624000   0.97512365   -6.7895736    208.32871  0.027821676  0.027962901            4 
  625000   0.97750977   -6.8617092     207.5776  0.027677013  0.027942381            7 
  626000   0.99866083   -6.8204887    207.24795  0.027588918  0.027921714           10 
  627000   0.99578099   -6.7989636    208.84279  0.027756883  0.027901468            2 
  628000   0.99859697   -6.7884891    209.53671  0.027804765  0.027881261            2 
  629000    1.0060337   -6.8182631    209.36692  0.027738065  0.027861194            4 
  630000    1.0229952   -6.8145203    208.67398  0.027602379  0.027841113            2 
  631000   0.98068665   -6.8208692    209.81494  0.027709315  0.027821236            3 
  632000   0.99480559    -6.813139    210.18809  0.027714674  0.027801492            2 
  633000   0.98469154   -6.8334176    211.05035  0.027784406  0.027781574            3 
  634000    1.0061665   -6.8401069    210.08565  0.027613782  0.027761869            5 
  635000   0.98496834   -6.8090601    210.73152  0.027655055  0.027742036            5 
  636000   0.99133919   -6.7989273     211.4384  0.027704193  0.027722282            3 
  637000    0.9914719   -6.8139968     210.5625  0.027546114  0.027702526           15 
  638000   0.97478978   -6.8127173    211.68486  0.027649537  0.027683269            4 
  639000    1.0025714   -6.8352108    211.52022  0.027584797  0.027663772            3 
  640000    1.0089355    -6.856593    210.52011  0.027411472  0.027643821            4 
  641000   0.98614526   -6.8325467     212.1555  0.027581318  0.027623951            5 
  642000   0.97160071     -6.81059    212.11105  0.027532587  0.027604715            3 
  643000   0.98615253   -6.8210184    212.07271  0.027484799  0.027585155            4 
  644000    1.0059518   -6.8312758    212.95483  0.027556266  0.027565546            2 
  645000   0.97959867    -6.853949    212.82375  0.027496608  0.027546422           10 
  646000    1.0083685   -6.8372343    212.90097  0.027464006  0.027527027           12 
  647000   0.99047211   -6.8094014    212.50568  0.027370644  0.027507593            4 
  648000   0.99448902   -6.8369404    212.97242  0.027388429  0.027488208            4 
  649000   0.99225028   -6.8066145    213.62682  0.027430254  0.027468982            5 
  650000   0.97211836   -6.8525081    213.37888  0.027356267  0.027449815           13 
  651000    0.9893326   -6.8181655    214.39796  0.027444695  0.027430692            4 
  652000    1.0068832    -6.850845    214.13072  0.027368445  0.027411413            3 
  653000    1.0038204   -6.8717785    214.82847  0.027415578   0.02739228            3 
  654000   0.98805048   -6.8130281    214.98034   0.02739301  0.027373693            4 
  655000   0.97129546   -6.8287346    215.48754  0.027415718  0.027355249            4 
  656000     1.015532   -6.8012335    214.81429  0.027288401  0.027336217            2 
  657000   0.99188383   -6.8625309    214.68461  0.027230417  0.027317456            4 
  658000   0.99857654   -6.8609769    215.26927  0.027263079   0.02729847            8 
  659000   0.98947551    -6.852506    215.38538  0.027236391  0.027279826            4 
  660000    1.0023687   -6.8211833    216.10652  0.027286176  0.027261236            3 
  661000   0.99618649   -6.8622303    216.17024  0.027252929  0.027242377            7 
  662000    1.0076862   -6.8805102    216.77186  0.027287494  0.027223784           13 
  663000    1.0026882    -6.890279     216.3118  0.027188511  0.027205462            7 
  664000   0.99445884   -6.8630227     216.7497  0.027202523  0.027186845            4 
  665000   0.98118964   -6.8272286    217.52773  0.027259114  0.027168618            3 
  666000    1.0097111   -6.8432286    217.36961  0.027198399  0.027150558            5 
  667000   0.98965072   -6.8691569    216.80372  0.027086921  0.027132084            3 
  668000   0.99197053   -6.8447176      218.059  0.027202969  0.027113824            9 
  669000   0.97180232   -6.8496814    217.67913  0.027114989  0.027095476            2 
  670000   0.99178605    -6.866918    217.72593  0.027080339  0.027077353            2 
  671000    0.9761974   -6.8926173    217.89626  0.027061135  0.027059005            9 
  672000    1.0020648   -6.8278733     219.0973  0.027169804  0.027040832            2 
  673000   0.99077177   -6.8489502    218.71434  0.027082013  0.027022484            4 
  674000   0.94746413   -6.8804592    219.20568  0.027102581  0.027004132            3 
  675000   0.97480699   -6.8201937    219.34176  0.027079229  0.026985761           10 
  676000   0.98241179    -6.867606    219.04472  0.027002554  0.026967002            5 
  677000   0.98035763   -6.9016248    218.31442  0.026872774  0.026948071            4 
  678000    1.0025301    -6.856407    219.74024  0.027008387  0.026929046            7 
  679000   0.98684911   -6.8810441    219.40432  0.026927383  0.026910074            2 
  680000   0.98619662   -6.8813418    218.51569  0.026778884   0.02689091            2 
  681000   0.97097653   -6.9051833    219.18701   0.02682171  0.026871633            5 
  682000   0.96613357   -6.8756064    220.00948  0.026882879  0.026852296           11 
  683000   0.96634475   -6.9065711    218.35887  0.026642127  0.026833617            6 
  684000   0.97769376   -6.8302938    220.31338  0.026841299  0.026814833            5 
  685000   0.98574319   -6.8783314    220.49147  0.026823779  0.026796005            8 
  686000    0.9855662   -6.8778802    220.45713  0.026780507  0.026777505            6 
  687000   0.95837305   -6.8781622    221.15821  0.026826565  0.026758453            4 
  688000   0.99103256   -6.9307453    221.18697  0.026791057  0.026739924            3 
  689000   0.97388303    -6.857697    221.67873  0.026811651  0.026721525            8 
  690000   0.99117511   -6.8941049    220.57071  0.026638975  0.026703011            4 
  691000   0.99419758   -6.8813296     221.4058  0.026701134   0.02668439            3 
  692000   0.99466505   -6.9002745    221.24269  0.026642906   0.02666561            4 
  693000   0.98240952   -6.8656307    221.91078  0.026684797  0.026646945            3 
  694000   0.96357853    -6.903153    222.16802  0.026677236  0.026628427            7 
  695000   0.97326238   -6.8831443    222.66169  0.026698044  0.026609951            6 
  696000   0.97823564   -6.8811048    222.26881  0.026612645  0.026591927            5 
  697000   0.96024775   -6.9081409    223.07747  0.026671147   0.02657367            7 
  698000    0.9808563   -6.8955588    223.18637  0.026645937  0.026555663            3 
  699000   0.99038108   -6.8981256    223.17315  0.026606241  0.026537689            4 
  700000   0.97660568   -6.9099481    223.14169  0.026564487  0.026519122           10 
  701000   0.99838525   -6.9128805    223.09028   0.02652048  0.026500535            9 
  702000    0.9708388   -6.9147531    223.84256  0.026572003  0.026482232            3 
  703000   0.97401479   -6.9320798    223.51167  0.026494982   0.02646373            4 
  704000   0.99029879    -6.875161    224.47028  0.026570819  0.026445465            5 
  705000   0.98639759   -6.8993444     224.1893  0.026499917  0.026427194            4 
  706000   0.97568295   -6.8792301    224.83192  0.026538234  0.026409643           10 
  707000   0.97929242   -6.9017961    224.23868  0.026430774  0.026391933            8 
  708000   0.98916382   -6.9316533    223.74326  0.026335129  0.026373613            5 
  709000   0.96899359   -6.9180117    225.56696  0.026512337   0.02635528            6 
  710000   0.97557111   -6.9028256    225.21659  0.026433872  0.026337157            3 
  711000   0.98418465   -6.9301806    225.48429  0.026428069  0.026319309            3 
  712000    0.9832437   -6.9058288    225.58159   0.02640234  0.026301386            7 
  713000   0.94879349   -6.9202052    225.79164   0.02638986  0.026283548            8 
  714000   0.97647435   -6.9344492    226.88422  0.026480417  0.026266132           11 
  715000   0.97516246   -6.8917922    226.54776  0.026404168  0.026248621            4 
  716000   0.97559752   -6.9366038     225.9282  0.026295181  0.026231008            4 
  717000   0.96818669   -6.9679548    225.14562  0.026167553  0.026212898            6 
  718000   0.96518575   -6.9350877    226.47584  0.026285497  0.026195254            8 
  719000   0.97872943   -6.8825116    226.90593  0.026298786  0.026177564            6 
  720000   0.97751717   -6.8879082    227.30757  0.026308746  0.026159771            5 
  721000   0.97795903   -6.9306702    226.98861  0.026235391  0.026142072            3 
  722000   0.95690549   -6.9294109    227.77332  0.026289626  0.026123999            4 
  723000   0.97003411   -6.9274868    227.80979  0.026257468  0.026106101            5 
  724000   0.95133729   -6.9350301    227.67205  0.026205346  0.026088007            5 
  725000   0.98129823   -6.9366952    227.66309  0.026168172  0.026070082            8 
  726000   0.96897238   -6.9215911    227.37764  0.026099361  0.026052003            2 
  727000   0.96342441   -6.9163697    228.23029  0.026161198  0.026033871            4 
  728000     0.949647    -6.922854    228.33096  0.026136785  0.026015969            5 
  729000   0.97252331   -6.9078927    228.25914  0.026092722  0.025998119            3 
  730000   0.96929874   -6.8971361    228.59767  0.026095624  0.025980182            4 
  731000   0.95359949   -6.9058712    228.53986  0.026053336  0.025962276            8 
  732000   0.95286581   -6.9377701    228.70699   0.02603677  0.025944359            4 
  733000   0.96326601    -6.930321     228.6611  0.025996033   0.02592618            7 
  734000   0.96456601    -6.923266    228.68018  0.025962782  0.025907685            5 
  735000   0.94720022   -6.9046504    228.88813  0.025951035   0.02588935            5 
  736000    0.9879715    -6.950373    228.53215   0.02587547  0.025870931            4 
  737000   0.96632605   -6.9626405    228.17004  0.025799416  0.025851909            5 
  738000   0.96173804   -6.9407017    229.77736  0.025945953  0.025833313            5 
  739000   0.95881395   -6.9541001    228.84994  0.025806263  0.025814803           11 
  740000    0.9386325   -6.9511344     228.8226  0.025768311  0.025795904            5 
  741000   0.96008684   -6.9489996    229.68104  0.025830076  0.025777147            3 
  742000   0.95039791   -6.9549745    229.48465  0.025773208  0.025758315            6 
  743000   0.94633743   -6.9493279    229.26952  0.025714392  0.025739709            4 
  744000   0.96268968   -6.9718908    229.75589  0.025734306  0.025721082            5 
  745000   0.98299605   -6.9241912     229.7628  0.025700537  0.025702595            7 
  746000   0.96916312   -6.9137495    230.60168  0.025759794  0.025684227            8 
  747000   0.95390442   -6.9564726    230.48502  0.025712296  0.025665843            2 
  748000   0.95692473   -6.9882706    230.17723  0.025643631  0.025647142            6 
  749000   0.95996723   -6.9685799    231.05577   0.02570714  0.025628455            7 
  750000   0.96332663   -6.9782629    231.14371  0.025682634  0.025609972            4 
  751000   0.95553899   -6.9677698    231.30161  0.025665957  0.025591638            4 
  752000   0.96153692   -6.9219028    231.16561  0.025616757  0.025573436            9 
  753000   0.95174063   -6.9611645    230.93195  0.025556878  0.025555005            5 
  754000   0.95883264   -6.9440033    230.88703  0.025518018  0.025536533            5 
  755000   0.97308392    -6.935075    231.52191  0.025554295  0.025517694            7 
  756000   0.94281237   -6.9668221     231.4714  0.025514925  0.025499062            4 
  757000   0.95171084   -6.9660002    231.23993  0.025455739  0.025480298            8 
  758000   0.95905743   -6.9398838    231.95621  0.025500903  0.025461853            6 
  759000   0.96134575   -6.9625443    232.11399  0.025484628  0.025443042            5 
  760000   0.94028566   -6.9578378     232.6148  0.025506008  0.025424348            4 
  761000   0.96066742   -6.9260362    232.74877  0.025487163  0.025405906            3 
  762000   0.95267752   -6.9301965    232.78239  0.025457392  0.025387379            2 
  763000   0.95923636   -6.9875538    232.13545  0.025353369  0.025368715            7 
  764000   0.93126061   -6.9864726    232.26288  0.025334084  0.025349639            5 
  765000   0.94488946   -6.9682238    232.15308  0.025289006   0.02533071            3 
  766000   0.93871382   -6.9346034    233.16759  0.025366361  0.025311857            5 
  767000   0.93794481   -6.9824343    232.36538   0.02524613   0.02529277            3 
  768000   0.93883877   -6.9863558    232.47461  0.025225109  0.025273732            3 
  769000   0.94461149   -6.9731971    233.12723  0.025263029   0.02525482            5 
  770000   0.94983233   -6.9758128    233.27763  0.025246497   0.02523608            6 
  771000   0.92104712   -6.9974558    232.80906  0.025163106  0.025217256            8 
  772000   0.92567919   -6.9906271    233.82473  0.025240148   0.02519817            5 
  773000   0.93424777   -6.9960873    233.79155  0.025203919   0.02517919            4 
  774000   0.97065085   -6.9800916    233.81695   0.02517409  0.025160198           11 
  775000    0.9389814   -6.9638581    233.30163  0.025086196  0.025140916            9 
  776000   0.94693531   -7.0032498    234.19001  0.025149271  0.025121593           13 
  777000   0.94736457   -6.9745137    234.39843  0.025139256  0.025102426            8 
  778000   0.96144549   -6.9917081    234.02384  0.025066821  0.025083471            4 
  779000   0.93867865    -6.976805    233.81209  0.025011991  0.025064472            3 
  780000   0.92901524   -7.0129713    233.71868  0.024969944  0.025045447           11 
  781000   0.95110873   -6.9785603    234.56807  0.025028603  0.025026663           13 
  782000   0.94074487   -6.9775226     235.3104  0.025075703  0.025007724           13 
  783000   0.95376245   -7.0044478    234.77904  0.024987126  0.024989028            5 
  784000    0.9292807   -7.0061336    234.41301  0.024916349   0.02497027            9 
  785000    0.9452843   -6.9641965    235.09535  0.024957044  0.024951551           10 
  786000   0.95365491   -6.9637444    235.34888  0.024952171  0.024932706            8 
  787000   0.96145932   -6.9752566    235.26051  0.024911108  0.024913633            3 
  788000   0.93793506   -6.9990304    235.16905  0.024869823  0.024894622            3 
  789000   0.93145842   -6.9550258    236.23281  0.024950656  0.024875935            7 
  790000   0.94587908   -6.9815199    235.28534  0.024819129  0.024857004            4 
  791000    0.9231223   -6.9655826    235.85918  0.024848207  0.024837868            4 
  792000   0.92707088   -6.9937581    236.53614  0.024888062  0.024818837            4 
  793000   0.93831316   -6.9845658    236.33278  0.024835307  0.024799988            4 
  794000   0.93530881   -7.0491194    235.75126  0.024742996  0.024781327            4 
  795000   0.94998132   -7.0568258    236.32251  0.024771751  0.024762385            5 
  796000   0.94347843   -7.0200696    235.84092  0.024690213  0.024743275            8 
  797000   0.92559787   -7.0311582     236.4928  0.024727395  0.024724223            6 
  798000   0.92925484   -7.0079569     237.3575  0.024786707  0.024705399            7 
  799000   0.95293909   -6.9757285    237.25504  0.024744998  0.024686923            6 
  800000   0.93842291    -6.976068    237.73172  0.024763721    0.0246685            3 
  801000   0.94642745   -7.0168353    237.13479  0.024670702  0.024649825            5 
  802000   0.93676893   -7.0141238    237.19347  0.024646038  0.024631003            5 
  803000   0.92699444   -7.0086023    236.96754  0.024591899  0.024612357            7 
  804000    0.9371733    -6.992906    237.38511  0.024604592  0.024593752            4 
  805000   0.92892193   -7.0162188     237.0277  0.024537029  0.024574988            9 
  806000   0.94346211   -7.0024594    238.00473  0.024607602  0.024556216            4 
  807000   0.94720945   -6.9935267    238.42729  0.024620745  0.024537314            4 
  808000    0.9216206   -7.0173135    238.25404  0.024572405  0.024518687            8 
  809000   0.91836118    -6.998111    238.79841  0.024598106  0.024499962            5 
  810000   0.92255663   -7.0127957    238.40553  0.024527318  0.024481183           10 
  811000   0.94233633   -6.9969591     238.8406   0.02454178  0.024462312            4 
  812000    0.9241177   -7.0352443    237.92772  0.024417869  0.024443302            4 
  813000   0.90979449   -7.0426901    238.60753  0.024457516  0.024424341            5 
  814000   0.94925344   -7.0185342     238.7566  0.024442732  0.024405552            5 
  815000   0.94134274   -6.9803092      239.828   0.02452229  0.024386947            6 
  816000   0.92409739   -7.0236971    238.53959  0.024360661  0.024368296            9 
  817000   0.92981068   -7.0275615    239.31602  0.024410039  0.024349622            9 
  818000   0.94457701   -7.0387564    239.29676  0.024378235   0.02433071            6 
  819000    0.9360376   -7.0587699    238.57465  0.024274995  0.024311809            4 
  820000   0.89841835   -7.0402496    239.11229   0.02430003  0.024292795            5 
  821000   0.94156912   -7.0565259    239.06363  0.024265493  0.024273877            9 
  822000   0.93716932   -7.0492673    239.35279  0.024265287  0.024254869           12 
  823000   0.95540468   -7.0363004    239.68927  0.024269874    0.0242362            6 
  824000   0.91518446   -7.0594099     239.0555  0.024176324  0.024217356            7 
  825000      0.93694   -7.0166298    240.12699  0.024255251  0.024198741           13 
  826000   0.92976905   -7.0363964     240.2704  0.024240355  0.024180184            4 
  827000   0.93092063   -6.9984773    241.20359  0.024305077  0.024161352            4 
  828000   0.90940037   -7.0574707    239.60792  0.024115129  0.024142545            8 
  829000   0.92149996   -7.0229514    240.67868  0.024193675   0.02412339            7 
  830000   0.93403862   -7.0424272    240.03281   0.02409968   0.02410451           10 
  831000   0.92655484   -7.0100326    240.01728  0.024069122  0.024085653            4 
  832000   0.91498904   -7.0196422    240.77915  0.024116501  0.024066983           13 
  833000   0.92608432   -7.0306802    240.70899  0.024080531  0.024048166            4 
  834000   0.93638486   -7.0370837    240.93297  0.024074038  0.024029178           12 
  835000   0.93733662   -7.0453019    240.68738  0.024020696  0.024010445            5 
  836000   0.93049897   -7.0497163    241.08254  0.024031353  0.023991586            7 
  837000   0.92581078   -7.0751238    241.33549  0.024027826  0.023972651            4 
  838000   0.92363991   -7.0740843    241.00472  0.023966261  0.023953633           10 
  839000   0.93134591   -7.0572156    240.68104  0.023905546  0.023934693            7 
  840000   0.93428281   -7.0839536    241.21267  0.023929829  0.023915762            8 
  841000   0.91585591   -7.0713645    240.84423  0.023864866  0.023896726            5 
  842000   0.91055437   -7.0624859     241.4541  0.023896883  0.023877896           10 
  843000   0.92119921   -7.0312136    242.04907  0.023927349  0.023859295            3 
  844000   0.92443402    -7.027161    243.09067  0.024001844  0.023840818            7 
  845000   0.92261339   -7.0239845    242.49433  0.023914628  0.023822224            6 
  846000   0.92487782   -7.0452618    242.56651   0.02389347  0.023803695            4 
  847000   0.92339869   -7.0515549    242.35617  0.023844566   0.02378499            8 
  848000   0.92388178    -7.073487    242.17246  0.023798394  0.023766282            4 
  849000   0.89681487    -7.031225     243.0425  0.023855761   0.02374762            7 
  850000   0.90690043   -7.0628468    242.19476  0.023744584  0.023728947           10 
  851000   0.92240204   -7.0489469    242.50577  0.023747138  0.023710143            3 
  852000   0.92615211   -7.0699806    242.61872  0.023730313   0.02369128            5 
  853000    0.9082609    -7.073724    242.04349  0.023646296  0.023672255            9 
  854000    0.9318356   -7.0588324    242.66944  0.023679688  0.023653297            5 
  855000   0.88472495   -7.0687439    242.48637  0.023634149  0.023634474            4 
  856000    0.9173924   -7.0748184     242.9413  0.023650828  0.023615731            8 
  857000   0.89433394   -7.0767084    243.29067  0.023657203  0.023597227            6 
  858000   0.89942827   -7.0973391    243.18041  0.023618921  0.023578596           10 
  859000   0.92238578   -7.0869748    243.21589  0.023594867  0.023560065            6 
  860000   0.88191315   -7.0736752    242.94827  0.023541499  0.023541283            6 
  861000   0.89118376   -7.1044004    242.98335  0.023517553  0.023522321            8 
  862000   0.90405149   -7.0961524    243.05642  0.023497334  0.023503281           14 
  863000   0.90581747   -7.1003888    243.27528   0.02349124  0.023484308            6 
  864000   0.89453969   -7.1330358    243.15651  0.023452596   0.02346523            6 
  865000   0.89521302   -7.1015754     243.9624  0.023503122  0.023446282            4 
  866000   0.90179152   -7.0886307    243.77545  0.023457992   0.02342733            3 
  867000   0.90288418   -7.0948382     243.3478  0.023389831  0.023408673            5 
  868000   0.90400435   -7.0863594    244.33537  0.023457697  0.023390079            2 
  869000   0.90943535   -7.0851413    244.39103   0.02343604   0.02337146            8 
  870000   0.91344554   -7.0984233    244.72288  0.023440889  0.023352963            6 
  871000   0.90267592   -7.1053505    244.92918  0.023433714   0.02333459            6 
  872000   0.89357218   -7.1396344    244.33738  0.023350285  0.023316115            6 
  873000   0.91118943   -7.0875545    244.96864  0.023383795  0.023297729            7 
  874000   0.89683298   -7.0887662    244.75774  0.023336932  0.023279312            5 
  875000   0.90189087   -7.0719628    245.68441  0.023398515  0.023261079            4 
  876000   0.90204874   -7.0611886    246.29754  0.023430131  0.023242946            3 
  877000    0.9011921   -7.0831312     245.6621  0.023343035  0.023224557            5 
  878000   0.89376159   -7.0842543    245.60617   0.02331114  0.023206194            8 
  879000    0.8889924   -7.1006457    245.44041  0.023268905  0.023187659            7 
  880000   0.89822623    -7.099491    245.79668  0.023276201  0.023169291           10 
  881000   0.90104839   -7.0578063     246.1882  0.023286815  0.023150711            8 
  882000   0.88551675   -7.0926952     245.3956  0.023185525  0.023132226            6 
  883000   0.91075485   -7.1264287    244.98348  0.023120374  0.023113795            7 
  884000   0.92269225   -7.1107293    246.24204  0.023212862  0.023095212            5 
  885000   0.90732222   -7.0940354    246.12983  0.023176067   0.02307683            6 
  886000   0.89973494   -7.0877914    246.58198  0.023192436  0.023058329            7 
  887000   0.91003483   -7.1054863    246.65912  0.023173536  0.023040174            6 
  888000   0.90160211   -7.1075734    246.57898   0.02313992  0.023021877           10 
  889000   0.90711591   -7.1257227    246.40303  0.023097397  0.023003759           11 
  890000   0.90638312   -7.1420197    246.01342  0.023034965  0.022985572           10 
  891000   0.90446308   -7.1164677    246.25461  0.023031669  0.022967279            8 
  892000   0.91489146    -7.079789    246.68895  0.023046427  0.022948737            3 
  893000   0.89494315   -7.1315231    246.74544   0.02302589  0.022930421            8 
  894000   0.88600923   -7.1548882    246.17983  0.022947411  0.022911747            6 
  895000   0.88710802   -7.1578239    246.36272  0.022938801  0.022893151            6 
  896000   0.88033546   -7.1367737    247.01209  0.022973594  0.022874677            5 
  897000   0.89321383   -7.1297039    246.65584  0.022914887  0.022856178           14 
  898000   0.90894472   -7.1543842    247.28653  0.022947896  0.022837624            4 
  899000   0.91262278   -7.1281756    247.71292  0.022961895  0.022819136            8 
  900000   0.90810736   -7.1436401     247.3064   0.02289874   0.02280085            7 
  901000   0.90416288   -7.1630703    246.58824  0.022806903  0.022782426            6 
  902000   0.89178653   -7.1480883    247.04376  0.022823702   0.02276381            4 
  903000   0.88573966   -7.1418135    247.07605  0.022801407  0.022745208            9 
  904000    0.8769201    -7.143788    247.24821  0.022792054  0.022726749            6 
  905000   0.89711523   -7.1312404    248.00929  0.022836951  0.022708252            3 
  906000   0.90250709   -7.1565954    247.49056  0.022764032  0.022689761            4 
  907000   0.90007744   -7.0799958    248.57457  0.022838531  0.022671299            6 
  908000   0.87164386   -7.1442242    247.64117  0.022727714  0.022652748            5 
  909000   0.88724526   -7.1552982     247.9832  0.022734066  0.022633911            4 
  910000   0.88912994    -7.159956    247.47448  0.022662499  0.022615142            8 
  911000   0.90409037    -7.163278    247.35425  0.022626624  0.022596399            7 
  912000   0.88259178   -7.1728344    247.30845  0.022597629  0.022577575            4 
  913000   0.89000329   -7.1743033    247.77808  0.022615743  0.022558889            6 
  914000   0.87063012   -7.1793237    247.75957  0.022589312  0.022540179            8 
  915000   0.88578456   -7.1721997    247.94787  0.022581773   0.02252162            6 
  916000   0.88467502   -7.1485206    248.64107  0.022620185  0.022503277           10 
  917000   0.87356233   -7.1769375     248.5407  0.022586396  0.022484808            7 
  918000   0.87791203   -7.1731728    248.73728  0.022579637    0.0224664            5 
  919000   0.88296203   -7.1583287    249.36516  0.022612002  0.022448172            7 
  920000   0.90023912   -7.1367749    249.77455  0.022624507  0.022430072            4 
  921000   0.88441991   -7.1351275    249.87205  0.022608763  0.022411973            6 
  922000   0.90005516   -7.1119155    249.40928  0.022542415  0.022393799            8 
  923000   0.87531686   -7.2002093    248.52417   0.02243808  0.022375545            5 
  924000   0.87894631   -7.1520467    249.65722  0.022515983   0.02235731            7 
  925000   0.90697515   -7.1668994    249.19666  0.022450149  0.022339055            7 
  926000   0.89837228   -7.1622338    249.20936  0.022427049  0.022320808            8 
  927000   0.88432003   -7.1437794    250.38193  0.022508264   0.02230269           12 
  928000   0.87196522    -7.136626     249.7563  0.022427829  0.022284834           10 
  929000   0.88104809   -7.1742674    249.70551   0.02239913  0.022266876            5 
  930000   0.87175629   -7.1775092    249.82095   0.02238539  0.022248945            7 
  931000   0.89814503   -7.1499801    250.36194  0.022409769  0.022231029           11 
  932000   0.89943752   -7.1445797     250.4042  0.022389503  0.022213314            4 
  933000   0.87065583   -7.1716567    249.94607  0.022324586  0.022195318            7 
  934000   0.88124004   -7.1760947    250.52426  0.022352272  0.022177243            6 
  935000   0.87638668   -7.1267814    251.30621  0.022398058  0.022159238            8 
  936000   0.88568002   -7.1605305     250.5591  0.022307612  0.022141491            9 
  937000   0.87576426   -7.1568427    251.34345  0.022353562  0.022123863           11 
  938000   0.87776554   -7.1798751    250.65396  0.022268475  0.022106255            4 
  939000   0.86024727   -7.1766681    250.97196  0.022272982  0.022088544            4 
  940000   0.89253684   -7.1826072    250.83678  0.022237303  0.022070781            7 
  941000   0.87119112   -7.1736114    251.67296  0.022287722  0.022052969            4 
  942000   0.89211208   -7.1607451    250.98897  0.022203553  0.022035097           11 
  943000   0.87798966   -7.1903873    250.97107  0.022178426  0.022017285           14 
  944000   0.88247627   -7.1879818    251.34854  0.022188254  0.021999458           12 
  945000   0.88763385   -7.1428084    251.98107  0.022220553  0.021981747            8 
  946000   0.87355557   -7.1792596    251.40722  0.022146514  0.021964133            4 
  947000   0.87346577   -7.1772627    251.71129  0.022149885  0.021946465            9 
  948000   0.85501033   -7.1881916    251.90242  0.022143321   0.02192865            5 
  949000   0.86996639   -7.2219093    251.63943  0.022096894  0.021910922            7 
  950000   0.88790713   -7.1732121    252.64951  0.022162238   0.02189342            6 
  951000   0.86308563   -7.1440942     252.9306  0.022163565  0.021875887           13 
  952000   0.87052057    -7.197264    251.80248  0.022041534  0.021858482           11 
  953000   0.86946722   -7.2271728    252.32412  0.022064019  0.021840963            6 
  954000   0.88711682   -7.2160424    252.97225  0.022097506  0.021823533           13 
  955000   0.88634062    -7.172078    253.46373  0.022117254  0.021806177            8 
  956000   0.87236973   -7.1948714    252.30993  0.021993543   0.02178878            5 
  957000   0.86772174   -7.2050944    252.92804  0.022024385   0.02177134            6 
  958000   0.88706849    -7.190843    253.19457   0.02202458  0.021753831           20 
  959000   0.87888498   -7.2313527    253.03745   0.02198796  0.021736416            9 
  960000   0.88499118   -7.2360472    252.75695  0.021940707   0.02171884            6 
  961000    0.8590337   -7.2459285    252.89657  0.021929983  0.021701301           10 
  962000    0.8925337   -7.2288054    252.97573  0.021914045   0.02168369           16 
  963000   0.87722709   -7.2013791    253.68214  0.021952418  0.021666304            4 
  964000   0.85939154   -7.2211439    254.29617  0.021982726  0.021649101           11 
  965000   0.87282469   -7.2039745     253.9214  0.021927582  0.021632036            5 
  966000   0.87454449   -7.1940994    254.13437  0.021923255   0.02161488            3 
  967000   0.86298358   -7.2167507    253.84716  0.021875832  0.021597757           10 
  968000   0.87978557   -7.2256175    253.82126  0.021851004  0.021580525            4 
  969000   0.86856671   -7.1793358     254.3367  0.021872781  0.021563404           12 
  970000   0.88818172   -7.1964539    254.58251   0.02187135  0.021546264           21 
  971000   0.86537075   -7.1948477    254.41093    0.0218341  0.021529068            6 
  972000   0.86365906    -7.222652    254.55525   0.02182401  0.021511939           12 
  973000    0.8606441   -7.1919999    255.12747  0.021850588    0.0214949           11 
  974000   0.87369652   -7.2284611    254.11168  0.021741246  0.021477838            8 
  975000   0.86933545    -7.224796    254.70117  0.021769331  0.021460621            6 
  976000   0.85627094   -7.2396355    254.27366  0.021710524  0.021443409           16 
  977000   0.86286476   -7.1725845      255.433  0.021787189  0.021426361           10 
  978000    0.8608435   -7.1734092    254.90413  0.021719848  0.021409359           11 
  979000   0.87969927   -7.2145424    253.81635  0.021605069  0.021392379           20 
  980000   0.87785784   -7.2308905    254.99796    0.0216835  0.021375329            6 
  981000   0.86545019   -7.1748824    254.75516  0.021640771  0.021358236            7 
  982000   0.86995438   -7.1984989    254.67624  0.021612037  0.021341244            9 
  983000   0.85573566   -7.2094919    255.46261  0.021656715  0.021324282            5 
  984000   0.86704605   -7.2446513    254.84063  0.021582032  0.021307161            7 
  985000   0.86446508   -7.2348143    255.35931  0.021604003  0.021290101            9 
  986000   0.85421323   -7.2511345    254.54982  0.021513676  0.021272848            6 
  987000   0.85504373   -7.2264444    255.48497  0.021570835  0.021255658            6 
  988000   0.86721258   -7.2018282    255.58667   0.02155758  0.021238481           10 
  989000   0.84984378   -7.2345859    254.64961  0.021456826  0.021221388            4 
  990000   0.86765441   -7.2565378    254.96608  0.021461791  0.021204256            6 
  991000   0.84554019   -7.2501694    255.15993  0.021456435  0.021186895            7 
  992000   0.84764389   -7.2301347    255.26627  0.021443739  0.021169532            9 
  993000   0.88877265    -7.237697    255.36529  0.021430454  0.021152242            9 
  994000   0.85579375   -7.2354154    255.27933  0.021401688   0.02113504            9 
  995000   0.85740772    -7.238919    255.21324  0.021374643  0.021117779            8 
  996000   0.86538613   -7.2260465    255.82149  0.021404073  0.021100527            7 
  997000   0.85644569   -7.2485907    255.77317  0.021378567  0.021083495            4 
  998000   0.86844856    -7.220693    255.41105  0.021326908  0.021066311            8 
  999000   0.85121468   -7.2614427    255.57175  0.021318965  0.021049006            4 
 1000000    0.8698453   -7.2295294    255.83185  0.021319321  0.021031818           12 
 1001000   0.86010888   -7.2675697    254.93775  0.021223589  0.021014529            6 
 1002000   0.85712284   -7.2538632    255.26497  0.021229621   0.02099718           12 
 1003000   0.86425627   -7.2497402    255.19435  0.021202588  0.020979748            9 
 1004000   0.86516961   -7.2480569    255.09772   0.02117345  0.020962198            7 
 1005000    0.8297216   -7.2284066    256.03213  0.021229861  0.020944821            9 
 1006000   0.85422622   -7.2611265    255.67286  0.021178998  0.020927451           14 
 1007000   0.84573057   -7.2455375    256.17372  0.021199414  0.020910019           12 
 1008000   0.87429688   -7.2500495    255.65492  0.021135492  0.020892426            7 
 1009000   0.84917654   -7.2679157    254.95815     0.021057  0.020874679           14 
 1010000    0.8523661   -7.3225263    254.67572  0.021012848  0.020857006            8 
 1011000   0.84302812   -7.2783392    255.11732  0.021028464   0.02083928            7 
 1012000   0.84309153    -7.272514    255.17732  0.021012625  0.020821739            6 
 1013000   0.84193262   -7.2898508    255.21508  0.020994989   0.02080424           11 
 1014000   0.84605222   -7.2143489    256.39572  0.021071312  0.020786753           10 
 1015000   0.85264832   -7.2707584    255.12044  0.020945849  0.020769274            4 
 1016000   0.84875268   -7.2859031     255.4277  0.020950435  0.020751614            8 
 1017000   0.84774306    -7.306393    255.38594  0.020926413  0.020733873           10 
 1018000   0.84629906   -7.3063234     255.5216  0.020916962   0.02071613           14 
 1019000    0.8686133   -7.2953535    255.52911  0.020897049  0.020698509            9 
 1020000   0.86009279   -7.2972642    254.75577   0.02081338  0.020680798           12 
 1021000   0.84541914   -7.2965779    255.62123  0.020863633  0.020662988           10 
 1022000   0.83887306   -7.3047556    255.23081  0.020811384  0.020645185            8 
 1023000   0.87173372   -7.2884176    255.52546  0.020815043  0.020627461            7 
 1024000   0.84439232   -7.2713317    256.07051  0.020839071  0.020609896            6 
 1025000   0.83406178      -7.2942    256.23765  0.020832329  0.020592309           12 
 1026000   0.84062707   -7.2728187    256.09798   0.02080068  0.020574751            5 
 1027000   0.84881707   -7.2865698    256.41371  0.020806046  0.020557166           16 
 1028000   0.85053588   -7.2587187    256.64511  0.020804565  0.020539716           14 
 1029000   0.84104082   -7.2700488    256.33914  0.020759567  0.020522297            4 
 1030000   0.85519536   -7.2882174    256.65436  0.020764916  0.020504866            8 
 1031000   0.84535139   -7.2817272    256.60527  0.020740808  0.020487425           14 
 1032000   0.84150689   -7.2662351    257.02137  0.020754309  0.020470153           11 
 1033000   0.83535509    -7.274311    256.17809   0.02066619  0.020452725            8 
 1034000   0.83866336   -7.3057167    256.78463  0.020695086  0.020435318            5 
 1035000   0.84017238   -7.3130765    256.85879  0.020681062  0.020417983            5 
 1036000   0.82603298   -7.2339391    257.13084  0.020682983  0.020400805            8 
 1037000    0.8351952   -7.2763844     256.4447  0.020607899  0.020383498            4 
 1038000   0.82605092   -7.2362531     257.3677  0.020662147  0.020366182            7 
 1039000     0.828059   -7.3074944    256.84074  0.020599995   0.02034896           15 
 1040000   0.84247142   -7.2934623    256.34622  0.020540563  0.020331633            8 
 1041000    0.8360995   -7.3050252    256.62689  0.020543299  0.020314197           17 
 1042000   0.84125727    -7.296884    257.80891  0.020618115  0.020296884            9 
 1043000   0.83844102   -7.2882271    257.14576  0.020545363  0.020279527           15 
 1044000   0.84501664   -7.3314951    256.73536  0.020492925  0.020262151           10 
 1045000   0.83942893   -7.3300841    256.25066  0.020434662  0.020244669           11 
 1046000    0.8407652   -7.3080449    256.49837  0.020434861   0.02022717           10 
 1047000    0.8294518    -7.305468    256.81568  0.020440598  0.020209624            8 
 1048000    0.8202619   -7.3102821    256.95122  0.020431872  0.020192238            6 
 1049000   0.83350077   -7.3086267    257.06459  0.020421401  0.020174864            7 
 1050000   0.83313432   -7.3346189    256.48949  0.020356309  0.020157468            7 
 1051000   0.83055202      -7.3343    257.16485  0.020390489  0.020140008           33 
 1052000   0.81409298   -7.3135496    256.92121  0.020351807  0.020122643            5 
 1053000    0.8525262   -7.3139402    257.02749   0.02034089  0.020105421            9 
 1054000   0.83494762   -7.3062982    258.22958  0.020416633  0.020088193            8 
 1055000   0.83401796   -7.2973305    258.00646  0.020379657  0.020070895            4 
 1056000    0.8240721   -7.2994697    257.88703  0.020350934  0.020053732            9 
 1057000   0.84405821   -7.3262111    257.09084  0.020268909  0.020036484            7 
 1058000   0.82793248   -7.3064855     258.0335  0.020323999  0.020019208            7 
 1059000   0.84566859   -7.3171213    257.95567  0.020298684  0.020001973            9 
 1060000   0.83904355   -7.3006852    258.19887  0.020298654  0.019984781            9 
 1061000   0.81735004    -7.373917    257.12177  0.020194924  0.019967544            7 
 1062000   0.81674222    -7.316669    257.81133  0.020230017  0.019950278            8 
 1063000   0.84670337   -7.2985852    257.56525  0.020191694  0.019933152            5 
 1064000   0.82978618   -7.3111165    257.74054  0.020186446  0.019916084            7 
 1065000   0.82922104   -7.3197098    257.92736  0.020182109  0.019898924           11 
 1066000   0.82977612   -7.3060615    257.95977   0.02016571  0.019881766            5 
 1067000    0.8194526   -7.3292782    258.18767   0.02016461  0.019864686           10 
 1068000   0.82208561   -7.3467334    258.18815  0.020145767   0.01984746           13 
 1069000   0.81891591   -7.3223818    257.87018  0.020102134  0.019830329            9 
 1070000   0.83049207   -7.2975021    258.84669    0.0201594   0.01981321            6 
 1071000   0.81690114    -7.362518    257.09199  0.020004045  0.019796156           25 
 1072000   0.84071431   -7.3178933    258.29541  0.020078934  0.019779036           23 
 1073000    0.8274555   -7.3545692     258.7117  0.020092552  0.019762023            8 
 1074000   0.82890814   -7.3504113    258.21616  0.020035394  0.019744934           14 
 1075000   0.82696789   -7.3388281    258.37713  0.020029235   0.01972788           16 
 1076000   0.81463801   -7.3595796    258.27564   0.02000276  0.019710806            6 
 1077000    0.8315893   -7.3419293     259.1491  0.020051772  0.019693905            6 
 1078000   0.82011849   -7.3660984    258.65837  0.019995236  0.019676945            8 
 1079000   0.81223272   -7.3556243    259.36039  0.020030923  0.019659875           15 
 1080000   0.82792338   -7.3378836    258.92154  0.019978514  0.019642858            7 
 1081000   0.82847061   -7.3570154    258.61171  0.019936148  0.019625767           12 
 1082000   0.81859777   -7.3559898    258.49582  0.019908797   0.01960868           19 
 1083000   0.82631799   -7.3738237    258.08594  0.019858875  0.019591678           19 
 1084000   0.81671148   -7.3794209    258.77535  0.019893554  0.019574632           20 
 1085000   0.82971725   -7.3640225    258.52793  0.019856216  0.019557749           13 
 1086000   0.80724754   -7.3349609    259.25847   0.01989399  0.019540866           17 
 1087000   0.81549923    -7.330423    259.50704  0.019894744  0.019523986           16 
 1088000   0.81685273   -7.3490316    259.73112  0.019893621   0.01950718           13 
 1089000   0.81157577    -7.358224    259.40429  0.019850344   0.01949037           17 
 1090000   0.81833838   -7.3477145    259.31771  0.019825513  0.019473693           15 
 1091000   0.82662251    -7.360183    259.33533  0.019808687  0.019456944           17 
 1092000   0.81169413   -7.3473228    259.65782  0.019815157  0.019440138           44 
 1093000   0.79793443    -7.380056    259.46454  0.019782292  0.019423301           13 
 1094000   0.84081506   -7.3970002    258.85464  0.019717751  0.019406508           13 
 1095000   0.83008565   -7.3678731    259.06098  0.019715447  0.019389636           24 
 1096000   0.80203895   -7.3599852    259.34234  0.019718852  0.019372964            6 
 1097000   0.80640348   -7.3746985    259.55322  0.019716896  0.019356177           21 
 1098000   0.80890933   -7.3680989    259.56775  0.019700041  0.019339316            6 
 1099000   0.81132835    -7.361169    259.48882  0.019676131  0.019322483            9 
 1100000   0.81811318   -7.4049725    259.34696  0.019647497  0.019305604            7 
 1101000   0.81190589   -7.3620711    259.70054  0.019656414  0.019288607           14 
 1102000   0.81842515   -7.3904816     258.8594   0.01957497   0.01927189           14 
 1103000    0.8065807   -7.4028861    259.34948  0.019594249    0.0192551           18 
 1104000   0.80613808   -7.3798162    259.28658  0.019571753  0.019238252           13 
 1105000   0.82219283   -7.4181915    258.69311  0.019509284   0.01922139           15 
 1106000   0.82102016   -7.4106637    259.83792  0.019577902  0.019204641           15 
 1107000   0.80775062   -7.4211229    259.20411  0.019512505  0.019187784           35 
 1108000   0.79901281   -7.3989434    260.17328  0.019567785  0.019171054           13 
 1109000   0.81252337   -7.3810046    259.90509  0.019529989  0.019154343           17 
 1110000    0.8164497    -7.422825    259.14335  0.019455206  0.019137642           29 
 1111000   0.80671474   -7.4026842    259.49985  0.019464435  0.019120986           20 
 1112000   0.81319109   -7.4545447    259.25569  0.019428634  0.019104181           41 
 1113000   0.80030973   -7.4267479    260.38136   0.01949546  0.019087422           19 
 1114000   0.79546997   -7.4239109    259.86364  0.019439231  0.019070759           23 
 1115000   0.79762453   -7.4385592    260.26539  0.019451823   0.01905409           14 
 1116000   0.79984095   -7.4115253    259.80711  0.019400173  0.019037301           26 
 1117000   0.79993591   -7.4147188    260.39158  0.019426409  0.019020529           17 
 1118000   0.81994126   -7.3854691     260.3086  0.019402848  0.019003869           23 
 1119000   0.80321807   -7.3910697    259.24478  0.019306284  0.018987192           13 
 1120000   0.81398345   -7.4105384    260.35157  0.019371396  0.018970487           23 
 1121000   0.81928102   -7.4368547    260.01125  0.019328817  0.018953824           10 
 1122000   0.79379796   -7.4046312    259.86215  0.019300517  0.018937166           13 
 1123000   0.79089197   -7.4223274    259.84507  0.019282062  0.018920609           10 
 1124000   0.79707216   -7.3824737    260.22336  0.019292954  0.018904102           16 
 1125000   0.81934694   -7.4133248     260.3208  0.019283022  0.018887616           11 
 1126000   0.82625279   -7.3354435    261.77318  0.019373385  0.018871244            6 
 1127000   0.81039899   -7.4059487    260.37413  0.019252745  0.018854887            6 
 1128000   0.81430619   -7.4107647     260.7509  0.019263512  0.018838497            9 
 1129000   0.81019111    -7.403893    260.45865  0.019224878  0.018821983            5 
 1130000   0.79420198   -7.4319446    259.29718  0.019122211  0.018805388            7 
 1131000   0.79177492   -7.4180836    259.91339  0.019150707  0.018788837           11 
 1132000   0.81016789    -7.429506    260.38387  0.019168424  0.018772263           13 
 1133000   0.81267839   -7.4396814    260.86023  0.019186542  0.018755742           15 
 1134000   0.78935659   -7.4213417    260.48181  0.019141814   0.01873935           10 
 1135000   0.78862919    -7.411012    260.85715  0.019152507  0.018723019           22 
 1136000   0.80556896   -7.3922895    261.11603  0.019154639  0.018706701           17 
 1137000   0.79419686   -7.4410851     260.9311  0.019124238  0.018690335           16 
 1138000   0.79031296   -7.4158342    260.99458  0.019112081  0.018673927           20 
 1139000   0.79156987   -7.3944115    261.37988  0.019123491   0.01865759           10 
 1140000   0.79923521   -7.4302643    261.25594  0.019097656  0.018641214           25 
 1141000   0.79132781   -7.4528698    260.73621   0.01904296  0.018624911            9 
 1142000   0.79406053   -7.4642606    260.48122  0.019007678  0.018608477           14 
 1143000   0.80025733   -7.4272986    261.30811  0.019051335  0.018592229           22 
 1144000   0.78554713   -7.4427046    260.77381  0.018995761  0.018575958            8 
 1145000   0.78466887   -7.4817517    260.37495  0.018950142  0.018559656           11 
 1146000   0.79166858   -7.4256016    261.71875  0.019031323  0.018543457           17 
 1147000    0.8020745   -7.4802449    261.38781  0.018990686  0.018527268           27 
 1148000   0.79375706     -7.43996    261.30479  0.018968117  0.018511053           23 
 1149000   0.80251581    -7.504733    261.23371  0.018946454  0.018494856           20 
 1150000   0.81439893   -7.4447563    261.53965  0.018952149  0.018478652           13 
 1151000   0.78612141   -7.4625098    261.26434   0.01891575  0.018462485           24 
 1152000   0.79533207   -7.4538915    261.19818  0.018894544  0.018446392           30 
 1153000   0.80517019   -7.4728352    261.19826  0.018878163  0.018430176           22 
 1154000   0.79299903   -7.4952811    260.97966  0.018846019  0.018414087           18 
 1155000   0.80608095   -7.4860877      261.392  0.018859452  0.018397991           18 
 1156000   0.78378782   -7.4592359    261.85571  0.018876565  0.018381853            7 
 1157000   0.79655558   -7.4831338     260.9938  0.018798171  0.018365821           21 
 1158000   0.81799268   -7.4437602    261.04281  0.018785464  0.018349785            9 
 1159000   0.79165799   -7.4632516    260.85921  0.018756055  0.018333751           11 
 1160000   0.79430156   -7.4367891    261.54259  0.018788979  0.018317715           21 
 1161000   0.78266899   -7.4310502    261.81119  0.018792075  0.018301737            7 
 1162000   0.79385601   -7.4475412    262.08065  0.018795227  0.018285786            8 
 1163000   0.79523873   -7.4393525     261.6608  0.018748982   0.01826981           14 
 1164000   0.79902228   -7.4377503    261.57278  0.018726574  0.018253882           11 
 1165000    0.7839303   -7.4545984    261.65244  0.018716197  0.018237916           13 
 1166000   0.78877451   -7.4496554    262.06348  0.018729523  0.018221946           14 
 1167000   0.77836436   -7.4296775     262.2276  0.018725193  0.018206062            8 
 1168000   0.78468856   -7.4378863    261.98235  0.018691663  0.018190226            9 
 1169000   0.79424951    -7.451128    262.38596  0.018704446  0.018174508           10 
 1170000    0.8096912   -7.4448688    261.68929  0.018638838  0.018158707           19 
 1171000   0.78585109   -7.4565466    262.51882  0.018681954  0.018142883           10 
 1172000   0.80918989   -7.4372622    262.50239  0.018664846  0.018127108           19 
 1173000   0.77599236   -7.4589622    262.36535  0.018639198   0.01811134           13 
 1174000   0.78056079   -7.4787354    262.15349  0.018608283  0.018095569           23 
 1175000   0.80256857   -7.4715512    262.07633  0.018586974  0.018079861           14 
 1176000   0.78240833   -7.4438018    262.14364  0.018575938  0.018064164           16 
 1177000   0.77905298   -7.4562247     262.1175  0.018558305  0.018048387           11 
 1178000   0.80837361   -7.4786698     262.3509  0.018559062  0.018032535           15 
 1179000   0.75986946   -7.4842697    262.14098  0.018528483  0.018016727           10 
 1180000   0.77519785   -7.4492963    261.76684  0.018486359  0.018001008           10 
 1181000   0.79417002   -7.4674667    262.75042  0.018540109  0.017985319           22 
 1182000   0.78542441   -7.4911381    262.39506   0.01849937  0.017969573           12 
 1183000    0.7794961   -7.5029853      262.044  0.018459003  0.017953809            9 
 1184000   0.76992441   -7.4728539    262.27947  0.018459985  0.017938029           13 
 1185000   0.79762903   -7.4771462     262.2011  0.018438896  0.017922283           12 
 1186000   0.77113134   -7.4699364    262.57902  0.018449903   0.01790653           16 
 1187000    0.7835297   -7.4714821    262.32762   0.01841671  0.017890902           42 
 1188000   0.78221564   -7.4816982    262.75413  0.018431126   0.01787521           44 
 1189000   0.77431235   -7.4883304     262.2895   0.01838306   0.01785946           46 
 1190000   0.78058091   -7.4671566    262.80772  0.018403902  0.017843732           17 
 1191000   0.77445972   -7.4816974    262.95525  0.018398772  0.017828047           36 
 1192000   0.78588526    -7.500754    262.29231  0.018336991  0.017812417           30 
 1193000   0.76813891   -7.4820902    262.86883  0.018361891  0.017796811           19 
 1194000   0.76696469   -7.5041717    262.36944  0.018311658   0.01778119           19 
 1195000    0.7858922   -7.4793635    262.97659  0.018338674  0.017765556           23 
 1196000   0.76976193   -7.5080968    261.96412  0.018252796  0.017749988           13 
 1197000   0.75664815   -7.5304819    262.23419  0.018256349  0.017734369           16 
 1198000   0.77003908   -7.4892025    262.89005  0.018286731  0.017718775           46 
 1199000   0.77564066    -7.505002    262.58425  0.018250226  0.017703247           39 
 1200000   0.79287418   -7.5397724    262.51001  0.018229862  0.017687689           17 
 1201000   0.78215835   -7.5218776    263.29488  0.018269143  0.017672177           26 
 1202000   0.78203323   -7.5242507     262.5242  0.018200513  0.017656673           12 
 1203000   0.76964292   -7.5111452    262.87395  0.018209611  0.017641236           13 
 1204000    0.7718919   -7.5053794    263.49979  0.018237804  0.017625783           10 
 1205000   0.76080146   -7.4911049    262.71519  0.018168409  0.017610413           15 
 1206000   0.75761677   -7.5118012     262.9112  0.018166888  0.017594948           30 
 1207000   0.78259992   -7.5079607    263.02825  0.018159918  0.017579467           19 
 1208000   0.76101392    -7.490444    262.87836  0.018134544  0.017564049           23 
 1209000   0.76301055   -7.5048024    262.94408  0.018124075  0.017548687           12 
 1210000   0.76866898   -7.4972215    263.76185  0.018165416  0.017533329           11 
 1211000   0.76185449   -7.5450345    263.22286  0.018113326  0.017517978           17 
 1212000   0.76895332   -7.5336842    262.99182  0.018082496  0.017502547           17 
 1213000   0.75851756   -7.5600228    262.81695  0.018055575  0.017487163           29 
 1214000   0.76245126   -7.5268088    262.76008  0.018036799  0.017471787           17 
 1215000   0.76853338    -7.511371    263.77257  0.018091397  0.017456379           22 
 1216000    0.7826951   -7.5320071    262.62231  0.017997691   0.01744107           16 
 1217000   0.76781199   -7.5260728    263.13175  0.018017786   0.01742575           13 
 1218000   0.77279994   -7.5173599    263.81242  0.018049563  0.017410422           46 
 1219000   0.74676566   -7.4969562    263.77698  0.018032334  0.017395165           24 
 1220000    0.7695933   -7.5168706    262.99358  0.017964043   0.01737996           41 
 1221000   0.78114447   -7.5214014    263.39517  0.017976739  0.017364768           51 
 1222000   0.76613724   -7.5356322     263.0785  0.017940432  0.017349448           45 
 1223000   0.76199845   -7.5332885     263.1738  0.017932257  0.017334162           39 
 1224000   0.75234963   -7.5366344    262.82789  0.017894056  0.017318926           30 
 1225000   0.76011158   -7.5524353    263.03915   0.01789382   0.01730372           21 
 1226000   0.77385395    -7.536255    263.44891  0.017907077  0.017288481           35 
 1227000   0.76226437   -7.5341819    263.85835   0.01792029  0.017273315           45 
 1228000   0.77201859   -7.5280245    263.33368  0.017870092   0.01725816           48 
 1229000   0.76332906   -7.5343352    263.59304  0.017873138  0.017243074           67 
 1230000   0.75032711   -7.5500867    263.20312   0.01783219  0.017228049           36 
 1231000   0.75141395   -7.5388645    263.57936  0.017843173  0.017212971           63 
 1232000   0.76242023   -7.5238349    264.17407  0.017868917  0.017197897           52 
 1233000   0.76222299   -7.5579517    263.74541  0.017825453  0.017182765           68 
 1234000   0.76435976   -7.5647479    263.12264  0.017768952   0.01716769           87 
 1235000   0.77825691   -7.5517945    264.02472  0.017815433  0.017152638           70 
 1236000   0.76941364   -7.5865333     263.3684  0.017756769  0.017137612           86 
 1237000   0.76230983   -7.5385561    264.29827  0.017805057  0.017122576           86 
 1238000    0.7657517   -7.5215375    264.44931  0.017800842  0.017107569           97 
 1239000    0.7682581   -7.5687747    263.72335  0.017737648   0.01709258          119 
 1240000   0.75988402   -7.5764248    263.64606  0.017718149   0.01707761           86 
 1241000   0.75681872   -7.5762753     263.1707  0.017671951  0.017062554           71 
 1242000   0.76598305   -7.5338415    263.96582  0.017711072  0.017047535           71 
 1243000   0.75662502    -7.576478    263.96376  0.017696685  0.017032503           93 
 1244000   0.75659513   -7.5874869    263.76468  0.017669124   0.01701749           47 
 1245000   0.74507389   -7.5908661     263.4934  0.017636773  0.017002414           61 
 1246000   0.77448215   -7.5582149    263.97713  0.017654971  0.016987392           30 
 1247000   0.73637893   -7.5843323    264.12328   0.01765058  0.016972419           66 
 1248000   0.75910641   -7.5848152    264.17972  0.017640206  0.016957491           63 
 1249000   0.77660225   -7.5751686    264.12841  0.017622659  0.016942583           37 
 1250000   0.74410728   -7.5589835    263.66743  0.017577829  0.016927678           66 
 1251000   0.75388164   -7.5803272    264.14458  0.017595562  0.016912836           50 
 1252000   0.75029754    -7.574319    264.24746  0.017588356  0.016897945           54 
 1253000   0.75287454   -7.5704076    264.40583  0.017584852  0.016883097           61 
 1254000   0.75860547   -7.5897201    263.71754  0.017525089  0.016868161           84 
 1255000   0.75620109   -7.5647934    263.86173  0.017520699  0.016853245           42 
 1256000   0.74683048   -7.5859031    263.01551  0.017450604  0.016838289           53 
 1257000   0.74338088   -7.6093643    263.63572  0.017477839  0.016823335           63 
 1258000    0.7597093   -7.5823727    263.79424  0.017474446  0.016808435           86 
 1259000   0.74847284   -7.5868029     264.0812  0.017479561  0.016793502           53 
 1260000   0.75637275   -7.6059111    263.64994  0.017437165  0.016778522           74 
 1261000   0.76364706   -7.5899152    263.90126  0.017439946  0.016763632           72 
 1262000   0.76074659   -7.5820203    263.70281  0.017413022  0.016748762           91 
 1263000   0.76616594   -7.6232919    263.97618  0.017417272   0.01673386           73 
 1264000   0.74471809   -7.6275351    263.77292  0.017390092  0.016719005           97 
 1265000   0.74575568   -7.6231022    263.84615  0.017381169  0.016704181           82 
 1266000   0.76515465   -7.5863136    264.26385  0.017394935  0.016689373           77 
 1267000   0.74453751   -7.6023915    264.08364  0.017369353  0.016674614           35 
 1268000    0.7330565   -7.5941033    264.27278  0.017368085  0.016659838           40 
 1269000   0.75145417    -7.619218    263.34188  0.017293268  0.016645057           58 
 1270000   0.75474123   -7.6160972    263.84071  0.017312382  0.016630254           61 
 1271000   0.75470386   -7.6160378    263.91408  0.017303572  0.016615498          115 
 1272000   0.73993704   -7.6063106    264.22067  0.017310054  0.016600749           76 
 1273000   0.75078197   -7.5917153    264.66763  0.017325716  0.016586053           48 
 1274000   0.74403069   -7.5993004    264.43925  0.017297177  0.016571348          149 
 1275000   0.74082446   -7.5918752    263.14547  0.017199051  0.016556653          101 
 1276000   0.72784378   -7.6017968     264.2706  0.017259052     0.016542           87 
 1277000   0.74511314   -7.6207141    264.07459  0.017232746   0.01652733           58 
 1278000   0.73333333   -7.5836393    264.26773  0.017231855  0.016512674           77 
 1279000   0.74733891   -7.5856685    264.17648  0.017212437  0.016498096           36 
 1280000    0.7202004   -7.6292554    263.79347  0.017174054  0.016483448          121 
 1281000    0.7507589   -7.6243267    263.68618  0.017153668  0.016468809           65 
 1282000   0.75832517   -7.5971614     264.6488   0.01720286  0.016454182           35 
 1283000   0.73559754   -7.6226323    264.68484  0.017191792  0.016439659           66 
 1284000   0.73193621   -7.6053139    264.28623  0.017152533  0.016425145           52 
 1285000   0.73493608   -7.6091937    264.42525    0.0171482  0.016410601           56 
 1286000   0.74387366   -7.6081205    264.52981  0.017141641   0.01639607           27 
 1287000   0.71902835   -7.6088831    264.38655  0.017119046  0.016381536           45 
 1288000    0.7376764   -7.6376249    264.59076  0.017118967   0.01636704           52 
 1289000    0.7557255    -7.610972    264.47472  0.017098185  0.016352512           47 
 1290000   0.73368238   -7.6290359    264.32934  0.017075539  0.016338018           51 
 1291000   0.72907726   -7.6161524     265.0469   0.01710863  0.016323559           85 
 1292000   0.72503919   -7.6256598    265.03493  0.017094616   0.01630913           29 
 1293000   0.74522241   -7.6338686    264.51473  0.017047868  0.016294661           34 
 1294000   0.71778092   -7.6110354    264.36323  0.017024938  0.016280197           32 
 1295000   0.73344555   -7.6251051    264.16396  0.016998968  0.016265707           71 
 1296000   0.73614552   -7.6494527    264.62571  0.017015542   0.01625125           38 
 1297000   0.74436951   -7.6316568    264.54162   0.01699702  0.016236831           59 
 1298000   0.73846397   -7.6189509    264.10473  0.016955876  0.016222445           44 
 1299000   0.72601811   -7.6258259     264.9429  0.016996594  0.016207994           27 
 1300000   0.72499903   -7.6496705    264.14388    0.0169323  0.016193561           52 
 1301000   0.73590472    -7.629475    264.13185  0.016918515   0.01617912           53 
 1302000   0.72861037   -7.6314076    264.50552  0.016929437  0.016164657           32 
 1303000   0.74171663   -7.6465981    264.05419   0.01688758  0.016150251           45 
 1304000   0.73351405   -7.6368006    264.37282  0.016894991   0.01613583           38 
 1305000   0.71461964   -7.6236003    264.46386  0.016887859  0.016121458           29 
 1306000   0.72607787    -7.630643     264.3589   0.01686823  0.016107044           62 
 1307000   0.73187221   -7.6366045    264.60516  0.016871026  0.016092635           23 
 1308000   0.73504684   -7.6456565    264.62632  0.016859475  0.016078258           37 
 1309000   0.73540774   -7.6642674    264.31079  0.016826508  0.016063876           23 
 1310000   0.74270135   -7.6582888    264.41634  0.016820378  0.016049531           44 
 1311000   0.74520579   -7.6701648    264.28479  0.016799185  0.016035179           34 
 1312000   0.74694112   -7.6446554    264.49652   0.01679983  0.016020857           30 
 1313000   0.70952157   -7.6525653    263.80739  0.016743297  0.016006496           26 
 1314000   0.72532442   -7.6498145    264.06966  0.016747188  0.015992175           21 
 1315000   0.72510373   -7.6686452    263.86108  0.016721234   0.01597787           32 
 1316000   0.73322197   -7.6368931     264.6739  0.016759999  0.015963561           21 
 1317000   0.73261088   -7.6511192    264.63277  0.016744671   0.01594928           25 
 1318000   0.71595296   -7.6583835    264.09711  0.016698098  0.015934998           28 
 1319000   0.73073098   -7.6482035    263.80703  0.016667111  0.015920755           34 
 1320000   0.72708684   -7.6546292    263.80434  0.016654314  0.015906498           49 
 1321000    0.7417722   -7.6671048    264.46758  0.016683546  0.015892241           26 
 1322000   0.71948008   -7.6592689    264.07511  0.016646187  0.015878018           18 
 1323000   0.72708851   -7.6472756    265.00905  0.016692432  0.015863811           22 
 1324000   0.73011342   -7.6458316    264.55518  0.016651258  0.015849635           27 
 1325000   0.72939781   -7.6661203    264.33758  0.016625005  0.015835477           57 
 1326000   0.72215372    -7.687284    264.35283  0.016613426   0.01582129          107 
 1327000   0.71269278    -7.683644    263.94679  0.016575407  0.015807039           35 
 1328000    0.7428312   -7.6616559    264.03223  0.016568288  0.015792827           55 
 1329000   0.72328593   -7.7067493    264.16955  0.016564431  0.015778617           21 
 1330000   0.72365364   -7.6806204    263.74619   0.01652545  0.015764408           25 
 1331000   0.72078477   -7.6767585    264.04943   0.01653202  0.015750178           26 
 1332000   0.72802887   -7.6904464    263.57427  0.016489882  0.015735928           31 
 1333000   0.72009077   -7.6887772    263.52406  0.016474372  0.015721705           36 
 1334000   0.73195235   -7.6987126    263.11235  0.016436304  0.015707495           23 
 1335000    0.7218161   -7.7171274    263.38167  0.016440803  0.015693267           26 
 1336000   0.72832465    -7.647161    265.27085  0.016546336   0.01567911           42 
 1337000   0.71707583   -7.6765123    264.23226  0.016469226  0.015664993           53 
 1338000   0.71763842   -7.6745039    264.19109  0.016454353  0.015650885           20 
 1339000   0.72989408    -7.705941    264.37213  0.016453331  0.015636758           39 
 1340000   0.72512884   -7.7234084    263.56025  0.016390563  0.015622585           27 
 1341000   0.71472056    -7.680286    263.60563   0.01638116   0.01560842           41 
 1342000   0.71075803   -7.6976031    263.46879  0.016360456  0.015594259           25 
 1343000    0.7177231    -7.707138    263.65879  0.016360064  0.015580159           30 
 1344000   0.71680672   -7.6971917     263.6722  0.016348723   0.01556609           42 
 1345000   0.71627667   -7.6785785    264.42558  0.016383245  0.015552043           33 
 1346000   0.70410393   -7.6735505    264.25314  0.016360397  0.015538013           24 
 1347000   0.70584248   -7.6714285    264.34747  0.016354087  0.015523946           46 
 1348000   0.70664804   -7.6969587    263.74598  0.016304771  0.015509902           35 
 1349000   0.70749444   -7.7056202    263.58263  0.016282594  0.015495836           34 
 1350000   0.71572329   -7.7121313    264.35611  0.016318278  0.015481784           35 
 1351000   0.69809803   -7.7090145    263.79764  0.016271752  0.015467745           37 
 1352000   0.73161511   -7.7100786    264.12439  0.016279856  0.015453717           29 
 1353000   0.70614063   -7.7160764    264.01233  0.016260922  0.015439702           29 
 1354000   0.72171537   -7.7054193    264.49975  0.016278911  0.015425714           55 
 1355000   0.71365523   -7.6986749    263.89724  0.016229843  0.015411722           56 
 1356000    0.7113163   -7.7204015    264.05371   0.01622749  0.015397796           38 
 1357000    0.7084171   -7.7053665    264.22608  0.016226116  0.015383905           50 
 1358000   0.71904608    -7.714143    264.10315  0.016206624  0.015369968           61 
 1359000   0.71383532   -7.7179437    263.87121  0.016180477  0.015356052           25 
 1360000   0.69233371   -7.7058588    263.50547  0.016146169  0.015342121           62 
 1361000   0.71602858   -7.7072165     263.5976  0.016139946   0.01532817           38 
 1362000   0.69963761    -7.738774    263.83097  0.016142375  0.015314236           54 
 1363000   0.73445009   -7.7130424    264.12933  0.016148773  0.015300305           27 
 1364000   0.70802668   -7.7204516    263.99714  0.016128857  0.015286362           44 
 1365000   0.70428312    -7.755914    263.18174  0.016067261  0.015272396           36 
 1366000   0.71929745   -7.7264993    263.81294  0.016094005  0.015258443           17 
 1367000   0.70980335   -7.7118321    263.75458  0.016078675  0.015244528           14 
 1368000   0.71827904    -7.698452    264.07791  0.016086617  0.015230655           22 
 1369000   0.72072689   -7.7224967    264.19912  0.016082245  0.015216846           45 
 1370000   0.72660662   -7.7356831    263.41312  0.016022696  0.015203024           31 
 1371000   0.69765583   -7.7383262    263.79851  0.016034434  0.015189177           38 
 1372000   0.71759944   -7.7056705    264.45451  0.016062592  0.015175384           36 
 1373000    0.7202455   -7.7350725    263.86871  0.016015338  0.015161606           44 
 1374000   0.71824333   -7.7535023     263.2581  0.015966648  0.015147836           31 
 1375000   0.69747664   -7.7391772    263.64164  0.015978281   0.01513403           28 
 1376000   0.69520459   -7.7286602    264.33107  0.016008422  0.015120225           21 
 1377000   0.70487404   -7.7324018     263.8397   0.01596706  0.015106505           24 
 1378000   0.70648908   -7.7471276    263.99361  0.015964781  0.015092824           37 
 1379000   0.70160247   -7.7200671    263.76984  0.015939681  0.015079137           46 
 1380000   0.70896629   -7.7592635    263.04909  0.015884607  0.015065441           86 
 1381000   0.71288977   -7.7505838    263.42971  0.015896072  0.015051719           50 
 1382000   0.69967852   -7.7584685    263.32043  0.015877981  0.015037983           55 
 1383000   0.69896025   -7.7395604    263.93403  0.015903472  0.015024274           38 
 1384000   0.69338634   -7.7660927    263.61953  0.015873045  0.015010539           37 
 1385000   0.70851948   -7.7618327    263.73421  0.015868485  0.014996846           28 
 1386000     0.697834   -7.7511041    263.84422   0.01586365  0.014983177           57 
 1387000   0.70093198   -7.7244584    263.84277  0.015852125  0.014969519           32 
 1388000   0.71345412   -7.7489454     264.3226  0.015869513  0.014955898           34 
 1389000   0.70874805   -7.7526497    263.98715  0.015837962   0.01494226           46 
 1390000   0.70166071    -7.741576     263.5784  0.015802062  0.014928667           78 
 1391000    0.7020714   -7.7290327    264.31989  0.015835124  0.014915083           48 
 1392000   0.68947832   -7.7497292    263.54503   0.01577736  0.014901503           37 
 1393000   0.70340313   -7.7570793    263.57346  0.015767735  0.014887932           29 
 1394000    0.6911182   -7.7533897    263.69441  0.015763654  0.014874365           41 
 1395000   0.70644973    -7.772131    263.60151  0.015746804  0.014860822           48 
 1396000   0.69162415   -7.7503871    263.89332  0.015752944  0.014847293           23 
 1397000   0.69524642   -7.7500385    263.43693  0.015714444  0.014833786           66 
 1398000   0.69411701    -7.754846    263.65443  0.015716168  0.014820248           48 
 1399000   0.69987343   -7.7608372    263.88646  0.015718755  0.014806758          100 
 1400000   0.68090149   -7.7489037    263.68271    0.0156954  0.014793249           50 
 1401000   0.70694944   -7.7632695      263.551  0.015676362  0.014779753           33 
 1402000   0.70261442   -7.7505268    263.48972  0.015661538  0.014766261           33 
 1403000   0.69711458   -7.7743345    264.15253  0.015689744  0.014752818           49 
 1404000   0.67789203   -7.7755516    263.40959  0.015634472  0.014739345           46 
 1405000   0.68401448   -7.7401219    264.20393  0.015670458  0.014725942           35 
 1406000   0.69959045   -7.7352195    263.96964  0.015645427  0.014712521           34 
 1407000   0.67845536   -7.7796736    263.43964  0.015602916  0.014699117          112 
 1408000   0.67300348   -7.7410673    263.93307  0.015621038  0.014685711           64 
 1409000   0.68044339   -7.7444125    264.49081  0.015642939  0.014672307           33 
 1410000   0.68484152    -7.733999     264.0302  0.015604621  0.014658935           39 
 1411000   0.68929289   -7.7492736    263.64826  0.015571005  0.014645593           36 
 1412000   0.70984451   -7.7550391    264.11808  0.015587705  0.014632283           60 
 1413000   0.67696882   -7.7759498    263.91867  0.015564913  0.014618989           71 
 1414000   0.69286757    -7.779681    263.23059  0.015513354  0.014605655           52 
 1415000   0.68621787   -7.7572902    264.02509  0.015549181  0.014592348           51 
 1416000   0.68777628   -7.7670832    263.39502  0.015501119   0.01457905           44 
 1417000   0.67474727    -7.761708    264.18544  0.015536665   0.01456574           48 
 1418000   0.67342354   -7.7853765     263.5618  0.015489058  0.014552432           51 
 1419000   0.69032431   -7.7587279    263.90551  0.015498327  0.014539127           52 
 1420000   0.68641713   -7.8040246     262.9866  0.015433486  0.014525849           61 
 1421000   0.67643439   -7.7721294    263.70615  0.015464822  0.014512589           73 
 1422000   0.67677189   -7.7810714    263.43081  0.015437811  0.014499381          118 
 1423000    0.6763812   -7.7771679    263.45244  0.015428229  0.014486163          102 
 1424000    0.6884752   -7.7959969    263.30699  0.015408883  0.014472966          118 
 1425000    0.6746464   -7.7943237    262.85878  0.015371859  0.014459754          107 
 1426000    0.6896917   -7.7788612    263.81091   0.01541672  0.014446513           61 
 1427000   0.68278893   -7.7998404    264.38395  0.015439381  0.014433341          168 
 1428000    0.6853686   -7.7837953    263.19913  0.015359426  0.014420177          115 
 1429000   0.68758523   -7.8000617    263.80439  0.015383974  0.014407008           72 
 1430000    0.6784551   -7.8198852    263.43217  0.015351525  0.014393819           59 
 1431000   0.67804326   -7.8183947    263.26116  0.015330838  0.014380643           73 
 1432000     0.685263   -7.7912823    263.78175  0.015350428  0.014367506          129 
 1433000     0.680677   -7.8185129    263.17947  0.015304691  0.014354355           99 
 1434000   0.68629729   -7.8468228    263.37129  0.015305166  0.014341174           93 
 1435000   0.68528359   -7.7885237    262.97157  0.015271287  0.014328038          124 
 1436000   0.66292237   -7.8219727    263.38924  0.015284891  0.014314905           63 
 1437000   0.69157526   -7.8005629    263.24134  0.015265677  0.014301774          124 
 1438000    0.6763142   -7.7957229    262.79066  0.015228944  0.014288651          109 
 1439000    0.6802486   -7.8086436    263.53935  0.015261718  0.014275552          103 
 1440000    0.6874472   -7.7927853    263.81074  0.015266825  0.014262504          103 
 1441000   0.66578456   -7.7893018    263.36321   0.01523035  0.014249443          131 
 1442000   0.67987094   -7.7990687    264.41032    0.0152803  0.014236396          103 
 1443000    0.6716422   -7.7914918    264.10199  0.015251905  0.014223373           92 
 1444000     0.681429   -7.8334759    262.85993  0.015169664  0.014210307           99 
 1445000   0.67745109   -7.8305483    263.64646  0.015204525  0.014197261           88 
 1446000   0.69078032   -7.8178997    262.84306   0.01514771  0.014184209          100 
 1447000    0.6672861   -7.8154132      263.101  0.015152096  0.014171204           97 
 1448000   0.68403777   -7.8415894    263.09915  0.015141525   0.01415822          101 
 1449000   0.67617394   -7.8196359    263.07019   0.01512941  0.014145228          101 
 1450000   0.66825316   -7.8217767    263.00542  0.015115254  0.014132253          128 
 1451000   0.67869509   -7.8391423    263.12526   0.01511172  0.014119288          111 
 1452000   0.67963591   -7.8328251    263.19697  0.015105428  0.014106298           73 
 1453000   0.68704398   -7.8427198    262.92137  0.015079225  0.014093295           89 
 1454000   0.67852331   -7.8441024    263.13436  0.015081062  0.014080313          107 
 1455000   0.66431963     -7.83115    263.55295   0.01509467  0.014067367           98 
 1456000   0.66118769   -7.8400976    262.63421   0.01503172  0.014054397           64 
 1457000    0.6738254   -7.8491472    263.02804  0.015043928  0.014041442           87 
 1458000   0.67123979   -7.8433745    263.29238  0.015048719   0.01402851           87 
 1459000   0.65975508   -7.8501116    263.29415  0.015038505  0.014015621          195 
 1460000   0.65491349   -7.8203634    263.39391  0.015033899  0.014002707          218 
 1461000   0.66729349   -7.8547078    262.79396  0.014989388  0.013989815          111 
 1462000   0.68495706   -7.8374967     262.8648  0.014983173  0.013976933          120 
 1463000   0.68677545   -7.8239218    262.68224  0.014962533  0.013964044           97 
 1464000   0.67625451   -7.8135324    263.30054  0.014987508   0.01395116          113 
 1465000   0.66989866   -7.8288191    263.15824  0.014969183  0.013938294           98 
 1466000   0.67115002   -7.8489061    262.55994  0.014924962  0.013925443          168 
 1467000   0.65866032   -7.8337743    262.98423   0.01493889  0.013912589          113 
 1468000   0.66703758   -7.8506997    262.94481  0.014926476  0.013899791          152 
 1469000   0.66599348   -7.8351838    262.79549  0.014907845   0.01388698          151 
 1470000   0.66786689   -7.8489732    263.24066   0.01492294  0.013874182          112 
 1471000   0.67787201   -7.8354843    263.20323  0.014910675  0.013861409          116 
 1472000   0.66748943   -7.8552883    263.23144  0.014902142  0.013848651          208 
 1473000    0.6643313   -7.8505643    262.68022  0.014860841  0.013835897          137 
 1474000   0.66971052   -7.8398796    263.38594  0.014890657  0.013823182          122 
 1475000   0.66339175   -7.8444329    262.95987   0.01485649  0.013810469          237 
 1476000   0.66250937   -7.8765276    262.74502  0.014834294  0.013797768          167 
 1477000   0.65994867   -7.8606458    262.69017  0.014821156  0.013785013          197 
 1478000   0.65350872    -7.856335    262.96821  0.014826805  0.013772312          163 
 1479000   0.66818878   -7.8484983    262.67098  0.014800033  0.013759609          190 
 1480000   0.65542291   -7.8395409    263.13119  0.014815945  0.013746961          138 
 1481000   0.66495974   -7.8452989    262.71519  0.014782534  0.013734304          185 
 1482000   0.66621479   -7.8767706    262.94251  0.014785341  0.013721629          150 
 1483000   0.65672379   -7.8772798    262.38494   0.01474404  0.013708995          191 
 1484000   0.66747214   -7.8631702    262.81999  0.014758535  0.013696352          284 
 1485000   0.64824506   -7.8476553    263.28121  0.014774479  0.013683737          155 
 1486000   0.65913086   -7.8285285     263.1126  0.014755081   0.01367114          204 
 1487000   0.66139351   -7.8805825    262.97008  0.014737171  0.013658516          186 
 1488000   0.65803192   -7.8756528    262.34799  0.014692428  0.013645909          187 
 1489000   0.68151905   -7.8703834    262.84447  0.014710346  0.013633337          126 
 1490000   0.64587239   -7.8512527    262.85006  0.014700786  0.013620775          126 
 1491000   0.67010407   -7.8628032    262.89713  0.014693558  0.013608198          241 
 1492000    0.6563184   -7.8610789    261.88719  0.014627301  0.013595639          175 
 1493000   0.66381752    -7.864821    262.82489  0.014669842  0.013583063          164 
 1494000   0.67785225   -7.8838084    262.50641  0.014642258  0.013570556          167 
 1495000   0.66429227   -7.8684756    262.66875  0.014641513  0.013558047          158 
 1496000    0.6471481   -7.8719243    262.56075   0.01462571  0.013545558          197 
 1497000   0.65206384   -7.9001821    262.98362   0.01463948  0.013533044          148 
 1498000   0.66194616   -7.8875699    262.72265   0.01461519  0.013520534          172 
 1499000    0.6502613   -7.8768838    263.04534  0.014623379  0.013508054          173 
 1500000   0.64876093   -7.8586046    262.91113  0.014606174  0.013495551          110 
 1501000   0.65353446   -7.8885098    262.92008   0.01459694  0.013483081          188 
 1502000   0.64948876   -7.8824777    262.39414  0.014558042  0.013470621          346 
 1503000   0.64628925   -7.9004024    262.94619  0.014578964  0.013458202          173 
 1504000   0.64246014    -7.873878     262.2937  0.014533117  0.013445774          119 
 1505000   0.65374825   -7.8753012    263.16585  0.014571753  0.013433346          131 
 1506000   0.65276663   -7.9031849    262.47006  0.014523575   0.01342092          153 
 1507000   0.63447404   -7.8815655    262.47893  0.014514429  0.013408534          155 
 1508000   0.64271727   -7.8764438     262.6494  0.014514224  0.013396159          162 
 1509000   0.65246327   -7.8709127    262.44469  0.014493301   0.01338381          145 
 1510000   0.66114271   -7.8893208    262.61439  0.014493068  0.013371466          260 
 1511000   0.63929687   -7.9071148    262.36012  0.014469453  0.013359163          235 
 1512000   0.65041364   -7.8741172    262.04069  0.014442278   0.01334684          161 
 1513000   0.65821667   -7.8785475     262.2212  0.014442675  0.013334517          122 
 1514000   0.64313275   -7.8924323    262.71113  0.014460102  0.013322217          189 
 1515000   0.64263911   -7.8791119    262.12366  0.014418243  0.013309902          136 
 1516000   0.65512033   -7.8928225    262.45618  0.014427011  0.013297618          306 
 1517000   0.66698532   -7.9048648    262.51031  0.014420474   0.01328536          346 
 1518000   0.64633248     -7.89103    262.66956  0.014419717  0.013273113          177 
 1519000   0.65511808   -7.8874957    262.73162  0.014413628  0.013260839          234 
 1520000   0.64957465   -7.8737335    262.61994  0.014398023  0.013248616          195 
 1521000   0.63627894   -7.8735702    262.45856  0.014379715   0.01323642          202 
 1522000   0.63015086   -7.8750068    262.57986  0.014376909  0.013224218          362 
 1523000   0.64774029   -7.8914691    262.36314   0.01435561  0.013212031          190 
 1524000   0.64445097   -7.9053559    262.21065  0.014337852  0.013199882          273 
 1525000    0.6349687    -7.899307    262.65984  0.014352997   0.01318772          250 
 1526000    0.6369478   -7.9057985    261.95383  0.014305037  0.013175566          331 
 1527000   0.64243324   -7.9073198    262.01491  0.014299002  0.013163395          151 
 1528000   0.63863644   -7.9009815    262.18562  0.014298954  0.013151245          227 
 1529000   0.63514885   -7.8848525     262.0345  0.014281366  0.013139137          321 
 1530000   0.63016944   -7.9168638    262.21991   0.01428213  0.013127007          183 
 1531000    0.6491766   -7.9151795    261.82572  0.014251346  0.013114886          191 
 1532000   0.64097535   -7.9022426    262.42087  0.014274417  0.013102779          238 
 1533000   0.63832374   -7.9013056    262.36631  0.014262139  0.013090723          170 
 1534000   0.65983663   -7.9071859    262.55757  0.014263232  0.013078676          184 
 1535000   0.65035624   -7.8923814    262.59478   0.01425596  0.013066645          245 
 1536000   0.65392393   -7.9260557    262.83227  0.014259563  0.013054621          182 
 1537000   0.64051735   -7.8944907    262.46945  0.014230614  0.013042617          200 
 1538000   0.62942773   -7.9140732    262.15926  0.014204555  0.013030605          166 
 1539000   0.64346001   -7.9097797    261.62105  0.014166182  0.013018617          314 
 1540000   0.64528208   -7.9111221    262.94053  0.014228384  0.013006659          296 
 1541000    0.6241113   -7.8984307    262.43059  0.014191574  0.012994692          219 
 1542000   0.63052093   -7.9097303    262.39866  0.014180645  0.012982734          266 
 1543000    0.6454362   -7.9077437    262.53198  0.014178655  0.012970809          173 
 1544000   0.62931127   -7.9017424    261.40977  0.014108904  0.012958885          168 
 1545000   0.62605093   -7.9146064    261.74964  0.014118104  0.012946943          210 
 1546000   0.62713368   -7.9238917    262.57438  0.014153427  0.012935003          208 
 1547000   0.64632262   -7.9138499    262.17489  0.014122759  0.012923074          208 
 1548000    0.6369456   -7.9280672     261.8777  0.014097637  0.012911183          249 
 1549000   0.64132079   -7.9067799    262.39199  0.014116204  0.012899277          169 
 1550000   0.62875778   -7.9438339    261.94579  0.014083107  0.012887376          157 
 1551000   0.64920566   -7.9280585    262.33095  0.014094721  0.012875487          306 
 1552000   0.64673816   -7.9176841     262.6401  0.014102239  0.012863617          209 
 1553000   0.62598851   -7.9317864    261.57519  0.014036016  0.012851737          172 
 1554000    0.6239147   -7.9253278    262.17585  0.014059194  0.012839862          190 
 1555000   0.62410531    -7.940458    261.49164  0.014013485  0.012828035          161 
 1556000    0.6248523   -7.9349521     261.6251  0.014011627  0.012816203          283 
 1557000   0.63167073   -7.9221712    262.42133  0.014045244  0.012804388          148 
 1558000   0.63060527   -7.9459277    262.17311  0.014022952  0.012792566          319 
 1559000    0.6373309   -7.9348453     261.6293  0.013984889  0.012780765          154 
 1560000   0.62247692   -7.9279375    262.02938  0.013997296   0.01276899          177 
 1561000    0.6189268   -7.9185907    262.01645  0.013987639   0.01275722          316 
 1562000   0.63353076   -7.9278876    261.91839  0.013973452  0.012745469          160 
 1563000   0.62966679   -7.9175236    262.44712  0.013992702  0.012733738          194 
 1564000   0.63060191   -7.9262159    262.06004  0.013963131  0.012722052          178 
 1565000   0.63331288   -7.9391118    262.46458   0.01397575  0.012710369          143 
 1566000   0.62445906   -7.9282738     262.6729  0.013977911  0.012698691          155 
 1567000   0.62296694   -7.9398133    262.24535  0.013946253  0.012687013          332 
 1568000   0.61913412   -7.9471877       261.66   0.01390625   0.01267533          180 
 1569000   0.64165135   -7.9540123    261.64283  0.013896475  0.012663662          198 
 1570000   0.62892248   -7.9165751     262.0609  0.013909814  0.012652007          244 
 1571000    0.6270264   -7.9435795    262.45221  0.013921717  0.012640359          199 
 1572000   0.63049643   -7.9562389    262.11403  0.013894934  0.012628727          211 
 1573000   0.63340797    -7.921676     262.3432  0.013898241  0.012617124          363 
 1574000   0.62501624   -7.9543926    261.65689  0.013853075  0.012605526          157 
 1575000   0.61513559   -7.9464667    262.63955  0.013896272  0.012593918          162 
 1576000   0.63107564    -7.932158    262.28337  0.013868622  0.012582334          195 
 1577000   0.61323118   -7.9363939    262.25897  0.013858538  0.012570759          234 
 1578000   0.61398706   -7.9396664    261.77053  0.013823961  0.012559207          240 
 1579000    0.6134428   -7.9625193    261.76866  0.013815108  0.012547636          224 
 1580000   0.61175843    -7.956805    261.94603  0.013815719  0.012536095          207 
 1581000   0.61588484   -7.9774574    261.52827   0.01378496   0.01252452          169 
 1582000   0.61674917   -7.9639382     261.4157  0.013770317  0.012512958          201 
 1583000   0.62172028   -7.9737715    261.51964   0.01376709  0.012501395          291 
 1584000   0.62701441   -7.9691992    261.26988  0.013745259  0.012489848          384 
 1585000   0.62704288   -7.9513895    261.60616  0.013754267  0.012478313          256 
 1586000   0.61399615   -7.9493505    261.86442  0.013759165  0.012466822          340 
 1587000   0.61750165    -7.967965    260.80929   0.01369509  0.012455315          188 
 1588000   0.61959174   -7.9708506    261.41258  0.013718124  0.012443837          260 
 1589000    0.6232615   -7.9523882    261.90796  0.013735471  0.012432383          343 
 1590000   0.62205421   -7.9769544    261.35748  0.013697981  0.012420927          223 
 1591000   0.61105621   -7.9538814    261.49945  0.013696807  0.012409461          289 
 1592000   0.60946576   -7.9433923    261.70681  0.013699058  0.012398014          122 
 1593000   0.62126886   -7.9745171    261.59052  0.013684376  0.012386561          154 
 1594000   0.61594709   -7.9537848    261.73467  0.013683327  0.012375145          272 
 1595000   0.61215731   -7.9834053    261.26256  0.013650082  0.012363744          145 
 1596000   0.61903158   -7.9817217    261.67982  0.013663316  0.012352356          261 
 1597000   0.61208471   -7.9863895    261.27835  0.013633811  0.012340955          294 
 1598000   0.61908045   -7.9829244    261.52889  0.013638344  0.012329564          279 
 1599000   0.61778137   -7.9724228    261.18243  0.013611759  0.012318168          168 
 1600000   0.61617974   -7.9642655    261.92775   0.01364207  0.012306806          150 
 1601000    0.6162764   -7.9943133    261.55944  0.013614378   0.01229547          160 
 1602000   0.60041059   -7.9885767    260.81301  0.013567052  0.012284135          235 
 1603000   0.62932535   -7.9785801    261.18594  0.013577976  0.012272817          168 
 1604000   0.61169901   -7.9882408    261.29613  0.013575235  0.012261501          256 
 1605000   0.59772315   -7.9775516    261.71069  0.013588302  0.012250197          122 
 1606000   0.60742814   -7.9684192    261.43715  0.013565647   0.01223892          146 
 1607000   0.61253115   -7.9632651    261.76584   0.01357425  0.012227642          228 
 1608000   0.60375283   -7.9883314    261.95841  0.013575788  0.012216399          220 
 1609000   0.60829992   -7.9523782    261.56751  0.013547106  0.012205164          215 
 1610000   0.62679873   -7.9829955    261.20168  0.013519756  0.012193938          268 
 1611000   0.61581318    -7.976226    261.02042  0.013501988  0.012182727          117 
 1612000   0.62929322   -8.0020932     261.2565  0.013505816  0.012171506          276 
 1613000   0.61888099   -8.0008811    262.11155  0.013541617  0.012160301          133 
 1614000   0.61627611   -7.9833933    261.18972  0.013485632  0.012149112          151 
 1615000   0.61448363     -8.01485    261.32336  0.013484177  0.012137941          258 
 1616000   0.61662804   -7.9801081      261.351  0.013477259   0.01212679          138 
 1617000   0.59418075   -8.0107769    261.23375  0.013462881  0.012115657          167 
 1618000   0.60288095   -7.9866226    261.66961  0.013477009  0.012104532          264 
 1619000   0.60311981   -8.0065628    261.56156  0.013463123   0.01209342          159 
 1620000   0.62339856   -8.0008697     261.4426  0.013448693  0.012082313          178 
 1621000   0.60608974   -7.9733124     261.0942  0.013422486   0.01207125          207 
 1622000   0.59763062    -7.982295    260.95529  0.013407074  0.012060198          253 
 1623000   0.61647018   -7.9810893    261.42108   0.01342273  0.012049147          188 
 1624000   0.60300033   -7.9951777    261.50047  0.013418538  0.012038091          305 
 1625000   0.60718456   -7.9646681    261.57648  0.013414179  0.012027074          233 
 1626000   0.59508617   -8.0257977    261.32633  0.013393108  0.012016052          151 
 1627000   0.59037559   -8.0146839    261.54287  0.013395968  0.012005018          301 
 1628000   0.60794826   -7.9986359    261.42736  0.013381826     0.011994          183 
 1629000    0.6009462   -7.9990091    261.37489  0.013370927  0.011982984          281 
 1630000   0.61371667    -7.990831    261.14669  0.013351058  0.011971981          149 
 1631000   0.60803374    -7.999252    261.23852  0.013347564  0.011960991          172 
 1632000   0.61397438   -7.9771015    261.02184  0.013328321  0.011950043          200 
 1633000   0.60552073   -7.9939983    261.07181  0.013322709  0.011939081          173 
 1634000   0.59209162   -8.0057948     260.6666   0.01329389  0.011928115          154 
 1635000   0.61029951   -8.0053456     261.3346  0.013319806  0.011917175          246 
 1636000   0.60699126    -7.993409    261.55386  0.013322833  0.011906249          192 
 1637000   0.59892971   -8.0148087    260.97707  0.013285332  0.011895337          151 
 1638000   0.60604769   -8.0058839    261.47286  0.013302445  0.011884425          239 
 1639000   0.59925009   -8.0028221    260.89702  0.013265051  0.011873535          137 
 1640000   0.60616295   -8.0040601    261.02584  0.013263508  0.011862659          163 
 1641000     0.581898   -7.9868376    261.04732  0.013256516  0.011851795          134 
 1642000   0.59454743   -7.9879801    260.89313  0.013240618  0.011840932          300 
 1643000   0.59157456     -8.00657    261.10936  0.013243526  0.011830095          172 
 1644000   0.59277645   -8.0213076    261.23683  0.013241932  0.011819271          302 
 1645000   0.58667275   -8.0063998    261.35361  0.013239798  0.011808441          293 
 1646000   0.60301105   -8.0025144    261.01895  0.013214811  0.011797629          186 
 1647000   0.57236596   -8.0191782    261.43373  0.013227774  0.011786837          261 
 1648000   0.58750297   -7.9870614    260.98285  0.013196948  0.011776052          266 
 1649000   0.58760615   -8.0050547    261.25816  0.013202858  0.011765272          241 
 1650000   0.60110941   -8.0129787     261.3005  0.013196995  0.011754512          156 
 1651000   0.60086822   -8.0166347    261.29741  0.013188846   0.01174377          193 
 1652000   0.59446986   -8.0106356    261.16935  0.013174402  0.011733063          159 
 1653000   0.59174586   -8.0236418    261.14912  0.013165413  0.011722342          164 
 1654000   0.60490396   -8.0161191    260.73719  0.013136699  0.011711646          206 
 1655000   0.58748651    -8.009135     261.2264  0.013153394  0.011700937          272 
 1656000   0.59144305   -8.0328232    260.85267  0.013126644  0.011690242          262 
 1657000   0.59091398   -8.0252442    261.14619  0.013133484  0.011679562          327 
 1658000   0.58465173   -8.0243744    260.91806  0.013114096  0.011668884          153 
 1659000   0.59275993   -8.0106701    261.04933  0.013112785   0.01165823          366 
 1660000   0.58543047   -7.9993691    260.88459  0.013096616  0.011647579          170 
 1661000   0.59601086   -8.0191219    260.77153  0.013083059  0.011636965          185 
 1662000   0.58950059   -8.0125252    260.77804  0.013075514  0.011626363          211 
 1663000   0.59753601   -7.9971027    260.93457  0.013075495   0.01161576          378 
 1664000   0.59131301   -8.0125247    260.80414  0.013061105  0.011605167          180 
 1665000   0.58777372   -8.0210586    260.98075    0.0130621  0.011594572          162 
 1666000   0.59414416   -8.0182865    261.26355  0.013068405  0.011584007          353 
 1667000   0.58000172   -8.0152685    261.47619  0.013071195  0.011573437          256 
 1668000   0.58958635   -8.0286786    261.03942  0.013041538  0.011562891          208 
 1669000   0.58909097   -8.0360484    260.97053  0.013030284  0.011552365          315 
 1670000   0.59100518    -8.006322     261.1848  0.013033174  0.011541834          208 
 1671000   0.57562336   -8.0486383    260.09481  0.012971016  0.011531316          332 
 1672000    0.5994187   -8.0133194    260.84953  0.013000874  0.011520811          254 
 1673000   0.59579535   -8.0164522    261.04947  0.013003062  0.011510322          342 
 1674000   0.58095783   -8.0181277    260.97686   0.01299168  0.011499846          210 
 1675000   0.57743257    -8.037699    261.14579  0.012992328  0.011489376          320 
 1676000    0.5867271   -8.0269469    260.86409  0.012970569   0.01147891          208 
 1677000   0.58441054   -8.0152495    260.65654  0.012952521  0.011468469          333 
 1678000   0.57683818   -8.0195085    261.10625  0.012967136  0.011458016          262 
 1679000   0.57747444   -8.0207466    260.85506  0.012946946  0.011447567          331 
 1680000   0.57884121   -8.0381378    260.91762  0.012942342  0.011437141          209 
 1681000   0.58448606   -8.0345104    260.63465  0.012920615  0.011426731          305 
 1682000   0.59622977   -8.0221051    260.59259   0.01291085   0.01141632          341 
 1683000   0.57887944   -8.0275425    260.86068  0.012916453  0.011405929          368 
 1684000   0.58696899   -8.0469467    260.78267  0.012904922  0.011395541          370 
 1685000   0.58753014   -8.0484936    260.04387  0.012860725  0.011385152          437 
 1686000   0.58767247   -8.0415993    260.25465  0.012863516  0.011374775          360 
 1687000   0.58008967   -8.0372679    260.87189  0.012886381  0.011364411          337 
 1688000   0.57426952   -8.0381198    260.58936  0.012864799  0.011354078          236 
 1689000    0.5974285   -8.0384123    260.68201  0.012861753  0.011343757          180 
 1690000   0.57774464   -8.0395599    259.80913  0.012811101  0.011333419          360 
 1691000   0.57967706   -8.0504924     260.4315  0.012834196  0.011323102          418 
 1692000   0.57915937    -8.044954    260.55127  0.012832509   0.01131281          437 
 1693000   0.57427309   -8.0376156    260.55052  0.012824893  0.011302507          375 
 1694000   0.59276145   -8.0675548    260.21872     0.012801  0.011292222          166 
 1695000   0.56974094   -8.0486555      260.454  0.012805015  0.011281956          164 
 1696000   0.58262438   -8.0475355    260.60653  0.012804959  0.011271686          385 
 1697000   0.57257971   -8.0540967    260.54815  0.012794547   0.01126143          398 
 1698000   0.57376605   -8.0333594    260.60671  0.012789886  0.011251192          406 
 1699000   0.57864202   -8.0543135    260.74232  0.012789009  0.011240984          218 
 1700000   0.56663073   -8.0289217    260.10716  0.012750351  0.011230783          353 
 1701000   0.57727013   -8.0542803     260.3343  0.012753983  0.011220575          354 
 1702000   0.57721274   -8.0586268    260.60331  0.012759661  0.011210381          197 
 1703000   0.58110326   -8.0590228    260.30124  0.012737387   0.01120018          412 
 1704000   0.56981357   -8.0464114    260.45199  0.012737284  0.011189999          185 
 1705000   0.57410028    -8.058097    260.53865  0.012734049  0.011179843          416 
 1706000   0.58545785   -8.0596494    260.16406  0.012708287  0.011169696          418 
 1707000   0.57121152   -8.0644857    260.52193  0.012718313  0.011159557          417 
 1708000   0.57572841   -8.0678614    260.32503   0.01270126  0.011149426          417 
 1709000   0.56955125     -8.05932    260.42814  0.012698856  0.011139308          238 
 1710000    0.5756442    -8.063746    260.20537  0.012680573  0.011129208          385 
 1711000   0.58102089   -8.0435465    260.47279  0.012686187  0.011119108          376 
 1712000   0.57540573   -8.0534458    260.62695   0.01268628  0.011109034          329 
 1713000   0.56706607   -8.0675594    260.58049  0.012676615  0.011098943          328 
 1714000     0.574807   -8.0530628    260.53158  0.012666841  0.011088868          361 
 1715000   0.56565618   -8.0680688     260.3467  0.012650471  0.011078799          393 
 1716000   0.58031913   -8.0856357    260.32972  0.012642275  0.011068746          233 
 1717000   0.56727328    -8.073656    259.88655  0.012613403   0.01105869          404 
 1718000   0.54592631   -8.0561756    260.15128  0.012618902  0.011048653          217 
 1719000   0.57241686   -8.0775006     259.7612  0.012592651  0.011038631          373 
 1720000   0.57264418   -8.0592043    260.55856  0.012623961  0.011028614          266 
 1721000   0.57072442   -8.0864113       259.96  0.012587643  0.011018612          355 
 1722000   0.56087604   -8.0748166    260.18292  0.012591121  0.011008629          399 
 1723000    0.5704878   -8.0660191    260.04794  0.012577285   0.01099866          245 
 1724000   0.55829343   -8.0586415     260.1474  0.012574797  0.010988685          362 
 1725000   0.54731007   -8.0761714    260.44826  0.012582042  0.010978738          332 
 1726000    0.5701962   -8.0753939    260.39069  0.012571972  0.010968801          152 
 1727000   0.55879562   -8.0662818    260.30887  0.012560744  0.010958877          357 
 1728000   0.55953327    -8.077528    259.92335  0.012534884  0.010948953          201 
 1729000    0.5585303   -8.0992528    260.10343  0.012536314  0.010939026          334 
 1730000    0.5619555   -8.0753853    260.08356   0.01252811   0.01092911          222 
 1731000   0.55728908   -8.0843885    259.90514  0.012512283  0.010919211          169 
 1732000   0.55645545   -8.0744111    260.35118  0.012526519  0.010909314          402 
 1733000   0.55600256    -8.075107     260.0505  0.012504833  0.010899433          310 
 1734000   0.56142975   -8.0975675    259.97752  0.012494114  0.010889574          199 
 1735000   0.54302923   -8.0735337    259.87549  0.012482012  0.010879713          389 
 1736000    0.5525567   -8.0729021    260.08215  0.012484742  0.010869871          422 
 1737000   0.55994972   -8.0789535     260.4447  0.012494948   0.01086005          199 
 1738000    0.5553096   -8.1033254    259.99218  0.012466062  0.010850223          443 
 1739000   0.55430901   -8.0900328    259.41993   0.01243147  0.010840395          165 
 1740000    0.5590483   -8.0913049    260.17096  0.012460295  0.010830575          228 
 1741000   0.56060576   -8.0845314       260.16  0.012452613  0.010820779          204 
 1742000   0.55314229   -8.0850823    259.75303  0.012425997  0.010810995          292 
 1743000    0.5608952   -8.0885455    259.95749  0.012428643  0.010801222          367 
 1744000   0.55313495   -8.0752569    259.79504  0.012413754   0.01079145          205 
 1745000   0.55362451   -8.1074165    260.10428  0.012421408  0.010781691          398 
 1746000   0.54820841   -8.0923927      259.688  0.012394425  0.010771944          193 
 1747000   0.55432625   -8.0912321    259.68039  0.012386968  0.010762199          188 
 1748000   0.55494056   -8.0661737    259.62874  0.012377419  0.010752471          192 
 1749000    0.5503651   -8.0963336    259.98844  0.012387481  0.010742754          266 
 1750000   0.56310112   -8.1007644    259.47398  0.012355904  0.010733061          413 
 1751000   0.56639883   -8.0981686    259.76768  0.012362825  0.010723354          415 
 1752000   0.54136606   -8.0866363    259.47592  0.012341891  0.010713669          299 
 1753000   0.54648866   -8.0952354      259.661  0.012343649  0.010703982          239 
 1754000   0.55572892   -8.0852382    259.70371  0.012338641  0.010694316          203 
 1755000   0.54565937   -8.0964845    260.04061  0.012347607  0.010684653          197 
 1756000   0.55325249   -8.0980255    259.50296  0.012315061  0.010674994          232 
 1757000   0.53658198   -8.1073455    259.69487  0.012317154  0.010665349          256 
 1758000   0.54732591   -8.1038852    259.64338  0.012307707  0.010655718          227 
 1759000   0.55390658   -8.0789237    259.75846  0.012306162  0.010646105          363 
 1760000   0.54673814   -8.0814035    259.84426  0.012303232  0.010636504          218 
 1761000   0.55814191   -8.0943457      260.263  0.012316061  0.010626925          373 
 1762000   0.53811784   -8.0826536    259.56728  0.012276167  0.010617354          271 
 1763000   0.54915325   -8.0853464    259.58577  0.012270078  0.010607788          266 
 1764000   0.55619924   -8.0912188    260.01764  0.012283524  0.010598226          194 
 1765000   0.54775064   -8.0925284    259.36465  0.012245734   0.01058868          195 
 1766000   0.54855234   -8.0844655    260.04602  0.012270952  0.010579134          212 
 1767000   0.54506074   -8.0947956    259.43723  0.012235297  0.010569614          368 
 1768000   0.53635208    -8.091539    260.05187  0.012257347  0.010560092          207 
 1769000   0.55299471   -8.1149712    259.79436  0.012238287  0.010550593          395 
 1770000   0.54153545   -8.0975094    259.55482  0.012220095  0.010541095          416 
 1771000   0.54863291    -8.112728     259.5936   0.01221502    0.0105316          407 
 1772000   0.54316107   -8.0853646    259.56983  0.012207009  0.010522121          237 
 1773000   0.54050331   -8.1057103    259.44201  0.012194116  0.010512651          457 
 1774000   0.53266158   -8.0926122     259.5512  0.012192371  0.010503202          230 
 1775000   0.54986067   -8.1063967    259.54363  0.012185147  0.010493762          186 
 1776000   0.52559588   -8.1141575    259.63987  0.012182802  0.010484311          375 
 1777000   0.53534201    -8.125484    259.32688  0.012161268  0.010474873          161 
 1778000   0.55419334   -8.1169586    259.85598  0.012179227  0.010465462          398 
 1779000   0.53563228   -8.1070586    259.70107  0.012165124  0.010456051          262 
 1780000   0.54460186   -8.1066349    259.92063  0.012168569   0.01044666          453 
 1781000   0.55051902   -8.0957371    259.72935  0.012152786  0.010437278          301 
 1782000    0.5388535   -8.0940417    259.43248  0.012132084   0.01042791          427 
 1783000   0.54575111   -8.0970192    259.26225  0.012117323   0.01041855          433 
 1784000   0.54278155   -8.1107182    259.51184   0.01212219    0.0104092          235 
 1785000    0.5352819   -8.1314641    259.77533    0.0121277  0.010399855          207 
 1786000   0.55003519   -8.1192057    259.51824  0.012108914  0.010390523          384 
 1787000   0.53978578   -8.1175093    259.23252  0.012088814  0.010381201          203 
 1788000   0.53745877   -8.1126416    259.03721   0.01207295  0.010371888          379 
 1789000   0.54023477   -8.1101478    259.60269  0.012092542  0.010362583          251 
 1790000   0.54620093   -8.1130582    259.69476  0.012090073  0.010353303          414 
 1791000   0.54301441   -8.1129948    259.14852  0.012057906  0.010344011          426 
 1792000   0.54866173   -8.1222565    259.47602  0.012066407  0.010334743          409 
 1793000   0.53918324   -8.1411845    259.50282  0.012060923   0.01032549          475 
 1794000   0.53260317   -8.1244966    259.41961  0.012050335  0.010316239          488 
 1795000   0.52147775   -8.1040674    259.41761  0.012043529  0.010306996          543 
 1796000   0.52816101   -8.1215326    259.13092  0.012023521   0.01029776          428 
 1797000   0.53315533   -8.1264479    259.60989  0.012039042  0.010288542          463 
 1798000   0.52946307    -8.128427    259.15673  0.012011343  0.010279322          209 
 1799000   0.53971698   -8.1274726    259.90024  0.012039107  0.010270114          455 
 1800000   0.52609166   -8.1196479    259.66477  0.012021517  0.010260922          493 
 1801000   0.54209099   -8.1209956    259.50771  0.012007575  0.010251747          438 
 1802000   0.53229058   -8.1245189    259.41845  0.011996783  0.010242587          190 
 1803000    0.5352253   -8.1361197    259.24632  0.011982174  0.010233428          298 
 1804000   0.54393344   -8.1206483    259.44755  0.011984828  0.010224273          240 
 1805000   0.53374322   -8.1282558    259.16522  0.011965153  0.010215132          428 
 1806000   0.53475673   -8.1093071    259.52377  0.011975073  0.010205998          215 
 1807000   0.54525157    -8.109949    259.55424   0.01196985  0.010196874          412 
 1808000   0.52774624   -8.1454742    259.42561  0.011957301  0.010187763          297 
 1809000   0.53357235   -8.1258886    259.10986  0.011936146  0.010178647          231 
 1810000   0.52859508    -8.139397    259.01878  0.011925358  0.010169553          523 
 1811000   0.53023883   -8.1489187     259.2384  0.011928879  0.010160478          230 
 1812000   0.53054051   -8.1350169     259.3161  0.011925869  0.010151409          267 
 1813000   0.52412704   -8.1276668    258.70538   0.01189122  0.010142354          441 
 1814000   0.52730069   -8.1321396    259.13153  0.011904242  0.010133296          263 
 1815000   0.51576734   -8.1461056    258.87671  0.011885983  0.010124247          453 
 1816000   0.53015447    -8.143323    258.93995   0.01188234  0.010115217          402 
 1817000   0.53578721   -8.1348395    259.00364  0.011878721  0.010106205          197 
 1818000   0.52490411   -8.1411148    259.26787  0.011884299  0.010097201          245 
 1819000   0.52686708   -8.1485307    259.11106  0.011870582  0.010088207          451 
 1820000   0.52489415   -8.1181422    258.87892   0.01185343  0.010079222          226 
 1821000   0.52397855   -8.1474338    259.13588   0.01185868  0.010070254          242 
 1822000   0.51814434   -8.1338972     259.3377  0.011861402  0.010061281          237 
 1823000   0.51636888   -8.1656356    258.99457   0.01183921  0.010052313          255 
 1824000   0.52813861   -8.1302241    258.90752  0.011828743  0.010043362          402 
 1825000   0.53353208    -8.151413    259.45845  0.011847418  0.010034416          471 
 1826000   0.51322454   -8.1600811    259.01029  0.011820477  0.010025477          250 
 1827000   0.51613238    -8.144962    259.32195  0.011828223  0.010016557          234 
 1828000   0.52312621    -8.142286    259.12134  0.011812607  0.010007647          277 
 1829000   0.52325707   -8.1560647    259.53322  0.011824915 0.0099987472          391 
 1830000   0.53542772   -8.1596448    258.89455  0.011789369  0.009989855          376 
 1831000   0.52688806   -8.1456865    258.84667  0.011780752 0.0099809656          468 
 1832000   0.51721305   -8.1347506    259.12345  0.011786911 0.0099720972          201 
 1833000   0.52112172   -8.1438523    258.89964  0.011770305 0.0099632446          338 
 1834000   0.52475771   -8.1555084    259.14029  0.011774822 0.0099543951          381 
 1835000   0.51499698   -8.1630862    259.26562  0.011774097 0.0099455506          231 
 1836000   0.51976279   -8.1364866    258.56035  0.011735673 0.0099367208          214 
 1837000   0.52828673   -8.1331731    259.01551  0.011749933 0.0099278988          215 
 1838000   0.52847594   -8.1338841     258.7306  0.011730622 0.0099190926          390 
 1839000   0.51947584   -8.1534017    258.95855  0.011734572 0.0099103019          419 
 1840000   0.52581973   -8.1262007    259.03902   0.01173184  0.009901521          209 
 1841000   0.51873461   -8.1658982    258.97786  0.011722699 0.0098927503          226 
 1842000   0.52489155   -8.1509158    259.05653  0.011719894 0.0098839991          403 
 1843000   0.51050866   -8.1504825    258.30284  0.011679455 0.0098752387          257 
 1844000   0.51080071   -8.1572432    258.63011  0.011687912 0.0098664898          424 
 1845000   0.51025819   -8.1374678    259.28565  0.011711185 0.0098577573          400 
 1846000   0.50878103   -8.1821685    258.99462  0.011691704 0.0098490186          244 
 1847000   0.52083435   -8.1462036    259.28923  0.011698666 0.0098402954          225 
 1848000   0.50600256   -8.1718277    258.63149  0.011662675 0.0098315762          218 
 1849000   0.51600658    -8.132885    259.30091  0.011686538 0.0098228776          379 
 1850000   0.50848639   -8.1594123    259.11527  0.011671859 0.0098141877          241 
 1851000   0.51262886   -8.1662632    258.92367  0.011656927 0.0098055109          389 
 1852000   0.51034242   -8.1514154      258.731  0.011641964 0.0097968453          250 
 1853000   0.50937194   -8.1539183    258.73096  0.011635679 0.0097881864          252 
 1854000   0.52392131   -8.1711454    258.91859  0.011637837 0.0097795452          213 
 1855000    0.5117358   -8.1782922      258.934  0.011632255 0.0097709062          242 
 1856000   0.51313647   -8.1614902    259.09972  0.011633428 0.0097622835          283 
 1857000   0.51241999    -8.156206    259.25806  0.011634269 0.0097536553          286 
 1858000   0.50920913   -8.1665384     258.6286  0.011599776 0.0097450409          263 
 1859000    0.5165746    -8.159076    258.86543  0.011604152 0.0097364315          250 
 1860000   0.50007375   -8.1653548    258.65144  0.011588326 0.0097278327          216 
 1861000   0.50540927   -8.1775132    259.03921  0.011599463 0.0097192429          226 
 1862000    0.5022318   -8.1509961    259.40849  0.011609761 0.0097106657          499 
 1863000   0.51354003   -8.1655838    258.79975  0.011576299 0.0097021008          464 
 1864000   0.51238258   -8.1614872    259.22607  0.011589149 0.0096935422          236 
 1865000   0.50821577   -8.1407894    258.84935  0.011566101 0.0096849936          445 
 1866000   0.50808885   -8.1828006    258.97179  0.011565371  0.009676456          214 
 1867000   0.51567982   -8.1724445    258.49863  0.011538057  0.009667932          369 
 1868000   0.50270197   -8.1652444    259.01819  0.011555059 0.0096594146          222 
 1869000   0.51652682   -8.1702154    258.80575  0.011539404 0.0096509096          271 
 1870000   0.50191161    -8.182574    259.14559  0.011548378 0.0096424099          388 
 1871000   0.51703774   -8.1870935    258.57027  0.011516581 0.0096339208          417 
 1872000   0.49708866    -8.171619    258.31519  0.011499074 0.0096254488          264 
 1873000   0.50591185    -8.175832    258.65057  0.011507856 0.0096169833          450 
 1874000   0.49688364    -8.169201     258.7349  0.011505465 0.0096085221          443 
 1875000   0.50320631   -8.1735661    258.80515  0.011502451 0.0096000701          256 
 1876000   0.50098737   -8.1704097    258.57219  0.011485972  0.009591635          402 
 1877000   0.50496312   -8.1658477    258.80146  0.011490031 0.0095832106          248 
 1878000   0.50301557   -8.1851026    258.69381  0.011479136 0.0095747934          213 
 1879000   0.49921598   -8.1812231    258.29492  0.011455336 0.0095663779          456 
 1880000   0.50658953   -8.1695917    258.96177  0.011478802 0.0095579715          244 
 1881000   0.50037254   -8.1777703    258.73372  0.011462596 0.0095495791          232 
 1882000   0.49928223   -8.1860926    258.17348  0.011431699  0.009541201          258 
 1883000   0.50226178   -8.1826651    258.37089  0.011434364 0.0095328193          202 
 1884000   0.50295318   -8.1888885    258.83563  0.011448851 0.0095244517          228 
 1885000   0.49859572   -8.1662966    258.11734  0.011411023 0.0095160987          227 
 1886000   0.50315924   -8.1673373    258.80239  0.011435242  0.009507759          381 
 1887000   0.50485538   -8.1834111    258.89832  0.011433418 0.0094994177          210 
 1888000   0.49882752   -8.1795898    258.78608  0.011422408 0.0094910842          454 
 1889000   0.50083839   -8.1830927     258.4391  0.011401054 0.0094827634          389 
 1890000   0.49379071   -8.1840391    258.80304  0.011411069 0.0094744543          245 
 1891000   0.49275956   -8.1858422    258.47638  0.011390639 0.0094661533          195 
 1892000   0.50649444   -8.1831792    258.59894  0.011390017 0.0094578508          235 
 1893000   0.49586523   -8.1968101    258.72764  0.011389665 0.0094495644          213 
 1894000   0.48493674   -8.1877106    258.72111  0.011383364 0.0094412888          232 
 1895000   0.50162306   -8.1825326    258.83307  0.011382281 0.0094330243          202 
 1896000   0.50616556   -8.1743401    258.94724  0.011381296 0.0094247652          379 
 1897000   0.49384073   -8.2051613    258.42388  0.011352305 0.0094165096          222 
 1898000   0.48320417   -8.1963334    258.47194  0.011348434 0.0094082666          227 
 1899000   0.48680105   -8.1847595      258.768   0.01135545 0.0094000318          201 
 1900000   0.49171626   -8.1815155    258.96757  0.011358227 0.0093918103          399 
 1901000    0.4938342   -8.1829148    258.69694  0.011340388 0.0093835919          211 
 1902000   0.50247963   -8.1968496    258.87181  0.011342088 0.0093753886          258 
 1903000   0.48430394   -8.1909401    258.46924  0.011318499 0.0093671949          249 
 1904000   0.49298709   -8.1985033    258.35262   0.01130745 0.0093590077          193 
 1905000   0.49811778   -8.1882036    258.54638   0.01130999 0.0093508304          393 
 1906000   0.48147965   -8.1702652    258.59147  0.011306028 0.0093426571          222 
 1907000   0.48286382   -8.1781289    258.71488  0.011305492  0.009334504          275 
 1908000   0.48993803   -8.1971927    258.36974  0.011284492 0.0093263564          227 
 1909000   0.49933496   -8.1802085    258.46065   0.01128255 0.0093182221          199 
 1910000   0.50008082   -8.1970434    258.48612  0.011277754  0.009310101          372 
 1911000   0.48971489   -8.1982594    258.88891  0.011289417 0.0093019768          211 
 1912000   0.48599335   -8.1882224    258.53234  0.011267972  0.009293863          266 
 1913000   0.48602299   -8.1886297    258.65652  0.011267491 0.0092857642          366 
 1914000   0.50316289   -8.1976316    259.10108   0.01128096  0.009277672          429 
 1915000   0.49435901   -8.2056693    258.56991  0.011251955 0.0092695853          361 
 1916000   0.48860779   -8.2125856    258.07625  0.011224611  0.009261513          242 
 1917000      0.48519   -8.2129909     258.0645  0.011218245 0.0092534471          190 
 1918000   0.48434252   -8.1940698    258.16637  0.011216822 0.0092453879          209 
 1919000    0.4783032   -8.1973975    258.22859  0.011213678 0.0092373341          231 
 1920000   0.48345278   -8.2090556    258.31085  0.011211409 0.0092292816          388 
 1921000   0.49421071   -8.2058552    258.55705  0.011216253 0.0092212438          379 
 1922000   0.49177557   -8.2090534    258.20404  0.011195111 0.0092132128          366 
 1923000   0.49750398    -8.204334     258.2253   0.01119021 0.0092051964          214 
 1924000   0.48537266   -8.2187995    258.54877  0.011198405 0.0091971894          353 
 1925000     0.480338   -8.2100486    258.10036  0.011173176 0.0091891914          201 
 1926000   0.48764208   -8.2164897    258.24777  0.011173753 0.0091811995          255 
 1927000   0.47963378    -8.208595    258.49068  0.011178459 0.0091732139          369 
 1928000   0.48298809   -8.2092572     258.3766   0.01116773 0.0091652302          213 
 1929000   0.48101634    -8.210564    258.49732  0.011167156 0.0091572696          196 
 1930000   0.48645936   -8.2151962     257.8886  0.011135086 0.0091493161          332 
 1931000   0.48859422   -8.1987044     258.3107  0.011147536 0.0091413666          421 
 1932000    0.4822136   -8.2215464    258.15303  0.011134965  0.009133424          418 
 1933000   0.48830246   -8.2166455    258.37011  0.011138563 0.0091254954          370 
 1934000   0.47543405   -8.2081641    258.50768  0.011138731 0.0091175768          256 
 1935000   0.48451383   -8.2103314    258.19462  0.011119493 0.0091096626          233 
 1936000   0.47577678   -8.2309013     257.8925  0.011100744 0.0091017523          189 
 1937000   0.47482454   -8.2260615    258.32688  0.011113702 0.0090938542          206 
 1938000   0.48212657   -8.2081043    258.13488  0.011099711 0.0090859678          329 
 1939000   0.47311653   -8.2211538    258.00319  0.011088327 0.0090781019          206 
 1940000   0.47892673   -8.2138755    257.89388  0.011077916 0.0090702443          447 
 1941000    0.4745485   -8.2107121    258.24452  0.011087263 0.0090623882          211 
 1942000   0.48212477    -8.220732     258.2539  0.011081956  0.009054533          208 
 1943000   0.47927312   -8.2304831    258.22888  0.011075179 0.0090466867          417 
 1944000    0.4742806   -8.2263008     258.4898  0.011080667 0.0090388461          202 
 1945000   0.47572848   -8.2222171    258.38787  0.011070603 0.0090310173          208 
 1946000   0.47346997   -8.2094094    258.03655  0.011049869 0.0090231905          448 
 1947000   0.47708425   -8.2315909     257.6529  0.011027773 0.0090153819          348 
 1948000   0.47702828   -8.2170843    258.28528  0.011049165  0.009007574          365 
 1949000   0.46300809   -8.2232049    258.38775  0.011047877 0.0089997809          379 
 1950000   0.47697787   -8.2291253    258.08878  0.011029435 0.0089919953          220 
 1951000   0.47020113   -8.2350416    258.00013  0.011019995 0.0089842193          353 
 1952000   0.47229766   -8.2294466    258.05379   0.01101664 0.0089764491          227 
 1953000   0.47416958   -8.2223383    258.50918  0.011030431 0.0089686887          191 
 1954000   0.47832677   -8.2264015    257.86656   0.01099738  0.008960937          397 
 1955000   0.47588252   -8.2312241    258.19214  0.011005632 0.0089531907          348 
 1956000   0.47334446    -8.239971    257.75015  0.010981175 0.0089454487          265 
 1957000   0.46515173   -8.2503612    257.89596  0.010981773 0.0089377128          429 
 1958000   0.47769959   -8.2332928    258.18041  0.010988271 0.0089299882          398 
 1959000   0.46983048     -8.21677    258.21182  0.010983998  0.008922279          389 
 1960000   0.47405481   -8.2405497    258.12248  0.010974595 0.0089145725          283 
 1961000   0.47311992   -8.2291392    257.82919  0.010956535 0.0089068766          232 
 1962000   0.46783609   -8.2399751    257.85407  0.010952008 0.0088991851          209 
 1963000   0.46132143   -8.2353905    257.88592  0.010947781 0.0088915121          377 
 1964000   0.46397985   -8.2158453    258.09016  0.010950872 0.0088838385          258 
 1965000   0.46616768   -8.2363079    257.72379  0.010929762 0.0088761801          211 
 1966000   0.47889392   -8.2303487    257.83289  0.010928827 0.0088685299          268 
 1967000   0.47594837   -8.2399994    257.82004  0.010922727 0.0088608999          228 
 1968000   0.47379191   -8.2340858    257.64101  0.010909596 0.0088532632          203 
 1969000   0.46250881    -8.249622    258.02239  0.010920196 0.0088456332          216 
 1970000   0.46742315   -8.2316458    258.01304  0.010914257  0.008838018          236 
 1971000   0.46679381   -8.2507424     258.0197  0.010909001 0.0088304134          403 
 1972000   0.47934121   -8.2423274    257.61998  0.010886578 0.0088228085          200 
 1973000   0.46138445   -8.2362513    257.91494  0.010893518 0.0088152116          430 
 1974000   0.47460738   -8.2345794    257.71248  0.010879453 0.0088076196          226 
 1975000   0.45723134   -8.2519136    258.12342  0.010891283 0.0088000442          349 
 1976000   0.47400055   -8.2410606     257.6843  0.010867253 0.0087924679          416 
 1977000   0.46752284   -8.2558415    257.71457  0.010863032 0.0087849099          341 
 1978000   0.47319713   -8.2409731    257.87617  0.010864348 0.0087773556          385 
 1979000   0.45479993   -8.2435347    257.92769  0.010861028 0.0087698154          381 
 1980000   0.46432517   -8.2383654    257.71894  0.010846757 0.0087622843          205 
 1981000   0.45598693   -8.2504247     257.7763  0.010843694 0.0087547534          405 
 1982000   0.45748302   -8.2426418    257.50596  0.010826857 0.0087472294          265 
 1983000   0.46770727   -8.2388089    257.32333  0.010813722 0.0087397153          243 
 1984000   0.46146211   -8.2403051    258.03149  0.010838016 0.0087322024          207 
 1985000   0.45671215   -8.2496171    257.75495  0.010820947 0.0087247038          439 
 1986000   0.46573272   -8.2428301    257.56142  0.010807377 0.0087172239          244 
 1987000   0.45774787   -8.2581569     257.5084  0.010799715 0.0087097477          456 
 1988000   0.46897779   -8.2660269    257.71978  0.010803143 0.0087022849          467 
 1989000   0.45702101   -8.2514003    257.89587  0.010805089 0.0086948235          491 
 1990000   0.45866929   -8.2503986    258.01145    0.0108045 0.0086873726          253 
 1991000   0.44871061   -8.2633706    257.64115  0.010783574  0.008679926          447 
 1992000   0.46137022   -8.2485367    257.75743  0.010783025 0.0086724861          436 
 1993000   0.46599783   -8.2435571    258.10475  0.010792137 0.0086650619          195 
 1994000   0.45517983   -8.2518204    257.57782  0.010764703 0.0086576446          354 
 1995000   0.45821043   -8.2327827    257.78116  0.010767801 0.0086502318          343 
 1996000    0.4495772   -8.2509105    257.42599  0.010747578 0.0086428259          363 
 1997000   0.45326208    -8.254834    257.45761  0.010743516 0.0086354249          384 
 1998000   0.45638714   -8.2575222    257.68837  0.010747763 0.0086280367          386 
 1999000   0.45721041   -8.2488296    258.16262  0.010762157 0.0086206588          190 
 2000000   0.45494086   -8.2645821    257.38714  0.010724464 0.0086132876          418 
 2001000   0.45070098   -8.2554816    257.43255  0.010720996 0.0086059297          427 
 2002000   0.46149409   -8.2638952    257.69961  0.010726757 0.0085985758          408 
 2003000   0.45141612   -8.2597574    257.42184  0.010709845 0.0085912362          363 
 2004000    0.4540623   -8.2436305    257.46828  0.010706432 0.0085838959          372 
 2005000   0.45582163   -8.2449494      257.363  0.010696717 0.0085765637          464 
 2006000   0.44056223   -8.2602471    257.40365  0.010693073 0.0085692465          449 
 2007000   0.45473989   -8.2526319    257.42138  0.010688481 0.0085619291          386 
 2008000   0.44886799   -8.2650667    257.46281  0.010684878 0.0085546234          402 
 2009000     0.455445   -8.2504219    257.60224  0.010685342 0.0085473174          207 
 2010000   0.45157864   -8.2597205    257.25458  0.010665613 0.0085400267          242 
 2011000   0.46189231   -8.2759621    257.46941  0.010669211 0.0085327419          417 
 2012000   0.45064001   -8.2599198    257.72723  0.010674587 0.0085254616          431 
Loop time of 5287.02 on 48 procs for 2000000 steps with 4000 atoms

Performance: 65367.623 tau/day, 378.285 timesteps/s
99.4% CPU use with 48 MPI tasks x no OpenMP threads

MPI task timing breakdown:
Section |  min time  |  avg time  |  max time  |%varavg| %total
---------------------------------------------------------------
Pair    | 367.99     | 403.53     | 430.96     |  63.4 |  7.63
Neigh   | 37.157     | 38.447     | 40.006     |  10.0 |  0.73
Comm    | 333.85     | 360.56     | 400.78     |  72.3 |  6.82
Output  | 4.8559     | 4.8582     | 4.908      |   0.3 |  0.09
Modify  | 4421.5     | 4429.6     | 4446.1     |   9.5 | 83.78
Other   |            | 50.04      |            |       |  0.95

Nlocal:        83.3333 ave          91 max          76 min
Histogram: 2 1 5 2 14 9 10 2 2 1
Nghost:        2420.19 ave        2442 max        2390 min
Histogram: 2 1 3 6 3 11 7 5 4 6
Neighs:        16822.6 ave       20218 max       15074 min
Histogram: 9 8 10 2 5 6 4 3 0 1
FullNghs:      33644.5 ave       36805 max       30646 min
Histogram: 2 1 5 4 15 10 6 3 1 1

Total # of neighbors = 1614938
Ave neighs/atom = 403.73450
Neighbor list builds = 106631
Dangerous builds = 0

#clear
#
#next RN
#
#jump SELF
Total wall time: 1:28:10
