
units lj                  # Use reduced LJ style units
atom_style atomic         # Uncharged point particles
atom_modify map hash      # Needed for indexing of clusters etc
                          # Used to be able to find where atoms are in relation to each other.

lattice fcc 1.0 spacing 1 1 1
Lattice spacing in x,y,z = 1.5874011 1.5874011 1.5874011
region box block 0 10 0 10 0 10 units lattice
create_box 2 box
Created orthogonal box = (0.0000000 0.0000000 0.0000000) to (15.874011 15.874011 15.874011)
  3 by 4 by 4 MPI processor grid
create_atoms 1 box
Created 4000 atoms
  using lattice units in orthogonal box = (0.0000000 0.0000000 0.0000000) to (15.874011 15.874011 15.874011)
  create_atoms CPU = 0.003 seconds
set type 1 type/fraction 2 0.54 78393
Setting atom values ...
  2170 settings made for type/fraction
mass 1 1.0
mass 2 1.0
pair_style lj/cut  3.5
pair_modify tail  yes
pair_coeff 1  1  1.0  1.0   # Intearaction between 1 and 1 set with epsilon = 1 and sigma = 1
pair_coeff 1  2  1.5  0.8
pair_coeff 2  2  0.5  0.88

write_data data.0
System init for write_data ...
Neighbor list info ...
  update every 1 steps, delay 10 steps, check yes
  max neighbors/atom: 2000, page size: 100000
  master list distance cutoff = 3.8
  ghost atom cutoff = 3.8
  binsize = 1.9, bins = 9 9 9
  1 neighbor lists, perpetual/occasional/extra = 1 0 0
  (1) pair lj/cut, perpetual
      attributes: half, newton on
      pair build: half/bin/atomonly/newton
      stencil: half/bin/3d
      bin: standard
WARNING: Not all mixed pair coeffs generated from mixing. Use write_data with 'pair ij' option to store all pair coeffs. (../write_data.cpp:312)


#############################
#   M E L T   S Y S T E M   #
#############################

velocity all create 2.4 9580093 mom yes dist gaussian # Assign velocities
                                                    # Temperature 2.4, random number seed, zero linear momentum
                                                                                # Gaussian distribution

timestep 0.002   # simulation timestep
thermo 1000       # output thermodynamic data every 1000 steps bf 100

# Define a fix  in this case with index 1 applied to all
# particles in the simulation. This fix is for simulations
# in the anisotropic NPT ensemble. Note that we use the MTK
# correction.
fix 1 all npt temp 2.4 2.4 0.1 iso 5.68 5.68 0.5 mtk yes tchain 5 pchain 5 # Use NPT ensemble
                                                                         # Set temperature and pressure and damping
                                                                         # Numbers of thermostats in chain and in barostat
run 10000          # run for 10000 steps
Per MPI rank memory allocation (min/avg/max) = 3.642 | 3.644 | 3.648 Mbytes
Step Temp E_pair E_mol TotEng Press Volume 
       0          2.4   -5.0605359            0   -1.4614359   -4.1673139         4000 
    1000    2.3795278   -4.7747639            0   -1.2063645    5.5891802    3648.5188 
    2000    2.3756241    -4.748966            0   -1.1864206    5.6361366    3655.7003 
    3000    2.3422122   -4.8015942            0   -1.2891543    5.4874981    3638.6212 
    4000    2.4362978   -4.7777197            0   -1.1241866    5.6499203    3647.6061 
    5000    2.3910794   -4.8165573            0    -1.230835    5.4684017    3630.6466 
    6000    2.4391798   -4.7410522            0   -1.0831971     6.047364    3628.7309 
    7000    2.4099881   -4.7034615            0   -1.0893831    5.8813905    3657.4549 
    8000     2.417383    -4.744171            0    -1.119003    6.0254875    3640.6919 
    9000    2.4429546   -4.7257052            0   -1.0621894    5.8910941    3652.7478 
   10000    2.4272689   -4.7186605            0   -1.0786673    5.8764114    3651.1264 
Loop time of 2.61377 on 48 procs for 10000 steps with 4000 atoms

Performance: 661112.852 tau/day, 3825.885 timesteps/s
99.6% CPU use with 48 MPI tasks x no OpenMP threads

MPI task timing breakdown:
Section |  min time  |  avg time  |  max time  |%varavg| %total
---------------------------------------------------------------
Pair    | 1.1627     | 1.2616     | 1.333      |   2.6 | 48.27
Neigh   | 0.21351    | 0.22322    | 0.23223    |   0.7 |  8.54
Comm    | 0.7848     | 0.8715     | 0.99408    |   3.7 | 33.34
Output  | 0.00024449 | 0.00025061 | 0.00030676 |   0.0 |  0.01
Modify  | 0.2141     | 0.24166    | 0.26253    |   2.6 |  9.25
Other   |            | 0.01552    |            |       |  0.59

Nlocal:        83.3333 ave          95 max          73 min
Histogram: 2 4 7 3 8 11 6 3 3 1
Nghost:        1745.58 ave        1775 max        1729 min
Histogram: 8 6 5 11 6 5 1 4 0 2
Neighs:        10454.0 ave       12209 max        8757 min
Histogram: 2 3 3 9 9 7 9 3 0 3

Total # of neighbors = 501794
Ave neighs/atom = 125.44850
Neighbor list builds = 908
Dangerous builds = 214

# Equilibrate just above the melting temperature to avoid step fn in T

fix 1 all npt temp 1.25 1.25 0.1 iso 5.68 5.68 0.5 mtk yes tchain 5 pchain 5
run 2000
Per MPI rank memory allocation (min/avg/max) = 3.644 | 3.646 | 3.650 Mbytes
Step Temp E_pair E_mol TotEng Press Volume 
   10000    2.4272689   -4.7186605            0   -1.0786673    5.8764114    3651.1264 
   11000    1.2586144      -6.8568            0   -4.9693503     5.633287    2827.5865 
   12000    1.2376666   -6.9450264            0   -5.0889906    5.4632095    2811.7034 
Loop time of 0.64626 on 48 procs for 2000 steps with 4000 atoms

Performance: 534768.881 tau/day, 3094.727 timesteps/s
99.6% CPU use with 48 MPI tasks x no OpenMP threads

MPI task timing breakdown:
Section |  min time  |  avg time  |  max time  |%varavg| %total
---------------------------------------------------------------
Pair    | 0.29753    | 0.31935    | 0.34198    |   1.9 | 49.41
Neigh   | 0.041378   | 0.043269   | 0.045615   |   0.6 |  6.70
Comm    | 0.2075     | 0.23402    | 0.25881    |   2.7 | 36.21
Output  | 5.2135e-05 | 5.3412e-05 | 6.8552e-05 |   0.0 |  0.01
Modify  | 0.040858   | 0.044618   | 0.048342   |   1.0 |  6.90
Other   |            | 0.004958   |            |       |  0.77

Nlocal:        83.3333 ave          90 max          78 min
Histogram: 6 4 5 4 6 12 1 6 2 2
Nghost:        2082.29 ave        2108 max        2062 min
Histogram: 4 6 3 8 6 7 7 4 1 2
Neighs:        13564.6 ave       15071 max       12336 min
Histogram: 3 3 7 4 12 7 8 2 0 2

Total # of neighbors = 651102
Ave neighs/atom = 162.77550
Neighbor list builds = 143
Dangerous builds = 10

#############################
# L I N E A R  Q U E N C H  #
#############################

# Define solid atoms. This closely follows ten Wolde  Ruiz-Montero and Frenkel  Faraday Discuss  1996  104  93-110
# Compute components of the per-atom q6 vector
compute q6 all orientorder/atom degrees 1 6 components 6 nnn NULL cutoff 1.3 # compute the Q6 parameter.
                                                                             # Use all neighbours within 1.3 unit cell.

# get number of connections
compute coord_number all coord/atom orientorder q6 0.5

# An atom is solid if it has 8 or more connections (of a possible 14)
variable is_solid atom c_coord_number>=8
group solid dynamic all var is_solid    # Must be dynamic to update
dynamic group solid defined

# do clustering
compute cluster solid cluster/atom 1.3 # Create a cluster where all atoms within are solid and max 1.3 units from another member

# define chunks one chunk per cluster
compute clus_chunks solid chunk/atom c_cluster nchunk every compress yes  # Says which atoms are in which chunk

# count the size of each chunk
compute size_chunks solid property/chunk clus_chunks count


# Find the maximum entry in the vector of chunk sizes
variable max_n equal max(c_size_chunks)


# Thermo style which includes this variable
# thermo_style custom step temp pe vol v_max_n

thermo ${N}  # Print the thermo information every 100 steps
thermo 1000  

# Reset the npt fix at a lower temperature (below freezing)
fix 1  all npt temp  ${temp} ${temp}  0.1  iso  5.68  5.68  0.5  mtk yes tchain  5  pchain  5
fix 1  all npt temp  0.45 ${temp}  0.1  iso  5.68  5.68  0.5  mtk yes tchain  5  pchain  5
fix 1  all npt temp  0.45 0.45  0.1  iso  5.68  5.68  0.5  mtk yes tchain  5  pchain  5

dump dmp2 all dcd ${N} traj.dcd
dump dmp2 all dcd 1000 traj.dcd


compute msd all msd com yes
variable twopoint equal c_msd[4]/6/(step*dt+1.0e-6)
fix 9 all vector 10 c_msd[4]
variable fit equal slope(f_9)/6/(10*dt)
thermo_style custom step temp pe c_msd[4] v_twopoint v_fit v_max_n

fix 1 all npt temp 1.25 ${temp} 0.1 iso 5.68 5.68 0.5 mtk yes tchain 5 pchain 5
fix 1 all npt temp 1.25 0.45 0.1 iso 5.68 5.68 0.5 mtk yes tchain 5 pchain 5
run 5000000 # 5000000  # Run for this many steps
Neighbor list info ...
  update every 1 steps, delay 10 steps, check yes
  max neighbors/atom: 2000, page size: 100000
  master list distance cutoff = 3.8
  ghost atom cutoff = 3.8
  binsize = 1.9, bins = 8 8 8
  4 neighbor lists, perpetual/occasional/extra = 1 3 0
  (1) pair lj/cut, perpetual
      attributes: half, newton on
      pair build: half/bin/atomonly/newton
      stencil: half/bin/3d
      bin: standard
  (2) compute orientorder/atom, occasional
      attributes: full, newton on
      pair build: full/bin/atomonly
      stencil: full/bin/3d
      bin: standard
  (3) compute coord/atom, occasional
      attributes: full, newton on
      pair build: full/bin/atomonly
      stencil: full/bin/3d
      bin: standard
  (4) compute cluster/atom, occasional
      attributes: full, newton on
      pair build: full/bin/atomonly
      stencil: full/bin/3d
      bin: standard
Per MPI rank memory allocation (min/avg/max) = 9.841 | 9.847 | 9.851 Mbytes
Step Temp PotEng c_msd[4] v_twopoint v_fit v_max_n 
   12000    1.2376666   -6.9450264 3.154852e-30 2.1908693e-32 8.3333333e+20            2 
   13000     1.232116   -6.9626396   0.45193201 0.0028969999  0.035979622            3 
   14000    1.2403143   -6.9983076    0.8464937 0.0050386528  0.034284982            4 
   15000    1.2444655   -7.0023426    1.2300043 0.0068333571   0.03305898            2 
   16000    1.2460763   -7.0131572    1.6092089 0.0083812959  0.032849708            2 
   17000    1.2483609   -7.0130804    2.0043023 0.0098250109  0.032783904            2 
   18000    1.2590069   -6.9877884    2.3708677  0.010976239  0.032629284            3 
   19000    1.2500813   -7.0266077    2.7980214  0.012272024  0.032711821            2 
   20000    1.2544654   -6.9767875    3.2476682   0.01353195  0.032861946            2 
   21000    1.2403829   -6.9548033    3.6113694  0.014330831  0.032985803            2 
   22000    1.2492024   -6.9997408    3.9682819   0.01503137  0.032898056            4 
   23000    1.2571736   -6.9719155    4.3991124  0.015938813  0.032932969            2 
   24000    1.2434288   -7.0471911     4.764931  0.016544899  0.032989295            2 
   25000    1.2433212   -6.9466506    5.1587907  0.017195969  0.032916741            2 
   26000    1.2524177   -6.9818101    5.5594872  0.017818869  0.032857777            3 
   27000    1.2249895   -6.9893464    5.9610409  0.018398274  0.032906612            4 
   28000    1.2350016   -6.9517856     6.413093  0.019086586  0.032943667            3 
   29000    1.2424575   -6.9754819    6.7789586  0.019479766  0.033012071            1 
   30000    1.2634133   -6.9624232    7.1289463  0.019802628  0.033017959            1 
   31000    1.2550799   -6.9617691    7.5513076  0.020299214  0.032971647            1 
   32000    1.2390995   -6.9613862    8.0525794  0.020970259  0.033011725            2 
   33000    1.2674201   -6.9866666    8.3727622  0.021143338  0.033063169            4 
   34000    1.2523476    -6.971248    8.6938292  0.021308405  0.033002525            3 
   35000    1.2467049    -6.961953    9.1075304  0.021684596  0.032949095            1 
   36000     1.239835   -6.9788121    9.5161926  0.022028223  0.032922214            2 
   37000    1.2601468   -6.9585833    9.8669588   0.02222288   0.03287623            2 
   38000    1.2344937   -7.0104288     10.26935  0.022520504  0.032832547            3 
   39000    1.2519318   -6.9790604      10.6496  0.022755555  0.032829857            2 
   40000    1.2637059   -6.9758598     11.06737  0.023057021  0.032819109            1 
   41000    1.2419861   -7.0152871     11.48349  0.023340426  0.032828413            2 
   42000    1.2488123   -6.9967701    11.894516  0.023600231  0.032837452            2 
   43000    1.2459336    -6.985073    12.271115   0.02378123  0.032842623            3 
   44000    1.2479344   -7.0127811     12.72928  0.024108485   0.03286186            3 
   45000    1.2488415   -6.9623105    13.204387  0.024452569  0.032905516            2 
   46000    1.2525745   -7.0379143     13.61986   0.02467366  0.032964382            3 
   47000    1.2567075     -7.02341    14.060176   0.02492939  0.033025663            3 
   48000    1.2535655   -7.0045633    14.287477  0.024804647  0.033037243            5 
   49000     1.265635   -7.0095841     14.58392  0.024802585  0.033034998            2 
   50000    1.2573442   -6.9710863    14.973267  0.024955444  0.033000134            2 
   51000    1.2579456   -7.0293524    15.256701  0.024929249  0.032951402            3 
   52000    1.2468444   -7.0010791    15.582398  0.024971792  0.032879444            1 
   53000    1.2399875    -6.959054    16.003885  0.025163341  0.032815355            1 
   54000    1.2423578   -6.9978297      16.4946  0.025454629  0.032778892            2 
   55000    1.2294775   -7.0137136     16.96247  0.025700713   0.03277434            2 
   56000    1.2379581   -6.9885412    17.540823  0.026102415  0.032793715            1 
   57000    1.2520646   -6.9754457     17.85737  0.026107266  0.032818227            2 
   58000    1.2278922   -6.9616384    18.257071  0.026231424  0.032833751            3 
   59000    1.2445133   -6.9537703     18.64319  0.026332189  0.032843367            1 
   60000    1.2301899   -7.0197558    19.004776  0.026395523  0.032858434            1 
   61000    1.2546564   -7.0052608    19.428582  0.026541779  0.032875272            1 
   62000    1.2333154   -7.0078676    19.850882  0.026681292  0.032889112            4 
   63000     1.264247   -7.0418606    20.234733  0.026765519  0.032897632            2 
   64000    1.2241212   -7.0467113    20.585424  0.026803937  0.032898166            2 
   65000    1.2420439   -6.9923693    21.097613  0.027048221  0.032916712            2 
   66000    1.2191139    -7.021617    21.179796  0.026742167  0.032916794            1 
   67000    1.2361035   -7.0276823    21.638037  0.026912982  0.032897709            3 
   68000     1.235351   -6.9908101    22.056526  0.027030057  0.032881545            3 
   69000    1.2537375   -7.0431133    22.424601  0.027082851  0.032864986            3 
   70000    1.2184221   -7.0207457    22.825858   0.02717364  0.032852048            1 
   71000    1.2456582   -7.0080518    23.310701  0.027359978  0.032845669            1 
   72000    1.2337342   -7.0022023    23.715435   0.02744842  0.032837786            2 
   73000    1.2600075   -7.0367087    24.232095  0.027662209  0.032839408            3 
   74000    1.2539459   -7.0080133    24.620211  0.027725462  0.032847048            4 
   75000    1.2420958   -7.0072814    24.765367  0.027517075  0.032848084            1 
   76000    1.2631337   -7.0165159    25.174476  0.027603592  0.032831468            5 
   77000    1.2478862   -7.0680274    25.483134  0.027579149    0.0328222            4 
   78000     1.241277   -7.0011127    25.931455  0.027704546  0.032810112            1 
   79000    1.2598014   -7.0238332    26.361769  0.027807773  0.032798501            2 
   80000    1.2329246   -6.9855535    26.794094  0.027910514   0.03279458            1 
   81000    1.2497881    -6.984994    27.057963   0.02783741  0.032782823            2 
   82000    1.2447615   -7.0027348    27.509743  0.027957055  0.032768821            3 
   83000    1.2228214   -6.9502735    28.064508  0.028177216  0.032763932            2 
   84000    1.2380031   -6.9652305    28.213631  0.027989713  0.032754928            2 
   85000    1.2344637   -7.0474982    28.513395  0.027954308   0.03274056            3 
   86000     1.236679   -7.0264123    28.852865  0.027958202  0.032719345            2 
   87000    1.2568415   -6.9989537    29.424809  0.028184683  0.032696088            2 
   88000    1.2372963   -7.0238031    29.622513  0.028051622  0.032676589            1 
   89000    1.2222675    -7.076552    29.994044  0.028084311  0.032657503            1 
   90000    1.2419929   -7.0141685    30.427855  0.028173939  0.032637738            3 
   91000     1.245277   -7.0585771    30.657367  0.028074511   0.03261172            1 
   92000     1.246784   -6.9646005    31.305822  0.028356722  0.032588271            5 
   93000    1.2248701   -7.0007738    31.623134  0.028336142  0.032571734            2 
   94000    1.2272399   -6.9990591    31.876528  0.028259333  0.032556894            3 
   95000    1.2277832   -7.0355902    32.280966  0.028316637  0.032537501            2 
   96000    1.2034815   -7.0677833    32.482822  0.028196894  0.032510282            1 
   97000    1.2088755   -7.0020927      32.9821  0.028335138  0.032488919            4 
   98000    1.2490573   -7.0450023    33.259437  0.028281834  0.032470382            3 
   99000    1.2261997   -7.0549822     33.63393  0.028311389  0.032447879            3 
  100000    1.2226548   -7.1114977     33.91108  0.028259233  0.032422076            2 
  101000    1.2423639    -7.018974    34.563595  0.028517818  0.032402642            3 
  102000    1.2208749   -7.0322945    34.933522  0.028540459   0.03238769            3 
  103000    1.2182894   -7.0017206    35.155942  0.028443319  0.032365249            2 
  104000    1.2412517   -7.0321771    35.636088  0.028554558  0.032345412            2 
  105000    1.2555653   -6.9804299    35.817306  0.028426433  0.032317217            7 
  106000    1.2463138    -6.999956    36.295177  0.028533944  0.032283897            2 
  107000    1.2375275   -7.0229809     36.71657  0.028595459  0.032262442            2 
  108000    1.2124917   -7.0470826    37.108362  0.028632996  0.032246945            2 
  109000    1.2386112   -6.9585231    37.476551  0.028651797  0.032228282            1 
  110000    1.2498811   -6.9705522    37.930791  0.028735448  0.032215152            4 
  111000     1.249506   -7.0586828    38.376313  0.028811046   0.03220537            3 
  112000    1.2149969   -7.0595931    38.705367  0.028798636   0.03219199            2 
  113000    1.2144077   -7.0144208    39.139894  0.028864229  0.032182854            3 
  114000    1.2401378   -6.9762623    39.590808  0.028940649  0.032176705            1 
  115000    1.2179689    -7.002906    39.836634  0.028867126   0.03217182            3 
  116000    1.2183378   -7.0258457    40.226909  0.028898641  0.032163727            2 
  117000    1.2256257   -6.9667408    40.805973  0.029064083  0.032160131            2 
  118000    1.2400667     -7.06354    40.911567   0.02889235  0.032157359            1 
  119000    1.2101694   -7.0259196    41.398436  0.028990501  0.032147227            2 
  120000    1.2313932   -7.0339757    41.747545  0.028991351  0.032138127            1 
  121000    1.2329239   -6.9879532    42.354001  0.029169422  0.032132721            3 
  122000    1.2222537    -7.020967    42.860101  0.029276025  0.032131887            4 
  123000    1.2205517   -7.0082665    43.009768  0.029139409  0.032131684            2 
  124000    1.2144201   -7.0002655    43.454707  0.029203432  0.032127959            2 
  125000    1.2357546   -7.0253841    43.774488  0.029182992  0.032122657            2 
  126000    1.2230892   -7.0047029    44.140971  0.029193764  0.032114939            3 
  127000    1.2278915   -6.9933761    44.465953  0.029177134  0.032107184            2 
  128000    1.2296444   -7.0396516     44.96553  0.029274434  0.032098138            2 
  129000    1.2652051   -6.9460723     45.30696  0.029268062  0.032095283            3 
  130000    1.2013618   -7.0557294    45.536153  0.029189841  0.032092717            1 
  131000    1.2192601    -6.992529    46.219571  0.029401762  0.032092001            4 
  132000    1.2202726   -7.0377209    46.458677  0.029329972  0.032088626            4 
  133000     1.218671   -7.0336855    46.783715  0.029313104  0.032083282            2 
  134000    1.2315462   -7.0241433    47.003076  0.029230769  0.032077252            2 
  135000    1.2404895   -7.0146072    47.267159  0.029177259  0.032070606            4 
  136000    1.2391306   -6.9790538    48.074446  0.029457381  0.032067352            2 
  137000    1.2129744   -7.0286112    48.516854  0.029511468  0.032065206            2 
  138000    1.2229997   -7.0363428    48.797837  0.029467293  0.032066444            2 
  139000    1.2606803   -7.0101348    49.390261  0.029610468  0.032070046            2 
  140000    1.2341136   -7.0251247    49.548196  0.029492974  0.032072659            1 
  141000    1.2350521   -6.9524317    49.883202  0.029481798  0.032070135            1 
  142000    1.2314516   -7.0089505    50.053431  0.029374079  0.032064417            3 
  143000    1.2183413   -7.0281187    50.392965   0.02936653  0.032055012            1 
  144000    1.2340511   -7.0023223    50.793652  0.029394475  0.032046692            1 
  145000    1.2464631   -7.0404113    51.447377  0.029567458  0.032039002            1 
  146000    1.1987823   -7.0632205    51.459286  0.029371738  0.032030613            2 
  147000    1.2634081   -7.0697636    51.922368  0.029434449  0.032021478            3 
  148000    1.2306368   -6.9859519    52.202266  0.029393168  0.032015244            2 
  149000    1.2216307   -7.0480858    52.461734  0.029341015  0.032003092            1 
  150000    1.2380085   -7.0707947    52.816158   0.02934231  0.031990462            3 
  151000    1.2085273   -7.0469882    53.126608   0.02931932  0.031974581            3 
  152000    1.2227593   -7.0611124    53.489269  0.029325257  0.031960479            2 
  153000    1.2392601   -7.0180964    54.170881  0.029504837  0.031950968            2 
  154000    1.2406595   -6.9868295    54.510666  0.029497113  0.031940572            4 
  155000    1.2113335   -7.0312919    54.797104  0.029460808  0.031930189            2 
  156000    1.2457381    -7.011451    55.192875  0.029483373  0.031924647            2 
  157000    1.2386475   -7.0133863    55.958891  0.029702171   0.03191784            2 
  158000    1.2136824   -6.9943483    56.224815  0.029654438  0.031911862            2 
  159000     1.243566   -7.0569652    56.402289  0.029560948   0.03190645            2 
  160000    1.2355924   -7.0378888    56.914325  0.029642877  0.031905354            3 
  161000    1.2204346   -7.0622193    57.454994   0.02973861  0.031904682            1 
  162000    1.2257764   -6.9891004    57.901761  0.029784856  0.031901422            2 
  163000    1.2341706    -7.024922    58.000316  0.029652513  0.031898699            1 
  164000     1.216881   -7.0505903    58.276066  0.029611822  0.031895656            1 
  165000    1.2110442   -6.9870004    58.732243  0.029662749  0.031889848            2 
  166000    1.2075777    -7.002865    59.093429  0.029665376  0.031884704            2 
  167000    1.2102614   -7.0036494    59.522075  0.029701634  0.031882143            2 
  168000    1.2329585   -7.0281826    59.974067  0.029749041  0.031878557            5 
  169000    1.2190035   -7.0552873    60.253749  0.029710921  0.031877819            3 
  170000    1.2145074   -7.0383724    60.612088  0.029711808   0.03187516            3 
  171000    1.2416536   -7.0275593    61.026416  0.029739969  0.031873192            2 
  172000    1.2207489   -7.0514651    61.228265  0.029664857   0.03187095            1 
  173000    1.2371576   -7.0386165    61.714308  0.029727509  0.031867801            2 
  174000    1.2211681   -7.0399652    62.217885  0.029797837  0.031863807            4 
  175000    1.2035843    -7.055677    62.686195  0.029850569  0.031858817            2 
  176000    1.2088053   -7.0171076     62.68874  0.029682169  0.031855529            2 
  177000    1.2235403   -7.0719188    62.777498  0.029556261  0.031846504            3 
  178000    1.2373813   -7.0635401    63.179687  0.029578505  0.031833408            1 
  179000    1.2331329   -7.0471177    63.544418  0.029583062  0.031819414            3 
  180000    1.2205368   -7.0336724    63.854006   0.02956204  0.031808021            1 
  181000    1.2070225   -7.0636678    64.227412  0.029570632  0.031793581            7 
  182000    1.2104283   -7.0823868    64.528672  0.029546095  0.031782509            2 
  183000    1.2333484   -7.0282615    65.081188  0.029636242  0.031771653            3 
  184000    1.2080353   -7.0731945    64.991254  0.029434445  0.031760453            2 
  185000    1.2304245   -7.0261526    66.036819  0.029746315  0.031750364            1 
  186000    1.2185534   -7.1091945    66.146103  0.029635351  0.031740841            1 
  187000    1.2239874   -7.0547923    66.676428  0.029713203  0.031733663            2 
  188000    1.2135013   -7.0753649    67.090665   0.02973877  0.031725904            1 
  189000    1.2383227   -6.9971405    67.874911  0.029927209  0.031722499            2 
  190000    1.2381316   -7.0814544    68.000673  0.029824856  0.031720796            2 
  191000    1.2384673   -7.0637342    68.188637  0.029750714  0.031716311            2 
  192000    1.2378731    -7.039678    68.686121  0.029811684  0.031708747            2 
  193000    1.2244228   -7.0571193    68.920372  0.029758364  0.031702833            1 
  194000    1.2181642   -7.0899373    69.059665  0.029664804  0.031696999            3 
  195000    1.2005443   -7.0292324    70.005108  0.029916713  0.031691747            2 
  196000    1.2270923    -7.091008    70.112045  0.029809543   0.03168741            1 
  197000    1.2428581   -7.0083542    70.945662  0.030010855  0.031683629            1 
  198000    1.2211714   -7.0530292    71.081978  0.029916657  0.031680267            2 
  199000    1.2165578   -7.0739958    71.104672  0.029775826  0.031675866            2 
  200000    1.2169805   -7.0651907     71.52369  0.029801537  0.031672596            3 
  201000    1.2225593   -7.0245471    72.462063  0.030042314   0.03167043            2 
  202000    1.2253707   -7.0475472    72.420825  0.029876578  0.031664809            2 
  203000    1.2382041    -7.029385    72.676485  0.029834353   0.03165957            3 
  204000    1.2221408   -7.1023858    72.724001  0.029707517  0.031652615            3 
  205000    1.1999067   -7.0538956    73.565809    0.0299048  0.031645534            3 
  206000    1.2062223    -7.121346    73.421492  0.029701251  0.031636969            3 
  207000    1.2303691   -7.0387676    73.913026  0.029755647  0.031628048            2 
  208000    1.2194747    -7.106705    74.101931  0.029688274  0.031616994            6 
  209000     1.234891   -7.0919142    74.370394  0.029653267  0.031604029            2 
  210000    1.2327292   -7.0432112    74.708135  0.029646085  0.031589806            1 
  211000    1.2243116   -7.0150353    75.496905  0.029817103  0.031579393            6 
  212000    1.2388949   -7.0522773    75.497855   0.02967683  0.031569372            1 
  213000    1.2099932   -7.0766765    75.878199  0.029686306  0.031558167            1 
  214000    1.1855777   -7.0886637    76.154879  0.029655327  0.031545602            2 
  215000    1.2069309   -7.0325081    76.730665  0.029740568  0.031534826            2 
  216000    1.2204685   -7.0718502    76.974752  0.029697049  0.031525418            2 
  217000    1.2293334   -7.0343158    77.976391  0.029944851  0.031517634            1 
  218000    1.1837453    -7.008211    78.239977  0.029908248  0.031511821            1 
  219000    1.2201493    -7.019611    78.657793  0.029930667  0.031507079            2 
  220000    1.1888953   -7.1004747    78.655338  0.029793689  0.031500867            7 
  221000    1.2010725   -7.1199008    78.835784  0.029726917  0.031493338            4 
  222000    1.1971774   -7.0679578    79.230578  0.029741208  0.031486712            5 
  223000    1.1906592   -7.0821524    79.895505  0.029856317  0.031480331            2 
  224000    1.1874442   -7.0427726    80.431796  0.029922543  0.031474128            1 
  225000    1.1948867   -7.0927601    80.761395  0.029911628  0.031470154            2 
  226000    1.2244733   -7.0492135    81.120671  0.029911752  0.031465942            4 
  227000    1.2177004    -7.049549    81.528291  0.029929622  0.031462517            3 
  228000    1.2343738   -7.0941764    81.651371  0.029843337  0.031458384            3 
  229000    1.2255846   -7.0202731    82.163862  0.029899513  0.031452554            2 
  230000    1.2345612   -7.0733959     82.66916  0.029952594  0.031448014            2 
  231000    1.2097029   -7.0782203    83.094868  0.029976503  0.031445409            1 
  232000    1.2168443   -7.0444117    83.419813  0.029964013  0.031442616            3 
  233000    1.2195766   -7.0852603    83.540206  0.029878471  0.031438386            3 
  234000    1.2294485   -7.0797402    83.883515  0.029873047  0.031432399            2 
  235000    1.2021963   -7.0432219    84.196708  0.029856988  0.031426124            1 
  236000    1.2189152   -7.0710825     84.61169  0.029877009  0.031419977            3 
  237000    1.1944926    -7.079762    84.966641  0.029875753  0.031414771            2 
  238000    1.1793338   -7.0764054    84.768723  0.029680925  0.031405847            3 
  239000    1.1976573   -7.0741176    85.274437  0.029733067  0.031396241            1 
  240000    1.2206558    -7.086544    85.895377  0.029824784  0.031389455            8 
  241000    1.2023455   -7.0789049    86.148277  0.029788478   0.03138187            2 
  242000    1.2045843   -7.1081927    86.454794  0.029770935  0.031373522            5 
  243000    1.2187575   -7.0704744    86.983671  0.029829791  0.031364156            1 
  244000     1.212954   -7.0177153    87.522208  0.029891464  0.031357397            4 
  245000    1.2043209   -7.0719397    87.882225  0.029891913  0.031352021            4 
  246000     1.235912   -7.0633428    88.422262  0.029953341  0.031347153            3 
  247000    1.1913257   -7.0643254    88.802397  0.029960323  0.031341915            2 
  248000    1.2028241   -7.0479045    89.195136  0.029971484   0.03133647            1 
  249000    1.2040938   -7.0479704    89.553928  0.029971194   0.03133123            2 
  250000    1.1948698   -7.0504423    89.521417  0.029840472  0.031326474            2 
  251000    1.2125423   -7.0677675    89.905749  0.029849186  0.031318975            2 
  252000    1.2166863   -7.1006988    90.046485  0.029777277  0.031312303            3 
  253000    1.2097477   -7.0477369    90.724729   0.02988298  0.031303733            2 
  254000    1.2121185   -7.0459083    90.733737  0.029768286  0.031295043            2 
  255000    1.2027052   -7.1040209    90.772987  0.029664375  0.031285356            2 
  256000    1.1850146   -7.0904857    91.245221   0.02970222  0.031275069            3 
  257000    1.1745046   -7.0870911    91.560929  0.029689017   0.03126537            4 
  258000    1.1873884   -7.0327938    92.000699  0.029715988  0.031256676            2 
  259000    1.2118228   -7.1312031    92.333718  0.029708403  0.031247736            1 
  260000    1.2084295   -7.0963675    92.710575  0.029714928  0.031238332            3 
  261000    1.2111807   -7.0930425    92.995007  0.029691892  0.031228667            2 
  262000    1.2132843   -7.0372519    93.500324  0.029739289  0.031216771            5 
  263000    1.2039853    -7.124746    93.283836  0.029557616  0.031203808            1 
  264000    1.2303712    -7.084486    93.756819  0.029594955  0.031190756            2 
  265000    1.2158196   -7.0730127    94.142926  0.029604694  0.031179645            1 
  266000    1.1877725   -7.0905795    94.984833  0.029757153  0.031170331            6 
  267000    1.2129361   -7.0937448    94.829687  0.029597281  0.031160852            1 
  268000    1.2033681   -7.0807552    95.413023  0.029668229   0.03115035            2 
  269000    1.2073378    -7.088738    95.602374  0.029616597  0.031137957            2 
  270000    1.2088889   -7.0849075    95.661742  0.029525229  0.031126856            3 
  271000    1.2144331   -7.0997158     96.59924  0.029704563  0.031115919            3 
  272000    1.1885162   -7.0656544    96.891405  0.029684867  0.031106245            2 
  273000    1.2049861   -7.0598579    97.350404   0.02971624  0.031097718            6 
  274000    1.2187135   -7.0847527    97.489473  0.029650083   0.03108863            3 
  275000    1.2070617   -7.1172174    97.585099  0.029571242  0.031077406            2 
  276000    1.2175411   -7.0509432    97.803914  0.029530167  0.031064274            2 
  277000    1.2000171   -7.1398203    97.796463  0.029421318  0.031051258            3 
  278000    1.2103165   -7.0838397    98.160443  0.029424593  0.031036657            2 
  279000    1.1777254    -7.075432    98.734937  0.029490722  0.031022301            4 
  280000    1.2343621    -7.098729    99.172905  0.029515745  0.031008363            4 
  281000    1.2209455   -7.0962243    99.586177  0.029533267  0.030995831            5 
  282000    1.2134561   -7.0891804    99.604933  0.029434082  0.030981799            4 
  283000    1.2082789   -7.1094637    99.997743  0.029445743  0.030967833            3 
  284000    1.2160682   -7.1109646    100.30563  0.029432404  0.030955319            1 
  285000    1.2032532   -7.0931887    100.92895  0.029511388  0.030943248            3 
  286000    1.1902491     -7.05605    101.46299  0.029563809  0.030932275            3 
  287000    1.1960776   -7.0909836    101.79001  0.029555753  0.030921497            2 
  288000    1.2045024   -7.1292249    102.02916  0.029522326   0.03091123            3 
  289000    1.1988946    -7.054727    102.54488  0.029568881  0.030899969            3 
  290000    1.1967323   -7.1132447    102.86794  0.029559753  0.030889801            2 
  291000    1.1927993   -7.0984827    103.26024  0.029570514  0.030880807            1 
  292000    1.1830862   -7.1147315     103.4416  0.029521005  0.030872801            5 
  293000     1.195812    -7.106678    104.24259  0.029648064  0.030864499            2 
  294000    1.1993402   -7.0698559     104.7389  0.029687896  0.030857233            2 
  295000    1.1996179   -7.1087994    104.87112  0.029624611  0.030849488            2 
  296000    1.1908758   -7.1425129    105.14455  0.029601506  0.030840512            2 
  297000    1.1895476   -7.0723708    105.84331  0.029697898  0.030833072            2 
  298000    1.2109224   -7.0564663    106.54586  0.029794705  0.030826801            2 
  299000    1.2176957    -7.098407     106.1817  0.029593561  0.030820723            4 
  300000    1.2126897   -7.0697575    107.25454  0.029792926  0.030813759            3 
  301000    1.2095253   -7.0629719    107.40519  0.029735655  0.030808009            2 
  302000    1.2196805   -7.1089141    107.89366   0.02977198   0.03080157            2 
  303000    1.1688539   -7.1620169    107.56615  0.029583649  0.030793466            3 
  304000    1.1957862   -7.0887155    108.22478   0.02966688  0.030785612            1 
  305000    1.1884053    -7.106943    108.33792  0.029600526  0.030778777            2 
  306000    1.1794393   -7.1293759    108.63816  0.029585556  0.030772204            2 
  307000    1.1789998   -7.0961158    109.14199  0.029625946  0.030765021            1 
  308000    1.1830989   -7.0907412    109.65122  0.029667538  0.030758339            4 
  309000    1.1558511   -7.1446347    109.50269  0.029531469  0.030750733            3 
  310000    1.2300073   -7.1261568    110.18371  0.029619278  0.030743402            3 
  311000    1.1729997   -7.1256589    110.54449  0.029620711  0.030737095            2 
  312000    1.1889144   -7.1436204    110.82351  0.029600296  0.030730832            2 
  313000    1.1997227   -7.0864932    111.39521  0.029657937    0.0307255            2 
  314000    1.1878191   -7.1199031    111.83867  0.029681177  0.030719345            1 
  315000    1.2073297   -7.0754843    112.19753  0.029681887  0.030714196            2 
  316000    1.2041346   -7.0973125    112.57027  0.029686252  0.030708641            2 
  317000     1.180185   -7.0817217     113.0562  0.029720347   0.03070316            4 
  318000    1.1988969   -7.1521139    113.31009  0.029693419  0.030698164            4 
  319000    1.2049127   -7.1177034    113.19713  0.029570829  0.030693198            5 
  320000    1.1915919   -7.0699788    114.23526  0.029748766  0.030688495            4 
  321000    1.1790548   -7.0765826    114.15518    0.0296353  0.030682574            2 
  322000    1.2114876   -7.1081916    114.30871  0.029582999  0.030676153            3 
  323000    1.1991461   -7.1541878    114.46431  0.029531556  0.030669222            2 
  324000    1.1991299   -7.0890869    114.88008  0.029547346  0.030662038            2 
  325000    1.1916222   -7.1196979    115.00922  0.029489543  0.030654464            3 
  326000    1.1914673    -7.127683    115.38886  0.029496129   0.03064675            2 
  327000    1.2046302   -7.1089485    115.59677  0.029458912  0.030637554            3 
  328000    1.2214049   -7.1358814    116.17475  0.029515944  0.030629403            1 
  329000    1.2228049   -7.1241582    116.40308  0.029484063  0.030621888            2 
  330000    1.2104137   -7.1452716    117.16654  0.029587509  0.030615189            2 
  331000    1.1975499   -7.1107986    117.18063  0.029501669  0.030608382            3 
  332000     1.205726   -7.0858522    117.63937  0.029527955  0.030601488            3 
  333000    1.2034494    -7.089569    118.48308  0.029650421  0.030594758            1 
  334000    1.2354628   -7.1286107    118.51194  0.029568847   0.03058883            3 
  335000    1.1983729   -7.1339054    118.55578  0.029491487  0.030581883            3 
  336000    1.2068349   -7.1013848    119.64409  0.029673632  0.030575768            3 
  337000    1.1847208   -7.0955544    119.44269  0.029535779  0.030568053            1 
  338000    1.1837927   -7.0920558    119.82008  0.029541441  0.030561075            1 
  339000    1.1872982   -7.1242482    120.24182  0.029557971  0.030553809            3 
  340000    1.2161812   -7.1550422    120.40968  0.029512175  0.030547561            3 
  341000    1.1815965   -7.1081452    120.72484  0.029502649  0.030541255            2 
  342000     1.186422   -7.1874433    120.81397  0.029438101  0.030533585            2 
  343000    1.2142786   -7.1194652    121.14936  0.029433761   0.03052568            2 
  344000    1.2100246   -7.1053298    121.69904  0.029481357  0.030517699            1 
  345000    1.2129043    -7.146955    121.59921  0.029371791  0.030510122            1 
  346000    1.2010733   -7.1447595    122.15271   0.02942021  0.030501726            1 
  347000    1.1962747   -7.1378679    122.22745  0.029353374  0.030494091            1 
  348000    1.2032628    -7.104238    122.98493  0.029450415  0.030486083            3 
  349000    1.2012052    -7.115739    123.59917  0.029512695  0.030478704            2 
  350000    1.2349507   -7.1029534    123.94941  0.029511764  0.030472154            4 
  351000    1.1810144   -7.0785605    124.12555  0.029469503  0.030464983            3 
  352000    1.2132322   -7.0786196    124.37321  0.029444415  0.030458081            5 
  353000    1.2025578   -7.1240907    125.05255  0.029521376  0.030450867            4 
  354000    1.2107346   -7.0821351     125.0568  0.029438984  0.030443596            3 
  355000    1.1923772   -7.1078918     125.4547  0.029449461  0.030436836            2 
  356000    1.2002333    -7.160009    125.20632  0.029308595   0.03042987            3 
  357000    1.2211393   -7.1164194    125.83365  0.029372934  0.030421277            1 
  358000    1.2131278   -7.1101863    126.49955  0.029445892  0.030412101            3 
  359000     1.217659   -7.1198046    126.25657  0.029307469  0.030403345            3 
  360000    1.1966215   -7.1777991    126.23525  0.029221122   0.03039422            2 
  361000    1.1985881   -7.1036647    126.91312  0.029296657  0.030384216            2 
  362000    1.2071528   -7.1529095    127.12456  0.029264401  0.030374369            1 
  363000    1.1894898   -7.1121407    127.73017  0.029322812  0.030365307            2 
  364000    1.1905511   -7.1487461    127.96788  0.029296676  0.030355196            3 
  365000    1.1983009   -7.1143021    128.39795  0.029314601  0.030346057            4 
  366000    1.1861419    -7.193044    128.20552  0.029190693  0.030335762            2 
  367000    1.2124922   -7.1753713    128.59354  0.029199259  0.030325301            1 
  368000    1.2110071   -7.0823855     129.3743  0.029296716  0.030315396            2 
  369000    1.1994992    -7.077438    129.43988  0.029232131  0.030305916            3 
  370000     1.185788   -7.0781185    130.34978  0.029358059  0.030296745            2 
  371000    1.1888015   -7.1216636    130.23704  0.029253603  0.030287836            2 
  372000    1.1955422   -7.1236606    130.71542  0.029282127   0.03027909            2 
  373000    1.2019547   -7.1394767    130.71963  0.029204565  0.030271137            5 
  374000    1.2030092   -7.1300196    131.26075  0.029247048  0.030262692            3 
  375000    1.1782513   -7.2007445    131.58305  0.029240677  0.030254257            4 
  376000    1.1916121   -7.1646349    131.73933  0.029197546  0.030245434            2 
  377000    1.2118946   -7.0605358    132.89458   0.02937546  0.030236831            6 
  378000      1.20139   -7.0988296    133.00385  0.029321836  0.030229423            2 
  379000    1.2044652   -7.1473551    132.89191  0.029219856  0.030220945            2 
  380000    1.1912527   -7.1563731    132.79045  0.029120713  0.030212052            2 
  381000    1.2292573   -7.1650594    133.03781  0.029098383  0.030202938            2 
  382000    1.1653851   -7.1373782    133.68001  0.029162305  0.030193635            2 
  383000    1.1876711   -7.1505769    134.35608  0.029233263  0.030185027            4 
  384000    1.1985009   -7.1963452    134.32247  0.029149842  0.030176123            4 
  385000    1.1759939   -7.2110304    134.27159  0.029063114  0.030166909            2 
  386000     1.201149   -7.1565132    134.91939  0.029127674  0.030157775            1 
  387000    1.1937169   -7.1394638    135.73687  0.029228439  0.030149753            2 
  388000    1.1743193   -7.0954277    136.48464  0.029313712  0.030141367            3 
  389000    1.1809577   -7.1896208    136.06817  0.029149136   0.03013268            3 
  390000    1.2107834   -7.1120344    136.61819  0.029191921  0.030124753            2 
  391000    1.1783763   -7.1185875    136.72069  0.029139107  0.030116301            3 
  392000    1.1711147   -7.0752414    137.50929  0.029232417  0.030107981            2 
  393000    1.1711337   -7.1184522    137.49581  0.029155176  0.030099348            1 
  394000    1.1958485   -7.1497861    137.69768  0.029123876  0.030090789            2 
  395000    1.1715674   -7.1352967    137.32507  0.028971534  0.030081241            1 
  396000    1.1771841   -7.1370579      137.252  0.028882997  0.030070467            1 
  397000    1.2085478   -7.1439467    138.43642  0.029058862  0.030059687            3 
  398000    1.2108001   -7.1398296    138.51966  0.029003279  0.030049715            3 
  399000    1.1684505   -7.1513608    139.00324  0.029031588  0.030039998            4 
  400000    1.1955472   -7.1345188    139.51886  0.029066428  0.030030225            3 
  401000    1.1772753   -7.1164544    139.43704  0.028976941  0.030020758            1 
  402000     1.221715   -7.0991976    140.26287   0.02907605  0.030012071            1 
  403000    1.2119345   -7.1421013    140.49266  0.029051418  0.030003682            1 
  404000     1.206795   -7.1361945     140.7864  0.029040099  0.029994858            3 
  405000    1.1853906   -7.1666466    140.90757  0.028993328  0.029985886            2 
  406000    1.1587168    -7.137352    141.70625  0.029085848  0.029976542            2 
  407000    1.1801786   -7.1387776     142.3679  0.029149856  0.029968823            4 
  408000    1.2035542   -7.1286462    143.07561   0.02922296  0.029961388            3 
  409000    1.1815428   -7.0736226    143.75974    0.0292909  0.029954894            3 
  410000    1.2196287   -7.1248835    144.16014  0.029300842  0.029948856            4 
  411000    1.1897991   -7.1240592    144.26985  0.029251795  0.029942931            1 
  412000    1.1669793   -7.1081096    144.53384   0.02923419  0.029936058            2 
  413000    1.1670901   -7.1121284     144.6608  0.029189024  0.029929128            2 
  414000    1.1779509   -7.1058134    144.24305   0.02903443   0.02992125            5 
  415000    1.1866177   -7.1660399    144.19507  0.028954833  0.029912514            1 
  416000    1.1723299    -7.140014    144.62568  0.028971491     0.029904            2 
  417000    1.1573433   -7.1321407    145.15684  0.029008161  0.029895881            1 
  418000    1.1650527     -7.17347    145.34224  0.028975725  0.029887054            1 
  419000    1.1850554   -7.1314679    145.88468  0.029014455  0.029878707            2 
  420000    1.1775924   -7.1589568    145.49131  0.028867323  0.029870039            2 
  421000    1.1664502    -7.161214    146.57682  0.029013623  0.029861028            1 
  422000    1.1919759    -7.152706    146.11656  0.028853982  0.029851426            8 
  423000    1.1805915    -7.142055    146.71517  0.028903698  0.029841993            3 
  424000    1.1679925   -7.1253671    147.45391   0.02898072  0.029833074            2 
  425000    1.1857568   -7.1405112    148.32799  0.029083919  0.029824513            1 
  426000    1.1698895    -7.101813    148.19306  0.028989253  0.029816274            5 
  427000    1.2093133   -7.2202595    148.27219  0.028936806  0.029808506            5 
  428000     1.177073   -7.1366369     149.1681  0.029043633  0.029800218            4 
  429000    1.2072578   -7.1274061    149.31813  0.029005076  0.029792225            2 
  430000    1.1940871   -7.1484807    149.51183  0.028975161  0.029784003            2 
  431000    1.1799888   -7.1582536    149.65091  0.028934823  0.029776056            4 
  432000     1.196953   -7.1769037    150.29887  0.028992838  0.029768179            2 
  433000    1.1550254   -7.0836356    150.86059  0.029033986  0.029760738            4 
  434000    1.1724175   -7.1802211    150.70893  0.028937966  0.029754092            4 
  435000    1.1883388   -7.1844451    151.90283  0.029100159   0.02974741            3 
  436000    1.1910733   -7.1368299    151.80862   0.02901541  0.029741561            2 
  437000    1.1907202    -7.124135    152.83082  0.029143939  0.029734949            2 
  438000     1.149413   -7.1005547    153.63721  0.029230823  0.029729484            2 
  439000    1.2212992   -7.1843898    153.07963  0.029058396  0.029723177            2 
  440000    1.1865456    -7.117557    154.28804  0.029221219  0.029717422            5 
  441000    1.1713448   -7.1679972    154.14137  0.029127244  0.029712278            3 
  442000    1.1552839   -7.1681725    154.53995  0.029136491  0.029706573            3 
  443000    1.1831413   -7.1629443    153.98217  0.028965796  0.029700897            1 
  444000    1.1916014    -7.154241    154.76132  0.029046793  0.029695782            3 
  445000     1.166702    -7.205508    155.62939  0.029144081  0.029691052            2 
  446000    1.1761032   -7.1259803     155.8289  0.029116014  0.029686211            2 
  447000    1.2023979   -7.1989864    156.02462  0.029087363  0.029682035            4 
  448000    1.1868842   -7.1605982    156.39476  0.029091288  0.029676761            2 
  449000    1.1686711   -7.1577446     156.8815  0.029116833  0.029672444            1 
  450000    1.1723336   -7.1689864    157.11706  0.029095751  0.029667736            2 
  451000    1.1837809   -7.1959796    157.22191  0.029050612  0.029662923            2 
  452000    1.1714218   -7.1887151    157.58299  0.029052911   0.02965859            5 
  453000    1.1948933   -7.1568348    157.64062  0.028999377  0.029653261            2 
  454000    1.1622433    -7.175915    158.28062  0.029052977  0.029647859            2 
  455000    1.1793094   -7.1792692    158.58255  0.029044423  0.029642103            5 
  456000    1.1595755   -7.1541097    158.82938  0.029025836  0.029636063            2 
  457000    1.1696146   -7.1471926    159.00655   0.02899463  0.029630133            1 
  458000    1.1993655   -7.0998328    159.95797  0.029104434    0.0296242            2 
  459000    1.1944922    -7.173095    159.31952  0.028925113  0.029617975            5 
  460000    1.1750507   -7.1783159    159.89774  0.028966981  0.029612136            3 
  461000    1.2068287   -7.2074353    160.47314  0.029008159  0.029606521            1 
  462000    1.1688441   -7.1464732    161.24424   0.02908446  0.029601157            2 
  463000    1.1956723   -7.1515864    161.77288  0.029116789  0.029595943            2 
  464000    1.1931136   -7.1692469    162.14335  0.029120573  0.029591128            2 
  465000    1.1724342   -7.1151531    162.40286  0.029104455  0.029586514            1 
  466000     1.209192      -7.1706    162.66324  0.029088562   0.02958225            5 
  467000    1.1916569   -7.1309908    163.32102  0.029143651  0.029578181            2 
  468000    1.1484441   -7.2122805    162.42543  0.028921906  0.029573797            3 
  469000     1.173121   -7.1643222    162.82572  0.028931364  0.029568952            1 
  470000    1.1710208    -7.162601    163.66619  0.029018828  0.029563929            1 
  471000     1.171156   -7.1512569    164.62024  0.029126016  0.029559537            3 
  472000    1.1851288   -7.1642956    164.31811  0.029010965  0.029554326            1 
  473000    1.2075234    -7.197205    163.84202  0.028865753  0.029549717            7 
  474000    1.1809712   -7.1867187    165.16605  0.029037632  0.029545037            1 
  475000    1.1795938   -7.1690068    165.48938  0.029033224  0.029540774            2 
  476000    1.1745915   -7.1511522    165.99553  0.029060843   0.02953617            3 
  477000    1.1639799   -7.1211936    166.60842  0.029106992  0.029531535            2 
  478000    1.1984691   -7.1817382    166.56601  0.029038705  0.029527369            2 
  479000    1.1821328   -7.1081532    167.34138  0.029112974  0.029523465            2 
  480000    1.1695049   -7.2021832    166.40374  0.028889538  0.029518603            4 
  481000    1.1979902   -7.1906571    166.84598  0.028906095  0.029513376            2 
  482000    1.1793406   -7.1442295    167.49589  0.028958487  0.029507898            4 
  483000    1.2042172   -7.1847526    167.66299  0.028927362  0.029501723            2 
  484000     1.183162   -7.2145616     167.4341  0.028828185  0.029495712            2 
  485000    1.1803351    -7.193902    167.58961  0.028795466  0.029489121            4 
  486000    1.1763456   -7.2303568    167.52958  0.028725923  0.029482152            2 
  487000    1.1686884     -7.16495    168.78529  0.028881808  0.029475281            3 
  488000     1.164669   -7.1525356    169.13684  0.028882658   0.02946926            2 
  489000    1.1424642   -7.1710174     168.9409  0.028790201  0.029463049            3 
  490000     1.183222   -7.1523005    169.66362  0.028854357  0.029456515            4 
  491000    1.1653318   -7.1837152    169.10073  0.028700057  0.029449134            5 
  492000    1.1963583   -7.2323156    169.38393   0.02868969  0.029441412            3 
  493000    1.1796044   -7.1609529    169.65692  0.028677641  0.029433542            1 
  494000    1.1682877   -7.1616901    170.74106  0.028802473  0.029426629            4 
  495000    1.1716005   -7.1898353    170.81334  0.028756454  0.029419657            2 
  496000    1.1950487   -7.1817488    170.84302  0.028703464  0.029412478            4 
  497000    1.1809131   -7.1517083     171.5242  0.028759927  0.029404967            1 
  498000    1.1662083   -7.1291048    171.26102  0.028658135  0.029397744            6 
  499000    1.1543907   -7.1734877    171.24645  0.028598272  0.029390155            5 
  500000    1.1621404   -7.1753338    171.71271  0.028618785  0.029382093            3 
  501000    1.1867639   -7.1881703    172.18398   0.02864005  0.029373921            5 
  502000    1.1883653   -7.2310146    171.80613  0.028520273  0.029365118            1 
  503000    1.1666169   -7.2307229    171.43072  0.028401378  0.029355919            2 
  504000    1.1783332   -7.2125763    171.97943  0.028435752  0.029346222            6 
  505000    1.1539211   -7.1842316    172.75071  0.028506717  0.029336681            2 
  506000     1.178758   -7.1822944    172.52939  0.028413931  0.029326884            3 
  507000    1.1787162   -7.1635762    173.57323  0.028529459  0.029317421            3 
  508000    1.1627316    -7.219686    173.03528  0.028385053  0.029307163            7 
  509000    1.1725388   -7.2176831    173.13482  0.028345583  0.029297129            3 
  510000    1.2039926   -7.2046702     173.6289  0.028370736  0.029286959            1 
  511000     1.159938   -7.1905639    174.38398  0.028438353  0.029277511            2 
  512000    1.1595247   -7.2058203    174.47246  0.028397211  0.029267869            4 
  513000     1.166889   -7.1764135    175.50981  0.028510365  0.029258582            3 
  514000    1.1706771   -7.1890198    175.23344   0.02841009   0.02924974            2 
  515000    1.1700201   -7.1552988    176.11512  0.028497592  0.029240864            2 
  516000    1.1918762   -7.2181472    175.86865   0.02840256  0.029232123            2 
  517000    1.1693593   -7.2142919    176.85071  0.028505917  0.029223506            2 
  518000    1.1531722     -7.14872    177.90296  0.028620168  0.029215368            2 
  519000    1.1612965   -7.1586142    177.93941  0.028570875  0.029207561            2 
  520000    1.1814173   -7.2057953    177.80524  0.028494429  0.029199459            6 
  521000    1.1652928   -7.1935205     178.2214  0.028506301  0.029191059            5 
  522000    1.1640149   -7.1810717    178.63032  0.028516973  0.029182555            2 
  523000    1.1647744   -7.2046712    178.57491  0.028453618  0.029174124            2 
  524000    1.1628964   -7.1789389    178.70587  0.028420145  0.029164944            1 
  525000    1.1879535    -7.190773    179.12089  0.028431887  0.029156684            1 
  526000     1.144942   -7.2022702    179.15053   0.02838253  0.029147916            2 
  527000    1.1563073   -7.1929523    179.63387  0.028405103  0.029139456            1 
  528000    1.1613222    -7.184858    179.56316  0.028340145   0.02913098            4 
  529000    1.1446662   -7.1643076    180.68373  0.028463095  0.029122505            2 
  530000    1.1735771   -7.1954569    180.42359  0.028368489  0.029114273            2 
  531000    1.1857111   -7.2064541    180.39926  0.028311246  0.029105823            3 
  532000    1.1603788   -7.1812703     180.9943  0.028351237  0.029097315            2 
  533000    1.1692766   -7.2028374    181.26127  0.028339785   0.02908891            4 
  534000    1.1617522   -7.1916224    181.51174  0.028325802  0.029080782            4 
  535000    1.1916218   -7.1713381    182.34226  0.028402221   0.02907251            4 
  536000    1.1506989   -7.1827283    182.61082  0.028390985   0.02906419            3 
  537000     1.168611   -7.1906108    182.84843  0.028374989  0.029056204            2 
  538000    1.1723918   -7.1730758    183.53927  0.028429254  0.029047963            3 
  539000    1.1803166   -7.1899166    183.18927  0.028322398  0.029040063            2 
  540000    1.1599839   -7.1818753    184.11528  0.028412851  0.029031564            4 
  541000    1.1725875   -7.1811416     184.5549   0.02842805  0.029023156            2 
  542000    1.1431517   -7.1728083    184.67158  0.028393539  0.029014957            2 
  543000     1.161631   -7.1663195    184.72342  0.028349204  0.029006351            2 
  544000    1.1761817    -7.179045    184.81418  0.028310995  0.028998251            1 
  545000    1.1776777   -7.1960516    185.44364  0.028355296  0.028989635            2 
  546000    1.1730155   -7.1881305    184.91789  0.028223121  0.028981264            5 
  547000    1.1770413   -7.1697782     185.5513  0.028268023  0.028972449            2 
  548000    1.1537194   -7.1868124    186.05498  0.028293032  0.028963371            5 
  549000    1.1843941   -7.2118815    185.72828  0.028191906  0.028954578            1 
  550000    1.1772505    -7.206094    185.78009  0.028148498  0.028945716            6 
  551000    1.1611377   -7.2468218     185.8601  0.028109513  0.028936139            2 
  552000     1.164066   -7.2161438    186.25814  0.028118681  0.028926595            2 
  553000    1.1785663   -7.1685212    186.83256  0.028154394  0.028917155            4 
  554000    1.1710358   -7.2107583    186.55618     0.028062  0.028907634            3 
  555000    1.1863567   -7.2257914     187.1827  0.028105511  0.028897893            1 
  556000    1.1696845   -7.1961383    187.39773   0.02808719  0.028888031            2 
  557000    1.1649535   -7.2097453    187.72563  0.028085822   0.02887841            4 
  558000     1.176458   -7.1860417    188.59497  0.028165319  0.028868888            4 
  559000    1.1624107    -7.203312    188.79046  0.028144076  0.028859579            1 
  560000    1.1679566    -7.190065    188.79477  0.028094459  0.028850222            2 
  561000    1.1595786    -7.186404    189.46369  0.028143745  0.028840681            3 
  562000    1.1719147   -7.1521249    189.26492  0.028064194  0.028831481            2 
  563000    1.1566785   -7.2186414    189.99321  0.028122145  0.028822154            4 
  564000    1.1529783   -7.1949482    190.06756  0.028083268  0.028812806            1 
  565000    1.1539101   -7.2060448    190.99514  0.028170375  0.028804026            2 
  566000    1.1720905   -7.2589949    190.33689  0.028023688  0.028795092            3 
  567000    1.1366882   -7.1881791    191.37864  0.028127371  0.028786605            2 
  568000    1.1620558   -7.1829334     191.7161  0.028127363  0.028778355            2 
  569000    1.1532326   -7.2324514    192.07178   0.02813002  0.028769967            2 
  570000    1.1455568   -7.1874032    192.20718  0.028100465  0.028761384            2 
  571000    1.1436026   -7.1871077    192.60774  0.028109711  0.028752721            2 
  572000     1.141996   -7.2129594    193.24314  0.028153138  0.028744379            4 
  573000    1.1619252   -7.2412963    193.00361  0.028069169  0.028735652            2 
  574000    1.1572499   -7.2335701    192.91614  0.028007569  0.028726223            2 
  575000    1.1443807   -7.2066734    193.39539  0.028028317  0.028717395            1 
  576000    1.1632762   -7.2038651    193.49126  0.027993527  0.028708291            2 
  577000    1.1657769   -7.1504076    194.68328   0.02811717  0.028699523            2 
  578000    1.1595768   -7.1916648    194.57491  0.028052899  0.028691287            3 
  579000    1.1933961   -7.1570626    195.70603  0.028167247   0.02868358            2 
  580000    1.1236806   -7.1993578    195.02337  0.028020599  0.028675308            2 
  581000    1.1454054   -7.1780753    195.59793   0.02805478   0.02866656            1 
  582000    1.1523951   -7.2461238    195.08521  0.027933162  0.028657401            3 
  583000     1.168768   -7.2081689    196.31885  0.028061585  0.028648888            1 
  584000    1.1508345   -7.2315501    195.92775  0.027957726  0.028640166            2 
  585000    1.1771211   -7.1687286    196.92614  0.028052157  0.028631731            3 
  586000    1.1593626   -7.2228617    196.72029  0.027975013  0.028623785            4 
  587000    1.1439998   -7.2789612    196.18047   0.02785072  0.028615085            8 
  588000    1.1632542   -7.1903713    197.69528  0.028018039   0.02860672            2 
  589000    1.1656268   -7.2259566    197.66907  0.027966762   0.02859833            2 
  590000    1.1627699   -7.2589053    197.94166  0.027957862  0.028590071            2 
  591000    1.1304332   -7.2259586    198.87382  0.028041994   0.02858215            4 
  592000    1.1357294    -7.183467    199.33769  0.028059922  0.028574114            2 
  593000    1.1219191   -7.1783198     199.4481   0.02802812  0.028565297            1 
  594000    1.1637144   -7.1801981    198.86419  0.027899017  0.028556822            2 
  595000    1.1362431   -7.2247483    199.45063  0.027934262   0.02854837            2 
  596000    1.1516394   -7.2171306    199.87126  0.027946205  0.028539721            3 
  597000    1.1620876   -7.2593464    199.36845  0.027829208  0.028530535            4 
  598000    1.1731962   -7.1942335    200.27896  0.027909555   0.02852145            2 
  599000    1.1637121   -7.2843317    198.89992  0.027671107  0.028512232            2 
  600000    1.1575373   -7.2471881    199.96137  0.027772412  0.028503063            2 
  601000    1.1425825   -7.2061366    200.77755  0.027839372   0.02849414            1 
  602000    1.1507515   -7.2412708    200.91941  0.027812764  0.028485388            3 
  603000    1.1362766   -7.2688549    200.87912  0.027761072  0.028476181            3 
  604000      1.13783   -7.2080199    201.96726   0.02786524  0.028467703            3 
  605000    1.1569323   -7.2195174    202.51275  0.027894319  0.028459503            2 
  606000     1.167787   -7.2228082     202.2561  0.027812994  0.028451617            2 
  607000    1.1434433   -7.2202721    203.67579   0.02796208  0.028444082            2 
  608000    1.1309259   -7.1913045    203.88779  0.027945147  0.028436304            3 
  609000    1.1574412   -7.2195985    204.19735  0.027941618  0.028428451            3 
  610000    1.1612872   -7.2317826    204.25341  0.027903471  0.028420586            1 
  611000     1.168861    -7.238995     204.7528  0.027925914  0.028412704            2 
  612000    1.1531429   -7.2412288    204.54273   0.02785168  0.028404785            2 
  613000    1.1523089   -7.2598171    204.51593    0.0278026  0.028397193            2 
  614000    1.1455307   -7.2335539    204.94493  0.027815544  0.028389008            3 
  615000    1.1569603   -7.2513449    204.70257  0.027737475   0.02838054            1 
  616000    1.1605797   -7.2113987    205.48567  0.027798386  0.028372215            3 
  617000    1.1477799   -7.2490554    204.95862  0.027682147  0.028363758            3 
  618000     1.158589   -7.2639538    205.26295  0.027678391  0.028355121            3 
  619000    1.1641062   -7.2075389    206.08839  0.027744802  0.028346483            5 
  620000    1.1445526   -7.2515181     205.8329  0.027665713  0.028337883            2 
  621000    1.1569493   -7.2106803    205.63243  0.027594261  0.028328915            2 
  622000    1.1760573   -7.2707228    206.05855  0.027606987  0.028320668            3 
  623000    1.1351458   -7.2402775     207.3137  0.027730565  0.028312002            4 
  624000    1.1460337   -7.2050275    208.11226   0.02779277  0.028303919            1 
  625000    1.1664392   -7.2310296    207.88393  0.027717858  0.028295838            3 
  626000    1.1581022   -7.1904885    209.05685   0.02782972   0.02828779            1 
  627000     1.157449   -7.2385266    208.18325  0.027669225   0.02827967            3 
  628000    1.1649327   -7.2189561    208.91088  0.027721719  0.028271235            2 
  629000    1.1366866   -7.1959574    208.56163  0.027631376  0.028262391            4 
  630000    1.1441553   -7.2483114     209.2765  0.027682077  0.028253441            2 
  631000     1.163205   -7.2267813     209.4715  0.027663959  0.028244286            2 
  632000    1.1335011    -7.231232    209.91957  0.027679268  0.028235328            3 
  633000    1.1544954   -7.2388271    210.63173  0.027729295  0.028227211            3 
  634000    1.1314976   -7.2851431    209.92916  0.027593212  0.028218766            3 
  635000     1.179828   -7.2166441    211.17821  0.027713676  0.028209952            2 
  636000    1.1445718   -7.2436678    210.37189  0.027564452  0.028201244            2 
  637000    1.1673584   -7.2018391    211.08382  0.027614315  0.028192755            3 
  638000    1.1531301   -7.2540024    210.44439  0.027487512    0.0281838            1 
  639000     1.177975   -7.2861582    210.67688  0.027474814   0.02817512            2 
  640000     1.130751   -7.2653276    211.95974  0.027598924  0.028166553            3 
  641000    1.1619592   -7.2341796    212.84131  0.027670477  0.028158454            4 
  642000      1.15769   -7.2159131    212.91881  0.027637436  0.028150482            5 
  643000    1.1449839   -7.2032221    213.32994  0.027647737  0.028143136            2 
  644000    1.1628384   -7.2182814    213.46822  0.027622699  0.028135542            2 
  645000    1.1493667    -7.285224     213.5882  0.027595375  0.028127607            2 
  646000    1.1539655   -7.2399024    214.31986   0.02764704  0.028119433            2 
  647000    1.1294345   -7.2529155    214.27863     0.027599  0.028111146            4 
  648000    1.1260168   -7.2328854    214.42638  0.027575409   0.02810295            2 
  649000    1.1260712   -7.2098112    214.86016  0.027588618  0.028094815            2 
  650000    1.1695763   -7.2534102    215.62853  0.027644683  0.028087034            1 
  651000    1.1421591   -7.2344238    215.24051  0.027552548  0.028079265            3 
  652000    1.1483964   -7.2574743    215.71911  0.027571461  0.028070871            4 
  653000    1.1381328   -7.2365799    216.01571  0.027567089   0.02806273            2 
  654000    1.1421373   -7.2968572    215.94399  0.027515799  0.028054258            3 
  655000    1.1196513   -7.2346365    217.04177  0.027613456  0.028046155            2 
  656000    1.1611933   -7.2623957    215.98465  0.027437074  0.028038024            2 
  657000    1.1814496   -7.2632226     216.8583  0.027506126  0.028029778            2 
  658000     1.140745   -7.2263481    216.90325  0.027470016  0.028021408            4 
  659000    1.1584093   -7.2510933    217.68068  0.027526642   0.02801316            1 
  660000    1.1637115   -7.2292652     218.3401  0.027568194  0.028005149            6 
  661000    1.1205564   -7.2862077     217.2172  0.027384921  0.027997091            6 
  662000    1.1443518   -7.2334752    218.01685  0.027444215   0.02798908            2 
  663000    1.1531575   -7.2360439    218.58095  0.027473725  0.027981119            2 
  664000    1.1106787   -7.2765243    218.29596  0.027396582  0.027972852            2 
  665000    1.1596672   -7.2449033    218.69745  0.027405695  0.027964561            2 
  666000    1.1307882   -7.2291686    219.82906  0.027506139   0.02795654            4 
  667000    1.1298338   -7.2817216     219.2972  0.027398451  0.027948504            4 
  668000    1.1514919   -7.2092786    220.26734  0.027478461  0.027940533            4 
  669000    1.1497097   -7.2494951    220.18054  0.027426574  0.027933213            5 
  670000    1.1514514   -7.2485799    220.22996  0.027391786  0.027925301            2 
  671000    1.1498431   -7.2306582    220.73782  0.027414036  0.027917911            4 
  672000    1.1531993    -7.245223    221.28595  0.027441215  0.027910064            6 
  673000    1.1366197   -7.2399233    220.95656  0.027359653  0.027901847            4 
  674000    1.1489486    -7.280632    221.63654  0.027403133  0.027893449            3 
  675000    1.1465551   -7.2894585    221.31646   0.02732302  0.027885301            2 
  676000    1.1298261   -7.2760485    222.31509  0.027405706  0.027877327            4 
  677000    1.1485655   -7.2452949    222.64624  0.027405988  0.027868994            6 
  678000    1.1564222   -7.2737324    222.14168   0.02730355  0.027860649            3 
  679000    1.1421799    -7.181002    222.76833  0.027340247    0.0278527            2 
  680000    1.1254278   -7.2648846    221.98819  0.027204435  0.027844678            8 
  681000    1.1462652   -7.2046874    223.08089    0.0272982  0.027836406            2 
  682000    1.1269234   -7.2455424    223.41021  0.027298413  0.027828222            3 
  683000     1.142749   -7.1887181     224.5898  0.027402367  0.027820143            2 
  684000    1.1365584   -7.2432554    223.91165  0.027279684  0.027812038            2 
  685000    1.1392364   -7.2376269    224.24574  0.027280503   0.02780355            3 
  686000    1.1607926   -7.2465632    223.96588  0.027206739  0.027794965            2 
  687000    1.1391766   -7.2795106    223.84405  0.027152359   0.02778571            4 
  688000    1.1615813   -7.2575163    224.14651  0.027149529  0.027776477            2 
  689000     1.144226    -7.212662    225.88953  0.027320939  0.027767645            2 
  690000    1.1200844   -7.2450688    225.19051  0.027196921  0.027759277            7 
  691000    1.1544989   -7.2658774    225.61901  0.027209239  0.027750744            5 
  692000     1.155751   -7.2451111    225.50562  0.027156265  0.027741959            3 
  693000    1.1272139   -7.2840556     225.6259  0.027131542  0.027732938            2 
  694000    1.1483153    -7.296276    226.03392  0.027141441  0.027723665            4 
  695000    1.1629642    -7.229782    226.99474  0.027217595  0.027714835            1 
  696000    1.1463913   -7.3078419    226.40254  0.027107583  0.027705965            6 
  697000     1.091335   -7.3355175     225.5678   0.02696889  0.027696579            5 
  698000    1.1569764   -7.2663687    226.82053  0.027079814  0.027686862           10 
  699000    1.1334226   -7.3069281     226.6132  0.027016356  0.027677812            2 
  700000    1.1403131   -7.2834844    227.36658   0.02706745  0.027668734            3 
  701000    1.1307598   -7.2647825    227.41432  0.027034512  0.027659616            6 
  702000    1.1433047   -7.2069572     229.0015  0.027184414  0.027650908            8 
  703000    1.1523442   -7.3032183    228.08543  0.027037154  0.027641871            3 
  704000    1.1111271   -7.2345624    228.37399  0.027032906  0.027632693            4 
  705000    1.1294164   -7.2558786     229.2777  0.027101383  0.027623531            2 
  706000    1.1203742   -7.2704931    228.60194  0.026983231  0.027614336            1 
  707000    1.1372894   -7.2072513    230.25328  0.027139707  0.027605383            7 
  708000    1.1268829   -7.2878041    228.37937  0.026880811  0.027595889            3 
  709000    1.1258367   -7.2583498    230.18222  0.027054797  0.027586873            1 
  710000    1.1182338   -7.2614281    230.16144  0.027014253  0.027578089            1 
  711000    1.1511461   -7.2224477     231.4031  0.027121788  0.027569071            4 
  712000     1.130151   -7.2601363    230.46993  0.026974477  0.027560408            2 
  713000     1.113894   -7.2140456    231.82932  0.027095526  0.027551438            5 
  714000    1.1097277    -7.284097    230.76793  0.026933698   0.02754217            2 
  715000    1.1462087   -7.2573994    231.34138  0.026962865  0.027533088            5 
  716000    1.1306683   -7.2817282    230.93072  0.026877411  0.027523981            4 
  717000    1.1308595   -7.2695744    231.43372  0.026898387  0.027514703            1 
  718000    1.1348596   -7.2495446    232.25725  0.026956505  0.027505704            1 
  719000    1.1617003   -7.2851911    232.08866  0.026899474   0.02749653            4 
  720000    1.1395472   -7.2916932    232.17764  0.026872412  0.027487079            3 
  721000    1.1366635   -7.2363205     232.8269  0.026910183  0.027478092            3 
  722000    1.1717152    -7.280424    232.64555  0.026851979  0.027468901            4 
  723000    1.1115895   -7.2964132    232.35451  0.026781294  0.027459623            2 
  724000    1.1390038   -7.2690543    233.19501  0.026841046  0.027450112            2 
  725000    1.1380174   -7.2941755    234.09599  0.026907585  0.027440793            2 
  726000    1.1158723   -7.2503447    233.92995  0.026851463  0.027431192            2 
  727000    1.1399242   -7.2693133    233.98282   0.02682059  0.027421834            2 
  728000    1.1535096   -7.2501632    235.57166  0.026965621  0.027412907            3 
  729000    1.1275595   -7.2566152    234.01888  0.026751129  0.027403538            2 
  730000     1.176532   -7.2671738     234.9136  0.026816621  0.027394205            2 
  731000    1.1466035    -7.272639    235.47345  0.026843758  0.027385325            7 
  732000    1.1199907   -7.2996927    235.77288  0.026841175   0.02737661            3 
  733000    1.1330205   -7.2436768    235.70381  0.026796704  0.027367694            5 
  734000     1.140666   -7.2980406    236.66625  0.026869466  0.027358376            3 
  735000    1.1413577    -7.268376    236.91649   0.02686128  0.027348826            5 
  736000    1.1556237   -7.2746017    236.79914  0.026811497  0.027339587            2 
  737000    1.1548971   -7.2583044    236.90101  0.026786636  0.027330569            1 
  738000     1.155262   -7.2717768    236.97783  0.026759014  0.027321225            2 
  739000    1.1298501   -7.2956473    237.01483  0.026726977  0.027311792            4 
  740000    1.1328612   -7.3062479    237.35154  0.026728777  0.027302575            3 
  741000    1.1252695   -7.3123763    237.36103  0.026693773  0.027293248            2 
  742000    1.1322306   -7.3255286    237.25847  0.026646279  0.027283581            3 
  743000    1.1231937   -7.3242033    237.62363  0.026651372  0.027274164            3 
  744000    1.1342518   -7.2421754    239.17294  0.026789084  0.027264712            3 
  745000    1.1468225   -7.2335107    238.85727  0.026717816   0.02725554            6 
  746000    1.1245264   -7.2207549    240.14686  0.026826056  0.027246227            6 
  747000    1.1242811   -7.2582125    239.90141  0.026762763  0.027236953            2 
  748000    1.1189749   -7.3234537    238.32491  0.026551349  0.027227664            2 
  749000    1.1368433   -7.2746706    239.67699  0.026666332  0.027218386            1 
  750000    1.1275639   -7.3200411    239.12476  0.026569418   0.02720881            3 
  751000      1.13054    -7.279253    240.39653  0.026675159   0.02719946            3 
  752000    1.1243271    -7.308329    239.87436  0.026581822  0.027190061            5 
  753000    1.1462484    -7.279901     241.0433  0.026675885  0.027180692            2 
  754000    1.1483881   -7.3227006    239.73674  0.026496102  0.027171217            3 
  755000    1.1465581   -7.2373884    241.47891  0.026653302  0.027161712            2 
  756000    1.1640481   -7.2797843    241.09393   0.02657561  0.027152329            3 
  757000    1.1375624    -7.325016    240.86821  0.026515655  0.027143056            3 
  758000     1.130377   -7.2870538    241.68995  0.026571014  0.027133817            9 
  759000    1.1476189    -7.256691    242.27978  0.026600766  0.027124751            1 
  760000    1.1303688   -7.2568919    242.34469  0.026572882  0.027115792            1 
  761000     1.135996   -7.2714017    242.62436   0.02656859  0.027106762            1 
  762000     1.142379   -7.2962498    242.02869  0.026468579  0.027097238            2 
  763000    1.1283036   -7.2996425    242.65519  0.026502314  0.027087778            7 
  764000    1.1258469   -7.2978647    242.92374  0.026496918  0.027078436            5 
  765000    1.1413293   -7.2923883    243.87136  0.026565507  0.027069183            6 
  766000    1.1442858   -7.3332894    242.98734  0.026434654  0.027059878            2 
  767000    1.1256425   -7.3221904    243.14922  0.026417777  0.027050392            5 
  768000    1.1345696   -7.3309295    243.29208   0.02639888  0.027041053            4 
  769000    1.1265313   -7.3219603     244.1422  0.026456675  0.027031898            4 
  770000    1.1149023   -7.2675924    244.79774  0.026493262  0.027022823            3 
  771000    1.1387963   -7.3295674    244.64277   0.02644215  0.027013949            4 
  772000    1.0975534   -7.3173861    245.37281  0.026486702  0.027004758            2 
  773000    1.1172596   -7.3502483    244.85449   0.02639656  0.026995413            2 
  774000    1.1020905   -7.3084012    245.59017  0.026441663    0.0269858            1 
  775000     1.108204   -7.3041786    246.73371  0.026530506  0.026976661            5 
  776000    1.1250689   -7.3102223    246.42565  0.026463235   0.02696766            2 
  777000     1.110831   -7.2971982    246.66114  0.026454434  0.026958716            3 
  778000    1.0981462   -7.3138684    246.55384  0.026408937  0.026949734            2 
  779000    1.1289319   -7.3054544    247.05101  0.026428221  0.026940685            3 
  780000    1.1057499   -7.2516004    248.77853  0.026578903  0.026932257            3 
  781000    1.1415822   -7.2953999    247.74771  0.026434881  0.026923642            3 
  782000    1.1233062   -7.2904406    248.56149  0.026487797  0.026915014            3 
  783000    1.0855392   -7.3547963    248.59017  0.026457021   0.02690656            3 
  784000    1.1312314   -7.3431616    247.66592  0.026325034  0.026897783            4 
  785000    1.1463454   -7.2676226    249.70825  0.026508307  0.026889237            3 
  786000    1.1168914   -7.3034758    249.20694  0.026421432  0.026880504            1 
  787000    1.1556021   -7.2849663    248.93109  0.026358649  0.026871935            3 
  788000    1.1142556   -7.2994548    249.89748  0.026427399  0.026863678            3 
  789000    1.1282799   -7.2775643    250.09024  0.026414263  0.026855478            3 
  790000    1.1006473   -7.3041117    250.58733  0.026433263  0.026847146            2 
  791000    1.1339138   -7.3475715    250.03399   0.02634155  0.026838604            1 
  792000    1.1335178   -7.2810385    252.15924  0.026531906  0.026830606            4 
  793000    1.0994325   -7.2749549    251.21739  0.026399473  0.026822397            4 
  794000    1.1101713   -7.2728165    252.20535  0.026469915   0.02681405            1 
  795000    1.1634414   -7.2780445    253.27123  0.026548347  0.026805959            1 
  796000    1.1027378   -7.3015138     252.7448  0.026459883  0.026797613            3 
  797000    1.1176552   -7.2651859    253.05094  0.026458693  0.026789415            2 
  798000    1.0995281   -7.3370937    252.49579  0.026367563   0.02678121            3 
  799000    1.1099428   -7.3155341    252.23599  0.026307467  0.026772293            5 
  800000    1.1380621   -7.2912764    253.91312  0.026449283  0.026763965            4 
  801000    1.1115545   -7.3092165    253.56931  0.026380494    0.0267557            6 
  802000    1.1091697   -7.2586545    253.70218  0.026361407  0.026747267            3 
  803000    1.1379152   -7.3217094    253.31176  0.026288062  0.026738916            3 
  804000    1.1231953   -7.2863735    254.06998  0.026333953   0.02673043            2 
  805000     1.108547   -7.3145981     253.5404  0.026246418  0.026721906            2 
  806000    1.1355227   -7.3140491     253.6931  0.026229643  0.026713078            3 
  807000    1.1272506    -7.283577    255.04807  0.026337058   0.02670441            6 
  808000    1.0907782   -7.3191175    255.42768  0.026343614  0.026695778            6 
  809000    1.1699829   -7.2478217    255.51098  0.026319631  0.026687588            3 
  810000    1.1026087   -7.2800142    255.50276  0.026286292  0.026679244            4 
  811000    1.1316639   -7.3640899    254.66699  0.026168001  0.026670735            7 
  812000    1.1126333   -7.3480811    254.78489  0.026147874  0.026662153            3 
  813000    1.1313754   -7.2870249    256.70809  0.026312843  0.026653975            5 
  814000     1.136645   -7.3327662    256.42371  0.026251404  0.026645722            4 
  815000    1.1387746   -7.3044137    256.80466  0.026258145  0.026637581            4 
  816000    1.1287062   -7.3494053    257.02809  0.026248784   0.02662956            2 
  817000    1.1377957   -7.2806106    257.26835  0.026241162  0.026621424            4 
  818000    1.1109313   -7.3900478    256.66584  0.026147702  0.026612994            2 
  819000    1.1139891   -7.3443244    256.64604  0.026113761  0.026604506            2 
  820000    1.1171015   -7.2948228    257.19114  0.026137311  0.026595683            2 
  821000    1.1349846   -7.3308895    257.66111  0.026153178  0.026587071            2 
  822000    1.1204319   -7.2895347    258.35097  0.026191298  0.026578571            6 
  823000    1.1489093   -7.2802041    258.57875  0.026182539  0.026570023            4 
  824000    1.1131574   -7.3496508    257.82736  0.026074773  0.026561703            3 
  825000    1.1026879   -7.4066191     258.3193  0.026092859  0.026553137            3 
  826000    1.1197954   -7.2984762    259.49236  0.026179617  0.026544173            2 
  827000      1.12202   -7.2909154    259.63103  0.026161933  0.026535964            2 
  828000    1.1365166   -7.3261805    259.85602  0.026152981  0.026527446            1 
  829000    1.1159699    -7.325189    259.47533  0.026083166  0.026518968            4 
  830000    1.1231843   -7.3488608    259.46374  0.026050576  0.026510468            5 
  831000     1.137507   -7.3945961    259.85963  0.026058928  0.026501822            2 
  832000    1.1231235    -7.303025    262.26331  0.026268361  0.026493418            3 
  833000    1.1509223   -7.3030158    261.19021  0.026129472  0.026485201            3 
  834000    1.1306896   -7.3378857    261.19363  0.026098484  0.026477132            2 
  835000    1.1104414    -7.294528    262.17647  0.026165316  0.026468936            2 
  836000    1.1129778   -7.3556061    261.29921  0.026046572  0.026460705            2 
  837000    1.1127785    -7.281829    262.65387  0.026150326  0.026452691            2 
  838000     1.112968   -7.2964369    263.87982  0.026241032  0.026444748            4 
  839000    1.1168266   -7.2965288     262.9486  0.026117263  0.026436955            2 
  840000    1.1130384   -7.3196402    264.01099  0.026191566  0.026429286            2 
  841000    1.1405849    -7.356291    262.41253  0.026002034  0.026421327            3 
  842000     1.136081   -7.3382694    263.71759  0.026100316  0.026413361            1 
  843000    1.1019144   -7.2844003    263.84526  0.026081975  0.026405502            2 
  844000    1.1051104   -7.3216181     263.6925   0.02603599  0.026397288            3 
  845000    1.1224541   -7.3345612    264.86215  0.026120527  0.026389023            3 
  846000    1.1104016    -7.306125    264.21464  0.026025871  0.026381239            2 
  847000    1.1022093   -7.3435106    264.84003  0.026056674  0.026373145            1 
  848000    1.1168607   -7.3238673    264.91612  0.026033424  0.026364827            5 
  849000    1.1292073    -7.340936    264.04255  0.025917015   0.02635649            6 
  850000    1.1040711   -7.3374781    264.00839  0.025883176  0.026347947            2 
  851000    1.1477741   -7.3478141    264.94463  0.025944441  0.026339409            3 
  852000    1.1170323   -7.3513092    265.62564  0.025980599  0.026330771            4 
  853000    1.1300312   -7.3354634    265.46846  0.025934785  0.026322302            1 
  854000    1.1101697   -7.2981853    265.81971  0.025938691  0.026313827            2 
  855000    1.1192943   -7.3317328    265.88375  0.025914595  0.026305221            3 
  856000     1.144884   -7.3154853     266.0129  0.025896894  0.026296752            2 
  857000    1.1285848   -7.3058142    266.76577  0.025939885  0.026288216            2 
  858000    1.1249683   -7.3397268    266.77313  0.025910366  0.026279798            1 
  859000    1.1302058   -7.3458667    266.73016  0.025876034  0.026271256            4 
  860000    1.1228576    -7.327048    266.84614  0.025857184  0.026262613            1 
  861000    1.1154692   -7.2596574     268.2836  0.025966279  0.026254211            3 
  862000    1.1015345   -7.3463148    266.61167  0.025774524  0.026245529            4 
  863000    1.0913004   -7.3476474    267.91068  0.025870092  0.026236735            2 
  864000    1.1025727   -7.3660993    266.62338   0.02571599  0.026227743            4 
  865000    1.1073016   -7.3784376    267.08954  0.025731169  0.026218783            3 
  866000    1.1078562   -7.3819206    267.11315  0.025703729  0.026209862            3 
  867000    1.1266026   -7.3450474    267.51853  0.025713046  0.026201173            3 
  868000    1.1128773    -7.335526    269.27206  0.025851772  0.026192531            3 
  869000    1.1397658    -7.304734    269.24847  0.025819762  0.026184163            2 
  870000    1.1168792   -7.3805634     268.6437  0.025732155   0.02617573            3 
  871000    1.0936995   -7.3517406    269.24866  0.025760492  0.026166901            2 
  872000    1.1024604   -7.3204708    269.62808  0.025767209   0.02615843            5 
  873000    1.0824084   -7.3131769    269.42491    0.0257183  0.026149829            6 
  874000    1.1036541   -7.3295511    269.24925  0.025672125  0.026141035            1 
  875000    1.0856833   -7.3334614    270.12606  0.025726292  0.026132114            3 
  876000    1.1039203   -7.3469483    270.01798  0.025686642  0.026123258            6 
  877000    1.0990704   -7.3693408    269.45637  0.025603988  0.026114303            4 
  878000    1.0909613    -7.321485    270.47936  0.025671921  0.026105282            3 
  879000    1.0899116   -7.3238973    270.81573  0.025674605  0.026096466            2 
  880000    1.1199589   -7.3475154    270.66099  0.025630776  0.026087625            5 
  881000     1.103509   -7.3394878    270.81583  0.025616329  0.026078672            4 
  882000     1.109391   -7.3719091    271.10244  0.025614365  0.026069624            2 
  883000    1.0977009   -7.3482911    271.13947  0.025588852  0.026060307            1 
  884000    1.1084141   -7.3708786    271.30531  0.025575538  0.026051303            4 
  885000    1.1137159   -7.3081639    272.20532  0.025631386  0.026042224            9 
  886000    1.1086674   -7.3399008    272.62446   0.02564188  0.026033139            3 
  887000    1.1320522   -7.3208423     271.8362  0.025538914  0.026024042            2 
  888000    1.1000809   -7.3785157    271.58485  0.025486566  0.026014859            2 
  889000    1.1079554   -7.3636805    272.01694  0.025498401  0.026005331            2 
  890000    1.1068036   -7.3685593     272.1327  0.025480589  0.025995971            6 
  891000    1.1309973   -7.3423378    271.99122   0.02543876  0.025986603            7 
  892000    1.1090401   -7.3588287    272.69113  0.025475628  0.025977349            2 
  893000    1.0939195   -7.3497845    273.35774  0.025509307  0.025968249            2 
  894000    1.1101116   -7.3796284    273.56975  0.025500536  0.025958869            3 
  895000    1.0668544    -7.364532    273.38132  0.025454499  0.025949374            2 
  896000    1.1008165   -7.3449898    274.18303  0.025500653   0.02594014            1 
  897000    1.1288003   -7.3319884    274.39429  0.025491851  0.025931069            4 
  898000    1.1148696   -7.3297906    275.14968  0.025533564  0.025921784            2 
  899000    1.1149742   -7.3278102    274.82019  0.025474619  0.025912531            1 
  900000    1.1016764   -7.3483786    274.80586  0.025444987  0.025903339            1 
  901000     1.131196   -7.3439145    275.59004  0.025489275  0.025894298            2 
  902000     1.096733   -7.3336797    275.76846    0.0254775  0.025885711            3 
  903000    1.0979132   -7.3434404    276.60094  0.025526111  0.025876957            3 
  904000    1.1181991   -7.3463194    276.29992  0.025470125  0.025868031            2 
  905000    1.1014502    -7.343172    276.30149  0.025442126  0.025858859            3 
  906000    1.1202704   -7.3438309    276.42303  0.025425224  0.025849715            4 
  907000    1.1205028    -7.312838    277.01655  0.025451723  0.025840778            3 
  908000    1.1115137   -7.3592969    276.87726  0.025410909  0.025831561            3 
  909000    1.1019215   -7.3641955    276.66084  0.025363113  0.025822455            3 
  910000     1.099367   -7.3902641    277.07919  0.025373552  0.025813418            2 
  911000    1.0958913    -7.329274    277.40645  0.025375635   0.02580416            2 
  912000     1.094561   -7.3205786    277.88066  0.025391143  0.025795255            2 
  913000    1.1238763    -7.383105     277.5274  0.025331088  0.025786244            3 
  914000    1.0939628   -7.3632344    278.18839  0.025363639  0.025777202            2 
  915000    1.1241869   -7.3955983    277.12174  0.025238774  0.025768007            4 
  916000    1.1018632   -7.3477126    278.14467  0.025304282  0.025758742            3 
  917000    1.1167731   -7.3836867    277.32233  0.025201956  0.025749427            2 
  918000    1.0707618   -7.3712558    277.52701  0.025193084  0.025739962            4 
  919000     1.088899   -7.3827804    278.77715  0.025279031  0.025730358            2 
  920000    1.0962768   -7.3749215    277.96131  0.025177655  0.025720724            4 
  921000    1.0875252   -7.3651884    278.49289  0.025198415  0.025711131            2 
  922000    1.0997333   -7.3690903    278.80307   0.02519912  0.025701893            4 
  923000    1.1090962   -7.3370585    279.54803  0.025239078  0.025692821            3 
  924000    1.0904493   -7.3592553    280.21748  0.025272139  0.025683583            3 
  925000    1.1050939   -7.3939483    279.87646  0.025214095  0.025674258            3 
  926000     1.083973   -7.3974992    279.75389  0.025175836   0.02566465            3 
  927000    1.1192244    -7.365921    280.49653  0.025215437   0.02565512            8 
  928000    1.1281433   -7.3825565    279.94716  0.025138933  0.025645729            3 
  929000    1.1267525   -7.3887953    280.76245  0.025185006  0.025636437            5 
  930000    1.1164958   -7.3690496    281.60871  0.025233756  0.025627172            6 
  931000    1.0788022   -7.3557442    281.29909  0.025178938  0.025617992            3 
  932000    1.1130331   -7.3780901    281.68131  0.025186097  0.025609009            2 
  933000    1.1195581    -7.348684    281.57246   0.02514938  0.025599923            2 
  934000    1.1080687   -7.3508015    281.94474   0.02515567  0.025590906            4 
  935000    1.0844348   -7.3407358     281.2644  0.025068128  0.025581872            3 
  936000    1.1065496   -7.3866037    282.24455   0.02512861   0.02557263            5 
  937000    1.1067222   -7.3771418    282.04145   0.02508373  0.025563714            2 
  938000    1.1151072   -7.3881648    283.73824  0.025207733  0.025554592            4 
  939000     1.108614   -7.3139849      285.117  0.025303248  0.025545643            1 
  940000     1.113776    -7.397877    283.85342   0.02516431  0.025536821            3 
  941000     1.089435   -7.3457811    285.12146  0.025249864  0.025528183            3 
  942000    1.1024094   -7.3656903    284.71251  0.025186882  0.025519825            3 
  943000    1.0866081   -7.3598274    284.90699  0.025177359   0.02551148            4 
  944000    1.1254004   -7.3475887    285.43427  0.025197234  0.025503031            4 
  945000    1.0860299   -7.3724174    284.98884  0.025131291  0.025494426            3 
  946000    1.0747975   -7.3817451    284.44542  0.025056855  0.025485757            3 
  947000    1.0815855   -7.3668408    285.47884  0.025121334  0.025476995            3 
  948000    1.0896875   -7.3829418    285.71888  0.025115935  0.025468245            4 
  949000    1.0934624   -7.4146673    284.75432   0.02500477   0.02545926            6 
  950000    1.1162129   -7.3567655    286.03259  0.025090578  0.025450514            2 
  951000    1.0908469   -7.3851449    285.75049  0.025039475  0.025441733            2 
  952000    1.0843478   -7.4403843    284.88055  0.024937023  0.025432609            1 
  953000    1.0883133   -7.3912706     285.8122  0.024992323  0.025423617            4 
  954000    1.0880564   -7.3826244    286.73522  0.025046753  0.025414796            2 
  955000    1.0792989    -7.425887    285.67861  0.024928326  0.025405877            1 
  956000     1.083814   -7.3569933    288.79133  0.025173582  0.025397053            2 
  957000    1.1090922    -7.339836    288.35417   0.02510921  0.025388502            3 
  958000    1.0929814   -7.3985661    288.39076  0.025086183  0.025379861            2 
  959000    1.0851613   -7.3833444    288.82938  0.025098139  0.025371326            3 
  960000    1.0963683   -7.3918123    288.43288  0.025037577  0.025362806            4 
  961000    1.0664321   -7.3925828    288.88049  0.025050337  0.025354226            2 
  962000    1.1073691   -7.3427872    288.75435   0.02501337  0.025345779            6 
  963000    1.1079901   -7.3912487    288.89392  0.024999474  0.025337283            4 
  964000    1.0878389   -7.3824423    288.95221   0.02497858  0.025328728            2 
  965000    1.1277058   -7.3726823    289.22606  0.024976343  0.025320227            2 
  966000    1.0931606   -7.3749322    289.91654  0.025010053  0.025311611            3 
  967000    1.1000429   -7.3810419    289.58227  0.024955383  0.025302972            4 
  968000    1.0728761    -7.376645     290.3038  0.024991718  0.025294611            2 
  969000    1.1078983   -7.4108319    290.14885  0.024952602  0.025286168            3 
  970000     1.103686   -7.4196755    290.84741  0.024986891  0.025277706            4 
  971000    1.0925168   -7.3535617    290.99885  0.024974155  0.025269406            2 
  972000    1.0953723    -7.385949    291.10458  0.024957525  0.025260963            2 
  973000     1.099902   -7.4268881    291.25227  0.024944525  0.025252481            5 
  974000    1.0791266   -7.4177763    290.88104  0.024887153  0.025243939            3 
  975000    1.0782935   -7.3499511     292.3533  0.024987461  0.025235711            4 
  976000    1.0786327   -7.3799139    291.82278  0.024916563  0.025227419            3 
  977000    1.1053868   -7.3943906    291.79571  0.024888751  0.025219054            4 
  978000    1.0803169   -7.3993133    291.95262  0.024876672  0.025210669            1 
  979000    1.0770595   -7.3693708    292.54308  0.024901522  0.025202548            2 
  980000      1.11215   -7.3987756    292.89037  0.024905643  0.025194322            3 
  981000    1.1046329   -7.3774483    294.13483  0.024985969  0.025186138            4 
  982000    1.1175779   -7.3968718    293.77633  0.024930103  0.025178146            3 
  983000    1.0929156   -7.4367159     293.7447   0.02490206  0.025170176            2 
  984000    1.0986358   -7.4303672    293.47006  0.024853494  0.025162078            4 
  985000    1.0929164   -7.4123003    294.28305  0.024897043   0.02515412            5 
  986000     1.110783   -7.4117822     294.3986  0.024881559  0.025146226            4 
  987000    1.0945105   -7.3484382    295.77511  0.024972569  0.025138516            2 
  988000    1.0892169   -7.3973873     294.6146   0.02484941   0.02513072            1 
  989000    1.0965919   -7.4017809     295.6014  0.024907432  0.025122917            3 
  990000    1.0796188   -7.3694078    297.18326  0.025015426  0.025115333            1 
  991000    1.1057365   -7.3882248    297.23464  0.024994504  0.025107939            3 
  992000    1.1123729   -7.3934748    297.10165  0.024958136  0.025100632            5 
  993000    1.0970978   -7.4220156    295.77234  0.024821445  0.025093192            3 
  994000    1.1109051   -7.4284312    296.53174  0.024860139  0.025085749            3 
  995000    1.1067189   -7.4220059    297.45858  0.024912778  0.025078222            3 
  996000    1.0994114   -7.4207656    297.98522  0.024931829   0.02507061            5 
  997000    1.1141609   -7.3875637    298.16607  0.024921938  0.025063103            3 
  998000    1.0855925    -7.367195    298.20857  0.024900515  0.025055528            2 
  999000    1.1040625   -7.3486059    298.63363  0.024911047  0.025047985            3 
 1000000    1.0879163   -7.3722692    297.79629  0.024816357  0.025040357            3 
 1001000    1.0723164   -7.4362423    297.17272  0.024739654  0.025032647            3 
 1002000    1.1025901   -7.3924426    298.93841  0.024861811   0.02502495            3 
 1003000    1.1140982   -7.4218224    298.89608  0.024833506  0.025017454            4 
 1004000    1.0863493   -7.3844568    299.49812  0.024858742  0.025009866            3 
 1005000    1.0824237   -7.3692247    300.50367  0.024917386  0.025002396            4 
 1006000    1.1107198   -7.3893185    300.26759  0.024873061  0.024995242            1 
 1007000    1.0934563    -7.390933    300.87644  0.024898745  0.024987886            3 
 1008000    1.0895583   -7.4023828    300.31567  0.024827684  0.024980519            2 
 1009000    1.0755538   -7.3912551    301.77468  0.024923578  0.024973109            4 
 1010000    1.0732361    -7.419484     300.6326   0.02480467  0.024965684            3 
 1011000    1.0856949   -7.3864625    301.16688  0.024824174  0.024958212            5 
 1012000    1.1105338   -7.4145462    300.49428  0.024744259  0.024950918            2 
 1013000    1.0676051   -7.4206914    301.00455  0.024761809  0.024943567            2 
 1014000    1.0699156    -7.408063    302.16455  0.024832721  0.024936361            1 
 1015000     1.093891   -7.3770214    302.87591   0.02486666  0.024929133            4 
 1016000    1.0763898   -7.4187961    301.53651  0.024732325  0.024921715            5 
 1017000    1.0796598   -7.3972777    301.75387  0.024725817  0.024914382            4 
 1018000    1.0691785   -7.3785039    302.92003   0.02479699  0.024907135            3 
 1019000    1.0708515   -7.4227019     302.4303  0.024732605  0.024899764            6 
 1020000    1.0668917   -7.4250394    302.85474  0.024743034  0.024892364            4 
 1021000    1.0741731   -7.4444003    303.34475  0.024758795  0.024885066            3 
 1022000    1.0945161   -7.4073791    304.29561  0.024812101  0.024877727            3 
 1023000    1.1004879   -7.3906747    304.22307  0.024781938  0.024870504            4 
 1024000    1.0958036   -7.3987086    304.02073  0.024741271  0.024863305            2 
 1025000    1.1147466   -7.4231545    304.35377  0.024744209  0.024856099            3 
 1026000    1.0683677   -7.3770864    306.41013  0.024887112  0.024848889            2 
 1027000    1.0758046    -7.408311    304.85991  0.024737091  0.024841866            3 
 1028000    1.0635137   -7.3917048     305.3444  0.024752302  0.024834532            3 
 1029000    1.0850263   -7.4535087    304.15932  0.024632274  0.024827038            3 
 1030000    1.0751677   -7.4202907    305.43734  0.024711759  0.024819607            3 
 1031000    1.0852155   -7.4445642    304.86705  0.024641695  0.024812024            4 
 1032000    1.1026911   -7.4237199    304.49513  0.024587785  0.024804549            6 
 1033000    1.0719867   -7.4677003    305.80377  0.024669552  0.024796996            6 
 1034000    1.0823223   -7.4156142    306.11246  0.024670572  0.024789179            4 
 1035000    1.0629388   -7.4223121    306.46282  0.024674946   0.02478178            2 
 1036000    1.0872858   -7.3771144    307.86409  0.024763842  0.024774376            3 
 1037000    1.1126748   -7.3663166    307.50518   0.02471112  0.024766963            3 
 1038000    1.0948009   -7.4144979    307.05624  0.024651272  0.024759711            2 
 1039000    1.0893117   -7.4306661    306.45888  0.024579634  0.024752438            1 
 1040000    1.0965543    -7.413611    307.09301  0.024606811  0.024745041            3 
 1041000    1.0891221   -7.4503128    307.03666  0.024578663   0.02473757            2 
 1042000    1.1012255   -7.4672018     307.5879   0.02459916  0.024730074            3 
 1043000     1.085417    -7.421831    307.96593  0.024605779  0.024722696            5 
 1044000    1.1058317   -7.4080259    307.67998  0.024559385   0.02471521            3 
 1045000    1.0947778    -7.424791    308.42574  0.024595354  0.024707842            3 
 1046000    1.0869557   -7.4260341    308.98938  0.024616745    0.0247007            3 
 1047000    1.0722859   -7.4584307    307.64555  0.024486274  0.024693197            7 
 1048000    1.0885259   -7.4206657     308.3196  0.024516508  0.024685736            3 
 1049000    1.0833962   -7.4199085    308.18506  0.024482448  0.024678239            4 
 1050000    1.0940561   -7.3972197    309.74326  0.024582798  0.024670913            2 
 1051000    1.0961233   -7.4114333    309.75503  0.024560342  0.024663494            4 
 1052000    1.0884518   -7.4073921    309.15253  0.024489269  0.024656054            5 
 1053000    1.1224548   -7.3913824    309.57153  0.024499172  0.024648624            3 
 1054000      1.09813   -7.4422371      309.356  0.024458887  0.024641194            3 
 1055000    1.0852557   -7.4379244    309.73278  0.024465464  0.024633686            2 
 1056000    1.0896542   -7.4276861    310.67456  0.024516616  0.024626073            2 
 1057000    1.0834087   -7.4602871    310.34656  0.024467562  0.024618451            3 
 1058000    1.0718588   -7.4206967    309.80511  0.024401789  0.024610821            3 
 1059000    1.0588525   -7.4111426    310.02026  0.024395676  0.024603208            5 
 1060000    1.0876656   -7.4151696    312.35397   0.02455613   0.02459553            4 
 1061000    1.0816656   -7.4754191    310.76238  0.024407978  0.024587703            2 
 1062000    1.0849509   -7.4767692    310.56315  0.024369362  0.024579883            3 
 1063000    1.0848533     -7.45502    311.14574  0.024392109  0.024572104            1 
 1064000    1.0707269   -7.4004018    313.01263    0.0245154   0.02456471            2 
 1065000    1.0556915   -7.4179087    312.61428  0.024461211  0.024557409            3 
 1066000    1.0555983   -7.4457758    312.42607  0.024423552  0.024549938            3 
 1067000    1.0753885   -7.3711988    312.87269  0.024435543  0.024542542            4 
 1068000    1.0751601   -7.4191643    313.37925  0.024452188  0.024535157            6 
 1069000    1.0921353   -7.4097788    312.92101  0.024393593  0.024527798            3 
 1070000     1.086707   -7.4197674    313.09111  0.024384043   0.02452051            2 
 1071000    1.0656619   -7.3876962    313.54866  0.024396877   0.02451311            3 
 1072000    1.0802846   -7.4069776    314.34788  0.024436247   0.02450577            4 
 1073000    1.0814485   -7.4402355    314.18856  0.024401099  0.024498652            6 
 1074000    1.0824018   -7.4123475    314.86647   0.02443098  0.024491483            3 
 1075000    1.1207048    -7.424705     314.7382   0.02439831  0.024484311            4 
 1076000    1.0525847   -7.4045075    314.88569  0.024387058  0.024477054            8 
 1077000    1.0908557   -7.4434861    314.15218  0.024307659  0.024469625            4 
 1078000    1.0875577   -7.4217559    314.67203  0.024325296  0.024462217            2 
 1079000    1.0903037   -7.4360665    314.43904  0.024284757  0.024454855            3 
 1080000    1.0598424   -7.4452074    314.22197  0.024245522  0.024447336            3 
 1081000    1.0606168   -7.4749767    314.95283  0.024279435  0.024439779            4 
 1082000      1.06914   -7.4369426    315.63922   0.02430986  0.024432217            2 
 1083000    1.0627937   -7.4379265    315.45513  0.024273248  0.024424693            2 
 1084000    1.0631322    -7.394739    316.05715  0.024297136  0.024417314            2 
 1085000    1.1149366   -7.4537678    315.78128  0.024253554  0.024409875            4 
 1086000    1.0832717   -7.4471328    316.16604  0.024260746   0.02440235            2 
 1087000    1.0509206   -7.4062697    315.60181  0.024195171  0.024394889            3 
 1088000    1.0550675   -7.4323805    316.76149  0.024261756  0.024387254            3 
 1089000    1.1062984   -7.4445472    315.92069  0.024175137  0.024379723            3 
 1090000    1.0692739   -7.4093913    316.68194  0.024211158  0.024372148            3 
 1091000     1.097245   -7.4454611    317.86124  0.024279044  0.024364587            3 
 1092000    1.0463068   -7.4213742    317.91505  0.024260916  0.024357164            4 
 1093000    1.0655517   -7.4683403    317.83007  0.024232241  0.024349626            2 
 1094000    1.0714005   -7.4857933    317.33515  0.024172391  0.024342079            4 
 1095000    1.0849264   -7.4152502    318.22377  0.024217943   0.02433452            6 
 1096000    1.0662586   -7.4582247    317.83007  0.024165911  0.024327249            2 
 1097000    1.0800095   -7.4262209    318.66527  0.024207328  0.024319942            2 
 1098000    1.0832431   -7.4561857    318.90678  0.024203611   0.02431274            2 
 1099000    1.0860836   -7.4602495    318.70739  0.024166469  0.024305375            4 
 1100000    1.0772077    -7.430399    319.05483   0.02417082  0.024298091            4 
 1101000    1.0704509   -7.4398469     319.6225  0.024191833  0.024290806            2 
 1102000    1.0538138   -7.4262474    320.07931  0.024204424   0.02428341            2 
 1103000    1.0640815   -7.4045406    320.23533  0.024194268  0.024276137            7 
 1104000    1.1145083   -7.4448958    319.75262  0.024135916  0.024268948            4 
 1105000    1.0719691   -7.3958174    320.77363  0.024191073  0.024261835            2 
 1106000    1.0936859   -7.4532431    319.93728  0.024106185   0.02425464            4 
 1107000      1.07727   -7.4316769    319.92609  0.024083566  0.024247384            5 
 1108000    1.0643433   -7.4360673    320.90037  0.024135106  0.024240058            2 
 1109000    1.1055956   -7.4325632    320.86381  0.024110596  0.024232623            2 
 1110000    1.0726818   -7.4391079    320.22091  0.024040609  0.024225196            7 
 1111000    1.0635912   -7.4288256    320.97417  0.024075471  0.024217878            3 
 1112000    1.0877667   -7.4642283    321.24338  0.024073994  0.024210423            5 
 1113000    1.0588041   -7.4472525    321.88684  0.024100542  0.024202817            4 
 1114000    1.0609349   -7.4780364    320.95325   0.02400907   0.02419526            4 
 1115000    1.0639899   -7.4659527    321.31907  0.024014878  0.024187681            3 
 1116000    1.0719738   -7.4353652    321.97564  0.024042386  0.024180059            3 
 1117000     1.067117   -7.4551754    322.38317  0.024051266   0.02417266            5 
 1118000    1.0774449   -7.4473236    322.41153  0.024031867  0.024165207            2 
 1119000    1.0605831   -7.4854433    322.36974  0.024007279  0.024157715            3 
 1120000    1.0845258   -7.4819491    323.11606  0.024041374  0.024150197            3 
 1121000      1.08345   -7.4347641    323.74784  0.024066892  0.024142642            3 
 1122000    1.0568477   -7.4516287    323.02762   0.02399195     0.024135            4 
 1123000    1.0406022   -7.4770242    322.11258  0.023902685  0.024127346            5 
 1124000    1.0684887   -7.4230849    323.36545  0.023974307  0.024119557            3 
 1125000    1.0895529   -7.4841508    322.19058  0.023865969  0.024111744            2 
 1126000    1.0750573   -7.4255471    323.13321  0.023914536  0.024104052            1 
 1127000    1.0622251   -7.4581802    324.01261  0.023958341  0.024096222            4 
 1128000    1.0825391   -7.4359788    323.95388  0.023932763  0.024088403            3 
 1129000     1.049841   -7.4691937    322.64905  0.023815253  0.024080532            2 
 1130000     1.078448   -7.4848478    322.50648  0.023783663  0.024072623            7 
 1131000    1.0786964    -7.483625    323.80296  0.023858161  0.024064556            4 
 1132000    1.0451932   -7.4866107    322.35627  0.023730585  0.024056332            5 
 1133000     1.076301   -7.4188666     324.4639  0.023864659   0.02404829            3 
 1134000    1.0882108   -7.4456114    323.90677  0.023802673  0.024040343            1 
 1135000    1.0647029   -7.4104103     324.4124  0.023818825  0.024032565           14 
 1136000     1.069847   -7.4493629    324.37452  0.023795079  0.024024742            2 
 1137000    1.0501041   -7.4547102    324.99146  0.023819368  0.024016766            4 
 1138000    1.0773034   -7.4449631    325.43456  0.023830884  0.024008785            1 
 1139000    1.0557105   -7.4690695    325.79191  0.023836107  0.024000825            2 
 1140000    1.0762399   -7.4671963     325.4294  0.023788699  0.023992832            4 
 1141000    1.0825075   -7.5032593    325.13554  0.023746388  0.023984857            3 
 1142000    1.0538646   -7.4746714    326.55468  0.023829151  0.023976881            3 
 1143000    1.0708367    -7.478417    325.63678  0.023741381   0.02396881            9 
 1144000    1.0747482   -7.4604532    325.95966  0.023744148  0.023960806            2 
 1145000    1.0794587   -7.4836048    326.11788  0.023734926   0.02395268            8 
 1146000    1.0509587   -7.4616531    326.08143  0.023711564  0.023944492            8 
 1147000    1.0574109   -7.4538311    326.37528  0.023712241  0.023936405            4 
 1148000    1.0588328   -7.4490128    326.78951  0.023721654  0.023928424            4 
 1149000    1.0588787   -7.4962788     326.4503  0.023676407  0.023920263            6 
 1150000    1.0632447   -7.4821223    326.46275  0.023656721  0.023911915            9 
 1151000    1.0735961    -7.467545    326.34626  0.023627734  0.023903776            6 
 1152000    1.0820738   -7.4479336    326.85778  0.023644226  0.023895665            6 
 1153000    1.1122175   -7.4651868    327.20399  0.023648741  0.023887437            7 
 1154000    1.0719939    -7.479567    326.79933  0.023599027  0.023879235            1 
 1155000    1.0472535   -7.4965728    327.82052  0.023652274  0.023870965            2 
 1156000    1.0412894   -7.4956323    326.75451  0.023554967  0.023862575            6 
 1157000    1.0726149   -7.4813796    327.20985  0.023567405  0.023854395            4 
 1158000     1.069229   -7.4460518    327.69538  0.023581993  0.023846346            8 
 1159000     1.070507   -7.4300327    330.09183  0.023733954  0.023838433            5 
 1160000    1.0870029   -7.4663916    328.60306  0.023606542  0.023830495            4 
 1161000     1.059561    -7.408877    330.38608  0.023714189  0.023822637            3 
 1162000    1.0711721   -7.4414772    330.35394  0.023691476  0.023814717            3 
 1163000    1.0700001   -7.4739176    329.50057  0.023609958  0.023806999            9 
 1164000    1.0502769   -7.4952816    330.04359   0.02362855  0.023799237            4 
 1165000    1.0532402   -7.4477808    329.74794   0.02358712  0.023791334            6 
 1166000    1.0624749   -7.4727496    331.00509  0.023656739  0.023783575            2 
 1167000    1.0702826   -7.4291084    330.56414   0.02360498  0.023775847            3 
 1168000    1.0705325   -7.4262444    331.79051  0.023672268  0.023768193            5 
 1169000     1.068236   -7.4370368    331.00852  0.023596273  0.023760411            8 
 1170000    1.0473753   -7.4927617     330.7763  0.023559566  0.023752568            4 
 1171000    1.0647765   -7.5138286    330.51867  0.023521112    0.0237447            3 
 1172000    1.0877408   -7.4826423    330.47074  0.023497635  0.023736841            2 
 1173000    1.0739071   -7.4759429    330.27587  0.023463759  0.023728774            4 
 1174000    1.0462162   -7.5162023    331.10541  0.023502656  0.023720629           11 
 1175000    1.0682669    -7.423702    332.70711  0.023596249  0.023712597            2 
 1176000    1.0548315   -7.5270588    331.90412  0.023519283  0.023704572           11 
 1177000       1.0317   -7.4781268    331.32446  0.023458259  0.023696497            3 
 1178000    1.0431909   -7.5098449    331.81275  0.023472888  0.023688391            2 
 1179000    1.0460051   -7.4348688    332.99449  0.023536506  0.023680406            3 
 1180000    1.0562397   -7.4634084    332.45035  0.023478132  0.023672442            3 
 1181000    1.0605621   -7.4792136    332.03474  0.023428926  0.023664226            3 
 1182000     1.062077   -7.4301223     332.4884  0.023441088  0.023656136            4 
 1183000    1.0779668   -7.5079148    332.05581  0.023390801  0.023648084            6 
 1184000    1.0557822   -7.4776719    332.47193  0.023400333  0.023639707            3 
 1185000    1.0808172   -7.5104079    330.98929  0.023276322   0.02363134            3 
 1186000    1.0717101   -7.5472362    331.31018  0.023279243   0.02362286            3 
 1187000    1.0480947    -7.496813    333.23594  0.023394828  0.023614441            3 
 1188000    1.0642119   -7.4688905    333.93767   0.02342436  0.023606103            3 
 1189000      1.09104   -7.4864375     332.7757   0.02332322  0.023597835            3 
 1190000    1.0698788   -7.4846907    333.40751  0.023347865  0.023589536            4 
 1191000    1.0684827   -7.5059426      332.684  0.023277638  0.023581301            3 
 1192000    1.0783706   -7.4569785    333.70724  0.023329645  0.023573032            2 
 1193000    1.0757515   -7.4928932    333.78803  0.023315733  0.023564741            6 
 1194000    1.0709129   -7.5177658    333.07537  0.023246466    0.0235564            3 
 1195000    1.0690401   -7.5006734    333.27737  0.023241099  0.023548015            3 
 1196000    1.0695346   -7.4648335    334.17043  0.023283893  0.023539746            2 
 1197000    1.0490429   -7.4923124    334.73621  0.023303829  0.023531285            4 
 1198000    1.0670293   -7.5058687    334.20949  0.023247738  0.023522821            6 
 1199000    1.0794875   -7.4994651    335.12308  0.023291846   0.02351467            2 
 1200000    1.0835689   -7.4728959    334.99004  0.023263197  0.023506631            6 
 1201000    1.0570282   -7.4852015    333.82185  0.023162771  0.023498512            5 
 1202000    1.0847124   -7.4738898     335.2951  0.023245639  0.023490349            1 
 1203000    1.0586634   -7.4961945    334.93889  0.023201641  0.023482257            2 
 1204000    1.0346716   -7.4709279    336.40638  0.023283941  0.023474243            5 
 1205000    1.0862016     -7.44518    337.33614  0.023328917   0.02346622            2 
 1206000    1.0655321   -7.5242279    336.24477   0.02323416  0.023458372            4 
 1207000    1.0503061   -7.4733448    336.47614  0.023230885  0.023450389            3 
 1208000    1.0494128    -7.525408    336.63735  0.023222775  0.023442289            3 
 1209000    1.0734005   -7.5148282    336.19962  0.023173396  0.023434139            2 
 1210000     1.076302    -7.499686    336.69958  0.023188677  0.023426198            5 
 1211000     1.049062    -7.508747    336.54273  0.023158735  0.023418159            5 
 1212000     1.052158   -7.5186873    337.16758  0.023182589  0.023409938            3 
 1213000     1.063624   -7.4915168    337.73726  0.023202615  0.023401992            9 
 1214000    1.0653452   -7.4690314    337.55249  0.023170819  0.023394006            9 
 1215000    1.0674159   -7.5027558    337.86751  0.023173355   0.02338591            5 
 1216000    1.0647752      -7.4631    338.69416  0.023210949  0.023377823            3 
 1217000     1.055273   -7.4396365    339.32907  0.023235351  0.023369989            2 
 1218000    1.0679671    -7.508956    339.08049  0.023199267  0.023361962            9 
 1219000    1.0523407   -7.5176169    338.53626  0.023143031   0.02335388            4 
 1220000    1.0623303   -7.4596554    340.33564   0.02324697   0.02334576            2 
 1221000    1.0760447   -7.4919904    339.07264  0.023141731  0.023337737            6 
 1222000     1.052684   -7.4426961    340.08682  0.023191954  0.023329938            4 
 1223000    1.0397628   -7.5045576    338.06934  0.023035523  0.023322072            3 
 1224000     1.041588   -7.4834362    340.48774  0.023181355  0.023314035            2 
 1225000    1.0575302   -7.5369753     338.5716  0.023032082  0.023305963            5 
 1226000    1.0498894   -7.4689331     341.2364  0.023194426  0.023297842            3 
 1227000    1.0444233   -7.5374088     339.8678  0.023082573  0.023289881            4 
 1228000    1.0809187   -7.4639453    339.80899  0.023059785  0.023281748            2 
 1229000    1.0361816   -7.4915508    340.02931  0.023055961   0.02327367            5 
 1230000    1.0490831   -7.4969423    340.31808  0.023056781  0.023265538            3 
 1231000    1.0251671    -7.561975    339.32871  0.022971075  0.023257238            6 
 1232000    1.0631631   -7.4820139    341.34714  0.023088957  0.023248879            2 
 1233000    1.0515537    -7.505791    341.16544  0.023057951  0.023240749            4 
 1234000    1.0373292   -7.4847896    340.41182  0.022988373  0.023232618            3 
 1235000    1.0662918   -7.4956242    340.72074  0.022990603  0.023224702            2 
 1236000    1.0422452   -7.5495531    340.49396  0.022956713  0.023216475            5 
 1237000    1.0598965    -7.530568    340.44818   0.02293507  0.023208272            3 
 1238000    1.0751811   -7.5402816    341.15334  0.022964011   0.02319998            2 
 1239000    1.0391288   -7.5430747    340.95991  0.022932466  0.023191816            2 
 1240000    1.0431781   -7.5108756    341.42283  0.022945083  0.023183642            2 
 1241000     1.048594    -7.502692    342.31958  0.022986811  0.023175482            3 
 1242000     1.049267   -7.4751786    342.68053  0.022992521  0.023167342            1 
 1243000    1.0511803    -7.518172     341.7453  0.022911324  0.023159147            6 
 1244000    1.0339835   -7.5071037    342.31511  0.022931077  0.023150945            3 
 1245000    1.0553215   -7.5314252    341.86415  0.022882473  0.023142637            5 
 1246000    1.0502578   -7.5298664    342.00359  0.022873434  0.023134373            2 
 1247000     1.056764    -7.518857    342.92964  0.022916977  0.023126107            3 
 1248000    1.0530461   -7.5204635    341.79224  0.022822666  0.023117871            3 
 1249000     1.057227   -7.4919979    343.09099  0.022891046  0.023109661            2 
 1250000    1.0456766   -7.5170272    342.82276  0.022854851  0.023101258            3 
 1251000    1.0342428   -7.5606261    341.77278  0.022766639  0.023092871            6 
 1252000    1.0502874   -7.5122395    342.15785  0.022774085  0.023084291            6 
 1253000    1.0535307   -7.4985211    342.89939  0.022805227  0.023075897            3 
 1254000    1.0628859   -7.5032056    343.77837  0.022845453  0.023067697            2 
 1255000    1.0596716   -7.5309865    343.34638  0.022798564  0.023059427            5 
 1256000    1.0416895   -7.4827794     344.3827  0.022849171  0.023051035            2 
 1257000    1.0317016   -7.5330701    343.55669  0.022776232  0.023042716            3 
 1258000    1.0351353   -7.5058362    344.18325  0.022799633  0.023034442            2 
 1259000    1.0467561   -7.5138169    344.72127  0.022817134  0.023026111            2 
 1260000    1.0467674   -7.4880247    344.82926  0.022806168  0.023017918            2 
 1261000    1.0380313   -7.4689864    346.51834  0.022899706  0.023009805            2 
 1262000    1.0686153   -7.5045356    345.08749  0.022787076  0.023001666            1 
 1263000    1.0448723   -7.5405423    345.31587  0.022784104  0.022993624            9 
 1264000    1.0470953   -7.5019397    345.22452  0.022760055  0.022985398            2 
 1265000    1.0536148   -7.4850572    345.52691  0.022761983  0.022977418            3 
 1266000    1.0711662   -7.5284816    344.69297  0.022689111  0.022969437            3 
 1267000    1.0381482   -7.5299406    346.64783  0.022799779  0.022961406            2 
 1268000     1.070217   -7.4801664    347.05021  0.022808242  0.022953411            3 
 1269000    1.0565594   -7.4786401    347.48118   0.02281857  0.022945506            2 
 1270000     1.045761   -7.5091919    347.83578   0.02282387  0.022937613            1 
 1271000    1.0520565   -7.5115658    348.02308  0.022818193  0.022929613            4 
 1272000    1.0568002   -7.5429544    346.72213  0.022715024  0.022921571            3 
 1273000    1.0196134    -7.544563    347.22019  0.022729785  0.022913581            8 
 1274000    1.0447232   -7.5275002    347.64792  0.022739922  0.022905623            5 
 1275000    1.0472003   -7.5696978    346.65876  0.022657435  0.022897606            2 
 1276000    1.0378152   -7.5017334    347.17724   0.02267354  0.022889481            4 
 1277000    1.0554865   -7.5679343    348.13277  0.022718139  0.022881447            2 
 1278000    1.0262783   -7.4757089    347.94849  0.022688347  0.022873413            6 
 1279000    1.0555574   -7.5105326    348.80935  0.022726697  0.022865494            3 
 1280000     1.065087   -7.5332174    348.04316   0.02265906  0.022857546            2 
 1281000     1.019218    -7.527877    348.79063  0.022689997   0.02284966            6 
 1282000    1.0574618   -7.5047232    349.29406  0.022705022   0.02284179            1 
 1283000    1.0284955   -7.5024142    349.40271  0.022694382  0.022834026            5 
 1284000    1.0636721   -7.5143822     349.0842  0.022656036  0.022826095            8 
 1285000    1.0423812   -7.5288654    349.01179  0.022633709  0.022818159            3 
 1286000    1.0491767   -7.4996369    350.34301  0.022702372  0.022810209            6 
 1287000    1.0498507   -7.5382502    350.27835  0.022680546   0.02280223            6 
 1288000    1.0412371   -7.5350173    349.53368  0.022614756  0.022794267            5 
 1289000    1.0618404   -7.5303944    350.38522  0.022652264  0.022786311            2 
 1290000    1.0305082   -7.5321258    351.03107  0.022676425   0.02277838            6 
 1291000    1.0258122   -7.5226294    351.40077  0.022682725  0.022770538            7 
 1292000    1.0340751   -7.5421961    350.88512  0.022631909  0.022762767            4 
 1293000     1.042774   -7.4907281     352.1851  0.022698189  0.022755061            2 
 1294000    1.0490886   -7.5472272    350.64255  0.022581308  0.022747247            2 
 1295000    1.0518612   -7.5354263    351.75534  0.022635479  0.022739374            6 
 1296000    1.0297321    -7.525746    352.23097  0.022648596  0.022731737            7 
 1297000    1.0400604   -7.5636509    351.52405  0.022585714  0.022724003            3 
 1298000    1.0475518   -7.5082473    352.43549  0.022626829  0.022716192            3 
 1299000    1.0288645   -7.5003999    351.43925  0.022545499  0.022708243            2 
 1300000    1.0345738   -7.5774927    351.04016  0.022502575  0.022700287            7 
 1301000    1.0260164   -7.5364653    352.63586  0.022587488   0.02269222            8 
 1302000    1.0313174   -7.5098392    352.61262  0.022568652  0.022684383            5 
 1303000    1.0593888   -7.5486917    352.14099  0.022521168  0.022676387            4 
 1304000    1.0463015   -7.5458855    352.74344  0.022542398  0.022668499            2 
 1305000    1.0297163   -7.5440215    352.28886  0.022496096  0.022660531            6 
 1306000    1.0187761   -7.5508485    352.34003  0.022482136  0.022652562            3 
 1307000    1.0477916   -7.5484751     352.1552   0.02245315  0.022644537            2 
 1308000    1.0295156   -7.4967245    354.03855  0.022555973  0.022636609            5 
 1309000    1.0415806   -7.5185864    352.73192  0.022455559    0.0226288            4 
 1310000    1.0489863   -7.5329522    353.47533  0.022485708  0.022621022            2 
 1311000    1.0649579   -7.5374624    353.85772  0.022492863  0.022613209            4 
 1312000    1.0334538   -7.5746995    353.73225   0.02246775  0.022605369            3 
 1313000     1.012391    -7.549868    352.89998  0.022397815  0.022597463            5 
 1314000    1.0254836   -7.5488657     354.4974  0.022482078  0.022589613            5 
 1315000    1.0188726   -7.5354978    355.15099    0.0225064  0.022581755            3 
 1316000    1.0489797   -7.5477644    354.30969  0.022436024  0.022574018            4 
 1317000    1.0448224   -7.5255261     354.9454  0.022459213  0.022566229            5 
 1318000    1.0613868   -7.5464581    355.34796  0.022467625  0.022558407            6 
 1319000    1.0213079   -7.5758471    353.75537  0.022349973  0.022550563            3 
 1320000     1.046033   -7.5311408    353.70095  0.022329606  0.022542708            3 
 1321000    1.0261013    -7.551629    354.05411  0.022334981  0.022534752            3 
 1322000    1.0438017   -7.5097062    356.10123  0.022447128  0.022526925            3 
 1323000    1.0239399   -7.5461412    354.66735  0.022339843   0.02251908            2 
 1324000    1.0728798   -7.5660452    355.16189  0.022354097  0.022511335            2 
 1325000    1.0566182   -7.5357694    355.37949  0.022350912   0.02250349            5 
 1326000    1.0399746   -7.5307433    355.33017  0.022330956  0.022495726            3 
 1327000    1.0172877   -7.5761828     355.9083  0.022350433  0.022488043            3 
 1328000    1.0365919   -7.4990591    357.09664  0.022408173  0.022480406            3 
 1329000    1.0439918    -7.486689     357.9094  0.022442275  0.022472781            6 
 1330000    1.0153031   -7.5579523    357.15531  0.022378152  0.022465026            4 
 1331000    1.0454028   -7.5194612    357.71165  0.022396171  0.022457417            2 
 1332000    1.0333318   -7.5415045    357.14549  0.022343937  0.022449909            2 
 1333000    1.0225102    -7.546782    358.38102  0.022404415   0.02244244            3 
 1334000    1.0746444   -7.5315752    357.16984  0.022311959  0.022434764            3 
 1335000    1.0205818   -7.5021401    358.66412  0.022388522  0.022427204            4 
 1336000    1.0550776   -7.5749494     357.6818  0.022310491  0.022419631            4 
 1337000    1.0374099    -7.548879    358.18658  0.022325266  0.022412112            5 
 1338000    1.0415584   -7.5672141    359.02057  0.022360524  0.022404614            4 
 1339000     1.034998   -7.5423727    357.73089   0.02226356  0.022397035            7 
 1340000    1.0443566   -7.5026684    360.01146  0.022388773  0.022389353            9 
 1341000    1.0584586   -7.5524947    359.22835  0.022323412  0.022381845            2 
 1342000    1.0358021    -7.555925    359.28279  0.022310158  0.022374317            5 
 1343000    1.0438709   -7.5592459    358.54183   0.02224757  0.022366771            3 
 1344000    1.0204922   -7.5431279    359.52761  0.022292138  0.022359195            5 
 1345000    1.0382256   -7.5900958     358.4721  0.022210167  0.022351555            4 
 1346000    1.0673972   -7.5289922    359.98139   0.02228711  0.022344103            3 
 1347000    1.0397446   -7.5409395     359.6968  0.022252957  0.022336606            6 
 1348000      1.04011    -7.550196    359.28715  0.022211125  0.022328912            5 
 1349000    1.0214541   -7.5604594    359.72802  0.022221894  0.022321242            5 
 1350000    1.0394013   -7.5315356     359.7518  0.022206901  0.022313548            2 
 1351000    1.0413091   -7.5178046    360.88623  0.022260438  0.022305931            3 
 1352000    1.0242056    -7.536158    360.61223  0.022227085  0.022298369            3 
 1353000    1.0235455   -7.5548775    360.56231  0.022207582   0.02229073            3 
 1354000    1.0399523   -7.5376273    361.17366  0.022228807  0.022283024            4 
 1355000    1.0114531   -7.5214018    361.69236  0.022244302  0.022275529            2 
 1356000    1.0506177    -7.572959    361.64465  0.022224966  0.022268003            7 
 1357000    1.0344617    -7.600403    360.77551  0.022155215  0.022260207            8 
 1358000    1.0086615   -7.5882811     360.7874  0.022139629  0.022252433            8 
 1359000    1.0513144   -7.5752712    361.08904  0.022141835  0.022244769            3 
 1360000    1.0357542    -7.549073    362.52522  0.022213555  0.022237131            3 
 1361000    1.0431464   -7.5458073    361.92174  0.022160283  0.022229485            5 
 1362000    1.0389125   -7.5263298    362.57724  0.022184119  0.022221898            3 
 1363000     1.027034   -7.5470214    361.75472  0.022117554  0.022214252            4 
 1364000    1.0179338    -7.551199    362.28131  0.022133511  0.022206701            2 
 1365000    1.0181767   -7.5599228    361.26172   0.02205505  0.022198937            4 
 1366000    1.0294519   -7.5532624    361.72604   0.02206723  0.022191363            4 
 1367000     1.021446   -7.5764718     362.7543  0.022113771  0.022183815            8 
 1368000    1.0395227   -7.5341511    362.72099  0.022095577  0.022176267            3 
 1369000    1.0396461   -7.5570551    363.38555   0.02211989  0.022168668            7 
 1370000    1.0083119   -7.5569877    362.86945  0.022072351   0.02216103            3 
 1371000    1.0714178   -7.5603413    363.02569  0.022065748  0.022153578            3 
 1372000    1.0361091   -7.5166315    363.96018  0.022106425  0.022146036            4 
 1373000    1.0449964   -7.5993658    363.74523  0.022077278  0.022138515            3 
 1374000    1.0454183   -7.6069697    362.26584  0.021971485  0.022130992            2 
 1375000    1.0412633   -7.5847907     364.4165  0.022085848  0.022123534            3 
 1376000    1.0154958   -7.5902039    362.91425  0.021978818  0.022116011            5 
 1377000    1.0298875   -7.6094683    363.89236   0.02202205  0.022108447            4 
 1378000    1.0371119   -7.5888853    364.31056  0.022031359  0.022100931            2 
 1379000    1.0307837   -7.5825222    364.75403  0.022042182  0.022093468            3 
 1380000    1.0468073   -7.5569571    365.53945  0.022073638  0.022086118            3 
 1381000    1.0422588   -7.5124839    366.79754  0.022133571  0.022078792            2 
 1382000    1.0329846   -7.5428721    367.35808  0.022151356  0.022071596            2 
 1383000    1.0113918   -7.5567437    366.49759  0.022083489  0.022064212            5 
 1384000    1.0323203   -7.5982913    365.97643  0.022036153  0.022056955            3 
 1385000    1.0358152   -7.5586483    366.35298  0.022042899  0.022049726            3 
 1386000    1.0194371   -7.5762883    367.22479  0.022079412  0.022042412            3 
 1387000    1.0348155   -7.5380134    367.26152  0.022065701  0.022035163            4 
 1388000    1.0261621   -7.5618967    367.11702  0.022041128  0.022027974            6 
 1389000    1.0377509    -7.554381    367.61382  0.022055065  0.022020716            3 
 1390000    1.0268875   -7.5669235    367.44947  0.022029345  0.022013607            4 
 1391000    1.0228789   -7.5484025    367.69058  0.022027952  0.022006462            2 
 1392000     1.025481   -7.6075741    367.27792  0.021987424  0.021999164            4 
 1393000    1.0608316   -7.5058932    369.54114  0.022107031    0.0219919            6 
 1394000     1.027555   -7.5171494    369.25616  0.022074137  0.021984883            2 
 1395000    1.0417705    -7.524432    369.59776  0.022078719  0.021977873            2 
 1396000     1.032364   -7.5784083    368.78518  0.022014397  0.021970949            3 
 1397000    1.0446277   -7.5318566    369.23637  0.022025553  0.021963892            4 
 1398000    1.0383423   -7.5657347    369.99384   0.02205495  0.021956879            6 
 1399000    1.0495784   -7.5740317    368.44861  0.021947142  0.021949873            4 
 1400000    1.0448783    -7.582568    369.30901  0.021982679  0.021942768            7 
 1401000    1.0119573   -7.5722071    370.14939  0.022016975  0.021935809            4 
 1402000    1.0106192   -7.5816129    369.50516  0.021962979   0.02192891            1 
 1403000    1.0214068   -7.5749125    370.37729  0.021999126  0.021921971            4 
 1404000    1.0138495   -7.6135148    370.82048  0.022009763  0.021915022            2 
 1405000    1.0228533   -7.5896218     370.0415  0.021947894  0.021907946            4 
 1406000    1.0462058    -7.602226    370.47087  0.021957733  0.021900982            2 
 1407000    1.0253493   -7.5972906    371.73998  0.022017293  0.021894121            6 
 1408000    1.0202745   -7.6007348    370.98485  0.021956963  0.021887282            6 
 1409000     1.030121   -7.5590793    371.91999  0.021996688  0.021880472            4 
 1410000    1.0190364   -7.5719208    372.07517  0.021990258  0.021873667            5 
 1411000   0.98939947   -7.5684348     372.0006  0.021970269   0.02186694            2 
 1412000    1.0423987   -7.5886636    372.24651  0.021969223  0.021860304            4 
 1413000    1.0090084   -7.5213361    374.13544  0.022065077  0.021853642            3 
 1414000    1.0175463   -7.5893807    372.78859  0.021970096  0.021847071            7 
 1415000    1.0368691   -7.5491146    374.54034  0.022057735   0.02184043            4 
 1416000    1.0206239   -7.5969456    374.21613  0.022023078  0.021833884            2 
 1417000    1.0369044   -7.6017619    373.07253  0.021940281  0.021827346            2 
 1418000    1.0039926   -7.6043898    373.85377   0.02197072  0.021820863            3 
 1419000     1.035634   -7.5767897    375.00495  0.022022842  0.021814483            2 
 1420000    1.0203675   -7.5469811    375.81306  0.022054757   0.02180811            5 
 1421000    1.0378896   -7.5828278     375.1797  0.022002094  0.021801721            6 
 1422000    1.0346267   -7.5375586    376.31363  0.022053072  0.021795374            4 
 1423000    1.0294664   -7.5434268    375.98049  0.022018066  0.021788991            8 
 1424000    1.0243874   -7.5922766    376.08762  0.022008873  0.021782645            2 
 1425000    1.0176306   -7.5797567    375.39192  0.021952744  0.021776379            6 
 1426000      1.00772    -7.598022    375.34314  0.021934498  0.021770058            5 
 1427000    1.0188993   -7.5844521    376.58156  0.021991448  0.021763762            4 
 1428000      1.04176   -7.5884202    376.68558  0.021982118  0.021757363            8 
 1429000    1.0223697   -7.6065424    376.63557  0.021963819  0.021750997            5 
 1430000    1.0061946    -7.606167    376.77153  0.021956383  0.021744561            4 
 1431000    1.0126731   -7.6355363    375.95265  0.021893352  0.021738004            2 
 1432000    1.0206267   -7.6445772     375.6314  0.021859369  0.021731297            3 
 1433000     1.006268   -7.5989193    376.08165  0.021870298   0.02172479            2 
 1434000    1.0138295   -7.5990356    377.37528  0.021930223   0.02171839            4 
 1435000    1.0240154   -7.5884433    376.53034  0.021865873  0.021712033            8 
 1436000    1.0359156   -7.6089057    377.70672  0.021918913   0.02170562            2 
 1437000    1.0131183   -7.5652121    376.72886  0.021846953  0.021699215            2 
 1438000    1.0355864    -7.587166    377.83065   0.02189561  0.021692849            7 
 1439000    1.0237903   -7.5899445    378.40087  0.021913416  0.021686406            3 
 1440000    1.0426112   -7.6001101    378.02212   0.02187628   0.02168006            2 
 1441000    1.0116059   -7.5846552       378.36  0.021880639  0.021673667            3 
 1442000    1.0131676   -7.6001676    377.37543  0.021808566  0.021667192            2 
 1443000    1.0154358   -7.5909186    378.61338  0.021864945  0.021660765            5 
 1444000    1.0064359   -7.6009696     379.1499  0.021880765  0.021654375            2 
 1445000    1.0250799   -7.5618058    378.95846  0.021854582  0.021648144            2 
 1446000    1.0351915   -7.5772153    378.86575  0.021834126  0.021641817            8 
 1447000    1.0361975   -7.6299537    378.41946  0.021793335  0.021635476            2 
 1448000    1.0122526    -7.619496    379.04355  0.021814201  0.021629127            3 
 1449000    1.0474155   -7.5797415     381.3731   0.02193312  0.021622714            2 
 1450000     1.031972   -7.5983412    378.66472   0.02176234  0.021616404            2 
 1451000    1.0300804   -7.6497267     379.3309  0.021785602  0.021610041            4 
 1452000    1.0318122    -7.582602    379.34708  0.021771527  0.021603636            2 
 1453000    1.0078742   -7.5804075    379.72418  0.021778171  0.021597338            3 
 1454000   0.99180647   -7.5795091    379.78507  0.021766682   0.02159109            6 
 1455000    1.0244367   -7.6266054    379.42716  0.021731223  0.021584713            2 
 1456000    1.0121606   -7.6028568    381.12291  0.021813353  0.021578325            3 
 1457000    1.0089407   -7.6382732    380.18678   0.02174484  0.021572041            5 
 1458000    1.0186831   -7.6089541    381.01855  0.021777466  0.021565766            3 
 1459000    1.0209166   -7.5770916    382.53184  0.021848974   0.02155953            5 
 1460000    1.0192202   -7.6129678    381.52732  0.021776674  0.021553297            7 
 1461000    1.0149562    -7.539853    383.67365  0.021884192  0.021547223            5 
 1462000    1.0182159    -7.593181     382.4392   0.02179886   0.02154111            4 
 1463000    1.0333666   -7.6378125    381.79301  0.021747153  0.021534952            4 
 1464000       1.0233    -7.646781    382.36319  0.021764754  0.021528799            4 
 1465000    1.0012355   -7.6207277    383.70357  0.021826141  0.021522602            6 
 1466000    1.0075123   -7.6022883    384.05723  0.021831357  0.021516648            4 
 1467000   0.99770336    -7.621481    383.12543  0.021763544  0.021510627            4 
 1468000    1.0113948   -7.6162952    383.63407  0.021777592  0.021504638            7 
 1469000    1.0132011    -7.613594    384.75414  0.021826307   0.02149869            4 
 1470000    1.0248742    -7.565646    385.15659  0.021834274  0.021492876            3 
 1471000    1.0091937   -7.6068028    385.37296  0.021831688  0.021487162            4 
 1472000    1.0041643   -7.6265795    385.05675  0.021798955  0.021481299            7 
 1473000    1.0019112   -7.6081827    384.19768  0.021735556  0.021475321            4 
 1474000     1.012902   -7.6224462    385.41946  0.021789884  0.021469337            4 
 1475000   0.99600381   -7.6103113    385.41738  0.021774993  0.021463324            3 
 1476000    1.0097418   -7.6313603    384.48538  0.021707621  0.021457176            5 
 1477000    0.9992269   -7.6214426    385.30868  0.021739375  0.021451145            3 
 1478000    1.0235513   -7.6216908    385.47709  0.021734161  0.021445119            5 
 1479000    1.0177317   -7.5963394    385.93534  0.021745286  0.021439214            7 
 1480000    1.0206258   -7.6718995    384.89232  0.021671865  0.021433351            5 
 1481000    1.0168949   -7.6028496    387.37436  0.021796892   0.02142749            2 
 1482000    1.0282253   -7.5939925    386.70368  0.021744471  0.021421607            4 
 1483000    1.0121352   -7.6231643    385.33567  0.021652937   0.02141564            6 
 1484000    1.0491928   -7.6555857    386.48262  0.021702752  0.021409683            3 
 1485000    1.0128049    -7.619568    386.28807  0.021677221  0.021403713            3 
 1486000    1.0002063   -7.6557631    385.18072  0.021600534   0.02139764            4 
 1487000    1.0057832   -7.5911478     387.8145  0.021733608  0.021391651            4 
 1488000    1.0264331   -7.6231541    385.91969  0.021612886  0.021385539            6 
 1489000    1.0185123   -7.6526865    385.93649  0.021599311  0.021379415            4 
 1490000    1.0062919      -7.6035    387.01754  0.021645276  0.021373343            2 
 1491000    1.0210764   -7.6259164    386.98808  0.021629113   0.02136724            5 
 1492000   0.98688373   -7.6556891    386.78794  0.021603437  0.021361073            3 
 1493000     1.031217   -7.6161845     387.6195  0.021635382  0.021354879           10 
 1494000    1.0070007   -7.6762238    386.11159  0.021536791  0.021348672            2 
 1495000    1.0129258   -7.6359967    386.85862  0.021564025  0.021342445            5 
 1496000   0.98883775   -7.6218436    387.34984  0.021576974   0.02133626            2 
 1497000     1.004509   -7.6253363     387.1068  0.021549032  0.021330144            4 
 1498000    1.0418087   -7.5993984     389.0424  0.021642323  0.021324066            4 
 1499000    1.0155753   -7.6741634    386.39354  0.021480628   0.02131803            3 
 1500000    1.0091511   -7.6029873    387.40691  0.021522606  0.021311701            6 
 1501000     1.004462   -7.6237336    386.58542   0.02146266  0.021305326            3 
 1502000   0.99287868   -7.6031479    386.69513  0.021454457   0.02129882            6 
 1503000    1.0043853   -7.5935248     388.1416  0.021520381  0.021292423            3 
 1504000     1.021204    -7.639181     387.0701  0.021446704  0.021285971            4 
 1505000    1.0298585   -7.6279045    387.08856  0.021433475  0.021279491            5 
 1506000    1.0022863   -7.6201798    387.32112  0.021432111  0.021273055            3 
 1507000    1.0196956    -7.642767    387.26479  0.021414775  0.021266477            4 
 1508000    0.9865291   -7.6469944    387.70808  0.021425071  0.021259991            3 
 1509000    1.0205947   -7.6144884    387.79146  0.021415477  0.021253539            5 
 1510000   0.98634477   -7.6482745    387.00377  0.021357824  0.021247049            6 
 1511000    1.0052255   -7.6047509    387.62077  0.021377717   0.02124057            3 
 1512000   0.98552006   -7.6600906    387.30573  0.021346215  0.021233986            4 
 1513000    1.0235871   -7.6116011    388.02983  0.021371989  0.021227428            2 
 1514000    1.0255378   -7.6137204    388.26429  0.021370777  0.021220833            9 
 1515000    1.0072186   -7.6514444    387.54382  0.021317042  0.021214218            3 
 1516000    1.0127361   -7.6601149    388.29927  0.021344507  0.021207609            6 
 1517000    1.0037139    -7.647866    387.72834  0.021299074  0.021201044            3 
 1518000    1.0157136   -7.6299563    389.90645  0.021404614  0.021194479            3 
 1519000   0.99254058   -7.6399567    389.78177  0.021383683  0.021187942            5 
 1520000     1.019361   -7.6240917    389.21444  0.021338511  0.021181382            4 
 1521000   0.99422269   -7.6266596    389.46773  0.021338359  0.021174783            3 
 1522000   0.99530038   -7.6088698    389.88129  0.021346983  0.021168129            9 
 1523000   0.98947718   -7.6394952    388.84975  0.021276524  0.021161536            4 
 1524000     1.003045   -7.6113653    390.24491  0.021338851  0.021155043            4 
 1525000    1.0204236   -7.6432947    390.34777  0.021330479  0.021148396            4 
 1526000    1.0094807   -7.6275823    389.60518  0.021275949  0.021141702            2 
 1527000    1.0113273   -7.6237239    390.05486  0.021286557  0.021135058            2 
 1528000    1.0002574   -7.6613629    389.99189  0.021269191  0.021128277            5 
 1529000    1.0208112   -7.6076027    389.42719  0.021224504  0.021121599            3 
 1530000   0.98601008   -7.6336313    389.83332  0.021232752   0.02111492            2 
 1531000    1.0062326   -7.6404004    389.61558  0.021207031  0.021108312            4 
 1532000    1.0270744   -7.6181286    391.59118  0.021300652  0.021101753            3 
 1533000   0.99165238   -7.6607936    388.97935  0.021144779  0.021095085            5 
 1534000    1.0234109   -7.6573235    390.01075  0.021187025  0.021088388            5 
 1535000    1.0218399    -7.636916    391.13932  0.021234491  0.021081788            3 
 1536000    1.0225766   -7.6713107    390.78688  0.021201545  0.021075209            3 
 1537000    1.0063939   -7.6335997    391.68715  0.021236562  0.021068808            3 
 1538000     1.005078   -7.6059644    392.95496  0.021291448  0.021062384            3 
 1539000   0.98721696   -7.6142837     391.8932  0.021220121  0.021055938            4 
 1540000    1.0276022   -7.6479469    391.97633  0.021210841   0.02104936            4 
 1541000    1.0117302   -7.6458776    392.00644  0.021198704  0.021042857            2 
 1542000    1.0153879   -7.6512318    392.04922  0.021187269  0.021036373            7 
 1543000     1.014102   -7.6721916    392.07799  0.021175091  0.021029796            5 
 1544000    1.0163418   -7.6772372    392.50735   0.02118455   0.02102316            6 
 1545000   0.98888107   -7.6499734    392.16671  0.021152465  0.021016574            2 
 1546000   0.99554619   -7.6482322    392.68759   0.02116686  0.021010099            2 
 1547000    1.0091073   -7.6693097    392.63166  0.021150165  0.021003598            8 
 1548000    1.0087509   -7.6442361    393.67896  0.021192881  0.020997081            2 
 1549000    1.0138594    -7.660483    393.21435  0.021154204  0.020990672            4 
 1550000    1.0019039   -7.6609138    393.84426  0.021174423  0.020984257            7 
 1551000    1.0001405   -7.6465617    392.93638  0.021111991  0.020977805            2 
 1552000    1.0007417   -7.6616063    393.23613  0.021114483  0.020971407            4 
 1553000     1.002709    -7.652767    393.92474  0.021137837  0.020965019            5 
 1554000    1.0052762   -7.6087607    394.55897  0.021158246  0.020958696            6 
 1555000    1.0111819   -7.6340492    396.16923  0.021230934  0.020952471            7 
 1556000    1.0220401   -7.6467732    395.72553  0.021193527   0.02094626            2 
 1557000   0.98781302   -7.6511939    396.08375  0.021199087  0.020940028            5 
 1558000    1.0023244   -7.6600416    395.58663  0.021158891   0.02093384            3 
 1559000   0.99235693   -7.6446386    395.04432  0.021116331  0.020927551            3 
 1560000   0.98848511   -7.6405915    396.07165  0.021157674  0.020921258            5 
 1561000   0.97919024   -7.6566506    394.69904  0.021070843  0.020914863            7 
 1562000   0.98841227   -7.6848093    395.48144  0.021099095  0.020908515            4 
 1563000    1.0075844   -7.6235355    396.08939   0.02111801  0.020902266            7 
 1564000    1.0094314   -7.6329573    396.60367  0.021131909   0.02089599            6 
 1565000   0.98094003   -7.6117985    397.21595  0.021151009  0.020889739            2 
 1566000   0.98593387   -7.6268602     397.6572  0.021160984  0.020883501            4 
 1567000    1.0004719   -7.6528781    396.43324  0.021082389  0.020877289            6 
 1568000   0.98822764   -7.6607652    396.55472    0.0210754  0.020870901            6 
 1569000   0.99907703    -7.635194    397.57975  0.021116409  0.020864637            2 
 1570000    1.0191036   -7.6297751    398.00962  0.021125776  0.020858515            5 
 1571000     1.001367    -7.673629    396.57471  0.021036214  0.020852216            7 
 1572000    1.0037415   -7.6381843    396.84511  0.021037167  0.020845962            3 
 1573000    1.0086588   -7.6833775    397.34211  0.021050122  0.020839738            4 
 1574000   0.99082381   -7.7026117    396.60502  0.020997725  0.020833362            4 
 1575000   0.98042072   -7.6434063    398.34894  0.021076664  0.020827063            2 
 1576000   0.99412609    -7.645898     397.3227  0.021009026  0.020820797            6 
 1577000    1.0157434   -7.6630026    398.56304  0.021061247  0.020814491           10 
 1578000   0.97972122   -7.6544633    397.97256  0.021016717  0.020808311            3 
 1579000    1.0115647   -7.6839365    397.89098  0.020999102   0.02080212            3 
 1580000   0.99738998   -7.6790724    399.41182  0.021066024  0.020795956            3 
 1581000   0.99328569    -7.688025     398.3961  0.020999162  0.020789813            3 
 1582000   0.98446873   -7.6756654    398.41752  0.020987016  0.020783723           11 
 1583000    1.0061587   -7.6731025    399.41866  0.021026461  0.020777535            3 
 1584000   0.98914395   -7.6850838    398.89352   0.02098556  0.020771379            4 
 1585000    1.0002322   -7.6721977    399.60265  0.021009603  0.020765205            2 
 1586000    1.0015314   -7.6510419    399.93101  0.021013609    0.0207591            6 
 1587000   0.99163911   -7.6672896    399.88812  0.020998116  0.020752952            3 
 1588000    1.0120756   -7.6733699    400.37897  0.021010651  0.020746819            4 
 1589000   0.99064611   -7.7163065    399.25344  0.020938401  0.020740666            5 
 1590000   0.99442266   -7.6690869    400.60684  0.020996166  0.020734585            2 
 1591000   0.99733609    -7.646666    401.61489  0.021035768  0.020728495            5 
 1592000   0.99188303   -7.6309811    401.34425  0.021008388   0.02072252           15 
 1593000    1.0179009   -7.6717848    400.68295  0.020960606    0.0207164            3 
 1594000    1.0090168   -7.6673763    401.70936  0.021001117  0.020710274            2 
 1595000   0.99879904   -7.6684019    401.37297  0.020970375  0.020704217            3 
 1596000   0.99030176   -7.6855383    400.32658  0.020902599  0.020698016            5 
 1597000   0.98818315   -7.6567565    401.20948  0.020935581  0.020691823            4 
 1598000    1.0083422   -7.6473813    402.22268  0.020975317  0.020685716            5 
 1599000   0.98578781   -7.6495023    401.84205  0.020942362  0.020679631            6 
 1600000   0.98241059   -7.6703398    401.12492  0.020891923  0.020673536            6 
 1601000   0.99966114   -7.6628583    402.63343  0.020957393  0.020667478            6 
 1602000      1.00407   -7.6104923    403.54623  0.020991793  0.020661372            5 
 1603000    1.0082148   -7.6524475     402.3358  0.020915772  0.020655229            5 
 1604000   0.99828387   -7.6452277    402.92368  0.020933275  0.020649081            6 
 1605000   0.99125777   -7.6718965    401.83116  0.020863508  0.020642961            5 
 1606000   0.97177507   -7.6540442    403.68871  0.020946903  0.020636751           10 
 1607000   0.99973605   -7.6648177    404.02147  0.020951124  0.020630691            2 
 1608000    1.0024499   -7.6474781    404.04833  0.020939486  0.020624669            3 
 1609000   0.98537488   -7.6668974    404.12113  0.020930243  0.020618656            7 
 1610000   0.99010542   -7.6838096     403.1668  0.020867847  0.020612564            6 
 1611000   0.99461061    -7.716769    403.32302  0.020862974  0.020606429            8 
 1612000   0.99418577   -7.6364793    404.93686  0.020933461  0.020600357            6 
 1613000   0.99045358   -7.6595923    403.67433  0.020855256  0.020594373            9 
 1614000    0.9897579   -7.6620959    404.11241  0.020864953  0.020588315            5 
 1615000   0.99084779   -7.6560445    405.13708  0.020904906  0.020582362            3 
 1616000   0.99591266   -7.6785163     403.9535  0.020830936  0.020576428            4 
 1617000    1.0097126   -7.6439572    406.06126  0.020926678  0.020570432            2 
 1618000   0.98773113   -7.6273693    405.83704  0.020902196  0.020564461            6 
 1619000    0.9817904   -7.6903111    404.75086  0.020833378  0.020558592            5 
 1620000   0.99283308   -7.6550824    406.03374  0.020886509  0.020552615            2 
 1621000    1.0108013    -7.702612    404.37166  0.020788179  0.020546666            2 
 1622000   0.98890648   -7.6539385    405.62422  0.020839715    0.0205407            4 
 1623000    1.0104992   -7.6631968    405.64211  0.020827794  0.020534757            8 
 1624000   0.98955323   -7.6686528    405.06859  0.020785539  0.020528791            2 
 1625000   0.99250254   -7.6889309    405.59835  0.020799915  0.020522828            4 
 1626000   0.99818371   -7.7131422    405.85663   0.02080036  0.020516925            3 
 1627000   0.99702694   -7.7063705    405.56851  0.020772818  0.020510877            6 
 1628000   0.99183988   -7.6535316    406.94459  0.020830497  0.020504876            7 
 1629000    1.0036148   -7.6836931    405.99161  0.020768959  0.020498895            3 
 1630000   0.99237171   -7.6843031    406.65993  0.020790385  0.020492885            7 
 1631000    1.0142322   -7.7081255    406.03314  0.020745613  0.020486871            5 
 1632000   0.98633822   -7.6469917    406.47112  0.020755266  0.020480834            2 
 1633000   0.97094033   -7.6917571    405.79741  0.020708176  0.020474845            7 
 1634000    0.9862214   -7.7168832    406.57584  0.020735202  0.020468799            5 
 1635000   0.99235614   -7.7006631    406.54726  0.020721063  0.020462722            3 
 1636000   0.98062722   -7.6801538    406.54709  0.020708389  0.020456649            9 
 1637000   0.98108507   -7.6704659    407.48868  0.020743672   0.02045068            5 
 1638000   0.98630407   -7.6884693    407.17692  0.020715147  0.020444604            4 
 1639000   0.98196151   -7.6852314    406.75336  0.020680972  0.020438621            4 
 1640000   0.98463824   -7.6416574     407.1144  0.020686707   0.02043251            3 
 1641000   0.97496708   -7.6756849    407.51365  0.020694376  0.020426516            3 
 1642000   0.98237443    -7.671641    407.45768  0.020678932  0.020420489            3 
 1643000    1.0043355    -7.692174    406.97577  0.020641904  0.020414337            3 
 1644000    0.9874593   -7.7045324    407.79882  0.020671067  0.020408342            5 
 1645000   0.98820524   -7.6770943    406.60743  0.020598148  0.020402267            2 
 1646000   0.98947728   -7.7166384     406.8801  0.020599438  0.020396092            4 
 1647000   0.97488635   -7.6617748    408.47274  0.020667514  0.020389946            4 
 1648000     1.001658    -7.719745    406.96609  0.020578787  0.020383748            8 
 1649000    1.0004923   -7.7033709    409.31019  0.020684768  0.020377469            5 
 1650000   0.98769841   -7.7141431    408.11648  0.020611943  0.020371259            3 
 1651000   0.99620536   -7.6677625    408.21374  0.020604368  0.020365023            4 
 1652000   0.99719456    -7.710783    406.80268  0.020520716  0.020358816            2 
 1653000   0.99575321   -7.7081009    407.63786  0.020550406  0.020352584            5 
 1654000   0.97754361    -7.678496     407.8863  0.020550499    0.0203464            3 
 1655000   0.99459126   -7.6872391    408.50653  0.020569312  0.020340197            9 
 1656000   0.97904043   -7.6998491    408.13214  0.020538051  0.020333953            5 
 1657000   0.99439649   -7.6884802     408.7127  0.020554853  0.020327692            4 
 1658000   0.97268792   -7.6767591    408.74778  0.020544219   0.02032139            7 
 1659000   0.97777362   -7.7086889    407.58603   0.02047348  0.020315058           10 
 1660000   0.99521008   -7.6733388    409.15688  0.020540004  0.020308737            4 
 1661000   0.99866785   -7.7387784    407.42028  0.020440512  0.020302442            3 
 1662000    0.9698603   -7.6851307    408.63819  0.020489279  0.020296114            2 
 1663000   0.96159656   -7.6749258    409.11455  0.020500829   0.02028982            6 
 1664000    1.0012188   -7.6808506    409.64283  0.020514965  0.020283481            3 
 1665000    1.0052778     -7.69765    409.95669  0.020518353   0.02027724            3 
 1666000    0.9844732   -7.7250919    408.82223  0.020449291   0.02027093            4 
 1667000   0.99358522    -7.698593     409.9484  0.020493321  0.020264584           11 
 1668000   0.98434786   -7.7299885    409.63206  0.020465231  0.020258298            7 
 1669000    0.9837035   -7.6659926    409.97993  0.020470338   0.02025209            3 
 1670000   0.98573246    -7.684556    409.78754   0.02044848   0.02024589            3 
 1671000   0.99902437   -7.6804183    411.49387  0.020521338  0.020239694            1 
 1672000   0.98556582   -7.7174313    409.75242   0.02042227  0.020233425            3 
 1673000   0.98245334   -7.6985269     409.1582  0.020380464  0.020227084            3 
 1674000     0.992885   -7.6734953    410.59916  0.020440022  0.020220815            4 
 1675000   0.99409501   -7.6629143    410.27398  0.020411641   0.02021461            5 
 1676000    0.9585785   -7.6573312    411.78893  0.020474788  0.020208401            4 
 1677000   0.96936409   -7.7108451    411.63967  0.020455161  0.020202191            6 
 1678000   0.98107249   -7.7097114    412.09582  0.020465625  0.020196017            7 
 1679000   0.97092317   -7.7056384    411.06887  0.020402465  0.020189758            4 
 1680000   0.98207656   -7.7289573    410.66772  0.020370423  0.020183553            5 
 1681000   0.96080779   -7.7344433    411.68957  0.020408962  0.020177303            5 
 1682000     0.989769   -7.7078321    411.64136  0.020394439  0.020171021            3 
 1683000   0.98828244   -7.7151247    410.94632  0.020347906  0.020164756            3 
 1684000   0.98371332   -7.7278368    411.06685  0.020341788  0.020158477            4 
 1685000    1.0026293   -7.7045202    411.87049   0.02036946   0.02015215            2 
 1686000   0.97385891   -7.7379779    410.20141  0.020274882  0.020145834            5 
 1687000   0.96587363   -7.7270937    410.14387  0.020260021  0.020139477            6 
 1688000   0.98318955   -7.7407696    410.96131  0.020288374  0.020133098           13 
 1689000   0.97769358   -7.7094551     411.8117   0.02031832  0.020126815            2 
 1690000   0.98894931   -7.7193713    410.83545  0.020258158  0.020120464           13 
 1691000   0.99538884   -7.7152528    411.57341  0.020282545   0.02011418            4 
 1692000    0.9847077   -7.7123429    411.84497  0.020283933  0.020107841            7 
 1693000   0.96060393   -7.7217597    413.57761  0.020357236  0.020101536            4 
 1694000   0.98686214   -7.6972059    412.57414  0.020295855  0.020095286            8 
 1695000   0.96774169    -7.780076    411.14831  0.020213781  0.020089007            7 
 1696000   0.99089968    -7.741235    411.83714  0.020235709  0.020082635            4 
 1697000   0.98146529   -7.7645467    411.94089  0.020228879  0.020076317            3 
 1698000   0.97584498   -7.6884165    412.95994  0.020266978  0.020070011            4 
 1699000   0.97544214   -7.6906004    413.08242  0.020261056  0.020063708            3 
 1700000   0.97016323   -7.6969913    413.56916  0.020272998  0.020057474            2 
 1701000   0.96432198   -7.7306511    413.43613  0.020254563  0.020051162            3 
 1702000   0.99336276   -7.7441529    412.89042  0.020215943  0.020044953            5 
 1703000   0.99177861   -7.7237696    414.08178  0.020262369  0.020038624            5 
 1704000   0.96387748   -7.7300124    414.22704  0.020257582  0.020032256            3 
 1705000   0.96589289   -7.7243801    414.04557  0.020236832  0.020025982            6 
 1706000   0.94550946   -7.7488024    413.18129  0.020182751  0.020019713            2 
 1707000   0.95992493   -7.7031632    413.54294  0.020188583   0.02001341            3 
 1708000   0.97745471   -7.7281566     414.3446  0.020215876  0.020007121            3 
 1709000   0.96918162   -7.7103943    413.65046    0.0201702  0.020000783            5 
 1710000   0.97104462   -7.6889274    414.50847  0.020200218  0.019994453            2 
 1711000   0.96663398   -7.7232019    414.32363  0.020179409  0.019988176            7 
 1712000   0.98770745   -7.7303583    414.25677  0.020164368  0.019981845            6 
 1713000   0.95481283   -7.7240823    414.25021  0.020152277  0.019975473            7 
 1714000   0.98643655   -7.7121762      414.464  0.020150914  0.019969091            3 
 1715000   0.98221403   -7.7016136    415.36223   0.02018281  0.019962755            6 
 1716000   0.98009998   -7.7101842    415.54347   0.02017985  0.019956451            5 
 1717000   0.98330668   -7.7528672    414.88704  0.020136238  0.019950099            6 
 1718000   0.99385406   -7.7153615    414.86958   0.02012367  0.019943793            7 
 1719000   0.95885185   -7.7266018    415.36097  0.020135785  0.019937464            4 
 1720000   0.98739739   -7.7592903    414.46113  0.020080481  0.019931095            5 
 1721000   0.98795647   -7.7462446    414.52997  0.020072146  0.019924703            4 
 1722000   0.97884825   -7.7094588    415.62559  0.020113511  0.019918369            3 
 1723000   0.95421375   -7.7112979    415.15296  0.020078978  0.019912174            6 
 1724000    0.9925117    -7.731843    414.88323  0.020054294  0.019905871            6 
 1725000     0.978572    -7.735643     415.0676  0.020051575  0.019899594            7 
 1726000   0.98644743   -7.7468297    415.22801  0.020047702  0.019893257           11 
 1727000    0.9667953   -7.7458964    415.27938  0.020038573  0.019886919            6 
 1728000    1.0039092    -7.753156    414.98993  0.020013017  0.019880507            3 
 1729000   0.98145707   -7.7198336    415.77872   0.02003946  0.019874195            4 
 1730000   0.95450405   -7.7159718    417.10277  0.020091656  0.019867993            5 
 1731000   0.97706647   -7.7362511    415.91354  0.020022797  0.019861763            3 
 1732000   0.95273175   -7.7221159    417.63763   0.02009419  0.019855503            5 
 1733000   0.98999932   -7.7510581    416.26039  0.020016368  0.019849254            8 
 1734000   0.98059159   -7.7420855    416.43768  0.020013345  0.019842894            4 
 1735000   0.97403315   -7.7129767    418.30711    0.0200916  0.019836641            3 
 1736000   0.96092708    -7.731949    417.75046  0.020053305  0.019830457           11 
 1737000   0.95606558   -7.7063397    418.47172  0.020076363  0.019824257            8 
 1738000   0.96079354   -7.7217333    418.15115  0.020049441  0.019818118            6 
 1739000   0.97275509   -7.7572206    418.52156  0.020055662  0.019811946            4 
 1740000   0.96301025    -7.753314    417.16874  0.019979346  0.019805761            2 
 1741000   0.98234267   -7.7061254    419.33496  0.020071557  0.019799635            1 
 1742000   0.97332722     -7.69282    419.07679  0.020047684  0.019793479            8 
 1743000   0.96102045   -7.7156947    417.83991  0.019977047  0.019787359            2 
 1744000   0.96431624   -7.7550691    418.28743  0.019986976   0.01978118            4 
 1745000   0.97969192   -7.7571523    418.78903  0.019999476  0.019774955           22 
 1746000    0.9656075   -7.7696566    419.31228  0.020012996  0.019768716            6 
 1747000   0.98051481   -7.7314271    418.80368  0.019977279  0.019762568            6 
 1748000   0.98811017    -7.706588    419.02982  0.019976631  0.019756498            2 
 1749000   0.96540231   -7.7469974    418.95218   0.01996151   0.01975041            3 
 1750000     0.957558    -7.767269    419.12054  0.019958121  0.019744286            6 
 1751000   0.97434601   -7.7746465    418.48029  0.019916252  0.019738112            5 
 1752000    1.0000415   -7.7531818    419.55663   0.01995608  0.019731974            6 
 1753000   0.97366053   -7.7209981    420.33704  0.019981795  0.019725792            3 
 1754000   0.98581729   -7.7048693    420.02399   0.01995553  0.019719638            6 
 1755000   0.97316705   -7.7639854     419.0809  0.019899378   0.01971348            4 
 1756000   0.95687459   -7.7252876    420.83338  0.019971212  0.019707318            4 
 1757000   0.95821116   -7.7559083    420.75656  0.019956202  0.019701207           21 
 1758000   0.96392037   -7.7401471    419.56308  0.019888277  0.019695043            5 
 1759000   0.97106921   -7.7763123    419.84827  0.019890481  0.019688878            5 
 1760000    0.9673854   -7.7258996    420.99626  0.019933535  0.019682669            4 
 1761000   0.99234253   -7.7773035    420.14518  0.019881941  0.019676417            5 
 1762000    0.9606298   -7.7140118    419.66669  0.019848027  0.019670166            4 
 1763000   0.96983252   -7.7544314    420.68239  0.019884779  0.019663922           16 
 1764000   0.97357845   -7.7294566     420.9517  0.019886229  0.019657832            3 
 1765000   0.95436883   -7.7629881    419.94085  0.019827236  0.019651636            8 
 1766000   0.95029706   -7.7243668    421.22858  0.019876773  0.019645457           15 
 1767000   0.97839393   -7.7688635    420.93825  0.019851832  0.019639279            3 
 1768000   0.99769773   -7.7411697    420.65049  0.019827041  0.019633089            8 
 1769000   0.98097734   -7.7386958     421.0448  0.019834408  0.019626879            2 
 1770000   0.97241232   -7.7904609    420.65196  0.019804706  0.019620584            5 
 1771000   0.95545458   -7.7278624    420.76058  0.019798634  0.019614209            2 
 1772000   0.97625469   -7.7577728    420.69459  0.019784358  0.019607909            3 
 1773000   0.95808151   -7.7560494    420.03722  0.019742302   0.01960161           11 
 1774000   0.98584626   -7.7345658     422.0046  0.019823591   0.01959526            3 
 1775000   0.99729419    -7.768958    419.91814  0.019714467  0.019588913            5 
 1776000   0.99606764   -7.7648093    421.31057  0.019768702  0.019582542            4 
 1777000   0.95921997   -7.7669179    420.99429  0.019742745  0.019576212            2 
 1778000   0.97311993   -7.7467423     420.9042  0.019727419  0.019569858            4 
 1779000    0.9816149   -7.7772441    420.15062   0.01968103  0.019563471            2 
 1780000   0.98119539    -7.762548    420.19004  0.019671818  0.019557043            9 
 1781000   0.97313419   -7.7753517     421.0164  0.019699439  0.019550623            4 
 1782000   0.96097534    -7.772791    420.77075  0.019676896  0.019544157            4 
 1783000   0.96063387   -7.7698549    422.25569  0.019735263  0.019537772            6 
 1784000   0.98981518   -7.7701424    420.20709  0.019628508  0.019531443            4 
 1785000   0.95430304   -7.7582087    421.59776  0.019682435  0.019525111            2 
 1786000   0.94292215   -7.7768223    420.48963   0.01961971  0.019518697            4 
 1787000    0.9491857    -7.726819    421.72074  0.019666141  0.019512282            3 
 1788000   0.96492529   -7.7336359    421.89682  0.019663349  0.019505905            3 
 1789000   0.97778127   -7.7735425    420.64493  0.019594044  0.019499536            9 
 1790000   0.94991674   -7.7821226    421.44372  0.019620285  0.019493113            2 
 1791000   0.95585933   -7.7894735    422.35797  0.019651869   0.01948667            5 
 1792000   0.96056205   -7.7751475     422.7151   0.01965751  0.019480267            2 
 1793000   0.96484747   -7.7795398     421.3363  0.019582464  0.019473792            5 
 1794000   0.96943562   -7.7623332    421.74286  0.019590434  0.019467332            4 
 1795000   0.95727496   -7.7483097    423.02916  0.019639237  0.019460895            5 
 1796000   0.97590169   -7.7746481    422.23287  0.019591354  0.019454486            7 
 1797000   0.98111218   -7.7713079    421.90121  0.019565072  0.019448095            5 
 1798000    0.9608301   -7.7427484    422.39445  0.019577051   0.01944167            3 
 1799000   0.96966555   -7.7754802    422.16766  0.019555664  0.019435263            5 
 1800000   0.95402773   -7.7554115    423.13349  0.019589513   0.01942884            3 
 1801000    0.9664366   -7.7793652    423.23879  0.019583509  0.019422436            4 
 1802000   0.97236557   -7.7849445    422.90039  0.019556992  0.019415928            9 
 1803000   0.96867203   -7.7809736    422.93705  0.019547839  0.019409412            6 
 1804000   0.96611367   -7.7609586    423.29288  0.019553441   0.01940297            6 
 1805000   0.94179872   -7.7452416    422.84296  0.019521835  0.019396603            5 
 1806000   0.96876168   -7.7287038    422.99585  0.019518081  0.019390245            5 
 1807000    0.9705823   -7.8158733    421.99132  0.019460954  0.019383792           12 
 1808000   0.96079199   -7.7261909    423.32719  0.019511762  0.019377248           12 
 1809000   0.94545841   -7.7944136    422.67717  0.019471032  0.019370791            6 
 1810000   0.95782317   -7.7950219     422.7505  0.019463651  0.019364259            8 
 1811000   0.97401658   -7.7534414    424.05781   0.01951306  0.019357792            2 
 1812000   0.95218625   -7.7441477    424.87837  0.019540028  0.019351386            7 
 1813000    0.9627339   -7.7823948    424.68113  0.019520184  0.019344971            4 
 1814000   0.97040276   -7.7609968    424.79522  0.019514665  0.019338631            5 
 1815000   0.96388995    -7.725407    425.03794  0.019515057   0.01933228            6 
 1816000   0.95562322   -7.7378723    426.04939  0.019550725  0.019325977            4 
 1817000   0.97903128   -7.7727899    425.41195   0.01951073  0.019319571            3 
 1818000   0.96609551   -7.7761163    425.01895  0.019481984  0.019313203            4 
 1819000   0.96524954   -7.7663149    423.82393  0.019416526  0.019306749            4 
 1820000   0.96825585   -7.7689102    425.36527  0.019476432  0.019300378           18 
 1821000   0.95576275   -7.8207473    423.79563  0.019393906  0.019293882            3 
 1822000   0.96554817   -7.8024163    424.40963  0.019411344  0.019287332            3 
 1823000   0.96644416   -7.7996857    425.10937  0.019432683  0.019280829            3 
 1824000   0.95425143   -7.7678516    424.88334  0.019411702  0.019274441            2 
 1825000   0.95024387   -7.7594672    424.56348   0.01938646  0.019268125            9 
 1826000   0.96854901   -7.7605047     425.8061  0.019432553  0.019261803           11 
 1827000   0.97857589   -7.8064066     425.2503  0.019396565  0.019255444            3 
 1828000   0.96361377   -7.7615141    426.61732  0.019448273  0.019249032            2 
 1829000   0.97192138   -7.7721909    426.95751   0.01945314  0.019242669            6 
 1830000   0.97175913   -7.7814258    426.36138  0.019415363  0.019236252            4 
 1831000   0.96852017   -7.7402338    426.47239  0.019409812  0.019229966           10 
 1832000    0.9552858   -7.7745498    427.07567  0.019426659  0.019223591            4 
 1833000   0.96214169   -7.7767259    426.68158  0.019398144  0.019217177            5 
 1834000   0.94471867   -7.7690374    427.07809  0.019405584  0.019210808            5 
 1835000   0.95899255   -7.8106186    425.29633  0.019314093  0.019204378            7 
 1836000   0.96457885   -7.7520437    427.15143  0.019387774  0.019197977           12 
 1837000   0.97187897   -7.7645455    427.85273  0.019409033  0.019191617            5 
 1838000   0.96573146   -7.7702367    427.81369  0.019396704  0.019185296            4 
 1839000   0.95370088   -7.8245749    424.68407  0.019244339  0.019178871            6 
 1840000   0.92673337   -7.8060657    426.33594  0.019308693  0.019172416            7 
 1841000    0.9552128   -7.7874785    427.59052  0.019354994  0.019166028            3 
 1842000   0.94715612   -7.7957842    427.36414  0.019334244  0.019159663           10 
 1843000   0.93144208   -7.8025488    427.49958  0.019329878  0.019153272           13 
 1844000    0.9502117    -7.797353    427.67139   0.01932716  0.019146958            4 
 1845000   0.96848366   -7.8051669    427.85065  0.019324781  0.019140604            5 
 1846000   0.94707891   -7.7885419    426.35443  0.019246769  0.019134206            9 
 1847000   0.94165084   -7.8320447    426.71292  0.019252523  0.019127726            4 
 1848000   0.94993231   -7.7955204    427.84862  0.019293318  0.019121349            3 
 1849000   0.96359066   -7.7479854    428.52746  0.019313478  0.019115011            7 
 1850000   0.95545107   -7.7649522    428.19031  0.019287852   0.01910876            3 
 1851000   0.93913573   -7.7772397    428.97128  0.019312592  0.019102469            5 
 1852000   0.94511236   -7.7922458    428.27526  0.019270845  0.019096198            6 
 1853000   0.95502906   -7.7695199    428.73943   0.01928132  0.019089904            4 
 1854000   0.97393445   -7.7931462    429.24982  0.019293861  0.019083571            3 
 1855000   0.93965727   -7.7881459    428.91233  0.019268299  0.019077287            9 
 1856000   0.97666697   -7.7606633    430.45506  0.019327185  0.019071078            6 
 1857000   0.94938193   -7.7674283    430.36367  0.019312676  0.019064947            2 
 1858000   0.94523071   -7.8216106    429.22587   0.01925125  0.019058755            6 
 1859000    0.9491582   -7.8081854    429.19769  0.019239631  0.019052544            6 
 1860000   0.98274804   -7.7633968    430.12979  0.019271048  0.019046307            6 
 1861000   0.94774855   -7.8238133    429.88358  0.019249668  0.019040147            4 
 1862000   0.96750772   -7.7985542    430.37621  0.019261377     0.019034            4 
 1863000   0.96230436   -7.7887077    431.38964  0.019296369  0.019027866            5 
 1864000    0.9669914   -7.7894516    431.02314  0.019269633  0.019021764            2 
 1865000   0.95150627   -7.7929762    430.61149  0.019240907  0.019015665            3 
 1866000   0.94756911   -7.7958019     431.1895  0.019256409  0.019009595            7 
 1867000   0.94978329   -7.7729217    431.49011  0.019259512  0.019003515            7 
 1868000   0.95900582   -7.7969763    431.69714  0.019258438  0.018997446            4 
 1869000   0.94974786   -7.7962245    430.93691  0.019214237  0.018991388            7 
 1870000   0.96581623    -7.838923     430.5734  0.019187763   0.01898531            4 
 1871000   0.95908874   -7.8224549    430.65578  0.019181177  0.018979124            5 
 1872000   0.93641563    -7.779775    432.06298  0.019233573  0.018973039            7 
 1873000   0.97709427    -7.810338    431.58853  0.019202195  0.018967013            9 
 1874000   0.94376239   -7.7498206    433.51313  0.019277532  0.018960969            4 
 1875000   0.96295966   -7.8015807    432.38387  0.019217061   0.01895496            6 
 1876000   0.95088387   -7.8020798     432.9348   0.01923129  0.018948992            8 
 1877000   0.96586085   -7.7911706    432.93307  0.019220967  0.018943027            4 
 1878000   0.95902178   -7.7990164    433.83283  0.019250658   0.01893705            7 
 1879000   0.93474068   -7.8019686     432.7768  0.019193578  0.018931001            4 
 1880000   0.94248305   -7.7546596    433.75867  0.019226891  0.018924991            6 
 1881000    0.9649507   -7.7929876    432.90371  0.019178793   0.01891903            4 
 1882000   0.95534454   -7.8043773    432.82397  0.019165071  0.018913046            3 
 1883000   0.93529832   -7.7850426    433.66849  0.019192268  0.018907049            8 
 1884000   0.94061713   -7.7698108    433.16096  0.019159632   0.01890106            4 
 1885000   0.94433649   -7.8207606    432.95523  0.019140373  0.018894989            4 
 1886000   0.95156331   -7.7888181    433.54423  0.019156249  0.018888977            4 
 1887000   0.94579558   -7.7505872    435.18847   0.01921871  0.018882984            6 
 1888000   0.94607345   -7.7674927    434.00242   0.01915618  0.018876959            4 
 1889000   0.94495664   -7.7879858    434.86556  0.019184117  0.018870883            2 
 1890000   0.95576958   -7.8167275    433.04732  0.019093797  0.018864779            5 
 1891000   0.96428907   -7.7900214    434.12641  0.019131254  0.018858749            9 
 1892000   0.95479569   -7.7539801    435.70546  0.019190692  0.018852734            4 
 1893000   0.94280329   -7.7978027    435.14666  0.019155954  0.018846683            7 
 1894000   0.92334607   -7.7872876    434.28867   0.01910809   0.01884066            4 
 1895000   0.95479165    -7.814194    433.29535  0.019054325  0.018834653            2 
 1896000   0.95664216   -7.8115111    432.96566  0.019029785  0.018828653            5 
 1897000   0.95962641   -7.8390884    433.45237  0.019041134  0.018822595            8 
 1898000   0.93475442   -7.8366138    432.64057  0.018995459  0.018816445            4 
 1899000    0.9539782   -7.8441817    433.45403  0.019021153  0.018810278            8 
 1900000   0.93014432   -7.8193569    434.02663  0.019036256   0.01880421            5 
 1901000   0.95674326   -7.8132615    434.11604  0.019030161  0.018798138            3 
 1902000   0.93812846   -7.8478256    434.11461  0.019020093  0.018791977            5 
 1903000   0.95935381   -7.8226642    434.79579  0.019039928  0.018785889            4 
 1904000   0.97349628   -7.8153123    434.86945  0.019033152  0.018779846            7 
 1905000    0.9463338   -7.8223999    434.42453  0.019003698  0.018773809            6 
 1906000   0.92751094   -7.7836457    436.02233  0.019063586  0.018767812            4 
 1907000   0.97903984   -7.8152633    435.96064  0.019050893  0.018761799            6 
 1908000   0.91987209   -7.8155256     434.3281  0.018969606  0.018755766            2 
 1909000   0.92778935   -7.7904127    436.65005  0.019061029  0.018749819            4 
 1910000   0.94583516   -7.8202151    434.61332  0.018962187  0.018743807            8 
 1911000   0.94537384   -7.8149856    435.61987  0.018996157    0.0187377            6 
 1912000   0.95184498   -7.7731004    436.08266  0.019006392  0.018731664            5 
 1913000   0.93734626   -7.8298381    435.44348  0.018968613  0.018725628            4 
 1914000   0.94484227    -7.780166    436.93052  0.019023447   0.01871955            3 
 1915000   0.94780903   -7.7900431    435.82423  0.018965371  0.018713476            6 
 1916000   0.93993799   -7.8188198    436.58372  0.018988505  0.018707385            4 
 1917000   0.96620297   -7.8008778    436.33886  0.018967956  0.018701348            6 
 1918000   0.97108236   -7.8278932    435.48359  0.018920907  0.018695323            5 
 1919000     0.914928   -7.8463417     435.5666  0.018914652  0.018689218            3 
 1920000   0.91942463   -7.8613106    435.86309  0.018917669   0.01868306            5 
 1921000    0.9412239   -7.7934774    436.24206  0.018924261  0.018676933            6 
 1922000   0.94449114   -7.7940849     436.4341  0.018922741  0.018670804            3 
 1923000   0.92340328   -7.8233855    436.14816   0.01890051  0.018664692            3 
 1924000   0.93997554   -7.8232273    437.10714  0.018932222  0.018658569            5 
 1925000   0.94649068   -7.8292047    436.91352  0.018914005  0.018652409            7 
 1926000   0.96622443    -7.774556    437.62386  0.018934919   0.01864636           12 
 1927000   0.95629875   -7.8094557    435.60353  0.018837724   0.01864033            4 
 1928000   0.96241681    -7.812641    437.19256  0.018896636  0.018634284            4 
 1929000   0.94958377   -7.8287194    436.82551  0.018870983  0.018628246            7 
 1930000   0.94354106   -7.7941662    437.79064  0.018902878  0.018622283            3 
 1931000   0.94232191   -7.8176701    437.85575  0.018895898  0.018616275            6 
 1932000   0.94642311   -7.8080747    438.04543  0.018894299  0.018610269            4 
 1933000   0.92637727   -7.7969506    437.74166  0.018871429  0.018604248            3 
 1934000    0.9084731   -7.8026547    438.06586   0.01887564  0.018598268            3 
 1935000   0.95498969   -7.8372859    437.46119  0.018839844  0.018592189            6 
 1936000   0.95233867   -7.8269574    437.75715  0.018842852  0.018586152            9 
 1937000   0.92068262   -7.8340773    436.92572  0.018797355  0.018580003           10 
 1938000   0.92803862   -7.8272324    437.23647  0.018801018  0.018573836            4 
 1939000   0.95461639   -7.8375643    437.14976  0.018787595  0.018567643            4 
 1940000   0.94574756   -7.8280548     437.1103  0.018776216  0.018561468            7 
 1941000   0.95198185   -7.8643394    437.62304  0.018788556  0.018555233            3 
 1942000   0.94536383   -7.8359882    437.69285  0.018781876  0.018549026            5 
 1943000   0.92725168    -7.841742    436.20231  0.018708282   0.01854283            6 
 1944000   0.93677061   -7.7991352    437.54531  0.018756229   0.01853661           14 
 1945000   0.93222203   -7.8297629    438.25372  0.018776937  0.018530437            3 
 1946000   0.92480296   -7.8334319    438.21058  0.018765441  0.018524281            3 
 1947000    0.9288707   -7.8433599    438.14174  0.018752857  0.018518068            4 
 1948000   0.94884506   -7.8713591    437.61539  0.018720713  0.018511854           12 
 1949000   0.93609886   -7.8258176    438.01266  0.018728094  0.018505696            6 
 1950000   0.91615035   -7.8235995    438.96479  0.018759179  0.018499571           14 
 1951000    0.9425711   -7.8499031    438.12322  0.018713618  0.018493396            5 
 1952000   0.93449123   -7.8636645    439.19818  0.018749922  0.018487204           14 
 1953000   0.91587843   -7.8679617    437.73587  0.018677926  0.018481033            7 
 1954000    0.9407978   -7.8673801    438.25104  0.018690338  0.018474871           13 
 1955000   0.94121952   -7.8170937    439.24521  0.018723155   0.01846876            6 
 1956000   0.94236845   -7.8389247    439.83406   0.01873867  0.018462763            4 
 1957000   0.93977882   -7.8151985     438.4825  0.018671542  0.018456735            9 
 1958000   0.92719497   -7.8099612    440.34586  0.018741312  0.018450751            7 
 1959000   0.93163031   -7.8777594    439.07291  0.018677595  0.018444713            6 
 1960000    0.9335254   -7.8618443    439.19449  0.018673235  0.018438663            6 
 1961000   0.91480513   -7.8029012    441.07804  0.018743755  0.018432714            3 
 1962000   0.92306182    -7.855257    439.89074  0.018683772   0.01842672            7 
 1963000   0.93019035   -7.8367179     439.7627  0.018668819  0.018420774            4 
 1964000   0.94785408   -7.8107479    440.49267  0.018690286  0.018414799            5 
 1965000   0.95833343   -7.8198136    441.40493  0.018719463  0.018408882            4 
 1966000   0.93032369   -7.8424143    439.55777  0.018631645  0.018402963            4 
 1967000   0.93092089   -7.8289281    440.29579   0.01865344  0.018397026            9 
 1968000   0.94305282   -7.8518296    440.75129  0.018663249  0.018391107            6 
 1969000   0.93827472   -7.8405825    441.92504  0.018703447  0.018385163            6 
 1970000   0.92969794   -7.8255154    440.95719  0.018653012  0.018379228            1 
 1971000   0.90896588   -7.8055253    442.42608  0.018705652  0.018373362            4 
 1972000   0.93642748   -7.7944379    443.19522  0.018728669  0.018367516            7 
 1973000   0.94826153   -7.8262305     441.8957  0.018664289  0.018361633            3 
 1974000   0.93210999   -7.8603951    441.69295  0.018646274  0.018355766            7 
 1975000   0.91679964   -7.8366469    443.33461  0.018706102  0.018349858           11 
 1976000   0.94194358   -7.8162187    442.40717  0.018657522  0.018343986            2 
 1977000   0.92323943   -7.8216345    442.41697  0.018648498  0.018338128            6 
 1978000   0.93910974   -7.8333155    442.33597  0.018635658  0.018332251            4 
 1979000   0.95193811   -7.8481589    442.31938  0.018625542  0.018326398            3 
 1980000   0.94605707   -7.8140728    443.13245  0.018650356  0.018320551            7 
 1981000   0.93033513   -7.8520274    441.60138  0.018576535  0.018314684            4 
 1982000   0.93201928   -7.8659234    443.19779  0.018634283  0.018308783           11 
 1983000   0.92818431   -7.8310607    443.86215  0.018652805  0.018302907            5 
 1984000   0.92970642   -7.8514499     443.8435   0.01864262  0.018297042            4 
 1985000   0.92665488    -7.866237    441.98424  0.018555174  0.018291174            6 
 1986000   0.91056387   -7.8385459    444.12152  0.018635512  0.018285289            3 
 1987000   0.94431984   -7.8430424     443.3227  0.018592631  0.018279463            5 
 1988000   0.93521581   -7.8522526    442.83711  0.018562924  0.018273594            6 
 1989000   0.94695702   -7.8241755    443.41515  0.018577809  0.018267813            7 
 1990000   0.93275412   -7.8280801    444.06239  0.018595577  0.018261961            5 
 1991000   0.93952885   -7.8283672    442.86751  0.018536226  0.018256092            4 
 1992000   0.93012658   -7.8355563    443.75648   0.01856411  0.018250217            4 
 1993000   0.94267972   -7.8512371    444.55019  0.018587983  0.018244398            3 
 1994000   0.92466632   -7.8406612    443.10891  0.018518426  0.018238555            3 
 1995000   0.93056566   -7.8283989     444.5223  0.018568183  0.018232704            6 
 1996000   0.93786058   -7.8135709    444.40533  0.018553997  0.018226879            8 
 1997000   0.94982497   -7.7843436    445.88028  0.018606254  0.018221079            7 
 1998000   0.91543726   -7.8100558    443.62989  0.018503082  0.018215279            4 
 1999000   0.94119776   -7.8668486     443.1551  0.018474033  0.018209431           16 
 2000000   0.93186005   -7.8754295    443.87915  0.018494965  0.018203478           16 
 2001000   0.90424847   -7.8552415    443.57696  0.018473137  0.018197547            6 
 2002000   0.93584721   -7.9028995    443.92159  0.018478255  0.018191674           12 
 2003000   0.94681271   -7.8390231    444.39355  0.018488665  0.018185768            3 
 2004000   0.93932774   -7.8635379    443.93339  0.018460304  0.018179889            5 
 2005000   0.91346791   -7.8695002    443.53174  0.018434403  0.018173958            4 
 2006000   0.91735767   -7.8638535    443.98275   0.01844395  0.018168003            5 
 2007000   0.91467747   -7.8445731     443.5279  0.018415873  0.018162093            6 
 2008000   0.91008151   -7.8562488    444.37426  0.018441827  0.018156207            8 
 2009000   0.91684615   -7.8485789    445.11828  0.018463509   0.01815029           10 
 2010000   0.94426126    -7.840368    444.90133  0.018445329   0.01814437            3 
 2011000   0.94082889   -7.8753613    444.59079  0.018423288  0.018138451            8 
 2012000   0.94007996   -7.8694168     444.5764  0.018413536   0.01813256            4 
 2013000    0.9236155   -7.8706448    444.61753  0.018406091  0.018126599            5 
 2014000   0.94070754   -7.8400319     445.2902  0.018424785  0.018120744            4 
 2015000   0.92223952   -7.8815573     445.5674  0.018427105  0.018114874            2 
 2016000   0.93172455   -7.8658002    446.52558  0.018457572  0.018109033            6 
 2017000   0.93566844   -7.8347364    445.79879  0.018418393  0.018103175            2 
 2018000   0.93258373   -7.8425055    445.84936  0.018411354  0.018097364            6 
 2019000    0.9545112   -7.8718684    446.24881  0.018418723  0.018091573            5 
 2020000    0.9328879    -7.863874    446.60727  0.018424392  0.018085805            3 
 2021000   0.93648166   -7.8498083    445.67784  0.018376952  0.018079998            3 
 2022000   0.92189006    -7.859262    446.42792  0.018398777  0.018074236           22 
 2023000   0.92036825   -7.8671381     445.7883  0.018363334  0.018068466            9 
 2024000   0.92958204   -7.8731049    446.37753  0.018378522  0.018062666            5 
 2025000   0.91613179   -7.8769914    446.14625  0.018359928  0.018056867            3 
 2026000    0.9090308   -7.8449167    446.49396  0.018365168   0.01805105            9 
 2027000   0.92523958   -7.8961768    446.52336  0.018357316  0.018045263            6 
 2028000   0.92398048   -7.8846909    447.75191  0.018398747  0.018039508            6 
 2029000   0.94990511   -7.8801123    446.69633  0.018346325  0.018033712            6 
 2030000   0.90452559   -7.9416152    446.31849  0.018321777  0.018027861            7 
 2031000   0.93201115   -7.8923642    445.73743  0.018288915  0.018022015            6 
 2032000    0.9418508   -7.8672173     447.0145  0.018332288  0.018016157            7 
 2033000   0.90686162   -7.8943767    447.02713  0.018323788  0.018010298            6 
 2034000   0.92664485   -7.8529511    447.32659  0.018327048  0.018004483           12 
 2035000   0.91755613   -7.8482094    447.84496  0.018339269   0.01799875            2 
 2036000   0.93878358   -7.9208982    447.14729  0.018301706  0.017992956            6 
 2037000   0.92401816   -7.9089759    447.00331  0.018286832    0.0179871            5 
 2038000   0.91688397   -7.9024074    446.97175  0.018276568  0.017981285            8 
 2039000    0.9167482   -7.9192995    446.55875  0.018250726  0.017975399            4 
 2040000   0.93448735     -7.88094    447.07233  0.018262759  0.017969585            8 
 2041000   0.91002377   -7.8478517    447.85724  0.018285858  0.017963782            3 
 2042000    0.9412257    -7.869764    448.52176  0.018304022   0.01795801            9 
 2043000   0.92998545   -7.8743097    447.63669  0.018258961  0.017952188            9 
 2044000   0.92723378   -7.8754322    448.27039  0.018275864  0.017946385            5 
 2045000   0.92537564   -7.8965627    448.58728   0.01827984  0.017940542            6 
 2046000   0.91045148   -7.9220728    447.51248  0.018227129  0.017934693            4 
 2047000    0.9247521   -7.9154342    448.19542  0.018246027  0.017928836            7 
 2048000    0.9489504    -7.891862    448.01704   0.01822986  0.017923019            7 
 2049000   0.91368345   -7.9220434    447.52304  0.018200872  0.017917213            5 
 2050000   0.93475495   -7.9198938    448.52547  0.018232743  0.017911418            9 
 2051000    0.9268727   -7.8937587    447.97646  0.018201547  0.017905639           20 
 2052000   0.91712636   -7.9034867    449.22349  0.018243319  0.017899861            8 
 2053000    0.9269586   -7.9223485    448.73677  0.018214677  0.017893986            7 
 2054000   0.91203584   -7.9335038    448.13706  0.018181478   0.01788816           16 
 2055000   0.90254678   -7.8803321    449.52992  0.018229113  0.017882337           14 
 2056000   0.91389169    -7.890738    448.47579  0.018177521  0.017876507            8 
 2057000   0.93791564   -7.8637516    449.08141  0.018193219  0.017870699            8 
 2058000   0.91416575   -7.9059767    449.12904  0.018186307  0.017864823            8 
 2059000    0.9032529   -7.9215904     448.6077  0.018156375  0.017858974            2 
 2060000   0.92300922     -7.90607    449.99027   0.01820349  0.017853174            4 
 2061000   0.91577471   -7.8699264    451.78363  0.018267169  0.017847476           11 
 2062000   0.93425063   -7.8817556    451.14752  0.018232603  0.017841728            9 
 2063000   0.90437988   -7.9143376    449.07495  0.018140045  0.017835928            5 
 2064000   0.92510817   -7.9114111     448.6612  0.018114551  0.017830132            3 
 2065000   0.91323805   -7.9172691    449.13188  0.018124773  0.017824316            4 
 2066000   0.90493457   -7.8744092     449.7146  0.018139505  0.017818511            4 
 2067000    0.9239608   -7.8738525    450.26232  0.018152811  0.017812735           12 
 2068000   0.89659982   -7.8509324    450.49462  0.018153394   0.01780696            4 
 2069000   0.91222192   -7.8669982    450.89223  0.018160634  0.017801227           15 
 2070000   0.91391424   -7.8543983    450.66228  0.018142604  0.017795474            6 
 2071000   0.93634289   -7.8764988    449.93928  0.018104751  0.017789725            5 
 2072000   0.90780794   -7.8829897    451.23022  0.018147934  0.017784025            6 
 2073000   0.93768688   -7.8624286    451.23693  0.018139449  0.017778312           18 
 2074000   0.92611876   -7.8743297    451.40537  0.018137471  0.017772614           15 
 2075000   0.92929299   -7.8691713    451.18358  0.018119823   0.01776691            4 
 2076000   0.90035599   -7.8647923    450.90048   0.01809973  0.017761142            3 
 2077000   0.92259145   -7.9184563    449.82863  0.018048011   0.01775532            4 
 2078000   0.91556951   -7.8979439    449.32191  0.018019005  0.017749488           11 
 2079000   0.92495514    -7.928422    450.28233  0.018048835  0.017743656            3 
 2080000   0.91481259   -7.9370601    450.59105  0.018052526  0.017737801            4 
 2081000   0.92584891   -7.8931206     451.0353  0.018061641   0.01773196           10 
 2082000   0.92184192   -7.9390649    450.22611  0.018020577  0.017726184            5 
 2083000   0.92771717    -7.925814    451.46986  0.018061684  0.017720297           10 
 2084000   0.89631502   -7.9236438     450.6091  0.018018598  0.017714444            9 
 2085000   0.91949212   -7.9177375    450.54539   0.01800741   0.01770858            5 
 2086000   0.90883736   -7.9280549    451.00092  0.018016975  0.017702726            6 
 2087000   0.91917005    -7.927676    451.50133  0.018028324  0.017696884            6 
 2088000   0.90495925   -7.8791105    451.64114  0.018025269  0.017691092           19 
 2089000    0.9064587   -7.8935139    451.42674  0.018008088  0.017685244            6 
 2090000   0.93373737   -7.8799489    452.09724  0.018026206  0.017679483            4 
 2091000   0.90478263   -7.9035261    451.89916  0.018009691    0.0176737            3 
 2092000   0.90420026   -7.9150867    451.23786   0.01797474  0.017667913            5 
 2093000   0.91713703   -7.8959542     451.0496  0.017958656  0.017662198            6 
 2094000   0.90325668   -7.9078029    451.97218  0.017986795  0.017656464            9 
 2095000   0.93288798   -7.9129511    452.67525  0.018006175  0.017650666           15 
 2096000   0.92079608   -7.9003796    452.26491   0.01798127   0.01764495            5 
 2097000   0.90048548   -7.8594532    453.45409  0.018019953  0.017639242           13 
 2098000   0.93627702   -7.8645974     452.9116  0.017989816  0.017633564            5 
 2099000   0.91957995   -7.9291226    453.15942  0.017991084  0.017627846            4 
 2100000   0.91408134     -7.87142    453.80121  0.018007984  0.017622104            5 
 2101000   0.90946187   -7.9425513    452.72712  0.017956811  0.017616357            3 
 2102000    0.9249494   -7.8768922    453.41766  0.017975645   0.01761068            9 
 2103000   0.91392179   -7.9023561    453.22189  0.017959339  0.017604949            6 
 2104000   0.90497814   -7.8900571    452.84335  0.017935811  0.017599198           10 
 2105000   0.92282245   -7.9187567    453.10229  0.017937541  0.017593447            6 
 2106000   0.91100237   -7.9373609    452.36489  0.017899845  0.017587666           12 
 2107000   0.92438465    -7.877527     453.6821  0.017943447  0.017581904            9 
 2108000   0.92326168   -7.9195773    453.78641  0.017939058  0.017576119            2 
 2109000   0.91961541   -7.8735331    455.02723  0.017979581  0.017570421            4 
 2110000    0.9204303   -7.8956665    453.29103  0.017902489  0.017564711            7 
 2111000   0.94025226   -7.9207035    454.31781  0.017934542  0.017558997            8 
 2112000   0.90344562    -7.891762     454.1569  0.017919701  0.017553254            4 
 2113000   0.89611542   -7.8947863    453.21254  0.017873976  0.017547471            6 
 2114000   0.89530017   -7.9113626    453.32691  0.017870029  0.017541678            4 
 2115000    0.9199081   -7.9259995    452.41902  0.017825808  0.017535868            6 
 2116000   0.92364768   -7.9001112    453.94011  0.017877288  0.017530062            7 
 2117000   0.91375746   -7.8911424    453.76555  0.017861973  0.017524257            7 
 2118000   0.90856374   -7.9458082    452.69009  0.017811225  0.017518423            8 
 2119000   0.91272738   -7.9723756    452.68867  0.017802764  0.017512565            4 
 2120000   0.89487952   -7.9455089    452.78835  0.017798284    0.0175067            5 
 2121000   0.90471833   -7.8714465    454.74806  0.017866889  0.017500881            4 
 2122000    0.9157206   -7.8292375    454.05294  0.017831171  0.017495117            8 
 2123000   0.90051701   -7.9292855    453.20351   0.01778943  0.017489425            5 
 2124000    0.9000122   -7.9009429    454.49529  0.017831736  0.017483679            8 
 2125000   0.90403888   -7.9490967    453.11845  0.017769351  0.017477898            3 
 2126000   0.91036673   -7.9216495    453.64085   0.01778147  0.017472134            3 
 2127000   0.91173146   -7.9225546    454.61053  0.017811101  0.017466373            3 
 2128000   0.92243586   -7.9360929    453.39175  0.017755003  0.017460627           12 
 2129000   0.90858302   -7.9003738    454.29126  0.017781872  0.017454853            6 
 2130000    0.9039357   -7.9439662     453.8635  0.017756788  0.017449062            5 
 2131000   0.90758711   -7.9306933     452.7833  0.017706214  0.017443257            4 
 2132000   0.90474941   -7.9262377     453.5206  0.017726728  0.017437463            9 
 2133000     0.899677   -7.9106949    454.50417  0.017756844  0.017431594            3 
 2134000   0.89733358   -7.9205624    453.90721  0.017725211  0.017425742           11 
 2135000   0.90979623   -7.9472821    454.05564  0.017722703  0.017419924            6 
 2136000   0.91044722   -7.9296823    453.60192  0.017696704  0.017414034            5 
 2137000   0.91936919   -7.9543159    453.66842  0.017691016  0.017408173            6 
 2138000   0.90162406    -7.949294    453.95801  0.017694029  0.017402326            9 
 2139000    0.9126489   -7.9367466    455.44301  0.017743611  0.017396486           13 
 2140000   0.92181101   -7.9700154    454.80882  0.017710624  0.017390717            9 
 2141000   0.93413317   -7.8947373    456.06626  0.017751295  0.017384944            4 
 2142000   0.89243703   -7.9542702    455.27525  0.017712234  0.017379167           13 
 2143000   0.91025778   -7.9323646    455.15742  0.017699386  0.017373424            7 
 2144000   0.92899545   -7.9043348    455.56207  0.017706859  0.017367694            9 
 2145000   0.90586491   -7.9531819    455.40223  0.017692394  0.017361988            2 
 2146000   0.91491137   -7.9101382    455.16068   0.01767477  0.017356282            5 
 2147000   0.90483539   -7.9761848    454.98124  0.017659573  0.017350551            4 
 2148000   0.91796578   -7.9226004    456.13742  0.017696207  0.017344763            9 
 2149000   0.92633457   -7.9194323    455.38629  0.017658845  0.017339021            8 
 2150000   0.91651258   -7.9635914    454.71999  0.017624806  0.017333265            3 
 2151000   0.88748712   -7.9493944    455.33051  0.017640265  0.017327465            7 
 2152000   0.88568474   -7.9329952    456.29417  0.017669384  0.017321725            5 
 2153000   0.90956624   -7.9311805     456.3845  0.017664673  0.017315976            4 
 2154000   0.89706258   -7.9508109    455.39453  0.017618173  0.017310198            8 
 2155000   0.91566931   -7.9342586    456.74503  0.017662221  0.017304443            5 
 2156000   0.90466546   -7.9456626    455.79757  0.017617408  0.017298739            5 
 2157000   0.90372809   -7.9290671    456.72407  0.017645035  0.017293025            8 
 2158000   0.91920471   -7.9372572    457.03961  0.017649043  0.017287324            5 
 2159000   0.91037933   -7.9198406    457.33817  0.017652392  0.017281688            7 
 2160000   0.90870504   -7.9241792     457.3763  0.017645691  0.017276086            6 
 2161000   0.90469018   -7.9514123    457.39336  0.017638183  0.017270397            8 
 2162000   0.91630689   -7.9594824     458.6155  0.017677131  0.017264752            9 
 2163000   0.92514001   -7.9625472    456.88907  0.017602445  0.017259122           14 
 2164000    0.9205119   -7.9152631    457.74739  0.017627364  0.017253468            5 
 2165000   0.91332558    -7.944817    458.08964  0.017632396  0.017247845            5 
 2166000   0.91545153   -7.9545689    457.06348  0.017584775  0.017242219            5 
 2167000   0.90058344   -7.9667078    457.05079  0.017576173  0.017236526            6 
 2168000   0.91419072    -7.964941    456.95418  0.017564352  0.017230831            4 
 2169000   0.91469232    -7.924016    459.50973  0.017654439   0.01722519            8 
 2170000   0.90847899   -7.9590489       456.49  0.017530338  0.017219444            4 
 2171000   0.89511031   -7.9748578    457.46739   0.01755978  0.017213749           10 
 2172000   0.91931066   -7.8974084    458.13968  0.017577489  0.017208121            5 
 2173000   0.90096815   -7.9522788    457.40134  0.017541085  0.017202451            7 
 2174000   0.89706997   -7.9694348    458.06202  0.017558342  0.017196741            8 
 2175000   0.90414847   -7.9690936    458.05402  0.017549962  0.017191044            6 
 2176000   0.89876997   -7.9660348    458.23014  0.017548642  0.017185355            3 
 2177000    0.9031955   -7.9436082    457.57968  0.017515682  0.017179701            6 
 2178000   0.92043431   -7.9102257    459.26211  0.017572012  0.017174116            9 
 2179000   0.89946981   -7.9516619    458.46108  0.017533314  0.017168511            4 
 2180000    0.9151504   -7.9328504    459.13968  0.017551211  0.017162885            6 
 2181000   0.90643951   -7.9535607    459.47662  0.017556038  0.017157257            4 
 2182000   0.89691144   -7.9741999    459.33379  0.017542537  0.017151659            7 
 2183000    0.8952547   -7.9281982    459.41224  0.017537496  0.017146071            6 
 2184000    0.9146874   -7.9522388    459.57067  0.017535511  0.017140473            7 
 2185000   0.89613628   -7.9814086    459.28777  0.017516696  0.017134834            5 
 2186000     0.894814    -7.947327     459.0171  0.017498365  0.017129153            8 
 2187000   0.88434911   -7.9734915    459.12942  0.017494643   0.01712349            4 
 2188000    0.9169806   -7.9892724    457.85206  0.017437997  0.017117818           15 
 2189000   0.89420295    -7.979988    458.41974  0.017451642  0.017112143           16 
 2190000   0.90564314   -7.9526722    458.27087  0.017438009  0.017106501           10 
 2191000   0.89871851   -7.9601435    459.80026  0.017488219  0.017100858            8 
 2192000   0.90757856   -7.9444223    459.43138  0.017466217  0.017095161           12 
 2193000   0.91593427   -7.9328567    459.82449  0.017473191  0.017089544            4 
 2194000   0.91957596   -7.9250154    459.00853  0.017434235  0.017083893           14 
 2195000   0.89052304   -7.9676447    459.47395  0.017443962  0.017078286           19 
 2196000   0.89233978   -7.9563241    459.06405  0.017420463  0.017072621            9 
 2197000   0.91396109    -7.974702    458.77626  0.017401618  0.017066958           15 
 2198000   0.89306913   -7.9774779    458.61865  0.017387725  0.017061263            6 
 2199000   0.88725554    -7.986986    457.99561  0.017356208   0.01705558            6 
 2200000   0.89991889   -7.9703386    459.29621  0.017397584  0.017049907            8 
 2201000   0.91867938   -7.9511141    459.68703  0.017404476  0.017044226            5 
 2202000   0.88935996   -7.9724984    457.99701  0.017332615  0.017038552            8 
 2203000   0.87853345   -7.9457895    460.07866   0.01740349  0.017032834            5 
 2204000   0.88595641   -7.9778796    459.06008  0.017357081  0.017027152            5 
 2205000   0.89309926   -7.9623469    459.91118  0.017381375  0.017021504           12 
 2206000   0.89461704   -7.9656641    459.98878  0.017376427  0.017015853           15 
 2207000    0.8992447   -7.9592562    459.73621  0.017359017   0.01701021            8 
 2208000   0.90182602   -7.9909947      459.139  0.017328616  0.017004499            5 
 2209000    0.9063579   -7.9652486    459.85002  0.017347594  0.016998828           12 
 2210000   0.88735817   -7.9302423    460.92523  0.017380288  0.016993206            6 
 2211000   0.89614952   -7.9752236    459.34877   0.01731301  0.016987544            7 
 2212000   0.88506826   -7.9472323    460.45299  0.017346782  0.016981916            8 
 2213000    0.8853605   -7.9600824    459.32501  0.017296468  0.016976252            7 
 2214000   0.88365462   -7.9701115    459.83491  0.017307848  0.016970566           14 
 2215000   0.91146541   -7.9839055    460.41575  0.017321887  0.016964908           11 
 2216000   0.91484102   -7.9428378    461.81058  0.017366523  0.016959302            3 
 2217000   0.89514776   -7.9377735    461.37451  0.017342299  0.016953671            7 
 2218000   0.89273749   -7.9805264    459.45284   0.01726228   0.01694805           15 
 2219000   0.87392696   -7.9232519    461.82856  0.017343719  0.016942409            6 
 2220000    0.8876576   -7.9406219    460.78347  0.017296677  0.016936801           13 
 2221000   0.89848552   -7.9442015    460.74014  0.017287263  0.016931191            4 
 2222000   0.89900618   -7.9359923    461.40594  0.017304453  0.016925593           12 
 2223000   0.89725287   -7.9673214    460.95726  0.017279849  0.016919935           13 
 2224000   0.89989557   -7.9775777     460.7853  0.017265636  0.016914283            6 
 2225000   0.89594703   -7.9868032      460.256  0.017238052   0.01690864           13 
 2226000   0.90718859   -7.9761251    460.77671  0.017249802  0.016902975            8 
 2227000   0.86816968   -7.9468971    460.59679  0.017235324  0.016897311           13 
 2228000    0.9009616   -7.9438872    461.54658  0.017263113  0.016891656           15 
 2229000   0.90232866   -7.9246238    461.85488  0.017266894  0.016886064           16 
 2230000   0.87459349   -7.9550806    461.23201  0.017235875  0.016880427            8 
 2231000   0.88729323   -8.0018347    460.71504  0.017208839  0.016874763            6 
 2232000   0.87634057   -7.9746234    461.69925  0.017237875  0.016869072            9 
 2233000   0.88172718   -7.9367182    461.69642   0.01723005  0.016863418            7 
 2234000   0.89063162   -7.9907288    460.11379  0.017163302  0.016857765           10 
 2235000   0.90152626   -7.9693265    461.51637  0.017207918  0.016852111           12 
 2236000   0.91057787   -7.9593651    462.00311  0.017218363  0.016846486           16 
 2237000   0.91163038   -8.0067481    460.37079  0.017149858  0.016840818           12 
 2238000   0.89634195     -7.99937    461.21056  0.017173464   0.01683511            4 
 2239000   0.89285307   -7.9602372    460.60667  0.017143318  0.016829423            7 
 2240000   0.87920579   -8.0050465    461.54473  0.017170563  0.016823718           12 
 2241000   0.88959246   -7.9795195    462.21016  0.017187645  0.016818049           16 
 2242000    0.8725302   -7.9726902    462.90444  0.017205785   0.01681241            7 
 2243000     0.881236   -7.9475348    462.74982   0.01719237  0.016806783            4 
 2244000    0.8999947   -7.9726221    462.23838  0.017165715  0.016801167           14 
 2245000   0.89140997   -7.9699582    462.96781  0.017185145  0.016795562            6 
 2246000   0.87813596   -7.9693011    462.06064  0.017143835  0.016789989            3 
 2247000   0.88614083   -7.9773941    462.35512  0.017147126  0.016784414            5 
 2248000    0.9042151   -7.9947955    462.91076  0.017160096  0.016778861            8 
 2249000   0.87805971    -7.963604    463.04005  0.017157257  0.016773305            7 
 2250000   0.89612761   -7.9375335    465.02873  0.017223286  0.016767821            8 
 2251000     0.910449    -7.952964    462.86574   0.01713556  0.016762337           11 
 2252000   0.88511177   -7.9511167    464.32921  0.017182105  0.016756865            5 
 2253000   0.91078836   -7.9323617     463.0515  0.017127219   0.01675139           14 
 2254000   0.88726954   -7.9823843     463.5306  0.017137334  0.016745862            8 
 2255000   0.91316031   -7.9949469    463.22572  0.017118467  0.016740342            6 
 2256000   0.89212671   -7.9603182    464.39782  0.017154175  0.016734828           15 
 2257000   0.88970601   -7.9199334    465.03621  0.017170145   0.01672936            6 
 2258000   0.89424709   -7.9582305    464.57443  0.017145499  0.016723886            7 
 2259000   0.88226211   -7.9771622    464.19274  0.017123828  0.016718335            8 
 2260000   0.89332382   -7.9807809    463.81138   0.01710219  0.016712814           10 
 2261000   0.88744144   -8.0019465    463.32845  0.017076826  0.016707255            5 
 2262000   0.87901311    -7.991668    464.42207  0.017109566  0.016701672            8 
 2263000   0.88310688   -8.0265509    463.52122  0.017068833  0.016696117           13 
 2264000   0.88747947   -8.0006986    463.73187  0.017069047  0.016690578            3 
 2265000   0.88028489   -7.9441067    464.61361  0.017093952  0.016685001            7 
 2266000   0.89827826   -7.9919132    463.62614  0.017050093  0.016679425            9 
 2267000   0.87286765    -8.005107    462.99649  0.017019427  0.016673819           10 
 2268000   0.91078405   -8.0167049    462.62446  0.016998253  0.016668183            7 
 2269000    0.8919471   -8.0175993    463.25766  0.017014017  0.016662526           17 
 2270000   0.91724332   -7.9864509    463.96481  0.017032482  0.016656909            9 
 2271000   0.89613357     -7.99841    464.34701  0.017039007  0.016651315            7 
 2272000   0.87220452   -7.9749263    464.08556  0.017021918  0.016645688            7 
 2273000   0.87254354   -7.9843495    463.99719  0.017011189   0.01664008            4 
 2274000    0.9015439   -7.9908469    463.70197   0.01699289  0.016634505            9 
 2275000   0.89503604   -8.0118462    463.26418  0.016969384  0.016628914            7 
 2276000   0.88231165   -7.9920598    464.20838  0.016996499  0.016623332            4 
 2277000   0.87241854   -7.9670993    464.28506  0.016991841  0.016617768           16 
 2278000   0.88212445   -7.9662397    465.66265  0.017034776  0.016612254            7 
 2279000    0.8709406   -7.9944412    465.32433  0.017014931  0.016606729           16 
 2280000   0.90699212   -7.9393847    465.91307  0.017028987  0.016601249            3 
 2281000   0.88403321   -7.9906967    465.30518  0.016999312    0.0165958            4 
 2282000   0.86819445   -7.9409792    467.34687  0.017066421  0.016590345            6 
 2283000   0.90037217   -7.9672217    465.93687  0.017007478  0.016584897            6 
 2284000   0.88540489   -7.9813819    465.84587  0.016996711  0.016579433            6 
 2285000   0.88746994   -7.9679022    465.05997  0.016960612  0.016573938            4 
 2286000   0.88521818   -7.9960423    465.46258  0.016967869  0.016568436            8 
 2287000   0.89997263   -8.0094109    465.19247  0.016950607  0.016562944            5 
 2288000   0.87537378   -8.0070359    465.52922  0.016955464   0.01655745            7 
 2289000   0.88123711     -7.98832     465.0553  0.016930803  0.016551919            3 
 2290000   0.88693107   -8.0155432    466.01408    0.0169583  0.016546366           19 
 2291000   0.93062114    -8.007348    465.20859  0.016921599  0.016540792            9 
 2292000   0.89591916   -7.9787364    466.33113  0.016955029  0.016535246            8 
 2293000   0.88843937   -8.0228042    464.73124  0.016889491  0.016529691           27 
 2294000   0.89250999   -8.0203607    464.77798  0.016883827  0.016524118            8 
 2295000   0.91035868   -8.0270471    464.21125  0.016855891  0.016518535           12 
 2296000   0.87218259   -7.9996228    465.18184  0.016883778  0.016512937            6 
 2297000   0.89373523   -8.0177689    465.85367  0.016900801  0.016507339            4 
 2298000   0.89983674   -8.0020179    466.10687  0.016902628  0.016501778           12 
 2299000   0.89447698   -7.9985803    465.29451   0.01686583  0.016496176            7 
 2300000   0.87630314   -8.0080107    465.92222   0.01688124   0.01649059            9 
 2301000   0.89089944   -8.0298865    465.35909  0.016853509  0.016485027            6 
 2302000   0.88593561   -7.9948937    465.75908  0.016860668  0.016479451           14 
 2303000   0.89751168   -7.9970584    465.89428  0.016858239  0.016473831           14 
 2304000   0.87716341   -8.0021072    464.75257  0.016809627  0.016468223           12 
 2305000   0.90243723   -8.0285733    466.35727   0.01686035  0.016462575            4 
 2306000   0.89578861   -8.0199476    464.35115  0.016780542  0.016456968            8 
 2307000   0.88418689   -8.0089916    465.43256  0.016812331  0.016451384            4 
 2308000   0.88381624   -8.0010708    465.93151  0.016823061  0.016445794            6 
 2309000   0.88041485    -8.003781     465.9159  0.016815212  0.016440181            4 
 2310000   0.89083247    -8.015239    465.44421  0.016790917  0.016434557            7 
 2311000   0.89693456   -8.0403016    464.58166  0.016752548  0.016428953            6 
 2312000   0.87657622   -7.9635124    467.02758  0.016833462  0.016423346            5 
 2313000    0.8854323   -7.9977561    465.76092  0.016780549  0.016417772            7 
 2314000    0.8644908   -7.9929592    465.76077  0.016773292  0.016412158            9 
 2315000    0.8779379   -8.0414234     465.0203  0.016739392  0.016406539           11 
 2316000   0.86871541   -8.0417873    465.38616  0.016745328  0.016400923            9 
 2317000   0.86785732   -8.0358287    465.73754  0.016750739  0.016395323           29 
 2318000   0.87735196   -8.0121983    466.36913  0.016766218  0.016389712           34 
 2319000   0.88121244   -7.9974095    466.83636  0.016775778  0.016384137           22 
 2320000   0.89562845   -8.0215166    465.86503  0.016733658  0.016378544           23 
 2321000   0.85738347   -8.0258135      466.862  0.016762243  0.016372919           16 
 2322000   0.88868442   -8.0204074    466.61818  0.016746274  0.016367301           14 
 2323000   0.86188673   -8.0281592    465.55616  0.016700967  0.016361642           27 
 2324000   0.89614186   -8.0552162    465.00629  0.016674064  0.016355987           30 
 2325000   0.85697727   -8.0342921    465.30099  0.016677455  0.016350324           45 
 2326000   0.87143446   -8.0379408    465.75297  0.016686478  0.016344654           51 
 2327000   0.89170809   -8.0369831    465.07901  0.016655172  0.016339032           45 
 2328000   0.87650369   -8.0769413    465.96647  0.016679785   0.01633336           32 
 2329000    0.8857395   -8.0296697     466.1644  0.016679705  0.016327701           42 
 2330000   0.87648485   -8.0590881    466.07931  0.016669503  0.016322067           53 
 2331000   0.87565288   -8.0600633    465.58235  0.016644586  0.016316439           45 
 2332000    0.8728849   -8.0204063     466.4023  0.016666749  0.016310798           40 
 2333000   0.87517212    -8.023996     466.1194    0.0166495  0.016305197           51 
 2334000   0.86613005   -8.0013192    466.19673  0.016645128  0.016299524           43 
 2335000   0.88495865   -8.0721853    465.28713  0.016605536  0.016293843           57 
 2336000   0.87198268   -7.9989146    466.42422  0.016638992  0.016288207           64 
 2337000   0.88042119   -8.0708331     466.4303  0.016632089   0.01628255           63 
 2338000   0.86703394   -8.0494775    466.48248  0.016626835  0.016276843           39 
 2339000   0.87735242   -8.0395984    465.55491  0.016586679  0.016271186           66 
 2340000   0.88407407   -8.0509117    466.29582  0.016605977  0.016265516          103 
 2341000   0.86837269   -8.0648758    466.78951  0.016616457  0.016259838           85 
 2342000   0.87364251   -8.0230177    466.15208  0.016586681  0.016254237           95 
 2343000   0.87139002   -8.0521672    465.96836  0.016573067  0.016248636           70 
 2344000   0.86223887   -8.0452855    465.43835  0.016547154  0.016243036           83 
 2345000   0.85400185   -8.0399897    466.49272  0.016577566  0.016237412           83 
 2346000   0.87769626   -8.0112018    467.89233  0.016620216  0.016231832           82 
 2347000   0.86681843    -8.013597    467.27126  0.016591083   0.01622625          111 
 2348000   0.87200891   -8.0233101    466.76828  0.016566166  0.016220673           87 
 2349000   0.84964011   -8.0458498    466.50737  0.016549857   0.01621506           75 
 2350000   0.88895044   -8.0662253    466.37761  0.016538213   0.01620943           54 
 2351000   0.86708789    -8.059476     467.0637  0.016555497  0.016203787           73 
 2352000   0.86934769   -8.0197238    468.21469  0.016589239  0.016198179           50 
 2353000   0.87572325   -8.0310362    467.13817  0.016544063  0.016192602           63 
 2354000   0.88525477    -8.043321    467.01519  0.016532681  0.016186979           53 
 2355000   0.86083058   -8.0539504    467.60402  0.016546498  0.016181316           39 
 2356000   0.85374437   -8.0720043    467.48187  0.016535154  0.016175699           71 
 2357000   0.89066515   -8.0272165    466.72582  0.016501408  0.016170102           69 
 2358000   0.85450053   -8.0167013    467.53231  0.016522912   0.01616451           52 
 2359000   0.86234095    -8.051059     467.5277  0.016515745    0.0161589           69 
 2360000   0.86290075   -8.0148546    467.84758  0.016520042  0.016153304           36 
 2361000   0.89028395   -8.0107555    468.10425  0.016522104  0.016147702           84 
 2362000   0.88508295    -8.008286    468.11406  0.016515455  0.016142147           73 
 2363000   0.88098369   -8.0719495    466.64557  0.016456678   0.01613656           72 
 2364000   0.86150412   -8.0691137    466.88647  0.016458209  0.016130932           81 
 2365000   0.86472972   -8.0851938    467.76134  0.016482077  0.016125318           79 
 2366000   0.88967219   -8.0675166    467.41389  0.016462873   0.01611971           83 
 2367000   0.85878229   -8.0476057    468.08823  0.016479659    0.0161141          101 
 2368000    0.8782178   -8.0924824    465.51044  0.016381983  0.016108461           75 
 2369000    0.8650373   -8.0656217    466.99412  0.016427259   0.01610283          111 
 2370000    0.8633518   -8.0538341    467.60744  0.016441893  0.016097237           99 
 2371000    0.8966583     -8.06754    467.36359  0.016426388  0.016091667           93 
 2372000   0.87881452   -8.0720695    468.06406  0.016444072  0.016086113          125 
 2373000   0.87650509   -8.0798491    468.00083  0.016434922  0.016080511          117 
 2374000   0.85595491   -8.0091283    468.71104  0.016452929  0.016074957           93 
 2375000    0.8670835   -8.0754438    466.72313   0.01637625  0.016069357           79 
 2376000   0.86947749   -8.0467628     468.9192   0.01644638  0.016063754          115 
 2377000   0.86532533   -8.0622176    467.53935  0.016391087  0.016058187           81 
 2378000   0.87658984   -8.0795446    467.77769  0.016392546  0.016052572          114 
 2379000   0.87804244   -8.0579652    468.38969  0.016407093  0.016046945          109 
 2380000   0.87149736   -8.0911259    467.37702  0.016364742  0.016041317          152 
 2381000    0.8540093    -8.096355    466.99637  0.016344546  0.016035675          189 
 2382000   0.86650568   -8.0853385    468.17258  0.016378834  0.016030081          206 
 2383000   0.87385429   -8.1258222    467.68775  0.016355006  0.016024457          179 
 2384000   0.87088516   -8.0983819    468.02211  0.016359833  0.016018858          178 
 2385000   0.88149595   -8.0752594    467.93952  0.016350088   0.01601326          176 
 2386000   0.88528736   -8.1046254    467.37438  0.016323497  0.016007679          174 
 2387000   0.85292018   -8.1074757    468.17176  0.016344497  0.016002049          173 
 2388000    0.8702295   -8.0939563    468.64527  0.016354176   0.01599642          174 
 2389000   0.86247985   -8.0850445    468.44361  0.016340296  0.015990805          153 
 2390000   0.87802252    -8.101076     468.5268   0.01633636  0.015985175          144 
 2391000   0.87141891   -8.1083814    468.47501  0.016327722  0.015979537          164 
 2392000   0.85116879   -8.0819538    467.00184  0.016269573  0.015973885          177 
 2393000   0.87038672    -8.101909    467.67968   0.01628638  0.015968186          171 
 2394000   0.87846781   -8.0859583    467.54656  0.016274943  0.015962474          116 
 2395000    0.8668662   -8.1312733    467.62031  0.016270713   0.01595681          196 
 2396000   0.85419566   -8.1183256    467.69425  0.016266494  0.015951101          175 
 2397000   0.87449179   -8.1159962     467.6422  0.016257899  0.015945401          198 
 2398000   0.86623725   -8.1120321    468.29925  0.016273952  0.015939712          184 
 2399000   0.85398729   -8.1310925    468.03931  0.016258139  0.015934028          178 
 2400000   0.86338699   -8.1149977      468.628  0.016271806  0.015928359          250 
 2401000   0.86640418   -8.1469123    467.97629  0.016242409  0.015922709          177 
 2402000   0.84578629   -8.0898117    468.05343  0.016238323  0.015917053          195 
 2403000   0.87375885   -8.1289168    468.36404  0.016242337  0.015911372          223 
 2404000   0.85672708   -8.1053634    467.38064  0.016201492  0.015905684          251 
 2405000   0.86489592   -8.1324851    469.00127   0.01625091  0.015899996          229 
 2406000   0.86531734   -8.1586656    467.71464  0.016199593  0.015894292          279 
 2407000   0.87217539    -8.140193    468.46758   0.01621893  0.015888569          287 
 2408000   0.88390422    -8.157774    467.64166  0.016183612  0.015882861          366 
 2409000   0.85172802   -8.1499041    468.61792  0.016210666  0.015877168          290 
 2410000   0.85739393   -8.1388349    467.02747  0.016148944  0.015871446          387 
 2411000   0.87255078   -8.1420132    468.05272  0.016177683  0.015865733          420 
 2412000   0.85080424   -8.1459417    468.14942  0.016174317   0.01586004          410 
 2413000   0.87066207    -8.164473    466.72026  0.016118258  0.015854327          416 
 2414000   0.86000297   -8.1398696     466.4888   0.01610359  0.015848595          394 
 2415000   0.86367841   -8.1484255    466.38801  0.016093444  0.015842851          402 
 2416000   0.87064771   -8.1423103    467.57232  0.016127632  0.015837138          398 
 2417000    0.8639964   -8.1135661    468.60983  0.016156731  0.015831441          443 
 2418000   0.86400056   -8.1620213     468.0232  0.016129832  0.015825746          499 
 2419000   0.88184664   -8.1507705    468.74911  0.016148171  0.015820036          444 
 2420000   0.85370681   -8.1355217    468.16286  0.016121311  0.015814294          486 
 2421000   0.87110125    -8.171436    467.58317  0.016094698  0.015808508          549 
 2422000   0.87829665   -8.1397273    467.35716  0.016080276  0.015802727          518 
 2423000   0.86543448   -8.1728646    467.44964  0.016076821  0.015796935          576 
 2424000   0.87321171    -8.218945    465.88521  0.016016406  0.015791096          568 
 2425000   0.86111564   -8.1577974    467.71707  0.016072751  0.015785276          598 
 2426000   0.86517738   -8.2062829    466.78915  0.016034252  0.015779433          708 
 2427000   0.87350253   -8.1688975    467.64351  0.016056981  0.015773604          683 
 2428000   0.86923689   -8.2056337    467.79055  0.016055414  0.015767767          658 
 2429000   0.85831671   -8.2295278    467.02668  0.016022598  0.015761938          739 
 2430000   0.88438391   -8.2525925    465.97637  0.015979985  0.015756078          688 
 2431000   0.86521161   -8.2568695    465.82629  0.015968267   0.01575019          752 
 2432000     0.892159   -8.2308987    466.07495  0.015970222  0.015744342          750 
 2433000   0.83846455    -8.228403    466.15614  0.015966439  0.015738467          734 
 2434000    0.8562349   -8.2726191    465.01117  0.015920678  0.015732579          812 
 2435000   0.85650873   -8.2378819    465.63956  0.015935646  0.015726647          834 
 2436000   0.87509153    -8.266529    465.91075  0.015938381  0.015720723          823 
 2437000   0.87306057   -8.2918464    464.90866  0.015897574   0.01571478          906 
 2438000   0.85222545   -8.2861324     464.9797  0.015893482  0.015708808          935 
 2439000   0.87953602   -8.3017805    464.78402   0.01588028  0.015702834          969 
 2440000   0.86091632   -8.2901811    464.72887  0.015871887  0.015696814         1063 
 2441000   0.87065405   -8.2783635    465.29694  0.015884779  0.015690827         1072 
 2442000   0.84589021   -8.3052023    465.09495  0.015871381  0.015684805         1100 
 2443000    0.8561656    -8.347594    464.09084  0.015830633   0.01567878         1199 
 2444000   0.84911355   -8.3836486    463.46412  0.015802786  0.015672725         1294 
 2445000   0.84890384   -8.3636871    463.67121  0.015803381  0.015666643         1253 
 2446000   0.86821233   -8.3771132     463.4361   0.01578891  0.015660558         1255 
 2447000   0.84410757   -8.3817473    463.75307  0.015793252   0.01565445         1311 
 2448000   0.84984901   -8.3556909    464.04946  0.015796891  0.015648318         1281 
 2449000   0.86670586   -8.4145259    462.97479  0.015753872  0.015642182         1405 
 2450000   0.85030386   -8.4239105    462.66904  0.015737042  0.015636018         1443 
 2451000   0.85978871   -8.4132341    463.71557  0.015766203  0.015629849         1439 
 2452000   0.86036488   -8.4228311    461.84171  0.015696089  0.015623635         1547 
 2453000   0.85848514   -8.3873408    462.81812   0.01572286   0.01561742         1610 
 2454000   0.87047514   -8.4533033    462.47588  0.015704832  0.015611207         1593 
 2455000   0.86550936   -8.4418953    462.33139   0.01569353  0.015604985         1628 
 2456000   0.86300237   -8.4673392    461.38124  0.015654901  0.015598739         1747 
 2457000     0.867026   -8.4461455    461.44887  0.015650823  0.015592465         1713 
 2458000   0.86049842    -8.474963    462.15576  0.015668421  0.015586166         1862 
 2459000   0.87455851   -8.4891399    460.49922  0.015605911  0.015579862         1904 
 2460000   0.86042016   -8.4965425    461.19502  0.015623138  0.015573517         1966 
 2461000   0.85025958   -8.5054403    460.56728  0.015595533   0.01556714         2048 
 2462000    0.8585279   -8.5424243    461.81085  0.015631291  0.015560754         2116 
 2463000   0.84188254   -8.5324616    461.16714  0.015603165  0.015554362         2144 
 2464000   0.86153197   -8.5464782    460.42108    0.0155716  0.015547936         2188 
 2465000   0.87067044   -8.5630406    460.19543  0.015557655  0.015541515         2174 
 2466000    0.8230007   -8.5493787     460.6533  0.015566819  0.015535064         2201 
 2467000   0.84934561   -8.5869456    459.45785  0.015520127  0.015528583         2261 
 2468000   0.86892302   -8.6264552    459.06794  0.015500673   0.01552211         2314 
 2469000   0.88415386   -8.5838051    459.20819  0.015499129  0.015515606         2367 
 2470000   0.84371674   -8.6431831    459.54781  0.015504312  0.015509087         2569 
 2471000   0.84566582   -8.6571418    458.86673  0.015475068  0.015502526         2564 
 2472000    0.8605406   -8.6593901    458.15029  0.015444656  0.015495962         2612 
 2473000    0.8375601   -8.6808132     458.0862  0.015436252  0.015489381         2720 
 2474000   0.84475031   -8.6786292      457.465  0.015409088  0.015482763         2703 
 2475000   0.84336642    -8.693535    457.63449  0.015408569  0.015476144         2808 
 2476000   0.85683216   -8.7122638      456.423  0.015361571  0.015469489         2851 
 2477000   0.83990861   -8.7191977    456.51377  0.015358423  0.015462789         2941 
 2478000   0.84337385   -8.7370029    457.16732  0.015374204  0.015456063         3028 
 2479000   0.85188577   -8.7812667    454.58254  0.015281113  0.015449309         3128 
 2480000   0.86561294   -8.7932716    455.19634  0.015295576  0.015442531         3198 
 2481000   0.85415499   -8.8207475    455.56323  0.015301734  0.015435717         3224 
 2482000   0.84522442   -8.8162607    455.01051  0.015277012  0.015428891         3267 
 2483000    0.8489503   -8.8362038    455.34321  0.015282025  0.015422015         3375 
 2484000    0.8377302   -8.8314408    453.90647  0.015227673  0.015415105         3396 
 2485000   0.86555445   -8.8551188    453.63863  0.015212563  0.015408191         3407 
 2486000   0.85927891   -8.8654845    453.56628  0.015204019  0.015401246         3512 
 2487000   0.85166074   -8.8845787    453.44419  0.015193814  0.015394278         3598 
 2488000   0.86899378   -8.8841939    453.79183  0.015199351  0.015387297         3619 
 2489000   0.86250741   -8.9042591    453.31755  0.015177365   0.01538031         3605 
 2490000   0.86610821   -8.9143359    452.97128  0.015159681   0.01537331         3611 
 2491000   0.83722991   -8.9102196    453.00955  0.015154876  0.015366288         3698 
 2492000   0.84789802   -8.9317834    452.81985  0.015142451  0.015359267         3734 
 2493000   0.86541232   -8.9360056    452.04439  0.015110456  0.015352251         3760 
 2494000   0.84102137   -8.9277878    452.49983  0.015119615  0.015345224         3719 
 2495000   0.84178348   -8.9357941    452.45205  0.015111959  0.015338198         3710 
 2496000   0.85362298   -8.9270916    452.10038  0.015094163   0.01533115         3727 
 2497000   0.85589218   -8.9519028    452.21173  0.015091834  0.015324086         3732 
 2498000   0.82006177   -8.9577895    451.08878  0.015048331  0.015317027         3756 
 2499000   0.85461074   -8.9510556    450.62549  0.015026861  0.015309961         3786 
 2500000   0.85228189   -8.9641701    451.12671  0.015037557  0.015302903         3805 
 2501000    0.8619258    -8.963033    452.36839  0.015072917  0.015295832         3805 
 2502000   0.85451606   -8.9237449    452.33976  0.015065939  0.015288757         3825 
 2503000   0.84765129   -8.9610945    451.89286  0.015045041  0.015281679         3780 
 2504000   0.83418273   -8.9468637    451.70019  0.015032621  0.015274606         3816 
 2505000   0.84354111   -8.9967651    450.28284  0.014979469   0.01526753         3817 
 2506000   0.84155247   -8.9556979    451.86763  0.015026192  0.015260458         3823 
 2507000   0.86100082   -9.0053533    450.97033  0.014990371  0.015253371         3830 
 2508000    0.8269977   -8.9456463    451.43264  0.014999756  0.015246292         3815 
 2509000   0.84910985   -9.0017571    450.92979  0.014977075  0.015239206         3844 
 2510000   0.83169643   -8.9758372    451.05906    0.0149754  0.015232129         3825 
 2511000   0.83666829   -8.9659966    451.69158  0.014990428  0.015225046         3844 
 2512000   0.85988413   -8.9813626    451.45164  0.014976501   0.01521795         3861 
 2513000   0.83839503   -8.9729395    450.74986   0.01494727  0.015210868         3863 
 2514000   0.84038153   -9.0102673    450.79416  0.014942792  0.015203778         3861 
 2515000   0.83960871   -8.9940126     451.3855  0.014956445  0.015196686         3875 
 2516000   0.87044699   -9.0092681    451.34432  0.014949136  0.015189609         3825 
 2517000   0.84168359   -9.0198094     449.8347  0.014893216  0.015182535         3842 
 2518000   0.83922322   -8.9849125    450.88004  0.014921897  0.015175448         3811 
 2519000   0.83136586   -8.9824048    450.78025  0.014912672  0.015168362         3802 
 2520000   0.83755444   -8.9752476    450.74868   0.01490571  0.015161274         3834 
 2521000   0.85928271   -8.9748588    451.04817  0.014909698  0.015154194         3810 
 2522000   0.86130031    -8.962786    451.46057  0.014917413  0.015147118         3841 
 2523000   0.84661234   -9.0026958    449.25109  0.014838522  0.015140035         3860 
 2524000   0.84702855   -8.9789458    450.92031  0.014887755  0.015132955         3833 
 2525000   0.85239017   -8.9841144    452.53512  0.014935153  0.015125877         3831 
 2526000    0.8324606   -9.0504738    449.93672  0.014843518  0.015118797         3824 
 2527000   0.86074853   -8.9787755    451.09996  0.014876005  0.015111704         3844 
 2528000   0.86063186   -8.9888345    450.92811  0.014864455  0.015104622         3851 
 2529000   0.83968149   -8.9814094    450.66378  0.014849868   0.01509753         3826 
 2530000   0.84089708   -9.0299697    450.24958  0.014830355  0.015090437         3838 
 2531000   0.87165139   -9.0185933    450.79766  0.014842541  0.015083348         3882 
 2532000   0.86000428   -9.0281381    450.89438  0.014839862  0.015076267         3866 
 2533000   0.84889293    -9.003848    450.53348  0.014822131  0.015069178         3817 
 2534000   0.85726325   -9.0389728    450.37814  0.014811173  0.015062103         3834 
 2535000   0.84992257   -9.0093404    450.19475  0.014799301   0.01505504         3852 
 2536000   0.85028132   -9.0517134    450.05513  0.014788878  0.015047972         3878 
 2537000   0.85492978   -8.9976833    450.59517  0.014800787  0.015040888         3835 
 2538000   0.84165151   -9.0138066    449.36028  0.014754409  0.015033808         3818 
 2539000   0.84230008   -9.0107013    451.05159  0.014804109  0.015026726         3835 
 2540000   0.85715899   -8.9993506    450.74014  0.014788062  0.015019644         3845 
 2541000   0.84896143   -9.0437108     448.7342  0.014716457  0.015012552         3818 
 2542000   0.83191344   -9.0453097    449.38038  0.014731851  0.015005464         3861 
 2543000   0.83264562   -9.0167309    451.97768   0.01481117  0.014998368         3857 
 2544000   0.84263161   -9.0038588      451.113  0.014777024  0.014991293         3815 
 2545000   0.83242777   -9.0328429    449.76561  0.014727099   0.01498421         3853 
 2546000   0.84044169   -9.0615784    449.39874  0.014709307  0.014977131         3840 
 2547000   0.84670828   -9.0474604    450.27339  0.014732149  0.014970054         3837 
 2548000   0.83714555   -9.0447162    450.59262  0.014736807  0.014962962         3837 
 2549000   0.81916363   -9.0560351    450.08163   0.01471432  0.014955867         3846 
 2550000   0.83708086   -9.0433688    450.45036    0.0147206  0.014948767         3843 
 2551000   0.84544837   -9.0595937    448.95971  0.014666134  0.014941661         3860 
 2552000   0.83086081   -9.0290195    449.34153  0.014672855  0.014934566         3824 
 2553000   0.82841983   -9.0259007    449.09505  0.014659063  0.014927487         3840 
 2554000   0.82707508   -9.0580256    449.98347  0.014682311  0.014920397         3848 
 2555000   0.83146543   -9.0341626     449.7526  0.014669035  0.014913318         3839 
 2556000   0.84516537   -9.0331849    449.95422  0.014669869  0.014906239         3840 
 2557000   0.84981681   -9.0425155    450.34084  0.014676732  0.014899166         3832 
 2558000   0.82957355   -9.0627437     449.3169  0.014637637   0.01489208         3872 
 2559000   0.83152908   -9.0225308    449.91652  0.014651443  0.014885001         3840 
 2560000   0.86126371   -9.0459114    450.99332  0.014680772   0.01487793         3834 
 2561000   0.84786348    -9.053558    449.34475  0.014621396  0.014870862         3864 
 2562000   0.83637014   -9.0725571    449.30025  0.014614242  0.014863794         3851 
 2563000   0.85221012    -9.033616    450.63635  0.014651982  0.014856732         3835 
 2564000   0.86033189   -9.0705429    450.05914  0.014627507  0.014849657         3870 
 2565000   0.84370645   -9.0670248     449.0739  0.014589795  0.014842589         3858 
 2566000   0.83082964   -9.0309458    449.66488  0.014603302  0.014835536         3852 
 2567000   0.83096188    -9.033301    449.52706  0.014593139  0.014828479         3844 
 2568000   0.83431325   -9.0597551    449.03114  0.014571363  0.014821418         3837 
 2569000   0.83082268   -9.0812478    449.57065  0.014583192  0.014814355         3865 
 2570000   0.83594508   -9.0424919    450.03062  0.014592433  0.014807286         3846 
 2571000   0.82125469   -9.0340272    449.93886  0.014583782  0.014800238         3841 
 2572000   0.84623956   -9.0562731     449.6562  0.014568954  0.014793181         3878 
 2573000   0.83358174   -9.0337869    448.97226  0.014541141  0.014786122         3843 
 2574000   0.82300822   -9.0598758    449.04688  0.014537907  0.014779087         3839 
 2575000   0.82871252   -9.0580274    449.71674   0.01455394  0.014772036         3856 
 2576000     0.853924   -9.0680025    449.68415  0.014547236     0.014765         3854 
 2577000   0.83800912   -9.0606625    450.32446  0.014562297  0.014757953         3884 
 2578000   0.85287184   -9.0712289    448.83537  0.014508513  0.014750902         3861 
 2579000   0.82757443   -9.0834247    449.50938  0.014524667  0.014743856         3875 
 2580000   0.83386526   -9.0536673    450.21205  0.014541733  0.014736814         3870 
 2581000    0.8332815   -9.0609782    449.98461  0.014528755  0.014729762         3876 
 2582000   0.83831511   -9.0659339     449.1747  0.014496989  0.014722716         3869 
 2583000   0.82911415   -9.0503924    448.55975  0.014471537   0.01471567         3863 
 2584000   0.83831498   -9.0773574    448.66938  0.014469472  0.014708633         3883 
 2585000   0.84090507   -9.0921971     448.2208  0.014449413  0.014701596         3871 
 2586000   0.84297417   -9.0938478    448.94009  0.014467005  0.014694564         3862 
 2587000   0.84087153   -9.0563276    449.68742  0.014485486  0.014687548         3846 
 2588000   0.82182188    -9.061802    449.38047  0.014470005  0.014680524         3879 
 2589000   0.83644083   -9.0510792    449.15109  0.014457033  0.014673494         3887 
 2590000    0.8419564    -9.085794    449.17622  0.014452259  0.014666471         3874 
 2591000     0.836078    -9.079517    448.78219  0.014434008   0.01465945         3898 
 2592000   0.84211914   -9.0777298    448.83479  0.014430131  0.014652418         3894 
 2593000   0.84767251   -9.0424847    449.19645  0.014436189  0.014645394         3869 
 2594000   0.81743149   -9.1086523    448.73948  0.014415943  0.014638371         3902 
 2595000   0.82950165   -9.0569956    447.59657  0.014373686  0.014631364         3867 
 2596000   0.85064211   -9.1006696    449.12657  0.014417263   0.01462435         3867 
 2597000   0.86004462   -9.0826572    448.75393  0.014399754  0.014617346         3869 
 2598000   0.82431633   -9.0714273     449.1741  0.014407689   0.01461034         3875 
 2599000   0.82863999   -9.0635382    449.30364  0.014406299  0.014603331         3875 
 2600000   0.82208482   -9.0812931    449.68616  0.014413018  0.014596327         3901 
 2601000   0.83373909   -9.1023941     449.2235  0.014392653  0.014589327         3873 
 2602000   0.83414974   -9.0581965    448.78918  0.014373212  0.014582325         3856 
 2603000   0.81949592   -9.0755552    448.83011  0.014369001  0.014575325         3897 
 2604000   0.83310525   -9.0924473    449.06301  0.014370936  0.014568325         3904 
 2605000   0.83998507   -9.1141656    448.02913  0.014332346  0.014561317         3870 
 2606000   0.83157994   -9.0934853    448.81832  0.014352082  0.014554312         3879 
 2607000   0.82242916   -9.1218779    449.08602  0.014355134  0.014547312         3872 
 2608000   0.85289661   -9.0905089    448.56509  0.014332985   0.01454031         3891 
 2609000   0.82473082   -9.1063167    448.57858  0.014327922  0.014533312         3900 
 2610000   0.83888047   -9.1024734    448.18976  0.014310018   0.01452631         3906 
 2611000   0.82356137   -9.0637442    447.73937  0.014290162  0.014519319         3878 
 2612000   0.83710226   -9.0674746    448.68069  0.014314723  0.014512329         3881 
 2613000   0.82434154   -9.0963326    448.50655  0.014303692  0.014505338         3895 
 2614000   0.83949641    -9.083678    449.00763  0.014314194  0.014498355         3881 
 2615000   0.82095056   -9.0472677    448.75158   0.01430056  0.014491375         3871 
 2616000   0.83164188   -9.0752805    449.75706  0.014327124  0.014484405         3875 
 2617000   0.84138153   -9.0829859    450.44095  0.014343426  0.014477436         3889 
 2618000   0.81908371   -9.1056868    448.98721  0.014291673   0.01447047         3880 
 2619000   0.83213877   -9.0985631    448.79244  0.014280019  0.014463505         3869 
 2620000   0.83597529   -9.0876795    449.19052   0.01428723  0.014456553         3885 
 2621000   0.84078922   -9.0750107    449.01087  0.014276067  0.014449594         3860 
 2622000   0.83675681   -9.0985835    447.87963  0.014234669  0.014442641         3890 
 2623000   0.83756898   -9.0963108    449.51569   0.01428122  0.014435694         3889 
 2624000   0.82430813   -9.0966167      448.693  0.014249651  0.014428753         3877 
 2625000   0.82675698    -9.112202    447.99888  0.014222187  0.014421812         3886 
 2626000   0.84152181   -9.1093019    449.31613  0.014258572   0.01441487         3890 
 2627000   0.84469729   -9.0828123    449.28288   0.01425209  0.014407927         3862 
 2628000   0.82157404   -9.0944676    448.95054  0.014236128  0.014400988         3865 
 2629000   0.83670672   -9.0554376    449.24528  0.014240056  0.014394055         3835 
 2630000   0.83244812   -9.1183577    448.75244  0.014219025  0.014387128         3861 
 2631000   0.82747068   -9.0833143    448.73567   0.01421309    0.0143802         3889 
 2632000   0.82680485   -9.1250114    447.63468   0.01417283  0.014373273         3845 
 2633000   0.83775955   -9.1172785    448.74066  0.014202452  0.014366342         3868 
 2634000   0.82693717   -9.0883423    448.73723  0.014196951  0.014359425         3843 
 2635000   0.83434491   -9.0917189    449.42144  0.014213202  0.014352512         3873 
 2636000   0.82034831   -9.1050194    449.09312   0.01419743  0.014345611         3901 
 2637000   0.83644498   -9.0608241    449.42287  0.014202467  0.014338714         3885 
 2638000   0.81741997   -9.0930356    448.96943  0.014182759  0.014331813         3873 
 2639000   0.83931166   -9.1071644    448.42007  0.014160038  0.014324916         3878 
 2640000    0.8420016   -9.1278763    448.59533  0.014160206  0.014318013         3894 
 2641000   0.84795004   -9.0822182    447.98738  0.014135661  0.014311115         3872 
 2642000   0.82810214   -9.1036427     448.4645   0.01414536  0.014304217         3885 
 2643000   0.82021028    -9.105045    448.10958  0.014128818  0.014297313         3888 
 2644000   0.82291423   -9.0887531    448.40436  0.014132765  0.014290422         3866 
 2645000   0.85401986   -9.1068642    449.11554  0.014149828  0.014283539         3872 
 2646000   0.83501327   -9.0979718    448.54839  0.014126619  0.014276659         3872 
 2647000   0.81967715   -9.1028183    448.47611  0.014119006   0.01426977         3859 
 2648000   0.84251873   -9.1246671    447.40482   0.01407996  0.014262881         3875 
 2649000   0.83023981   -9.0946239    449.28644  0.014133838     0.014256         3872 
 2650000   0.84342834   -9.0859841    449.50339  0.014135327  0.014249123         3863 
 2651000    0.8289039   -9.0964317    448.30156  0.014092216  0.014242249         3866 
 2652000    0.8333784   -9.0790099    448.85895  0.014104416  0.014235382         3889 
 2653000   0.84031549   -9.0913265    448.50841  0.014088089   0.01422851         3855 
 2654000   0.83853035   -9.0669342    448.15389   0.01407165  0.014221656         3878 
 2655000   0.81560158   -9.1188495    448.65257  0.014082002  0.014214791         3887 
 2656000   0.84368995   -9.0825353    449.63033  0.014107377  0.014207918         3886 
 2657000   0.82898544   -9.0804365      448.836  0.014077155  0.014201065         3876 
 2658000   0.82961613    -9.111408    448.63548  0.014065572  0.014194201         3881 
 2659000   0.82453025   -9.1155303    448.08414  0.014043003  0.014187347         3872 
 2660000   0.82772317   -9.1081687     448.2992  0.014044461   0.01418049         3866 
 2661000   0.81236354   -9.1069171     447.7161  0.014020923  0.014173637         3873 
 2662000   0.81700261   -9.0779257    449.58402   0.01407413   0.01416679         3909 
 2663000   0.81980302   -9.1173262     448.4059  0.014031978  0.014159947         3896 
 2664000   0.83577887    -9.124226    447.99197  0.014013763  0.014153109         3889 
 2665000   0.83259697   -9.0941307    447.52116  0.013993782  0.014146271         3861 
 2666000   0.83928861   -9.0918608    448.45031  0.014017576  0.014139428         3875 
 2667000   0.82032929   -9.1041482    449.16904  0.014034778  0.014132587         3883 
 2668000   0.81003994   -9.1033376    448.07302  0.013995284  0.014125762         3841 
 2669000    0.8173751   -9.1105843    448.39712   0.01400016  0.014118931         3867 
 2670000   0.84245741   -9.1018698    447.82376  0.013977021  0.014112112         3898 
 2671000   0.82806619   -9.0966536    448.69455  0.013998956  0.014105292         3864 
 2672000   0.82230443   -9.1201099    448.08562  0.013974726   0.01409847         3885 
 2673000   0.83310671   -9.1081117    448.77023  0.013990842  0.014091647         3898 
 2674000   0.83159217    -9.096032    448.28258  0.013970412  0.014084826         3904 
 2675000   0.81991229   -9.1070554    448.46739  0.013970947  0.014078001         3897 
 2676000   0.80787733   -9.1123865    448.09853  0.013954239  0.014071196         3889 
 2677000   0.81104063   -9.1145574    447.76964  0.013938788  0.014064392         3920 
 2678000   0.83179422   -9.0994663    448.14066  0.013945129  0.014057584         3894 
 2679000   0.83647668   -9.0966749    448.66779   0.01395632  0.014050781         3897 
 2680000   0.82973348   -9.0692771    448.54921  0.013947426  0.014043995         3865 
 2681000   0.81054162   -9.0994764    448.26525  0.013933397  0.014037197         3889 
 2682000   0.81457246   -9.1053805    448.17576  0.013925421  0.014030414         3890 
 2683000   0.81357929   -9.0915231    448.32752  0.013924945  0.014023622         3910 
 2684000   0.83827438   -9.1292492    448.13191  0.013913683  0.014016832         3902 
 2685000   0.82836652   -9.1020446    449.91864  0.013963955  0.014010057         3905 
 2686000   0.82217529   -9.1083241    448.51086   0.01391508  0.014003278         3910 
 2687000   0.82453459   -9.1196739    447.34159  0.013873638  0.013996499         3863 
 2688000   0.81002862   -9.1113513    448.27292   0.01389735  0.013989719         3905 
 2689000   0.81295239   -9.1069943    448.97943  0.013914077  0.013982947         3868 
 2690000   0.83070142   -9.1003292    447.87106  0.013874568  0.013976176         3885 
 2691000   0.81776855   -9.1252979    447.68717  0.013863718  0.013969409         3892 
 2692000   0.82499956   -9.1303261    447.98768   0.01386787  0.013962651         3895 
 2693000    0.8378444   -9.1309405    447.39758   0.01384446  0.013955888         3883 
 2694000   0.82284212   -9.1494694    448.07708   0.01386034  0.013949146         3913 
 2695000    0.8094226    -9.113125    447.92109  0.013850374  0.013942389         3915 
 2696000   0.81360534   -9.1329566    447.84161   0.01384278  0.013935635         3907 
 2697000   0.81022007   -9.1247348    448.40751  0.013855132  0.013928882         3913 
 2698000   0.81460398   -9.1271476    447.40931  0.013819166  0.013922144         3915 
 2699000   0.79823009   -9.1248317    447.61899   0.01382052  0.013915399         3893 
 2700000   0.81708354   -9.1037001    447.66028  0.013816675  0.013908656         3889 
 2701000   0.80307793   -9.1212658     446.6317  0.013779825  0.013901918         3899 
 2702000   0.83244693   -9.1197774    447.69292  0.013807455  0.013895189         3900 
 2703000   0.83574416   -9.1043201    448.57495   0.01382954  0.013888468         3890 
 2704000   0.82599355   -9.1159323    447.70874   0.01379773  0.013881755         3890 
 2705000   0.82295103   -9.1154765    447.93826    0.0137997  0.013875024         3896 
 2706000   0.81749713   -9.1110819     447.4388  0.013779219  0.013868294         3897 
 2707000   0.83323802   -9.1230187    447.72032  0.013782795  0.013861563         3881 
 2708000   0.81533544   -9.1008339    448.37182  0.013797754  0.013854841         3892 
 2709000   0.81833016   -9.1325414    448.49662    0.0137965  0.013848134         3901 
 2710000   0.81746016   -9.1554027    447.49011  0.013760459  0.013841416         3891 
 2711000   0.80441793   -9.1202856    447.54608  0.013757103  0.013834706         3893 
 2712000   0.79712054   -9.1193125    446.76537  0.013728041  0.013827995         3886 
 2713000   0.82403467   -9.1187434    447.54298  0.013746866  0.013821293         3891 
 2714000   0.82284967   -9.1075619    447.17976  0.013730648  0.013814594         3885 
 2715000   0.81772493   -9.1319369    447.55686  0.013737166  0.013807909         3884 
 2716000   0.83109519    -9.113932    447.41181  0.013727657  0.013801227         3890 
 2717000   0.81308173   -9.1542554    447.64072  0.013729626   0.01379453         3894 
 2718000   0.82006347   -9.1262224    447.63039  0.013724258  0.013787843         3887 
 2719000   0.83336781   -9.1241845    447.51001  0.013715521  0.013781156         3910 
 2720000    0.8151731   -9.0934396    448.79376  0.013749809  0.013774475         3896 
 2721000   0.81511011   -9.1469051    447.29843   0.01369896  0.013767798         3901 
 2722000   0.80022468   -9.1492375    447.45827   0.01369882  0.013761126         3909 
 2723000   0.80578527    -9.111246    448.30722  0.013719771  0.013754447         3888 
 2724000   0.80650288   -9.1489992    447.16619  0.013679827  0.013747776         3897 
 2725000   0.83538236   -9.1325215    448.02204   0.01370098   0.01374111         3886 
 2726000   0.79905865   -9.1060198    448.33541  0.013705533  0.013734449         3887 
 2727000   0.81145352   -9.1387338    447.06986  0.013661834  0.013727777         3890 
 2728000   0.79818922   -9.1184829      447.839  0.013680321  0.013721124         3897 
 2729000   0.81311472    -9.136413    447.62109  0.013668654   0.01371448         3898 
 2730000   0.79331283   -9.1252997    448.74902  0.013698077  0.013707842         3912 
 2731000   0.81666756   -9.1363053    447.37701  0.013651196  0.013701195         3895 
 2732000   0.80837104   -9.1073055      448.637  0.013684633  0.013694559         3898 
 2733000   0.81619205   -9.1365767    447.32746  0.013639696  0.013687915         3891 
 2734000   0.81883247   -9.0928181    448.65029  0.013675027  0.013681274         3886 
 2735000   0.82020544   -9.1160548    448.54379  0.013666782   0.01367465         3888 
 2736000   0.82591715   -9.1252342    448.55507  0.013662131  0.013668022         3871 
 2737000   0.79468816   -9.1382896    447.98398  0.013639751  0.013661394         3881 
 2738000   0.79808396   -9.1316786    447.31878  0.013614523  0.013654764         3907 
 2739000   0.83141771   -9.1297669    447.52804  0.013615919  0.013648146         3899 
 2740000   0.81088849    -9.157423    448.10807  0.013628591   0.01364153         3887 
 2741000   0.81685762   -9.1021121    448.87219   0.01364685  0.013634928         3892 
 2742000   0.80301798   -9.1269203    449.13347  0.013649814  0.013628324         3897 
 2743000   0.82770113   -9.1292088    448.14651  0.013614853  0.013621722         3911 
 2744000   0.81894235   -9.1467646    448.05236  0.013607032  0.013615123         3912 
 2745000   0.81716072   -9.1293331    448.80705  0.013624986  0.013608529         3895 
 2746000   0.83789705   -9.1205915    449.07652  0.013628202  0.013601949         3877 
 2747000   0.83206589   -9.1461765    448.18113  0.013596078  0.013595366         3889 
 2748000   0.81051191   -9.1441193    447.30386  0.013564527  0.013588784         3904 
 2749000   0.81409881    -9.158881     447.7627  0.013573503   0.01358221         3917 
 2750000   0.79206435   -9.1521516    446.94217  0.013543702  0.013575625         3915 
 2751000   0.82307618   -9.1312963    446.98966  0.013540217  0.013569049         3893 
 2752000   0.81878589   -9.1389108    447.01313  0.013536008  0.013562468         3910 
 2753000   0.81103075   -9.1562919    447.43988  0.013544009   0.01355589         3930 
 2754000   0.82221148   -9.1345506    447.03281  0.013526774  0.013549319         3909 
 2755000   0.81473439   -9.1356041     447.3991  0.013532943  0.013542745         3882 
 2756000   0.81144021   -9.1465904    448.07255  0.013548396  0.013536178         3903 
 2757000   0.80675136   -9.1767344    447.28341  0.013519629  0.013529611         3919 
 2758000   0.79475962    -9.155144    447.47618  0.013520552  0.013523047         3901 
 2759000   0.81118114   -9.1386179    448.28556  0.013540098  0.013516489         3895 
 2760000    0.8161033   -9.1469007    448.19979  0.013532602  0.013509937         3884 
 2761000   0.82291489   -9.1118406    447.95786  0.013520399   0.01350339         3889 
 2762000   0.79815286    -9.143325    447.52081  0.013502317  0.013496851         3895 
 2763000    0.7984219   -9.1229869    447.85031  0.013507368  0.013490304         3900 
 2764000   0.82750685   -9.1547678    446.91199  0.013474192  0.013483759         3919 
 2765000   0.80166387   -9.1463477    447.60412  0.013490178  0.013477222         3889 
 2766000    0.8125823   -9.1380549    446.95515  0.013465749   0.01347069         3918 
 2767000   0.79495999   -9.1734736    447.50875  0.013477555  0.013464158         3893 
 2768000   0.81368183   -9.1406952    447.66186  0.013477296  0.013457623         3920 
 2769000   0.80657738   -9.1640288      447.111  0.013455851  0.013451104         3892 
 2770000   0.81093176   -9.1220646    447.43589  0.013460767  0.013444581         3892 
 2771000   0.79235726   -9.1411235    447.09967  0.013445798   0.01343805         3900 
 2772000   0.80753444   -9.1390372    447.60735  0.013456209  0.013431546         3909 
 2773000   0.80384553   -9.1462814     448.0936  0.013465969  0.013425034         3905 
 2774000   0.82448049   -9.1611299    446.90236  0.013425329   0.01341853         3913 
 2775000   0.82496696   -9.1413989    447.87928  0.013449828  0.013412019         3906 
 2776000   0.82755232   -9.1266046    447.02042  0.013419201  0.013405508         3885 
 2777000   0.79783471      -9.1444    446.72913  0.013405627  0.013399011         3891 
 2778000   0.79404152    -9.125629    448.38546  0.013450488  0.013392523         3872 
 2779000   0.80217101   -9.1494794    447.94863  0.013432548   0.01338602         3901 
 2780000   0.82828034   -9.1268805     448.2487  0.013436712  0.013379535         3905 
 2781000   0.80248902   -9.1458911    448.01261  0.013424805  0.013373042         3907 
 2782000   0.79498813    -9.150984    448.09861  0.013422556  0.013366552         3910 
 2783000   0.80813088    -9.165408     446.6646  0.013374793  0.013360073         3911 
 2784000   0.80166529   -9.0996341    447.35329  0.013390604  0.013353595         3909 
 2785000   0.81025977   -9.1330799    447.07197  0.013377378  0.013347127         3918 
 2786000   0.79952815   -9.1549613    447.22578  0.013377177  0.013340652         3887 
 2787000   0.80161104   -9.1564475    446.82996  0.013360542  0.013334174         3917 
 2788000   0.79541148   -9.1631174    447.55172  0.013377323  0.013327696         3914 
 2789000    0.8095288   -9.1555825    446.81266  0.013350444  0.013321229         3912 
 2790000   0.80096994   -9.1515569    447.62859   0.01337003  0.013314757         3908 
 2791000   0.79216573   -9.1630769     447.0343  0.013347495  0.013308293         3908 
 2792000   0.81484956   -9.1441629    447.47489  0.013355865  0.013301835         3878 
 2793000   0.80559741   -9.1540289    447.65742  0.013356529   0.01329539         3898 
 2794000     0.809095   -9.1613315    446.01703  0.013302822  0.013288941         3929 
 2795000   0.80164876   -9.1575446    447.54568   0.01334364  0.013282489         3916 
 2796000   0.79991745   -9.1388648    448.02706  0.013353215  0.013276045         3883 
 2797000   0.79419031    -9.161973    447.74447  0.013340021  0.013269607         3911 
 2798000   0.78747431   -9.1545651    446.63344  0.013302163  0.013263171         3913 
 2799000   0.81080023   -9.1450745    447.87131  0.013334265  0.013256731         3891 
 2800000   0.80131983   -9.1430473    447.93611  0.013331432  0.013250294         3888 
 2801000   0.81333787   -9.1581063    447.12203  0.013302452  0.013243868         3905 
 2802000   0.80657652   -9.1137734     448.0685  0.013325854  0.013237435         3902 
 2803000   0.79886015   -9.1778891    446.71219  0.013280776  0.013231018         3886 
 2804000   0.80604369   -9.1677797    446.84783  0.013280071  0.013224587         3916 
 2805000   0.79438869   -9.1694292    447.12707  0.013283632   0.01321816         3906 
 2806000   0.79859608   -9.1597887    446.36989  0.013256412  0.013211737         3903 
 2807000   0.79183146   -9.1595038    447.23738  0.013277443  0.013205325         3904 
 2808000   0.79659901   -9.1450038    446.91306   0.01326309  0.013198915         3906 
 2809000   0.81145193   -9.1737142    447.70315  0.013281807  0.013192503         3912 
 2810000   0.80769228   -9.1447326    448.04109  0.013287102    0.0131861         3883 
 2811000   0.80623314   -9.1683406    446.72162  0.013243259    0.0131797         3899 
 2812000   0.79760375   -9.1437954    447.25569  0.013254377  0.013173298         3909 
 2813000   0.78792973   -9.1418638      446.532  0.013228226  0.013166902         3894 
 2814000   0.79791991   -9.1666145     446.7342  0.013229513  0.013160503         3893 
 2815000   0.80973612   -9.1424072     447.2703  0.013240684  0.013154113         3925 
 2816000   0.79273335   -9.1458994    448.19538  0.013263358  0.013147718         3904 
 2817000   0.80313204   -9.1814155     447.1674  0.013228239  0.013141326         3900 
 2818000   0.79693476   -9.1738827    447.20478   0.01322465  0.013134932         3921 
 2819000   0.79277548   -9.1555232    446.56503  0.013201047  0.013128542         3906 
 2820000   0.81071007   -9.1520581    447.32838  0.013218924  0.013122158         3934 
 2821000   0.81120543   -9.1657721    446.61645  0.013193207   0.01311577         3925 
 2822000   0.81620635   -9.1457978    446.65215  0.013189586  0.013109396         3912 
 2823000   0.80584762   -9.1395966    448.06403  0.013226592  0.013103026         3913 
 2824000   0.78526222   -9.1555937    446.45325  0.013174376  0.013096653         3920 
 2825000    0.7841586   -9.1839493    446.35627  0.013166852  0.013090279         3940 
 2826000   0.79885435   -9.1547256    446.69935  0.013172309  0.013083909         3940 
 2827000   0.80672715   -9.1516849    447.00737  0.013176729  0.013077546         3933 
 2828000   0.81617573   -9.1725027    447.83269   0.01319639   0.01307119         3915 
 2829000   0.82606674   -9.1754161    446.35201  0.013148109  0.013064831         3918 
 2830000   0.79736428   -9.1752472    445.98601  0.013132686  0.013058476         3942 
 2831000   0.79165027    -9.168919    447.50722  0.013172825  0.013052124         3938 
 2832000   0.80038023   -9.1708363    446.89871  0.013150268  0.013045773         3920 
 2833000   0.80440594   -9.1657445    446.18653  0.013124677  0.013039426         3927 
 2834000    0.7869514   -9.1760711    445.86445  0.013110575  0.013033076         3923 
 2835000    0.7905712    -9.178271    447.65265  0.013158514  0.013026731         3912 
 2836000   0.79805461   -9.1703025    446.28238   0.01311361    0.0130204         3923 
 2837000   0.78560242   -9.1989526    446.09001  0.013103337  0.013014061         3941 
 2838000   0.78577936    -9.189691    446.82829  0.013120398  0.013007735         3941 
 2839000   0.80588055    -9.169915    447.01912  0.013121379   0.01300141         3934 
 2840000   0.80893424   -9.1703822    446.08569  0.013089369  0.012995089         3931 
 2841000   0.80207394   -9.1747825    447.18236  0.013116929  0.012988768         3932 
 2842000    0.8049705    -9.176872    445.76353  0.013070711  0.012982449         3932 
 2843000   0.78942596    -9.171256    447.79744  0.013125731  0.012976134         3935 
 2844000   0.79048357   -9.1773405    446.48736  0.013082729  0.012969821         3931 
 2845000   0.79519683   -9.2228513      447.006  0.013093322  0.012963509         3944 
 2846000   0.81083819   -9.1870336    446.26903  0.013067142  0.012957198         3930 
 2847000   0.80716808   -9.1658494    446.86397  0.013079966  0.012950896         3945 
 2848000   0.79320577   -9.1381586    447.48478  0.013093539  0.012944596         3935 
 2849000    0.7954087   -9.2003132    446.40002  0.013057214  0.012938302         3931 
 2850000   0.80038327   -9.1736576    446.18232  0.013046267  0.012932007         3931 
 2851000   0.79395484   -9.2022315    446.61261  0.013054268  0.012925715         3935 
 2852000   0.78511218   -9.1799707    447.01083  0.013061326   0.01291943         3932 
 2853000   0.77825032   -9.1885308    445.99928  0.013027202  0.012913151         3927 
 2854000   0.80781698   -9.1392327    445.92344  0.013020423  0.012906872         3929 
 2855000   0.80688877   -9.1892964    447.05527  0.013048899  0.012900602         3939 
 2856000   0.78422505   -9.1785857    447.22856  0.013049386  0.012894323         3939 
 2857000    0.7887081   -9.1746083    447.26668  0.013045931  0.012888053         3936 
 2858000   0.78687041   -9.1654981     447.0836  0.013036027  0.012881783         3933 
 2859000   0.80022599   -9.1733723    446.51166  0.013014797  0.012875516         3932 
 2860000   0.80480863   -9.1947807    446.99995  0.013024474   0.01286926         3928 
 2861000   0.79899115   -9.1917845    446.89473  0.013016857  0.012863002         3944 
 2862000   0.81467797   -9.2035066    446.55953  0.013002549   0.01285676         3933 
 2863000   0.79875063   -9.1984217    445.74555  0.012974315  0.012850514         3953 
 2864000   0.79563126   -9.1779572    446.36195   0.01298772  0.012844269         3929 
 2865000   0.79332357    -9.194298    446.11226  0.012975924  0.012838017         3932 
 2866000   0.80237574   -9.1688209    446.21608  0.012974415  0.012831775         3928 
 2867000   0.79069489   -9.1961374    446.54332  0.012979401  0.012825539         3919 
 2868000   0.78357618   -9.2121087    445.22323  0.012936519   0.01281931         3927 
 2869000   0.79407454   -9.2013562    445.73257  0.012946804  0.012813083         3938 
 2870000   0.80690615   -9.1975149    445.89108  0.012946895  0.012806858         3950 
 2871000   0.80583511   -9.1523278    447.19879  0.012980343  0.012800636         3931 
 2872000   0.78418403   -9.1966973    446.39341  0.012952455  0.012794418         3943 
 2873000   0.80903598    -9.182803    446.81057  0.012960047  0.012788204         3913 
 2874000   0.79873343   -9.2225828    445.94015  0.012930299  0.012781993         3939 
 2875000   0.79444659   -9.1975823    446.40733  0.012939343  0.012775784         3946 
 2876000    0.7956452   -9.1765433     446.8792  0.012948516  0.012769583         3934 
 2877000   0.80406469   -9.1738261    446.78164   0.01294119  0.012763388         3930 
 2878000   0.78455088   -9.2114012    445.98593  0.012913653  0.012757192         3921 
 2879000   0.80653993   -9.1825243    446.80125  0.012932767  0.012751004         3935 
 2880000    0.7952568   -9.1945565    446.20006  0.012910881  0.012744812         3928 
 2881000   0.78447821   -9.2102267    446.30264  0.012909367  0.012738631         3922 
 2882000   0.79525731   -9.1565324    446.62413  0.012914184  0.012732454         3901 
 2883000   0.78114668   -9.1754546    446.55546  0.012907719  0.012726272         3935 
 2884000   0.78019093   -9.1872878    445.80591  0.012881585  0.012720091         3929 
 2885000   0.78580548   -9.1856635    446.42967  0.012895138  0.012713924         3933 
 2886000   0.77804164   -9.1948413    445.84504  0.012873788  0.012707753         3933 
 2887000   0.77257713   -9.1865918    446.35823  0.012884142  0.012701588         3912 
 2888000   0.77140901   -9.2036169    446.53693  0.012884837  0.012695426         3924 
 2889000   0.79296964   -9.1671704    447.19375  0.012899324  0.012689269         3906 
 2890000   0.79028509     -9.18026    446.42606  0.012872724  0.012683113         3936 
 2891000    0.8017032   -9.1769925    446.37191   0.01286671  0.012676955         3918 
 2892000   0.78249284   -9.1655662    445.27384   0.01283062  0.012670804         3908 
 2893000   0.79434972    -9.206269    446.66061  0.012866131  0.012664661         3923 
 2894000   0.77443136   -9.1899766    446.43683  0.012855242  0.012658516         3933 
 2895000   0.78903935    -9.180373    446.44443   0.01285102  0.012652378         3926 
 2896000   0.79305793   -9.1984988    446.40351  0.012845405  0.012646239         3941 
 2897000   0.79300788   -9.1993594     447.1358  0.012862036  0.012640104         3906 
 2898000   0.79362975   -9.1710902    446.47513  0.012838599  0.012633966         3908 
 2899000   0.79811647    -9.195498    447.03429  0.012850244  0.012627844         3906 
 2900000   0.78741986   -9.1983753    446.83815  0.012840177  0.012621722         3924 
 2901000   0.78689472   -9.2021292    446.59152  0.012828666  0.012615604         3926 
 2902000   0.79000869    -9.186877    446.05612  0.012808871  0.012609482         3914 
 2903000   0.76387014   -9.1727017    446.13468  0.012806714  0.012603369         3903 
 2904000   0.79302647   -9.1786752    446.65227  0.012817156  0.012597256         3903 
 2905000   0.79792149   -9.1974924    446.68481  0.012813678  0.012591152         3933 
 2906000   0.77496386    -9.182103    446.52775  0.012804765  0.012585049         3926 
 2907000   0.76820872   -9.1800772     446.1797  0.012790382  0.012578952         3905 
 2908000   0.76614383   -9.1859069     446.6554  0.012799616  0.012572851         3922 
 2909000   0.78309933   -9.2149543    446.46791  0.012789845  0.012566754         3931 
 2910000   0.79546194   -9.2051403     446.4029  0.012783588  0.012560661         3922 
 2911000   0.79697795   -9.1961041    446.89669  0.012793332  0.012554567         3920 
 2912000   0.78067827   -9.2138244    446.42907  0.012775557  0.012548478         3913 
 2913000   0.76349511   -9.2020839    446.26274  0.012766413  0.012542399         3904 
 2914000   0.78707485   -9.1776585    445.69592  0.012745823  0.012536313         3925 
 2915000   0.78311792   -9.1820852    446.43479  0.012762573  0.012530244         3924 
 2916000   0.76221472   -9.1964726    446.16843  0.012750584  0.012524173         3907 
 2917000   0.79452058   -9.1972798    445.84953  0.012737102  0.012518107         3911 
 2918000   0.79812097   -9.2099163    445.77329   0.01273056  0.012512048         3908 
 2919000   0.78456659   -9.1996244    447.29293  0.012769582  0.012505984         3924 
 2920000   0.79289916   -9.1782784    446.44758  0.012741084  0.012499932         3947 
 2921000   0.78569154   -9.2092082    445.95421  0.012722647  0.012493876         3921 
 2922000   0.77485502   -9.1932082    445.94867  0.012718135  0.012487826         3926 
 2923000    0.7885753   -9.2178797    446.50338  0.012729598  0.012481778         3938 
 2924000   0.78290264   -9.1834987    446.77963  0.012733118  0.012475734         3942 
 2925000   0.78358235   -9.1876312     445.5224  0.012692946  0.012469693         3937 
 2926000   0.79485776   -9.2095236     445.6881  0.012693327  0.012463647         3923 
 2927000    0.7711776   -9.1981277    445.85975  0.012693878  0.012457613         3923 
 2928000    0.7762552   -9.1895007     446.6735  0.012712702  0.012451578         3931 
 2929000   0.78264183   -9.2108082    446.28738  0.012697376  0.012445539         3925 
 2930000   0.78348026   -9.2014514    445.71089  0.012676646  0.012439505         3912 
 2931000   0.77849507   -9.1706024     446.4948  0.012694609  0.012433486         3914 
 2932000   0.78988035   -9.2129556    446.22192  0.012682524  0.012427462         3922 
 2933000   0.78670468   -9.2099371     445.7753   0.01266551  0.012421451         3912 
 2934000    0.7811224   -9.1834586    446.65028  0.012686045  0.012415434         3873 
 2935000   0.79136494   -9.1967191    446.23842  0.012670029  0.012409431         3915 
 2936000   0.80107726   -9.2037418     445.9872  0.012658583  0.012403428         3921 
 2937000   0.77435015   -9.1956743    446.47006  0.012667974  0.012397437         3926 
 2938000   0.77587963   -9.1937661    446.56212  0.012666273  0.012391441         3924 
 2939000   0.78822316    -9.210674    446.68509   0.01266545   0.01238544         3893 
 2940000   0.78169795   -9.1830838    446.80255  0.012664471  0.012379446         3912 
 2941000   0.77887315   -9.2135336    445.78656  0.012631377  0.012373455         3920 
 2942000   0.78901141   -9.1997603    446.78253  0.012655295  0.012367465         3930 
 2943000   0.80140875   -9.2172132    446.49284  0.012642792  0.012361478         3918 
 2944000    0.7958822   -9.2064762    446.89041  0.012649751  0.012355492         3915 
 2945000   0.77825173   -9.2028302    446.61102   0.01263755  0.012349513         3906 
 2946000   0.79308663   -9.1950725      445.809  0.012610574  0.012343543         3921 
 2947000   0.77439819   -9.2343725    446.68762   0.01263114  0.012337571         3925 
 2948000   0.79516614   -9.2055135     445.6927  0.012598731  0.012331601         3931 
 2949000   0.78404685   -9.2138302    445.42191  0.012586806  0.012325635         3942 
 2950000   0.78172138   -9.1852618    447.06242  0.012628882  0.012319671         3914 
 2951000   0.78248942   -9.2108365    446.74753   0.01261571  0.012313708         3933 
 2952000   0.79712933   -9.2339897    445.60369  0.012579147  0.012307751         3942 
 2953000   0.79787744   -9.2103342    445.69405  0.012577437  0.012301797         3940 
 2954000   0.77614352   -9.2252397    446.29554  0.012590147  0.012295837         3929 
 2955000   0.77848668   -9.2209042    447.12151   0.01260918  0.012289886         3930 
 2956000   0.76858274   -9.2043833    445.50056  0.012559217  0.012283934         3939 
 2957000   0.78193542   -9.2255661    445.62267  0.012558411  0.012277986         3927 
 2958000   0.78575575   -9.1898836    445.51566  0.012551151  0.012272047         3943 
 2959000   0.76556526    -9.234522    445.49987  0.012546465  0.012266106         3936 
 2960000   0.77857528   -9.2074519    445.48904  0.012541921  0.012260165         3937 
 2961000   0.77727143   -9.2078954    445.17709  0.012528906   0.01225423         3914 
 2962000   0.75628722   -9.2035898    445.22766  0.012526099  0.012248304         3932 
 2963000   0.77479365   -9.2266597    445.92351  0.012541442  0.012242378         3942 
 2964000   0.77453596   -9.2238996    445.96883  0.012538485  0.012236447         3958 
 2965000   0.76589321   -9.2158304     446.0124  0.012535481  0.012230521         3930 
 2966000   0.78411948   -9.1982176    445.83237  0.012526196  0.012224596         3941 
 2967000   0.78593481   -9.2120054    445.38783  0.012509488  0.012218675         3925 
 2968000   0.77531798   -9.2174688    445.13626   0.01249821  0.012212755         3943 
 2969000   0.78352556   -9.2275149    445.74424  0.012511066  0.012206841         3911 
 2970000   0.77571964     -9.23463    445.17619  0.012490914  0.012200929         3921 
 2971000   0.79210497   -9.2121921    445.71881   0.01250193  0.012195032         3937 
 2972000   0.77167607   -9.2270918    445.69985  0.012497192  0.012189131         3943 
 2973000   0.78372597   -9.2269262    444.42749  0.012457324  0.012183239         3948 
 2974000   0.77412529   -9.2134139    445.91614  0.012494848  0.012177356         3924 
 2975000   0.77082188   -9.2071591    446.88109  0.012517678   0.01217147         3898 
 2976000   0.78091702   -9.2219672    445.13959  0.012464706  0.012165588         3937 
 2977000   0.77617002   -9.2199329    444.98136   0.01245609  0.012159706         3912 
 2978000   0.75652029   -9.2306695     446.6819  0.012499493  0.012153817         3916 
 2979000   0.77027154   -9.2146549    446.18019  0.012481263  0.012147941         3936 
 2980000   0.76514198   -9.2493669     445.2175  0.012450154  0.012142066         3916 
 2981000   0.76972146   -9.2069036    446.03571   0.01246885  0.012136189         3935 
 2982000   0.78611382   -9.2409089    445.37521  0.012446211  0.012130316         3940 
 2983000   0.76610457   -9.2201451    444.69078  0.012422918   0.01212445         3929 
 2984000   0.77250643   -9.2372067    445.07121  0.012429379   0.01211858         3942 
 2985000   0.77877808   -9.2274036    445.45603  0.012435959  0.012112721         3901 
 2986000   0.76082435   -9.2221652    445.31288  0.012427799   0.01210687         3929 
 2987000   0.78271555    -9.213313    446.35538  0.012452722  0.012101018         3909 
 2988000   0.75376523   -9.2387195    445.97633  0.012437983  0.012095168         3929 
 2989000   0.78530406   -9.2144859    446.09451  0.012437117  0.012089318         3938 
 2990000   0.77142419   -9.2279938    445.48267  0.012415905  0.012083477         3943 
 2991000   0.76575074   -9.2141034    445.69422  0.012417648  0.012077639         3917 
 2992000   0.77498689   -9.2253875    444.84049  0.012389719  0.012071798         3927 
 2993000   0.80902955   -9.2152189    446.38119  0.012428477  0.012065961         3923 
 2994000   0.77165825   -9.2246265    446.00436  0.012413838  0.012060128         3928 
 2995000   0.77956414   -9.2719461    445.55438  0.012397172  0.012054302         3903 
 2996000   0.78511414   -9.2237702     445.7397  0.012398189  0.012048473         3926 
 2997000   0.77920831   -9.2370985    444.65735  0.012363957  0.012042645         3942 
 2998000   0.77505525   -9.2379093    445.12999  0.012372971  0.012036829         3926 
 2999000   0.76745906   -9.2411246    445.07446  0.012367302   0.01203102         3937 
 3000000   0.77673695     -9.23366    445.72239  0.012381177  0.012025207         3933 
 3001000   0.77597265   -9.2256911    445.42047  0.012368668  0.012019392         3936 
 3002000   0.75009458   -9.2625661    445.52529  0.012367457  0.012013591         3935 
 3003000   0.78305972   -9.2290625     446.4356    0.0123886  0.012007783         3919 
 3004000   0.77900937   -9.2224187    446.32158  0.012381313   0.01200199         3940 
 3005000   0.77516722   -9.2154377    445.37993   0.01235108  0.011996196         3933 
 3006000   0.76730451    -9.250409    445.50088  0.012350324   0.01199041         3925 
 3007000   0.76743958   -9.2114678    444.84324  0.012327991  0.011984626         3938 
 3008000   0.75051462   -9.2174721     445.7784    0.0123498   0.01197884         3928 
 3009000    0.7691547   -9.2277287    446.17719  0.012356741   0.01197307         3936 
 3010000   0.76018938    -9.222533    446.74113  0.012368248  0.011967305         3947 
 3011000   0.78348775   -9.2351673    445.05588  0.012317499  0.011961531         3941 
 3012000   0.76761944   -9.2314275    445.52054  0.012326266  0.011955758         3941 
 3013000   0.76394725   -9.2455571    445.58656  0.012324001  0.011949997         3929 
 3014000   0.77384012   -9.2532873    444.84999  0.012299546  0.011944232         3935 
 3015000   0.77088465   -9.2293151    445.55913  0.012315067  0.011938464         3931 
 3016000   0.77250769   -9.2474522    445.27782  0.012303211  0.011932712         3948 
 3017000   0.77782108   -9.2394433    444.60867   0.01228065  0.011926957         3924 
 3018000   0.77276434   -9.2226925    445.85981  0.012311128  0.011921208         3932 
 3019000   0.76415783   -9.2321637    445.28948  0.012291307  0.011915461         3927 
 3020000   0.77887808   -9.2504909    445.46277  0.012292019  0.011909716         3926 
 3021000   0.78290056   -9.2362656    444.84849  0.012271006  0.011903977         3931 
 3022000   0.75556874   -9.2323876    445.53972  0.012286006  0.011898235         3946 
 3023000   0.76798614   -9.2328635     445.0276  0.012267824  0.011892501         3913 
 3024000   0.77007676   -9.2259298    445.26533  0.012270319  0.011886769         3912 
 3025000    0.7648918   -9.2283157    445.84348   0.01228219  0.011881041         3931 
 3026000   0.75301422   -9.2273331    445.55703  0.012270242  0.011875318         3936 
 3027000   0.74841429   -9.2274694    445.48968  0.012264334    0.0118696         3934 
 3028000   0.75763786   -9.2422398    445.21771  0.012252799  0.011863883         3932 
 3029000   0.75957123    -9.243888    446.14244  0.012274195  0.011858172         3922 
 3030000   0.76938341   -9.2437403    444.97592  0.012238062  0.011852464         3930 
 3031000   0.76701785   -9.2342177    444.27875  0.012214856  0.011846764         3928 
 3032000   0.76428632   -9.2320967    445.39921  0.012241623  0.011841055         3922 
 3033000   0.75347848   -9.2383752    445.22435  0.012232782   0.01183536         3929 
 3034000   0.75319088   -9.2363444    444.54976  0.012210222  0.011829659         3949 
 3035000   0.76608916   -9.2270741    446.05227  0.012247454  0.011823966         3920 
 3036000   0.78105034   -9.2260205    445.83655  0.012237499  0.011818274         3920 
 3037000   0.75434657   -9.2572348    445.46554  0.012223289  0.011812588         3935 
 3038000   0.76828126   -9.2586031    445.48057  0.012219678  0.011806912         3937 
 3039000    0.7629218   -9.2471688    445.13322  0.012206132  0.011801234         3922 
 3040000   0.76591454   -9.2410224    445.40986    0.0122097  0.011795559         3929 
 3041000   0.78675067   -9.2312281    445.36669  0.012204502  0.011789884         3936 
 3042000    0.7622608   -9.2614594     445.9177  0.012215585  0.011784211         3916 
 3043000    0.7668483   -9.2527668    445.97334  0.012213094  0.011778544         3949 
 3044000   0.78279626   -9.2294742     445.4772  0.012195499  0.011772875         3945 
 3045000   0.77508498   -9.2501901    445.56154  0.012193802  0.011767207         3929 
 3046000   0.76471697   -9.2155916    444.81287  0.012169317  0.011761546         3931 
 3047000   0.75889055   -9.2347113    445.59552  0.012186728  0.011755883         3929 
 3048000   0.77226135   -9.2686265    445.19591  0.012171804  0.011750234         3946 
 3049000   0.74698132    -9.235123    445.36899  0.012172543  0.011744581         3931 
 3050000    0.7497926   -9.2486385     445.5611    0.0121738  0.011738936         3939 
 3051000   0.77033049   -9.2523304    444.33828  0.012136411  0.011733293         3935 
 3052000   0.77628224    -9.223756    445.21295  0.012156317  0.011727651         3932 
 3053000   0.74539476   -9.2390195    445.41267  0.012157787  0.011722014         3940 
 3054000   0.75467986   -9.2265878    445.35505  0.012152233  0.011716376         3933 
 3055000   0.76076855   -9.2409326    444.69678    0.0121303  0.011710743         3943 
 3056000   0.77082763   -9.2390373    446.17958  0.012166764  0.011705119         3925 
 3057000   0.77029269   -9.2577653    444.80452    0.0121253   0.01169949         3942 
 3058000   0.76160782   -9.2669215    444.21307  0.012105218  0.011693865         3943 
 3059000   0.76944494   -9.2286181    445.99503  0.012149805  0.011688249         3927 
 3060000   0.76352442    -9.238411    444.51511  0.012105531  0.011682635         3942 
 3061000   0.77479552   -9.2365861    445.24513  0.012121451  0.011677013         3925 
 3062000   0.75190556    -9.275847    444.33264  0.012092658  0.011671401         3937 
 3063000   0.76738056   -9.2312664    445.45321  0.012119197  0.011665793         3932 
 3064000   0.76603983   -9.2553345    445.40337  0.012113886  0.011660191         3930 
 3065000   0.76539338   -9.2341418    445.53908  0.012113624  0.011654584         3917 
 3066000   0.76441066   -9.2544845    444.95879  0.012093901  0.011648985         3940 
 3067000   0.75847549   -9.2503693    445.13174  0.012094656  0.011643385         3940 
 3068000   0.74768333   -9.2426904    444.96599  0.012086212  0.011637793         3936 
 3069000   0.76158768   -9.2471102    445.75856  0.012103795  0.011632207         3926 
 3070000   0.75732774   -9.2296798    445.08666  0.012081614  0.011626617         3935 
 3071000   0.76669776   -9.2617305     444.9909  0.012075081  0.011621035         3920 
 3072000   0.78046926   -9.2908939    443.78894  0.012038545  0.011615455         3939 
 3073000   0.75788233   -9.2518393    445.11722  0.012070648  0.011609877         3930 
 3074000   0.77009822   -9.2500538     444.7444  0.012056615  0.011604299         3932 
 3075000   0.76269574   -9.2571535    445.16683  0.012064142  0.011598728         3923 
 3076000    0.7558579   -9.2526674    445.48263  0.012068775  0.011593158         3938 
 3077000   0.75819798   -9.2513187    445.55281  0.012066754  0.011587589         3932 
 3078000   0.76740516   -9.2412669    444.82951  0.012043251  0.011582029         3918 
 3079000   0.74979471   -9.2515361    445.23306  0.012050261  0.011576472         3947 
 3080000   0.75677493    -9.246238    444.90311  0.012037422  0.011570916         3950 
 3081000   0.75583299   -9.2729177     445.2066  0.012041724  0.011565361         3954 
 3082000   0.75722838   -9.2526019    444.90269  0.012029599  0.011559808         3951 
 3083000   0.76305937   -9.2725308    444.33389  0.012010322  0.011554259         3942 
 3084000   0.76006075   -9.2544825    443.47376  0.011983186  0.011548714         3944 
 3085000   0.76195462   -9.2410205    445.72578  0.012040134  0.011543171         3948 
 3086000   0.75056116   -9.2468537    446.06086  0.012045281  0.011537639         3949 
 3087000   0.76154519   -9.2348423    445.60096  0.012028964   0.01153211         3915 
 3088000   0.75246692   -9.2629807    444.77305  0.012002727  0.011526581         3947 
 3089000   0.76398472   -9.2830074    444.84458  0.012000771  0.011521054         3930 
 3090000   0.76387937    -9.245522    445.58559  0.012016871  0.011515535         3914 
 3091000    0.7470114   -9.2497305    445.51754  0.012011149  0.011510008         3949 
 3092000   0.76110662   -9.2487052    444.93141  0.011991467  0.011504493         3919 
 3093000   0.74940462   -9.2377935    445.38701  0.011999865  0.011498974         3946 
 3094000    0.7527948   -9.2436921    445.52722  0.011999763  0.011493455         3929 
 3095000   0.74845898   -9.2444767    445.56261  0.011996839  0.011487948         3923 
 3096000   0.75568642   -9.2505965    445.45176  0.011989981  0.011482437         3932 
 3097000   0.77622871   -9.2808048    444.33847  0.011956153  0.011476935         3954 
 3098000    0.7539339   -9.2516403    443.46716  0.011928856  0.011471436         3941 
 3099000   0.76332732   -9.2701176    444.15248  0.011943435  0.011465949         3943 
 3100000   0.76608723   -9.2412107    444.56096  0.011950563  0.011460451         3909 
 3101000   0.74607226   -9.2570424    444.17702  0.011936392  0.011454962         3941 
 3102000   0.76630444   -9.2710659    445.66065  0.011972401  0.011449482         3941 
 3103000   0.74034846   -9.2621187    444.40059  0.011934703  0.011443999         3938 
 3104000   0.73763498   -9.2651888      445.005  0.011947085  0.011438518         3945 
 3105000   0.75080606   -9.2791398    444.47182  0.011928927  0.011433044         3937 
 3106000   0.76717948   -9.2647983    445.37043  0.011949196  0.011427568         3949 
 3107000   0.76568369   -9.2673034    444.35984  0.011918245  0.011422101         3939 
 3108000   0.77575507   -9.2620642    445.08004   0.01193372  0.011416641         3939 
 3109000   0.77608856    -9.259011    444.57328  0.011916299  0.011411181         3940 
 3110000   0.76684741   -9.2729053    445.11815  0.011927067  0.011405729         3929 
 3111000   0.75468691   -9.2585255    445.27119  0.011927333  0.011400274         3940 
 3112000   0.74282898   -9.2555231    445.26957  0.011923457  0.011394823         3912 
 3113000   0.75076388   -9.2536419    444.67447  0.011903696  0.011389377         3927 
 3114000   0.76331378   -9.2441585    445.40693  0.011919475  0.011383931         3913 
 3115000    0.7415883   -9.2624151    444.78715  0.011899068  0.011378486         3929 
 3116000   0.76327302   -9.2468306    445.51389  0.011914685  0.011373046         3923 
 3117000   0.72937877     -9.28409      444.623  0.011887044  0.011367608         3936 
 3118000   0.76722087    -9.267458    444.09206  0.011869042   0.01136217         3932 
 3119000   0.74519976   -9.2562397     444.6888   0.01188118  0.011356737         3916 
 3120000   0.73816457   -9.2551429    445.58951  0.011901429  0.011351308         3919 
 3121000    0.7359531   -9.2266353    445.48065  0.011894709  0.011345886         3923 
 3122000   0.75613051   -9.2405738    445.25563  0.011884893  0.011340466         3943 
 3123000   0.74826956    -9.262673    445.29285  0.011882081  0.011335044         3935 
 3124000   0.76598246   -9.2828829    444.93648  0.011868771  0.011329625         3942 
 3125000   0.74908566   -9.2644742       444.45     0.011852  0.011324211         3944 
 3126000    0.7467584    -9.266492    444.50667  0.011849719  0.011318802         3942 
 3127000   0.74631886   -9.2472233    445.30535  0.011867214  0.011313397         3913 
 3128000   0.74951257   -9.2500747    445.39796  0.011865888  0.011307992         3955 
 3129000   0.74839823   -9.2565703     444.5631  0.011839861  0.011302589         3936 
 3130000   0.75727201   -9.2614741     444.1752  0.011825751  0.011297189         3948 
 3131000   0.76109819   -9.2715621    445.50537  0.011857377   0.01129179         3933 
 3132000   0.76304801   -9.2495916    445.93661  0.011865065  0.011286399         3940 
 3133000    0.7610262   -9.2186863    444.66402  0.011827429   0.01128101         3933 
 3134000   0.74950344   -9.2607412    444.75603  0.011826102  0.011275628         3936 
 3135000   0.75648188   -9.2695329    444.11869  0.011805388  0.011270243         3939 
 3136000   0.75620369   -9.2512031    445.03274  0.011825913   0.01126486         3930 
 3137000   0.74051292    -9.273577     445.2367  0.011827561  0.011259488         3933 
 3138000   0.76258541    -9.267118    444.50925  0.011804473  0.011254112         3942 
 3139000   0.75210229   -9.2554397    444.70445  0.011805895  0.011248738         3930 
 3140000   0.76782795   -9.2672081    444.65157  0.011800732  0.011243367         3926 
 3141000   0.74584632   -9.2529936    445.57552  0.011821488  0.011238004         3950 
 3142000   0.74600487   -9.2494217    444.42672  0.011787257  0.011232636         3940 
 3143000   0.74307119   -9.2658805    444.64153  0.011789202  0.011227275         3926 
 3144000   0.74831826   -9.2476661    445.40831  0.011805776  0.011221924         3940 
 3145000   0.75384812    -9.257638    445.24065  0.011797579  0.011216573         3928 
 3146000   0.74770081   -9.2897668    444.58602  0.011776489   0.01121122         3934 
 3147000   0.74843519   -9.2817681    444.22767  0.011763258  0.011205871         3939 
 3148000    0.7499052   -9.2639718     444.9884  0.011779659  0.011200526         3957 
 3149000   0.72624735   -9.2405994    445.23502  0.011782445   0.01119518         3925 
 3150000   0.73914486   -9.2757595    445.21653  0.011778215  0.011189837         3931 
 3151000    0.7629984   -9.2528644    444.61349  0.011758529    0.0111845         3934 
 3152000   0.74532757    -9.307657     444.1398  0.011742275  0.011179164         3942 
 3153000   0.74958926   -9.2728118    443.76053  0.011728527  0.011173829         3935 
 3154000   0.76639433    -9.292414    444.80651  0.011752444  0.011168502         3921 
 3155000    0.7403198   -9.2728134    445.07912   0.01175592  0.011163184         3921 
 3156000   0.75432684   -9.2564335    444.40632   0.01173443  0.011157866         3936 
 3157000   0.74995706   -9.2506284    445.72779  0.011765595   0.01115255         3939 
 3158000   0.74103149   -9.2556567    444.82894   0.01173815  0.011147229         3929 
 3159000   0.74886244   -9.2815124    444.13227  0.011716056  0.011141917         3930 
 3160000   0.73382053   -9.2947157     444.6896  0.011727046  0.011136608         3936 
 3161000   0.74978102   -9.2935434    444.48619  0.011717974  0.011131306         3943 
 3162000   0.75000183   -9.2614222    445.58713  0.011743283  0.011126004         3915 
 3163000   0.74680854   -9.2823722    444.41503   0.01170869  0.011120709         3929 
 3164000   0.74055468    -9.274325     444.1002  0.011696697  0.011115421         3929 
 3165000   0.76299939   -9.2662666    443.95335  0.011689135  0.011110131         3938 
 3166000   0.74447403   -9.2788403    444.83127  0.011708551  0.011104843         3936 
 3167000   0.74129461   -9.2812364    444.58092  0.011698266  0.011099556         3943 
 3168000   0.74502514   -9.2910994    444.24263  0.011685675  0.011094269         3938 
 3169000   0.75288024   -9.2518914    445.42651  0.011713119  0.011088997         3936 
 3170000   0.75521761   -9.2826101    443.99441  0.011671777  0.011083724         3933 
 3171000   0.74688005    -9.283884    444.31793  0.011676599  0.011078455         3943 
 3172000   0.73882232   -9.2876486    444.26555  0.011671541  0.011073179         3939 
 3173000   0.74111312   -9.3016522     444.0417  0.011661984  0.011067913         3927 
 3174000   0.74993623   -9.2720625    443.71479  0.011649727  0.011062647         3906 
 3175000   0.75706242   -9.2662385    444.84964  0.011675844  0.011057388         3939 
 3176000   0.74256123   -9.2940721    444.78863  0.011670566  0.011052127         3938 
 3177000   0.75960673   -9.2799257    444.77663  0.011666578  0.011046873         3934 
 3178000   0.72514182   -9.2889798    444.48783  0.011655334  0.011041622         3950 
 3179000   0.72843111   -9.3067273    444.61663  0.011655044   0.01103637         3932 
 3180000   0.74183112   -9.2912879    443.84965   0.01163128   0.01103112         3950 
 3181000   0.74294579   -9.2988846    444.73394   0.01165079  0.011025878         3939 
 3182000   0.75855928   -9.2821855    444.05407  0.011629323  0.011020639         3957 
 3183000   0.74809362   -9.2693053    444.71714  0.011643029  0.011015401         3927 
 3184000   0.74220318   -9.2801135    444.34151  0.011629541  0.011010167         3925 
 3185000   0.74183582   -9.2780564    445.16554   0.01164745  0.011004941         3947 
 3186000   0.74290937   -9.2628392    443.63908  0.011603868  0.010999716         3943 
 3187000    0.7384496    -9.262345     445.2714  0.011642909  0.010994487         3927 
 3188000   0.74934496   -9.2807688    444.41984  0.011616997  0.010989264         3947 
 3189000   0.73164362   -9.2831516    444.80649  0.011623458   0.01098405         3944 
 3190000   0.73310322   -9.2743921    444.25209  0.011605332  0.010978833         3944 
 3191000   0.75001385    -9.295428    443.66516  0.011586367   0.01097362         3940 
 3192000   0.73921844   -9.2642126     444.4799  0.011604007   0.01096841         3946 
 3193000   0.76099829   -9.2963429    443.80665  0.011582802  0.010963202         3936 
 3194000   0.72707076   -9.2967533    443.60225  0.011573843  0.010957998         3942 
 3195000   0.74602364    -9.281575    444.47397  0.011592957  0.010952801         3941 
 3196000   0.75559298    -9.273074    444.04673   0.01157819  0.010947604         3920 
 3197000   0.74365779   -9.2846834    443.56874  0.011562109  0.010942401         3940 
 3198000   0.72923625    -9.267816    445.16322  0.011600042  0.010937204         3912 
 3199000   0.74238447   -9.2762673    444.17379  0.011570642  0.010932014         3937 
 3200000   0.73691752   -9.2824907    443.91161  0.011560198  0.010926828         3944 
 3201000    0.7227597   -9.2950277    443.93434  0.011557178  0.010921641         3935 
 3202000   0.73394002   -9.2896304    444.37036  0.011564917  0.010916453         3938 
 3203000   0.74845068   -9.2858965    444.18974  0.011556607  0.010911278         3941 
 3204000   0.72246425   -9.2770162    444.39988  0.011558466  0.010906103         3928 
 3205000   0.72521722   -9.3035629    444.04736  0.011545693  0.010900929         3950 
 3206000   0.73611785   -9.2850241    444.07083  0.011542702  0.010895762         3922 
 3207000   0.74430726   -9.2941601    443.82687  0.011532764  0.010890596         3952 
 3208000   0.74368529   -9.2795027    444.98072  0.011559142  0.010885431         3920 
 3209000   0.72768213   -9.2839651    444.62395  0.011546275  0.010880271         3915 
 3210000   0.73920149   -9.2900534    444.25568  0.011533117  0.010875114         3941 
 3211000   0.73447199   -9.2904068    444.74296  0.011542172  0.010869962         3935 
 3212000   0.73774105   -9.3071012    443.57075  0.011508166  0.010864811         3941 
 3213000   0.75982775   -9.2904175    443.90033  0.011513132  0.010859664         3945 
 3214000    0.7417847   -9.2973278    444.55624  0.011526557  0.010854513         3949 
 3215000   0.73181677   -9.2707282    443.40789  0.011493206  0.010849374         3948 
 3216000   0.75078145   -9.3016324    442.93024  0.011477255  0.010844231         3938 
 3217000   0.73355651   -9.2838345    444.07263   0.01150328  0.010839092         3924 
 3218000   0.72527272    -9.292798    444.14164  0.011501493  0.010833958         3938 
 3219000   0.72960708   -9.3014069    443.48217  0.011480847  0.010828823         3954 
 3220000   0.73638864   -9.2997946    443.56584  0.011479447   0.01082369         3938 
 3221000   0.73717129    -9.305198    443.29026  0.011468754   0.01081856         3953 
 3222000   0.72424692   -9.3024162    443.96889  0.011482746  0.010813436         3943 
 3223000   0.74583612   -9.2971183    444.33242  0.011488583  0.010808318         3941 
 3224000   0.73756638   -9.3009744    444.24875  0.011482856    0.0108032         3943 
 3225000   0.73107693   -9.2881024    444.79791  0.011493486  0.010798083         3943 
 3226000   0.73434901   -9.3063996    444.23404  0.011475358  0.010792971         3949 
 3227000   0.73893203   -9.3066251    444.11102  0.011468625  0.010787857         3963 
 3228000   0.73988687   -9.2927501     444.1378  0.011465763  0.010782749         3951 
 3229000   0.73872611   -9.2905907     444.2414  0.011464886  0.010777644         3950 
 3230000   0.74395615   -9.3088575    444.27152  0.011462113  0.010772541         3947 
 3231000   0.74366704   -9.2727707    445.11248  0.011480256  0.010767444         3958 
 3232000   0.73369066   -9.3157547    444.34802  0.011456993  0.010762353         3951 
 3233000   0.74168121   -9.3004194    443.24439  0.011425002  0.010757266         3934 
 3234000   0.73240346   -9.2914272    443.23332  0.011421184  0.010752177         3930 
 3235000   0.74651122   -9.2901055    443.43916  0.011422956  0.010747093         3948 
 3236000    0.7303929   -9.3121203    443.56649  0.011422705  0.010742012         3931 
 3237000   0.70944868   -9.3059422      445.107  0.011458835  0.010736935         3938 
 3238000   0.72073648   -9.2721866    444.34456  0.011435674  0.010731857         3936 
 3239000   0.74368437   -9.2614457     444.7921  0.011443658  0.010726785         3938 
 3240000   0.72802396   -9.3156026    443.23233  0.011400009   0.01072171         3942 
 3241000    0.7284954   -9.2963286     444.2196  0.011421876  0.010716647         3928 
 3242000   0.71271766    -9.295811    443.96952  0.011411925   0.01071158         3938 
 3243000   0.72936016   -9.3357581    443.36779  0.011392944  0.010706512         3954 
 3244000   0.74214503   -9.2978768    443.89864  0.011403068  0.010701454         3933 
 3245000   0.73802691   -9.3089246    443.48362  0.011388896    0.0106964         3940 
 3246000   0.72551877   -9.3023595     442.7108  0.011365547  0.010691343         3958 
 3247000   0.72426326   -9.2881859    444.11648  0.011398123   0.01068629         3942 
 3248000   0.74775714   -9.3106536    444.70089  0.011409608  0.010681243         3947 
 3249000   0.74231243   -9.2946596    443.71447  0.011380796  0.010676195         3948 
 3250000   0.72653837   -9.2935974    444.04877  0.011385866  0.010671157         3922 
 3251000   0.72002483   -9.2934236    444.30338   0.01138889  0.010666123         3938 
 3252000   0.73553513   -9.3026596    444.40762  0.011388059  0.010661088         3936 
 3253000   0.72895378   -9.2956789    444.26343  0.011380865  0.010656055         3934 
 3254000   0.74266502   -9.3046961    444.34227  0.011379386  0.010651028         3948 
 3255000   0.74368437   -9.2813078    444.75377  0.011386425  0.010646004         3926 
 3256000   0.74172313   -9.2848368    443.67137  0.011355225  0.010640985         3948 
 3257000   0.72539358    -9.279389    443.89614   0.01135749  0.010635963         3930 
 3258000   0.72038294   -9.3185153    443.70608  0.011349143  0.010630945         3954 
 3259000   0.72688678   -9.3152052    444.20047  0.011358302  0.010625931         3936 
 3260000   0.73379842   -9.3062457    444.00344  0.011349781  0.010620918         3931 
 3261000   0.73397018   -9.3021158    444.18299  0.011350889  0.010615914         3947 
 3262000    0.7254945   -9.3273959    444.12983  0.011346051  0.010610907         3924 
 3263000   0.75546682   -9.3397356    442.79773  0.011308554  0.010605905         3954 
 3264000   0.73099806   -9.2980296     444.0364  0.011336714  0.010600906         3926 
 3265000   0.73427305   -9.2895573    444.27368  0.011339298  0.010595912         3940 
 3266000   0.71756058   -9.2905219    444.10759  0.011331588  0.010590915         3957 
 3267000   0.73921176   -9.2774274    443.79894  0.011320246  0.010585929         3937 
 3268000   0.73960188    -9.305617    443.39232  0.011306414  0.010580945         3936 
 3269000   0.72477131   -9.2940181    443.43879   0.01130414   0.01057596         3938 
 3270000   0.72094728   -9.2647416    444.77022  0.011334613  0.010570978         3929 
 3271000   0.73422486   -9.3091211    444.73408  0.011330227  0.010566005         3945 
 3272000   0.72370364   -9.3320266    443.96018  0.011307054   0.01056103         3940 
 3273000   0.72085692   -9.3073486    444.16395  0.011308788  0.010556052         3951 
 3274000   0.72758347   -9.3184997    443.40017  0.011285893  0.010551085         3941 
 3275000   0.72693075   -9.3058377    443.10121   0.01127484  0.010546121         3930 
 3276000   0.72985881   -9.2917809    444.02379  0.011294866   0.01054116         3935 
 3277000   0.71342361   -9.3159458    444.32928  0.011299188  0.010536195         3952 
 3278000   0.73360559    -9.286734    443.32758  0.011270276  0.010531234         3947 
 3279000   0.73910148    -9.308994    443.37342  0.011268004  0.010526277         3949 
 3280000   0.71641145   -9.3079736    443.61603  0.011270732  0.010521317         3937 
 3281000   0.72783303   -9.3004103    443.54111  0.011265394  0.010516367         3954 
 3282000   0.73177003   -9.2969384    443.83271  0.011269366   0.01051142         3937 
 3283000   0.72693421   -9.3152649    443.83487  0.011265988  0.010506478         3941 
 3284000   0.72416545   -9.3271962    443.54778  0.011255272   0.01050154         3958 
 3285000   0.73444447   -9.3411765    442.72594  0.011230998  0.010496602         3946 
 3286000   0.72910585   -9.3309153    442.91302  0.011232325  0.010491663         3948 
 3287000   0.72726597   -9.2917721    444.97819  0.011281264   0.01048673         3943 
 3288000   0.73135778   -9.3015363    444.64284  0.011269334  0.010481801         3937 
 3289000   0.70887736   -9.3350956    443.66404  0.011241108  0.010476872         3949 
 3290000    0.7262377   -9.3258281    443.28682  0.011228136  0.010471948         3945 
 3291000    0.7239563   -9.3201304    443.66599  0.011234326  0.010467023         3932 
 3292000   0.71598983   -9.3185876    443.89042  0.011236594  0.010462105         3958 
 3293000   0.71937073   -9.3122045    443.48355  0.011222886  0.010457195         3930 
 3294000   0.73325275    -9.301636     444.1946  0.011237467  0.010452289         3929 
 3295000   0.72276122   -9.3024029    444.00502  0.011229262  0.010447378         3938 
 3296000   0.73960543   -9.3226145     444.0674  0.011227432  0.010442469         3934 
 3297000   0.72786562   -9.3247107     443.3094  0.011204868  0.010437565         3947 
 3298000   0.71679363   -9.3280634    443.38608  0.011203408   0.01043267         3924 
 3299000   0.72993967   -9.3157295    442.94889  0.011188969  0.010427771         3951 
 3300000   0.71777155   -9.3046561     443.2561  0.011193336  0.010422876         3928 
 3301000   0.71318828     -9.29819    443.77636  0.011203079  0.010417986         3937 
 3302000   0.71575686   -9.3189183    443.58889  0.011194955  0.010413099         3944 
 3303000   0.72508969   -9.3355012    443.32428   0.01118489  0.010408215         3934 
 3304000   0.72787941   -9.3166167    443.40433  0.011183523  0.010403331         3922 
 3305000   0.72487123   -9.3123125    443.86792  0.011191829  0.010398451         3945 
 3306000    0.7335871   -9.3272408    443.29245  0.011173938  0.010393581         3938 
 3307000   0.72097092   -9.3072424    444.41321  0.011198801  0.010388712         3929 
 3308000   0.73362417   -9.3078104    444.39017  0.011194835  0.010383844         3939 
 3309000   0.72430043    -9.318249    444.01309  0.011181955  0.010378976         3927 
 3310000   0.73710056    -9.305792     443.7538  0.011172049   0.01037411         3956 
 3311000   0.72098534   -9.3090437    443.38747  0.011159455  0.010369253         3938 
 3312000   0.71607415   -9.2611287    444.25405   0.01117789  0.010364398         3928 
 3313000   0.73943047   -9.3076534    444.54626  0.011181866  0.010359548         3947 
 3314000   0.72558127   -9.3187201    443.53534  0.011153071  0.010354696         3931 
 3315000   0.73129975   -9.3194149    443.50152  0.011148857  0.010349846         3950 
 3316000   0.71588795   -9.3348143    443.65839  0.011149437  0.010344998         3934 
 3317000   0.71748062   -9.3256806    443.11229  0.011132356  0.010340153         3942 
 3318000   0.72427899   -9.3364025    443.92737  0.011149472  0.010335313         3937 
 3319000   0.71542882   -9.3296589    443.64036  0.011138906  0.010330474         3952 
 3320000   0.72094899   -9.3172135    443.50938  0.011132264  0.010325636         3948 
 3321000   0.71865536   -9.3030523    444.62097  0.011156804  0.010320808         3927 
 3322000   0.70859251   -9.3266178    443.45996  0.011124322  0.010315981         3934 
 3323000   0.72426381   -9.3387233    443.63796  0.011125438  0.010311157         3946 
 3324000   0.70843995   -9.3130632    444.04601  0.011132321  0.010306334         3947 
 3325000   0.72195088   -9.2994904    444.30657  0.011135503  0.010301512         3936 
 3326000   0.72026088    -9.329734     443.7974  0.011119398  0.010296696         3941 
 3327000   0.71852209   -9.3286687    443.76819  0.011115324  0.010291878         3918 
 3328000   0.73206381   -9.3043843     443.3736  0.011102103  0.010287073         3954 
 3329000    0.7074977   -9.3585788    442.59765  0.011079344  0.010282257         3936 
 3330000   0.72164102   -9.3155835    444.13965  0.011114606  0.010277445         3911 
 3331000   0.70725176   -9.3172223     443.2644  0.011089372  0.010272643         3955 
 3332000   0.71852811   -9.3264912    443.92735  0.011102625  0.010267839         3940 
 3333000   0.72335144   -9.3330673     442.2226  0.011056671   0.01026304         3946 
 3334000   0.74172922   -9.3276386    443.49687  0.011085205  0.010258246         3942 
 3335000   0.71923889     -9.34514    442.55549  0.011058358   0.01025345         3958 
 3336000   0.71631371   -9.3069454    442.78186  0.011060698  0.010248664         3956 
 3337000   0.73424631   -9.3460596    443.78181  0.011082355  0.010243875         3950 
 3338000   0.70756194   -9.3172545    443.02486  0.011060137  0.010239086         3930 
 3339000   0.72063747   -9.3194283    443.63954  0.011072166  0.010234304         3951 
 3340000   0.72348754   -9.3012786    443.38253  0.011062438  0.010229524         3954 
 3341000   0.71097887   -9.3298612    444.05674  0.011075944  0.010224748         3937 
 3342000   0.71543226   -9.3262749    442.96487  0.011045404  0.010219971         3956 
 3343000   0.71449584   -9.3273397    442.85619   0.01103939  0.010215199         3961 
 3344000    0.7197288   -9.3373735    442.98396  0.011039273  0.010210433         3953 
 3345000   0.72049162   -9.3280927    443.30948  0.011044083  0.010205665         3951 
 3346000   0.71405466   -9.3432283    442.68178  0.011025149  0.010200905         3934 
 3347000   0.70918651   -9.3457692    442.96892  0.011029004  0.010196144         3942 
 3348000   0.71474827   -9.3380772    443.55803  0.011040373  0.010191391         3949 
 3349000    0.7274621   -9.3288095    443.17034   0.01102743  0.010186635         3948 
 3350000   0.73436169   -9.3130569    444.27828  0.011051699  0.010181891         3944 
 3351000   0.71386144   -9.3356749     443.5313  0.011029824   0.01017715         3951 
 3352000   0.71970973   -9.3238604    443.80833  0.011033421  0.010172401         3943 
 3353000   0.71100846   -9.3110943    442.95965  0.011009038  0.010167658         3946 
 3354000     0.718684   -9.3304661    443.08266  0.011008812   0.01016292         3943 
 3355000   0.69706467   -9.3273192     442.9946  0.011003343  0.010158181         3950 
 3356000   0.71468048   -9.3349584    442.74029   0.01099375  0.010153449         3939 
 3357000   0.71453543   -9.3322408    443.39438  0.011006712   0.01014872         3947 
 3358000   0.71512305   -9.3308798    443.65507  0.011009903  0.010143992         3952 
 3359000   0.71037851   -9.3467488    442.63995  0.010981442  0.010139264         3921 
 3360000   0.72130384    -9.340255    442.96909  0.010986337  0.010134539         3934 
 3361000   0.71964981   -9.3135828     443.3355  0.010992153  0.010129821         3933 
 3362000    0.7042456   -9.3497257     443.2432  0.010986595  0.010125103         3942 
 3363000   0.72594354   -9.3258902    443.60772  0.010992361  0.010120383         3948 
 3364000   0.71998632   -9.3287488    442.71149  0.010966892  0.010115674         3940 
 3365000   0.71982923   -9.3458098    443.55179  0.010984443  0.010110964         3947 
 3366000   0.71299307   -9.3281226     443.6142  0.010982724  0.010106254         3938 
 3367000   0.69739997   -9.3355889    442.70278  0.010956905  0.010101552         3940 
 3368000   0.70889807   -9.3237892    443.52649  0.010974032  0.010096846         3927 
 3369000   0.70143122   -9.3406868    443.09641  0.010960137   0.01009215         3938 
 3370000    0.7006508   -9.3263435    443.81938  0.010974762   0.01008746         3940 
 3371000   0.71000027   -9.3485122    442.90356  0.010948867  0.010082763         3938 
 3372000   0.71826384   -9.3212479    443.78551  0.010967416  0.010078069         3940 
 3373000   0.70876673   -9.3771778    442.34573  0.010928593  0.010073377         3947 
 3374000   0.71317615   -9.3316417    443.32755  0.010949604  0.010068688         3949 
 3375000   0.71358673   -9.3464991    442.97131  0.010937563  0.010064005         3933 
 3376000   0.69707473   -9.3288154    443.01585  0.010935423  0.010059323         3936 
 3377000   0.70529149   -9.3453087    443.51225  0.010944434  0.010054644         3936 
 3378000   0.70972665    -9.322029    442.57566  0.010918089  0.010049964         3929 
 3379000   0.71410268    -9.348559    442.79713   0.01092032  0.010045288         3951 
 3380000   0.70807801   -9.3491524    442.82716  0.010917829  0.010040619         3930 
 3381000   0.70877272    -9.303616    442.59077  0.010908774  0.010035955         3939 
 3382000   0.71463582   -9.3384758    443.26474  0.010922155   0.01003129         3933 
 3383000   0.72038546   -9.3423803    442.88498  0.010909572  0.010026628         3934 
 3384000   0.71262661   -9.3273843    443.33366  0.010917397  0.010021974         3915 
 3385000   0.70798051   -9.3256024    443.90279  0.010928183  0.010017326         3923 
 3386000   0.70061997   -9.3241963     443.6635  0.010919066   0.01001267         3939 
 3387000   0.70788866    -9.356796    442.96455  0.010898645  0.010008017         3934 
 3388000   0.71361059   -9.3327935    443.69853  0.010913482  0.010003368         3939 
 3389000   0.71746867   -9.3473804    443.55425  0.010906714 0.0099987194         3943 
 3390000   0.70295169   -9.3450238    442.70434  0.010882604 0.0099940785         3943 
 3391000   0.71482299   -9.3334784    443.89608  0.010908682 0.0099894434         3949 
 3392000   0.70906845   -9.3376698    443.35848  0.010892258 0.0099848099         3947 
 3393000   0.70878881   -9.3212168    444.42014  0.010915123 0.0099801805         3933 
 3394000   0.70414413    -9.352382    443.25025  0.010883182 0.0099755505         3941 
 3395000   0.69628899   -9.3174172    443.29502  0.010881076 0.0099709251         3934 
 3396000   0.69876918   -9.3348994    443.61972  0.010885839 0.0099663037         3946 
 3397000   0.69606151   -9.3616865    442.95539  0.010866338 0.0099616797         3954 
 3398000   0.71284258    -9.356125    443.07433  0.010866057 0.0099570584         3937 
 3399000   0.70226938   -9.3315757    444.25521  0.010891812 0.0099524419         3941 
 3400000   0.69185335   -9.3503628    443.08787  0.010859997 0.0099478282         3943 
 3401000   0.70505649   -9.3546152    442.65734  0.010846255 0.0099432215         3936 
 3402000   0.70542756   -9.3395352    443.24181  0.010857383 0.0099386182         3946 
 3403000    0.7195021   -9.3129893    443.44441  0.010859154  0.009934016         3936 
 3404000   0.71015427   -9.3373627    442.78807  0.010839896 0.0099294161         3941 
 3405000   0.70620383   -9.3403252    443.14957   0.01084556 0.0099248175         3937 
 3406000   0.71724886   -9.3558097    442.90707  0.010836442   0.00992022         3931 
 3407000   0.69407882    -9.363131    442.91037  0.010833342 0.0099156258         3925 
 3408000   0.69887776   -9.3482545     442.8988  0.010829881 0.0099110357         3935 
 3409000   0.71056669   -9.3562206    442.80085  0.010824309   0.00990645         3937 
 3410000   0.70737803   -9.3242154    442.54512  0.010814886 0.0099018698         3938 
 3411000   0.71282639   -9.3597387    442.98518  0.010822466 0.0098972946         3949 
 3412000   0.70571617   -9.3699598    443.35126  0.010828235 0.0098927156         3956 
 3413000   0.70079391   -9.3485363    442.55546  0.010805632 0.0098881356         3952 
 3414000   0.70715016   -9.3426254    442.87053  0.010810157 0.0098835554         3943 
 3415000   0.70608695   -9.3589381    442.89895  0.010807685 0.0098789782         3932 
 3416000   0.70851989   -9.3505515    442.91046  0.010804803 0.0098744079         3932 
 3417000   0.69453337   -9.3735967    442.49482  0.010791504 0.0098698397         3940 
 3418000   0.71419012    -9.349282    442.64829  0.010792088 0.0098652771         3942 
 3419000   0.71497001   -9.3395334    443.31552  0.010805194 0.0098607183         3943 
 3420000   0.70698177    -9.339615    442.42776  0.010780404 0.0098561574         3947 
 3421000     0.705733   -9.3469301     443.6183  0.010806253 0.0098516004         3950 
 3422000   0.70847408   -9.3525821    442.64153  0.010779309 0.0098470478         3952 
 3423000   0.71620225   -9.3477588    442.69127   0.01077737 0.0098424992         3944 
 3424000   0.69242084   -9.3623092    443.73279  0.010799571 0.0098379537         3954 
 3425000   0.69639288   -9.3733068    442.17636  0.010758549 0.0098334116         3951 
 3426000   0.70558296   -9.3639004    442.95308  0.010774301 0.0098288736         3960 
 3427000   0.70247873   -9.3450283     443.1156  0.010775109 0.0098243355         3951 
 3428000   0.68949465   -9.3394597    443.99556  0.010793358 0.0098198038         3954 
 3429000   0.68848603   -9.3326736    443.13611  0.010769323 0.0098152756         3938 
 3430000   0.70370262   -9.3524801    442.49494  0.010750606 0.0098107476         3947 
 3431000    0.7073686   -9.3128931    443.93147  0.010782363 0.0098062226         3947 
 3432000   0.70820767   -9.3520257    443.26009   0.01076292 0.0098016939         3947 
 3433000   0.70684794   -9.3617173    443.18601  0.010757987  0.009797171         3954 
 3434000   0.69583237   -9.3459766    442.46895  0.010737453 0.0097926538         3945 
 3435000   0.69770835   -9.3433732    443.34835  0.010755661 0.0097881311         3955 
 3436000   0.70500661   -9.3632791    443.38532  0.010753427  0.009783612         3938 
 3437000   0.70148573   -9.3598627     443.0221  0.010741492 0.0097790941         3962 
 3438000   0.70142104    -9.350631    443.33233  0.010745887 0.0097745849         3922 
 3439000   0.71051459   -9.3380181    441.84753  0.010706783  0.009770079         3964 
 3440000    0.7115824   -9.3531232    443.08517  0.010733652  0.009765574         3948 
 3441000   0.70888336   -9.3793416    442.89221   0.01072586 0.0097610725         3939 
 3442000   0.69342307   -9.3450161    443.14276   0.01072881 0.0097565776         3946 
 3443000    0.7018265   -9.3317419    443.00769  0.010722424 0.0097520828         3934 
 3444000   0.69956946   -9.3582168    442.60721  0.010709621 0.0097475907         3945 
 3445000   0.70015411   -9.3412492    443.61254  0.010730831 0.0097431018         3935 
 3446000   0.70463021   -9.3422387    443.90699  0.010734837 0.0097386139         3959 
 3447000   0.69194277   -9.3606513    442.79264  0.010704783 0.0097341292         3945 
 3448000   0.69605835   -9.3429164    442.39619  0.010692097 0.0097296485         3936 
 3449000   0.68414583   -9.3492558     444.0456  0.010728849 0.0097251642         3949 
 3450000   0.69098114   -9.3575756    442.81041  0.010695904 0.0097206905         3943 
 3451000   0.69048189   -9.3269675    443.45606  0.010708395 0.0097162157         3961 
 3452000    0.6963119   -9.3708411    443.00665  0.010694444 0.0097117482         3942 
 3453000   0.69564158   -9.3445355    442.69357  0.010683791 0.0097072812         3958 
 3454000    0.6917771   -9.3654984    442.07778  0.010665841 0.0097028155         3944 
 3455000   0.70045867   -9.3457084    443.17553  0.010689231  0.009698355         3954 
 3456000   0.70228629   -9.3509234    443.11259  0.010684621 0.0096938885         3953 
 3457000   0.70175334   -9.3686324    442.84873  0.010675169 0.0096894265         3931 
 3458000   0.70094969   -9.3651443    442.36482  0.010660421 0.0096849733         3944 
 3459000   0.70178161   -9.3566886    443.53335  0.010685491 0.0096805229         3939 
 3460000    0.7020574   -9.3580491    442.66438  0.010661474 0.0096760701         3960 
 3461000   0.70323277   -9.3388948    442.85643  0.010663017 0.0096716199         3941 
 3462000   0.68901887    -9.362849     442.3776  0.010648411 0.0096671779         3953 
 3463000    0.7058938   -9.3495836    442.43664  0.010646757  0.009662733         3942 
 3464000   0.70727937   -9.3575246    443.05577  0.010658578 0.0096582919         3957 
 3465000   0.70991077   -9.3586981    443.08322  0.010656162 0.0096538526         3935 
 3466000   0.69660559   -9.3584331    442.67676  0.010643315 0.0096494179         3953 
 3467000   0.69224121   -9.3713113    442.83853  0.010644134 0.0096449854         3946 
 3468000   0.69015376   -9.3786863     442.9701  0.010644226 0.0096405569         3960 
 3469000   0.69281745   -9.3876265    442.69117  0.010634457 0.0096361272         3955 
 3470000   0.70131361   -9.3625264    442.96069  0.010637865 0.0096317053         3948 
 3471000   0.68076376    -9.366838    442.73552  0.010629394 0.0096272779         3945 
 3472000   0.69978103   -9.3666543    442.13497  0.010611918 0.0096228573         3944 
 3473000    0.7115457   -9.3682974    442.42772  0.010615887 0.0096184416         3957 
 3474000   0.71558967   -9.3756722    442.09004  0.010604731 0.0096140266         3959 
 3475000   0.69382544   -9.3674503    442.64352  0.010614953 0.0096096138         3951 
 3476000    0.6991376   -9.3757213    443.10436  0.010622947 0.0096052063         3926 
 3477000   0.69327464   -9.3494317    443.32464  0.010625171 0.0096008002         3944 
 3478000   0.68807045    -9.356789    442.59613  0.010604661 0.0095963927         3962 
 3479000   0.69382542   -9.3551594    442.97808  0.010610762 0.0095919884         3956 
 3480000   0.70440494   -9.3538427    443.33238  0.010616197 0.0095875882         3953 
 3481000   0.68662685   -9.3452916    443.03969   0.01060614 0.0095831899         3947 
 3482000   0.70937287    -9.347008    443.71658  0.010619294 0.0095787988         3960 
 3483000   0.69163277   -9.3837384    442.86109  0.010595777 0.0095744106         3955 
 3484000   0.69354696   -9.3751856     443.0276  0.010596718 0.0095700221         3949 
 3485000   0.70594153   -9.3581311    443.61194   0.01060765 0.0095656376         3957 
 3486000   0.70080922   -9.3806361    442.14736  0.010569596 0.0095612555         3926 
 3487000   0.70113803   -9.3647631     442.4114  0.010572875 0.0095568729         3949 
 3488000     0.711521   -9.3498856    441.72372  0.010553414 0.0095524963         3932 
 3489000   0.70292209   -9.3734089    442.54003  0.010569887 0.0095481212         3944 
 3490000   0.68742794    -9.365505    442.24855  0.010559898 0.0095437478         3948 
 3491000   0.68754669   -9.3376993    443.28608  0.010581641 0.0095393833         3935 
 3492000     0.683537   -9.3690461    442.75353  0.010565901  0.009535016         3953 
 3493000   0.68346988   -9.3797167     442.8486  0.010565144 0.0095306482         3958 
 3494000   0.68748786   -9.3565934     442.9409  0.010564322 0.0095262829         3961 
 3495000   0.68547644    -9.365104     443.3121   0.01057015 0.0095219224         3955 
 3496000   0.68517312   -9.3687983    442.01407  0.010536186 0.0095175627         3952 
 3497000   0.69211762   -9.3584042    442.96065   0.01055573 0.0095132063         3952 
 3498000   0.69246836   -9.3563519    443.31604  0.010561179 0.0095088503         3949 
 3499000   0.67482357    -9.371088    442.29925  0.010533944 0.0095044979         3956 
 3500000   0.68525798   -9.3907486    442.33281  0.010531734 0.0095001456         3950 
 3501000   0.70109637   -9.3840262    442.65287  0.010536344 0.0094957972         3948 
 3502000   0.70167983    -9.352807    441.95799    0.0105168 0.0094914577         3956 
 3503000   0.68648815    -9.375049    442.61166  0.010529348 0.0094871174         3945 
 3504000   0.69848608   -9.3845026    442.58383  0.010525681 0.0094827764         3948 
 3505000    0.6913498   -9.3847383     442.7186  0.010525882 0.0094784465         3962 
 3506000   0.68621253   -9.3697156    442.67548  0.010521855 0.0094741108         3955 
 3507000   0.68512413   -9.3637665    441.99284  0.010502634 0.0094697789         3961 
 3508000   0.68225066   -9.3717524    442.15657  0.010503529 0.0094654491         3951 
 3509000   0.69439504   -9.3830831    441.59139  0.010487114 0.0094611161         3968 
 3510000   0.70460894   -9.3840145    443.05892  0.010518968 0.0094567931         3945 
 3511000   0.68994918   -9.3712981    443.02099  0.010515071 0.0094524684         3949 
 3512000    0.6842271   -9.3522623    441.55789  0.010477361 0.0094481486         3947 
 3513000   0.68105437   -9.3520815      442.531  0.010497462 0.0094438321         3965 
 3514000   0.68470214   -9.3798497    442.14564  0.010485336 0.0094395139         3954 
 3515000   0.68543722   -9.3719589     442.7476  0.010496624 0.0094352007         3944 
 3516000   0.67882049   -9.3697363    442.54807  0.010488909 0.0094308916         3959 
 3517000   0.69574085   -9.3501714    442.32532  0.010480649  0.009426583         3937 
 3518000    0.6851062   -9.3691163    442.21178  0.010474981 0.0094222799         3957 
 3519000   0.69879672   -9.3643329    442.15681  0.010470702 0.0094179758         3951 
 3520000   0.68916242   -9.3608507    442.16531  0.010467929 0.0094136782         3959 
 3521000    0.6816363   -9.3738796    441.45944  0.010448249 0.0094093814         3967 
 3522000   0.67773961   -9.3971131    442.34615  0.010466263  0.009405083         3963 
 3523000   0.68322976   -9.3673075    442.67625  0.010471101 0.0094007892         3956 
 3524000   0.69171651   -9.3624394    442.55193  0.010465189 0.0093964951         3953 
 3525000   0.68549694   -9.3765978    442.58147  0.010462919 0.0093922072         3943 
 3526000   0.69118378   -9.3654071    442.55476   0.01045932 0.0093879202         3957 
 3527000   0.69792772   -9.3955421    442.34249  0.010451339 0.0093836395         3965 
 3528000   0.69444772    -9.358968    442.16812  0.010444258 0.0093793625         3958 
 3529000   0.69844422   -9.3549245    443.07884  0.010462804  0.009375087         3940 
 3530000   0.69139882   -9.3846798    442.71219  0.010451185 0.0093708173         3958 
 3531000   0.69316691   -9.3662302    442.08605  0.010433448 0.0093665444         3961 
 3532000   0.69136668   -9.3820422    442.08868  0.010430556 0.0093622758         3956 
 3533000   0.66838368   -9.3844484    443.15805  0.010452827 0.0093580118         3967 
 3534000   0.69166657   -9.3746709    442.55272  0.010435595 0.0093537501         3954 
 3535000   0.68376319   -9.3631125     442.4473  0.010430158 0.0093494883         3948 
 3536000   0.69161595   -9.3744064    442.01438  0.010417006  0.009345237         3951 
 3537000   0.68677266   -9.3775652    442.37214  0.010422489 0.0093409799         3959 
 3538000   0.67056276   -9.3751733    442.61812  0.010425337  0.009336729         3952 
 3539000    0.6817558    -9.387793    442.25414  0.010413821 0.0093324788         3939 
 3540000   0.67984211   -9.4164613    441.74882  0.010398984 0.0093282292         3974 
 3541000    0.6934558   -9.4024181    442.17853   0.01040616 0.0093239797         3956 
 3542000   0.68188901   -9.3885339    442.01892  0.010399466 0.0093197383         3960 
 3543000   0.68872948   -9.3879497     441.7803  0.010390919 0.0093154995         3962 
 3544000   0.68908599   -9.3966943    442.28404  0.010399832 0.0093112637         3956 
 3545000   0.66981206   -9.3932873    441.41858  0.010376553 0.0093070243         3935 
 3546000   0.69533567   -9.3896774    441.41589  0.010373564 0.0093027883         3960 
 3547000   0.69971591   -9.3733373    441.46049  0.010371687 0.0092985569         3968 
 3548000   0.67080598   -9.3781116    442.59798  0.010395481 0.0092943291         3946 
 3549000    0.6814683   -9.3560177     441.7319  0.010372215 0.0092901009         3955 
 3550000   0.68001927   -9.3831575    442.70241  0.010392075 0.0092858742         3958 
 3551000   0.69038117   -9.3883615    442.56676  0.010385965 0.0092816462         3956 
 3552000   0.67773115   -9.3640952    442.77137  0.010387842 0.0092774253         3952 
 3553000   0.66220499   -9.3727424    442.72597  0.010383853 0.0092732029         3947 
 3554000   0.68569637   -9.4202237    441.79539  0.010359112 0.0092689796         3959 
 3555000   0.69671343   -9.3789017    441.37188   0.01034627 0.0092647678         3952 
 3556000   0.68090832   -9.4107115    442.33949  0.010366036 0.0092605539         3967 
 3557000   0.69358405   -9.4036859    442.55626    0.0103682   0.00925635         3961 
 3558000   0.67366162   -9.3789292    442.84252  0.010371991 0.0092521429         3959 
 3559000   0.67781437   -9.3973591     442.5638   0.01036255 0.0092479458         3966 
 3560000   0.67088139   -9.3716504     442.9704  0.010369157 0.0092437455         3954 
 3561000   0.68610585   -9.4067986    442.16866  0.010347483 0.0092395453         3969 
 3562000   0.68389596   -9.3909519    442.24024  0.010346253 0.0092353525         3958 
 3563000   0.69169079   -9.3890322    442.43128  0.010347817 0.0092311615         3946 
 3564000   0.67149914   -9.4097359    442.28531  0.010341501 0.0092269742         3966 
 3565000   0.68162601    -9.400014    442.23585  0.010337444 0.0092227852         3955 
 3566000   0.68328561   -9.3818511    441.47642  0.010316798 0.0092186069         3957 
 3567000   0.69154481   -9.3763075    442.64197  0.010341136 0.0092144243         3944 
 3568000   0.68635612   -9.3920635    441.80875  0.010318777 0.0092102402         3947 
 3569000   0.68958024   -9.3827436    441.95719  0.010319352 0.0092060623         3950 
 3570000   0.67816462   -9.3915199     442.3806  0.010326345 0.0092018864         3943 
 3571000   0.68079248   -9.3845155    441.80861  0.010310105 0.0091977132         3960 
 3572000      0.68205    -9.375023    442.29609  0.010318591  0.009193541         3960 
 3573000   0.67376626   -9.3818273    442.29182  0.010315604  0.009189374         3951 
 3574000   0.68362115   -9.3945319    441.76409  0.010300412 0.0091852086         3956 
 3575000   0.68166237   -9.3962043    442.06181  0.010304471 0.0091810479         3960 
 3576000   0.67050207   -9.3906658    441.82782  0.010296137 0.0091768932         3959 
 3577000   0.67936802   -9.4082906    441.81223  0.010292895 0.0091727335         3967 
 3578000   0.67829958   -9.3686561    442.78679  0.010312716 0.0091685785         3954 
 3579000   0.68507123   -9.3851477    442.37728    0.0103003 0.0091644248         3956 
 3580000   0.67539007   -9.4220518    441.25479  0.010271294 0.0091602705         3969 
 3581000   0.69126695   -9.3739962    441.58545   0.01027612 0.0091561246         3949 
 3582000   0.69541354   -9.3619056    441.93741   0.01028144 0.0091519811         3951 
 3583000   0.70123032   -9.3914523    442.49322  0.010291497 0.0091478392         3959 
 3584000   0.68571877   -9.3977607    442.32331  0.010284675 0.0091436958         3958 
 3585000   0.68829143   -9.3868659    442.27429  0.010280667 0.0091395545         3967 
 3586000   0.68064486   -9.3824767    442.24912  0.010277215 0.0091354168         3957 
 3587000   0.68216561    -9.380446    441.73512  0.010262409 0.0091312825         3960 
 3588000   0.68498356   -9.4115593    441.97015  0.010265007 0.0091271485         3956 
 3589000   0.67253402   -9.3920093    441.40794  0.010249093 0.0091230191         3959 
 3590000    0.6821975   -9.3870445    441.89888  0.010257634 0.0091188926         3962 
 3591000   0.68291206   -9.3999758    442.65787  0.010272391 0.0091147637         3941 
 3592000   0.67311169   -9.3864653    442.97897  0.010276981 0.0091106434         3947 
 3593000   0.67424974   -9.3920583    442.52557  0.010263604  0.009106521         3950 
 3594000   0.68897286   -9.3845092    442.48574  0.010259825 0.0091024019         3956 
 3595000   0.67484643   -9.3774733    441.97827  0.010245208 0.0090982866         3974 
 3596000   0.69689329   -9.3824125    441.45577   0.01023025 0.0090941728         3964 
 3597000   0.67867872   -9.3901792     442.0284  0.010240673 0.0090900657         3961 
 3598000   0.67308353   -9.3772241    442.13356  0.010240262 0.0090859575         3963 
 3599000   0.67612804   -9.4343512    441.91273  0.010232304 0.0090818512         3965 
 3600000   0.65976995   -9.3876459    442.83229  0.010250748 0.0090777478         3960 
 3601000   0.67664002   -9.4006658    441.67899  0.010221212 0.0090736511         3958 
 3602000   0.67686698   -9.3978041    441.81932   0.01022162 0.0090695511         3955 
 3603000   0.69063994   -9.3950563    442.57815  0.010236334 0.0090654547         3966 
 3604000   0.67541992    -9.404386    442.09851  0.010222404  0.009061363         3967 
 3605000   0.68246762   -9.3945941    441.99829  0.010217251 0.0090572711         3932 
 3606000   0.68045778   -9.3923617    441.41587  0.010200958 0.0090531788         3956 
 3607000   0.66940208   -9.3927831    441.63449  0.010203181 0.0090490884         3950 
 3608000   0.67381531   -9.3982712    441.82098  0.010204661 0.0090450045         3952 
 3609000   0.67522053   -9.4076184    441.70825   0.01019923  0.009040922         3959 
 3610000   0.66983066   -9.3869919    441.19219  0.010184492 0.0090368423         3950 
 3611000   0.67105547   -9.4223685    441.25744  0.010183177 0.0090327667         3958 
 3612000   0.67555478   -9.4010055    441.89566  0.010195083 0.0090286909         3955 
 3613000    0.6770871   -9.4146228    442.13342  0.010197745 0.0090246184         3952 
 3614000   0.66770654   -9.4302479    441.01415  0.010169114  0.009020546         3958 
 3615000   0.66997045   -9.4038818    442.10566  0.010191463 0.0090164776         3967 
 3616000   0.68563432   -9.3957116    441.83375  0.010182378 0.0090124079         3970 
 3617000   0.67930732   -9.4201284     441.9161   0.01018146 0.0090083481         3941 
 3618000   0.67730771   -9.3994317    441.18421  0.010161788 0.0090042825         3963 
 3619000   0.68469468   -9.4002108    441.53631  0.010167088 0.0090002225         3945 
 3620000   0.66979621   -9.4161389    442.11812  0.010177673 0.0089961681         3970 
 3621000   0.67800955   -9.3988656    441.22202   0.01015424 0.0089921116         3950 
 3622000   0.65155546   -9.4097851    441.61769   0.01016054 0.0089880577         3952 
 3623000   0.67365455   -9.4055812    442.07797  0.010168322 0.0089840056         3968 
 3624000   0.67365825   -9.3936437    441.90279  0.010161488 0.0089799573         3950 
 3625000   0.66837379   -9.4343161    441.40871  0.010147327 0.0089759112         3962 
 3626000   0.66071241   -9.4004228     441.7022  0.010151273  0.008971866         3956 
 3627000   0.66822952   -9.4114139    442.50963  0.010167026 0.0089678288         3954 
 3628000   0.67544905   -9.4122468    441.45963  0.010140105  0.008963792         3948 
 3629000   0.68015726   -9.3995033    441.74998  0.010143979 0.0089597612         3958 
 3630000   0.66633626   -9.4071944    440.86271  0.010120815 0.0089557259         3957 
 3631000    0.6583926     -9.40959    441.92327  0.010142368  0.008951696         3944 
 3632000   0.67403771   -9.4199202    441.34972  0.010126416 0.0089476697         3962 
 3633000   0.67028172    -9.436827     441.6092  0.010129581 0.0089436447         3959 
 3634000   0.66946486   -9.3985639    442.24348  0.010141338  0.008939619         3955 
 3635000   0.66633752   -9.4118779    441.69895  0.010126065 0.0089355994         3972 
 3636000   0.65990086   -9.4083334    442.01483   0.01013052 0.0089315805         3964 
 3637000   0.66795622   -9.4019221    440.54187  0.010093985   0.00892756         3956 
 3638000   0.66443643   -9.4212493    441.57822  0.010114949 0.0089235421         3960 
 3639000   0.68696704   -9.4109507    441.86461  0.010118728 0.0089195261         3967 
 3640000   0.66228134   -9.4067984     441.9797  0.010118583 0.0089155141         3951 
 3641000   0.65742565   -9.4207089    441.54895  0.010105945 0.0089115066         3967 
 3642000   0.67261985   -9.4158981    441.95819  0.010112534 0.0089075043         3965 
 3643000   0.67319689   -9.3919764    441.45173  0.010098173 0.0089035008         3954 
 3644000   0.68072344   -9.3911713    441.54688  0.010097578 0.0088995007         3965 
 3645000   0.66334705   -9.4063617    441.12963  0.010085268 0.0088955018         3971 
 3646000   0.67718621   -9.4251739    441.20312  0.010084182 0.0088915062         3969 
 3647000   0.66604519   -9.4207373    441.28304  0.010083243 0.0088875107         3951 
 3648000   0.67360203   -9.4099374    442.13344  0.010099905 0.0088835163         3944 
 3649000   0.66062461   -9.4291071    441.12325  0.010074067 0.0088795249         3962 
 3650000   0.66768056   -9.4052584    441.78787  0.010086481 0.0088755376         3971 
 3651000   0.66123341   -9.4138306    442.18586  0.010092802 0.0088715544         3945 
 3652000   0.66538652   -9.4272868    441.53162   0.01007511 0.0088675742         3944 
 3653000   0.66648962   -9.4332355    441.83428  0.010079256 0.0088635991         3968 
 3654000   0.66859124   -9.4316025    441.44685  0.010067662 0.0088596205         3944 
 3655000   0.68398961   -9.4140358    442.00694  0.010077678 0.0088556456         3956 
 3656000   0.66173108   -9.4018528    442.36604  0.010083106 0.0088516739         3953 
 3657000   0.66991031     -9.41682    441.78414  0.010067089 0.0088477075         3963 
 3658000   0.66787003   -9.4119253    441.97944  0.010068786 0.0088437425         3961 
 3659000   0.66544552   -9.4414063    442.04041  0.010067423 0.0088397757         3953 
 3660000   0.66244612   -9.3999949    441.97319  0.010063142 0.0088358148         3966 
 3661000   0.67535995   -9.4154647      440.905  0.010036078 0.0088318536         3950 
 3662000   0.67006391   -9.4000275    440.89849   0.01003319 0.0088278945         3948 
 3663000   0.66660423   -9.4087224    441.45449    0.0100431 0.0088239376         3947 
 3664000   0.67397305   -9.4311221    441.25887   0.01003591 0.0088199786         3962 
 3665000   0.67096951   -9.4179161     441.6152  0.010041273 0.0088160267         3970 
 3666000   0.65706234   -9.4223746    441.38526  0.010033307 0.0088120777         3962 
 3667000   0.65530302   -9.4251185    441.62502   0.01003602 0.0088081314         3948 
 3668000   0.66944484   -9.4015864    442.09612  0.010043987 0.0088041903         3945 
 3669000   0.66479341   -9.4284846     441.4906  0.010027496 0.0088002495         3942 
 3670000   0.67358344   -9.4209975    440.84741  0.010010159 0.0087963088         3963 
 3671000   0.68033299   -9.4285537    441.20133  0.010015466  0.008792369         3958 
 3672000   0.66705319   -9.4091332    441.28263  0.010014584 0.0087884337         3949 
 3673000   0.67889541   -9.4321932    441.64112  0.010019991  0.008784497         3947 
 3674000   0.66109325   -9.4190154    441.34334  0.010010509 0.0087805664         3952 
 3675000     0.659214    -9.419279    441.28654  0.010006498 0.0087766356         3956 
 3676000    0.6742537   -9.4269722    441.69195  0.010012966 0.0087727092         3961 
 3677000   0.65416567   -9.4307577    441.54896  0.010007002 0.0087687869         3960 
 3678000    0.6565406   -9.4518826    441.72461  0.010008261 0.0087648678         3954 
 3679000   0.66133718   -9.4316558    441.30549 0.0099960473 0.0087609508         3957 
 3680000   0.66610654   -9.4299328    441.07592 0.0099881322 0.0087570345         3950 
 3681000   0.66406789   -9.4189659    442.33913  0.010014016 0.0087531235         3951 
 3682000   0.67513432   -9.4288045    440.38769 0.0099671304 0.0087492116         3958 
 3683000   0.67800374   -9.4038366    442.28134  0.010007271 0.0087453058         3948 
 3684000   0.68135783   -9.4200467    441.71288 0.0099916957 0.0087414022         3947 
 3685000   0.65738607   -9.4065769    442.20567  0.010000128 0.0087375004         3945 
 3686000   0.64694931   -9.4177542    441.04221 0.0099711117 0.0087336038         3958 
 3687000   0.66239513   -9.4282869    440.93553  0.009965996 0.0087297052         3953 
 3688000   0.65831827   -9.4396943    441.75051 0.0099817089  0.008725809         3956 
 3689000   0.65820578    -9.433275    441.51041 0.0099735794 0.0087219117         3956 
 3690000   0.64942178   -9.4118368    441.75205 0.0099763336 0.0087180226         3946 
 3691000   0.65960131   -9.4358367    440.86466 0.0099535956 0.0087141284         3948 
 3692000   0.66432428   -9.4322981    441.07183 0.0099555757 0.0087102428         3960 
 3693000   0.66701142   -9.4232434    441.91198 0.0099718381 0.0087063562         3941 
 3694000   0.65677788   -9.4208819    441.52971 0.0099605151  0.008702475         3957 
 3695000   0.67188526   -9.4301768    441.13129 0.0099488337 0.0086985967         3956 
 3696000   0.66752029   -9.4076031    440.92258 0.0099414363 0.0086947177         3968 
 3697000   0.65607971   -9.4220315    441.15842 0.0099440633 0.0086908416         3958 
 3698000   0.67102319   -9.4378046    441.18083 0.0099418792 0.0086869601         3948 
 3699000   0.65123372   -9.4230316    441.36944 0.0099434406 0.0086830897         3957 
 3700000   0.66951313   -9.4392909     440.3436 0.0099176487 0.0086792176         3956 
 3701000   0.65990723   -9.4337574    440.76783 0.0099245211 0.0086753487         3963 
 3702000   0.65549951   -9.3905623    441.39312 0.0099359156  0.008671483         3962 
 3703000   0.66548124   -9.4281586    441.37503 0.0099328255 0.0086676202         3958 
 3704000   0.65591236    -9.420068    440.63633 0.0099135244 0.0086637584         3952 
 3705000   0.66523336   -9.4530369    440.65563 0.0099112827 0.0086598993         3958 
 3706000   0.65964325   -9.4275047     441.6799 0.0099316401 0.0086560409         3958 
 3707000   0.63573282   -9.4238394    441.89267 0.0099337441 0.0086521863         3943 
 3708000   0.64820615   -9.4210714    441.51017 0.0099224687 0.0086483326         3958 
 3709000   0.65050446   -9.4228355    442.09508 0.0099329351 0.0086444819         3944 
 3710000   0.64798511   -9.4479941    441.12359 0.0099084364 0.0086406289         3947 
 3711000   0.64767181     -9.44814    441.08101 0.0099048103 0.0086367824         3945 
 3712000   0.65468461   -9.4386302    441.32671 0.0099076578 0.0086329389         3956 
 3713000    0.6587165   -9.4266708    441.63242 0.0099118508 0.0086290937         3947 
 3714000   0.64915654   -9.4251714    441.53153 0.0099069181 0.0086252558         3949 
 3715000   0.63957952   -9.4286703    440.95041 0.0098912159 0.0086214233         3938 
 3716000   0.65635499   -9.4339549    441.38408 0.0098982795 0.0086175886         3968 
 3717000   0.65893471   -9.4243817    440.88264 0.0098843745 0.0086137557         3957 
 3718000   0.64061526   -9.4263368    441.52308 0.0098960704 0.0086099251         3956 
 3719000   0.65808224   -9.4399708    441.58024 0.0098946903 0.0086060971         3968 
 3720000   0.66611599   -9.4242341     440.9042 0.0098768861 0.0086022745         3953 
 3721000   0.65102352   -9.4318985    441.42402 0.0098858734 0.0085984495         3962 
 3722000   0.67708767   -9.4265345    441.12944  0.009876622 0.0085946312         3944 
 3723000   0.65472644   -9.4278756    440.89156 0.0098686445  0.008590815         3961 
 3724000   0.64496379    -9.429906    441.61543 0.0098821928 0.0085870011         3948 
 3725000   0.65801806   -9.4357314    440.71597 0.0098594176 0.0085831857         3960 
 3726000   0.65232781   -9.4048333    441.77007  0.009880347 0.0085793765         3946 
 3727000   0.64002398   -9.4399032    441.11124 0.0098629648 0.0085755663         3956 
 3728000   0.66881985   -9.4553261    441.08153 0.0098596551  0.008571758         3962 
 3729000   0.64664782   -9.4178696    441.92227 0.0098757995 0.0085679571         3953 
 3730000   0.65485264   -9.4238386    441.54273 0.0098646722 0.0085641559         3963 
 3731000   0.65058905   -9.4421916    441.31342 0.0098569066 0.0085603586         3954 
 3732000   0.65372106   -9.4234361    441.27253 0.0098533522  0.008556561         3951 
 3733000   0.64862226   -9.4445025    441.20554 0.0098492174 0.0085527658         3947 
 3734000   0.66104962   -9.4605096    441.79911 0.0098598266 0.0085489756         3962 
 3735000    0.6433421   -9.4480396    441.04886 0.0098404475 0.0085451842         3958 
 3736000   0.65850671   -9.4464147    440.54005 0.0098264643 0.0085413937         3961 
 3737000   0.66196363   -9.4207673    440.78994 0.0098294073 0.0085376077         3955 
 3738000   0.65857325   -9.4293585    440.78541 0.0098266768 0.0085338257         3935 
 3739000    0.6412879   -9.4350582    440.95127 0.0098277452 0.0085300435         3957 
 3740000   0.65691903   -9.4263124    441.01396 0.0098265143 0.0085262638         3951 
 3741000   0.65743985    -9.427131    441.16651 0.0098272858 0.0085224887         3958 
 3742000    0.6564962   -9.4468913    441.33689 0.0098284538 0.0085187109         3965 
 3743000   0.65359873    -9.437802    441.25117 0.0098239195 0.0085149429         3954 
 3744000   0.64941833   -9.4416146    441.07105 0.0098172867 0.0085111743         3957 
 3745000   0.66046398   -9.4331667    440.79125  0.009808439 0.0085074066         3963 
 3746000   0.64045706   -9.4182287    441.03023  0.009811137 0.0085036407         3961 
 3747000   0.64604516   -9.4517772    440.70244 0.0098012285 0.0084998758         3965 
 3748000   0.66222656   -9.4352224    440.93341 0.0098037488 0.0084961128         3944 
 3749000   0.64394946    -9.432516    441.21476 0.0098073878 0.0084923544         3943 
 3750000   0.66593737   -9.4500675    441.22911 0.0098050913 0.0084885971         3945 
 3751000   0.64572886   -9.4483062     441.2049 0.0098019394 0.0084848428         3957 
 3752000   0.63982231   -9.4444346    440.74796 0.0097891781 0.0084810877         3951 
 3753000   0.66120079   -9.4523293    440.72641 0.0097860914 0.0084773377         3956 
 3754000   0.65186203   -9.4421426    441.50237 0.0098007096   0.00847359         3960 
 3755000   0.65068133   -9.4209763    440.84108  0.009783424  0.008469843         3952 
 3756000   0.64811068   -9.4494891    439.88046 0.0097595062 0.0084660975         3949 
 3757000   0.66021586   -9.4413582    441.14202 0.0097848908 0.0084623524         3946 
 3758000   0.63918121   -9.4482725    441.14399 0.0097823307 0.0084586158         3961 
 3759000   0.64306223   -9.4183405    440.54524 0.0097664548 0.0084548819         3947 
 3760000   0.64029459   -9.4298723    440.99992 0.0097739343 0.0084511444         3949 
 3761000   0.65426968   -9.4570564    441.08877 0.0097733042 0.0084474119         3952 
 3762000   0.64201312   -9.4284488    440.86587  0.009765769 0.0084436783         3950 
 3763000   0.65891279   -9.4205128    440.88698 0.0097636412 0.0084399465         3956 
 3764000   0.65684103   -9.4381492    441.08112 0.0097653454 0.0084362201         3952 
 3765000   0.64661265   -9.4425671     441.3088 0.0097677911 0.0084324931         3957 
 3766000   0.65676966   -9.4304153    441.38313 0.0097668422  0.008428774         3950 
 3767000   0.64783163   -9.4314347    440.18999 0.0097378547 0.0084250567         3959 
 3768000   0.65170659   -9.4403915     441.0137 0.0097534878 0.0084213374         3955 
 3769000   0.64972813   -9.4564166    440.74173 0.0097448866 0.0084176206         3953 
 3770000   0.66070814   -9.4553437    440.07689 0.0097276058 0.0084139063         3954 
 3771000   0.63705074   -9.4404181    441.08344 0.0097472696 0.0084101917         3958 
 3772000   0.65329741   -9.4616668    441.10154 0.0097450853 0.0084064818         3959 
 3773000   0.64447395   -9.4580958    441.55386 0.0097524928  0.008402774         3957 
 3774000    0.6327964   -9.4546679    440.23903 0.0097208758 0.0083990672         3963 
 3775000   0.62989909    -9.438995    440.78658 0.0097303881 0.0083953636         3938 
 3776000   0.66565656   -9.4480769    441.19732 0.0097368758  0.008391661         3954 
 3777000   0.63560796   -9.4427391    440.52738 0.0097195168 0.0083879645         3955 
 3778000   0.64947651   -9.4468086    440.71101 0.0097209946 0.0083842666         3958 
 3779000   0.66067951   -9.4429931       441.07 0.0097263385 0.0083805705         3952 
 3780000   0.66094193   -9.4426512    441.05886 0.0097235198  0.008376882         3958 
 3781000   0.64920777   -9.4301076    440.96422 0.0097188624 0.0083731895         3945 
 3782000   0.65456234   -9.4245214     441.3672 0.0097251718 0.0083695053         3950 
 3783000   0.63068209   -9.4592719    440.45889 0.0097025925 0.0083658175         3942 
 3784000   0.64126519   -9.4513168    440.65557 0.0097043599 0.0083621342         3963 
 3785000   0.63347239   -9.4371358    441.34756 0.0097170312 0.0083584512         3964 
 3786000   0.66196495   -9.4475118    441.29213 0.0097132447  0.008354772         3959 
 3787000   0.65168615   -9.4242868    441.10922 0.0097066548 0.0083510932         3946 
 3788000   0.65389047   -9.4487879    441.40493 0.0097105977 0.0083474176         3953 
 3789000   0.65807916   -9.4392688      441.193 0.0097033737 0.0083437409         3953 
 3790000   0.64794123   -9.4569451     441.3551 0.0097043777 0.0083400701         3954 
 3791000   0.66641427   -9.4596884    440.84427 0.0096905888    0.0083364         3948 
 3792000   0.61945502   -9.4620285    441.66758 0.0097061265 0.0083327298         3949 
 3793000   0.64655412   -9.4432335    440.89536 0.0096866015 0.0083290654         3951 
 3794000   0.62735521   -9.4311526    441.12972  0.009689196 0.0083254032         3949 
 3795000   0.63720811   -9.4605128     440.9436  0.009682556  0.008321744         3960 
 3796000   0.64464396   -9.4425984     440.7833 0.0096764862 0.0083180879         3952 
 3797000   0.65117088   -9.4328405    440.17173 0.0096605156 0.0083144317         3957 
 3798000   0.65343916   -9.4605584    441.30044 0.0096827373 0.0083107786         3959 
 3799000   0.64871996   -9.4412471    441.56967 0.0096860944 0.0083071304         3957 
 3800000    0.6478501   -9.4499689    441.22753 0.0096760424 0.0083034827         3952 
 3801000   0.65552567   -9.4157061    440.47775 0.0096570585 0.0082998363         3956 
 3802000   0.63523966   -9.4543456    441.05083 0.0096670793 0.0082961884         3951 
 3803000   0.63832934   -9.4782412    440.52179 0.0096529449 0.0082925482         3957 
 3804000   0.62715537   -9.4474337    440.74599 0.0096553187 0.0082889085         3957 
 3805000   0.63031009    -9.436632    441.35475 0.0096661137 0.0082852712         3962 
 3806000   0.62848049   -9.4591307    440.94258 0.0096545494 0.0082816358         3964 
 3807000   0.62505452   -9.4521521    441.09874 0.0096554317 0.0082780015         3952 
 3808000   0.63992368   -9.4374618    440.36219 0.0096367777 0.0082743655         3966 
 3809000     0.637571   -9.4417401    440.80394 0.0096439122 0.0082707335         3962 
 3810000   0.62781492   -9.4259948    441.19431 0.0096499193 0.0082671063         3957 
 3811000   0.63834047   -9.4545601    440.61488 0.0096347171 0.0082634801         3968 
 3812000   0.63915614   -9.4469539    440.63526 0.0096326352  0.008259859         3967 
 3813000   0.64510723   -9.4532382    440.53079 0.0096278255 0.0082562405         3965 
 3814000   0.63892704   -9.4554612     441.1253 0.0096382909 0.0082526217         3970 
 3815000   0.64806345   -9.4635871     440.6885 0.0096262231 0.0082490015         3963 
 3816000   0.64781108   -9.4524609    440.37305 0.0096168119 0.0082453879         3961 
 3817000   0.64273996   -9.4653592     440.8561 0.0096248385 0.0082417746         3961 
 3818000   0.65216371   -9.4718926    440.17847 0.0096075272 0.0082381685         3962 
 3819000   0.63925424    -9.473635    440.38243 0.0096094622 0.0082345603         3972 
 3820000   0.65849817   -9.4436832    440.86603 0.0096174963 0.0082309511         3958 
 3821000   0.64592491   -9.4650323    440.97407 0.0096173355 0.0082273485         3956 
 3822000   0.65273513   -9.4588073    441.36678 0.0096233817 0.0082237476         3958 
 3823000   0.64878741   -9.4710418    440.68985 0.0096061089 0.0082201451         3949 
 3824000   0.64486637   -9.4720969    440.41154 0.0095975319 0.0082165426         3962 
 3825000   0.63401739   -9.4649581      440.433 0.0095954901 0.0082129449         3953 
 3826000   0.65194257   -9.4444863    441.57907 0.0096179445 0.0082093524         3956 
 3827000   0.63615058   -9.4742147    440.11221 0.0095834904 0.0082057561         3964 
 3828000   0.63740803   -9.4425461    440.39334 0.0095871069  0.008202166         3966 
 3829000   0.62716062   -9.4535042    440.68698 0.0095909937 0.0081985764         3956 
 3830000   0.62533578   -9.4639106    439.61104 0.0095650791 0.0081949912         3964 
 3831000   0.65111014   -9.4594153    440.16037 0.0095745316 0.0081914044         3959 
 3832000   0.63849631   -9.4480623    440.07942 0.0095702727 0.0081878214         3962 
 3833000   0.63148156   -9.4635656    440.11556 0.0095685617 0.0081842407         3962 
 3834000   0.66207999   -9.4694336    441.14511 0.0095884435 0.0081806632         3956 
 3835000   0.64580684   -9.4713876    441.18916 0.0095869004 0.0081770882         3964 
 3836000   0.63200736   -9.4730443    441.64207 0.0095942402 0.0081735153         3961 
 3837000   0.62270426   -9.4508803    440.74808 0.0095723239 0.0081699438         3950 
 3838000   0.64297866   -9.4624727    440.99413 0.0095751721 0.0081663756         3963 
 3839000   0.64574853   -9.4607412    440.74768 0.0095673283 0.0081628097         3961 
 3840000   0.63042289   -9.4680063      440.621 0.0095620877 0.0081592438         3961 
 3841000   0.64609287   -9.4456356    440.04859 0.0095471794 0.0081556835         3971 
 3842000   0.64024486   -9.4416681     440.4356 0.0095530888  0.008152122         3957 
 3843000    0.6319047   -9.4615173    440.51849 0.0095524003 0.0081485655         3955 
 3844000   0.63395305   -9.4376148    440.62409 0.0095522046 0.0081450113         3965 
 3845000   0.64902941   -9.4632294    441.08015 0.0095596044 0.0081414566         3949 
 3846000   0.62637324   -9.4748634    440.68844 0.0095486316 0.0081379045         3951 
 3847000   0.63435006   -9.4627834    440.74534  0.009547382 0.0081343556         3963 
 3848000   0.64084967   -9.4689565    440.61168 0.0095420062 0.0081308069         3952 
 3849000    0.6396088   -9.4566689    440.53097 0.0095377797 0.0081272596         3961 
 3850000   0.62286888   -9.4494481    440.96584  0.009544715 0.0081237135         3957 
 3851000   0.63704077   -9.4452521    440.51372 0.0095324531 0.0081201718         3965 
 3852000    0.6421447   -9.4477942    440.53932 0.0095305322 0.0081166312         3962 
 3853000   0.62839571   -9.4505353    441.41088 0.0095469088 0.0081130945         3948 
 3854000   0.62937657   -9.4673766     441.0616 0.0095368795 0.0081095582         3970 
 3855000   0.64531972   -9.4618308    440.50469 0.0095223668  0.008106023         3966 
 3856000    0.6374569    -9.448922     440.6251 0.0095224996  0.008102489         3967 
 3857000   0.64114449   -9.4564377    440.88716 0.0095256927  0.008098959         3951 
 3858000    0.6301842   -9.4444876    440.59524 0.0095169181 0.0080954277         3960 
 3859000   0.64031935   -9.4477738    440.16441 0.0095051484 0.0080919012         3957 
 3860000   0.62246461   -9.4621431    440.09423 0.0095011707 0.0080883779         3947 
 3861000   0.64780176   -9.4668707    441.00637  0.009518397  0.008084856         3944 
 3862000   0.63408795    -9.455435    440.54764 0.0095060339 0.0080813367         3959 
 3863000   0.62502699   -9.4647055      440.432 0.0095010787 0.0080778199         3956 
 3864000   0.63298358    -9.446392     440.4168 0.0094982918 0.0080743056         3971 
 3865000   0.62397481   -9.4573294    440.32887 0.0094939385 0.0080707891         3970 
 3866000    0.6471913   -9.4633807    440.49813 0.0094951313 0.0080672768         3969 
 3867000    0.6370923   -9.4591944    440.17429 0.0094856972 0.0080637637         3978 
 3868000   0.61739138   -9.4474409    441.64082 0.0095148402 0.0080602555         3968 
 3869000   0.63471948   -9.4708398    440.00006  0.009477041  0.008056748         3953 
 3870000   0.63532333   -9.4800794    440.63272 0.0094882154 0.0080532441         3966 
 3871000   0.61836044   -9.4824796      440.363 0.0094799579 0.0080497395         3967 
 3872000   0.63769936   -9.4665475    440.19143 0.0094738169 0.0080462378         3961 
 3873000   0.63543909   -9.4576918    440.63206 0.0094808517 0.0080427391         3947 
 3874000   0.64144719     -9.46549    440.37392 0.0094728516 0.0080392448         3959 
 3875000   0.62511108    -9.463676    439.72248 0.0094563975 0.0080357518         3954 
 3876000   0.62607689   -9.4519718    440.85474 0.0094783011  0.008032257         3965 
 3877000   0.63153492   -9.5023266    439.77704 0.0094526919 0.0080287666         3965 
 3878000   0.63104145   -9.4738355    439.85776  0.009451989 0.0080252805         3959 
 3879000   0.63848747   -9.4689158    440.75906  0.009468915 0.0080217957         3954 
 3880000   0.62804697   -9.4773026    440.83766 0.0094681628 0.0080183123         3963 
 3881000   0.63686448   -9.4696247     440.6444 0.0094615734 0.0080148335         3962 
 3882000   0.62400715   -9.4814718    440.52467 0.0094565661 0.0080113544         3965 
 3883000   0.63089895   -9.4684278    440.42028 0.0094518903 0.0080078741         3959 
 3884000   0.62987964   -9.4639103    439.94448 0.0094392483  0.008004395         3948 
 3885000   0.63761634   -9.4569905    440.47664 0.0094482333 0.0080009222         3966 
 3886000     0.627662   -9.4799048    440.18364 0.0094395187 0.0079974539         3972 
 3887000   0.62383986   -9.4762432    439.76976 0.0094282172 0.0079939846         3955 
 3888000   0.63232898   -9.4660927    440.23529   0.00943577 0.0079905183         3963 
 3889000   0.63107626   -9.4964196    439.44878 0.0094164906 0.0079870535         3960 
 3890000   0.63215565   -9.4669724    439.90918 0.0094239327 0.0079835916         3958 
 3891000    0.6327304   -9.4639711    440.62336 0.0094368064 0.0079801306         3961 
 3892000   0.64264298   -9.4804193    440.27413 0.0094269042 0.0079766681         3963 
 3893000   0.62956337   -9.4464455    440.09264 0.0094205976 0.0079732074         3935 
 3894000   0.63323173   -9.4926722    439.75018 0.0094108497 0.0079697524         3953 
 3895000    0.6299899   -9.4838476    440.54429 0.0094254235 0.0079662995         3952 
 3896000    0.6238569   -9.4649514    441.43542 0.0094420648 0.0079628476         3960 
 3897000   0.62997084   -9.4837339    440.97296 0.0094297528 0.0079593985         3950 
 3898000   0.63108703    -9.460305    440.03892 0.0094073653 0.0079559487         3970 
 3899000    0.6266763    -9.468673    440.07786 0.0094057849 0.0079525054         3958 
 3900000   0.63028414   -9.4674319    439.85579 0.0093986281 0.0079490625         3969 
 3901000   0.63641316   -9.4784494    440.12117 0.0094018878 0.0079456209         3968 
 3902000    0.6350585   -9.4688039    440.34712 0.0094043038  0.007942182         3953 
 3903000   0.63515488    -9.492483    440.21231 0.0093990159 0.0079387474         3958 
 3904000   0.62563811   -9.4870646    440.17537 0.0093958199   0.00793531         3948 
 3905000   0.62742739     -9.48318     440.7633 0.0094059603  0.007931875         3966 
 3906000   0.61629944   -9.5024793    440.50482 0.0093980377 0.0079284421         3963 
 3907000   0.62425468   -9.4783134     439.7923 0.0093804346 0.0079250105         3958 
 3908000   0.61880667   -9.4825947    440.39112 0.0093908036 0.0079215829         3957 
 3909000   0.63368568    -9.458459    440.32467 0.0093869845 0.0079181576         3954 
 3910000     0.627933   -9.4939566    439.84464  0.009374353 0.0079147317         3964 
 3911000   0.62256176   -9.4943325    440.08528 0.0093770834 0.0079113079         3960 
 3912000    0.6290685   -9.4657299    439.93776 0.0093715439 0.0079078865         3957 
 3913000   0.63413786   -9.4767898    441.17418 0.0093954803 0.0079044691         3962 
 3914000   0.62433175   -9.4762959     440.5837  0.009380508 0.0079010523         3961 
 3915000   0.62530425   -9.4857961    439.74144 0.0093601839 0.0078976355         3962 
 3916000   0.61188965   -9.4580899    441.22272 0.0093893157 0.0078942221         3949 
 3917000   0.62537138   -9.4577786    439.95896 0.0093600324 0.0078908089         3959 
 3918000   0.63261161   -9.4766951    440.34568 0.0093658686 0.0078873993         3962 
 3919000   0.63102964   -9.4824747    440.04981 0.0093571873 0.0078839925         3954 
 3920000   0.62879346   -9.4661425    440.94211 0.0093737693 0.0078805869         3964 
 3921000   0.61262366   -9.4553524    440.89786 0.0093704383  0.007877186         3951 
 3922000   0.62774074     -9.48874    440.44702 0.0093584697 0.0078737852         3964 
 3923000   0.62837939   -9.4800709    439.80978 0.0093425478 0.0078703859         3954 
 3924000   0.61816534   -9.4894204    439.80721 0.0093401124 0.0078669886         3965 
 3925000   0.60921722   -9.4732384    440.02032 0.0093422574 0.0078635915         3970 
 3926000   0.62508578    -9.486191    439.54613 0.0093298127 0.0078601994         3970 
 3927000   0.62649168   -9.4746296     439.3183 0.0093226022 0.0078568051         3963 
 3928000   0.61996803   -9.4843046    441.09702 0.0093579646 0.0078534155         3952 
 3929000   0.61946038   -9.4950106     439.8292 0.0093286927 0.0078500281         3967 
 3930000   0.62957386   -9.4805695    439.88203 0.0093274391 0.0078466431         3956 
 3931000   0.63510691   -9.4829532    439.31229 0.0093129885 0.0078432568         3969 
 3932000   0.61833649   -9.4917014    439.66377  0.009318069 0.0078398718         3964 
 3933000   0.61808456   -9.4846474    439.65875 0.0093155935 0.0078364903         3960 
 3934000   0.63155197   -9.4810904    440.04769 0.0093214644 0.0078331133         3958 
 3935000   0.63928339   -9.4762852    439.95325 0.0093170956 0.0078297363         3969 
 3936000   0.61927433   -9.4742032    439.68262 0.0093089985 0.0078263638         3951 
 3937000   0.64039192    -9.499257    440.26804 0.0093190254 0.0078229909         3971 
 3938000   0.61957823   -9.4705833    440.29727 0.0093172777 0.0078196213         3966 
 3939000   0.61730493   -9.4616244    440.39896 0.0093170635 0.0078162532         3951 
 3940000   0.61303411   -9.4754109    440.10053 0.0093083869 0.0078128876         3967 
 3941000   0.61552399   -9.4952271    440.27565  0.009309728 0.0078095207         3962 
 3942000   0.60951613   -9.4806125    440.34356 0.0093088019 0.0078061609         3960 
 3943000   0.63495788    -9.489117    439.58718 0.0092904553 0.0078028011         3955 
 3944000   0.61927504   -9.4912267     439.5789 0.0092879248 0.0077994444         3962 
 3945000   0.62007192    -9.474483     440.6198 0.0093075581 0.0077960885         3951 
 3946000   0.63482655   -9.4714704    440.32317 0.0092989349 0.0077927374         3957 
 3947000   0.62058959    -9.491422    440.46364 0.0092995449  0.007789385         3965 
 3948000   0.61640029   -9.4865237    439.89601 0.0092852079 0.0077860325         3965 
 3949000   0.61111743   -9.4717766    439.78334 0.0092804789 0.0077826856         3959 
 3950000   0.63039004    -9.478718    440.04712 0.0092836945 0.0077793414         3958 
 3951000   0.62465666   -9.4784244    439.84175 0.0092770132 0.0077759972         3966 
 3952000   0.62076299   -9.5086216    440.20668 0.0092823608 0.0077726555         3961 
 3953000   0.61045277   -9.4743931    440.89746  0.009294575  0.007769314         3957 
 3954000   0.60384994   -9.4745462    439.14078 0.0092552011 0.0077659755         3964 
 3955000   0.63788013   -9.5020212    440.06299 0.0092722922 0.0077626407         3957 
 3956000   0.61714115   -9.4745515    440.25496 0.0092739923  0.007759305         3967 
 3957000   0.59883214   -9.4835267    439.67275 0.0092593874 0.0077559743         3946 
 3958000   0.61908485   -9.4951685    439.86945 0.0092611893 0.0077526428         3964 
 3959000   0.62350742   -9.4879824    439.87538 0.0092589749 0.0077493166         3955 
 3960000    0.6189989   -9.4938059    440.36159 0.0092668685 0.0077459911         3968 
 3961000   0.62742839   -9.4839069    440.75165 0.0092727351  0.007742663         3955 
 3962000   0.62099042   -9.4932659    439.63139 0.0092468321 0.0077393387         3957 
 3963000   0.62134294   -9.4840384    439.70174 0.0092459783 0.0077360154         3951 
 3964000   0.61944918    -9.477204    440.22892 0.0092547283 0.0077326964         3967 
 3965000   0.61228746   -9.4958093    439.41958 0.0092353842 0.0077293764         3957 
 3966000   0.62490783   -9.5062324    439.06825 0.0092256733  0.007726059         3954 
 3967000   0.61421901   -9.4939856    440.33914  0.009250045 0.0077227441         3957 
 3968000    0.6182634   -9.4934534    440.36847 0.0092483297 0.0077194318         3950 
 3969000   0.61998837   -9.4872328    439.40493  0.009225769 0.0077161204         3956 
 3970000   0.61634766   -9.4753326     440.1063 0.0092381675 0.0077128095         3949 
 3971000   0.62410816   -9.5027858    440.23309 0.0092385019 0.0077095021         3965 
 3972000   0.61377994   -9.4698518    440.04407 0.0092322102 0.0077061971         3961 
 3973000   0.61926718   -9.5023866    439.50944 0.0092186727  0.007702896         3962 
 3974000   0.61793021   -9.4940306     439.6411 0.0092191138 0.0076995972         3959 
 3975000   0.63147991   -9.4850407    439.65587 0.0092171042 0.0076962977         3965 
 3976000   0.61829831   -9.4919068    439.98767 0.0092217403 0.0076930006         3968 
 3977000   0.61072597   -9.5111726    439.27705 0.0092045314 0.0076897033         3956 
 3978000   0.61218499   -9.4991692    439.80955 0.0092133725 0.0076864087         3966 
 3979000   0.62192174    -9.535482    438.99353 0.0091939669 0.0076831147         3972 
 3980000   0.62126879   -9.4910263    440.21047 0.0092171372  0.007679824         3966 
 3981000    0.6254542   -9.4940465    439.67464 0.0092036056 0.0076765378         3960 
 3982000    0.6235839   -9.4771023    439.99189 0.0092079334  0.007673251         3968 
 3983000   0.61478313   -9.4856449    439.99336 0.0092056523 0.0076699662         3952 
 3984000    0.6189286   -9.4783553    440.03026 0.0092041136 0.0076666871         3969 
 3985000   0.64053065   -9.4792167    440.05861 0.0092023967  0.007663409         3964 
 3986000   0.62738327   -9.4743754    439.99822 0.0091988255 0.0076601316         3971 
 3987000   0.61607797   -9.5001494    439.19894 0.0091798122 0.0076568567         3960 
 3988000   0.60543424   -9.5078075    439.64131 0.0091867543 0.0076535806         3952 
 3989000   0.60924871   -9.5039301    439.62002 0.0091840064 0.0076503076         3966 
 3990000   0.61279266   -9.5059882    439.36593 0.0091763979 0.0076470351         3956 
 3991000   0.60890724   -9.4914825    439.38904 0.0091745811 0.0076437649         3963 
 3992000   0.62609639   -9.4931049    439.42812 0.0091730988 0.0076404928         3953 
 3993000   0.60894864    -9.491821    440.29293 0.0091888498 0.0076372258         3961 
 3994000   0.61172106   -9.4934779    439.12952  0.009162275 0.0076339656         3955 
 3995000   0.62534532   -9.5009372    440.06114 0.0091794147 0.0076307023         3965 
 3996000   0.60409073   -9.5116733    440.10969 0.0091781301 0.0076274414         3961 
 3997000   0.62513667   -9.5172253     439.2388 0.0091576766 0.0076241818         3957 
 3998000   0.61190053   -9.5043262    438.89706 0.0091482629  0.007620925         3976 
 3999000   0.61732501   -9.4853785    440.26057 0.0091743888 0.0076176703         3967 
 4000000   0.61943027   -9.5002309     439.9485 0.0091655937 0.0076144175         3960 
 4001000   0.60047349   -9.4775576     439.4147 0.0091521849 0.0076111677         3959 
 4002000    0.6008211   -9.5032297    439.64984 0.0091547942 0.0076079181         3960 
 4003000   0.60485431   -9.4956454    439.45103 0.0091483685 0.0076046705         3962 
 4004000   0.60337333    -9.499653    440.04153 0.0091583735  0.007601426         3962 
 4005000   0.60429411   -9.5055188    439.50597 0.0091449431 0.0075981815         3966 
 4006000   0.60317322   -9.4980396    440.03931 0.0091537551 0.0075949389         3956 
 4007000   0.61134241   -9.4853496    439.89989  0.009148571 0.0075916957         3971 
 4008000   0.60796724    -9.496803    440.09268 0.0091502968 0.0075884562         3956 
 4009000   0.60592782   -9.5174761    439.59342 0.0091376366 0.0075852198         3959 
 4010000   0.61563128   -9.5039727    439.81874 0.0091400404 0.0075819862         3975 
 4011000   0.61230477   -9.4956758    440.36649 0.0091491417 0.0075787529         3965 
 4012000   0.59513894   -9.4980036    440.16142 0.0091426017 0.0075755217         3967 
 4013000   0.61692065   -9.4932392    439.50103 0.0091266099 0.0075722901         3966 
 4014000    0.6150492    -9.498495    439.03778  0.009114719  0.007569066         3970 
 4015000   0.62124556   -9.5027213    439.40399 0.0091200497 0.0075658408         3967 
 4016000   0.61357349   -9.5059966     439.1473 0.0091124523 0.0075626181         3961 
 4017000   0.60265058   -9.4953846    439.11506 0.0091095149  0.007559395         3956 
 4018000   0.60642797   -9.5046125    439.43628 0.0091139099 0.0075561786         3961 
 4019000   0.60927793   -9.4812515    440.98965  0.009143851 0.0075529624         3967 
 4020000   0.61336875   -9.5145909     440.1188 0.0091235241 0.0075497487         3979 
 4021000   0.60115825   -9.4810952    439.82525 0.0091151713 0.0075465367         3964 
 4022000   0.60173822   -9.4898856    440.16438 0.0091199316 0.0075433264         3972 
 4023000   0.60082631   -9.5001583    439.61857 0.0091063586 0.0075401135         3972 
 4024000   0.60446008   -9.5030886    439.59574 0.0091036228 0.0075369058         3967 
 4025000   0.61996505   -9.5283012    438.84427 0.0090858026 0.0075336973         3961 
 4026000   0.62586784   -9.5029322    439.78968 0.0091031147 0.0075304934         3956 
 4027000    0.6038182   -9.4970788    439.72274  0.009099469 0.0075272915         3947 
 4028000   0.59463068   -9.5259813     440.0675 0.0091043425 0.0075240907         3961 
 4029000   0.60345919    -9.485292    439.94314 0.0090995106 0.0075208923         3965 
 4030000   0.61456313   -9.4877182    440.15723 0.0091016798 0.0075176976         3958 
 4031000   0.59527077    -9.505741    439.07189 0.0090769845  0.007514503         3960 
 4032000   0.59628051   -9.4955105    440.23242  0.009098719 0.0075113122         3945 
 4033000   0.59881498   -9.5099079    440.00852 0.0090918365 0.0075081215         3961 
 4034000   0.61518558   -9.4881753    439.03617 0.0090694961 0.0075049297         3958 
 4035000   0.60401266   -9.4848396    439.99609 0.0090870733 0.0075017412         3964 
 4036000   0.59766775   -9.5186738    440.27061   0.00909049 0.0074985549         3974 
 4037000   0.59783131   -9.5149313      439.767 0.0090778424 0.0074953678         3973 
 4038000   0.60219705   -9.5108523    440.06739 0.0090817937 0.0074921834         3968 
 4039000   0.61209133   -9.5059524    439.38997 0.0090655684 0.0074890028         3962 
 4040000   0.61529543    -9.503622    439.03069 0.0090559137 0.0074858253         3965 
 4041000   0.61326217   -9.5338921    438.97387 0.0090525007 0.0074826444         3955 
 4042000   0.59832398   -9.5233253    439.92909 0.0090699549 0.0074794668         3971 
 4043000   0.60298523   -9.5121476    439.43677 0.0090575638 0.0074762944         3967 
 4044000   0.60732077   -9.5235845    439.43948 0.0090553799 0.0074731245         3955 
 4045000   0.59351735   -9.5009645    439.39315 0.0090521869 0.0074699551         3961 
 4046000   0.60822202   -9.5010127    439.89234 0.0090602312 0.0074667861         3953 
 4047000   0.62762835   -9.5146913    438.83747 0.0090362712 0.0074636175         3955 
 4048000   0.61318822   -9.5022476    438.95997 0.0090365607 0.0074604547         3960 
 4049000   0.60379977   -9.5066802     440.2261 0.0090603874 0.0074572936         3966 
 4050000   0.60858538   -9.5061373    439.23826 0.0090378242 0.0074541328         3969 
 4051000   0.59511106   -9.5017268    439.34328 0.0090377536 0.0074509742         3956 
 4052000   0.61471096   -9.5039715    438.99089  0.009028276 0.0074478146         3953 
 4053000   0.59665217   -9.5111821    439.77107 0.0090420895 0.0074446584         3951 
 4054000   0.60659429    -9.506413    438.90146 0.0090219836 0.0074415049         3963 
 4055000   0.60429217   -9.4945259    439.43488 0.0090307209 0.0074383519         3968 
 4056000   0.59674598    -9.518305    439.55353 0.0090309321 0.0074352023         3965 
 4057000   0.60881428    -9.506902    439.37193  0.009024976 0.0074320546         3962 
 4058000   0.59680082   -9.5135226    438.93881 0.0090138575 0.0074289067         3976 
 4059000   0.59818885   -9.5176121    439.58196 0.0090248411 0.0074257627         3950 
 4060000   0.60338675   -9.5358519    439.77199 0.0090265186  0.007422619         3965 
 4061000   0.60439801   -9.5178573    439.76794 0.0090242129 0.0074194778         3972 
 4062000   0.60049267   -9.5223539    439.59854 0.0090185158 0.0074163395         3961 
 4063000   0.59457087      -9.4994    439.68797 0.0090181305 0.0074132009         3960 
 4064000   0.60666495    -9.510983    439.44219 0.0090108718 0.0074100646         3972 
 4065000   0.60464907   -9.5189342    439.67625 0.0090134533 0.0074069315         3960 
 4066000   0.59704522   -9.5204963    439.67281  0.009011166  0.007403797         3962 
 4067000    0.6034087   -9.5250843    439.78235 0.0090111947 0.0074006673         3965 
 4068000   0.60583407   -9.5401461    439.82163 0.0090097842 0.0073975427         3960 
 4069000   0.59461754    -9.526997    439.10275 0.0089928473 0.0073944177         3959 
 4070000   0.59654328   -9.5250746    439.08564 0.0089902875 0.0073912944         3950 
 4071000   0.59689027    -9.528239    439.71119 0.0090008842 0.0073881704         3956 
 4072000   0.58255697   -9.5273996    439.47866 0.0089939149 0.0073850455         3951 
 4073000   0.59653669    -9.521931    439.93401 0.0090010231 0.0073819256         3954 
 4074000   0.60882422   -9.5374384    438.60615 0.0089716526 0.0073788048         3973 
 4075000   0.59756058   -9.5295198    439.61644 0.0089901112  0.007375691         3968 
 4076000   0.59576641   -9.5109924    439.06429 0.0089766169 0.0073725765         3954 
 4077000   0.60208043   -9.5362512    439.49537 0.0089832264 0.0073694615         3973 
 4078000   0.60311109   -9.5091489    439.09977 0.0089729396 0.0073663474         3975 
 4079000   0.60501752    -9.521384    439.80852 0.0089852195  0.007363234         3969 
 4080000   0.61698509   -9.5330642    439.77803 0.0089823944 0.0073601243         3965 
 4081000   0.59891168   -9.5249676     439.0951 0.0089662481 0.0073570161         3958 
 4082000   0.59783939   -9.4937059    439.94247 0.0089813504 0.0073539143         3969 
 4083000   0.60201882    -9.514443    439.41581 0.0089684018 0.0073508126         3954 
 4084000   0.60077979   -9.5115023    438.81726 0.0089539924 0.0073477112         3955 
 4085000   0.59844617   -9.5183509    439.47133 0.0089651434 0.0073446118         3968 
 4086000   0.60662236   -9.5274315    439.73957 0.0089684199  0.007341513         3962 
 4087000   0.59958606    -9.525149    438.75683 0.0089461876 0.0073384171         3958 
 4088000   0.59953927   -9.5267391    439.44724 0.0089580733 0.0073353213         3958 
 4089000   0.58177663   -9.5272432    440.12629 0.0089697214 0.0073322317         3958 
 4090000   0.60765081   -9.5077434    439.13164 0.0089472625 0.0073291435         3967 
 4091000    0.5992417   -9.5257871    438.63924 0.0089350453 0.0073260518         3964 
 4092000   0.59488067   -9.5212066    439.11496 0.0089425497 0.0073229637         3959 
 4093000   0.59591337   -9.5229975     438.5983 0.0089298457 0.0073198782         3957 
 4094000   0.58816418    -9.519931    438.54789 0.0089266384 0.0073167951         3962 
 4095000   0.59960654   -9.5174881    439.23134 0.0089383668 0.0073137134         3958 
 4096000   0.60105065   -9.5235716     439.6924 0.0089455648 0.0073106356         3958 
 4097000   0.58937884   -9.5247655    439.03127  0.008929934 0.0073075571         3966 
 4098000   0.60628607   -9.5111342    439.96658 0.0089467745 0.0073044817         3959 
 4099000   0.59823326   -9.5301658      439.422 0.0089335205 0.0073014058         3960 
 4100000   0.59907284   -9.5237423    439.75392 0.0089380877 0.0072983302         3969 
 4101000   0.58053312   -9.5163486    439.06173 0.0089218428 0.0072952584         3974 
 4102000   0.59880072   -9.5348102    438.90972 0.0089165797  0.007292192         3962 
 4103000    0.5912035   -9.5109991    439.88301 0.0089341744 0.0072891227         3965 
 4104000   0.59152613   -9.5050397    439.67957 0.0089278665 0.0072860553         3970 
 4105000   0.60052619   -9.5040061    440.10447 0.0089343173 0.0072829916         3950 
 4106000   0.58964669   -9.5122477    438.97206 0.0089091585  0.007279929         3965 
 4107000   0.60644935   -9.5409239    439.62582 0.0089202545 0.0072768694         3963 
 4108000   0.60331762   -9.5294873    438.77752 0.0089008746 0.0072738095         3980 
 4109000   0.60018817   -9.5189772    440.02893 0.0089240879 0.0072707549         3966 
 4110000   0.59117961   -9.5378069    438.87068 0.0088984323 0.0072676979         3962 
 4111000   0.60069068   -9.5264129    439.01623 0.0088992181 0.0072646433         3962 
 4112000   0.59429121   -9.5284676    439.21046 0.0089009903 0.0072615909         3970 
 4113000   0.60159661   -9.5303674    439.17602 0.0088981282 0.0072585373         3959 
 4114000   0.59291321    -9.535085    438.65093 0.0088853293 0.0072554892         3958 
 4115000    0.5955351     -9.52182    440.23742  0.008915298 0.0072524387         3961 
 4116000   0.59092461   -9.5121696    439.36753   0.00889552  0.007249391         3962 
 4117000    0.5895548   -9.5208307    439.22246  0.008890423 0.0072463487         3966 
 4118000   0.57623383   -9.5264338    438.86166 0.0088809629 0.0072433068         3966 
 4119000   0.57401375   -9.5223707    439.40243 0.0088897472 0.0072402647         3960 
 4120000   0.58317656   -9.5310221    439.90487 0.0088977522 0.0072372267         3968 
 4121000   0.59267609   -9.5330209    438.81764 0.0088736076 0.0072341923         3967 
 4122000   0.59384986   -9.5438217    438.39949 0.0088630012  0.007231156         3959 
 4123000   0.59762821   -9.5394282    439.75558 0.0088882606 0.0072281209         3956 
 4124000   0.59930926   -9.5115431    438.13031 0.0088532637 0.0072250881         3963 
 4125000   0.58892339   -9.5231731    438.91106   0.00886689  0.007222057         3971 
 4126000   0.60317224   -9.5198426    438.52825 0.0088570094 0.0072190285         3967 
 4127000   0.59066135   -9.5244373    438.85146 0.0088613896 0.0072160012         3964 
 4128000   0.59189856   -9.5316796    438.64191 0.0088550128 0.0072129725         3971 
 4129000   0.59111585   -9.5287943    439.04456 0.0088609945 0.0072099486         3961 
 4130000    0.5958274   -9.5140253    439.23412 0.0088626738 0.0072069282         3961 
 4131000   0.59609321    -9.543354    438.52073 0.0088461376   0.00720391         3959 
 4132000   0.59309945   -9.5478563    438.99882 0.0088536387 0.0072008923         3956 
 4133000   0.59620338   -9.5317594    439.75271 0.0088666971 0.0071978779         3957 
 4134000   0.59486018   -9.5371174    438.66511 0.0088426285 0.0071948614         3954 
 4135000    0.5873875   -9.5332432    438.31479 0.0088334299 0.0071918504         3965 
 4136000   0.57910077   -9.5128669    438.86803 0.0088424409  0.007188837         3970 
 4137000   0.57773229   -9.5392085    439.45428 0.0088521127  0.007185827         3968 
 4138000   0.58617343   -9.5228888    439.06849 0.0088422042 0.0071828185         3952 
 4139000   0.58814812   -9.5269699    439.43046 0.0088473556   0.00717981         3964 
 4140000   0.59618054   -9.5405416    437.95962 0.0088156122 0.0071768059         3966 
 4141000   0.58742278   -9.5273905    439.57069 0.0088459046  0.007173802         3960 
 4142000   0.59637717   -9.5340695    440.08698 0.0088541563  0.007170802         3965 
 4143000    0.5874749   -9.5313988    439.21435 0.0088344667 0.0071678031         3960 
 4144000   0.59278576    -9.541039    439.21517 0.0088323513 0.0071648065         3966 
 4145000   0.59963834   -9.5180914    438.74339 0.0088207357 0.0071618089         3970 
 4146000   0.59266436   -9.5360717    439.05224 0.0088248159 0.0071588141         3953 
 4147000    0.5958531   -9.5476414    439.13023 0.0088242552 0.0071558235         3957 
 4148000   0.59131687   -9.5194353     439.3949 0.0088274449 0.0071528321         3959 
 4149000   0.58060454   -9.5322692    438.02315 0.0087977656 0.0071498418         3964 
 4150000   0.59790109   -9.5542122    439.05324   0.00881633 0.0071468554         3958 
 4151000   0.59740051   -9.5431369    438.84519 0.0088100296 0.0071438693         3956 
 4152000   0.58778474    -9.552407    438.60746 0.0088031363 0.0071408829         3972 
 4153000   0.59546146   -9.5412475    438.62242 0.0088013168 0.0071379051         3972 
 4154000   0.58631995   -9.5370348    438.53358 0.0087974157 0.0071349255         3970 
 4155000   0.59078079   -9.5493148    439.09965 0.0088066516 0.0071319484         3966 
 4156000   0.57872019   -9.5344324    438.94822 0.0088014962 0.0071289725         3954 
 4157000   0.58304187   -9.5251842    439.44841  0.008809406  0.007125998         3965 
 4158000   0.56483618   -9.5405934    438.56536 0.0087895895 0.0071230222         3962 
 4159000   0.58756766   -9.5523084    438.99967 0.0087961784 0.0071200512         3961 
 4160000   0.58833873   -9.5506717    439.24726 0.0087990236 0.0071170812         3971 
 4161000    0.5912839   -9.5333802    438.94705 0.0087908965  0.007114113         3961 
 4162000   0.59361257   -9.5411758    438.63876 0.0087826117 0.0071111473         3966 
 4163000   0.59452282   -9.5255971    439.52773  0.008798297 0.0071081817         3972 
 4164000   0.58525059   -9.5366114     438.8362 0.0087823448 0.0071052162         3954 
 4165000   0.58562757   -9.5451809    439.28653 0.0087892463 0.0071022534         3970 
 4166000   0.58056352   -9.5615164    438.30855 0.0087675738 0.0070992904         3973 
 4167000   0.58752515   -9.5576247    439.03273 0.0087799522 0.0070963308         3965 
 4168000   0.58931783   -9.5465736    439.36525  0.008784494 0.0070933729         3967 
 4169000   0.57369302   -9.5434182    438.93517   0.00877379 0.0070904181         3968 
 4170000   0.59146591   -9.5584814    438.10035  0.008755003 0.0070874644         3964 
 4171000   0.58828606   -9.5539413    438.28309 0.0087565551 0.0070845108         3969 
 4172000   0.59259859   -9.5524128    438.30512 0.0087548961 0.0070815611         3956 
 4173000   0.59949212   -9.5243167    439.03479 0.0087673694 0.0070786158         3969 
 4174000   0.58560213   -9.5386478    438.80156 0.0087606126 0.0070756668         3962 
 4175000   0.59131987   -9.5535002    439.12222 0.0087649146 0.0070727207         3965 
 4176000   0.58435262   -9.5413902    438.42982 0.0087489987  0.007069777         3972 
 4177000   0.58622085   -9.5402589    439.30536 0.0087643715 0.0070668333         3968 
 4178000    0.5893579   -9.5164528    438.71372  0.008750473 0.0070638936         3963 
 4179000   0.58483826   -9.5183068    438.76369 0.0087493756 0.0070609533         3963 
 4180000   0.58640782   -9.5428411     439.5587  0.008763132 0.0070580163         3966 
 4181000   0.59608457   -9.5698003    438.39851 0.0087379118 0.0070550814         3974 
 4182000   0.58163373   -9.5607042     438.6385 0.0087406046 0.0070521451         3965 
 4183000   0.59919088   -9.5318094    438.59275 0.0087376036 0.0070492134         3965 
 4184000   0.58610775   -9.5495658    438.58642 0.0087353891 0.0070462812         3974 
 4185000   0.56790392   -9.5258185    439.70017 0.0087554793 0.0070433492         3948 
 4186000   0.58599625   -9.5500968     438.4429 0.0087283584 0.0070404221         3949 
 4187000   0.58012748   -9.5426329    439.42333 0.0087457872 0.0070374952         3955 
 4188000   0.58476529   -9.5284516    439.20516 0.0087393577 0.0070345723         3967 
 4189000   0.57419544   -9.5379826    439.42207 0.0087415865 0.0070316471         3950 
 4190000   0.57399073   -9.5396027    439.23759 0.0087358311 0.0070287257         3956 
 4191000   0.58730474   -9.5531495    438.60927 0.0087212532 0.0070258065         3964 
 4192000   0.57942449   -9.5588858    439.08985 0.0087287263  0.007022888         3956 
 4193000   0.58888353   -9.5388808    439.41093 0.0087330259 0.0070199697         3961 
 4194000   0.57953122   -9.5269153    439.41903 0.0087311045 0.0070170562         3961 
 4195000   0.59750376   -9.5400414    438.88379 0.0087183907 0.0070141434         3963 
 4196000   0.57581976   -9.5542408    438.15772  0.008701893 0.0070112311         3950 
 4197000   0.56998602   -9.5574038    439.12111 0.0087189482 0.0070083214         3960 
 4198000    0.5866728   -9.5487667     438.8271 0.0087110351 0.0070054144         3961 
 4199000   0.57599845    -9.554305     438.8921 0.0087102504 0.0070025061         3960 
 4200000   0.56677903   -9.5460797    439.24192 0.0087151174 0.0069996023         3956 
 4201000   0.58532505   -9.5577936    438.66233 0.0087015459 0.0069966972         3950 
 4202000   0.58005446    -9.548079    438.95565 0.0087052921 0.0069937958         3964 
 4203000   0.56644596   -9.5527586    438.48543 0.0086938977 0.0069908947         3955 
 4204000     0.579632   -9.5311312     438.7515 0.0086971039 0.0069879957         3956 
 4205000   0.58618302   -9.5470808    438.64216 0.0086928689 0.0069850964         3969 
 4206000   0.57138622   -9.5717356    438.50499 0.0086880843 0.0069822009         3966 
 4207000   0.57225232   -9.5447438    437.55382  0.008667178 0.0069793044         3967 
 4208000   0.57458245   -9.5599181    438.58364 0.0086855124   0.00697641         3966 
 4209000   0.57150051   -9.5512623     438.6778 0.0086853132 0.0069735179         3966 
 4210000    0.5770332   -9.5673924    438.63699 0.0086824424 0.0069706274         3961 
 4211000   0.58146932   -9.5669389    438.02112 0.0086681928 0.0069677402         3974 
 4212000   0.58274952   -9.5352652    438.35436 0.0086727279  0.006964852         3958 
 4213000   0.58550714   -9.5653283    438.80243 0.0086795322 0.0069619667         3967 
 4214000   0.57684533   -9.5590023     437.8485 0.0086586082 0.0069590809         3967 
 4215000   0.58338327   -9.5298712    439.37574 0.0086867485 0.0069561993         3975 
 4216000   0.58936631   -9.5390385    439.41911 0.0086855453 0.0069533222         3959 
 4217000   0.56857942   -9.5591833    438.39847 0.0086633166  0.006950444         3965 
 4218000    0.5723609    -9.547171    438.98592 0.0086728687 0.0069475689         3958 
 4219000   0.57900634   -9.5669432    438.89192 0.0086689563 0.0069446954         3964 
 4220000   0.57523243   -9.5680689    438.67359 0.0086625906 0.0069418214         3952 
 4221000   0.57800121   -9.5476037    439.04722 0.0086679147  0.006938949         3964 
 4222000   0.59214748   -9.5586538    437.98221 0.0086448407 0.0069360785         3962 
 4223000   0.57261471   -9.5490672    438.29228 0.0086489124 0.0069332075         3960 
 4224000   0.59183386   -9.5443798     439.1804  0.008664386 0.0069303436         3975 
 4225000   0.58241104   -9.5477531    439.34048 0.0086654927  0.006927481         3961 
 4226000   0.57372358    -9.563871    439.02004 0.0086571233 0.0069246173         3954 
 4227000   0.57002515   -9.5508857    437.45135 0.0086241494 0.0069217542         3958 
 4228000   0.56960223   -9.5668503    438.56284 0.0086440169 0.0069188925         3956 
 4229000   0.57333672   -9.5327696    439.70747  0.008664528 0.0069160356         3963 
 4230000    0.5778914   -9.5498601    438.25574 0.0086338798 0.0069131795         3965 
 4231000   0.58330954   -9.5362071    438.82961 0.0086431421 0.0069103256         3962 
 4232000   0.57303646   -9.5621118    438.93673  0.008643209 0.0069074734         3965 
 4233000   0.56565717   -9.5491114    438.77843 0.0086380508 0.0069046192         3955 
 4234000   0.58884791   -9.5611569    438.68188 0.0086341103 0.0069017689         3969 
 4235000   0.57931352   -9.5560221    438.58576 0.0086301802 0.0068989205         3954 
 4236000   0.57321374   -9.5574638    438.28176 0.0086221624 0.0068960728         3966 
 4237000   0.57335442   -9.5551231    438.61204 0.0086266234  0.006893229         3968 
 4238000   0.57678468   -9.5736691    438.53574 0.0086230875 0.0068903853         3967 
 4239000   0.56514903   -9.5435475    437.77438  0.008606086 0.0068875429         3959 
 4240000   0.56816122   -9.5551024    439.38149 0.0086356424 0.0068847028         3957 
 4241000    0.5780129    -9.556116    439.04218 0.0086269391 0.0068818628         3954 
 4242000   0.58104772   -9.5492786    438.86644 0.0086214529 0.0068790255         3960 
 4243000   0.58327921   -9.5499893    438.34728 0.0086092245 0.0068761893         3971 
 4244000   0.56330489    -9.553996    438.64779 0.0086130968 0.0068733558         3960 
 4245000   0.56993174   -9.5647938    438.30179 0.0086042753  0.006870521         3967 
 4246000    0.5569217   -9.5391774    437.88929  0.008594153  0.006867687         3964 
 4247000   0.57799662   -9.5825496    437.72368   0.00858888 0.0068648564         3967 
 4248000   0.56550833    -9.575653    438.78621 0.0086077018  0.006862027         3969 
 4249000   0.56607867   -9.5577515    438.77822 0.0086055193 0.0068591995         3961 
 4250000   0.56903277   -9.5517546    438.93979 0.0086066626 0.0068563733         3962 
 4251000    0.5632717   -9.5430529    438.64862 0.0085989301 0.0068535478         3957 
 4252000   0.56955651   -9.5606972    438.80513 0.0085999751 0.0068507247         3957 
 4253000   0.58116814   -9.5559363    438.57191 0.0085933832 0.0068479049         3956 
 4254000   0.57192196   -9.5629544    438.56154 0.0085911601 0.0068450866         3963 
 4255000   0.57351261   -9.5743982    438.04976 0.0085791179 0.0068422686         3961 
 4256000    0.5658603    -9.551851    438.61518 0.0085881733 0.0068394516         3973 
 4257000   0.57210202   -9.5634942    437.75413 0.0085693001 0.0068366384         3975 
 4258000   0.56475904   -9.5698755    438.91395 0.0085899866 0.0068338244         3963 
 4259000   0.57142053   -9.5919259    438.18313 0.0085736701  0.006831012         3964 
 4260000   0.56936025   -9.5659239     438.7674 0.0085830868  0.006828202         3973 
 4261000   0.56982194   -9.5384465    438.07047 0.0085674425 0.0068253927         3952 
 4262000   0.56934139   -9.5555034    438.82112 0.0085801094 0.0068225844         3961 
 4263000   0.58133784   -9.5679073    438.47404 0.0085713121 0.0068197774         3970 
 4264000   0.57581913   -9.5867663    438.37242 0.0085673158 0.0068169741         3964 
 4265000   0.57392286   -9.5487794    438.94978 0.0085765881 0.0068141737         3973 
 4266000   0.57679679   -9.5605981    438.44356 0.0085646891 0.0068113743         3971 
 4267000   0.55663228   -9.5665375    437.93854 0.0085528189 0.0068085741         3954 
 4268000   0.56456564   -9.5577841    438.25172 0.0085569299 0.0068057747         3980 
 4269000    0.5740018   -9.5487463    438.92934  0.008568153 0.0068029778         3952 
 4270000   0.56332949     -9.58601    438.02978 0.0085485905 0.0068001823         3966 
 4271000   0.55907593   -9.5755039    438.16723 0.0085492708 0.0067973865         3956 
 4272000   0.56156768   -9.5612972    439.18997   0.00856722  0.006794594         3970 
 4273000    0.5791739    -9.564437    438.82462   0.00855809 0.0067918041         3956 
 4274000   0.55579678   -9.5680753    438.29311 0.0085457243 0.0067890125         3964 
 4275000   0.57166242   -9.5724758    438.00888 0.0085381847 0.0067862262         3968 
 4276000   0.56340326   -9.5809907     438.8433 0.0085524496 0.0067834405         3961 
 4277000   0.56268643   -9.5635054    437.86612 0.0085314106 0.0067806565         3969 
 4278000   0.55651933   -9.5620442      438.983 0.0085511726 0.0067778741         3963 
 4279000   0.57285198    -9.568043    438.38981 0.0085376219 0.0067750916         3969 
 4280000   0.56839028   -9.5750227    438.07467 0.0085294912 0.0067723102         3964 
 4281000   0.58684706   -9.5601318    438.02269 0.0085264869 0.0067695312         3963 
 4282000   0.57639188   -9.5687127    437.87514 0.0085216241  0.006766755         3968 
 4283000   0.57266492   -9.5770686    438.64249 0.0085345647 0.0067639802         3958 
 4284000   0.56962095   -9.5532868    438.27599 0.0085254433 0.0067612066         3971 
 4285000   0.57751905   -9.5662245    438.14664 0.0085209382 0.0067584369         3960 
 4286000   0.56828329   -9.5662303    438.50521 0.0085259218  0.006755667         3968 
 4287000    0.5615591    -9.554424    439.04588  0.008534443 0.0067529001         3964 
 4288000   0.56658348   -9.5694602    438.00465 0.0085122172 0.0067501309         3968 
 4289000    0.5722703   -9.5660803    438.52464 0.0085203357 0.0067473663         3959 
 4290000   0.55976154   -9.5739922    438.29183 0.0085138273 0.0067446021         3959 
 4291000   0.56055047   -9.5787854    437.82743 0.0085028242 0.0067418396         3965 
 4292000   0.55442149   -9.5557818    438.78593 0.0085194534 0.0067390785         3963 
 4293000   0.56093744   -9.5837757    438.41616 0.0085102912 0.0067363183         3972 
 4294000   0.56830616   -9.5628715    437.79388 0.0084962327 0.0067335591         3959 
 4295000   0.56132611   -9.5601391    438.18392 0.0085018223 0.0067308044         3955 
 4296000   0.55725238   -9.5648719    438.63417 0.0085085771 0.0067280505         3956 
 4297000   0.55576971   -9.5609836    438.63684 0.0085066489 0.0067252997         3968 
 4298000    0.5639353   -9.5630169    438.76456 0.0085071459 0.0067225468         3964 
 4299000   0.56092108   -9.5622892    437.85042 0.0084874471 0.0067197982         3962 
 4300000   0.55999656   -9.5638085     438.3899 0.0084959284 0.0067170499         3975 
 4301000    0.5578123   -9.5641968    437.76595 0.0084818637 0.0067143022         3958 
 4302000   0.56637269   -9.5608675    438.17939 0.0084879007 0.0067115578         3966 
 4303000   0.55678521   -9.5780736    438.19558 0.0084862419 0.0067088112         3975 
 4304000   0.56515074   -9.5733145    437.30584  0.008467043 0.0067060703         3961 
 4305000    0.5676317   -9.5623662    438.45465 0.0084873142 0.0067033303         3961 
 4306000   0.56683425   -9.5697148    438.85037 0.0084930014 0.0067005915         3953 
 4307000   0.55586321   -9.5731886    438.31911 0.0084807506 0.0066978523         3967 
 4308000   0.56778986   -9.5650513     438.1427 0.0084753694 0.0066951156         3964 
 4309000   0.56976917   -9.5796121    438.01414 0.0084709163 0.0066923789         3954 
 4310000   0.55807945   -9.5876534    437.56262 0.0084602208 0.0066896445         3956 
 4311000   0.55333555   -9.5840429    438.00586 0.0084668263   0.00668691         3961 
 4312000   0.55631093    -9.566076    438.24023 0.0084693923 0.0066841799         3971 
 4313000   0.56277054   -9.5823023    438.40017 0.0084705188 0.0066814521         3973 
 4314000   0.55639603   -9.5690466     437.6969 0.0084549703 0.0066787242         3949 
 4315000   0.55508542   -9.5762628    438.15725 0.0084619013 0.0066759988         3942 
 4316000   0.56054509   -9.5568189    438.51972 0.0084669393 0.0066732734         3955 
 4317000   0.55217537   -9.5799736    438.09085 0.0084566993  0.006670551         3966 
 4318000   0.55920554   -9.5605705    437.45054 0.0084423834 0.0066678296         3976 
 4319000   0.56334454   -9.5659609    438.13685 0.0084536708  0.006665108         3951 
 4320000   0.56138904   -9.6010296    437.80022 0.0084452203 0.0066623887         3970 
 4321000   0.54998267   -9.5810132    437.45247 0.0084365592 0.0066596699         3954 
 4322000    0.5674205   -9.5814398    438.29663 0.0084508837 0.0066569523         3956 
 4323000   0.55996393   -9.5942302    437.21684 0.0084281139 0.0066542384         3960 
 4324000   0.56188578   -9.5627771     437.3879 0.0084294615 0.0066515254         3960 
 4325000   0.55911345   -9.5759058    438.44642 0.0084479079 0.0066488122         3967 
 4326000   0.55360275    -9.564446    437.76498 0.0084328283 0.0066461023         3965 
 4327000   0.56477629   -9.5769406    437.68127 0.0084292672  0.006643392         3961 
 4328000   0.56992068   -9.5677633    438.69162 0.0084467734 0.0066406863         3958 
 4329000   0.55893209   -9.5822094    438.87128 0.0084482805 0.0066379822         3965 
 4330000   0.55607269   -9.5783932    437.86685 0.0084269986 0.0066352784         3972 
 4331000    0.5491274   -9.5723336    438.61535 0.0084394548 0.0066325767         3957 
 4332000   0.55667937   -9.5798428    437.29522 0.0084121117 0.0066298756         3964 
 4333000   0.56836946   -9.5831537     437.5485 0.0084150416 0.0066271748         3960 
 4334000   0.57566696   -9.5596361    438.71529 0.0084355347 0.0066244784         3965 
 4335000   0.55895111   -9.5608509    437.41484 0.0084085899 0.0066217823         3968 
 4336000   0.55569436    -9.590459    438.06579 0.0084191612 0.0066190857         3963 
 4337000   0.56263572   -9.5504773     438.2212 0.0084202059 0.0066163932         3959 
 4338000   0.55851674   -9.5998672    437.76383 0.0084094787 0.0066137016         3967 
 4339000   0.55724315   -9.5736516    437.96698 0.0084114423 0.0066110096         3965 
 4340000   0.53978962    -9.582753    437.69958 0.0084043699 0.0066083188         3961 
 4341000   0.55512725   -9.5799938    437.92937 0.0084068449 0.0066056318         3956 
 4342000   0.55295996   -9.5705569     437.9801 0.0084058825 0.0066029437         3970 
 4343000   0.55568746   -9.5701803      437.928 0.0084029473 0.0066002611         3971 
 4344000   0.56735218   -9.5884606    438.01776 0.0084027347  0.006597579         3962 
 4345000   0.55595693   -9.5935623    437.81067 0.0083968292 0.0065948963         3976 
 4346000   0.55462621   -9.5852208    438.22681 0.0084028765 0.0065922148         3963 
 4347000    0.5511777   -9.5736887    437.71919 0.0083912121 0.0065895381         3961 
 4348000   0.55585216   -9.5905611    438.18818 0.0083982709 0.0065868617         3961 
 4349000   0.55600038   -9.5799251    437.75816    0.0083881 0.0065841861         3966 
 4350000   0.55299045   -9.5684488     437.6756 0.0083845901 0.0065815118         3966 
 4351000   0.56545437   -9.6022285    437.65777 0.0083823214 0.0065788402         3974 
 4352000   0.54774675   -9.5846716    437.62515 0.0083797708  0.006576171         3966 
 4353000   0.55728134   -9.5858255    438.58766  0.008396272 0.0065734996         3960 
 4354000   0.54744592   -9.5712609    438.10651 0.0083851345 0.0065708299         3967 
 4355000   0.55862449   -9.5780964     438.5899 0.0083924589 0.0065681644         3967 
 4356000   0.55978966   -9.5630642     438.3135 0.0083852444 0.0065654998         3968 
 4357000     0.575087   -9.5823087    438.23922 0.0083818993 0.0065628381         3968 
 4358000   0.56276398   -9.5847518    437.57059 0.0083671904 0.0065601741         3971 
 4359000   0.54488659   -9.5737893    437.98911  0.008373272 0.0065575129         3968 
 4360000   0.56078019   -9.5884777    436.68456 0.0083464175 0.0065548543         3962 
 4361000   0.55562393   -9.5757662    438.10222 0.0083715934 0.0065521963         3967 
 4362000   0.55464602   -9.5743323    438.09957 0.0083696235 0.0065495399         3960 
 4363000   0.56954926   -9.5947713    437.81369 0.0083622447 0.0065468834         3966 
 4364000   0.56652174   -9.5721485    438.23414 0.0083683575  0.006544232         3962 
 4365000   0.55429729   -9.5951172    438.10181 0.0083639138 0.0065415802         3956 
 4366000    0.5492064    -9.585991    437.31268 0.0083469361 0.0065389294         3970 
 4367000   0.56301573    -9.597115    437.57585 0.0083500468 0.0065362817         3955 
 4368000   0.56378467   -9.6006138    438.07039   0.00835757 0.0065336325         3967 
 4369000   0.55536202   -9.5874423    437.10234 0.0083371926 0.0065309851         3966 
 4370000   0.55412416   -9.5917558    438.04405 0.0083532428 0.0065283414         3970 
 4371000   0.55022857    -9.588056    438.40431 0.0083582001 0.0065256962         3964 
 4372000   0.56331779   -9.5930924    437.52084 0.0083394488 0.0065230528         3974 
 4373000   0.55502588   -9.5885416    437.84526  0.008343724 0.0065204124         3974 
 4374000   0.55053096   -9.5859399    437.69177 0.0083388921  0.006517774         3968 
 4375000    0.5599612   -9.5874249    436.96114 0.0083230694 0.0065151367         3959 
 4376000   0.54999579   -9.6096749    437.60919 0.0083335084 0.0065124992         3971 
 4377000   0.56153076   -9.5990313    438.11677 0.0083412682 0.0065098641         3971 
 4378000   0.55274209   -9.5830258    437.57099 0.0083289742 0.0065072309         3970 
 4379000   0.55501796   -9.5953295    436.72214 0.0083109185 0.0065045995         3964 
 4380000   0.55650631   -9.5744102    438.00876    0.0083335 0.0065019694         3967 
 4381000   0.56228491   -9.5887431    437.14752 0.0083152157 0.0064993396         3974 
 4382000   0.54743598   -9.5952841    437.59123 0.0083217562 0.0064967111         3965 
 4383000   0.55248188   -9.5966442    438.70436 0.0083410214 0.0064940846         3971 
 4384000   0.54997349   -9.5851604    437.25059 0.0083114848 0.0064914593         3957 
 4385000   0.54913351   -9.5938298    438.28831 0.0083293103 0.0064888364         3965 
 4386000   0.55894769   -9.5990935    437.63381 0.0083149758 0.0064862113         3973 
 4387000   0.55225257   -9.5910502    437.87007 0.0083175684 0.0064835923         3977 
 4388000   0.56117067   -9.5759884    438.07641 0.0083195915 0.0064809741         3959 
 4389000   0.54656885   -9.5926748    437.12201 0.0082995749 0.0064783576         3981 
 4390000   0.55280631   -9.5983133    437.57754 0.0083063315 0.0064757406         3967 
 4391000   0.54032215   -9.5963543    437.89706 0.0083105036 0.0064731264         3972 
 4392000   0.54375185   -9.5877377    437.70966 0.0083050557 0.0064705122         3964 
 4393000   0.55026433    -9.587973    438.03254 0.0083092901  0.006467897         3969 
 4394000   0.55551746   -9.5972261    437.20728 0.0082917479  0.006465286         3961 
 4395000   0.55001922    -9.584788    437.61401 0.0082975731 0.0064626795         3965 
 4396000   0.54609152   -9.5840172    437.66674 0.0082966852 0.0064600696         3973 
 4397000   0.54281784   -9.5865453     437.7145 0.0082957035 0.0064574616         3971 
 4398000   0.53024594   -9.5984445    437.87318  0.008296824 0.0064548558         3967 
 4399000   0.54511448   -9.6008915    438.21049 0.0083013278 0.0064522526         3963 
 4400000   0.56252501   -9.5856885    438.05342 0.0082964663 0.0064496487         3967 
 4401000   0.53784357   -9.5925365    437.89025 0.0082914914 0.0064470479         3972 
 4402000    0.5411312   -9.6055369    437.39574 0.0082802465 0.0064444478         3965 
 4403000   0.53994791   -9.5961277    437.76293 0.0082853155 0.0064418512         3974 
 4404000   0.54893115   -9.6039054    437.96648 0.0082872858 0.0064392547         3966 
 4405000   0.54484765   -9.5962421    437.92614 0.0082846414 0.0064366615         3966 
 4406000   0.54895739   -9.6073216    436.87539 0.0082628875  0.006434067         3969 
 4407000   0.54044252   -9.5958835    437.68921 0.0082764013 0.0064314749         3958 
 4408000    0.5328892   -9.5971217    436.75115 0.0082567897 0.0064288815         3970 
 4409000   0.53857539   -9.5980808    437.67072 0.0082722976  0.006426293         3967 
 4410000   0.55951177   -9.5957396    437.98008 0.0082762675 0.0064237075         3968 
 4411000    0.5643118   -9.5944467    437.89064 0.0082727016 0.0064211222         3968 
 4412000   0.54755769   -9.5999751    438.15098 0.0082757439 0.0064185383         3962 
 4413000   0.54226424   -9.6010046    437.25155  0.008256884 0.0064159553         3950 
 4414000   0.54406385   -9.5972981    437.81812 0.0082657098 0.0064133748         3967 
 4415000   0.54862075   -9.6026102    437.88495 0.0082650991 0.0064107939         3959 
 4416000    0.5421749   -9.6020241    437.27207  0.008251662 0.0064082146         3971 
 4417000   0.54601397   -9.5990413    436.84564 0.0082417485 0.0064056385         3975 
 4418000   0.55264843   -9.6049311    437.61982 0.0082544858 0.0064030616         3970 
 4419000   0.55013265   -9.6051197    437.34408  0.008247418 0.0064004857         3955 
 4420000   0.55306332   -9.5994628    437.41383  0.008246867 0.0063979122         3972 
 4421000   0.55604082    -9.589932    437.49783  0.008246585 0.0063953409         3965 
 4422000   0.54755516   -9.5940446    437.20235 0.0082391519 0.0063927705         3962 
 4423000   0.54143069   -9.6104355    437.55112 0.0082438601 0.0063902006         3965 
 4424000    0.5304799   -9.6035818    437.03801 0.0082323314  0.006387632         3970 
 4425000   0.54095975   -9.5902989     438.0755 0.0082500094 0.0063850654         3962 
 4426000   0.54214068   -9.6078441     438.1635 0.0082498022 0.0063824984         3973 
 4427000   0.54147133   -9.6078621    437.00332 0.0082260997  0.006379936         3973 
 4428000   0.55107006   -9.5885041    437.23211 0.0082285477 0.0063773721         3964 
 4429000   0.54465139   -9.5979521     437.4656  0.008231083 0.0063748117         3978 
 4430000    0.5282639    -9.581707    437.80612 0.0082356306 0.0063722521         3976 
 4431000   0.54127087    -9.608066    437.33594 0.0082249293  0.006369694         3968 
 4432000   0.54560915   -9.5977979    438.04435 0.0082363934 0.0063671384         3966 
 4433000   0.53765425   -9.6093565    437.52658 0.0082248023 0.0063645841         3967 
 4434000   0.54180578   -9.6015759     437.1356 0.0082155992 0.0063620302         3964 
 4435000   0.54695279   -9.6047009    437.57182 0.0082219432 0.0063594787         3970 
 4436000   0.53329561   -9.6158145    438.05739 0.0082292117 0.0063569302         3978 
 4437000   0.54288889   -9.5841162    437.30161 0.0082131622 0.0063543808         3971 
 4438000   0.53615881   -9.6102542     437.7661 0.0082200335 0.0063518337         3976 
 4439000     0.536687   -9.6011344    437.81964 0.0082191867 0.0063492862         3969 
 4440000   0.54240065   -9.6041644    437.89151 0.0082186845 0.0063467409         3975 
 4441000   0.53928191   -9.6124922    437.34625 0.0082066022 0.0063441963         3973 
 4442000    0.5443477   -9.6073752    437.14826 0.0082010404 0.0063416544         3971 
 4443000   0.54330603   -9.6125175    438.05493 0.0082162002 0.0063391127         3967 
 4444000   0.53430862   -9.5933397    437.28139  0.008199846 0.0063365717         3969 
 4445000   0.54204613   -9.6059309    437.87353 0.0082091026 0.0063340324         3965 
 4446000   0.53884385   -9.5893816     436.8042 0.0081872133 0.0063314935         3969 
 4447000   0.53802539   -9.5972759    437.38068 0.0081961749 0.0063289562         3967 
 4448000   0.55431692   -9.6177891    437.14469  0.008189911 0.0063264228         3978 
 4449000   0.53636235    -9.603675    436.80873 0.0081817774 0.0063238906         3975 
 4450000   0.53460245   -9.5973497     437.6811 0.0081962752 0.0063213609         3959 
 4451000   0.53298553   -9.6197978    437.14614 0.0081844181 0.0063188287         3970 
 4452000   0.54928817   -9.6095794    437.06651 0.0081810893 0.0063162963         3969 
 4453000   0.53816646   -9.6173179    437.42018 0.0081858707 0.0063137673         3962 
 4454000    0.5379746   -9.6217475    437.69061 0.0081890923 0.0063112396         3974 
 4455000   0.53966326   -9.6081806    437.43255  0.008182427  0.006308715         3967 
 4456000   0.54126733   -9.6354448    437.20688 0.0081763704 0.0063061907         3969 
 4457000   0.53869886   -9.5980237     437.3113 0.0081764882 0.0063036691         3966 
 4458000   0.54806748   -9.5975961    437.88862  0.008185446 0.0063011484         3960 
 4459000     0.533594   -9.6001626    438.24991 0.0081903625 0.0062986301         3964 
 4460000   0.54203011   -9.6055803     437.2983 0.0081707455 0.0062961127         3974 
 4461000   0.54291927   -9.6101596     437.3821 0.0081704793 0.0062935942         3979 
 4462000   0.54495161   -9.6028525    437.43202 0.0081695805 0.0062910778         3969 
 4463000   0.53325334   -9.6056077    437.42612 0.0081676399 0.0062885652         3968 
 4464000   0.53180715   -9.6091346    437.07735 0.0081592994 0.0062860521         3972 
 4465000   0.52560341   -9.6217172    437.35687 0.0081626888 0.0062835386         3977 
 4466000   0.53881595   -9.5956029    437.62499 0.0081658641 0.0062810271         3966 
 4467000   0.53624995   -9.6013745    438.18197 0.0081744268 0.0062785203         3971 
 4468000   0.53219008     -9.60999    437.97081 0.0081686589 0.0062760128         3966 
 4469000   0.54750218   -9.5999767    437.16829 0.0081518663 0.0062735064         3970 
 4470000   0.54319643    -9.615135    437.29381 0.0081523827 0.0062710035         3976 
 4471000   0.53103367   -9.6000075    437.03094 0.0081456599 0.0062685004         3964 
 4472000   0.54669429     -9.61842    436.86779 0.0081407981 0.0062659995         3972 
 4473000   0.52577684   -9.6163739    436.67751 0.0081354331 0.0062634964         3968 
 4474000   0.53783382   -9.6144989    437.06077 0.0081407534 0.0062609954         3974 
 4475000   0.53525891   -9.6119807    436.98775 0.0081375745 0.0062584989         3969 
 4476000   0.53481363   -9.6014068    437.76776 0.0081502786 0.0062560026         3968 
 4477000   0.53187854    -9.610549    437.16285 0.0081371985  0.006253507         3968 
 4478000   0.54037014   -9.6122746    437.20931 0.0081362459 0.0062510113         3966 
 4479000   0.52270193   -9.6251963    437.31136  0.008136328 0.0062485174         3974 
 4480000   0.53029186   -9.6154947    437.64652 0.0081407463 0.0062460253         3973 
 4481000   0.54913085   -9.6115138     437.7042 0.0081400023 0.0062435349         3954 
 4482000   0.54945979   -9.6134412    437.91818 0.0081421646 0.0062410475         3967 
 4483000   0.53287567   -9.6212129    438.33485 0.0081480938 0.0062385596         3956 
 4484000   0.53682112    -9.594395     436.9584 0.0081206958 0.0062360731         3964 
 4485000   0.54435711   -9.6083378    437.50619 0.0081290634 0.0062335887         3967 
 4486000   0.52636348    -9.615773    437.20578 0.0081216707 0.0062311056         3960 
 4487000   0.53867194   -9.6079603    437.27673 0.0081211783 0.0062286242         3969 
 4488000   0.53400226    -9.627942    437.38178 0.0081213194 0.0062261434         3961 
 4489000   0.53272418   -9.6101647    437.74708 0.0081262917 0.0062236651         3970 
 4490000   0.53525717   -9.6099194    437.42243 0.0081184563 0.0062211857         3964 
 4491000   0.53993436   -9.6243046    437.80444 0.0081237372 0.0062187094         3975 
 4492000    0.5458017   -9.6139103    437.17327 0.0081102194 0.0062162354         3969 
 4493000   0.53532464   -9.6363803     437.4555 0.0081136491 0.0062137617         3964 
 4494000    0.5332583   -9.6195008    437.67703 0.0081159515 0.0062112885         3968 
 4495000   0.52593164   -9.6078483    437.62177 0.0081131214  0.006208817         3965 
 4496000   0.53183467    -9.623872    437.41443 0.0081074738 0.0062063462         3971 
 4497000   0.53571334   -9.6272385    436.96654 0.0080973712 0.0062038764         3963 
 4498000    0.5349889    -9.615511    437.50372 0.0081055232 0.0062014078         3978 
 4499000    0.5341585   -9.6140983    437.27372 0.0080994615  0.006198943         3975 
 4500000   0.54545474   -9.6382217    436.90835 0.0080908953 0.0061964776         3974 
 4501000   0.53594699   -9.6179747    437.59356  0.008101784 0.0061940149         3966 
 4502000   0.53343788   -9.6219223    436.45003 0.0080788174 0.0061915532         3970 
 4503000   0.53411918   -9.6278351    437.17934   0.00809052 0.0061890923         3974 
 4504000   0.52956178   -9.6360582    437.16125  0.008088389 0.0061866342         3970 
 4505000    0.5318038   -9.6031181    437.56303 0.0080940257 0.0061841755         3961 
 4506000   0.54474948   -9.6199507     437.3424 0.0080881492 0.0061817202         3954 
 4507000   0.53073614   -9.6423433    436.61817 0.0080729638 0.0061792631         3967 
 4508000   0.53578005   -9.6182433    437.39436 0.0080855213 0.0061768085         3978 
 4509000   0.53398218   -9.6124393    438.32947 0.0081010104 0.0061743572         3965 
 4510000   0.52798126   -9.6271178    437.71893 0.0080879329 0.0061719059         3966 
 4511000   0.52756479   -9.6298492    437.38326 0.0080799391 0.0061694575         3962 
 4512000   0.53601744    -9.624951    437.09708 0.0080728627 0.0061670092         3970 
 4513000   0.54046343   -9.6158803    437.74921 0.0080831156 0.0061645622         3971 
 4514000    0.5255422   -9.6282743    438.18745 0.0080894153 0.0061621162         3974 
 4515000   0.52373104   -9.6242185     436.8529 0.0080629919  0.006159671         3962 
 4516000   0.52225747   -9.6176832    437.11054 0.0080659607 0.0061572277         3970 
 4517000   0.52974875   -9.6074636    436.94804 0.0080611771 0.0061547876         3970 
 4518000   0.52771147   -9.6253508    437.08119 0.0080618487 0.0061523467         3970 
 4519000   0.53712191   -9.6454037    437.05107 0.0080595092 0.0061499062         3965 
 4520000   0.52780655   -9.6266595    437.12053 0.0080590068 0.0061474693         3970 
 4521000   0.51675616   -9.6312375    437.45243  0.008063342  0.006145032         3977 
 4522000   0.52473712   -9.6231738    437.31987 0.0080591161 0.0061425962         3969 
 4523000   0.53335391   -9.6347014    436.65804 0.0080451404  0.006140163         3971 
 4524000   0.52653405   -9.6199404    436.77919 0.0080455937 0.0061377302         3970 
 4525000   0.51996285   -9.6355789    437.38976 0.0080550601 0.0061352983         3968 
 4526000   0.53857025   -9.6314716    437.53264 0.0080559111 0.0061328675         3973 
 4527000   0.52475896   -9.6190204    437.54308 0.0080543237 0.0061304391         3974 
 4528000   0.53115028   -9.6235827    437.37345  0.008049423 0.0061280101         3973 
 4529000   0.52096255   -9.6086482    436.82459 0.0080375467 0.0061255831         3965 
 4530000   0.53298411   -9.6334927    436.23846   0.00802499 0.0061231593         3972 
 4531000   0.52405738   -9.6183274    437.69174 0.0080499473 0.0061207361         3979 
 4532000   0.52880225   -9.6435385    437.31101 0.0080411705 0.0061183125         3963 
 4533000   0.53330342   -9.6059337    437.34823 0.0080400808 0.0061158916         3976 
 4534000   0.52856792   -9.6075476    437.18315 0.0080352733 0.0061134729         3964 
 4535000   0.53035305   -9.6219524    437.30746 0.0080357858 0.0061110554         3978 
 4536000   0.52971077   -9.6236581    437.29664 0.0080338154 0.0061086383         3977 
 4537000   0.53922559   -9.6179703    437.33684  0.008032783 0.0061062227         3964 
 4538000   0.53469749   -9.6251059    437.12414  0.008027107 0.0061038088         3965 
 4539000   0.52707746   -9.6336587    437.13042 0.0080254538 0.0061013929         3965 
 4540000   0.52523835   -9.6210761    436.80023 0.0080176254 0.0060989799         3968 
 4541000   0.52666526    -9.607776    437.11631 0.0080216602 0.0060965699         3965 
 4542000   0.51063954    -9.621212    437.11464 0.0080198634 0.0060941596         3974 
 4543000   0.53104159   -9.5997018    436.82009 0.0080126952 0.0060917517         3971 
 4544000   0.53027668   -9.6218824      437.179  0.008017514 0.0060893447         3973 
 4545000    0.5221149   -9.6342217    436.98384 0.0080121717 0.0060869407         3967 
 4546000   0.53184002   -9.6247497    436.76019 0.0080063094 0.0060845356         3974 
 4547000   0.52830661   -9.6374183    437.58309   0.00801963 0.0060821325         3965 
 4548000   0.52412922   -9.6416481    437.41749 0.0080148324  0.006079731         3962 
 4549000   0.52370813   -9.6321867    436.53281  0.007996864 0.0060773301         3968 
 4550000   0.52286717   -9.6372188    436.92107 0.0080022175 0.0060749328         3966 
 4551000   0.52765641   -9.6505355    437.20704 0.0080056954  0.006072535         3960 
 4552000   0.53313217    -9.618892    436.62385 0.0079932604 0.0060701381         3971 
 4553000   0.53204492   -9.6360169    436.51453 0.0079895039 0.0060677424         3970 
 4554000   0.52419857   -9.6428594    437.12878 0.0079989896 0.0060653497         3972 
 4555000   0.51387168   -9.6278007    436.89354 0.0079929297 0.0060629553         3966 
 4556000   0.53386768   -9.6368913    437.03512  0.007993765 0.0060605638         3970 
 4557000   0.51952996   -9.6254497    436.91014 0.0079897253 0.0060581727         3975 
 4558000   0.51747218   -9.6306356    436.86938 0.0079872273 0.0060557844         3965 
 4559000   0.52854781   -9.6322659    436.55571 0.0079797418 0.0060533941         3980 
 4560000   0.52082878   -9.6204801    437.37625 0.0079929871 0.0060510048         3970 
 4561000    0.5221825    -9.618178    436.69431 0.0079787749 0.0060486178         3966 
 4562000   0.51105305   -9.6320346    437.30265 0.0079881385  0.006046234         3961 
 4563000    0.5227392   -9.6332812    436.76339 0.0079765393   0.00604385         3972 
 4564000   0.51995298   -9.6453661    436.91303 0.0079775238 0.0060414676         3960 
 4565000   0.52070406   -9.6183925    436.62357 0.0079704923 0.0060390851         3970 
 4566000    0.5252839   -9.6187691    437.27711 0.0079806743  0.006036707         3963 
 4567000   0.51109164   -9.6266242    437.34333 0.0079801353  0.006034328         3953 
 4568000   0.51405282   -9.6332455    436.90527 0.0079703968 0.0060319519         3967 
 4569000   0.52969797   -9.6302682    436.80367 0.0079667992 0.0060295774         3959 
 4570000   0.52581772   -9.6396072    437.22918 0.0079728151 0.0060272035         3962 
 4571000   0.51998556   -9.6086516    436.51129 0.0079579831 0.0060248307         3974 
 4572000   0.51626352    -9.626297    437.03479 0.0079657844 0.0060224585         3966 
 4573000   0.52269533   -9.6331339    436.74576 0.0079587754  0.006020088         3971 
 4574000   0.52023362   -9.6316365    437.09729   0.00796344 0.0060177169         3974 
 4575000   0.51030057   -9.6195267    437.22727 0.0079640669 0.0060153482         3971 
 4576000   0.52362973   -9.6295455    437.10886   0.00796017 0.0060129804         3968 
 4577000   0.52528063    -9.636943    437.14369 0.0079590651 0.0060106157         3964 
 4578000   0.51863139   -9.6360506    436.57152 0.0079469113 0.0060082499         3973 
 4579000   0.50936443   -9.6475712    437.02649 0.0079534558  0.006005887         3968 
 4580000   0.53370833   -9.6331677    436.57459 0.0079434969 0.0060035256         3972 
 4581000   0.52834395   -9.6416458    436.88283 0.0079473701 0.0060011654         3964 
 4582000    0.5110422   -9.6336015    437.08441 0.0079493018 0.0059988047         3968 
 4583000   0.53262228   -9.6405108    437.16935 0.0079491118 0.0059964482         3971 
 4584000   0.52302626   -9.6305021    436.35075 0.0079324962 0.0059940908         3976 
 4585000   0.51981106   -9.6372298    436.41093 0.0079318599 0.0059917349         3973 
 4586000   0.52165489   -9.6447888    436.25353 0.0079272702 0.0059893805         3966 
 4587000   0.52113054   -9.6332551    436.49491 0.0079299272 0.0059870277         3967 
 4588000   0.52281306   -9.6273937    436.68475 0.0079316469 0.0059846752         3961 
 4589000   0.51524772   -9.6267264    436.57406 0.0079279085 0.0059823242         3969 
 4590000   0.51810764   -9.6310228    436.84914 0.0079311754 0.0059799739         3971 
 4591000   0.52236098   -9.6419091    436.46143 0.0079224103 0.0059776263         3966 
 4592000      0.52729   -9.6294561    436.77887 0.0079264459 0.0059752812         3964 
 4593000   0.52415841   -9.6485367    436.26084 0.0079153211 0.0059729363         3966 
 4594000   0.51874587   -9.6477531    436.81821 0.0079237086 0.0059705909         3977 
 4595000   0.50469556   -9.6410739    437.61142 0.0079363695 0.0059682475         3974 
 4596000   0.51852029   -9.6538534    436.46789 0.0079139087  0.005965906         3964 
 4597000   0.51839782   -9.6425316    436.57312 0.0079140947 0.0059635652         3961 
 4598000    0.5140048   -9.6310293    436.67057 0.0079141397 0.0059612278         3965 
 4599000   0.51010533   -9.6469514    437.02552 0.0079188505 0.0059588888         3963 
 4600000   0.51494437   -9.6362408    436.51342 0.0079078518 0.0059565503         3969 
 4601000   0.51757263   -9.6509669    436.86318 0.0079124679 0.0059542148         3967 
 4602000   0.52330908   -9.6559518    436.38078 0.0079020133 0.0059518808         3977 
 4603000   0.51592272    -9.650884    436.89683 0.0079096393 0.0059495494         3970 
 4604000   0.51426331   -9.6294846    436.08968 0.0078933116 0.0059472169         3972 
 4605000   0.51642811   -9.6563073    436.74834 0.0079035168 0.0059448852         3964 
 4606000   0.51654321   -9.6263838    437.24707 0.0079108242 0.0059425561         3970 
 4607000   0.52024598   -9.6597724    436.38256 0.0078934693 0.0059402277         3964 
 4608000   0.50189875   -9.6294903    436.41741 0.0078923867 0.0059378998         3958 
 4609000   0.52763284   -9.6455123    436.62896 0.0078944992  0.005935574         3972 
 4610000   0.51642416     -9.64763     436.8626 0.0078970101 0.0059332485         3973 
 4611000   0.51194731   -9.6569982    436.61045 0.0078907404 0.0059309243         3964 
 4612000   0.51134833   -9.6428364    436.45422 0.0078862067 0.0059286029         3977 
 4613000   0.51730277   -9.6424051     436.6028 0.0078871812 0.0059262824         3977 
 4614000   0.51041696   -9.6428249     436.5705 0.0078848883 0.0059239629         3965 
 4615000   0.52672292   -9.6324807     436.2035 0.0078765529 0.0059216465         3970 
 4616000   0.51118332   -9.6465317    436.41697 0.0078787004 0.0059193294         3968 
 4617000    0.5182952   -9.6550535    436.66517 0.0078814737 0.0059170131         3964 
 4618000   0.50731236   -9.6333315     437.1009 0.0078876298 0.0059146999         3965 
 4619000   0.50773052   -9.6500352    436.26147 0.0078707778 0.0059123865         3965 
 4620000   0.53077532   -9.6450321     436.8659 0.0078799766 0.0059100752         3969 
 4621000   0.51181853   -9.6563834     436.9348 0.0078795138 0.0059077657         3966 
 4622000   0.51643514   -9.6438298     436.3776 0.0078677629 0.0059054571         3961 
 4623000   0.51271297   -9.6343358    436.45528 0.0078674613 0.0059031493         3975 
 4624000   0.51358862   -9.6361766    435.91055 0.0078559428 0.0059008416         3968 
 4625000   0.51826457   -9.6703272     436.3247 0.0078617064 0.0058985373         3971 
 4626000   0.50906213   -9.6397399    436.44757 0.0078622203 0.0058962339         3964 
 4627000    0.5087355   -9.6485372     437.1371 0.0078729397 0.0058939297         3950 
 4628000   0.50848446   -9.6417613    436.75872 0.0078644252 0.0058916266         3969 
 4629000    0.5223871   -9.6461372    436.63313 0.0078604654 0.0058893272         3963 
 4630000   0.51404446   -9.6503617    437.07719   0.00786676 0.0058870297         3970 
 4631000   0.52479129   -9.6698202    436.92976 0.0078624084 0.0058847299         3968 
 4632000   0.50888509   -9.6365095    436.32195 0.0078497761 0.0058824337         3969 
 4633000   0.50717118   -9.6421649    436.34448  0.007848487 0.0058801365         3965 
 4634000   0.52104396   -9.6398881    437.18774 0.0078619577 0.0058778422         3976 
 4635000   0.51859739   -9.6390362    436.97316 0.0078564034 0.0058755499         3963 
 4636000   0.49837697   -9.6464593    436.43561 0.0078450461 0.0058732575         3970 
 4637000   0.51580057   -9.6515927    436.63439 0.0078469267 0.0058709652         3963 
 4638000   0.51992947   -9.6403401    436.11426 0.0078358893 0.0058686749         3972 
 4639000   0.51913354   -9.6492028    437.00981 0.0078502876 0.0058663877         3973 
 4640000   0.51476695   -9.6536407    436.64885 0.0078421129 0.0058640998         3971 
 4641000   0.50704511   -9.6456265    436.58719 0.0078393161 0.0058618125         3969 
 4642000   0.49779374   -9.6408275    436.54141 0.0078368055 0.0058595286         3963 
 4643000   0.51216829   -9.6693527    436.49162 0.0078342239 0.0058572444         3961 
 4644000   0.50831949   -9.6511368     436.6264 0.0078349555 0.0058549624         3973 
 4645000   0.50536963   -9.6545938    436.66675 0.0078339926 0.0058526799         3976 
 4646000   0.50675154   -9.6588922    436.70933 0.0078330702  0.005850399         3970 
 4647000   0.51930277   -9.6638458    436.86853 0.0078342395   0.00584812         3970 
 4648000   0.50071921   -9.6504245    436.63738 0.0078284096 0.0058458413         3965 
 4649000   0.50677829   -9.6518658     436.1674 0.0078183014 0.0058435656         3970 
 4650000   0.51057297   -9.6507317    436.76553 0.0078273392 0.0058412917         3970 
 4651000   0.50224987   -9.6472133    436.14997 0.0078146271 0.0058390171         3974 
 4652000   0.51430823   -9.6561367     436.0063 0.0078103736 0.0058367434         3975 
 4653000   0.50317776   -9.6710967    436.65816 0.0078203696 0.0058344716         3969 
 4654000   0.49820638   -9.6490115    436.18781 0.0078102673  0.005832203         3972 
 4655000   0.51084928   -9.6427644    436.79464  0.007819453 0.0058299342         3978 
 4656000   0.49986213   -9.6593836    435.97735 0.0078031456 0.0058276693         3971 
 4657000   0.52080525   -9.6609648    437.07552 0.0078211209 0.0058254007         3969 
 4658000   0.51268495    -9.644955    437.51305 0.0078272695 0.0058231353         3982 
 4659000   0.50009777   -9.6601674    436.05822 0.0077995674 0.0058208721         3961 
 4660000   0.50917126   -9.6639544    436.45627  0.007805012 0.0058186089         3975 
 4661000   0.50363984   -9.6495998    436.24539 0.0077995671 0.0058163478         3972 
 4662000   0.49603315   -9.6580838    436.94881 0.0078104678 0.0058140871         3974 
 4663000   0.50996202   -9.6448009    436.19964 0.0077954043 0.0058118264         3971 
 4664000   0.50516586   -9.6590963    436.43857 0.0077980019 0.0058095688         3963 
 4665000   0.50193968   -9.6543546    435.76324 0.0077842665 0.0058073107         3974 
 4666000   0.50551763   -9.6360925    436.77171 0.0078006093 0.0058050538         3975 
 4667000   0.50938979   -9.6656631    436.85467  0.007800419 0.0058027981         3980 
 4668000   0.50119426   -9.6578321    436.33227 0.0077894221 0.0058005438         3958 
 4669000   0.49653557   -9.6345803    436.46991 0.0077902104 0.0057982905         3958 
 4670000   0.50870366   -9.6361626    435.91817 0.0077786969 0.0057960399         3974 
 4671000   0.50286523   -9.6473083    436.75236 0.0077919139 0.0057937902         3963 
 4672000   0.50981737   -9.6542559    436.99956 0.0077946554  0.005791542         3966 
 4673000    0.5013211   -9.6544461    436.77879 0.0077890503 0.0057892934         3970 
 4674000   0.50241432   -9.6641633    436.47467 0.0077819617 0.0057870467         3964 
 4675000   0.50884395   -9.6736571    435.50229 0.0077629641 0.0057848022         3972 
 4676000   0.50366849   -9.6642495    436.22559 0.0077741943 0.0057825563         3974 
 4677000   0.50109225   -9.6612024     436.2303  0.007772616 0.0057803136         3981 
 4678000   0.49675904    -9.663613    436.17858 0.0077700331 0.0057780732         3975 
 4679000   0.50622039   -9.6597406    436.57419 0.0077754184 0.0057758337         3970 
 4680000   0.50611861   -9.6636025    436.58149 0.0077738869  0.005773594         3973 
 4681000   0.49968611   -9.6624606    436.84587 0.0077769328 0.0057713565         3969 
 4682000   0.49561269   -9.6653683    436.63157 0.0077714574 0.0057691185         3975 
 4683000    0.5056755   -9.6599815    436.04687 0.0077593933 0.0057668836         3970 
 4684000   0.50743123   -9.6551227    436.94697 0.0077737506 0.0057646486         3979 
 4685000   0.50407712   -9.6492826    436.21012 0.0077589848  0.005762415         3967 
 4686000   0.50222627   -9.6632785    436.23854 0.0077578343 0.0057601839         3979 
 4687000   0.50617547   -9.6451563    436.05497 0.0077529153 0.0057579521         3974 
 4688000   0.49729751   -9.6544705    436.84185 0.0077652491 0.0057557211         3972 
 4689000   0.51140231   -9.6690979    436.14753 0.0077512535 0.0057534928         3964 
 4690000   0.50043275   -9.6565232    436.07418 0.0077482974 0.0057512662         3969 
 4691000   0.49921562   -9.6629358    436.01181 0.0077455377 0.0057490393         3972 
 4692000   0.49929998   -9.6659891    436.60735 0.0077544641 0.0057468143         3972 
 4693000   0.49892737   -9.6446544    436.06306  0.007743147 0.0057445909         3971 
 4694000   0.49680252    -9.666894    436.80639 0.0077546938  0.005742367         3973 
 4695000   0.50259489    -9.656095    436.30211 0.0077440914 0.0057401445         3976 
 4696000   0.49675478   -9.6559488     436.1994 0.0077406196 0.0057379244         3972 
 4697000   0.49521285   -9.6580377    436.92017 0.0077517595 0.0057357058         3970 
 4698000    0.4986877   -9.6766915    436.28714 0.0077388807 0.0057334876         3965 
 4699000   0.49576521   -9.6576389     436.4547 0.0077402053 0.0057312688         3978 
 4700000   0.49872897   -9.6524786    436.72492 0.0077433497 0.0057290527         3969 
 4701000   0.50395263    -9.665512     436.3211  0.007734544 0.0057268383         3976 
 4702000   0.49675436   -9.6910654    436.60658 0.0077379587 0.0057246247         3971 
 4703000   0.49503869   -9.6659822    436.21689 0.0077294084 0.0057224112         3979 
 4704000     0.490012   -9.6592521    436.76627 0.0077374978  0.005720199         3975 
 4705000   0.50150525   -9.6725063    436.35234 0.0077285218 0.0057179894         3977 
 4706000   0.50815615   -9.6865716    436.32965 0.0077264777 0.0057157799         3969 
 4707000   0.50420247   -9.6681041    436.67216 0.0077309001 0.0057135738         3973 
 4708000   0.51158515   -9.6831057    436.36284  0.007723783 0.0057113673         3966 
 4709000   0.50007067   -9.6684451    436.46189 0.0077238955 0.0057091621         3975 
 4710000   0.49804156   -9.6607792    436.39934 0.0077211489 0.0057069573         3972 
 4711000    0.5118434   -9.6566252    436.12864 0.0077147216 0.0057047551         3978 
 4712000   0.49129928   -9.6497851    436.65891 0.0077224623 0.0057025536         3968 
 4713000   0.50255155   -9.6603722    436.17605  0.007712286 0.0057003522         3972 
 4714000   0.50037904    -9.658394    436.54891 0.0077172414 0.0056981512         3964 
 4715000   0.50182538   -9.6618913    436.31293 0.0077114338 0.0056959528         3968 
 4716000   0.49891657   -9.6613754    436.32817  0.007710068 0.0056937567         3975 
 4717000   0.49932148   -9.6710275    437.32771  0.007726092   0.00569156         3976 
 4718000   0.48792745   -9.6578781    436.62285 0.0077120045  0.005689365         3979 
 4719000   0.49682619   -9.6657063    436.62565 0.0077104197  0.005687171         3967 
 4720000   0.50093575   -9.6695129    436.11735  0.007699812 0.0056849794         3978 
 4721000   0.48831303     -9.66886    436.28938 0.0077012175 0.0056827888         3985 
 4722000   0.49487364   -9.6703303    435.67288 0.0076887067 0.0056805969         3973 
 4723000   0.50252146   -9.6804023    435.83238 0.0076898931 0.0056784081         3979 
 4724000   0.49547211   -9.6572723    435.68792 0.0076857168 0.0056762204         3976 
 4725000   0.49800074   -9.6775437    436.06384 0.0076907203 0.0056740332         3980 
 4726000   0.49718912   -9.6762021     436.0572 0.0076889758 0.0056718484         3981 
 4727000   0.49990375   -9.6665556    435.77237 0.0076823279 0.0056696635         3977 
 4728000   0.48893031   -9.6748468    436.17021 0.0076877152 0.0056674805         3968 
 4729000   0.49655535   -9.6693755    435.58064 0.0076757002 0.0056652974         3973 
 4730000   0.48949872   -9.6639909    436.38537 0.0076882553 0.0056631169         3985 
 4731000     0.487456   -9.6642663    435.83875 0.0076770018 0.0056609364         3963 
 4732000   0.49224286   -9.6725899    436.05756 0.0076792329 0.0056587589         3956 
 4733000   0.48939938   -9.6643839    436.31065 0.0076820666 0.0056565822         3979 
 4734000   0.49452182   -9.6682442    436.63665 0.0076861825 0.0056544055         3962 
 4735000   0.49735022   -9.6899238    435.93025 0.0076721269 0.0056522313         3973 
 4736000   0.50359693     -9.66769    435.95042 0.0076708618 0.0056500575         3974 
 4737000   0.49308098   -9.6710555    436.18134 0.0076733048 0.0056478832         3973 
 4738000   0.49791586    -9.677811    436.21935 0.0076723538 0.0056457106         3973 
 4739000   0.50145405   -9.6746571    436.19874 0.0076703725 0.0056435399         3979 
 4740000   0.49954988   -9.6503407    436.01692 0.0076655576 0.0056413714         3966 
 4741000   0.49554869   -9.6732432    435.04098 0.0076467866 0.0056392036         3968 
 4742000   0.48924953   -9.6777213    436.09199 0.0076636438 0.0056370342         3979 
 4743000   0.48616077   -9.6742563    435.57358 0.0076529197 0.0056348685         3968 
 4744000   0.49101331   -9.6815393    436.55913 0.0076686188 0.0056327029         3965 
 4745000   0.49783322   -9.6652182    436.19088 0.0076605352 0.0056305384         3967 
 4746000   0.50201769    -9.673574    436.55307 0.0076652807 0.0056283752         3979 
 4747000   0.50340668   -9.6679133     436.0567 0.0076549522 0.0056262139         3969 
 4748000   0.48414987   -9.6640802    436.81067 0.0076665731  0.005624052         3972 
 4749000   0.49720417   -9.6843188    436.35826 0.0076570201 0.0056218925         3975 
 4750000   0.48505354     -9.66811    436.04095 0.0076498412 0.0056197337         3965 
 4751000   0.49444113   -9.6796742    436.53035 0.0076568152 0.0056175771         3978 
 4752000   0.49518538   -9.6810061    435.83585 0.0076430249 0.0056154219         3971 
 4753000   0.47992093    -9.680436    436.37779 0.0076509185 0.0056132672         3976 
 4754000   0.49093652   -9.6680886    436.02069 0.0076430496 0.0056111124         3974 
 4755000   0.48924593   -9.6875906    436.58656 0.0076513592 0.0056089584         3976 
 4756000    0.4741596   -9.6751341    436.51683 0.0076485288 0.0056068065         3971 
 4757000   0.48044016   -9.6722641    436.01587  0.007638145 0.0056046565         3974 
 4758000   0.49085311   -9.6865509    436.01684 0.0076365567 0.0056025086         3977 
 4759000   0.48833682   -9.6842816    436.24025 0.0076388641  0.005600361         3973 
 4760000   0.49552942   -9.6824391    435.70242 0.0076278435 0.0055982129         3972 
 4761000   0.49256708   -9.6831511    435.02221 0.0076143354  0.005596066         3977 
 4762000   0.48684584   -9.6855729    435.95805 0.0076291133 0.0055939195         3971 
 4763000   0.48401538   -9.6910293    435.98068 0.0076279074 0.0055917742         3965 
 4764000   0.48450731   -9.6782273    435.24757 0.0076134825   0.00558963         3981 
 4765000   0.49511528   -9.6797917    435.57351  0.007617585 0.0055874865         3975 
 4766000   0.48734257    -9.688362    436.21405 0.0076271865 0.0055853462         3982 
 4767000   0.49641372   -9.6807108    435.38221 0.0076110448 0.0055832061         3973 
 4768000   0.48932603   -9.6760215    435.99414 0.0076201436 0.0055810662         3968 
 4769000   0.49017267   -9.6746283    436.05897 0.0076196786 0.0055789283         3970 
 4770000   0.49145421   -9.6742005    435.20806 0.0076032155 0.0055767913         3972 
 4771000   0.48773762   -9.6639032    435.83584 0.0076125871 0.0055746569         3976 
 4772000   0.49054773    -9.678875    435.72343 0.0076090289 0.0055725218         3974 
 4773000   0.48239666   -9.6779066    436.42717 0.0076197215 0.0055703888         3981 
 4774000   0.50054844    -9.683351    435.49254 0.0076018108 0.0055682549         3975 
 4775000    0.4907784   -9.6915587    436.05741  0.007610077 0.0055661236         3975 
 4776000    0.4831602   -9.6937504    435.71922 0.0076025828 0.0055639932         3969 
 4777000   0.47387471   -9.6865603    435.84084 0.0076031128  0.005561864         3979 
 4778000   0.49805054   -9.6807291    435.81224 0.0076010228 0.0055597367         3974 
 4779000   0.47804107   -9.6972126    435.93357  0.007601548 0.0055576097         3977 
 4780000   0.49492347   -9.6899727    435.87608 0.0075989553 0.0055554863         3962 
 4781000   0.48774231   -9.6819787    436.27827 0.0076043762 0.0055533608         3970 
 4782000    0.4805946    -9.677612    436.12308 0.0076000816 0.0055512364         3963 
 4783000   0.47813213   -9.6792701     434.8883 0.0075769792  0.005549113         3983 
 4784000   0.49164219   -9.6774198    436.57134 0.0076047126 0.0055469912         3973 
 4785000   0.48246496   -9.6879673    436.17964 0.0075963016 0.0055448732         3971 
 4786000   0.48132265   -9.6804625    435.60774 0.0075847565 0.0055427546         3979 
 4787000   0.49770377   -9.6897477    436.10793 0.0075918795 0.0055406377         3971 
 4788000   0.48101576   -9.6748974    435.74622 0.0075839986 0.0055385201         3970 
 4789000   0.48821717      -9.6875     435.8494 0.0075842103 0.0055364056         3972 
 4790000   0.49034203   -9.6874266    435.52635 0.0075770068 0.0055342924         3980 
 4791000   0.47358135   -9.6912815    436.32034 0.0075892358 0.0055321791         3976 
 4792000   0.48311523   -9.6850487    436.07204 0.0075833341 0.0055300658         3968 
 4793000   0.48786403   -9.6944137    436.11508 0.0075825002 0.0055279561         3978 
 4794000   0.48608898   -9.6812446    435.87369 0.0075767226 0.0055258464         3977 
 4795000   0.49666652   -9.6738343     436.2859 0.0075823063 0.0055237369         3970 
 4796000   0.48787365   -9.6882167    436.50898 0.0075846014 0.0055216295         3978 
 4797000   0.49667462   -9.6907292    435.76809 0.0075701496 0.0055195225         3959 
 4798000   0.47927664   -9.6793791    435.69218 0.0075672534 0.0055174166         3970 
 4799000   0.47750537   -9.6809084    435.64851 0.0075649182 0.0055153096         3980 
 4800000   0.48488978   -9.6887218    435.61049 0.0075626821  0.005513208         3972 
 4801000   0.48567552   -9.6943816    435.15034 0.0075531199 0.0055111062         3975 
 4802000   0.48598083   -9.6941801    435.95429 0.0075654986 0.0055090037         3971 
 4803000   0.47548239   -9.6968882    435.75642 0.0075604904 0.0055069028         3973 
 4804000   0.47508152   -9.6913747    436.47701 0.0075714163 0.0055048019         3975 
 4805000   0.48014529   -9.6929825    435.55925 0.0075539239 0.0055027027         3961 
 4806000   0.48622713   -9.6943057    435.23139 0.0075466672 0.0055006069         3973 
 4807000   0.47217134   -9.6978675    435.25943 0.0075455833 0.0054985106         3968 
 4808000   0.48691035   -9.6776329    435.97476 0.0075564123 0.0054964155         3977 
 4809000   0.48614001   -9.6873742    435.94965 0.0075544059 0.0054943214         3973 
 4810000   0.48657115   -9.6897472    436.08673 0.0075552102 0.0054922287         3978 
 4811000   0.49566759   -9.6772927     435.5327 0.0075440432 0.0054901383         3961 
 4812000   0.48661982   -9.7031062    435.36825 0.0075396274 0.0054880466         3979 
 4813000   0.48800547   -9.6889552    435.86012 0.0075465773 0.0054859571         3973 
 4814000   0.47896101   -9.6905639    436.18296 0.0075505983 0.0054838686         3970 
 4815000   0.49376273   -9.6926313    435.28561 0.0075334997 0.0054817801         3979 
 4816000   0.47495756    -9.689189     435.5113 0.0075358405 0.0054796938         3968 
 4817000   0.48234694    -9.690652     436.3186 0.0075482423 0.0054776089         3980 
 4818000    0.4759157    -9.698078    435.41643 0.0075310714 0.0054755238         3966 
 4819000   0.48789502   -9.6942608    435.93337  0.007538448 0.0054734406         3983 
 4820000   0.46985493   -9.7049713    435.90893 0.0075364615  0.005471359         3978 
 4821000   0.47758346   -9.6989315    435.59009 0.0075293868 0.0054692778         3963 
 4822000   0.49029264   -9.6954106    435.51096 0.0075264579 0.0054671984         3974 
 4823000   0.47451558   -9.6973842    435.83973  0.007530578 0.0054651211         3972 
 4824000   0.47618299   -9.6843819    435.89045 0.0075298931 0.0054630443         3957 
 4825000   0.47670263    -9.681632    435.25007 0.0075172723 0.0054609672         3969 
 4826000    0.4836404   -9.7095733    435.96178 0.0075280042  0.005458892         3958 
 4827000   0.48175766   -9.6917201    435.65749 0.0075211914 0.0054568174         3966 
 4828000    0.4793304   -9.6870596    435.46372 0.0075162889 0.0054547438         3970 
 4829000   0.46972002   -9.6973604    435.41384 0.0075138718 0.0054526704         3968 
 4830000   0.47079193   -9.6949401     435.4413 0.0075127898 0.0054505974         3975 
 4831000    0.4833275   -9.7130352    435.30779 0.0075089316  0.005448528         3974 
 4832000   0.47765762   -9.6991781    435.33513 0.0075078492 0.0054464587         3974 
 4833000   0.48547425   -9.7061125    435.85991 0.0075153443 0.0054443911         3965 
 4834000   0.47139298   -9.7089541    435.64475 0.0075100805 0.0054423223         3975 
 4835000   0.48306805   -9.7195307    435.78989 0.0075110289 0.0054402542         3977 
 4836000   0.47812474   -9.7054942    435.25401 0.0075002414 0.0054381884         3963 
 4837000   0.48372015   -9.6990151    436.00773 0.0075116762 0.0054361246         3977 
 4838000   0.47861559    -9.698462    435.64543  0.007503883 0.0054340624         3969 
 4839000   0.47567024   -9.7055072    435.48829 0.0074996261 0.0054320001         3962 
 4840000   0.47056456   -9.6864589    435.51113 0.0074984698 0.0054299382         3968 
 4841000   0.48080349   -9.7044764     435.2715 0.0074927958 0.0054278807         3975 
 4842000   0.47302969   -9.7015028    435.70272 0.0074986699 0.0054258218         3961 
 4843000    0.4702956   -9.6912566    435.73988 0.0074977611 0.0054237646         3967 
 4844000   0.47268702   -9.6918087    435.77845 0.0074968767 0.0054217085         3974 
 4845000   0.47498049    -9.696231    436.19495 0.0075024931 0.0054196526         3972 
 4846000   0.47648636   -9.7001551    435.53965 0.0074896763 0.0054175973         3975 
 4847000   0.48152201   -9.7126389    435.76162 0.0074919472 0.0054155441         3976 
 4848000   0.48656929   -9.6959861     435.8297 0.0074915722 0.0054134926         3970 
 4849000   0.47973995   -9.6879522    436.08451 0.0074944063 0.0054114417         3962 
 4850000   0.47799297   -9.7120424    435.41969  0.007481438 0.0054093914         3968 
 4851000   0.47474796   -9.6945751    435.45522  0.007480506 0.0054073427         3973 
 4852000   0.48425161   -9.6892742    435.34707 0.0074771069 0.0054052945         3975 
 4853000   0.47806273   -9.7098926    435.58221 0.0074796039  0.005403248         3964 
 4854000   0.47369325   -9.7040178    434.75508 0.0074638628 0.0054012016         3972 
 4855000   0.47051467   -9.6950207    435.81532 0.0074805239 0.0053991576         3984 
 4856000   0.48497859   -9.6957445    435.93922 0.0074811097 0.0053971141         3967 
 4857000   0.48041648   -9.6916446    435.58675 0.0074735218 0.0053950718         3963 
 4858000   0.47072819   -9.7012834    435.46972 0.0074699759 0.0053930297         3967 
 4859000   0.47531571   -9.7005295    435.07612 0.0074616882 0.0053909892         3970 
 4860000    0.4866494    -9.697117    435.53372 0.0074679993 0.0053889487         3971 
 4861000    0.4747377    -9.699685    435.29681 0.0074624016  0.005386911         3973 
 4862000   0.48126976    -9.702156    435.89565 0.0074711307 0.0053848734         3973 
 4863000   0.47784635    -9.693852    435.82542  0.007468391 0.0053828374         3975 
 4864000      0.47926   -9.7084362    435.23897  0.007456808 0.0053808028         3965 
 4865000   0.47031674   -9.6981401    435.36897 0.0074575021 0.0053787684         3980 
 4866000   0.47178333   -9.7082249    435.67171 0.0074611542  0.005376734         3977 
 4867000   0.48040779   -9.7049675    435.29704  0.007453206 0.0053747023         3966 
 4868000   0.48345563   -9.7173956    435.57673 0.0074564627 0.0053726704         3967 
 4869000   0.47801754   -9.7069366    436.15564 0.0074648395 0.0053706413         3969 
 4870000   0.47329824   -9.6977912    435.70896 0.0074556633 0.0053686125         3977 
 4871000   0.47990653   -9.6918517    434.92258 0.0074406791 0.0053665823         3977 
 4872000   0.47773868   -9.7040618    435.39904 0.0074473016  0.005364555         3965 
 4873000   0.47018015   -9.7002789    435.36975 0.0074452724 0.0053625287         3973 
 4874000   0.47695377   -9.7034796    435.86394 0.0074521942 0.0053605038         3973 
 4875000   0.47142878   -9.6920475    435.04502 0.0074366671  0.005358478         3966 
 4876000   0.47386476   -9.7094389     435.6438 0.0074453753  0.005356455         3967 
 4877000   0.46869845   -9.7053856    435.13354 0.0074351299 0.0053544322         3963 
 4878000   0.48239432   -9.6793096    434.79247 0.0074277789 0.0053524128         3966 
 4879000   0.47902348   -9.6994336    435.47619 0.0074379346 0.0053503933         3965 
 4880000   0.48078982   -9.6927039    435.42186 0.0074354826  0.005348375         3971 
 4881000   0.46586354   -9.7081046    435.65109 0.0074378728 0.0053463561         3963 
 4882000   0.46321911   -9.7035226    434.88482 0.0074232695 0.0053443385         3974 
 4883000   0.46491394   -9.7099188    434.97272 0.0074232494 0.0053423224         3964 
 4884000   0.47155025   -9.7147508    434.92788 0.0074209644  0.005340307         3972 
 4885000   0.47015889    -9.703623    435.77594 0.0074339124 0.0053382934         3976 
 4886000   0.46797672   -9.7160696    434.77715 0.0074153559 0.0053362795         3963 
 4887000   0.47421363   -9.7035769    435.35527 0.0074236967 0.0053342685         3966 
 4888000   0.47908303   -9.7056389    435.27891 0.0074208761 0.0053322574         3973 
 4889000   0.47944035   -9.7104712    436.32921 0.0074372607 0.0053302474         3971 
 4890000   0.46376808   -9.7258976    434.51448 0.0074048139 0.0053282383         3970 
 4891000   0.46085669   -9.7120216     435.8988 0.0074268861 0.0053262292         3960 
 4892000   0.46362949   -9.6988862    435.03227  0.007410607 0.0053242226         3970 
 4893000   0.47456425    -9.721599    435.32035 0.0074139988 0.0053222158         3961 
 4894000     0.471621   -9.7119385      435.719  0.007419272  0.005320212         3979 
 4895000   0.46835648   -9.7180163    435.14717 0.0074080212 0.0053182079         3970 
 4896000    0.4784518   -9.7141167    435.27567 0.0074086954 0.0053162051         3966 
 4897000   0.46486159   -9.7299041    434.90194 0.0074008227 0.0053142036         3960 
 4898000   0.47207381   -9.7215826    435.20412 0.0074044529 0.0053122026         3970 
 4899000   0.47384731    -9.712925    435.77948 0.0074127284  0.005310204         3970 
 4900000   0.47195017   -9.7116334    434.99956 0.0073979517  0.005308205         3962 
 4901000   0.45226006   -9.7041631     435.4817 0.0074046403 0.0053062081         3962 
 4902000   0.45575736   -9.7303907    435.38261 0.0074014452 0.0053042109         3964 
 4903000   0.47492253   -9.7084887    435.43503 0.0074008265 0.0053022149         3974 
 4904000    0.4646369     -9.69956    435.78667 0.0074052927   0.00530022         3974 
 4905000   0.46659331   -9.7093392    435.32051 0.0073958633 0.0052982275         3974 
 4906000   0.46711622   -9.7120473    435.64522 0.0073998713  0.005296235         3968 
 4907000   0.46188896   -9.7057092    435.20853 0.0073909471 0.0052942431         3976 
 4908000   0.46410963   -9.7090585    435.18905 0.0073891105 0.0052922522         3968 
 4909000   0.46440286    -9.708483    435.67379  0.007395834 0.0052902629         3968 
 4910000   0.46498551    -9.714552    435.05622 0.0073838463 0.0052882726         3967 
 4911000   0.46430785   -9.7138989     435.2127  0.007384998  0.005286286         3966 
 4912000   0.45431302   -9.7029277    435.27822 0.0073846061    0.0052843         3975 
 4913000   0.46161381   -9.7025647    435.22308 0.0073821678 0.0052823157         3960 
 4914000   0.47132141   -9.7157258    435.41266 0.0073838805 0.0052803303         3965 
 4915000   0.46535432   -9.6915581    435.44184 0.0073828729 0.0052783477         3968 
 4916000   0.46031342    -9.716131    435.46909  0.007381833 0.0052763657         3978 
 4917000    0.4678558    -9.714248    435.10782 0.0073742088 0.0052743839         3970 
 4918000   0.45836512   -9.7097962    435.42877 0.0073781478 0.0052724029         3966 
 4919000   0.45389639   -9.7244136    434.52769 0.0073613825 0.0052704226         3973 
 4920000   0.45136509   -9.7029282    434.72675 0.0073632579 0.0052684429         3970 
 4921000   0.46495567   -9.7216601    435.63273 0.0073771038 0.0052664656         3966 
 4922000   0.47094583   -9.7161544    435.26916 0.0073694494 0.0052644884         3971 
 4923000   0.46458015   -9.7030164    435.21647 0.0073670605 0.0052625127         3969 
 4924000   0.47287195   -9.7195466     435.6074 0.0073721805  0.005260539         3970 
 4925000    0.4632244    -9.711073    434.91329 0.0073589389 0.0052585666         3978 
 4926000   0.46218123   -9.7100761    435.60064  0.007369073 0.0052565941         3970 
 4927000   0.45785377   -9.7165039     435.3337 0.0073630624 0.0052546222         3963 
 4928000   0.47352408   -9.7252637    435.56448 0.0073654708 0.0052526533         3968 
 4929000   0.46318976   -9.7157398    435.32564 0.0073599384 0.0052506827         3972 
 4930000   0.45915008   -9.7220329    435.31052 0.0073581901 0.0052487141         3960 
 4931000    0.4615071   -9.7337336    435.70507 0.0073633656 0.0052467479         3976 
 4932000   0.46537283   -9.6997427    434.80181 0.0073466108  0.005244783         3967 
 4933000   0.46799145   -9.7161841    435.05743 0.0073494396 0.0052428177         3968 
 4934000   0.45476263   -9.7255695    435.22657 0.0073508067 0.0052408536         3971 
 4935000   0.45894653   -9.7401165    435.41936 0.0073525728 0.0052388898         3973 
 4936000   0.45477787   -9.6987568    434.98117 0.0073436853 0.0052369268         3961 
 4937000   0.45608244   -9.7173907    435.36487 0.0073486745 0.0052349647         3975 
 4938000   0.46624972   -9.7218529     435.1556 0.0073436547 0.0052330042         3970 
 4939000   0.46491647   -9.7218328     435.1076 0.0073413579 0.0052310451         3975 
 4940000   0.45596744   -9.7235803      435.235  0.007342021 0.0052290874         3962 
 4941000   0.45842179   -9.7197137    435.33248 0.0073421791 0.0052271302         3981 
 4942000   0.46184867   -9.7280575     435.0413 0.0073357834 0.0052251757         3967 
 4943000   0.45970305     -9.73011    434.72854 0.0073290266 0.0052232193         3981 
 4944000   0.46613939   -9.7129766    435.35183 0.0073380499 0.0052212647         3972 
 4945000   0.46271497   -9.7215043    434.75191 0.0073264562 0.0052193111         3964 
 4946000   0.46488772   -9.7071406    435.04573 0.0073299253 0.0052173583         3965 
 4947000   0.46955639   -9.7120618    435.00397 0.0073277402 0.0052154085         3967 
 4948000   0.45922317   -9.7202783    435.29056 0.0073310859 0.0052134591         3970 
 4949000   0.46025005   -9.7109029    435.08764 0.0073261878 0.0052115099         3962 
 4950000   0.45474817   -9.7008323    435.16496 0.0073260094 0.0052095611         3968 
 4951000    0.4677391   -9.7057213    435.06059  0.007322773 0.0052076139         3975 
 4952000   0.45048959   -9.7376686    435.08997 0.0073217887 0.0052056681         3974 
 4953000   0.45724687   -9.7249377    434.88429 0.0073168498  0.005203722         3968 
 4954000   0.46499184    -9.727315    435.19047 0.0073205233 0.0052017775         3966 
 4955000   0.45499631   -9.7172576    434.73237 0.0073113415 0.0051998336         3970 
 4956000   0.46337198   -9.6992299    434.54354 0.0073066911 0.0051978916         3975 
 4957000   0.45148732   -9.7067753    435.57377 0.0073225367 0.0051959507         3972 
 4958000   0.46450591   -9.7006831    435.11302 0.0073133156 0.0051940107         3966 
 4959000   0.45745291   -9.7276555    434.61453 0.0073034638 0.0051920717         3975 
 4960000   0.46311305   -9.7139187    435.34764 0.0073143084 0.0051901338         3970 
 4961000   0.44958537   -9.7248766    435.00435 0.0073070677 0.0051881962         3970 
 4962000   0.45496761   -9.7073514    434.98282 0.0073052335 0.0051862592         3970 
 4963000   0.46093203   -9.7278701     434.6911 0.0072988632 0.0051843232         3972 
 4964000   0.45186961   -9.7170151    435.06798 0.0073037198 0.0051823881         3967 
 4965000   0.45657559   -9.7394168    434.88005 0.0072990945 0.0051804554         3965 
 4966000   0.44632565   -9.6986125    434.83743 0.0072969095 0.0051785215         3974 
 4967000   0.45525023   -9.7257879    434.73619 0.0072937419 0.0051765919         3972 
 4968000   0.45921235   -9.7164128    434.64747 0.0072907854 0.0051746609         3970 
 4969000    0.4508024   -9.7389212    434.87875  0.007293197 0.0051727317         3969 
 4970000   0.44383689   -9.7063505    435.17268 0.0072966579 0.0051708024         3972 
 4971000   0.46720649   -9.7160604    434.85179 0.0072898107 0.0051688748         3971 
 4972000   0.45355915   -9.7152551    435.29453 0.0072957651 0.0051669482         3967 
 4973000   0.47181085   -9.7117286    435.48482 0.0072974867 0.0051650232         3966 
 4974000   0.45369672   -9.7393791    435.15558 0.0072905036 0.0051630995         3982 
 4975000   0.46114662   -9.7229711    435.01923 0.0072867542 0.0051611766         3976 
 4976000   0.45460195    -9.710307    434.97005 0.0072844663 0.0051592533         3970 
 4977000   0.45556589   -9.7428785    435.28373 0.0072882548 0.0051573319         3971 
 4978000   0.45146461   -9.7447903    434.91595  0.007280634 0.0051554108         3968 
 4979000   0.45702501   -9.7126447    434.75614 0.0072764969 0.0051534915         3967 
 4980000   0.45885765   -9.7280922    435.03032 0.0072796239 0.0051515726         3978 
 4981000   0.45616887   -9.7238507    434.48236 0.0072689949 0.0051496544         3976 
 4982000   0.45683877   -9.7151368    435.87051 0.0072907551 0.0051477382         3978 
 4983000   0.45485272   -9.7245428    434.60106 0.0072680624 0.0051458236         3971 
 4984000   0.45019601   -9.7371363    434.81412 0.0072701666  0.005143908         3962 
 4985000   0.47051421   -9.7246035    434.84314 0.0072691932 0.0051419926         3965 
 4986000   0.46250609   -9.7331332    434.82528 0.0072674369  0.005140081         3967 
 4987000   0.45890827   -9.7274009    435.39265 0.0072754603 0.0051381687         3978 
 4988000   0.45620642   -9.7285807    435.34635 0.0072732282 0.0051362566         3976 
 4989000   0.44924347   -9.7429729    434.59478 0.0072592165 0.0051343471         3973 
 4990000   0.45117734   -9.7445793    434.88745 0.0072626494 0.0051324369         3968 
 4991000   0.44651304   -9.7240207    434.63876  0.007257042 0.0051305283         3976 
 4992000   0.44539193   -9.7236429    435.17177  0.007264486 0.0051286215         3972 
 4993000   0.45549432   -9.7311378    435.24727 0.0072642912 0.0051267159         3973 
 4994000   0.45071279   -9.7240884    434.75635 0.0072546447 0.0051248113         3973 
 4995000   0.45264113     -9.73024    435.53868 0.0072662442 0.0051229075         3969 
 4996000   0.45545592   -9.7367796    434.72946  0.007251292 0.0051210049         3959 
 4997000   0.45009939    -9.742286    434.60679 0.0072477952 0.0051191027         3971 
 4998000    0.4611966   -9.7307723    435.62398  0.007263305 0.0051172014         3962 
 4999000   0.45395036   -9.7350299    434.64093 0.0072454646 0.0051153021         3974 
 5000000   0.45592535   -9.7254756    434.45424  0.007240904 0.0051134028         3968 
 5001000   0.44404898   -9.7277247    435.21145 0.0072520737 0.0051115054         3961 
 5002000   0.44601894   -9.7224519    435.14239 0.0072494733 0.0051096088         3955 
 5003000   0.45724664   -9.7256264    434.46394 0.0072367237 0.0051077122         3969 
 5004000   0.44842421   -9.7279644    434.99032 0.0072440435 0.0051058179         3974 
 5005000   0.45763051   -9.7451918    434.75701 0.0072387115 0.0051039216         3974 
 5006000   0.45878273    -9.740414    434.29678 0.0072296041 0.0051020283         3975 
 5007000   0.44395632   -9.7361548    434.70993 0.0072350364 0.0051001354         3973 
 5008000   0.45963561   -9.7385568    434.88326  0.007236476 0.0050982453         3979 
 5009000   0.44064083   -9.7373423    434.97343 0.0072365313 0.0050963547         3974 
 5010000    0.4547735   -9.7390988    435.05387 0.0072364249 0.0050944638         3976 
 5011000   0.43879999   -9.7405994    435.03097    0.0072346 0.0050925743         3969 
 5012000   0.45247395    -9.741758    434.40606 0.0072227663 0.0050906852         3963 
Loop time of 13331.8 on 48 procs for 5000000 steps with 4000 atoms

Performance: 64807.355 tau/day, 375.043 timesteps/s
99.4% CPU use with 48 MPI tasks x no OpenMP threads

MPI task timing breakdown:
Section |  min time  |  avg time  |  max time  |%varavg| %total
---------------------------------------------------------------
Pair    | 1011.8     | 1105.5     | 1223.8     | 185.3 |  8.29
Neigh   | 94.37      | 98.216     | 103.48     |  21.9 |  0.74
Comm    | 823.43     | 954.3      | 1053.9     | 212.7 |  7.16
Output  | 18.987     | 18.992     | 19.084     |   0.3 |  0.14
Modify  | 10981      | 11032      | 11083      |  22.5 | 82.75
Other   |            | 122.4      |            |       |  0.92

Nlocal:        83.3333 ave          90 max          76 min
Histogram: 2 1 5 7 5 9 3 11 4 1
Nghost:        2444.48 ave        2471 max        2420 min
Histogram: 3 4 2 5 8 10 13 2 0 1
Neighs:        16933.2 ave       19278 max       14228 min
Histogram: 1 4 5 7 6 8 2 3 5 7
FullNghs:      33865.3 ave       36904 max       29994 min
Histogram: 1 2 3 5 8 7 5 12 4 1

Total # of neighbors = 1625533
Ave neighs/atom = 406.38325
Neighbor list builds = 265756
Dangerous builds = 0

#clear
#
#next RN
#
#jump SELF
Total wall time: 3:42:15
