
units lj                  # Use reduced LJ style units
atom_style atomic         # Uncharged point particles
atom_modify map hash      # Needed for indexing of clusters etc
                          # Used to be able to find where atoms are in relation to each other.

lattice fcc 1.0 spacing 1 1 1
Lattice spacing in x,y,z = 1.5874011 1.5874011 1.5874011
region box block 0 10 0 10 0 10 units lattice
create_box 2 box
Created orthogonal box = (0.0000000 0.0000000 0.0000000) to (15.874011 15.874011 15.874011)
  3 by 4 by 4 MPI processor grid
create_atoms 1 box
Created 4000 atoms
  using lattice units in orthogonal box = (0.0000000 0.0000000 0.0000000) to (15.874011 15.874011 15.874011)
  create_atoms CPU = 0.002 seconds
set type 1 type/fraction 2 0.97 78393
Setting atom values ...
  3879 settings made for type/fraction
mass 1 1.0
mass 2 1.0
pair_style lj/cut  3.5
pair_modify tail  yes
pair_coeff 1  1  1.0  1.0   # Intearaction between 1 and 1 set with epsilon = 1 and sigma = 1
pair_coeff 1  2  1.5  0.8
pair_coeff 2  2  0.5  0.88

write_data data.0
System init for write_data ...
Neighbor list info ...
  update every 1 steps, delay 10 steps, check yes
  max neighbors/atom: 2000, page size: 100000
  master list distance cutoff = 3.8
  ghost atom cutoff = 3.8
  binsize = 1.9, bins = 9 9 9
  1 neighbor lists, perpetual/occasional/extra = 1 0 0
  (1) pair lj/cut, perpetual
      attributes: half, newton on
      pair build: half/bin/atomonly/newton
      stencil: half/bin/3d
      bin: standard
WARNING: Not all mixed pair coeffs generated from mixing. Use write_data with 'pair ij' option to store all pair coeffs. (../write_data.cpp:312)


#############################
#   M E L T   S Y S T E M   #
#############################

velocity all create 2.4 6583654 mom yes dist gaussian # Assign velocities
                                                    # Temperature 2.4, random number seed, zero linear momentum
                                                                                # Gaussian distribution

timestep 0.002   # simulation timestep
thermo 1000       # output thermodynamic data every 1000 steps bf 100

# Define a fix  in this case with index 1 applied to all
# particles in the simulation. This fix is for simulations
# in the anisotropic NPT ensemble. Note that we use the MTK
# correction.
fix 1 all npt temp 2.4 2.4 0.1 iso 5.68 5.68 0.5 mtk yes tchain 5 pchain 5 # Use NPT ensemble
                                                                         # Set temperature and pressure and damping
                                                                         # Numbers of thermostats in chain and in barostat
run 10000          # run for 10000 steps
Per MPI rank memory allocation (min/avg/max) = 3.642 | 3.644 | 3.648 Mbytes
Step Temp E_pair E_mol TotEng Press Volume 
       0          2.4   -2.8451072            0   0.75399283    -1.976462         4000 
    1000    2.3635745   -1.6624574            0     1.882018    5.7266196    4160.3782 
    2000    2.4078345   -1.6329027            0    1.9779461    5.6669272    4229.9532 
    3000    2.4068835   -1.6862452            0    1.9231774    5.6261111    4176.3297 
    4000    2.4289163   -1.6610797            0    1.9813839    5.9090049    4151.8703 
    5000    2.3682021    -1.659426            0    1.8919891    5.8412623    4153.0637 
    6000    2.3642927   -1.6755154            0     1.870037    5.5190244    4203.6368 
    7000    2.4422646   -1.6558478            0    2.0066332    5.7492147    4192.0424 
    8000    2.3602107   -1.6761194            0    1.8633115    5.5435221    4187.1724 
    9000    2.4171163   -1.6728975            0    1.9518705    5.3936624    4241.4865 
   10000    2.4100046   -1.6644126            0    1.9496906    5.3666709    4251.6332 
Loop time of 2.4061 on 48 procs for 10000 steps with 4000 atoms

Performance: 718175.668 tau/day, 4156.109 timesteps/s
99.6% CPU use with 48 MPI tasks x no OpenMP threads

MPI task timing breakdown:
Section |  min time  |  avg time  |  max time  |%varavg| %total
---------------------------------------------------------------
Pair    | 1.0665     | 1.1046     | 1.2032     |   3.0 | 45.91
Neigh   | 0.20531    | 0.21267    | 0.23305    |   1.1 |  8.84
Comm    | 0.73217    | 0.83529    | 0.89855    |   4.4 | 34.72
Output  | 0.00024498 | 0.00025028 | 0.00031877 |   0.0 |  0.01
Modify  | 0.20803    | 0.23874    | 0.29774    |   5.4 |  9.92
Other   |            | 0.01459    |            |       |  0.61

Nlocal:        83.3333 ave          96 max          73 min
Histogram: 4 3 4 7 11 8 7 2 1 1
Nghost:        1576.15 ave        1604 max        1545 min
Histogram: 1 4 2 5 14 6 5 3 4 4
Neighs:        8990.94 ave       10456 max        7702 min
Histogram: 2 4 4 9 7 11 4 3 2 2

Total # of neighbors = 431565
Ave neighs/atom = 107.89125
Neighbor list builds = 914
Dangerous builds = 242

# Equilibrate just above the melting temperature to avoid step fn in T

fix 1 all npt temp 1.25 1.25 0.1 iso 5.68 5.68 0.5 mtk yes tchain 5 pchain 5
run 2000
Per MPI rank memory allocation (min/avg/max) = 3.643 | 3.645 | 3.649 Mbytes
Step Temp E_pair E_mol TotEng Press Volume 
   10000    2.4100046   -1.6644126            0    1.9496906    5.3666709    4251.6332 
   11000    1.2569827   -2.5324297            0  -0.64742694    5.5986641    3281.1292 
   12000    1.2478373   -2.5313887            0  -0.66010076    5.9308044    3247.6609 
Loop time of 0.578682 on 48 procs for 2000 steps with 4000 atoms

Performance: 597218.938 tau/day, 3456.128 timesteps/s
99.6% CPU use with 48 MPI tasks x no OpenMP threads

MPI task timing breakdown:
Section |  min time  |  avg time  |  max time  |%varavg| %total
---------------------------------------------------------------
Pair    | 0.25664    | 0.27743    | 0.3057     |   1.8 | 47.94
Neigh   | 0.038728   | 0.040298   | 0.043176   |   0.5 |  6.96
Comm    | 0.18422    | 0.21146    | 0.23319    |   2.4 | 36.54
Output  | 5.2491e-05 | 5.3658e-05 | 6.8906e-05 |   0.0 |  0.01
Modify  | 0.039738   | 0.044526   | 0.047527   |   1.0 |  7.69
Other   |            | 0.00491    |            |       |  0.85

Nlocal:        83.3333 ave          91 max          76 min
Histogram: 3 2 6 4 8 7 9 3 4 2
Nghost:        1887.65 ave        1906 max        1870 min
Histogram: 2 3 3 9 9 9 4 3 3 3
Neighs:        11767.9 ave       13433 max       10258 min
Histogram: 1 1 8 8 13 6 2 5 3 1

Total # of neighbors = 564861
Ave neighs/atom = 141.21525
Neighbor list builds = 143
Dangerous builds = 12

#############################
# L I N E A R  Q U E N C H  #
#############################

# Define solid atoms. This closely follows ten Wolde  Ruiz-Montero and Frenkel  Faraday Discuss  1996  104  93-110
# Compute components of the per-atom q6 vector
compute q6 all orientorder/atom degrees 1 6 components 6 nnn NULL cutoff 1.3 # compute the Q6 parameter.
                                                                             # Use all neighbours within 1.3 unit cell.

# get number of connections
compute coord_number all coord/atom orientorder q6 0.5

# An atom is solid if it has 8 or more connections (of a possible 14)
variable is_solid atom c_coord_number>=8
group solid dynamic all var is_solid    # Must be dynamic to update
dynamic group solid defined

# do clustering
compute cluster solid cluster/atom 1.3 # Create a cluster where all atoms within are solid and max 1.3 units from another member

# define chunks one chunk per cluster
compute clus_chunks solid chunk/atom c_cluster nchunk every compress yes  # Says which atoms are in which chunk

# count the size of each chunk
compute size_chunks solid property/chunk clus_chunks count


# Find the maximum entry in the vector of chunk sizes
variable max_n equal max(c_size_chunks)


# Thermo style which includes this variable
# thermo_style custom step temp pe vol v_max_n

thermo ${N}  # Print the thermo information every 100 steps
thermo 1000  

# Reset the npt fix at a lower temperature (below freezing)
fix 1  all npt temp  ${temp} ${temp}  0.1  iso  5.68  5.68  0.5  mtk yes tchain  5  pchain  5
fix 1  all npt temp  0.45 ${temp}  0.1  iso  5.68  5.68  0.5  mtk yes tchain  5  pchain  5
fix 1  all npt temp  0.45 0.45  0.1  iso  5.68  5.68  0.5  mtk yes tchain  5  pchain  5

dump dmp2 all dcd ${N} traj.dcd
dump dmp2 all dcd 1000 traj.dcd


compute msd all msd com yes
variable twopoint equal c_msd[4]/6/(step*dt+1.0e-6)
fix 9 all vector 10 c_msd[4]
variable fit equal slope(f_9)/6/(10*dt)
thermo_style custom step temp pe c_msd[4] v_twopoint v_fit v_max_n

fix 1 all npt temp 1.25 ${temp} 0.1 iso 5.68 5.68 0.5 mtk yes tchain 5 pchain 5
fix 1 all npt temp 1.25 0.45 0.1 iso 5.68 5.68 0.5 mtk yes tchain 5 pchain 5
run 500000 # 5000000  # Run for this many steps
Neighbor list info ...
  update every 1 steps, delay 10 steps, check yes
  max neighbors/atom: 2000, page size: 100000
  master list distance cutoff = 3.8
  ghost atom cutoff = 3.8
  binsize = 1.9, bins = 8 8 8
  4 neighbor lists, perpetual/occasional/extra = 1 3 0
  (1) pair lj/cut, perpetual
      attributes: half, newton on
      pair build: half/bin/atomonly/newton
      stencil: half/bin/3d
      bin: standard
  (2) compute orientorder/atom, occasional
      attributes: full, newton on
      pair build: full/bin/atomonly
      stencil: full/bin/3d
      bin: standard
  (3) compute coord/atom, occasional
      attributes: full, newton on
      pair build: full/bin/atomonly
      stencil: full/bin/3d
      bin: standard
  (4) compute cluster/atom, occasional
      attributes: full, newton on
      pair build: full/bin/atomonly
      stencil: full/bin/3d
      bin: standard
Per MPI rank memory allocation (min/avg/max) = 9.810 | 9.819 | 9.825 Mbytes
Step Temp PotEng c_msd[4] v_twopoint v_fit v_max_n 
   12000    1.2478373   -2.5313887 3.8928314e-30 2.703355e-32 8.3333333e+20            1 
   13000    1.2713773   -2.5388525    1.1722657 0.0075145235  0.099559632            1 
   14000    1.2116771   -2.5733331    2.4265576  0.014443795   0.10302365            1 
   15000    1.2525927   -2.5497756     3.671487   0.02039715   0.10434066            2 
   16000    1.2551309   -2.5315945    4.8413121  0.025215166   0.10231512            1 
   17000    1.2583469   -2.5840742    5.9530532  0.029181632   0.10049194            1 
   18000    1.2249079   -2.5582884    7.1979495  0.033323839   0.10011646            2 
   19000    1.2481261   -2.5294622    8.4376139  0.037007078   0.10005656            3 
   20000    1.2406282   -2.5648846     9.707881  0.040449503   0.10055331            2 
   21000    1.2444624   -2.5575487    11.058397  0.043882527   0.10123453            3 
   22000    1.2608753   -2.5545463    12.356183  0.046803723   0.10217003       -1e+20 
   23000    1.2309726   -2.5546372    13.448943  0.048728053   0.10258216            2 
   24000    1.2140333   -2.5668074    14.689095  0.051003802   0.10263365            3 
   25000    1.2151368   -2.5561088    15.842886  0.052809618   0.10261541            1 
   26000    1.2519895   -2.5774524    16.697633  0.053518053   0.10206503            3 
   27000     1.217087   -2.5711747    17.841296  0.055065726   0.10120058            1 
   28000    1.2424741   -2.5846242    18.827122  0.056033101   0.10033795            1 
   29000    1.2534851   -2.5742008    20.031752  0.057562504  0.099669569            2 
   30000    1.1911778   -2.5732701    21.259486  0.059054127  0.099080595            1 
   31000    1.2227045   -2.5899805    22.406686  0.060233027  0.098728944            2 
   32000    1.2148778   -2.5685967    23.659353  0.061612897  0.098438243            2 
   33000    1.2036663   -2.5886578    24.996692  0.063122958  0.098387488            2 
   34000     1.248391   -2.5560538    26.240546  0.064315063  0.098485599            1 
   35000    1.2277436   -2.6101509    27.465088  0.065393066  0.098662347            3 
   36000    1.1963259   -2.5933528    28.897772  0.066892991  0.098796658            2 
   37000    1.2458999   -2.5769454    30.096008  0.067783801  0.099013547            2 
   38000    1.1918376   -2.5901961    31.200641  0.068422457  0.099155389            2 
   39000    1.2090968   -2.6097125    32.642617   0.06974918  0.099359137            1 
   40000     1.194508   -2.6410872    34.009119  0.070852331  0.099631191            3 
   41000    1.2156947   -2.6146631    35.509367  0.072173509   0.09997925            1 
   42000    1.1933162   -2.6032768    36.552715  0.072525228   0.10029475       -1e+20 
   43000    1.1976841   -2.6156518    37.868638  0.073388832   0.10056936            1 
   44000    1.2213897   -2.5948461    39.315529  0.074461229   0.10086199            2 
   45000    1.1999579   -2.6102521    40.381494  0.074780543    0.1011547            4 
   46000    1.1898314   -2.6036337    41.607918  0.075376663   0.10132339            2 
   47000    1.1843508   -2.6120047     42.74284  0.075785177   0.10150042            1 
   48000    1.2051459   -2.5846802    43.781407  0.076009386   0.10158937            2 
   49000    1.2325047    -2.597388    45.439083  0.077277352   0.10173541            2 
   50000    1.2410362   -2.6306172    46.587918   0.07764653   0.10189858            1 
   51000    1.1778246   -2.6082589    48.088855   0.07857656   0.10205033            2 
   52000    1.2018031   -2.6098423    49.018367  0.078555074   0.10214652            2 
   53000    1.1864625   -2.6117958    50.366054  0.079191908   0.10224809            1 
   54000    1.1751198   -2.5906665    51.839236   0.07999882    0.1024105            2 
   55000    1.1916552   -2.6029148    53.065556  0.080402357   0.10257583            2 
   56000    1.2002403   -2.6137289    54.337674  0.080859633   0.10269177            5 
   57000    1.1956398   -2.6040224    55.625477  0.081323796   0.10277534            3 
   58000    1.1846017   -2.5861405    56.305182   0.08089825   0.10278783            1 
   59000    1.1919571   -2.6419616    57.652332  0.081429847   0.10280126            1 
   60000    1.1776953    -2.631777    58.391275  0.081098992   0.10276762            1 
   61000    1.1898797   -2.6377002    59.405329   0.08115482   0.10269275            1 
   62000    1.1593231   -2.6115051    60.696213  0.081580931   0.10257394            1 
   63000    1.1479738   -2.6548134    61.876486  0.081847203   0.10247863            2 
   64000    1.1619662   -2.6386009    63.215115  0.082311347   0.10240033            1 
   65000    1.1357077   -2.6117555     64.32008  0.082461641   0.10230517            2 
   66000    1.1626742   -2.6367437    65.532525  0.082743086   0.10221317            1 
   67000    1.1816595   -2.6770881    66.537617  0.082758229   0.10214927            1 
   68000    1.1549738   -2.6741869    67.991138  0.083322472   0.10209115            2 
   69000    1.1800719   -2.6444657    68.797441  0.083088696    0.1020187            1 
   70000    1.1643105   -2.6361121    70.034644  0.083374575   0.10192725            2 
   71000    1.1386271   -2.6312257    71.559648  0.083990197   0.10185934            1 
   72000    1.1429553   -2.6335065    72.187203  0.083550003   0.10173986            1 
   73000    1.1955003   -2.6454129    73.166212  0.083523073   0.10159837            1 
   74000    1.1376016   -2.6495433    74.673043  0.084091264   0.10148343            2 
   75000    1.1608341   -2.6369786    75.313471  0.083681634   0.10136451            2 
   76000    1.1619728   -2.6160328    76.358207  0.083726103   0.10120636            1 
   77000    1.1557577   -2.6903603    77.177567  0.083525505   0.10104671            1 
   78000    1.1393985   -2.6779135    78.299026  0.083652805   0.10086433            1 
   79000    1.1399096   -2.6715463    79.479401   0.08383903   0.10069368            2 
   80000     1.151595   -2.6314329    80.632076  0.083991746   0.10051058            1 
   81000    1.1603473    -2.621055    81.809913  0.084166576   0.10033407            1 
   82000    1.1119157   -2.6703524    82.514491  0.083856189    0.1001484            1 
   83000     1.125385   -2.6749999    83.313152  0.083647742  0.099954946            3 
   84000    1.1399704   -2.6829245    84.400298  0.083730453  0.099762236            3 
   85000    1.1274433   -2.6729623    85.537246  0.083860045  0.099565048            1 
   86000    1.1338018   -2.6661103    86.634719   0.08394837  0.099381099            3 
   87000    1.1093095   -2.6938454    87.325788  0.083645391  0.099171879            1 
   88000    1.1212123   -2.7040966    87.478351  0.082839347  0.098931581            2 
   89000    1.1203111   -2.6820307    88.817618  0.083162563  0.098663879            1 
   90000    1.1264406   -2.6650291    89.538322  0.082905854  0.098398724            2 
   91000    1.1073413   -2.6674828    90.979235  0.083314317  0.098155031            1 
   92000    1.1542572    -2.713579    91.757281  0.083113479  0.097900627            1 
   93000    1.1132053   -2.6767255     92.42549  0.082818539  0.097645625            1 
   94000    1.1091324   -2.6759895    93.125437  0.082558011  0.097388863            1 
   95000    1.1338251   -2.6722203    94.500259  0.082894963  0.097128782            1 
   96000    1.1209448    -2.667827    95.127679   0.08257611  0.096868473            4 
   97000      1.09843   -2.6845264    95.858905  0.082353011   0.09659594            1 
   98000    1.1065377   -2.6788383    96.769547  0.082287029    0.0963371            2 
   99000      1.12921   -2.6820746    97.571839  0.082131177  0.096080915            2 
  100000    1.1278803   -2.7017331     99.04439  0.082536991  0.095827068            3 
  101000     1.097231   -2.7013168    99.638289  0.082209809  0.095584354            2 
  102000    1.1148406   -2.7442331    100.45978  0.082074983  0.095331731            3 
  103000    1.1065963   -2.7010516    101.73349  0.082308646  0.095079577            1 
  104000    1.0956162   -2.7174787    102.59596  0.082208304  0.094836688            1 
  105000    1.0975082   -2.7165212    103.48472  0.082130732  0.094600708            3 
  106000    1.1001966    -2.697501    104.55479   0.08219716  0.094357516            2 
  107000    1.0925874    -2.709103    105.09127  0.081846783  0.094120864            7 
  108000    1.0843422   -2.7009974    106.08655  0.081856904  0.093887517            2 
  109000    1.1021896     -2.68893    107.27379  0.082013602  0.093654846            1 
  110000    1.0899579   -2.7503607    107.80261   0.08166864  0.093437034            2 
  111000    1.0962289   -2.7186279    108.88145  0.081742827  0.093200411            1 
  112000    1.0726995   -2.7359265    109.60218  0.081549238  0.092965808            2 
  113000    1.0815985   -2.7057065    110.28892  0.081334011  0.092729079            2 
  114000    1.1012475   -2.7471399    111.29792   0.08135813  0.092497033            2 
  115000    1.0875493   -2.7579815    112.69234  0.081661116  0.092284983            7 
  116000    1.0860277   -2.7269739    112.98661  0.081168538  0.092075186            2 
  117000    1.0874238    -2.737119    114.72684  0.081714274  0.091876885            2 
  118000    1.0684374   -2.7446959    115.63311  0.081661799  0.091687281            3 
  119000     1.094582   -2.7458865    116.44455  0.081543804   0.09149455            1 
  120000    1.0792635   -2.7093317    117.49856  0.081596223  0.091306856            2 
  121000    1.0383585   -2.7330666    118.13753  0.081361938  0.091115928            3 
  122000    1.0435923   -2.7504374    118.68078  0.081066108  0.090916921            8 
  123000    1.0677857   -2.7178301    120.04294  0.081329907  0.090725786            2 
  124000    1.0723891   -2.7546543    120.42436  0.080930346  0.090527297            2 
  125000    1.0581652   -2.7740844    121.23876  0.080825841  0.090331449            3 
  126000    1.0695132     -2.76707    122.28341  0.080875273  0.090133187            7 
  127000    1.0899828   -2.7597631    122.73342  0.080533738   0.08993422            2 
  128000    1.0526569   -2.7168948    124.02872  0.080747867  0.089732059            3 
  129000    1.0847912   -2.7379602     124.3637  0.080338304  0.089542934            2 
  130000     1.068916   -2.7739984    125.24789  0.080287106  0.089355343            3 
  131000     1.047419    -2.769896      126.217   0.08029071  0.089166753            1 
  132000    1.0295015   -2.7728142    127.25756   0.08033937  0.088984834            3 
  133000    1.0559385   -2.7542951    128.25141  0.080358026  0.088807501            2 
  134000    1.0466148   -2.7857179    128.81035  0.080105936  0.088634191            2 
  135000    1.0424144   -2.7739671    129.89901  0.080184573  0.088460852            2 
  136000    1.0421952   -2.7773424    130.22302  0.079793514  0.088282226            2 
  137000    1.0512808   -2.7742496    131.58641  0.080040393  0.088102946            3 
  138000    1.0472494   -2.7669205    132.51524  0.080021279  0.087929781            2 
  139000    1.0510549   -2.7697027    133.29016  0.079910167  0.087764903            3 
  140000    1.0689329   -2.7776127    134.56284  0.080096931  0.087605674            3 
  141000    1.0591039   -2.8076401    135.20106  0.079906066  0.087447847            2 
  142000    1.0464185   -2.7965173     135.9244  0.079767842  0.087287647            2 
  143000     1.044155   -2.7816417    136.98965    0.0798308  0.087125037            2 
  144000    1.0261092   -2.7693461    137.53079  0.079589579  0.086961133            2 
  145000    1.0455834   -2.7681448    138.87555  0.079813532  0.086811213            2 
  146000    1.0238042   -2.8096091    139.83445  0.079814186  0.086665003            2 
  147000    1.0384916   -2.7727642     140.6477  0.079732254  0.086522483            1 
  148000    1.0308121   -2.8040421    141.59863  0.079728957  0.086383234            1 
  149000    1.0479801   -2.7858931     141.7953  0.079303857  0.086239482            3 
  150000    1.0335533   -2.7905706    143.17371  0.079540947  0.086099197            2 
  151000    1.0194112   -2.8004976    143.93555  0.079434628  0.085964462            2 
  152000    1.0512848   -2.7850332    145.49281  0.079765794  0.085830973            2 
  153000    1.0271071   -2.7886816    145.44177  0.079216651  0.085696077            2 
  154000     1.022889    -2.817877    146.08097  0.079048142   0.08555692            3 
  155000    1.0433344   -2.8073152    147.25791  0.079170921   0.08542167            2 
  156000    1.0128877   -2.8175022    148.08252  0.079103909   0.08528796            1 
  157000    1.0327009   -2.7907846    149.43243  0.079316577  0.085156771            1 
  158000    1.0240548   -2.8045257    149.34958  0.078770873  0.085019994            2 
  159000    1.0137247   -2.8465803    150.16581  0.078703255   0.08487922            4 
  160000    1.0068962   -2.8040923     150.9861  0.078638593  0.084733911            3 
  161000    1.0120614   -2.7916588    152.21637  0.078786943   0.08459505            3 
  162000    1.0223714    -2.832139    152.44075  0.078416022  0.084451946            3 
  163000   0.99731651   -2.8111367    153.51544  0.078484378  0.084310386            4 
  164000    1.0206265   -2.8105143    154.30886  0.078408973  0.084171604            2 
  165000   0.99476018   -2.8374691     155.3859  0.078477725  0.084034264            3 
  166000    1.0138054   -2.8344772    155.65877  0.078141955  0.083895547            2 
  167000   0.98768014   -2.8058123    156.18587   0.07793706  0.083754125            3 
  168000   0.99948994   -2.8175117    157.34169  0.078046475  0.083610966            1 
  169000     1.001314   -2.8313895    157.52799  0.077676523  0.083466009            2 
  170000   0.99154883   -2.8439034    158.36286  0.077628853  0.083326422            2 
  171000   0.99569811   -2.8636472    158.47341  0.077228755  0.083178843            3 
  172000    1.0105317   -2.8515918     159.7561  0.077401211   0.08303568            1 
  173000     0.977734   -2.8018204    161.35788  0.077725374  0.082902912            1 
  174000   0.98944108   -2.8117886    161.89799  0.077537353  0.082769777            2 
  175000    1.0133678   -2.8585214    162.83528  0.077540611  0.082636855            5 
  176000   0.98904819   -2.8715076    163.17659  0.077261645  0.082504396            3 
  177000   0.99071291   -2.8681566    163.89276  0.077162317  0.082373473            3 
  178000    1.0029798   -2.8399434    166.20578  0.077811693  0.082246266            2 
  179000   0.96525145   -2.8446132    165.79723  0.077186794  0.082118152            8 
  180000   0.97392162   -2.8739645    166.29915  0.076990345  0.081992175            1 
  181000   0.97641142   -2.8639748    167.19522  0.076977542   0.08186668            5 
  182000   0.98640485   -2.8651962    167.44975   0.07667113  0.081735122            1 
  183000   0.98301432   -2.8644394    168.61943  0.076784806  0.081609584            2 
  184000   0.97753819   -2.8566341    169.28326  0.076668141   0.08148608            4 
  185000   0.96491971   -2.8644234    170.38204  0.076748668  0.081362405            1 
  186000   0.98704727    -2.844972    170.68981  0.076473928  0.081236747            3 
  187000   0.96857228   -2.8473122    171.63099    0.0764844  0.081116978            2 
  188000   0.97149695   -2.8829325    173.23107  0.076786822   0.08100113            3 
  189000    0.9488112   -2.8514448    173.62827  0.076555675  0.080885936            3 
  190000   0.96585049    -2.873796     174.2382  0.076420262  0.080771994            2 
  191000   0.98412061   -2.8896694    175.68459  0.076651215  0.080658629            2 
  192000   0.96465909   -2.8538297    175.93703  0.076361558  0.080541532            4 
  193000   0.97883988   -2.8848313    176.63744  0.076268325  0.080428255            2 
  194000   0.96760703   -2.8604807    177.40945  0.076206808  0.080311239            1 
  195000   0.95232497   -2.8642744    176.94822  0.075618895  0.080189074            2 
  196000   0.95195245   -2.8794769     178.4931  0.075889925  0.080060637            1 
  197000   0.95721193   -2.8833847    177.99483  0.075293921   0.07993594            3 
  198000   0.96108631   -2.8857253    179.07268  0.075367289  0.079809372            2 
  199000   0.93969874   -2.8880905    180.09589   0.07541704  0.079682392            3 
  200000   0.91849659   -2.8610607    181.14056  0.075475232  0.079555479            7 
  201000   0.96254702   -2.8482721    181.89043  0.075410626  0.079426764            2 
  202000   0.94175869   -2.8758269    181.39927  0.074834682  0.079294396            4 
  203000   0.95761565   -2.8795976    181.52635  0.074518204  0.079159645            3 
  204000   0.92849166    -2.897364    182.59295  0.074588623  0.079017954            2 
  205000   0.91453339   -2.8982022    182.56428  0.074213122  0.078877704            2 
  206000    0.9487353   -2.9155179    183.50149  0.074231993  0.078736742            4 
  207000   0.93745818   -2.8816418    184.27798  0.074185982  0.078595406            1 
  208000   0.94929604   -2.9162856    183.31624  0.073444005  0.078452142            3 
  209000   0.94480554   -2.8930088    185.54202  0.073980071  0.078308138            5 
  210000   0.92109585   -2.9016254    185.97622  0.073800086  0.078169561            3 
  211000   0.92279419   -2.9151467    186.53218  0.073669897  0.078028629            3 
  212000   0.91662787   -2.9110654    187.15786  0.073568341  0.077890985            3 
  213000   0.92708008   -2.9062701    188.38865   0.07370448  0.077757854            3 
  214000   0.92750973   -2.9389961     188.6772   0.07347243  0.077624177            2 
  215000   0.94301585    -2.897895    189.65693  0.073510438  0.077492098            2 
  216000   0.91908185   -2.9398946    189.75533  0.073208076  0.077358742            3 
  217000   0.93116595   -2.9138359    190.60265  0.073196101   0.07722059            4 
  218000   0.93697107   -2.9391781    190.98945  0.073008198   0.07708293            4 
  219000   0.92396808   -2.9563839    192.06349  0.073083519  0.076946586            3 
  220000   0.90942498   -2.9407255    192.39414  0.072876568  0.076809666            2 
  221000   0.91821142   -2.9276571    192.40391  0.072550493  0.076674106            1 
  222000   0.89852478   -2.9360516    192.71008  0.072338617  0.076538637            6 
  223000   0.92960659   -2.9412039    193.80399  0.072423014  0.076401825            2 
  224000   0.93451553   -2.9284079    194.74469  0.072449662  0.076264305            7 
  225000   0.90455051   -2.9370098    194.80152  0.072148712  0.076123334            4 
  226000   0.91306907   -2.9617945    195.03012  0.071913762  0.075981108            2 
  227000   0.90677295    -2.954442    195.71924  0.071849942  0.075837583            2 
  228000   0.88025997   -2.9573289    195.77801  0.071556289  0.075695768            2 
  229000   0.88382596   -2.9359234    196.53205  0.071518212  0.075550603            3 
  230000   0.90738361   -2.9475991    197.65159  0.071612896  0.075404992            3 
  231000   0.90010789   -2.9497273    197.34308  0.071191586  0.075260055            4 
  232000   0.92166962   -2.9529766    198.05184  0.071139311  0.075111367            2 
  233000   0.89547123   -2.9820096    198.08891   0.07084725   0.07496681            3 
  234000   0.88972469   -2.9568091    199.35836  0.070996567  0.074825952            2 
  235000   0.89049825    -2.957372    200.04495  0.070937924  0.074682897            3 
  236000    0.8998967   -2.9864478       200.61  0.070836866  0.074544256            4 
  237000   0.89315642   -2.9594883    201.83087  0.070967252  0.074407649            2 
  238000   0.87712781   -2.9499848    202.64967  0.070955765  0.074271734            2 
  239000   0.91401372   -2.9665432     202.9169  0.070752058  0.074135459            4 
  240000   0.88705322   -2.9781069    202.64004  0.070361125  0.073998261            3 
  241000   0.87179116   -2.9598687    202.97492  0.070184967  0.073859046            4 
  242000   0.86868713   -2.9802831     203.9103  0.070217046  0.073717866            1 
  243000    0.8538022   -2.9550473    204.23317   0.07003881  0.073577579            4 
  244000   0.86351498   -2.9626148    205.07955  0.070040831  0.073439334            2 
  245000   0.89033012   -2.9592276    204.87782  0.069686335  0.073301069            1 
  246000    0.8622151   -2.9954118    206.35496  0.069903443  0.073161503            2 
  247000   0.88163727   -2.9951183    206.81468  0.069775531   0.07302872            4 
  248000   0.86431083   -2.9925388    207.18835  0.069619743  0.072894361            3 
  249000   0.84835818   -2.9914195    208.01721   0.06961754  0.072759943            4 
  250000   0.86433316   -2.9774228    207.81242  0.069270808  0.072625658            4 
  251000   0.88479564    -3.016187    208.66935  0.069279333  0.072486257            6 
  252000   0.85661441   -2.9880672     208.5839  0.068976158   0.07234822            9 
  253000   0.85915132   -3.0091443    209.27146  0.068929994  0.072211564            2 
  254000   0.85953951   -3.0242545    209.47903  0.068726717  0.072072168            4 
  255000   0.83932446   -3.0150821    210.35911  0.068744808   0.07193688            4 
  256000   0.86368553   -3.0157441    211.15549  0.068735512  0.071801663            3 
  257000   0.87319998   -3.0107748    212.22679  0.068815432  0.071667444            3 
  258000   0.86175684   -3.0177573    211.64942  0.068362214   0.07153128            6 
  259000   0.87738844   -3.0026672    212.19095  0.068272505  0.071397559            2 
  260000   0.84214954   -3.0116368    212.61598  0.068146148  0.071262787            2 
  261000   0.85331834   -3.0100814    212.66708  0.067901365  0.071127607            4 
  262000   0.84297752     -3.02406    213.28759  0.067839564  0.070988756            6 
  263000   0.84157326   -3.0138653    214.24004  0.067883409  0.070850278            3 
  264000   0.84604597   -3.0413666    215.05166   0.06788247  0.070715314            6 
  265000   0.83868816   -3.0370032    215.28395  0.067699355  0.070580446            3 
  266000    0.8221195    -2.990644    215.78915  0.067603118  0.070447351            6 
  267000   0.84072357   -3.0308643    216.70454  0.067635625  0.070313877            3 
  268000   0.86252773   -3.0555468    216.51027  0.067322844  0.070180849            3 
  269000   0.85291796   -3.0729634    216.67445  0.067123435  0.070047335            5 
  270000   0.83018803   -3.0206439    218.50799  0.067440739  0.069917863            4 
  271000   0.83266668    -3.044762    218.41819  0.067164266  0.069788461            3 
  272000   0.83060368    -3.038362    218.67069  0.066994698   0.06965902            4 
  273000   0.84229865   -3.0425076    219.06946  0.066871018  0.069527784            3 
  274000   0.83700544   -3.0476845    220.45498  0.067048351  0.069399699            3 
  275000   0.82917607   -3.0602994    219.83401  0.066616368  0.069270485            4 
  276000   0.81587586   -3.0756713     220.4029  0.066546768   0.06914022            2 
  277000   0.83982581   -3.0825916    220.77615  0.066418818  0.069010738           11 
  278000   0.81980625   -3.0321231    221.08843  0.066273509  0.068879992            2 
  279000   0.82447469   -3.0693911    221.24377  0.066082369  0.068747943            4 
  280000   0.81185083   -3.0478263    222.23478  0.066141304  0.068616744            3 
  281000   0.81911116   -3.0686787    221.97621  0.065829244  0.068484438           16 
  282000    0.8342427    -3.083714    223.17345  0.065949601   0.06835332            6 
  283000   0.83520206   -3.0864713    223.65263  0.065857666   0.06822235            8 
  284000   0.83110232   -3.0470346    223.80926   0.06567173   0.06809337            4 
  285000   0.82089065   -3.0745302    224.74164  0.065713931  0.067963213            2 
  286000   0.81349401   -3.0684825    224.80634  0.065503013  0.067834016            3 
  287000   0.81714297   -3.0822702    224.43047  0.065165642   0.06770723            3 
  288000   0.80941677   -3.1023722    224.87125  0.065066912  0.067576375            3 
  289000   0.81491785   -3.1070423    224.70174   0.06479289  0.067445097            4 
  290000   0.81835457   -3.1068613    225.87849  0.064907612  0.067312081            5 
  291000   0.78824369   -3.0879568    226.19869  0.064776257  0.067181845            5 
  292000   0.80093143   -3.0896156     227.3608  0.064886074  0.067053423            4 
  293000   0.81045596   -3.0953165    227.47516  0.064697144  0.066926055            4 
  294000   0.79446652   -3.1070241    227.95065  0.064611861  0.066798282            5 
  295000   0.80088095   -3.0839607    228.29469  0.064490025  0.066670764            5 
  296000   0.81098537   -3.1251915    228.11287  0.064220965  0.066542132            4 
  297000   0.77619439   -3.1139296    229.42443  0.064372735  0.066414899            5 
  298000   0.78462474   -3.0930621    229.19084  0.064091397  0.066286362            2 
  299000   0.80249611    -3.114368     229.6325   0.06400014  0.066158078            2 
  300000   0.78277724   -3.1207256    230.31449  0.063976247  0.066031399            4 
  301000   0.79426475   -3.1180833    230.14094  0.063715654  0.065905705            8 
  302000   0.79711034   -3.1367501    230.88152  0.063709028  0.065778677            5 
  303000    0.7766115   -3.1093351    232.01603  0.063810789  0.065655003            7 
  304000   0.77162175   -3.1164892    232.38999  0.063703397  0.065533353            5 
  305000    0.7928605   -3.1111482    231.92372  0.063367137   0.06540862           10 
  306000    0.7717329     -3.13669    233.12349   0.06348679  0.065284795            3 
  307000   0.77781731   -3.1133458     233.9749  0.063511102  0.065162569            4 
  308000   0.77979227   -3.1202607    233.89771  0.063284013  0.065041165            4 
  309000   0.78472839   -3.1102513    233.47765  0.062965925  0.064919764            4 
  310000   0.76774402   -3.1350059    234.07056  0.062922193  0.064798934           14 
  311000   0.77335105   -3.1478069    234.96215  0.062958777  0.064675543            4 
  312000   0.74565976   -3.1212036    235.76185  0.062970578  0.064553736            5 
  313000   0.75562022   -3.1421192    236.22813  0.062893537  0.064433513            4 
  314000   0.75465238   -3.1156231    237.17082  0.062943424  0.064313382            3 
  315000     0.760169   -3.1173906    236.37608  0.062533355  0.064194827            4 
  316000   0.79278404   -3.1564612    236.95139  0.062487182  0.064077397            4 
  317000   0.75691926   -3.1536598    237.63197  0.062468973  0.063961363            3 
  318000   0.76351883   -3.1604139    238.36187  0.062463803  0.063844582            3 
  319000   0.74460656   -3.1830208    238.68575  0.062352599   0.06372772            4 
  320000   0.74757661   -3.1480114    239.33476   0.06232676  0.063610669            4 
  321000   0.75389709   -3.1378925    240.23279   0.06236573  0.063493418            6 
  322000   0.73990662   -3.1645881    238.56529  0.061740501  0.063376279            5 
  323000   0.74190775   -3.1714055    239.79194  0.061865826  0.063258769            5 
  324000   0.74964853   -3.1654205    239.72632  0.061658003  0.063142423            3 
  325000   0.74955198   -3.1548128    240.30952  0.061617826  0.063025268            2 
  326000   0.76271585   -3.1925518    241.12777  0.061637979  0.062907567            4 
  327000   0.74117816    -3.165156    240.48625  0.061285995  0.062790119            7 
  328000   0.73210822   -3.1957416    241.44255  0.061342112  0.062672781            6 
  329000   0.75086945   -3.1721486    241.85391  0.061259854  0.062555001            6 
  330000   0.75144822   -3.1829704    241.79508  0.061059365  0.062435598            7 
  331000   0.72781856   -3.1732822     241.9681  0.060918453  0.062315956            3 
  332000   0.74234303   -3.1957452    242.01758  0.060747385  0.062195773            4 
  333000   0.73936275   -3.1933946    242.43433  0.060669252  0.062077635            3 
  334000   0.73900172    -3.166704    243.31878  0.060708277  0.061959258            7 
  335000   0.73542963   -3.1732775    242.39658  0.060297657  0.061840632            3 
  336000   0.72634785   -3.1767642    243.56925  0.060409041  0.061722104            4 
  337000   0.73606257   -3.2147438    243.40153   0.06018831    0.0616021            5 
  338000   0.73747162   -3.2136397    243.51535  0.060038302  0.061483268            3 
  339000   0.71886495    -3.199794    244.39391  0.060077166  0.061363577            4 
  340000   0.72937286   -3.2059166    243.62477  0.059711953  0.061244194            4 
  341000   0.71937778   -3.2148605    244.35098  0.059714317  0.061123574            4 
  342000   0.74472106   -3.1919136     244.7939  0.059647636  0.061003619            4 
  343000   0.71960838   -3.2042178    244.60517  0.059427884  0.060883393           13 
  344000   0.72368491   -3.2273218    245.37955  0.059442721  0.060763221            7 
  345000   0.72935913   -3.2284783    244.72749   0.05911292  0.060643342            6 
  346000   0.71605528   -3.2267605    245.96792  0.059240828  0.060523915            5 
  347000   0.72040802   -3.2129663    245.73522  0.059014222  0.060405026            6 
  348000   0.71784057   -3.2235763    246.24033  0.058965597  0.060284716            4 
  349000   0.71200001   -3.2245851    246.03694  0.058748076  0.060163569            7 
  350000   0.71487523   -3.2417085    245.40006  0.058428586  0.060041089            5 
  351000   0.70179389   -3.2246139     246.3388  0.058484995  0.059918547            5 
  352000     0.710741   -3.2415719    246.55371  0.058369722  0.059794495            4 
  353000   0.71481665    -3.244473    247.04341  0.058319975  0.059670714            4 
  354000   0.69566886   -3.2759978    246.29694  0.057979506  0.059546115            4 
  355000   0.69008093   -3.2524024    247.42723  0.058081508  0.059421389            4 
  356000   0.69969489   -3.2509879    247.55375  0.057947975    0.0592974            5 
  357000   0.69402351   -3.2096831    247.66409  0.057811412  0.059174735            5 
  358000   0.70597339   -3.2515033    247.41321  0.057591529  0.059051712            6 
  359000   0.69611125    -3.271839    247.59234  0.057472689  0.058927494            8 
  360000    0.6799614   -3.2745191    247.37707  0.057263211  0.058803133            6 
  361000   0.70328951   -3.2705661    247.65763  0.057169352  0.058678258            7 
  362000    0.7022692   -3.2491427    248.27269  0.057153013  0.058553581            5 
  363000   0.68005454   -3.2592623    249.15527  0.057198179   0.05843121            5 
  364000   0.67981957   -3.2418539    249.08971  0.057026032  0.058309187            4 
  365000   0.68950623   -3.2727738    249.10119  0.056872418  0.058187662            5 
  366000   0.67515071   -3.2589847    249.29054  0.056760141  0.058064959            4 
  367000    0.6792823   -3.2519086    250.18832  0.056809337  0.057944042            3 
  368000   0.68809519   -3.2676139    250.05616  0.056625036  0.057823326            8 
  369000   0.68615887   -3.2606169     250.1159  0.056485072  0.057703125            5 
  370000    0.6775247   -3.2838505    251.18333  0.056572823  0.057582564           11 
  371000   0.68626795   -3.2981984    250.56084  0.056280513  0.057463093            7 
  372000   0.67406041   -3.2902365     250.2731  0.056064762  0.057342608            5 
  373000   0.67071365   -3.2635237    251.64956  0.056221975  0.057223188            8 
  374000   0.66136282   -3.2981274    251.56567  0.056052957   0.05710438            4 
  375000   0.66069141   -3.2982852    251.61545  0.055914545  0.056985737            5 
  376000   0.65594659   -3.2877882    251.77075  0.055800255  0.056866176            6 
  377000   0.66275333   -3.3083218    252.09018  0.055722852  0.056747114            4 
  378000   0.67671731   -3.3054879    252.61667  0.055691505  0.056629295            9 
  379000   0.65477605    -3.293289    253.01702   0.05563259  0.056511019            3 
  380000   0.66411731   -3.3063831    252.63857  0.055403195  0.056392379           11 
  381000   0.65279356   -3.2890305    253.53392  0.055453614  0.056275592            6 
  382000   0.65049036   -3.3201278    253.46985  0.055294469  0.056160075           12 
  383000   0.65859821    -3.312777    253.74942  0.055210928  0.056043831           13 
  384000   0.64178112   -3.3106635    254.10878  0.055145135  0.055927941            7 
  385000   0.64619695   -3.3091543    253.64822  0.054902212  0.055810398           14 
  386000   0.65948613    -3.309703    254.67816  0.054982333  0.055694039            8 
  387000   0.65752405   -3.3163405    254.26224  0.054750698  0.055578003            9 
  388000   0.64876731   -3.3044272     254.0522  0.054564477  0.055461182            6 
  389000   0.64927363   -3.3207272     254.3132  0.054480119  0.055344972            4 
  390000   0.65439838   -3.3288496       254.17  0.054309829  0.055229114            7 
  391000   0.65375732   -3.3350518    254.43146  0.054226654  0.055112542            4 
  392000   0.63318014   -3.3313627      254.654  0.054135629  0.054996325            5 
  393000    0.6186901   -3.3401513     254.9659  0.054064017  0.054879543            7 
  394000   0.63005115   -3.3312236     255.7588  0.054094501  0.054765074            6 
  395000    0.6379173   -3.3372443    256.74459  0.054165525  0.054650878            9 
  396000   0.64154638   -3.3741357    255.70055  0.053809038  0.054536983            4 
  397000    0.6452071   -3.3392112    255.87844  0.053710841  0.054421888            7 
  398000   0.63028954   -3.3434773    256.06358  0.053614653  0.054307696            5 
  399000   0.61408582     -3.36511    256.94978  0.053665368  0.054193725            6 
  400000   0.63139534   -3.3424241      256.951  0.053531459   0.05407971            6 
  401000   0.62287013   -3.3540394    257.14736   0.05343877  0.053966319           10 
  402000   0.63294334     -3.36547    257.36194   0.05335032   0.05385259            9 
  403000   0.62435671   -3.3645914    257.65141  0.053277794  0.053739327            7 
  404000   0.62868701   -3.3760458    257.70668  0.053157318  0.053627156            6 
  405000   0.61216963   -3.3693829    257.40203   0.05296338  0.053513868            9 
  406000   0.62026207    -3.364535    257.40042  0.052832598  0.053400521            4 
  407000   0.62715813   -3.3603148     257.8308  0.052790908  0.053287353           13 
  408000   0.61173521   -3.3829679     258.0765  0.052711704  0.053175533           15 
  409000   0.61937226   -3.3818568    258.43947  0.052656779   0.05306318            6 
  410000   0.60091801   -3.3814227     257.7092  0.052379918  0.052950861            7 
  411000   0.60952697   -3.3722312    258.95922  0.052505925  0.052839142            3 
  412000   0.61414623   -3.3848281    258.71471  0.052329027  0.052726972            6 
  413000   0.61423107   -3.3831862    258.26204  0.052110985  0.052614964            7 
  414000   0.60635623   -3.4107037    258.39275  0.052011423  0.052503483            6 
  415000   0.60143121    -3.398279    258.56341  0.051920364  0.052391039           13 
  416000   0.61296687   -3.3989968    258.51426  0.051785709  0.052277931            6 
  417000   0.59650523   -3.4165794     257.5849    0.0514758  0.052164437            8 
  418000   0.59927848   -3.3905644    258.59525  0.051554077  0.052051195           10 
  419000   0.60105167   -3.4083831     258.1575  0.051343974  0.051937706           10 
  420000   0.57883998   -3.4202237    258.74752  0.051338794  0.051822773            8 
  421000   0.58526602   -3.4179203    258.66086  0.051199695  0.051708674           11 
  422000   0.59894067   -3.3984576    258.42659  0.051032107  0.051594493            9 
  423000   0.58019622    -3.425487    258.49222  0.050924392  0.051480154           14 
  424000   0.58718538   -3.4238591     259.0665  0.050917157  0.051366217            8 
  425000   0.59360786   -3.4200481    258.85161  0.050755218  0.051252383            7 
  426000   0.58879167   -3.4142129    259.04399  0.050673708   0.05113885           13 
  427000   0.58876862   -3.4129111    259.21461  0.050588332  0.051025681            7 
  428000   0.57598961   -3.4381878    259.23318   0.05047375  0.050913029            7 
  429000   0.58716558   -3.4323276    260.04553  0.050513895  0.050801498            8 
  430000   0.58016288   -3.4224348    259.68459  0.050326471  0.050689498           10 
  431000   0.57975323   -3.4315507    259.30055  0.050135451   0.05057816           13 
  432000   0.57987187   -3.4377696    260.66811  0.050283199   0.05046686            7 
  433000   0.57738679   -3.4445641    260.21916  0.050080669  0.050355103           14 
  434000   0.57921987   -3.4348549    259.71153  0.049867806  0.050243243           10 
  435000   0.57132188   -3.4645769    259.74235  0.049759071  0.050132083            7 
  436000   0.57411251   -3.4515307    259.88406  0.049672029  0.050021175            7 
  437000   0.57316964   -3.4572785    260.67326   0.04970886  0.049910008           10 
  438000   0.56578117   -3.4655135    260.27384  0.049519376  0.049798887           37 
  439000    0.5684861    -3.447832     260.7658  0.049499962  0.049688397            6 
  440000    0.5680993   -3.4561878    260.50928  0.049338879  0.049576969            4 
  441000   0.55921708   -3.4847426    260.37153   0.04920097   0.04946489           27 
  442000   0.55946371   -3.4638872    260.67555  0.049146975  0.049353167           16 
  443000   0.55625145   -3.4609134    259.95076  0.048899691  0.049241942            9 
  444000   0.57338847   -3.4800652    260.04059  0.048806417  0.049130542            6 
  445000   0.55687279   -3.4580056     260.9042  0.048858465  0.049019279            7 
  446000   0.55760675   -3.4882715    259.80373  0.048543298  0.048907841           12 
  447000   0.54806979   -3.4883227    260.72814  0.048607037   0.04879648            9 
  448000    0.5636961   -3.4866641    260.41302  0.048439921  0.048685826           26 
  449000   0.53879801   -3.4817026    260.46701  0.048342058  0.048575026           11 
  450000   0.55187718   -3.5063207    261.03734  0.048340248  0.048464805           10 
  451000   0.55414581   -3.4936611    261.68014  0.048351837  0.048355415           11 
  452000   0.55416804    -3.505754    261.09809  0.048137554  0.048246274            6 
  453000   0.55106431   -3.4921298    260.79095  0.047974789  0.048136742           12 
  454000   0.54752844   -3.4768711    262.05459  0.048101063  0.048027814            7 
  455000   0.54355406   -3.5041271    260.58355  0.047725924  0.047918806            9 
  456000   0.54162364   -3.5037177    261.97813   0.04787612  0.047810188            8 
  457000   0.54131668   -3.4979243    262.18747  0.047809531  0.047702265           11 
  458000   0.52830258    -3.516844    261.94107  0.047660312  0.047594268            8 
  459000   0.54536216   -3.5211215    261.58836   0.04749244  0.047485763           24 
  460000   0.53136687   -3.5058251    261.83206  0.047433344  0.047377238            6 
  461000   0.54265213   -3.5200668    261.08241   0.04719494  0.047268004           16 
  462000   0.53367143   -3.5227183    261.20557  0.047115001  0.047159538            8 
  463000   0.52846674    -3.539723    261.20149  0.047012507  0.047050024           19 
  464000   0.53004249   -3.5303534    261.32048  0.046932557  0.046941458           10 
  465000   0.52933997   -3.5276596    261.79864  0.046917318  0.046833752           11 
  466000   0.52668015   -3.5222686    261.81047  0.046818754  0.046726185            9 
  467000    0.5229397   -3.5370973    262.15705  0.046780344  0.046619123           14 
  468000   0.52542238    -3.533918    262.39096  0.046722037  0.046512666           20 
  469000   0.52068231   -3.5520752    261.73843  0.046506473  0.046405934           29 
  470000   0.50726369   -3.5393012    262.22622   0.04649401  0.046299489            9 
  471000   0.51409638   -3.5276898    261.72848  0.046307233  0.046194131           18 
  472000    0.5149065   -3.5521003    262.00506  0.046257955  0.046088672            8 
  473000    0.5155092   -3.5450702    262.50475  0.046248194  0.045982539            8 
  474000    0.5129683   -3.5478631    262.13564  0.046085731  0.045876427            8 
  475000   0.51661532   -3.5500115    262.38304  0.046032113  0.045770432           11 
  476000   0.50717798   -3.5623736    263.02824  0.046048361  0.045665093           12 
  477000   0.51305122   -3.5699221    262.67725  0.045890505  0.045559775           12 
  478000   0.50359395   -3.5631794    262.90443  0.045834106  0.045454821            9 
  479000   0.50378882   -3.5688675    263.10321  0.045773001  0.045350261           11 
  480000   0.49879825   -3.5727905    262.98422  0.045656982  0.045246232           20 
  481000   0.49756462   -3.5604342    263.36283  0.045627656  0.045142413           19 
  482000    0.4871869   -3.5973857    262.90534  0.045453896   0.04503884           12 
  483000   0.49547119   -3.5794916    262.70447  0.045325133  0.044935288           13 
  484000   0.49605041   -3.5824262    262.49737  0.045195828  0.044831615           10 
  485000   0.49083243   -3.5822234    262.98221  0.045185947  0.044728381            9 
  486000   0.49792885   -3.5951101    262.77162  0.045056863    0.0446249           15 
  487000   0.48404487   -3.5985093    262.88587  0.044983893  0.044521511           13 
  488000   0.48810252   -3.6081892    263.66041  0.045023978  0.044418829           12 
  489000   0.48767104   -3.6016515    263.28384   0.04486773  0.044316246           16 
  490000   0.49189383   -3.6183951    262.59732  0.044659408  0.044213763           16 
  491000   0.48220963   -3.6173049    263.13307   0.04465938  0.044111475           38 
  492000   0.48960974    -3.625993    263.09469  0.044562108  0.044009062           14 
  493000   0.48382566   -3.6106828    262.89106  0.044437298  0.043906846           14 
  494000   0.47490117   -3.6161056    262.89154  0.044347425  0.043804252           15 
  495000   0.47658467   -3.6181267    262.44643    0.0441829  0.043701847           13 
  496000   0.47533792   -3.6285791    263.20645  0.044221514  0.043599992           21 
  497000   0.46630247   -3.6296718    263.14919  0.044122936  0.043498285           24 
  498000   0.46672256   -3.6225905    262.86843  0.043987355  0.043396676           56 
  499000   0.47368647   -3.6346931    263.20665  0.043955686     0.043295           49 
  500000   0.47764207    -3.622354    263.65916  0.043943194  0.043194063           55 
  501000   0.46237578   -3.6218957    262.96699  0.043740351  0.043093459           40 
  502000   0.46985903   -3.6415509    262.39578  0.043558397  0.042992799           35 
  503000   0.46621167   -3.6442115    262.56337  0.043499564   0.04289217           41 
  504000   0.46878568   -3.6314364    262.45145   0.04339475  0.042791774           15 
  505000   0.46232992   -3.6541774    262.52963  0.043321722  0.042691081           50 
  506000   0.46358852   -3.6296093    262.58469  0.043245174  0.042590671           32 
  507000   0.45526733   -3.6501389    262.61508  0.043164871  0.042490606           24 
  508000   0.45805576   -3.6637887    263.15472  0.043168426  0.042390104           14 
  509000   0.45119854   -3.6590844    262.73344  0.043014643  0.042289937           13 
  510000   0.46607466   -3.6543419    262.90339   0.04295807  0.042189933           13 
  511000   0.44474472   -3.6617721    262.54182   0.04281504  0.042090479           16 
  512000   0.44538301   -3.6608107    263.13614  0.042828147   0.04199113           22 
Loop time of 1198.71 on 48 procs for 500000 steps with 4000 atoms

Performance: 72077.374 tau/day, 417.114 timesteps/s
99.4% CPU use with 48 MPI tasks x no OpenMP threads

MPI task timing breakdown:
Section |  min time  |  avg time  |  max time  |%varavg| %total
---------------------------------------------------------------
Pair    | 78.99      | 83.691     | 90.055     |  29.7 |  6.98
Neigh   | 8.1083     | 8.4347     | 8.7859     |   6.2 |  0.70
Comm    | 75.807     | 82.511     | 88.103     |  32.7 |  6.88
Output  | 0.85046    | 0.85098    | 0.86043    |   0.2 |  0.07
Modify  | 1008.3     | 1012.3     | 1014.4     |   4.2 | 84.45
Other   |            | 10.93      |            |       |  0.91

Nlocal:        83.3333 ave          92 max          76 min
Histogram: 1 2 1 14 9 13 6 1 0 1
Nghost:        2186.38 ave        2207 max        2164 min
Histogram: 1 1 5 7 8 9 8 7 0 2
Neighs:        14468.7 ave       15842 max       13493 min
Histogram: 6 9 4 6 5 3 7 4 2 2
FullNghs:      28937.3 ave       32380 max       26305 min
Histogram: 1 2 6 13 10 9 5 1 0 1

Total # of neighbors = 1388992
Ave neighs/atom = 347.24800
Neighbor list builds = 27104
Dangerous builds = 0

#clear
#
#next RN
#
#jump SELF
Total wall time: 0:20:02
