
units lj                  # Use reduced LJ style units
atom_style atomic         # Uncharged point particles
atom_modify map hash      # Needed for indexing of clusters etc
                          # Used to be able to find where atoms are in relation to each other.

lattice fcc 1.0 spacing 1 1 1
Lattice spacing in x,y,z = 1.5874011 1.5874011 1.5874011
region box block 0 10 0 10 0 10 units lattice
create_box 2 box
Created orthogonal box = (0.0000000 0.0000000 0.0000000) to (15.874011 15.874011 15.874011)
  3 by 4 by 4 MPI processor grid
create_atoms 1 box
Created 4000 atoms
  using lattice units in orthogonal box = (0.0000000 0.0000000 0.0000000) to (15.874011 15.874011 15.874011)
  create_atoms CPU = 0.026 seconds
set type 1 type/fraction 2 0.6 78393
Setting atom values ...
  2421 settings made for type/fraction
mass 1 1.0
mass 2 1.0
pair_style lj/cut  3.5
pair_modify tail  yes
pair_coeff 1  1  1.0  1.0   # Intearaction between 1 and 1 set with epsilon = 1 and sigma = 1
pair_coeff 1  2  1.5  0.8
pair_coeff 2  2  0.5  0.88

write_data data.0
System init for write_data ...
Neighbor list info ...
  update every 1 steps, delay 10 steps, check yes
  max neighbors/atom: 2000, page size: 100000
  master list distance cutoff = 3.8
  ghost atom cutoff = 3.8
  binsize = 1.9, bins = 9 9 9
  1 neighbor lists, perpetual/occasional/extra = 1 0 0
  (1) pair lj/cut, perpetual
      attributes: half, newton on
      pair build: half/bin/atomonly/newton
      stencil: half/bin/3d
      bin: standard
WARNING: Not all mixed pair coeffs generated from mixing. Use write_data with 'pair ij' option to store all pair coeffs. (../write_data.cpp:312)


#############################
#   M E L T   S Y S T E M   #
#############################

velocity all create 2.4 6583654 mom yes dist gaussian # Assign velocities
                                                    # Temperature 2.4, random number seed, zero linear momentum
                                                                                # Gaussian distribution

timestep 0.002   # simulation timestep
thermo 1000       # output thermodynamic data every 1000 steps bf 100

# Define a fix  in this case with index 1 applied to all
# particles in the simulation. This fix is for simulations
# in the anisotropic NPT ensemble. Note that we use the MTK
# correction.
fix 1 all npt temp 2.4 2.4 0.1 iso 5.68 5.68 0.5 mtk yes tchain 5 pchain 5 # Use NPT ensemble
                                                                         # Set temperature and pressure and damping
                                                                         # Numbers of thermostats in chain and in barostat
run 10000          # run for 10000 steps
Per MPI rank memory allocation (min/avg/max) = 3.642 | 3.644 | 3.648 Mbytes
Step Temp E_pair E_mol TotEng Press Volume 
       0          2.4   -4.7127585            0   -1.1136585   -4.0555291         4000 
    1000    2.3784957   -4.4464756            0  -0.87962401    5.8607996    3594.8098 
    2000    2.3652791   -4.4549075            0  -0.90787589    5.7754182    3601.5889 
    3000    2.4134191   -4.4656974            0   -0.8464738    5.7263725    3606.9125 
    4000    2.4440585   -4.4573806            0  -0.79220947    5.7116995    3612.0859 
    5000    2.4128304   -4.4636935            0  -0.84535273    6.0603264    3584.7021 
    6000    2.3676162   -4.4867309            0   -0.9361945    5.5182031    3606.3314 
    7000    2.4117513    -4.412591            0  -0.79586851    5.7013196    3643.0662 
    8000    2.4287914   -4.4905811            0  -0.84830475    5.5461092    3610.9154 
    9000    2.4227208   -4.4643046            0  -0.83113196    5.4858377    3633.7526 
   10000    2.4485931   -4.4353045            0   -0.7633331    5.7392293    3616.6835 
Loop time of 2.64818 on 48 procs for 10000 steps with 4000 atoms

Performance: 652524.097 tau/day, 3776.181 timesteps/s
99.6% CPU use with 48 MPI tasks x no OpenMP threads

MPI task timing breakdown:
Section |  min time  |  avg time  |  max time  |%varavg| %total
---------------------------------------------------------------
Pair    | 1.2279     | 1.2776     | 1.3352     |   2.0 | 48.24
Neigh   | 0.21755    | 0.22423    | 0.23039    |   0.6 |  8.47
Comm    | 0.82593    | 0.89029    | 0.95824    |   2.7 | 33.62
Output  | 0.00025945 | 0.00026748 | 0.00033894 |   0.0 |  0.01
Modify  | 0.22224    | 0.24004    | 0.25732    |   2.3 |  9.06
Other   |            | 0.01577    |            |       |  0.60

Nlocal:        83.3333 ave          95 max          77 min
Histogram: 5 5 15 8 3 4 3 4 0 1
Nghost:        1759.98 ave        1786 max        1738 min
Histogram: 1 1 10 7 10 9 4 5 0 1
Neighs:        10557.2 ave       12025 max        9593 min
Histogram: 6 5 5 11 6 6 2 3 2 2

Total # of neighbors = 506745
Ave neighs/atom = 126.68625
Neighbor list builds = 903
Dangerous builds = 198

# Equilibrate just above the melting temperature to avoid step fn in T

fix 1 all npt temp 1.25 1.25 0.1 iso 5.68 5.68 0.5 mtk yes tchain 5 pchain 5
run 2000
Per MPI rank memory allocation (min/avg/max) = 3.644 | 3.646 | 3.650 Mbytes
Step Temp E_pair E_mol TotEng Press Volume 
   10000    2.4485931   -4.4353045            0   -0.7633331    5.7392293    3616.6835 
   11000    1.2489869   -6.5292215            0   -4.6562096    5.4535004     2778.323 
   12000    1.2481945   -6.5964587            0   -4.7246351    5.2953777    2761.1455 
Loop time of 0.676538 on 48 procs for 2000 steps with 4000 atoms

Performance: 510835.848 tau/day, 2956.226 timesteps/s
99.6% CPU use with 48 MPI tasks x no OpenMP threads

MPI task timing breakdown:
Section |  min time  |  avg time  |  max time  |%varavg| %total
---------------------------------------------------------------
Pair    | 0.30068    | 0.32786    | 0.38734    |   2.4 | 48.46
Neigh   | 0.040768   | 0.043642   | 0.05051    |   0.7 |  6.45
Comm    | 0.19005    | 0.25505    | 0.29053    |   3.1 | 37.70
Output  | 5.1808e-05 | 5.3411e-05 | 6.728e-05  |   0.0 |  0.01
Modify  | 0.03942    | 0.044946   | 0.050345   |   1.8 |  6.64
Other   |            | 0.004985   |            |       |  0.74

Nlocal:        83.3333 ave          91 max          75 min
Histogram: 2 4 0 6 7 14 7 2 5 1
Nghost:        2115.15 ave        2137 max        2096 min
Histogram: 1 5 9 8 2 8 6 4 3 2
Neighs:        13816.9 ave       15517 max       12227 min
Histogram: 4 3 6 6 2 10 9 3 1 4

Total # of neighbors = 663210
Ave neighs/atom = 165.80250
Neighbor list builds = 142
Dangerous builds = 11

#############################
# L I N E A R  Q U E N C H  #
#############################

# Define solid atoms. This closely follows ten Wolde  Ruiz-Montero and Frenkel  Faraday Discuss  1996  104  93-110
# Compute components of the per-atom q6 vector
compute q6 all orientorder/atom degrees 1 6 components 6 nnn NULL cutoff 1.3 # compute the Q6 parameter.
                                                                             # Use all neighbours within 1.3 unit cell.

# get number of connections
compute coord_number all coord/atom orientorder q6 0.5

# An atom is solid if it has 8 or more connections (of a possible 14)
variable is_solid atom c_coord_number>=8
group solid dynamic all var is_solid    # Must be dynamic to update
dynamic group solid defined

# do clustering
compute cluster solid cluster/atom 1.3 # Create a cluster where all atoms within are solid and max 1.3 units from another member

# define chunks one chunk per cluster
compute clus_chunks solid chunk/atom c_cluster nchunk every compress yes  # Says which atoms are in which chunk

# count the size of each chunk
compute size_chunks solid property/chunk clus_chunks count


# Find the maximum entry in the vector of chunk sizes
variable max_n equal max(c_size_chunks)


# Thermo style which includes this variable
# thermo_style custom step temp pe vol v_max_n

thermo ${N}  # Print the thermo information every 100 steps
thermo 1000  

# Reset the npt fix at a lower temperature (below freezing)
fix 1  all npt temp  ${temp} ${temp}  0.1  iso  5.68  5.68  0.5  mtk yes tchain  5  pchain  5
fix 1  all npt temp  0.45 ${temp}  0.1  iso  5.68  5.68  0.5  mtk yes tchain  5  pchain  5
fix 1  all npt temp  0.45 0.45  0.1  iso  5.68  5.68  0.5  mtk yes tchain  5  pchain  5

dump dmp2 all dcd ${N} traj.dcd
dump dmp2 all dcd 1000 traj.dcd


compute msd all msd com yes
variable twopoint equal c_msd[4]/6/(step*dt+1.0e-6)
fix 9 all vector 10 c_msd[4]
variable fit equal slope(f_9)/6/(10*dt)
thermo_style custom step temp pe c_msd[4] v_twopoint v_fit v_max_n

fix 1 all npt temp 1.25 ${temp} 0.1 iso 5.68 5.68 0.5 mtk yes tchain 5 pchain 5
fix 1 all npt temp 1.25 0.45 0.1 iso 5.68 5.68 0.5 mtk yes tchain 5 pchain 5
run 2000000 # 5000000  # Run for this many steps
Neighbor list info ...
  update every 1 steps, delay 10 steps, check yes
  max neighbors/atom: 2000, page size: 100000
  master list distance cutoff = 3.8
  ghost atom cutoff = 3.8
  binsize = 1.9, bins = 8 8 8
  4 neighbor lists, perpetual/occasional/extra = 1 3 0
  (1) pair lj/cut, perpetual
      attributes: half, newton on
      pair build: half/bin/atomonly/newton
      stencil: half/bin/3d
      bin: standard
  (2) compute orientorder/atom, occasional
      attributes: full, newton on
      pair build: full/bin/atomonly
      stencil: full/bin/3d
      bin: standard
  (3) compute coord/atom, occasional
      attributes: full, newton on
      pair build: full/bin/atomonly
      stencil: full/bin/3d
      bin: standard
  (4) compute cluster/atom, occasional
      attributes: full, newton on
      pair build: full/bin/atomonly
      stencil: full/bin/3d
      bin: standard
Per MPI rank memory allocation (min/avg/max) = 9.848 | 9.852 | 9.856 Mbytes
Step Temp PotEng c_msd[4] v_twopoint v_fit v_max_n 
   12000    1.2481945   -6.5964587 1.7918975e-30 1.2443732e-32 8.3333333e+20            1 
   13000    1.2527842   -6.6093046   0.50123645  0.003213054  0.041509335            5 
   14000    1.2699048    -6.641711   0.95545939 0.0056872581  0.038911375            2 
   15000    1.2699567   -6.6196767    1.4233481 0.0079074894  0.038683487            4 
   16000    1.2857642   -6.5592462    1.8447728 0.0096081912  0.038232977            1 
   17000    1.2653919   -6.6112997    2.3203159  0.011374097  0.038054952            4 
   18000    1.2571537   -6.6530125    2.7437966  0.012702762  0.037888584            4 
   19000    1.2355883   -6.5674683    3.1824777  0.013958235  0.037502331            1 
   20000    1.2257066   -6.5853087    3.6254887  0.015106203  0.037240306            3 
   21000     1.220296   -6.6247869    4.1191149  0.016345694  0.037172371            3 
   22000     1.245372   -6.6471047    4.5331361   0.01717097  0.037214077            2 
   23000    1.2243877   -6.6124701    4.9850627  0.018061821  0.037264767            2 
   24000    1.2484331   -6.6446253    5.3828772  0.018690546  0.037157804            1 
   25000    1.2331499   -6.6065322    5.8459023   0.01948634  0.037060842            2 
   26000    1.2690792   -6.5790393    6.2773265  0.020119636  0.036945216            2 
   27000    1.2794599   -6.6379541    6.7158573  0.020727954  0.036912611            2 
   28000    1.2548373   -6.5938811    7.1155806  0.021177323   0.03683549            1 
   29000    1.2671924   -6.6236277    7.5843285  0.021794047  0.036773882            3 
   30000    1.2466274   -6.6440954    7.9953025  0.022209173  0.036763406            2 
   31000    1.2366173     -6.63766    8.4151129  0.022621271  0.036667288            4 
   32000    1.2554103   -6.6013786    8.8186475  0.022965228  0.036556269            2 
   33000    1.2439738   -6.6616372    9.2764768  0.023425446  0.036495681            3 
   34000    1.2164921   -6.6454526    9.6775241  0.023719421  0.036465463            1 
   35000    1.2045125   -6.6239092    10.108132  0.024066981  0.036410468            2 
   36000    1.2481961   -6.6332404    10.422847   0.02412696  0.036314236            2 
   37000    1.2196415   -6.6539701    10.747876  0.024206928  0.036136308            3 
   38000    1.2580078   -6.6654902    11.359793  0.024911827  0.036037933            4 
   39000    1.2486661     -6.63718    11.889112  0.025404085  0.036040145            3 
   40000    1.2150201   -6.6494966    12.409706  0.025853553  0.036108351            1 
   41000    1.2398964    -6.639537    12.926949  0.026274287  0.036189568            2 
   42000     1.231234   -6.6233916    13.494492  0.026774786  0.036345065            2 
   43000    1.2299227   -6.6123026     13.95923   0.02705277  0.036483756            3 
   44000    1.2514277   -6.6553674    14.373186  0.027221942  0.036599455            1 
   45000    1.2323987    -6.653397    14.766417  0.027345216  0.036704322            2 
   46000    1.2140079   -6.6285741    15.112825  0.027378306  0.036742401            2 
   47000    1.2431766   -6.6487269    15.572949  0.027611612  0.036752156            2 
   48000    1.2251624   -6.6249186    16.116842  0.027980627  0.036785208            2 
   49000    1.2293293    -6.657174    16.534249   0.02811947  0.036848466            2 
   50000    1.2401122   -6.6739214    17.083768  0.028472946  0.036910571            2 
   51000    1.2552514   -6.6354323     17.49133  0.028580604  0.036970095            2 
   52000    1.2481402   -6.6664919      17.8064  0.028535898  0.037003485            4 
   53000    1.2165153     -6.59041    18.239113  0.028677851  0.037005382            3 
   54000    1.2398678   -6.6577012    18.540581  0.028612007  0.036983511            3 
   55000    1.2204504    -6.648683    19.055112  0.028871382  0.036948503            1 
   56000    1.2438023   -6.6509466    19.286353   0.02869993  0.036911291            1 
   57000    1.2051957    -6.694989    19.696587   0.02879618  0.036850344            3 
   58000    1.2436971   -6.6216032    20.246977  0.029090483  0.036809622            3 
   59000    1.2444183   -6.6920289    20.536748  0.029006706  0.036773824            2 
   60000    1.2417321   -6.6725862    20.842027   0.02894726  0.036704355            4 
   61000    1.2445211   -6.6361372    21.395441  0.029228744  0.036640607            3 
   62000     1.215818   -6.6338272    21.793745  0.029292668  0.036596606            2 
   63000    1.2695174   -6.6648515    22.321472  0.029525756  0.036555662            1 
   64000    1.2246389   -6.7175617    22.493469   0.02928837   0.03650219            5 
   65000    1.2323104   -6.6729678    22.841075   0.02928343  0.036421178            5 
   66000    1.2327734   -6.6669457    23.207262  0.029302098  0.036330165            3 
   67000    1.2566893   -6.6604759    23.555372  0.029297726  0.036232609            3 
   68000    1.2179508   -6.6500182    23.894513  0.029282491  0.036151483            2 
   69000    1.2221703   -6.6951118    24.375397  0.029438886  0.036067094            2 
   70000    1.2050542   -6.7191663    24.861754  0.029597326  0.035997252            4 
   71000    1.2207319   -6.6098926    25.401218  0.029813636  0.035942812            3 
   72000    1.2268226   -6.6684389    25.680595  0.029722911  0.035880986            1 
   73000    1.2215349   -6.6957476    26.031897  0.029716777  0.035812763            2 
   74000    1.2209875   -6.6520874    26.436757  0.029771123  0.035752883            2 
   75000    1.2530019    -6.636271    26.973822  0.029970913  0.035693971            2 
   76000    1.1944696   -6.6914457    27.407406   0.03005198  0.035641545            2 
   77000    1.2186116     -6.68391    27.749773  0.030032222  0.035603206            2 
   78000    1.2131942   -6.7526757     28.03762  0.029954722   0.03556042            3 
   79000    1.2407184   -6.7082454    28.447416  0.030007823  0.035514652            1 
   80000    1.2140802   -6.6888357    28.920031  0.030125032  0.035466387            2 
   81000    1.2067626   -6.7152755     29.30288  0.030146995  0.035424455            1 
   82000    1.2336994   -6.6497565    29.720003  0.030203255  0.035382206            3 
   83000     1.215956    -6.706397    29.967976  0.030088329  0.035329657            2 
   84000     1.192997    -6.634869     30.37385  0.030132787  0.035271541            2 
   85000     1.230727   -6.7329354    30.638071  0.030037325  0.035205428            1 
   86000    1.2297917   -6.6943762    31.134367   0.03016896  0.035148755            4 
   87000    1.2286424   -6.7495245    31.551103  0.030221363  0.035103225            5 
   88000    1.2085792   -6.6921196    32.293633  0.030581092  0.035066008            2 
   89000    1.2167373   -6.6572246    32.764618  0.030678481  0.035046318            1 
   90000    1.2125508   -6.6996205    33.084304  0.030633614  0.035030219            2 
   91000    1.1876198   -6.6613895    33.598948  0.030768267  0.035018811            2 
   92000    1.2179703   -6.6952217    33.977233  0.030776479  0.035011148            2 
   93000    1.2300705    -6.748895     34.43309  0.030854023  0.035008845            2 
   94000    1.2017795   -6.7893522    34.885965  0.030927274  0.035007094            6 
   95000    1.1849623   -6.7107116    35.270258  0.030938822  0.035002047            3 
   96000    1.1997627   -6.6807974    35.672043  0.030965315  0.034996039            3 
   97000    1.2066678   -6.6953594    36.193494  0.031094067  0.034991029            4 
   98000    1.1847608   -6.6929132     36.66227  0.031175399  0.034993473           11 
   99000    1.2192164   -6.7520523    36.929369  0.031085327  0.034994663            3 
  100000    1.2308017   -6.7314135    37.299948   0.03108329  0.034988728            3 
  101000    1.1995449   -6.7129675    37.705798  0.031110394  0.034978892            2 
  102000    1.1929595   -6.6740342    38.348948   0.03133084  0.034976851            2 
  103000    1.2083784   -6.7179888    38.514994  0.031160998  0.034972958            4 
  104000    1.2292861   -6.7334268    38.804449  0.031093308  0.034966271            6 
  105000    1.2234785   -6.7339561    39.494612   0.03134493  0.034960446            3 
  106000    1.1946494   -6.7316996    39.897805  0.031366199  0.034958642            2 
  107000    1.1652405   -6.6629623     40.38361   0.03145141  0.034952718            1 
  108000    1.2054803   -6.7426952    40.373706  0.031152551  0.034944292            1 
  109000    1.2227918   -6.6719269     40.81557  0.031204564  0.034929338            2 
  110000    1.1945941   -6.6941708    41.213948  0.031222688  0.034905176            4 
  111000    1.2303935   -6.7063004    41.573555  0.031211377  0.034880531            3 
  112000    1.2040987   -6.6823546    42.078641  0.031308512  0.034863373            3 
  113000    1.2342714   -6.7372541    42.241361  0.031151446  0.034845806            2 
  114000     1.170016    -6.718807    42.876803  0.031342692  0.034823621            3 
  115000    1.2143863   -6.7379206    42.967078  0.031135563  0.034801935            1 
  116000    1.2146038   -6.7199226    43.415882   0.03118957  0.034775364            3 
  117000    1.2258819   -6.6842766     44.05025  0.031374822  0.034753146            3 
  118000    1.2153082   -6.7310829     44.12064  0.031158644  0.034730714            1 
  119000    1.2187632   -6.7482138    44.411918  0.031100783   0.03470674            3 
  120000    1.1996352   -6.7586165    44.789918  0.031104109  0.034680423            2 
  121000    1.2154004   -6.7516027    45.412308  0.031275694  0.034652418            2 
  122000    1.1839771   -6.7363425    45.689266  0.031208515  0.034626316            3 
  123000      1.20939   -6.7184778    46.231219  0.031321964  0.034605694            3 
  124000    1.1918909    -6.747533    46.491208  0.031244091  0.034583994            3 
  125000     1.220692   -6.6765374    47.070059  0.031380039  0.034559919            3 
  126000    1.2042025   -6.7392362     47.12308  0.031166058  0.034531732            2 
  127000    1.1992569   -6.6673416    47.881371  0.031418222  0.034507807            2 
  128000    1.1883638   -6.7314638    48.247917  0.031411404  0.034489957            2 
  129000    1.1934952    -6.777994    48.334393  0.031223768  0.034468424            3 
  130000    1.2078824   -6.7871332    48.740585  0.031243965  0.034441994            4 
  131000    1.1949262   -6.7583933    48.999035  0.031169869  0.034414897       -1e+20 
  132000    1.1895358   -6.7588962    49.491025  0.031244334  0.034390666            3 
  133000    1.2159236   -6.7142174    50.059172  0.031365396  0.034366712            2 
  134000    1.2091731   -6.7230375    50.182871  0.031208253  0.034343943            4 
  135000    1.2015675   -6.7280109    50.696828  0.031294338  0.034317992            1 
  136000    1.2050466   -6.7207872     51.11224  0.031318774  0.034290414            2 
  137000    1.1954068   -6.7025486    51.480709    0.0313143  0.034259471            4 
  138000    1.1885892   -6.7439821    51.514921  0.031108044  0.034228587            1 
  139000    1.1931036   -6.7052453    52.121835  0.031248103  0.034200084            2 
  140000    1.1997674   -6.7438831    52.393884  0.031186836  0.034165912            6 
  141000    1.1823443   -6.7270534    52.733729  0.031166506  0.034139537            2 
  142000    1.1656693   -6.7697922    52.945043  0.031071035  0.034110886            1 
  143000    1.2197978   -6.7667971    53.426386  0.031134258  0.034077825            2 
  144000    1.1783679   -6.7620462    53.713384  0.031084134  0.034046102            1 
  145000    1.1674553   -6.7421859    53.971019  0.031017827  0.034010283            3 
  146000    1.2055442   -6.7120257    54.467073  0.031088512  0.033975436            2 
  147000    1.2203964   -6.7788958    54.381428  0.030828474  0.033940085            2 
  148000    1.1995705   -6.7399032    55.289298  0.031131361  0.033909041            1 
  149000    1.1949124   -6.7844327    55.526318  0.031054987  0.033879744            2 
  150000    1.2112575   -6.7798765     56.02037  0.031122427  0.033854179            2 
  151000    1.2045497   -6.7855793     56.64123  0.031258957  0.033829277            4 
  152000    1.1998279   -6.7615302    57.058298  0.031281961  0.033810531            3 
  153000    1.1570249   -6.8090816    57.602974  0.031374168  0.033791191            1 
  154000    1.1865171   -6.7236158    58.203318  0.031495302   0.03377476            3 
  155000    1.2027382   -6.7339044    58.609839  0.031510666  0.033759256            3 
  156000    1.2060617   -6.7512725    58.869014  0.031447123  0.033743234            4 
  157000    1.2184553   -6.7104008     59.17221  0.031407755  0.033727161            3 
  158000    1.2156493   -6.7735281    59.407387   0.03133301  0.033712461            7 
  159000    1.2069111   -6.7078904    59.802193  0.031342868  0.033694425            2 
  160000     1.213039   -6.8081473    59.770325  0.031130377  0.033673371            4 
  161000    1.1971301   -6.7376422    60.481149  0.031304942  0.033650043            7 
  162000     1.210053   -6.7489256    60.843259  0.031297973  0.033631836            2 
  163000     1.188091   -6.7771928    61.312304  0.031345759  0.033610999            2 
  164000    1.1772045   -6.7403366    61.829801  0.031417582  0.033592434            1 
  165000    1.2018537    -6.782619    61.818894  0.031221663   0.03357424            3 
  166000    1.1883855   -6.7715543    62.505375    0.0313782  0.033556543            3 
  167000     1.168351   -6.7610943    63.117388  0.031495703  0.033541281            3 
  168000    1.1739771   -6.7740583    63.171561    0.0313351  0.033525673            2 
  169000    1.2111266   -6.7703004    63.620752  0.031371179  0.033509283            4 
  170000    1.1851051   -6.7947473    63.755626  0.031252758  0.033487594            2 
  171000     1.146704    -6.799728    64.077213  0.031226712  0.033467487            2 
  172000    1.1671617   -6.7776177    64.348374  0.031176538  0.033447137            3 
  173000    1.1790274   -6.8316374    64.688491  0.031160159  0.033426333            3 
  174000     1.188237   -6.7641576    64.890023  0.031077597  0.033403718            2 
  175000    1.1628743   -6.7642346    65.400541  0.031143115  0.033380239            2 
  176000    1.1824526   -6.8190057    65.645447  0.031082125  0.033357395            2 
  177000     1.174133   -6.7940355     66.22713  0.031180381  0.033336187            2 
  178000    1.1997305   -6.7992813    66.533824  0.031148794   0.03331527            2 
  179000    1.2227436   -6.7798062    66.924648  0.031156726  0.033293158            2 
  180000    1.1715318   -6.7947063    66.925427  0.030983994  0.033268779            3 
  181000    1.2072767   -6.7651368     67.18502  0.030932329  0.033242857            4 
  182000    1.1774191   -6.7945005    67.574579  0.030940741  0.033213273            2 
  183000    1.1988951   -6.7534065    68.068201  0.030996448  0.033184686            2 
  184000    1.1652863   -6.8047867    68.365329  0.030962558  0.033158159            2 
  185000    1.2089651   -6.7684943    68.772175  0.030978457  0.033133847            3 
  186000    1.1837709   -6.7955512    69.133686  0.030973874  0.033110173            1 
  187000    1.1922433   -6.7584596    69.432786  0.030941527   0.03308363            2 
  188000    1.1803669   -6.7943973    69.800421  0.030939903  0.033056189            4 
  189000    1.1829089   -6.8098963     69.96953  0.030850763  0.033029621            3 
  190000    1.1764712   -6.8159138    70.594636   0.03096256  0.033005157            1 
  191000    1.1837687   -6.7590544    71.000277  0.030977433  0.032981358            4 
  192000    1.1845568   -6.8026861    71.142641  0.030877882  0.032957124            2 
  193000    1.1779489   -6.7534246    71.726511  0.030969996  0.032934517            3 
  194000    1.1717942   -6.8314671    71.568247  0.030742374  0.032909317            4 
  195000    1.1632299   -6.7843779    72.299651  0.030897287  0.032884004            2 
  196000    1.1657008   -6.7567292    72.705253  0.030912097  0.032858933            3 
  197000    1.1986419   -6.8109173    73.066449  0.030907973  0.032834836            1 
  198000    1.1712594    -6.802277    73.173547  0.030796947  0.032811906            1 
  199000    1.1698223   -6.8235956    73.774454  0.030893825   0.03278991            2 
  200000    1.1890197    -6.780606    74.554781  0.031064492  0.032769423            1 
  201000    1.1482105   -6.7370671    75.201504  0.031178069  0.032751669            2 
  202000    1.1992516   -6.7915589    75.098864  0.030981379  0.032732736            4 
  203000    1.1824527   -6.7861843    75.472269  0.030982048  0.032712925            5 
  204000     1.193069   -6.7988716      75.6703   0.03091107  0.032691801            2 
  205000    1.1625197   -6.8207785    76.045062  0.030912627   0.03267155            1 
  206000    1.1530308   -6.7976221    76.143684  0.030802461  0.032651412            3 
  207000    1.1574272   -6.8056773    76.565635  0.030823525   0.03263111            2 
  208000    1.1761887   -6.8423473    76.675736  0.030719445  0.032609071            3 
  209000    1.1705922    -6.793757    76.978369   0.03069313  0.032583793            6 
  210000    1.1485735   -6.7832509    77.518543  0.030761326  0.032559693            5 
  211000    1.1706266   -6.8861255    77.519122  0.030615767  0.032538698            2 
  212000    1.1604968   -6.7904377    78.581214  0.030888842  0.032518728            3 
  213000    1.1711695   -6.8447357      78.9723  0.030896831  0.032500946            2 
  214000    1.1899667   -6.7807217    79.066118  0.030788987  0.032481992            2 
  215000    1.1590458   -6.8226816    79.429949  0.030786802  0.032464066            5 
  216000    1.1658367   -6.8232925    79.649051  0.030728801  0.032444301            3 
  217000    1.1610833   -6.7756113    80.117649  0.030767146  0.032425048            2 
  218000    1.1780969   -6.8526656    80.323698  0.030704777  0.032404236            2 
  219000    1.1673145   -6.7934876    80.814312   0.03075126  0.032383307            1 
  220000     1.130089   -6.8157328    81.146705  0.030737388  0.032361151            3 
  221000    1.1843229   -6.8281991     81.12952  0.030591825  0.032339499            6 
  222000    1.1509716   -6.7881439    81.514039  0.030598363  0.032315309            4 
  223000    1.1572593    -6.815563     81.45549  0.030439271  0.032291535            5 
  224000     1.168341   -6.8050105    81.873041  0.030458721  0.032266237            2 
  225000    1.1783442   -6.8194262    82.178734  0.030436568  0.032240399            1 
  226000    1.1361001   -6.8077075    82.877884  0.030559692  0.032216851            4 
  227000    1.1597997   -6.8512522    83.138283  0.030520662  0.032195039            4 
  228000     1.149856   -6.8597464    83.498414  0.030518426  0.032171565            3 
  229000    1.1616394   -6.8495472    83.853427  0.030514348  0.032149838            2 
  230000    1.1542201   -6.8495465    84.168028  0.030495662  0.032128463            5 
  231000    1.1696124   -6.8092233    84.902767  0.030628704  0.032107582            2 
  232000    1.1804764   -6.8791121    84.932699  0.030507435  0.032086588            6 
  233000    1.1658684   -6.8160602    85.519748  0.030586462  0.032068192            3 
  234000    1.1435578   -6.8440573    86.033367  0.030638663  0.032048896            4 
  235000    1.1677856   -6.8685909    85.931723  0.030472242  0.032027696            3 
  236000    1.1519699   -6.8400544     85.95109  0.030349961  0.032005838            3 
  237000    1.1676711    -6.833458      86.6492   0.03046737  0.031982176            4 
  238000     1.159877   -6.8609974    86.490212  0.030283688  0.031958285            3 
  239000     1.154158   -6.8429697    86.766149   0.03025319  0.031931877            2 
  240000    1.1528486   -6.8911122    87.213485   0.03028246   0.03190576            2 
  241000    1.1507557   -6.8639557    87.427189  0.030230701  0.031880666            3 
  242000    1.1739682   -6.8159253    87.871273  0.030258703  0.031855784            2 
  243000    1.1505921    -6.796643    88.170523  0.030236805   0.03182957            2 
  244000    1.1459502   -6.8337015    88.340881  0.030171066   0.03180327            3 
  245000    1.1737608   -6.8723788    88.393473  0.030065807  0.031776267            3 
  246000    1.1583529   -6.8562489    88.804439  0.030082805  0.031748528            1 
  247000     1.173747   -6.8737702    89.204142  0.030095864  0.031721301            3 
  248000    1.1772334   -6.8873252    89.399085  0.030040015  0.031693978            5 
  249000     1.142811   -6.8510728    89.876113   0.03007902  0.031665409            2 
  250000    1.1497467   -6.8780782    89.841594  0.029947198  0.031638425            7 
  251000    1.1650215   -6.8671369    90.745618  0.030128027   0.03161267            3 
  252000    1.1790869   -6.8613159    90.988417  0.030088762  0.031587454            3 
  253000    1.1170809   -6.8438153    91.283149  0.030066913   0.03156268            1 
  254000     1.181137   -6.8048755    91.458859  0.030006187  0.031538282            1 
  255000    1.1579508   -6.8783051    91.720627  0.029974061  0.031513803            4 
  256000    1.1373386   -6.8662132    92.057106  0.029966506  0.031488021            3 
  257000    1.1541634   -6.8559156    92.630493  0.030035828  0.031463574            2 
  258000    1.1408862   -6.8984435    92.648779  0.029925316  0.031439464            9 
  259000    1.1673826   -6.7987733    93.353045  0.030036372  0.031414439            3 
  260000    1.1614179   -6.8731441     93.03484  0.029818859  0.031388135            4 
  261000    1.1519587   -6.8507579    93.488552  0.029849474  0.031362255            2 
  262000    1.1809006   -6.8797997    94.021992  0.029905214   0.03133746            3 
  263000    1.1445702     -6.89481    94.490963  0.029940102  0.031313166            5 
  264000    1.1728236   -6.8447039     94.74841  0.029907958  0.031288346            6 
  265000    1.1572365   -6.8176636    95.219454  0.029943224  0.031264805            4 
  266000    1.1399895    -6.859877    95.318992  0.029861839   0.03124087            4 
  267000    1.1377813   -6.9088428    95.679608  0.029862549  0.031217484            2 
  268000    1.1228435   -6.8723478     95.87521  0.029811943    0.0311945            3 
  269000     1.165804   -6.8952019    95.998661  0.029739362  0.031169844            3 
  270000     1.122969   -6.8821753    96.582445  0.029809396  0.031145299            3 
  271000    1.1129742   -6.8637502    96.877943  0.029790265  0.031120163            2 
  272000     1.155971    -6.868534    96.882701    0.0296822  0.031096332            3 
  273000    1.1576742   -6.9052674    97.179947  0.029664209  0.031071437            9 
  274000    1.1429485   -6.8519014    98.009718  0.029808308  0.031048387            4 
  275000    1.1266014    -6.869025    98.245471  0.029771355  0.031025008            5 
  276000    1.1617585   -6.8901863    98.374254  0.029702371  0.031002864            6 
  277000     1.141822   -6.8731034    98.874717  0.029745703  0.030981194            1 
  278000    1.1196968   -6.9044767    99.189147  0.029732958  0.030959292            5 
  279000    1.1128457   -6.8400613    99.945584  0.029852325  0.030937575           12 
  280000    1.1590547   -6.8435347    100.03481  0.029772265  0.030916226            6 
  281000    1.1607623   -6.8762617    99.949982  0.029641157    0.0308937            5 
  282000    1.1567833   -6.8753747    100.38566  0.029664794  0.030871406            2 
  283000    1.1368517   -6.9324738    100.12395  0.029482905  0.030847757            2 
  284000    1.1324329   -6.8960936    101.00035  0.029636252  0.030824191            3 
  285000    1.1475727    -6.916694    100.92922  0.029511468  0.030801813            4 
  286000    1.1381124   -6.8504697    101.74512  0.029646013  0.030778818            3 
  287000    1.1165417   -6.9133138    101.91252  0.029591323  0.030756833            4 
  288000    1.1324825   -6.8903168    102.25893  0.029588812  0.030736436            2 
  289000    1.1582808    -6.873953    102.41558  0.029531597  0.030716245            4 
  290000    1.1499942   -6.9051369    102.80288  0.029541058  0.030695504           10 
  291000    1.1135219    -6.910084     102.8732  0.029459679  0.030674892            4 
  292000    1.1271435   -6.9580145    103.15025  0.029437858  0.030654063            5 
  293000    1.1844561   -6.9738062    103.38849  0.029405145  0.030632509            7 
  294000    1.1567469   -6.9234875    103.69939  0.029393252  0.030610642            2 
  295000    1.1592056   -6.9018212    104.21521  0.029439325  0.030589264            7 
  296000    1.1375378   -6.9174797    104.55895  0.029436641   0.03056739            2 
  297000      1.12728   -6.8713703     104.8054  0.029406676  0.030546578            3 
  298000    1.1614458    -6.928376     104.9281  0.029342311  0.030526104            3 
  299000    1.1518208    -6.890665     105.2706  0.029339632  0.030504474            3 
  300000    1.1459766   -6.9148092    105.72344  0.029367622  0.030483339            3 
  301000    1.1468798   -6.9023584      106.355  0.029444906  0.030462092            3 
  302000    1.1397716   -6.9618174    106.32667   0.02933959  0.030441049            2 
  303000    1.1369985   -6.8935529    106.92924  0.029408482  0.030420328            4 
  304000    1.1198127   -6.9180034     107.0796  0.029352961  0.030401257            5 
  305000     1.128232   -6.9457524    107.31208   0.02932024  0.030380965            3 
  306000    1.1276939    -6.895444    107.77098  0.029349396  0.030359563            3 
  307000    1.1199495   -6.8997781    108.57969  0.029473315  0.030340787            3 
  308000     1.138585   -6.8804205    108.80067   0.02943741  0.030322053            4 
  309000    1.1374071   -6.9269339    109.01561  0.029400109  0.030303599            5 
  310000    1.1476208   -7.0089383     108.7094  0.029222957  0.030284944            2 
  311000    1.1495655   -6.9035419    109.17692  0.029254265  0.030265551            4 
  312000    1.1330486   -6.9388657    109.50442  0.029247975  0.030245754            5 
  313000    1.1169898   -6.9628384     109.8772   0.02925378  0.030224674           12 
  314000    1.1232017   -6.8893285    110.26269  0.029262922  0.030204278            3 
  315000    1.1283165   -6.9111257     110.6244  0.029265715  0.030184184            5 
  316000    1.1493592   -6.9457125    110.47103  0.029132655  0.030164001            3 
  317000    1.1397876    -6.895347    110.98015  0.029174593  0.030143884            6 
  318000    1.1208589   -6.9157185    111.36757  0.029184373  0.030123814            2 
  319000    1.1234092   -6.9722722    110.89889  0.028970451  0.030102221            4 
  320000    1.1420542   -6.9336654    111.40794  0.029012483  0.030079905            4 
  321000    1.1381583   -6.9383897    111.99163  0.029073632  0.030058498            3 
  322000    1.1055077   -6.9527847    112.26316  0.029053614  0.030037723            3 
  323000    1.1236599    -6.944423    112.26626  0.028964464  0.030016515            2 
  324000    1.0915204   -6.9600081    112.63695  0.028970409  0.029993606            4 
  325000    1.1187739   -6.9468531    113.21599   0.02902974  0.029971967            6 
  326000    1.1348497   -6.9549728    113.39872  0.028987402  0.029951375            3 
  327000    1.0977076   -6.9337737    113.63553  0.028959105   0.02993074            2 
  328000     1.130864   -6.9337651    114.09851  0.028988443  0.029910507            2 
  329000    1.1156712   -6.9817713     114.2005  0.028926165  0.029890515            5 
  330000    1.1330167   -6.9635636    114.83664   0.02899915  0.029870853            3 
  331000    1.1125808    -6.953398    114.92606  0.028934053  0.029852009            2 
  332000    1.1357028   -6.9376827    115.34991  0.028953289  0.029833849            5 
  333000    1.1467215   -6.9317712     115.8349  0.028987714  0.029815227            6 
  334000    1.1302694   -6.9559786    116.34797  0.029028935  0.029797621            2 
  335000    1.1094129   -6.9514042    116.60227  0.029005539  0.029780725            2 
  336000    1.1064286   -6.9665439    116.63123  0.028926396   0.02976286            3 
  337000    1.1150437   -6.9583067    117.04383  0.028942588  0.029745484            3 
  338000     1.135814   -6.9944432    116.83524  0.028805533  0.029726505            3 
  339000    1.1272351   -6.9472205    117.42223  0.028864854  0.029708019            4 
  340000    1.1325576   -6.9381976    117.74858  0.028859945  0.029689264            4 
  341000    1.0789128   -6.9657088    117.83789  0.028797138  0.029671557            3 
  342000    1.0972118   -6.9098314    118.86636  0.028963538  0.029653462            2 
  343000    1.1247685   -6.9750054    118.14146  0.028702979  0.029634344            1 
  344000    1.1031874   -6.9562844    118.65665  0.028744343  0.029615502            6 
  345000    1.1123587   -6.9451746    119.36528  0.028832192  0.029597367            2 
  346000    1.1068491   -6.9102979    119.17758  0.028703656  0.029577239            2 
  347000    1.1241712   -6.9694199    119.30122   0.02865063  0.029556765            4 
  348000    1.1176144   -6.9972595    119.02356   0.02850181  0.029535689            4 
  349000    1.1160033   -6.9046719    120.34807  0.028736406  0.029514657            3 
  350000    1.1006199    -6.977138    119.76088  0.028514494  0.029493292            2 
  351000    1.1385742   -6.9671791    120.50075  0.028608915  0.029472513            5 
  352000    1.1076172   -6.9665327    120.51793  0.028531707  0.029451181            2 
  353000    1.0944363    -6.968573    120.83545  0.028525837  0.029429578            4 
  354000    1.1176365   -6.9656332     121.4526  0.028590536  0.029408405            4 
  355000    1.1249863   -6.9690054    121.55197  0.028533325  0.029387537            2 
  356000    1.0915769   -6.9102559    122.23025   0.02861195  0.029367706            5 
  357000    1.1008596   -6.9677503    122.01319  0.028481137  0.029348297            3 
  358000    1.1192578   -6.9130292    122.34923  0.028479802  0.029327705            3 
  359000    1.1111971   -6.9434151    122.52549  0.028441386  0.029308132            4 
  360000    1.0903513   -6.9835222    122.98122  0.028467875  0.029287954            4 
  361000    1.1010446   -6.9811064    123.48817   0.02850604  0.029268606            2 
  362000    1.1079375   -6.9865955    123.50243  0.028430578  0.029250086            3 
  363000    1.1011152   -6.9774452    124.37932  0.028553564  0.029230742            3 
  364000    1.1173919   -6.9889026    123.97827  0.028383302  0.029210899            6 
  365000    1.1100266   -7.0036963    124.43919  0.028410773  0.029191389            4 
  366000    1.1181078   -6.9847181    124.53234  0.028354358  0.029172361            4 
  367000    1.0995146    -7.016717     124.5456  0.028280109  0.029152616            4 
  368000     1.104021   -6.9630589     125.6703  0.028457948   0.02913416            7 
  369000    1.1155821   -6.9649392    125.82617  0.028416027  0.029116504            2 
  370000    1.0979844   -6.9896081     125.9626  0.028369956  0.029097483            3 
  371000    1.0825776   -6.9828134      126.085   0.02832098   0.02907941            4 
  372000    1.0959107   -6.9594435    126.39699  0.028314737   0.02906075            3 
  373000    1.0998857   -7.0290112    126.36501  0.028231683  0.029041935            2 
  374000    1.1107918   -6.9919038    126.88824  0.028272781  0.029022341            1 
  375000     1.099292   -7.0256375    126.86092  0.028191316  0.029004003            5 
  376000    1.0805247   -7.0038355      127.632  0.028287235  0.028986308            3 
  377000    1.0865119   -7.0068866     128.2884  0.028357294  0.028968553            2 
  378000    1.1089948   -6.9859768     128.4909  0.028326918  0.028950704            2 
  379000    1.1165119   -6.9900559    128.57651     0.028271   0.02893379            3 
  380000    1.0884184   -6.9924978    129.15541  0.028323555  0.028916998            4 
  381000    1.0942621   -6.9240213    129.48799  0.028321959  0.028900615            3 
  382000    1.1117979   -6.9994884     129.5415   0.02825949  0.028883284            1 
  383000    1.0876127   -7.0216087    129.55885  0.028189479   0.02886547            5 
  384000    1.0896033   -7.0231839    129.91601  0.028193579  0.028847434            3 
  385000    1.0911043   -7.0317117    129.99815  0.028138127  0.028829248            5 
  386000    1.0936149   -7.0108817    130.70809    0.0282185   0.02881224            3 
  387000    1.1009722   -7.0262465     131.1139  0.028232968  0.028796369            6 
  388000    1.1034184   -6.9694711    131.68855  0.028283622   0.02878038            2 
  389000    1.1065753   -7.0018222    131.74474  0.028222951  0.028764761            7 
  390000    1.0950417   -7.0001344    132.16279  0.028239913   0.02874923            2 
  391000    1.1127449   -7.0084122    132.26034  0.028188477   0.02873391            5 
  392000    1.1043185   -7.0010242    132.54921  0.028177979  0.028719318            2 
  393000    1.1054687   -7.0415282    132.63106  0.028123635  0.028703846            3 
  394000    1.0953907   -6.9876148    133.40577  0.028216111  0.028688043            7 
  395000    1.0777514   -7.0240642    132.95073  0.028048676  0.028672539            2 
  396000    1.0926712   -6.9597906    133.77884  0.028152112  0.028657044            6 
  397000    1.1126746   -7.0252531    133.78098   0.02808165  0.028640878            2 
  398000    1.0949023   -7.0076807     134.1404  0.028086349   0.02862434            9 
  399000    1.0696386   -7.0478939    134.17004  0.028022146  0.028607662            3 
  400000    1.0949651   -7.0575551    134.63077  0.028048077  0.028591576            5 
  401000    1.1395993   -7.0448565    134.78158  0.028009472  0.028575774            3 
  402000    1.1094982   -7.0187364    135.01339  0.027987851  0.028558856            5 
  403000    1.0703632   -6.9928755    135.51296  0.028021704  0.028542468            5 
  404000    1.1110389   -7.0025633    135.69187  0.027989246  0.028526131            4 
  405000    1.1009834   -7.0216127    135.98358  0.027980161  0.028509705            2 
  406000    1.0974716   -7.0094447       135.84  0.027881772  0.028492046            3 
  407000    1.0715947   -7.0374427    135.67696  0.027779884  0.028474476            7 
  408000    1.0894013   -7.0284184    136.09078   0.02779632  0.028456351            3 
  409000    1.0950543   -7.0378803    136.53442  0.027818749  0.028438615            6 
  410000    1.0805424   -7.0387283    136.59182  0.027762566  0.028420455            4 
  411000    1.0919618   -7.0331883    136.88156  0.027753763  0.028401954            7 
  412000    1.0641526   -7.0037286     137.3581  0.027782788  0.028383302            2 
  413000    1.0715201   -7.0434052    137.71896  0.027788329  0.028364896            5 
  414000    1.0799463   -7.0823939    137.33875  0.027644676  0.028346331            2 
  415000    1.0865521   -7.0171916    138.03581  0.027718033  0.028327312            2 
  416000    1.0759615    -7.026393     137.9783  0.027639884   0.02830839            4 
  417000    1.0937879   -7.0292192    138.40639   0.02765915  0.028290512            5 
  418000    1.1021947   -7.0283162    139.03432  0.027718166  0.028272731            3 
  419000    1.0857045   -7.0397116     138.9496  0.027635164  0.028255076            3 
  420000    1.0721966   -7.0359084    139.36972  0.027652723  0.028236667            7 
  421000    1.1090089    -6.951334    140.04745   0.02772119  0.028218929            3 
  422000    1.0824991   -7.0488013     139.6445  0.027575928  0.028201279            5 
  423000     1.076627   -7.0717286    140.07368  0.027595288  0.028183616            3 
  424000    1.0597431   -7.0188009    140.55359  0.027624526  0.028165071            2 
  425000    1.0860654   -7.0309339    140.14657   0.02747972  0.028146968            5 
  426000    1.1028669   -7.0663844    140.29024  0.027443318  0.028128701            5 
  427000    1.0976704   -7.0872154    140.37094  0.027394797  0.028110351            3 
  428000    1.0928037   -7.0447561    141.09717  0.027472191  0.028090921            5 
  429000    1.0957616   -7.0616872    141.42307  0.027471458  0.028071479            1 
  430000    1.0739125   -7.0686433    141.08983  0.027342991  0.028051832            5 
  431000     1.079423   -7.0521136    141.49219  0.027357346  0.028032012            6 
  432000    1.0783061   -7.0527494     141.7227  0.027338483  0.028012472            2 
  433000    1.0890165   -7.0305405    142.10546   0.02734901  0.027993414            5 
  434000    1.0928287   -7.0351093    142.02437  0.027270425  0.027973972            2 
  435000    1.1030421   -7.0482558    142.75315  0.027347347  0.027955119            3 
  436000    1.0647298   -7.0660103    142.72503  0.027279248  0.027936239            6 
  437000    1.0757553   -7.0492627    143.36438  0.027338746  0.027917932            3 
  438000    1.0917757   -7.0424499    143.63462  0.027327744  0.027899398            5 
  439000     1.092518   -7.1117255    143.55216   0.02724984  0.027880431            4 
  440000     1.064078   -7.0942972    143.85589  0.027245435  0.027861458            6 
  441000    1.0800463   -7.0827718    143.81986  0.027176843  0.027842503            4 
  442000    1.0916532   -7.0404128    144.56201   0.02725528  0.027823658            3 
  443000    1.0895982   -7.0781672     144.0555  0.027098477  0.027804839            3 
  444000    1.0760115   -7.1253454    144.37221  0.027096887  0.027785397            4 
  445000    1.0787062   -7.0472541    144.79565  0.027115291  0.027765267            2 
  446000      1.08294   -7.0478518    145.01468  0.027095419  0.027745764            3 
  447000    1.0656258   -7.0472677     144.8604   0.02700604  0.027726148            2 
  448000    1.0947025   -7.0421179    145.64478  0.027091662  0.027706281            2 
  449000    1.0845621   -7.0562164    145.77431  0.027055366  0.027686693            2 
  450000    1.0685781   -7.0269005    146.38609  0.027108535  0.027667227            3 
  451000    1.0718213   -7.1098734    146.39507  0.027050086  0.027647764            4 
  452000    1.0859167   -7.1000659     145.9372  0.026905825  0.027627718            3 
  453000    1.0705058   -7.0936373    146.09941  0.026876271  0.027607364            1 
  454000    1.0741017   -7.0860362    146.58189  0.026905634   0.02758705            4 
  455000    1.0663846   -7.0912975    146.83302  0.026892494  0.027566334            4 
  456000    1.0577429   -7.0706079    146.88974  0.026843885  0.027545337            2 
  457000    1.0536647   -7.1008142    146.56048  0.026725105  0.027523906            5 
  458000    1.0961176   -7.0932109    147.51431  0.026840303  0.027503272            3 
  459000    1.0718169   -7.0748551    147.85633  0.026843923  0.027483101            5 
  460000    1.0844009   -7.0962446    148.47851  0.026898281  0.027463004            8 
  461000    1.0608899   -7.0821663    148.73852  0.026886934  0.027442925            2 
  462000    1.0697855   -7.0521218    148.81425  0.026842398  0.027423457            3 
  463000    1.0597531    -7.077204    149.09913  0.026835696  0.027403766            5 
  464000    1.0725803   -7.0658022    148.95753  0.026752429   0.02738438            2 
  465000    1.0689167   -7.0846667    149.10529  0.026721379  0.027364284            5 
  466000    1.0811963   -7.0919297    149.54977  0.026743521  0.027344299            2 
  467000    1.0433159   -7.1344413    149.48893  0.026675398   0.02732507            2 
  468000    1.0655624   -7.0602416    150.07598  0.026722931  0.027305108            6 
  469000    1.0535407   -7.0603462    150.62043  0.026762693  0.027286153            3 
  470000    1.0637449    -7.065346    150.49794  0.026684033  0.027267244            3 
  471000    1.0685505   -7.0998616    150.47683  0.026623643  0.027247545            2 
  472000    1.0536888   -7.0950623     151.0622  0.026670587  0.027228342            3 
  473000    1.0756424    -7.089774    151.79075  0.026742556  0.027209251            4 
  474000    1.0849772   -7.1155565    150.89979  0.026529498  0.027189882            7 
  475000    1.0608142   -7.1309145    151.00013  0.026491251   0.02717033            3 
  476000    1.0760612   -7.1649001     151.4246   0.02650991  0.027150802            2 
  477000    1.0732058   -7.1083747    152.22179  0.026593605  0.027131586            4 
  478000    1.0578143   -7.1283768    152.12098  0.026520394  0.027113018            3 
  479000    1.0452266   -7.1337889    152.29351  0.026495044  0.027094144            4 
  480000    1.0308168   -7.1324735    152.82556  0.026532215  0.027075491            3 
  481000    1.0626405    -7.121581    153.01768   0.02651034  0.027056648            3 
  482000    1.0537765    -7.075139    153.60501  0.026556882  0.027037622            4 
  483000    1.0679154   -7.1293795    153.03697  0.026403895  0.027019178            7 
  484000     1.051664   -7.1081341    153.52375  0.026433152  0.027000439            4 
  485000    1.0543736   -7.1340042    153.50773  0.026375899  0.026981105            7 
  486000    1.0504711   -7.1054186    153.74472  0.026362264   0.02696165            2 
  487000    1.0744268   -7.1344902    154.20948  0.026387658  0.026942626            3 
  488000    1.0346311    -7.165443     154.1719  0.026327168  0.026922419            2 
  489000     1.053949   -7.1142557    153.74325  0.026200281  0.026902409            6 
  490000    1.0751769   -7.1096481    154.38201  0.026255443  0.026881956            3 
  491000    1.0746409   -7.1512523    154.46488  0.026216035  0.026861398            5 
  492000     1.070702   -7.1252574    154.49089  0.026167156  0.026840882            5 
  493000    1.0421448   -7.1425028    155.13892  0.026223618  0.026820835            2 
  494000    1.0492266    -7.101257    155.21187  0.026182839   0.02680102            4 
  495000    1.0395051    -7.158616    155.04147  0.026101258  0.026780741            6 
  496000    1.0649579   -7.1601824    155.40015  0.026108896  0.026760473            2 
  497000    1.0314708   -7.1439141    156.10089  0.026173859  0.026740357            2 
  498000    1.0413832   -7.1175568    156.13891  0.026127662  0.026719946            7 
  499000     1.060212   -7.1622116    155.65532  0.025994542  0.026699211            2 
  500000    1.0276873    -7.117793    156.22166  0.026036943  0.026679214            4 
  501000    1.0606419   -7.1266157    156.36263  0.026008421  0.026659046            4 
  502000    1.0469966   -7.1569476    155.94714   0.02588764  0.026638194            6 
  503000    1.0635246    -7.169596    157.02685  0.026015051  0.026617521            3 
  504000      1.05557   -7.0922416    157.38816  0.026023175  0.026596972            2 
  505000    1.0666027   -7.1502015    157.25387  0.025949484  0.026576851            2 
  506000    1.0736285   -7.1302068       157.49  0.025937088  0.026556466            4 
  507000    1.0562098   -7.1721369    156.87796  0.025785332  0.026535638            3 
  508000    1.0583098   -7.1503019    157.92272  0.025905958  0.026514702            5 
  509000    1.0549981   -7.1380014    158.24084  0.025907145   0.02649417            7 
  510000    1.0723187   -7.1433201    158.11042  0.025835037  0.026473558            2 
  511000    1.0557814   -7.1363146    158.24638   0.02580665  0.026452572            4 
  512000    1.0644311   -7.1600188    158.54934  0.025805557  0.026431399            5 
  513000     1.032654   -7.1046263    159.00246  0.025828859  0.026410652            3 
  514000    1.0280276   -7.1231527    158.78059  0.025742637  0.026389594            7 
  515000     1.034056   -7.1121019    159.05182   0.02573654  0.026368638            2 
  516000    1.0251165   -7.1223721    159.06493   0.02568878  0.026347421            4 
  517000    1.0356624   -7.1613778       159.66   0.02573501  0.026326601            6 
  518000    1.0433619   -7.1214441    159.94563  0.025731279   0.02630607            3 
  519000    1.0511429   -7.1424816    159.36948  0.025589191  0.026285256            4 
  520000    1.0685416   -7.1214014    160.50614  0.025722139  0.026264625            3 
  521000    1.0632447   -7.1385782    159.92078  0.025579139  0.026243864            2 
  522000    1.0247185   -7.1155927    160.23646  0.025580532  0.026223096            3 
  523000    1.0525582   -7.1737231    160.09668  0.025509351  0.026202131            5 
  524000    1.0238391   -7.1576704    160.54325  0.025531688  0.026180944            6 
  525000    1.0499516   -7.1608155    160.26078  0.025438219  0.026159581            4 
  526000     1.045976   -7.1639762    161.65201  0.025610268  0.026138596            3 
  527000    1.0585536   -7.1778158    161.22634  0.025494361  0.026117696            4 
  528000    1.0239596    -7.200206    161.20781  0.025443153  0.026096643            7 
  529000    1.0593414    -7.154363    161.69235  0.025471384  0.026075791            5 
  530000    1.0285394   -7.1199864    162.16223  0.025497205  0.026055256            4 
  531000    1.0330514    -7.165152    162.32683  0.025475021  0.026034986            6 
  532000    1.0312316   -7.1849931    162.44379  0.025445456  0.026014535            9 
  533000    1.0289749   -7.1592929    163.16281  0.025510132  0.025994155            2 
  534000    1.0406814   -7.1801838    162.57544  0.025370699  0.025974177            5 
  535000    1.0386997   -7.2220199    162.54132  0.025317963  0.025953402            3 
  536000     1.039456   -7.1550143    163.31597  0.025391165  0.025932953            5 
  537000    1.0077984   -7.1521531    163.95874  0.025443629  0.025913217            3 
  538000    1.0704738   -7.1756299    163.74888  0.025363828  0.025893666            3 
  539000    1.0374249   -7.1647032     164.1837  0.025383999  0.025873316            3 
  540000    1.0278092   -7.1585605    164.19273  0.025338384  0.025852842            5 
  541000    1.0571295   -7.1862522    164.20847  0.025293973  0.025832854            3 
  542000    1.0247715   -7.2061255    164.22542   0.02524991  0.025812245           10 
  543000     1.045587   -7.1911711     163.9183  0.025156277  0.025791543            5 
  544000    1.0348465   -7.1594389    164.86164  0.025254541  0.025770829            4 
  545000    1.0381549   -7.1962434    164.76881  0.025194008  0.025750048            3 
  546000    1.0546979   -7.2302382    164.77452  0.025148736   0.02572891            3 
  547000    1.0618983   -7.1755243    164.99325  0.025136084   0.02570832            4 
  548000    1.0155191   -7.2127461    165.02031   0.02509433  0.025687738            3 
  549000    1.0188947   -7.2189585    165.29899  0.025090921  0.025666622            9 
  550000     1.046973   -7.1659005    165.67233  0.025101869  0.025645663            1 
  551000    1.0403675   -7.2121029    165.36451  0.025009756  0.025624712            3 
  552000    1.0362552   -7.1655372    165.90893  0.025046638  0.025603919            2 
  553000    1.0350227    -7.154715    166.14175  0.025036431  0.025583116            3 
  554000     1.012781   -7.1603998    165.84085  0.024945977  0.025562034            2 
  555000    1.0079726   -7.1749817    166.62391  0.025018605  0.025541048            2 
  556000    1.0414783   -7.1866543    166.15133  0.024902777  0.025520015            3 
  557000    1.0080028   -7.2237003    165.98007  0.024832446  0.025498922            4 
  558000    1.0214838   -7.2022502    166.77285  0.024906339  0.025477575            2 
  559000    1.0017817   -7.2169425    167.38985  0.024953764   0.02545687            2 
  560000    1.0440857   -7.2585575    166.96846  0.024846496   0.02543598           10 
  561000    1.0066223   -7.2108668    167.79259  0.024924627  0.025414923            6 
  562000    1.0314813   -7.1752114    167.79527  0.024880674    0.0253947            7 
  563000    1.0330711   -7.2189254    167.52714  0.024796794  0.025373974            3 
  564000    1.0247427   -7.2048925    167.84779  0.024800205  0.025352966            6 
  565000    1.0090188   -7.1780558    168.31809  0.024825677  0.025332336            2 
  566000    1.0363422   -7.1948629    168.27136  0.024774935   0.02531148            4 
  567000    1.0175053   -7.2279516    168.06284  0.024700594  0.025290741            3 
  568000     1.038809   -7.2283615    168.47674  0.024717832  0.025270013            5 
  569000    1.0327499   -7.1974298    168.77653  0.024718296  0.025249577            8 
  570000    1.0116197   -7.1674617    169.07107  0.024717992  0.025228946            3 
  571000    1.0280288    -7.170598    169.11585   0.02468124  0.025208623            4 
  572000    1.0139914   -7.2009674      169.677  0.024719842   0.02518826            2 
  573000    1.0333537   -7.2133928    169.72737  0.024684027  0.025168141            7 
  574000    1.0332639   -7.2111591    169.77304  0.024647653  0.025147677            3 
  575000    1.0087239   -7.2132272    170.05204  0.024645223  0.025127369            4 
  576000    1.0302866   -7.2501506    169.53787  0.024528048  0.025106668            3 
  577000    1.0227546   -7.2130614    169.62891  0.024498687  0.025085756            5 
  578000    1.0171892   -7.2030275     169.7651  0.024475937   0.02506448            3 
  579000   0.99535679   -7.2504986    169.66768  0.024419642   0.02504311            2 
  580000    1.0460817   -7.2366068    170.22508  0.024457627  0.025021662            3 
  581000    1.0401993   -7.2074525     171.0452  0.024533161  0.025000671            3 
  582000   0.98875575   -7.2511452    170.22251  0.024373212  0.024979625            3 
  583000    1.0476127   -7.2410256    170.71864  0.024402321  0.024958744            9 
  584000    1.0142198   -7.2280861    170.86157  0.024380931  0.024938079            3 
  585000    1.0201141   -7.2292886    171.06832  0.024368706  0.024917147            6 
  586000    1.0399069   -7.1994173    171.35225  0.024367498  0.024896148            3 
  587000    1.0220522   -7.2044881    171.92008  0.024406599  0.024875385            4 
  588000    1.0257214   -7.2850431    171.12787  0.024252817  0.024854336            4 
  589000    1.0167151   -7.2566257    171.48303  0.024261888  0.024833088            2 
  590000    1.0161567   -7.2363907    171.76159  0.024260112  0.024811876            3 
  591000    1.0287534   -7.2107037    172.19026  0.024279507  0.024790685            2 
  592000    1.0227766    -7.212978    172.42431  0.024271439  0.024769964            2 
  593000     1.008407   -7.2628329    172.92047  0.024300235   0.02474888            5 
  594000    1.0171211   -7.2284882    172.62407  0.024217743  0.024728019            6 
  595000     1.014407   -7.2422613      173.211  0.024259244  0.024707006            8 
  596000    1.0082906   -7.2233004    173.39709  0.024244559  0.024686298            5 
  597000    1.0114594   -7.2483638    173.10161  0.024162703   0.02466597            4 
  598000    1.0435098   -7.2740457    172.94276  0.024100162  0.024645478           10 
  599000    1.0316829   -7.2592624    173.75852  0.024173417  0.024625281           11 
  600000    1.0189146   -7.2035791    174.13144  0.024184922  0.024604831            6 
  601000    1.0127746    -7.231375    173.84002  0.024104274  0.024584629            4 
  602000    1.0407144   -7.2471214     174.0122  0.024088068    0.0245644            6 
  603000    1.0295119   -7.2678705     173.9792  0.024043559  0.024544148            5 
  604000   0.98962748   -7.2328108    174.57579  0.024086064  0.024524321            2 
  605000     1.005505   -7.2366941    175.20639  0.024133112   0.02450443            5 
  606000    1.0157728    -7.305177    174.30652  0.023969543  0.024484227            4 
  607000    1.0177073   -7.2415409    175.31929  0.024069095  0.024464312           11 
  608000    1.0321578   -7.3102831     174.7268    0.0239483  0.024444455            3 
  609000    1.0183344   -7.2720129    175.05262  0.023953561  0.024424206            4 
  610000    1.0151027   -7.2633679    175.29515  0.023947425   0.02440394            3 
  611000    1.0139497   -7.2200122    175.60062  0.023949894  0.024383539            6 
  612000    1.0057907   -7.2645952    175.22531  0.023859655  0.024363141            2 
  613000    1.0153571   -7.2433648    175.64339  0.023877568  0.024342781            3 
  614000    1.0108335   -7.2582528     176.0684  0.023896363  0.024322373            4 
  615000   0.99714095   -7.2880765    175.84308  0.023826975   0.02430209            6 
  616000    1.0079786   -7.2844625     176.2623  0.023845008  0.024281608            6 
  617000    1.0239491    -7.243599    176.94215  0.023898183  0.024261151            2 
  618000    1.0012324   -7.2476774    176.56392  0.023808511  0.024241034            4 
  619000    1.0086283   -7.2746495    176.82873  0.023805699  0.024220592            3 
  620000    0.9939897   -7.2842287    176.99803  0.023790058  0.024200392            4 
  621000     1.014389    -7.296851    177.50652  0.023819984  0.024180272            4 
  622000    1.0020243   -7.2451113    177.43791  0.023772496  0.024159896            2 
  623000   0.99053587   -7.2159162    177.73009   0.02377342  0.024140103            4 
  624000    0.9993813   -7.2561694     177.6917  0.023730195  0.024120256            4 
  625000    1.0180371   -7.2450863     178.1822  0.023757627  0.024100636            4 
  626000   0.98420864   -7.2458908    177.92078  0.023684875  0.024080882            6 
  627000    1.0122137   -7.2913887     178.3023  0.023697807  0.024060679            3 
  628000    1.0069588   -7.2787419    178.00982  0.023621261  0.024040473            4 
  629000   0.99842909   -7.2731339    178.13143  0.023599819  0.024020609            8 
  630000    1.0042293   -7.3272038    177.85018  0.023525157  0.024000192            9 
  631000   0.98671389   -7.2927219    178.39656  0.023560031  0.023979774            8 
  632000    1.0012187   -7.3436764     178.1603  0.023491601  0.023959253            7 
  633000     1.012256   -7.2895799    179.10886  0.023579366  0.023938988            4 
  634000   0.99670823   -7.2786435    179.03536  0.023532513  0.023918605            3 
  635000   0.98296144   -7.2258526    179.58133  0.023567103  0.023898732            5 
  636000    1.0249499   -7.3097479    178.73747   0.02341948  0.023878252            7 
  637000    1.0101553   -7.2563791      179.331  0.023460361  0.023857639            8 
  638000     1.023349   -7.2761928    179.93679  0.023502715    0.0238373            5 
  639000   0.98548576   -7.2662843    179.74584  0.023441033  0.023817037            7 
  640000   0.98774148    -7.256464    179.35294  0.023353247  0.023796536            5 
  641000   0.97554015   -7.2705137    179.35199  0.023316692  0.023776111            3 
  642000    1.0130783   -7.2892311    179.75397   0.02333255  0.023755724            7 
  643000    1.0006194   -7.2804804    180.34289  0.023372588  0.023735685            3 
  644000    1.0040052   -7.3071599     179.1395  0.023180577  0.023715196            4 
  645000   0.99991596   -7.3339533    179.12496  0.023142759  0.023694365            4 
  646000   0.97653914   -7.3360784    180.13298  0.023236969  0.023673502            3 
  647000   0.98001551   -7.3519893    179.51639  0.023121637  0.023652784            4 
  648000    0.9770053   -7.3380764    180.00157   0.02314835  0.023632141            7 
  649000   0.99257051   -7.2659776    180.71517   0.02320431  0.023611675            4 
  650000    0.9761888   -7.3015115     180.8166  0.023181616  0.023591086            3 
  651000   0.97453424   -7.3100828    180.75719  0.023138401  0.023570536            4 
  652000      1.01792   -7.3438937    180.52498  0.023073234  0.023549963            7 
  653000    1.0081876   -7.3600567     180.0945  0.022982964  0.023529288            3 
  654000   0.97586666   -7.3444852    180.44158  0.022992047  0.023508527            9 
  655000    1.0092516   -7.3113205    181.31631  0.023068233   0.02348804            4 
  656000   0.98838776   -7.3525043    181.76927  0.023090608  0.023467434            3 
  657000    1.0140021   -7.3340517    181.25453  0.022990174  0.023446758            5 
  658000    1.0050871   -7.3092025    182.15965  0.023069864   0.02342622            8 
  659000    1.0041489   -7.3463728     182.0591  0.023022142  0.023405611            6 
  660000    1.0013578    -7.319062    182.00378  0.022980276  0.023385286            6 
  661000   0.96594922   -7.3379757    181.91302  0.022934067  0.023364904            2 
  662000   0.99898153    -7.306992    182.31849  0.022950465  0.023344572            6 
  663000   0.99918134   -7.2551252    182.88034  0.022986468  0.023324339            6 
  664000    1.0003605   -7.3487229    182.48409  0.022902119  0.023304152            3 
  665000   0.99642895   -7.3182376    183.13466  0.022949205  0.023283857            7 
  666000   0.99261327   -7.3379145    182.43163  0.022826781  0.023263636           10 
  667000    1.0009293   -7.3201159    182.91463  0.022852902   0.02324363            3 
  668000   0.99895016   -7.3582969    183.24435  0.022859824  0.023223669            4 
  669000   0.99499855   -7.2996164    183.62476   0.02287304  0.023203533            6 
  670000   0.99722666   -7.3392652    183.22049  0.022788619  0.023183231            5 
  671000   0.97215497   -7.3518407    183.27988  0.022762032   0.02316298            6 
  672000    1.0055187   -7.3344051    183.41297  0.022744664  0.023142668            7 
  673000    0.9871815   -7.3748623    183.86339  0.022766641  0.023122663            3 
  674000   0.99065777   -7.3446432    183.76796  0.022721064  0.023102679            7 
  675000    0.9907273   -7.3113295    184.02959  0.022719703  0.023082465            9 
  676000   0.97513224   -7.3307417    184.18164  0.022704837  0.023062186            8 
  677000   0.99285632   -7.3326081     184.0843  0.022659318  0.023041919            6 
  678000   0.98387817   -7.3369476    184.33841   0.02265713  0.023021963            5 
  679000   0.97468969   -7.3314233    185.09936  0.022717153  0.023002312            4 
  680000   0.98909013   -7.3236635    184.61577  0.022624482  0.022982677            6 
  681000   0.99685398   -7.3529828    185.19263  0.022661849  0.022962989            6 
  682000   0.98059605   -7.3532855    185.72941  0.022694209  0.022943282            4 
  683000   0.97109942   -7.3686464    185.11362  0.022585849  0.022923738            6 
  684000    1.0025347   -7.3254007    185.67591  0.022621334  0.022904057            7 
  685000   0.99479908   -7.3625938    185.74842  0.022597131  0.022884594            3 
  686000   0.96824997   -7.3459309    185.90833  0.022583616  0.022865048            7 
  687000    1.0041995   -7.3688282    185.77623  0.022534719  0.022845265            4 
  688000   0.97525413   -7.3722719    185.79489  0.022504227  0.022825497            7 
  689000   0.99874306   -7.3698931    185.93408  0.022488399  0.022805678            6 
  690000   0.98126706   -7.3405281    185.99736  0.022463449   0.02278578            6 
  691000    0.9593432   -7.3321516    186.66321  0.022511241  0.022765991            4 
  692000   0.98295796   -7.3330767    186.63827  0.022475707  0.022746283            2 
  693000   0.96543379   -7.3728298    186.07976  0.022376114  0.022726481            8 
  694000   0.98106723   -7.3654106    186.40727  0.022383198  0.022706583            8 
  695000   0.97092923   -7.3941197      186.221  0.022328657  0.022686672            6 
  696000   0.96160238   -7.3925567    186.69525  0.022353359  0.022666936            4 
  697000   0.97992482   -7.3622051    187.01249  0.022359217  0.022647486            7 
  698000   0.97844358   -7.3520846    187.59949  0.022397265  0.022627702            3 
  699000   0.98800104   -7.3508519    187.39043  0.022340299  0.022608148            5 
  700000    0.9540475    -7.371938    187.45443  0.022316003  0.022588552            3 
  701000   0.97980352   -7.3524194    187.32033  0.022268228  0.022569029            4 
  702000    0.9919419   -7.3936254      187.128  0.022213675   0.02254916           12 
  703000   0.98881449   -7.3672132    188.07384  0.022294197  0.022529747            5 
  704000   0.96837872   -7.3728788      187.915  0.022243726  0.022510029           10 
  705000   0.96178464   -7.3466432    188.37978  0.022267113  0.022490398            5 
  706000   0.96349716   -7.3678826    187.91237  0.022180403  0.022470711            4 
  707000   0.97485227   -7.3499514    188.13208  0.022174927  0.022450776           10 
  708000   0.97949589   -7.3350918     188.3015  0.022163547  0.022431095            4 
  709000   0.97177183   -7.3605058    188.35372  0.022138425  0.022411562            5 
  710000    0.9708734   -7.3669289    188.86164   0.02216686  0.022392075            4 
  711000   0.96273398   -7.3302547    189.30337  0.022187455  0.022372812            5 
  712000   0.96608052    -7.357045    189.44597  0.022172984  0.022353906            3 
  713000   0.97078141   -7.4062875    188.88908  0.022076797   0.02233441            3 
  714000   0.96468926   -7.3951998    188.97412  0.022055803  0.022314973            7 
  715000   0.98012735   -7.3770115    190.15288   0.02216234  0.022295856            5 
  716000   0.96713025   -7.3555432    190.22711  0.022140027  0.022276756            4 
  717000   0.95764823   -7.4132486    189.24629  0.021995152  0.022257787            3 
  718000   0.96834594   -7.4229339    189.15173  0.021953544  0.022238807            6 
  719000   0.97096736   -7.4068834    189.90531  0.022010351   0.02221992            6 
  720000   0.97540618   -7.4082828    190.00865  0.021991742  0.022201041            3 
  721000    0.9640195   -7.3603351    190.26206  0.021990529  0.022182069            6 
  722000   0.96512772    -7.380832    190.24528  0.021958135  0.022163211            9 
  723000   0.94800979    -7.360026    190.54732  0.021962578  0.022144612            5 
  724000   0.93743188   -7.4058005    191.09768   0.02199559  0.022125963           12 
  725000   0.97380335   -7.3674238    191.56391  0.022018841   0.02210746            9 
  726000   0.95605435   -7.4018789    191.28016  0.021955942  0.022088983            6 
  727000   0.96191522   -7.4211922    191.43349  0.021943316  0.022070341            4 
  728000   0.95723664   -7.3861618    191.86601  0.021962684  0.022051885            9 
  729000   0.97474072   -7.3944657    192.17297  0.021967647  0.022033603            9 
  730000   0.96510127   -7.3714001    191.50172  0.021860927   0.02201545            4 
  731000   0.95136796   -7.3838346    191.46158  0.021826445  0.021997269            9 
  732000   0.96582187    -7.409503    191.95172  0.021852428  0.021978901            7 
  733000   0.96276816   -7.4365757    191.99877  0.021827964  0.021960517            9 
  734000   0.96036139   -7.4248665    192.05207  0.021804277  0.021942138            6 
  735000   0.94698519   -7.4149818    192.78368  0.021857561  0.021924059            5 
  736000   0.98370463   -7.3735986    192.24031   0.02176634  0.021905867            3 
  737000   0.95392773   -7.4201927    192.83669  0.021804239  0.021887798            4 
  738000   0.97761043   -7.4210895    192.66502   0.02175531  0.021869522            5 
  739000   0.97390593   -7.3616663     193.0218  0.021766103  0.021851129            9 
  740000    0.9637047    -7.430973    192.80553  0.021712335  0.021832793           13 
  741000    0.9514858   -7.4367785     192.7532  0.021677148  0.021814317            7 
  742000   0.95408511   -7.4207666    193.40082  0.021720667  0.021795909            6 
  743000   0.95382854   -7.4291092    193.14768  0.021663041  0.021777542           10 
  744000   0.96428103   -7.3831041    193.47674  0.021670782  0.021759378            7 
  745000   0.95335143   -7.4036131    194.15037  0.021717044  0.021741343            8 
  746000   0.95459259   -7.4196302    193.12759  0.021573681  0.021723116            3 
  747000   0.95035228   -7.4662493    193.52157  0.021588752  0.021704776            4 
  748000   0.96685962   -7.4343634    194.18699  0.021634023  0.021686375            8 
  749000   0.95198866   -7.4290529    193.79845   0.02156191  0.021667994            6 
  750000    0.9407412   -7.4554366    193.12773  0.021458637  0.021649532            2 
  751000   0.96405727   -7.4403404    193.98092  0.021524736  0.021631161            2 
  752000   0.95750086   -7.3699916    194.68982   0.02157467  0.021612883            5 
  753000   0.94808241   -7.4286449    194.20472  0.021492333  0.021594515            6 
  754000   0.94999562   -7.4592047    193.84304  0.021423855  0.021575925            8 
  755000   0.96303098   -7.4451464    193.97596   0.02141015  0.021557452            6 
  756000   0.97518133   -7.4366737    194.36716  0.021424952  0.021538754            5 
  757000   0.93375252   -7.4542492    193.74373  0.021328019  0.021519979            4 
  758000   0.97205164   -7.4661908    193.68452  0.021293372  0.021501125            4 
  759000   0.95157175   -7.4323097    193.73211  0.021270543  0.021482507            6 
  760000   0.95541703   -7.3715251    194.39515  0.021315258     0.021464            6 
  761000   0.94800911   -7.4153189    194.44506  0.021292714  0.021445334            4 
  762000   0.95793923   -7.4016031    194.94503  0.021319448  0.021426756            3 
  763000   0.95439477    -7.447251    195.04308  0.021302215  0.021408333            6 
  764000   0.93828325   -7.4444025    194.36543  0.021200418  0.021389786            6 
  765000   0.94351217   -7.4325198    195.21695  0.021265463  0.021371113            4 
  766000    0.9587687   -7.4359489    194.85226  0.021198027  0.021352583            8 
  767000   0.94908528   -7.4481893    194.88718  0.021174182   0.02133397            6 
  768000   0.95746246   -7.4435207    195.02305  0.021161355  0.021315194            7 
  769000   0.95457458   -7.4798632    195.01506  0.021132971  0.021296514            8 
  770000   0.93578686   -7.4584907    195.09022   0.02111366  0.021277511            5 
  771000   0.94269488   -7.4251468    195.78804  0.021161699  0.021258653            3 
  772000   0.94827787   -7.4438293    195.36626  0.021088759  0.021239862            3 
  773000   0.93712347   -7.4539333    195.74902   0.02110274  0.021221071            9 
  774000   0.92841723   -7.4248612    195.16769  0.021012886  0.021202309            3 
  775000   0.95176538   -7.4528621    195.55684  0.021027618  0.021183397            3 
  776000   0.95299308   -7.4680648    195.45302  0.020989371  0.021164494            8 
  777000   0.94311493    -7.449507    196.04544  0.021025894  0.021145589            6 
  778000   0.96104061   -7.4302021    196.25006  0.021020787  0.021126747            6 
  779000   0.93598709   -7.4543597    195.83784  0.020949705  0.021107991            4 
  780000   0.94958399   -7.4413391    196.32828  0.020975243  0.021089431           10 
  781000   0.93987032   -7.4219106    196.17553  0.020932089  0.021070814            6 
  782000   0.91972135   -7.4524356    196.27348  0.020915759  0.021052052            9 
  783000   0.94876196   -7.4872304     195.8673  0.020845817  0.021033257            6 
  784000   0.96471863   -7.4860595    196.39395  0.020875207  0.021014421            6 
  785000   0.94356734   -7.4340511    196.46728  0.020856399  0.020995538            5 
  786000   0.93160579   -7.4461439    196.13026  0.020794133  0.020976986            6 
  787000   0.95092587   -7.4677348    196.25592  0.020781017  0.020958142            7 
  788000    0.9214917   -7.4235069    196.50573  0.020781062  0.020939252            6 
  789000   0.95543022   -7.4393007    196.78467  0.020784185  0.020920472            5 
  790000   0.94159128   -7.4309376    196.75323   0.02075456  0.020902068            4 
  791000   0.95281117   -7.4845146    196.88675  0.020742388  0.020883523            9 
  792000   0.93805495    -7.492796    197.14656  0.020743535  0.020864709            3 
  793000   0.92901431   -7.4567417    197.52345  0.020756983   0.02084592            3 
  794000   0.94581008   -7.4892398    196.72882  0.020647441  0.020827083            8 
  795000   0.94818125   -7.5023342    197.09615  0.020659974  0.020808078            8 
  796000    0.9204668   -7.4755089    197.02169  0.020626223  0.020789297           14 
  797000   0.93651334   -7.4605109     197.8346   0.02068534  0.020770454           15 
  798000   0.94791742   -7.4542529    197.61596  0.020636587  0.020751696            3 
  799000   0.93606522   -7.4619027     197.4153  0.020589831  0.020733038            4 
  800000   0.92264252   -7.4641277    197.27818   0.02054981  0.020714458            9 
  801000   0.91156363   -7.4986267    197.45732  0.020542792   0.02069566            4 
  802000   0.93497217   -7.5096563    197.38663  0.020509833   0.02067668            4 
  803000   0.92589663   -7.4576295    198.15562  0.020564095  0.020657965            3 
  804000   0.93521136   -7.5131434    197.42196  0.020462475  0.020639314            8 
  805000   0.96239234   -7.5094291    198.21067  0.020518702  0.020620605            2 
  806000    0.9237091   -7.4701056    198.54298  0.020527604   0.02060215            5 
  807000   0.91669238    -7.520159    198.25869   0.02047281  0.020583675           14 
  808000   0.93891213   -7.5287689    198.72773  0.020495847  0.020565121            8 
  809000   0.91076824   -7.4989134    198.43183  0.020440032  0.020546625           10 
  810000   0.92490225   -7.5015729      198.599  0.020431996  0.020528102            9 
  811000   0.94210571   -7.5289822    198.77233  0.020424613  0.020509753           10 
  812000   0.91805779   -7.4778407    199.18418  0.020441726  0.020491333            5 
  813000   0.94520092   -7.5120995    198.79852  0.020377052  0.020472863            5 
  814000   0.93108578   -7.4986937    198.89591  0.020361989  0.020454263            6 
  815000   0.91706233    -7.518212    198.32567  0.020278698  0.020435631            9 
  816000   0.95125461   -7.5437086    198.86592   0.02030902  0.020416969            5 
  817000   0.91676526   -7.5214957    198.74386  0.020271711  0.020398358            3 
  818000    0.9442748   -7.5188439    199.02243  0.020275309  0.020379843            3 
  819000   0.92201354   -7.4999501    199.54044   0.02030326  0.020361399            6 
  820000    0.9382548   -7.5538708    198.33533  0.020156029     0.020343            3 
  821000   0.91428259   -7.4950587    199.10405  0.020209506  0.020324436            3 
  822000   0.92161647    -7.496829    199.40976  0.020215913  0.020306043            5 
  823000   0.93229659   -7.5257217    199.07146  0.020157094   0.02028756            5 
  824000   0.93302617    -7.508008    199.52845  0.020178848   0.02026909            5 
  825000   0.93611238   -7.4881009    199.98944  0.020200954   0.02025059            5 
  826000   0.93590114   -7.4835098    200.14978  0.020192673  0.020232266            3 
  827000   0.91679526   -7.5140044    200.11009  0.020164258  0.020213891            2 
  828000   0.93864579   -7.5264177    199.97928  0.020126739  0.020195397            5 
  829000   0.90561961   -7.4927944    200.06206  0.020110782  0.020177036            4 
  830000   0.92512306   -7.5062253     199.7823  0.020058464   0.02015864            4 
  831000   0.91694016    -7.554562    199.94857     0.020051  0.020140161            7 
  832000    0.9263521   -7.5163312    200.26441  0.020058534  0.020121663            8 
  833000   0.92764434   -7.5391406    199.96491  0.020004493  0.020103147           10 
  834000   0.91622527   -7.5085536    200.61997   0.02004596  0.020084831            4 
  835000   0.91813926    -7.535093    200.07133  0.019967199  0.020066348            3 
  836000   0.89980867   -7.4989625    200.70688  0.020006666  0.020048023            5 
  837000   0.90988281   -7.5190426     200.1589  0.019928206  0.020029621            4 
  838000    0.9276047    -7.507151     200.5089  0.019939231  0.020011237            4 
  839000   0.92009843   -7.5152314    200.73599   0.01993802  0.019992879           11 
  840000   0.93091041   -7.6021868     200.0905  0.019850248  0.019974441            8 
  841000   0.89003807   -7.5399811    200.47897  0.019865137  0.019955963           13 
  842000   0.91375543   -7.5512199    200.70911  0.019864322  0.019937437            8 
  843000    0.9148277    -7.557184    200.89146  0.019858784  0.019918927            7 
  844000   0.92799154   -7.5481844    200.59063  0.019805552  0.019900461            4 
  845000   0.92272801   -7.5629292    200.48121  0.019771323  0.019881931           11 
  846000   0.91410204   -7.5308126    201.06294  0.019805255  0.019863429            9 
  847000    0.8967378   -7.5197764    200.94107  0.019769881  0.019845102            7 
  848000   0.91170358   -7.5208898    201.28662  0.019780525  0.019826728            9 
  849000   0.91128635   -7.5302805    200.81605  0.019711038  0.019808294            5 
  850000   0.90915424   -7.5324579    200.81898  0.019688135  0.019789974            4 
  851000   0.90078576   -7.5157558    201.81328  0.019762366  0.019771615            4 
  852000    0.9044056    -7.546052    201.03968  0.019663506  0.019753328            4 
  853000   0.91194016   -7.5215987    201.58614  0.019693839  0.019735108            7 
  854000    0.9304518   -7.5570114    201.82359  0.019693949  0.019716792            8 
  855000   0.91839188   -7.5072996    202.00165   0.01968827   0.01969858            5 
  856000   0.92156382    -7.537376    202.11616  0.019676417  0.019680389            8 
  857000   0.91757697   -7.5698469    201.98188    0.0196404  0.019662246            4 
  858000    0.9053947   -7.5511898    201.73569  0.019593599  0.019644031            5 
  859000   0.89730862   -7.5556652    202.16594  0.019612528  0.019625768            8 
  860000   0.93259466   -7.5695678    202.05075  0.019578561  0.019607676            4 
  861000   0.91061787   -7.5814778    201.84644  0.019536048  0.019589635           10 
  862000   0.91428436   -7.5449468    202.68172  0.019594134  0.019571603            5 
  863000   0.90568614   -7.5767648    202.22608  0.019527432  0.019553508           13 
  864000   0.90403455   -7.5835087    201.82393  0.019466042  0.019535397            3 
  865000   0.88637963   -7.5903579    202.13105  0.019473126  0.019517135            6 
  866000    0.8765229   -7.5751279     202.1705  0.019454436   0.01949893            8 
  867000   0.93060806   -7.5424568     202.1239  0.019427518  0.019480698            5 
  868000   0.91891696   -7.5564662    202.32329  0.019424279  0.019462503            9 
  869000   0.89878134   -7.5742575    202.99081  0.019465939   0.01944436            4 
  870000   0.89297629   -7.5226154    203.03514   0.01944781  0.019426294            3 
  871000   0.90006104   -7.5537316    202.03343  0.019329643  0.019408138            9 
  872000   0.90848419    -7.535633     203.0778  0.019407282  0.019389998           10 
  873000   0.89420337   -7.5932666     202.6026  0.019339691  0.019371859           15 
  874000   0.92186853   -7.5694398    202.71909   0.01932867  0.019353634           14 
  875000   0.92278272   -7.5864479    202.18233   0.01925546  0.019335328            9 
  876000   0.90086868    -7.584014    203.12465  0.019323121  0.019317017            7 
  877000    0.8804029   -7.5997786    202.37623  0.019229972  0.019298919           15 
  878000   0.86483509    -7.549959    202.95144  0.019262665  0.019280761            6 
  879000   0.90414619   -7.5692878    202.95563  0.019241148  0.019262563            9 
  880000   0.91121296    -7.606213    202.10497  0.019138728  0.019244315            4 
  881000   0.92792187   -7.6212127    202.11693  0.019118136  0.019225908            9 
  882000   0.90716497   -7.6379792    202.59863  0.019141972  0.019207523            6 
  883000    0.9050768   -7.6384765    202.76689  0.019136173  0.019189267            8 
  884000   0.90125506   -7.6015085    203.04882  0.019141103  0.019170974            7 
  885000   0.89572858   -7.6188212     203.0742  0.019121864  0.019152702           18 
  886000   0.91711351   -7.6069575    203.62427  0.019152019  0.019134648            9 
  887000   0.89124169   -7.5896567    203.11135  0.019082239  0.019116426            4 
  888000   0.90093282   -7.6007845    203.06412  0.019056318  0.019098229            9 
  889000   0.91743516   -7.6309774      202.659  0.018996907  0.019080046            5 
  890000   0.88734287   -7.6336365    202.94609  0.019002443  0.019061842            6 
  891000   0.87638333   -7.5784736    203.89839  0.019070182  0.019043677            7 
  892000    0.9029452   -7.5887259    204.27218  0.019083724  0.019025679            3 
  893000   0.90810507   -7.6077474    203.42956  0.018983721  0.019007786            6 
  894000   0.89358443   -7.5730129    204.34861  0.019048155  0.018989908            2 
  895000   0.89998646   -7.5892141     204.5851  0.019048892  0.018972169            4 
  896000   0.88424053   -7.5921476    204.11342  0.018983763  0.018954449           13 
  897000   0.89547097   -7.5764747    203.99518  0.018951615    0.0189367            9 
  898000   0.89514153   -7.5784559    203.96618  0.018927819  0.018918863            9 
  899000   0.89052683    -7.564143    204.64566   0.01896975  0.018901165            6 
  900000   0.89569142   -7.6490369    204.12269  0.018900249  0.018883648           17 
  901000   0.88546233   -7.6117847    204.33926  0.018899302  0.018865969           18 
  902000   0.89550441   -7.6568397    204.16498  0.018862248  0.018848318           10 
  903000   0.90746592   -7.6029867    204.74934  0.018895288  0.018830605           15 
  904000   0.90146079   -7.5953052    205.02658  0.018899943  0.018813039            6 
  905000   0.87728242   -7.6121282    204.79515  0.018857749  0.018795521            4 
  906000   0.91844617   -7.6282333    205.23332  0.018877237  0.018777981           10 
  907000   0.88790927    -7.657495    204.91715  0.018827375  0.018760596            7 
  908000   0.87769322   -7.5841206    205.26631  0.018838685  0.018743171            3 
  909000   0.89700173   -7.6055412    205.20838  0.018812649  0.018725651           10 
  910000   0.89422228   -7.6543014    205.22232  0.018793253  0.018708232           18 
  911000   0.89979866   -7.6376017    205.28406  0.018778271  0.018690713           10 
  912000   0.88289661   -7.6230319    205.43659  0.018771619  0.018673308           21 
  913000    0.8787117   -7.6283045    205.46809  0.018753933  0.018655957           16 
  914000   0.89970661   -7.6271212    205.82374  0.018765841  0.018638469            5 
  915000   0.89318312    -7.611807    205.73841  0.018737561  0.018621124           13 
  916000   0.88548197   -7.6348783    205.32972  0.018679923  0.018603752           13 
  917000   0.89508841   -7.6581855    205.57981   0.01868228  0.018586328           11 
  918000   0.88438119    -7.645998     205.4607  0.018651117  0.018568822           10 
  919000   0.88529892   -7.6282059      205.865  0.018667482  0.018551477            5 
  920000   0.91546575   -7.6439665    205.55918  0.018619491  0.018534063            7 
  921000   0.89261526   -7.6441669    205.32327  0.018577929  0.018516752           19 
  922000   0.89678347   -7.6745404    205.46316  0.018570423  0.018499401           28 
  923000   0.88680509   -7.6678976    205.66438  0.018568471   0.01848196            8 
  924000   0.88354372   -7.6620571    205.80839  0.018561363  0.018464585           16 
  925000   0.87771681   -7.6775194    205.52497  0.018515763  0.018447116           11 
  926000   0.89952856   -7.6779908    205.58266   0.01850096  0.018429688            8 
  927000   0.88102286   -7.6626974    205.53295  0.018476532  0.018412259            9 
  928000   0.86753558    -7.711758    205.01385  0.018410008  0.018394648           15 
  929000   0.88850732   -7.7142985    205.60816  0.018443502  0.018377198            8 
  930000   0.89878431   -7.6605924     206.4312  0.018497419  0.018359873            6 
  931000   0.91552554   -7.6650644    206.18502  0.018455515  0.018342684            8 
  932000   0.86849446   -7.6601898    206.59742  0.018472587    0.0183256            6 
  933000   0.87431292   -7.6400663     206.9507  0.018484343   0.01830853            8 
  934000   0.87414814   -7.6710267    206.14552  0.018392712  0.018291524           10 
  935000   0.87350988    -7.694207    206.44076  0.018399355   0.01827456            8 
  936000   0.87595292   -7.6472202     207.4183  0.018466729  0.018257593            9 
  937000   0.88382152    -7.654514    207.26008  0.018432949  0.018240704            6 
  938000   0.85993279   -7.6481293    207.40036   0.01842576  0.018223805            5 
  939000   0.85511355   -7.6593436    207.42215  0.018408071   0.01820697            6 
  940000    0.8785554   -7.6428529    206.65459  0.018320443   0.01819008           10 
  941000   0.87113719   -7.6894976    206.76891  0.018311097  0.018172982           10 
  942000   0.87259832   -7.6933352    207.40373  0.018347818  0.018155911           13 
  943000   0.87134546   -7.6811496    207.01949  0.018294405  0.018138902            4 
  944000   0.87352908   -7.6671826    207.47088  0.018314873  0.018122071            6 
  945000    0.8638432   -7.6833638     207.5058  0.018298572  0.018105258            7 
  946000   0.85171232   -7.6830333    206.98276  0.018233154  0.018088313           11 
  947000   0.89310179   -7.6652951    207.73872  0.018280422  0.018071433            7 
  948000   0.87175919   -7.6674142    207.56493  0.018245863  0.018054626            6 
  949000   0.88772182   -7.6725542    207.67508  0.018236308  0.018037829           23 
  950000   0.87416484    -7.688886    207.78771  0.018226992  0.018020997            5 
  951000   0.88310606   -7.6669489    207.11485  0.018148865  0.018004294            6 
  952000   0.87656238   -7.6747223    207.83003  0.018192405  0.017987608            6 
  953000   0.88610626   -7.6565293     208.0409  0.018191755  0.017970901           14 
  954000   0.87964116   -7.6654726    207.69034  0.018142063  0.017954243           10 
  955000   0.88401632   -7.6715186    207.75369  0.018128594  0.017937686            7 
  956000   0.85969272    -7.657687    208.01755  0.018132632  0.017921204           22 
  957000   0.87791965   -7.6537442    208.37232  0.018144577  0.017904713            9 
  958000   0.86135313   -7.6674919    208.15581  0.018106803  0.017888237            9 
  959000   0.87704374   -7.6821641     208.1151  0.018084385  0.017871615           27 
  960000    0.8742804   -7.6747359    208.31619  0.018083003  0.017855089           17 
  961000    0.8674113   -7.6786802    208.52712  0.018082476  0.017838568           13 
  962000   0.87464218   -7.6819677    208.55661  0.018066234  0.017821997           13 
  963000   0.87264339   -7.6953867    208.10835  0.018008684  0.017805548            7 
  964000   0.87015454   -7.6998771    208.38539  0.018013952  0.017789078           10 
  965000    0.8695729   -7.6899587    207.90091  0.017953447  0.017772522           15 
  966000   0.84609344   -7.6902911    208.39689  0.017977647   0.01775596            9 
  967000   0.87522476   -7.6998577    208.60478  0.017976972  0.017739447            7 
  968000   0.86465391   -7.6832619    208.52809  0.017951798  0.017722955           15 
  969000   0.86811126   -7.6874755    208.56825  0.017936726  0.017706304           12 
  970000   0.86281697   -7.7075822    208.25164  0.017891034   0.01768967           33 
  971000   0.88088357   -7.6988203    208.60084  0.017902578  0.017673218           11 
  972000   0.88655874   -7.7217738    208.41836  0.017868515  0.017656736            4 
  973000      0.85877   -7.7073729    208.43926   0.01785194  0.017640289            3 
  974000    0.8369249   -7.7432477    208.14019  0.017808024  0.017623752           10 
  975000   0.86706398   -7.7050964    208.86799  0.017851965  0.017607183           14 
  976000   0.84994959   -7.7351588    209.10128  0.017853593  0.017590656            9 
  977000   0.86268996   -7.7353479    208.79383  0.017809095  0.017574153            8 
  978000   0.86145273   -7.7290356    209.27771  0.017832115  0.017557726           15 
  979000   0.86964171   -7.7253425    208.98078  0.017788626  0.017541295            6 
  980000   0.85790728   -7.7507831    208.90238  0.017763808  0.017524901            4 
  981000   0.86788942   -7.6948079     209.4912  0.017795718  0.017508639            4 
  982000   0.87190101   -7.7090464    209.52455  0.017780426  0.017492443           18 
  983000     0.864003   -7.7408148    208.97778  0.017715987  0.017476227            7 
  984000    0.8593087   -7.7154341    209.54107  0.017745687  0.017459974           15 
  985000   0.86731981   -7.7273163    209.49901  0.017724112  0.017443735           11 
  986000   0.86851347   -7.7091753    209.58807  0.017713663  0.017427559           10 
  987000   0.86355306    -7.740349    209.64163  0.017700239  0.017411371           11 
  988000   0.86840992   -7.7444488    209.76349  0.017692602  0.017395217           22 
  989000    0.8513438   -7.7495921    209.40014  0.017644096   0.01737907            8 
  990000   0.85790598   -7.7369751    209.29266  0.017617228  0.017362797           11 
  991000   0.88272782   -7.7674329    209.15919  0.017588226  0.017346538            6 
  992000   0.87501924   -7.7359583    209.66201  0.017612736  0.017330386            6 
  993000   0.84954856   -7.7239705    210.03545  0.017626339  0.017314384            5 
  994000   0.87872058   -7.7416099    209.93259  0.017599982  0.017298396           19 
  995000   0.86187625   -7.7656582    209.71168  0.017563792  0.017282411           10 
  996000   0.86127008   -7.7430988    210.23783   0.01759018  0.017266437           12 
  997000   0.85317338   -7.7483571    210.22263  0.017571266  0.017250463           12 
  998000   0.83664438   -7.7142063    210.09485   0.01754299  0.017234494           12 
  999000   0.83668106   -7.7785044    210.32525  0.017544649  0.017218434           16 
 1000000    0.8660827   -7.7764235     210.1358  0.017511316   0.01720242           10 
 1001000   0.84371325   -7.7668024    209.81052  0.017466743  0.017186376           10 
 1002000   0.84105685   -7.7531971    210.38652  0.017497216  0.017170372            8 
 1003000   0.85763565   -7.7852888    210.82519  0.017516217   0.01715435           18 
 1004000   0.86219404    -7.762113    210.56724  0.017477361  0.017138274           38 
 1005000   0.86167741   -7.7286453    210.25734  0.017434273  0.017122341           25 
 1006000   0.83977755   -7.7436512    210.72352   0.01745556  0.017106505           18 
 1007000   0.85972277   -7.7674001    210.42303  0.017413359  0.017090583            7 
 1008000   0.84945303   -7.7669505    210.72473  0.017421026  0.017074804            7 
 1009000   0.85872868   -7.7757729    211.00543  0.017426944  0.017059046           13 
 1010000   0.86298368   -7.7623135     210.2811  0.017349926  0.017043221           14 
 1011000   0.85301322   -7.7996442    210.08946  0.017316969  0.017027406           21 
 1012000   0.83853209   -7.7757821    210.71546  0.017351405  0.017011605           17 
 1013000   0.84310596   -7.7440422    211.12447  0.017367923  0.016995878           33 
 1014000   0.83785092   -7.7742104    210.57301  0.017305474  0.016980123           19 
 1015000   0.84129847   -7.7500127    211.43379  0.017359096  0.016964567           30 
 1016000   0.86096395   -7.7861398    211.16551  0.017320006  0.016948919           19 
 1017000    0.8566431   -7.7769056    211.73279  0.017349458  0.016933295           38 
 1018000   0.85088087   -7.7511207    210.83375   0.01725882  0.016917704           13 
 1019000   0.86505629   -7.7847294     210.5061  0.017215088  0.016902037           34 
 1020000    0.8367873   -7.8219959     211.0481  0.017242492  0.016886388           30 
 1021000   0.83638647   -7.8026414    211.26343  0.017243179  0.016870696           18 
 1022000   0.85377604   -7.8036518    211.08159   0.01721148  0.016854999           29 
 1023000   0.84396027   -7.8280442     210.7544  0.017168003  0.016839345           21 
 1024000   0.84375836   -7.7990957    211.12493  0.017181391  0.016823752           33 
 1025000   0.84228243   -7.8102371    210.90727  0.017146933  0.016808156           82 
 1026000   0.86039886   -7.7827524    211.38864  0.017169318  0.016792573           37 
 1027000   0.86095048   -7.7840342    211.42815  0.017155806  0.016776955           44 
 1028000   0.83654778    -7.819399    210.83981  0.017091425  0.016761287           48 
 1029000   0.83484554   -7.8220842    211.40009  0.017120188   0.01674563           36 
 1030000   0.84856055   -7.7962501    211.74585  0.017131541  0.016730014           47 
 1031000   0.84620637   -7.7929192     211.1533   0.01706703  0.016714542           20 
 1032000   0.83230975   -7.7676663    211.11351   0.01704728  0.016699105           49 
 1033000   0.83253707   -7.8293896    211.47826  0.017060202  0.016683574           26 
 1034000   0.84200692   -7.7693119    212.87781  0.017156497   0.01666812           46 
 1035000   0.84070608   -7.7836444    211.94853  0.017065099  0.016652802           10 
 1036000   0.84134593   -7.7814943    211.97583  0.017050823  0.016637512            3 
 1037000   0.82590809   -7.7919772    212.03145   0.01703885  0.016622204            7 
 1038000   0.83747595   -7.7596987      212.072  0.017025691  0.016606914           14 
 1039000   0.86107525    -7.777448    212.49851  0.017043512  0.016591841            8 
 1040000   0.83626148   -7.7996552    212.53471  0.017030025  0.016576731           12 
 1041000   0.85399051   -7.7413796    212.54641  0.017014602  0.016561601            8 
 1042000   0.82768245   -7.8039559    212.02223  0.016956352  0.016546414            8 
 1043000   0.84057002   -7.7792245    212.53715  0.016981236  0.016531164           17 
 1044000   0.84182685   -7.7830691    212.48047  0.016960446  0.016515985            6 
 1045000   0.83536182   -7.7656379    212.43213  0.016940362  0.016500821           17 
 1046000   0.82897791   -7.8131427     212.4482  0.016925446  0.016485631            9 
 1047000    0.8427788   -7.7947082    212.84286  0.016940692  0.016470501           16 
 1048000   0.84992301   -7.8295524    212.17384   0.01687133  0.016455313           22 
 1049000   0.84018349   -7.8071323    211.98541  0.016840277  0.016440121           17 
 1050000   0.83490429   -7.8082614    212.73156  0.016883457  0.016424888           11 
 1051000   0.83484947    -7.834423    212.21889  0.016826744   0.01640965           19 
 1052000   0.84051251   -7.8111138    212.22424  0.016811172  0.016394391            7 
 1053000   0.83910076   -7.8004252    212.69509   0.01683247  0.016379141           11 
 1054000   0.84464738   -7.7811896    212.61916  0.016810496   0.01636397            9 
 1055000   0.84036554   -7.8133081    212.02099  0.016747313  0.016348908            5 
 1056000   0.82938724   -7.7989158    212.14026  0.016740866  0.016333673            8 
 1057000    0.8162382   -7.8223053    212.45665  0.016749972    0.0163185           11 
 1058000   0.84462456   -7.7956868     212.2202  0.016715516  0.016303261            7 
 1059000   0.83603443   -7.8319083    211.89016  0.016673761  0.016287929            9 
 1060000   0.84139205   -7.8345915    212.04463  0.016670176   0.01627265            6 
 1061000    0.8164117    -7.859905    211.68012  0.016625834  0.016257325           26 
 1062000   0.84022214   -7.8560526    212.07762   0.01664137  0.016241966           16 
 1063000   0.83906233   -7.8573295    212.38737  0.016649998  0.016226655           18 
 1064000     0.834468    -7.837639    211.88641  0.016595113  0.016211293           25 
 1065000   0.85403511    -7.843406    212.40421  0.016620048  0.016196009           26 
 1066000   0.83974344   -7.8347549    212.09015  0.016579906  0.016180731           43 
 1067000   0.83201767   -7.8575522    212.52528  0.016598351  0.016165486           19 
 1068000   0.83687819   -7.8207291    212.86352  0.016609201  0.016150352           25 
 1069000   0.83092221   -7.8487404    212.61588  0.016574359  0.016135189            9 
 1070000   0.83960918   -7.8291507    212.76127  0.016570192  0.016120064           24 
 1071000   0.83674976   -7.8240041    212.58629  0.016541106  0.016104895           16 
 1072000   0.84442486   -7.8286272    212.48377  0.016517706  0.016089782           19 
 1073000   0.82810012   -7.8337094    212.71886   0.01652057  0.016074755           17 
 1074000   0.83748505   -7.8329153     212.9458  0.016522796   0.01605971           26 
 1075000   0.81957491   -7.8643428    212.86595  0.016501237   0.01604468           14 
 1076000   0.82042975   -7.8239193    213.49385   0.01653453  0.016029654           57 
 1077000   0.81712626    -7.879746    212.93817  0.016476181  0.016014609           32 
 1078000   0.82868411    -7.840664     212.8348  0.016452907  0.015999564           16 
 1079000   0.83540547   -7.8326148    213.24258  0.016469152  0.015984589           22 
 1080000   0.83947459   -7.8452901    213.41403  0.016467132  0.015969666           41 
 1081000   0.81518144    -7.840763     213.2286  0.016437604  0.015954764           35 
 1082000   0.81643892   -7.8431301     213.5941  0.016450563  0.015939878           15 
 1083000     0.824966   -7.8680681    213.10233  0.016397532  0.015924998           59 
 1084000   0.81500061   -7.8286066    213.23979  0.016392973  0.015910049           44 
 1085000   0.79563632     -7.83149    213.40553  0.016390594  0.015895168           70 
 1086000   0.82911618   -7.8515379    212.94446  0.016340121  0.015880282           50 
 1087000   0.79873684   -7.8767517    212.58373  0.016297434  0.015865324           63 
 1088000   0.81467005   -7.8522622    212.79422  0.016298577  0.015850433           34 
 1089000   0.81979295     -7.87742    212.88222  0.016290344  0.015835503           46 
 1090000   0.82441988   -7.8704052    212.37662  0.016236745  0.015820642           50 
 1091000   0.80019024   -7.8981991     213.4533  0.016304102  0.015805763           49 
 1092000   0.80140066   -7.8315603    213.62743   0.01630246  0.015790954           71 
 1093000    0.8134494   -7.8632302    213.25637  0.016259254  0.015776148           71 
 1094000   0.81331229   -7.8303214    213.35362  0.016251799  0.015761327           71 
 1095000   0.81197344   -7.8781071    212.82324  0.016196594  0.015746477           77 
 1096000   0.79536577   -7.8835391    213.00992   0.01619601   0.01573165           68 
 1097000   0.83604543   -7.8694703    213.42429  0.016212723  0.015716883          102 
 1098000   0.80825569    -7.861453    212.77014   0.01614831  0.015702106           96 
 1099000    0.8048207   -7.8804634    213.29135  0.016173138  0.015687295          106 
 1100000   0.79843589   -7.8778805    213.76222  0.016194108  0.015672536           94 
 1101000   0.82000298   -7.8783774    213.06113  0.016126334  0.015657687          132 
 1102000   0.82302109   -7.8886847    212.94431  0.016102867  0.015642769           92 
 1103000   0.81992001   -7.8754435    213.73312  0.016147863  0.015627924          123 
 1104000   0.79410012   -7.9135426    213.57365  0.016121199  0.015613117          119 
 1105000   0.83008416   -7.8999316    212.92277  0.016057524  0.015598304          100 
 1106000   0.81429981   -7.9228711    212.69345  0.016025727  0.015583487          116 
 1107000   0.79321196   -7.8897873     213.5479  0.016075572  0.015568558          118 
 1108000    0.8104565   -7.8967778    213.16021  0.016031905   0.01555368          143 
 1109000   0.80665617    -7.924094    213.23865  0.016023343  0.015538841          136 
 1110000   0.81745492   -7.9177455    213.09243   0.01599793  0.015523933          144 
 1111000    0.7925185   -7.9147752    212.71542  0.015955252  0.015509103          125 
 1112000   0.80358992   -7.9175481    213.15943  0.015974178  0.015494244          157 
 1113000   0.80033173   -7.9077756    213.08756  0.015954445  0.015479351          160 
 1114000   0.79076925   -7.8845605    213.16753  0.015946105  0.015464468          177 
 1115000   0.81491239    -7.925866    212.63517  0.015892016  0.015449588          134 
 1116000   0.82686917   -7.9301661    213.00108  0.015905098   0.01543474          198 
 1117000   0.80401442   -7.9035878    212.71871  0.015869793  0.015419908          181 
 1118000   0.79287269   -7.8958715    213.57208  0.015919207  0.015405089          179 
 1119000   0.79458802   -7.8965625    212.88367  0.015853714  0.015390286          192 
 1120000   0.81875069   -7.9377387    212.99481  0.015847828   0.01537544          229 
 1121000   0.80417697    -7.930427    213.29478  0.015855991  0.015360564          198 
 1122000   0.78379792   -7.9607304    212.95316  0.015816485  0.015345717          205 
 1123000   0.78668991   -7.9186686    213.21493  0.015821826  0.015330927          220 
 1124000   0.80443473   -7.9817132     213.1193   0.01580066   0.01531616          202 
 1125000   0.80455456   -7.9691367    212.95517  0.015774457  0.015301323          185 
 1126000    0.8047977     -7.95312    213.03168   0.01576611  0.015286532          190 
 1127000   0.81523345   -7.9416566    213.59945  0.015794103  0.015271778          195 
 1128000   0.80751812   -7.9261452    213.50807   0.01577335  0.015256996          243 
 1129000   0.80178195   -7.9309616    212.73512  0.015702326  0.015242291          228 
 1130000   0.80137591   -7.9352061    213.46749   0.01574244  0.015227517          269 
 1131000   0.80277257   -7.9295397    213.32191  0.015717795  0.015212716          214 
 1132000    0.8143151     -7.92741    213.44895  0.015713262  0.015198031          227 
 1133000   0.79021366   -7.9433317     213.2369  0.015683797  0.015183325          188 
 1134000   0.79689881   -7.9653979    212.98602   0.01565153   0.01516862          227 
 1135000   0.79156936   -7.9578573    213.06272  0.015643371   0.01515392          283 
 1136000   0.80216396   -7.9348084    213.27028  0.015644827  0.015139227          269 
 1137000   0.80122169   -7.9640929    212.77331  0.015594643  0.015124546          256 
 1138000    0.7810348   -7.9729033    213.78211  0.015654812  0.015109858          251 
 1139000   0.79374767    -7.965678    213.17455  0.015596616  0.015095148          209 
 1140000   0.79631391   -7.9727946    213.10663   0.01557797  0.015080484          216 
 1141000    0.7999272   -7.9626111    213.71409  0.015608683  0.015065853          236 
 1142000   0.80840834   -7.9447888    213.16649  0.015555056  0.015051186          187 
 1143000   0.80744886   -7.9850509    212.82597  0.015516621    0.0150365          246 
 1144000   0.78789062   -7.9763511    213.38144   0.01554352  0.015021802          245 
 1145000   0.80718134   -7.9925511    213.29345  0.015523541  0.015007129          217 
 1146000   0.79793831   -7.9766066    213.24976  0.015506818  0.014992475          227 
 1147000   0.80516378   -8.0159568    213.20121  0.015489771  0.014977796          242 
 1148000   0.79218918   -8.0103882    212.40935  0.015418797  0.014963138          249 
 1149000   0.78228713   -7.9877422    213.23818  0.015465491  0.014948527          231 
 1150000   0.80015621   -8.0037849    212.74279  0.015416144  0.014933862          230 
 1151000    0.7908157   -7.9822361    212.73241  0.015401999  0.014919212          243 
 1152000   0.79871362    -7.969582    213.28796  0.015428817  0.014904542          232 
 1153000   0.80169197   -7.9968483    213.09999  0.015401849  0.014889883          259 
 1154000   0.78508194   -7.9862724    212.51617  0.015346344  0.014875254          197 
 1155000   0.78696649   -8.0035486    212.81793  0.015354829   0.01486065          247 
 1156000    0.7972949   -7.9773284    213.08807   0.01536102  0.014846083          212 
 1157000   0.79702371   -7.9812752    212.89649  0.015333945  0.014831468          290 
 1158000   0.78800752   -7.9757502    213.16176  0.015339793  0.014816904          230 
 1159000   0.77032772   -7.9876584    213.01889  0.015316285  0.014802283          299 
 1160000    0.7754149    -7.973558    212.90796  0.015295112  0.014787674          297 
 1161000   0.79860564   -7.9920629    212.98583  0.015287527  0.014773115          281 
 1162000   0.80336081   -7.9928158    213.40801  0.015304648  0.014758535          291 
 1163000   0.79334136   -7.9985779    212.60117  0.015233675  0.014743946          285 
 1164000   0.79188295    -7.999853    212.81187  0.015235672  0.014729409          304 
 1165000   0.79338455   -7.9986385    212.52642  0.015202176  0.014714867          315 
 1166000   0.79655779   -8.0072783    212.81242  0.015209578  0.014700351          345 
 1167000   0.77905008   -8.0016881    213.32902  0.015233435  0.014685799          365 
 1168000   0.78998345    -8.035996    212.79401  0.015182221  0.014671264          373 
 1169000   0.77953509   -7.9890956    212.95648  0.015180815  0.014656728          370 
 1170000   0.78876399   -8.0370499    212.82122  0.015158207  0.014642253          401 
 1171000   0.79969574   -8.0185114     213.2903  0.015178644  0.014627742          391 
 1172000   0.79319841   -8.0334541    212.36376  0.015099812  0.014613256          452 
 1173000   0.77699531   -8.0389186    212.74827  0.015114256  0.014598755          443 
 1174000   0.77749066   -8.0394291    212.57212  0.015088879  0.014584236          420 
 1175000   0.77270157   -8.0101932     212.9899  0.015105666  0.014569741          417 
 1176000   0.77796775    -8.019344    212.66488   0.01506979  0.014555219          402 
 1177000   0.78977716   -8.0357881    212.79516   0.01506621  0.014540701          445 
 1178000   0.79939739    -8.025543    212.61231  0.015040486  0.014526166          429 
 1179000   0.76438584   -8.0314642    212.87478   0.01504628  0.014511652          458 
 1180000   0.78207199   -8.0350434     212.2825  0.014991702  0.014497109          508 
 1181000   0.79729388   -8.0488659    212.86422  0.015020055  0.014482587          531 
 1182000   0.78783871   -8.0355685    213.16358  0.015028453  0.014468089          482 
 1183000   0.79827433   -8.0480567    212.80055  0.014990177  0.014453601          557 
 1184000   0.77762633   -8.0345602    212.14155  0.014931134  0.014439119          600 
 1185000   0.77573828   -8.0554442     212.7229  0.014959417  0.014424683          534 
 1186000   0.77069596   -8.0762045    212.27851  0.014915578  0.014410187          537 
 1187000   0.79501595   -8.0679672    212.58325  0.014924407  0.014395708          571 
 1188000   0.76953134    -8.090575    211.85497  0.014860759  0.014381225          628 
 1189000   0.78609269   -8.0877067    212.89945  0.014921464  0.014366711          583 
 1190000   0.77000899   -8.0815227    212.20499  0.014860294   0.01435216          700 
 1191000   0.77600423   -8.0780417     212.3763  0.014859802  0.014337633          673 
 1192000    0.7734463   -8.0955149    212.38539  0.014847972  0.014323153          684 
 1193000   0.77857226    -8.087962    212.05446   0.01481241  0.014308651          689 
 1194000   0.79030144   -8.1011159    211.95725   0.01479322  0.014294132          699 
 1195000   0.79127555   -8.1030803    212.39818  0.014811589  0.014279578          767 
 1196000   0.77181691   -8.1255549    212.13356  0.014780766   0.01426501          761 
 1197000   0.76140256   -8.1107668    212.52536  0.014795694  0.014250527          777 
 1198000   0.76844135   -8.0808924    212.42999   0.01477671    0.0142361          761 
 1199000   0.77807505   -8.0901563    212.34996  0.014758824  0.014221636          734 
 1200000   0.78072114   -8.1279623    211.91554  0.014716357  0.014207168          776 
 1201000   0.76846966   -8.1199968    212.16639  0.014721509  0.014192725          824 
 1202000   0.76283998   -8.1269327    212.32959  0.014720576   0.01417829          851 
 1203000   0.78023853   -8.1206387    212.04155  0.014688387  0.014163874          862 
 1204000   0.77385359    -8.113865    212.08113  0.014678927  0.014149486          845 
 1205000   0.78748233    -8.145186    211.67622  0.014638743  0.014135039          814 
 1206000    0.7685653   -8.1507552    211.71659  0.014629394  0.014120595          923 
 1207000   0.76685656   -8.1196258    212.12656  0.014645578    0.0141062          968 
 1208000   0.75764033   -8.1337533    211.60097  0.014597197  0.014091785          972 
 1209000   0.76378345   -8.1630762    211.94062  0.014608534  0.014077342         1061 
 1210000   0.76425665   -8.1359508    211.72068  0.014581314  0.014062915         1101 
 1211000   0.77521599   -8.1683924     211.3669  0.014544929  0.014048441         1132 
 1212000   0.75246216   -8.1535229    211.88808  0.014568763  0.014033918         1133 
 1213000   0.76298383   -8.1312445    211.21228  0.014510324  0.014019446         1118 
 1214000   0.76725051   -8.1530609    211.72679  0.014533689   0.01400498         1137 
 1215000   0.77415022   -8.1668902    211.47046  0.014504147  0.013990483         1095 
 1216000   0.76236933   -8.1939905    211.60218  0.014501246  0.013976006         1165 
 1217000   0.77904771   -8.1820714    211.22516  0.014463514  0.013961508         1249 
 1218000   0.75744611   -8.1722068    211.33697  0.014459289  0.013947009         1309 
 1219000   0.74778135   -8.1990568    211.41956  0.014453074  0.013932492         1393 
 1220000   0.75968797   -8.2162519     210.9284  0.014407678  0.013917952         1400 
 1221000   0.75420798    -8.203261    211.19488  0.014414065  0.013903374         1337 
 1222000   0.77738651   -8.2124082     211.2578   0.01440656   0.01388883         1445 
 1223000   0.75136721   -8.2297912    211.09716  0.014383835  0.013874294         1512 
 1224000   0.76652101   -8.2189223    210.82151  0.014353316  0.013859779         1438 
 1225000   0.75319751   -8.2274619    211.04729  0.014356959  0.013845222         1534 
 1226000   0.75534599   -8.2067479    211.09647  0.014348591  0.013830709         1531 
 1227000   0.76417988   -8.2261769    210.98143  0.014329084  0.013816212         1535 
 1228000   0.74926498   -8.2358369     210.9114  0.014312663  0.013801729         1562 
 1229000    0.7520973   -8.2106427     211.0154  0.014308069  0.013787232         1506 
 1230000   0.74913068   -8.2288094    210.74687  0.014278243    0.0137728         1544 
 1231000   0.75242188   -8.2320105    210.98678  0.014282885  0.013758353         1657 
 1232000   0.75780254   -8.2522383    210.32134  0.014226281  0.013743884         1643 
 1233000   0.75059242   -8.2486541    211.06353  0.014264905   0.01372936         1739 
 1234000   0.76851605    -8.277655     210.7375  0.014231327  0.013714827         1862 
 1235000   0.75198825   -8.2703364    210.66962  0.014215224  0.013700244         1796 
 1236000   0.77883733   -8.2741319    210.22796  0.014173945  0.013685681         1891 
 1237000   0.76356753   -8.2866107    210.52429   0.01418245  0.013671122         1928 
 1238000   0.75881159   -8.2858351     210.2816  0.014154658  0.013656551         1970 
 1239000   0.75659023   -8.3266913    209.99059  0.014123661  0.013641978         2016 
 1240000   0.75705023    -8.276581    210.27731   0.01413154  0.013627411         1932 
 1241000   0.76361724   -8.3070961    210.25101  0.014118387  0.013612884         2053 
 1242000   0.75135779   -8.2850819    210.19313  0.014103135  0.013598394         2129 
 1243000   0.74288513   -8.2966004    210.09318  0.014085088  0.013583903         2005 
 1244000   0.75098798   -8.3127253    209.78326  0.014053005  0.013569372         2068 
 1245000   0.75288791   -8.2975168    210.52571  0.014091413  0.013554881         2163 
 1246000   0.77266846   -8.3242017    209.48113  0.014010242  0.013540341         2273 
 1247000   0.76225534   -8.3510868    209.53993  0.014002936  0.013525786         2250 
 1248000   0.75787556   -8.3512003    209.45408  0.013985983  0.013511262         2316 
 1249000   0.75504542   -8.3347438    209.21986  0.013959158  0.013496741         2353 
 1250000   0.75459933   -8.3501772    209.42217  0.013961478  0.013482187         2390 
 1251000   0.76413612   -8.3610455    209.46053  0.013952873  0.013467595         2398 
 1252000   0.74597653   -8.3735066    209.34426  0.013933989  0.013453042         2513 
 1253000   0.74639626   -8.3582753    209.55723  0.013937033  0.013438485         2471 
 1254000   0.74184791   -8.3503354    209.48503  0.013921121  0.013423936         2384 
 1255000   0.76028538   -8.3936873    209.08563  0.013883508  0.013409387         2436 
 1256000    0.7444789   -8.3725362    209.23135  0.013882123  0.013394831         2502 
 1257000   0.73966528   -8.4247708    208.96118  0.013853168  0.013380264         2553 
 1258000   0.75227628   -8.3936306    209.30626  0.013865015  0.013365738         2577 
 1259000   0.74110996    -8.420851    208.62299  0.013808776  0.013351219         2648 
 1260000   0.73414726   -8.4310268    209.09425  0.013828985  0.013336702         2621 
 1261000   0.75899835   -8.3977519    209.32417  0.013833212  0.013322154         2701 
 1262000   0.74011595    -8.379026    209.35225  0.013824105  0.013307621         2626 
 1263000   0.75123854   -8.4359985    208.65943  0.013767447  0.013293112         2684 
 1264000   0.74937018   -8.4379854    209.15114  0.013788973  0.013278594         2677 
 1265000   0.73754445   -8.4247754    209.11677  0.013775809    0.0132641         2594 
 1266000   0.75017808   -8.4197854    209.05748  0.013761024  0.013249592         2718 
 1267000   0.74958807   -8.3996383     209.2904  0.013765483  0.013235139         2661 
 1268000   0.75365121   -8.3950474    208.99811  0.013735418  0.013220701         2728 
 1269000   0.73180606   -8.3847262    209.45665  0.013754705   0.01320627         2717 
 1270000   0.74499918   -8.4277825    208.89777  0.013707203  0.013191865         2726 
 1271000   0.74508251    -8.451343    208.85228  0.013693435  0.013177485         2727 
 1272000   0.74022729   -8.4568032    208.49967   0.01365957  0.013163107         2770 
 1273000   0.74726499   -8.4251668    208.43689   0.01364473  0.013148761         2703 
 1274000   0.73855795   -8.4169466    208.98037  0.013669569  0.013134424         2687 
 1275000   0.74224159   -8.4241156    208.73752  0.013642975  0.013120109         2771 
 1276000   0.73043268   -8.4480735    208.81168  0.013637127  0.013105796         2810 
 1277000   0.75875002   -8.4552529    209.09702  0.013645068  0.013091497         2803 
 1278000   0.73128235   -8.4407268    208.89772  0.013621396  0.013077175         2874 
 1279000   0.74292233   -8.4520833    208.70501  0.013598189  0.013062901         2852 
 1280000    0.7577273   -8.4481448    209.31234  0.013627106  0.013048619         2843 
 1281000   0.74090748   -8.4413301    208.98563  0.013595214  0.013034356         2829 
 1282000   0.73009313    -8.469737    208.84442   0.01357543  0.013020103         2855 
 1283000   0.75680328   -8.4579503    209.09497  0.013581123  0.013005891         2818 
 1284000   0.74465497   -8.4566827    208.83262  0.013553519  0.012991666         2864 
 1285000   0.75517203   -8.4784888    208.52345  0.013522921  0.012977444         2922 
 1286000   0.73364742   -8.4682695    208.59015  0.013516728  0.012963242         2919 
 1287000   0.74247616   -8.4821118    208.45861  0.013497709  0.012949068         2970 
 1288000   0.74656459   -8.4929863    208.82463  0.013510911  0.012934875         2934 
 1289000   0.75508163   -8.4995636     208.3598  0.013470378  0.012920705         2989 
 1290000   0.74681997   -8.4746912    208.27352  0.013454362  0.012906548         3092 
 1291000   0.73627401   -8.4835824    208.82607  0.013479607  0.012892402         3090 
 1292000   0.73972751   -8.4854948    208.95869  0.013477728  0.012878242         3049 
 1293000    0.7463896   -8.5042783    208.28979  0.013424193  0.012864108         3019 
 1294000   0.73004544   -8.5050333     208.3729  0.013419172  0.012849989         3005 
 1295000   0.73193954   -8.4924831    208.75999  0.013433719  0.012835888         3086 
 1296000   0.73877647   -8.5068054    208.71957  0.013420754  0.012821778         3181 
 1297000   0.73975632   -8.4962195    208.35873  0.013387222  0.012807686         3178 
 1298000   0.73207225   -8.5218049    208.31135  0.013373867  0.012793597         3257 
 1299000   0.74936619   -8.5134216    208.31787  0.013363989   0.01277954         3204 
 1300000   0.73652742   -8.5231645    208.61305  0.013372631  0.012765469         3245 
 1301000   0.73589845    -8.528913    208.34754  0.013345346  0.012751381         3260 
 1302000    0.7473535   -8.5202387    208.08774  0.013318467  0.012737322         3234 
 1303000   0.74200294   -8.5381249    207.86236  0.013293832  0.012723275         3275 
 1304000   0.73383652   -8.5465253    208.00307   0.01329263  0.012709255         3277 
 1305000   0.72144836   -8.5232106    207.75208  0.013266416  0.012695216         3274 
 1306000   0.73785609   -8.5299884    208.16498  0.013282605  0.012681222         3288 
 1307000   0.73935309   -8.5222702    208.65937  0.013303964  0.012667226         3247 
 1308000   0.72636301   -8.5352926    208.12094  0.013259489  0.012653271         3204 
 1309000   0.74204742   -8.5356142    207.54645  0.013212786  0.012639323         3299 
 1310000   0.72140419   -8.5129867    207.85447  0.013222295  0.012625367         3293 
 1311000   0.73136234   -8.5171277    207.84649  0.013211702  0.012611429         3393 
 1312000    0.7354664   -8.5508486    207.92168  0.013206408  0.012597489         3197 
 1313000   0.74464948   -8.5571318     207.7622  0.013186227  0.012583562         3356 
 1314000   0.73333235   -8.5805223    207.88561  0.013184019   0.01256965         3278 
 1315000   0.73046365   -8.5714179    207.57133  0.013154076   0.01255575         3291 
 1316000   0.71959841   -8.5723836     207.4517  0.013136506  0.012541896         3296 
 1317000   0.74095932    -8.555388    207.75134  0.013145491  0.012528041         3334 
 1318000   0.71146592   -8.5438732    208.01055  0.013151906   0.01251419         3281 
 1319000   0.72468649      -8.5474    207.74344   0.01312506  0.012500349         3369 
 1320000   0.73393162   -8.5654996    207.67703  0.013110923  0.012486502         3363 
 1321000   0.73601484   -8.5605719     207.3271  0.013078924  0.012472658         3373 
 1322000   0.72926147    -8.573126    207.49323  0.013079503  0.012458826         3373 
 1323000   0.72992349   -8.5735983    207.16981  0.013049245  0.012445019         3342 
 1324000   0.73127623   -8.5517617    207.78736  0.013078258  0.012431235         3344 
 1325000   0.71893864    -8.568224    207.87981  0.013074202  0.012417454         3479 
 1326000   0.72250663   -8.5679987    207.77766  0.013057922  0.012403675         3451 
 1327000    0.7265767   -8.5774703    207.59885  0.013036853  0.012389905         3406 
 1328000    0.7102792   -8.5708888     207.0796  0.012994453  0.012376174         3391 
 1329000   0.72087553   -8.5624681    207.48949  0.013010377  0.012362452         3369 
 1330000   0.72572746   -8.6040283    207.52101  0.013002569  0.012348745         3373 
 1331000   0.70358131   -8.5964145    207.24048  0.012975237   0.01233505         3445 
 1332000   0.71236422   -8.5589568    207.62189  0.012989357  0.012321384         3476 
 1333000   0.71993607    -8.594235    207.48044   0.01297077  0.012307731         3470 
 1334000   0.72266039   -8.5570529    207.40767  0.012956501  0.012294109         3451 
 1335000   0.72690607   -8.5765215    207.36125  0.012943898  0.012280498         3466 
 1336000   0.70212314   -8.5946018    207.15072  0.012921078   0.01226689         3448 
 1337000   0.71569749   -8.6000548    207.38923  0.012926279  0.012253293         3386 
 1338000   0.72040077   -8.5791914    207.63707  0.012932055  0.012239728         3504 
 1339000   0.70142686   -8.5801082    207.60378  0.012920325  0.012226171         3539 
 1340000   0.72825661   -8.5893776    207.82936  0.012924712   0.01221263         3473 
 1341000   0.72163209   -8.5794332    207.60307  0.012901011  0.012199123         3460 
 1342000   0.71365295   -8.5802686    207.46441  0.012882787   0.01218563         3432 
 1343000   0.71897651   -8.5807652    207.12572  0.012852179  0.012172137         3426 
 1344000   0.72854562   -8.5853002    207.28017  0.012852193   0.01215867         3450 
 1345000   0.72409751   -8.6246819     207.2865   0.01284303  0.012145229         3506 
 1346000   0.70685368    -8.601884    207.30531  0.012834653  0.012131794         3486 
 1347000   0.72407763   -8.5880711    207.08293  0.012811366  0.012118366         3492 
 1348000   0.71828026   -8.5883419    207.25766  0.012812664  0.012104974         3459 
 1349000   0.71686628   -8.5823188     207.8359  0.012838887  0.012091591         3405 
 1350000   0.71077316   -8.5858021    207.36362  0.012800223  0.012078223         3396 
 1351000   0.73279413   -8.6010041    207.24976  0.012783725  0.012064876         3512 
 1352000   0.71251504    -8.578075    207.65278  0.012799111   0.01205154         3429 
 1353000   0.70138817   -8.6098657    207.07129  0.012753837  0.012038243         3478 
 1354000   0.70202006   -8.5952022    206.61701  0.012716458  0.012024931         3475 
 1355000    0.7015981   -8.6123603     207.4881  0.012760646  0.012011644         3498 
 1356000   0.71226658   -8.6064727    207.14752  0.012730305  0.011998355         3493 
 1357000   0.71030677   -8.5884655    207.26042  0.012727857  0.011985087         3423 
 1358000   0.71400964   -8.6084446    207.13376  0.012710712  0.011971859         3462 
 1359000   0.70267302   -8.6219387    206.99851  0.012693065  0.011958645         3519 
 1360000   0.69924532    -8.611441    207.07805  0.012688606  0.011945433         3487 
 1361000   0.71479522   -8.5972939    207.09707  0.012680448  0.011932245         3497 
 1362000   0.72198958   -8.6046826    207.21272  0.012678213  0.011919073         3560 
 1363000   0.71507073   -8.6292162    206.88677  0.012648983  0.011905902         3446 
 1364000   0.70446068   -8.6618189    206.99773  0.012646489  0.011892736         3481 
 1365000   0.72620006     -8.58835    207.18452  0.012648628  0.011879606         3515 
 1366000   0.71355881    -8.609283    207.27252  0.012644737  0.011866485         3477 
 1367000   0.70473332   -8.5973535    206.90156  0.012612872   0.01185339         3527 
 1368000   0.70929056   -8.6161052    207.43479  0.012636135  0.011840309         3424 
 1369000   0.70876354   -8.6028637    207.31202  0.012619431  0.011827261         3454 
 1370000   0.71529892    -8.605536    207.27297  0.012607845  0.011814213         3462 
 1371000   0.70586963   -8.6072457    206.79953  0.012569872  0.011801187         3507 
 1372000   0.70946603    -8.605605    206.62998  0.012550412  0.011788166         3498 
 1373000   0.71995554   -8.5955648    207.05553    0.0125671  0.011775182         3513 
 1374000   0.70060252   -8.6224286     206.9841  0.012553621  0.011762204         3480 
 1375000    0.7028386   -8.6347359     207.0707  0.012549739  0.011749243         3489 
 1376000   0.70118063   -8.6157044     206.9253  0.012531813  0.011736293         3406 
 1377000   0.70692315   -8.6122849    206.76119  0.012512781  0.011723363         3538 
 1378000   0.70636258   -8.6032581    207.02932  0.012519915  0.011710441         3507 
 1379000   0.72376169   -8.6290054    206.65526  0.012488232  0.011697539         3467 
 1380000    0.6914497   -8.6180631    206.94204    0.0124965   0.01168469         3493 
 1381000   0.71001879   -8.6315888     207.2769  0.012507658  0.011671846         3425 
 1382000   0.70469912   -8.6104654    207.04852  0.012484836  0.011659021         3480 
 1383000   0.69145128   -8.6268357    206.81989  0.012462032    0.0116462         3517 
 1384000   0.70021523   -8.6215877    206.98799   0.01246315  0.011633407         3480 
 1385000   0.69309883   -8.6120679    206.91767   0.01244992  0.011620627         3482 
 1386000   0.70057272   -8.6505784    206.01662  0.012386762  0.011607846         3525 
 1387000   0.71313422   -8.6349885    207.02184  0.012438226  0.011595066         3488 
 1388000   0.71099621   -8.6380015    206.71792  0.012411018  0.011582329         3505 
 1389000   0.69495612   -8.6177187    207.37402  0.012441446  0.011569592         3510 
 1390000   0.70028935   -8.6377771    206.84853  0.012400991  0.011556854         3533 
 1391000    0.7124326   -8.6508444    206.83468  0.012391246  0.011544155         3519 
 1392000   0.69934673   -8.6058045    206.78838  0.012379572  0.011531471         3538 
 1393000   0.69462911   -8.6369617    206.85231   0.01237451  0.011518806         3475 
 1394000   0.70342334   -8.6303514    206.77629  0.012361089  0.011506136         3568 
 1395000   0.70290853   -8.6358899    206.95319  0.012362795  0.011493495         3511 
 1396000   0.69753082   -8.6314528    206.64049  0.012335273  0.011480867         3502 
 1397000   0.67943116   -8.6360179    206.89171  0.012341429  0.011468259         3459 
 1398000   0.70407008   -8.6609412    207.19663  0.012350777  0.011455665         3462 
 1399000   0.70208309   -8.6435196    206.71609  0.012313324  0.011443086         3492 
 1400000    0.7198172    -8.657869    206.07937  0.012266629  0.011430527         3561 
 1401000   0.70520847   -8.6554208     206.6019  0.012288955  0.011417986         3521 
 1402000   0.70019253   -8.6232739    207.05201  0.012306943  0.011405463         3446 
 1403000   0.69367464   -8.6585883     206.6775  0.012275926  0.011392974         3494 
 1404000   0.68038847    -8.627411    206.74182  0.012271001  0.011380486         3526 
 1405000    0.6951175   -8.6540894     206.2558   0.01223344  0.011367998         3534 
 1406000   0.68582088   -8.6416907    206.52152  0.012240489  0.011355552         3495 
 1407000   0.67772905   -8.6297529    206.74564  0.012245063  0.011343122         3519 
 1408000   0.69986819   -8.6726705     206.4215  0.012217181  0.011330704         3509 
 1409000   0.68798671      -8.6091    206.84208  0.012233385  0.011318289         3461 
 1410000   0.69768859   -8.6509396    206.80376  0.012222445  0.011305896         3552 
 1411000   0.69999261    -8.647877    206.37614  0.012188527   0.01129352         3518 
 1412000   0.67795439   -8.6437202    206.55659  0.012190545  0.011281161         3548 
 1413000   0.67979504   -8.6232364    206.68177    0.0121893  0.011268827         3441 
 1414000   0.69203431   -8.6597964    206.47564  0.012168531  0.011256508         3554 
 1415000   0.68502271   -8.6365524    206.75068  0.012176129  0.011244205         3560 
 1416000   0.70160872    -8.673869    206.71493  0.012165426  0.011231916         3560 
 1417000   0.68612776   -8.6471709     206.6131  0.012150853  0.011219643         3521 
 1418000   0.68223918    -8.648517    206.49116  0.012135117  0.011207404         3500 
 1419000   0.68137438   -8.6393728    206.57428  0.012131447  0.011195166         3451 
 1420000   0.69587881   -8.6608708    206.37592  0.012111263  0.011182935         3534 
 1421000   0.68393228   -8.6825708    206.76234  0.012125401  0.011170718         3551 
 1422000   0.67575746   -8.6692894    206.62809  0.012109007   0.01115851         3543 
 1423000   0.68007892   -8.6466174    206.37115  0.012085451  0.011146305         3554 
 1424000    0.6854989   -8.6512346    206.40527   0.01207896  0.011134124         3518 
 1425000   0.67150578    -8.667457    206.33441   0.01206634   0.01112196         3596 
 1426000   0.67230418   -8.6916797    206.51171  0.012068239  0.011109816         3577 
 1427000   0.67109656    -8.636226    206.89873  0.012082383  0.011097672         3586 
 1428000   0.68389193   -8.6818498    206.31895  0.012040088  0.011085565         3579 
 1429000   0.68341694   -8.6683176    206.63785   0.01205026  0.011073481         3551 
 1430000   0.68464576    -8.669198    206.37431  0.012026475  0.011061395         3582 
 1431000   0.67337106   -8.6699325    206.79943  0.012042827  0.011049345         3626 
 1432000   0.68013729   -8.6531134    206.20372  0.011999751  0.011037294         3523 
 1433000   0.68987101   -8.6723095    206.84854  0.012028875  0.011025239         3571 
 1434000    0.6714169   -8.6753162    206.33095  0.011990409  0.011013221         3552 
 1435000   0.68746138    -8.670381    206.21825  0.011975508  0.011001229         3592 
 1436000   0.69306045   -8.6757341    206.48322  0.011982545  0.010989243         3594 
 1437000   0.68465423   -8.6873276    206.20758  0.011958222  0.010977285         3578 
 1438000   0.68422427   -8.6568728    206.68649   0.01197766  0.010965344         3473 
 1439000    0.6769007    -8.668011    206.81213  0.011976612  0.010953413         3515 
 1440000   0.67104742   -8.6690691    206.20849  0.011933362  0.010941498         3541 
 1441000   0.68020948   -8.6780883    206.04409  0.011915573  0.010929589         3519 
 1442000   0.69711185   -8.6787696    206.36055  0.011925598  0.010917707         3502 
 1443000   0.67476598   -8.6638591    206.28497  0.011912969  0.010905855         3487 
 1444000    0.6797116   -8.6767342    206.47045  0.011915423   0.01089399         3500 
 1445000   0.68801617   -8.6772443     206.2567   0.01189485  0.010882151         3541 
 1446000   0.68615701   -8.6772841    206.17093  0.011881681  0.010870332         3567 
 1447000    0.6881052   -8.6838076     206.1894  0.011874533  0.010858521         3505 
 1448000   0.66820832   -8.6726098    205.96657  0.011853509  0.010846734         3542 
 1449000   0.66920818   -8.6866959    206.28373  0.011863569  0.010834953         3591 
 1450000   0.66723359   -8.6860785    206.38204  0.011861037  0.010823187         3569 
 1451000   0.66953466   -8.6670869    206.22026  0.011843571  0.010811428         3549 
 1452000   0.66938442   -8.6784451    206.44406  0.011848259    0.0107997         3486 
 1453000   0.67410283   -8.6716584    206.29052  0.011831298  0.010787978         3521 
 1454000   0.66289356   -8.6623624    206.13611  0.011814311  0.010776268         3551 
 1455000   0.67997372   -8.6806011    206.18895  0.011809218  0.010764583         3580 
 1456000   0.68017498   -8.6761027    206.46045  0.011816647  0.010752913         3555 
 1457000   0.66975187   -8.7101498    206.13382  0.011789855  0.010741263         3583 
 1458000   0.69131379   -8.6703585     206.0949  0.011779544  0.010729639         3557 
 1459000   0.67513964   -8.6900862    206.29309   0.01178279  0.010718026         3565 
 1460000   0.67116891    -8.692815     206.1933  0.011769024  0.010706431         3569 
 1461000   0.66593599    -8.702219     206.4843  0.011777567  0.010694836         3570 
 1462000   0.65222824   -8.6921661    206.26952  0.011757268  0.010683261         3554 
 1463000    0.6673829   -8.7126156    206.01165  0.011734544   0.01067171         3640 
 1464000   0.66659541   -8.7065406     205.9699  0.011724152  0.010660175         3587 
 1465000   0.69016602   -8.6907334    206.18237  0.011728235   0.01064866         3616 
 1466000   0.67645089   -8.6707934    206.41597  0.011733513  0.010637145         3562 
 1467000   0.67460747   -8.7038687    206.03322  0.011703773  0.010625657         3563 
 1468000   0.67221842   -8.6983187    206.22843  0.011706882  0.010614173         3609 
 1469000    0.6677052   -8.6793183     206.3132  0.011703721  0.010602713         3633 
 1470000   0.66449296   -8.6939502    206.40879  0.011701178  0.010591266         3598 
 1471000   0.67619486   -8.7003281    206.06417  0.011673701  0.010579826         3595 
 1472000    0.6771591   -8.6810736    206.11431  0.011668609  0.010568408         3618 
 1473000   0.65893927   -8.7006243    205.86202  0.011646414     0.010557         3581 
 1474000   0.66750078   -8.7022715    206.04465  0.011648838  0.010545613         3560 
 1475000   0.67271361   -8.6927611    206.21107  0.011650343  0.010534237         3604 
 1476000   0.65925548   -8.7057135    205.95144  0.011627791  0.010522875         3578 
 1477000   0.68171877   -8.7011619    205.93728   0.01161912   0.01051152         3561 
 1478000   0.67240489    -8.709362    205.94396  0.011611635  0.010500186         3610 
 1479000   0.66185647   -8.6948735     206.0402  0.011609207  0.010488861         3622 
 1480000   0.66724845   -8.6964539     206.0184  0.011600135  0.010477543         3600 
 1481000   0.67422588   -8.7034978    205.51518  0.011563987  0.010466239         3578 
 1482000    0.6740393   -8.7267845    205.99117  0.011582949  0.010454962         3616 
 1483000   0.64906656   -8.7083906    206.14802  0.011583953  0.010443714         3646 
 1484000   0.66914092   -8.7208768    206.31924  0.011585761  0.010432474         3625 
 1485000   0.67263964    -8.697788    206.03634  0.011562084   0.01042125         3595 
 1486000   0.64419789   -8.7139238    206.14215  0.011560237  0.010410037         3583 
 1487000   0.66225789   -8.7186515    206.24959  0.011558484  0.010398837         3549 
 1488000   0.66955583   -8.7053466    205.72547  0.011521364  0.010387658         3622 
 1489000   0.66374746   -8.7141639    205.64805  0.011509293  0.010376499         3534 
 1490000   0.65931616   -8.6981463    206.15088  0.011529691   0.01036536         3604 
 1491000   0.65483379   -8.7282358    206.16452  0.011522721  0.010354226         3571 
 1492000    0.6582821    -8.722215    206.27294  0.011521053  0.010343104         3560 
 1493000   0.65352503   -8.7385239    205.93562  0.011494509  0.010331996         3579 
 1494000   0.65197248   -8.7197708     205.7398  0.011475893  0.010320911         3611 
 1495000   0.66185506   -8.7324131    205.95079  0.011479977   0.01030983         3552 
 1496000   0.65655318   -8.7100937     206.0058  0.011475367  0.010298758         3618 
 1497000   0.64579625    -8.719709    205.63194  0.011446891  0.010287701         3593 
 1498000   0.65216536   -8.7167718     205.9059  0.011454489  0.010276662         3616 
 1499000   0.67580737   -8.6934064    205.95749  0.011449716  0.010265644         3567 
 1500000   0.66756802   -8.7153203    206.13755  0.011452086  0.010254639         3560 
 1501000   0.64099206   -8.7186014    206.27949  0.011452337   0.01024364         3605 
 1502000   0.64674264   -8.7208158    206.19031  0.011439764  0.010232664         3631 
 1503000   0.65338811   -8.7340717    206.07727  0.011425886  0.010221704         3614 
 1504000   0.64638986   -8.7303665    206.09254  0.011419134  0.010210753         3571 
 1505000   0.64560473   -8.7145814    206.03484  0.011408352  0.010199837         3557 
 1506000   0.65800277   -8.7417873    205.99532   0.01139859  0.010188932         3597 
 1507000   0.65394667   -8.7134729    205.71496  0.011375523  0.010178033         3585 
 1508000    0.6492499   -8.7242968    205.97591    0.0113824  0.010167161         3573 
 1509000   0.65138945   -8.7112326    205.83332  0.011366983  0.010156294         3600 
 1510000   0.64374766   -8.7184767    205.86163  0.011361017  0.010145446         3591 
 1511000   0.64611636   -8.7191349    205.86125  0.011353477  0.010134602         3596 
 1512000   0.63604397   -8.7359091    205.98434  0.011352752  0.010123774         3559 
 1513000   0.63671886   -8.7336983    205.74969  0.011332325  0.010112972         3565 
 1514000    0.6498837   -8.7232687    205.74526  0.011324596  0.010102186         3650 
 1515000   0.63308995   -8.7249398     205.6065  0.011309488  0.010091398         3649 
 1516000   0.64498032   -8.7152244     205.8692  0.011316469  0.010080631         3588 
 1517000   0.64555618    -8.742924     205.2416  0.011274533  0.010069883         3574 
 1518000   0.64601519   -8.7138854    205.55951  0.011284558   0.01005914         3613 
 1519000   0.66032031    -8.728188    205.27354  0.011261441  0.010048408         3582 
 1520000   0.65067491   -8.7345874    206.05106  0.011296659  0.010037707         3624 
 1521000   0.64750291   -8.7163007    205.80305  0.011275644  0.010027024         3644 
 1522000   0.65242586   -8.7357665    205.61085  0.011257712  0.010016341         3631 
 1523000   0.65491186   -8.7408145    205.57424  0.011248317  0.010005669         3624 
 1524000   0.64888785   -8.7449729    205.82886  0.011254859 0.0099950259         3598 
 1525000   0.63225118   -8.7289613    206.17118  0.011266185 0.0099843884         3579 
 1526000   0.64872634   -8.7341414     205.4565  0.011219774 0.0099737757         3597 
 1527000   0.64448814   -8.7316292    205.65369  0.011223187 0.0099631774         3571 
 1528000   0.65384048   -8.7449752    205.70298  0.011218531 0.0099525718         3602 
 1529000   0.63572148   -8.7285203    205.71638  0.011211924  0.009942006         3616 
 1530000   0.63460904   -8.7451535    205.76345  0.011207159 0.0099314569         3599 
 1531000   0.64019962   -8.7228947    205.85984  0.011205086 0.0099209086         3604 
 1532000   0.66005676   -8.7434453    205.60579  0.011183953 0.0099103794         3638 
 1533000   0.64941908   -8.7522592    205.81838  0.011188214 0.0098998668         3583 
 1534000   0.64201595   -8.7347761    205.45105  0.011160965 0.0098893668         3606 
 1535000   0.64196508   -8.7652623    205.54495  0.011158792 0.0098788884         3666 
 1536000   0.63718807   -8.7293218    205.68104  0.011158911 0.0098684144         3603 
 1537000   0.63560184   -8.7451245    205.75189  0.011155492 0.0098579631         3639 
 1538000   0.64183852   -8.7373585    205.70561  0.011145731  0.009847519         3588 
 1539000   0.64916639   -8.7485527    205.79747  0.011143463 0.0098371048         3595 
 1540000   0.62872996   -8.7435405    205.60681   0.01112591 0.0098266946         3632 
 1541000    0.6437726   -8.7404853    205.93741  0.011136568 0.0098162929         3602 
 1542000   0.62736347   -8.7371864    205.46767  0.011103959 0.0098059065         3620 
 1543000   0.63708905   -8.7528957    205.48672  0.011097792 0.0097955271         3635 
 1544000   0.63893321   -8.7606379     205.6414  0.011098953 0.0097851781         3593 
 1545000   0.62997292   -8.7505133    205.52079  0.011085264 0.0097748473         3627 
 1546000   0.63614149   -8.7395277    205.78179  0.011092162 0.0097645215         3658 
 1547000   0.63533736   -8.7517541     205.3525  0.011061867 0.0097542016         3601 
 1548000   0.63326325   -8.7546976    205.39925  0.011057238 0.0097438993         3641 
 1549000   0.64783848   -8.7399335    205.47275  0.011054054 0.0097336142         3607 
 1550000     0.640575   -8.7512945    205.91172  0.011070523 0.0097233364         3619 
 1551000   0.65506093    -8.747304    205.63557  0.011048548 0.0097130834         3600 
 1552000   0.64407111   -8.7419023    205.69499  0.011044619 0.0097028548         3674 
 1553000   0.63543083    -8.758078    205.57149  0.011030881 0.0096926347         3677 
 1554000   0.63924238   -8.7593367    205.44119  0.011016795 0.0096824244         3638 
 1555000   0.63401001   -8.7597026    205.49545  0.011012618 0.0096722272         3671 
 1556000   0.62104475    -8.771449    205.60673    0.0110115 0.0096620407         3571 
 1557000   0.64311904    -8.740337    205.50527  0.010998998 0.0096518647         3638 
 1558000   0.64037729   -8.7675915    205.03651  0.010966865 0.0096417097         3634 
 1559000   0.63814051    -8.757522    205.63132  0.010991625   0.00963156         3621 
 1560000   0.63508923   -8.7521717    205.26029  0.010964759 0.0096214194         3621 
 1561000   0.63099925   -8.7564604    205.29225  0.010959441 0.0096113088         3645 
 1562000   0.63584829   -8.7514592    205.37072  0.010956611 0.0096012221         3577 
 1563000   0.62125515   -8.7508545    205.35626   0.01094883 0.0095911361         3595 
 1564000   0.62205889   -8.7566759    205.72222  0.010961329 0.0095810529         3595 
 1565000   0.62104186   -8.7594122    205.60051  0.010947844 0.0095709956         3647 
 1566000   0.62669991   -8.7400439    205.45003  0.010932845 0.0095609324         3538 
 1567000   0.62762232   -8.7860662    205.42526  0.010924551   0.00955089         3644 
 1568000   0.61355718   -8.7386904    205.76763   0.01093578 0.0095408685         3606 
 1569000   0.62425274   -8.7608586    205.29811  0.010903872 0.0095308517         3611 
 1570000   0.61879049   -8.7752999    205.48778  0.010906995 0.0095208574         3597 
 1571000   0.62558846   -8.7687364    205.61096  0.010906586 0.0095108761         3592 
 1572000   0.61201894   -8.7536363    205.15393  0.010875421 0.0095009089         3619 
 1573000    0.6264075   -8.7725026     205.3395  0.010878337 0.0094909577         3593 
 1574000   0.63383993   -8.7642751    205.34353   0.01087164 0.0094810244         3615 
 1575000   0.62223738   -8.7834505    205.27992  0.010861371 0.0094710932         3633 
 1576000   0.62499245   -8.7366227    205.31612  0.010856394  0.009461189         3587 
 1577000   0.60984762   -8.7722363    205.26082  0.010846588 0.0094512824         3592 
 1578000   0.62974282   -8.7777678    205.26894  0.010840142 0.0094413999         3614 
 1579000   0.63368747   -8.7791319    205.45509  0.010843101 0.0094315348         3604 
 1580000    0.6027657   -8.7779764    204.99433  0.010811937 0.0094216703         3623 
 1581000    0.6143371   -8.7904232    205.76215   0.01084557 0.0094118209         3599 
 1582000   0.61361203   -8.7952264     205.1202  0.010804899 0.0094019927         3602 
 1583000   0.62089595   -8.7637971    205.57206   0.01082186 0.0093921742         3561 
 1584000   0.62073369   -8.7694664    205.34737  0.010803208 0.0093823715         3585 
 1585000   0.62135229   -8.7589852    205.39272  0.010798776 0.0093725864         3603 
 1586000   0.60134816   -8.7715954    205.50954  0.010798105 0.0093628028         3676 
 1587000   0.61412181   -8.7504108     205.4573  0.010788558  0.009353036         3617 
 1588000    0.6102342   -8.7743669    205.06227  0.010761034 0.0093432888         3609 
 1589000   0.62630668   -8.7803298    205.27848  0.010765601 0.0093335477         3620 
 1590000   0.61232179   -8.7838526    205.28268   0.01075905 0.0093238099         3646 
 1591000   0.62038996   -8.7746283    205.39408  0.010758123 0.0093140992         3545 
 1592000   0.60903181   -8.7856587    205.30191  0.010746541 0.0093044007         3635 
 1593000   0.63007031   -8.7809253    205.09813  0.010729134 0.0092947019         3628 
 1594000   0.62058238   -8.7741709    204.82881  0.010708323 0.0092850163         3604 
 1595000   0.62824586   -8.7730323    205.09125  0.010715321 0.0092753455         3580 
 1596000   0.62364063   -8.8034419    205.27772  0.010718344 0.0092656954         3589 
 1597000   0.61161758   -8.7883498    205.24983  0.010710177 0.0092560496         3588 
 1598000    0.6104661    -8.784624    205.27602   0.01070484 0.0092464318         3586 
 1599000   0.62382015    -8.778195     205.2552  0.010697061 0.0092368108         3626 
 1600000   0.61658241   -8.7862291    205.00605  0.010677399 0.0092272063         3588 
 1601000   0.61961378   -8.7905953    205.19026  0.010680318 0.0092176227         3605 
 1602000   0.61604964   -8.7816665    205.21491  0.010674933 0.0092080502         3606 
 1603000   0.62417041   -8.7842275    205.40408  0.010678108 0.0091984928         3589 
 1604000   0.62686635   -8.8016251    204.78632  0.010639356 0.0091889366         3606 
 1605000   0.61520116    -8.791291    205.04137  0.010645969 0.0091793922         3611 
 1606000   0.60953129   -8.7973776    204.79402  0.010626506 0.0091698547         3608 
 1607000    0.6068953   -8.7983355    205.32463  0.010647409 0.0091603373         3626 
 1608000   0.60506077   -8.7969745    205.08479  0.010628358 0.0091508253         3590 
 1609000   0.60654318   -8.7925002    205.42046  0.010639137  0.009141326         3605 
 1610000   0.62444477   -8.7940755    205.10405  0.010616151 0.0091318533         3554 
 1611000   0.60713787   -8.7779828    205.10292  0.010609503 0.0091223949         3589 
 1612000   0.60717884   -8.7886144    204.82452   0.01058853 0.0091129407         3566 
 1613000   0.61007009   -8.8000835    205.07128  0.010594714 0.0091034849         3603 
 1614000   0.60747258   -8.8139155    204.69705  0.010568827 0.0090940586         3592 
 1615000   0.60969727   -8.8017951    205.18515  0.010587469 0.0090846405         3643 
 1616000   0.61150548   -8.7880804    205.26882  0.010585232 0.0090752413         3635 
 1617000   0.61262924   -8.7968262    205.10344  0.010570163 0.0090658459         3661 
 1618000   0.60440338   -8.7970231    205.12781  0.010564885  0.009056476         3589 
 1619000   0.60342664   -8.7970888    204.85507  0.010544321 0.0090471162         3610 
 1620000   0.62069907   -8.7951578    205.17348  0.010554192 0.0090377601         3630 
 1621000   0.60683611     -8.81437    204.91282  0.010534281 0.0090284209         3619 
 1622000   0.60804454   -8.8056632    204.86538  0.010525348 0.0090190939         3629 
 1623000   0.59581776   -8.7948768    204.90656  0.010520977 0.0090097793         3610 
 1624000   0.60749185   -8.7815366    204.82295  0.010510209 0.0090004731         3581 
 1625000   0.61131615   -8.7936536    205.13404  0.010519694 0.0089911768         3583 
 1626000   0.60160559   -8.7963065    204.78958  0.010495571 0.0089818929         3600 
 1627000   0.60731956    -8.790646     205.0784  0.010503913 0.0089726323         3607 
 1628000   0.59274388   -8.7995429     205.2488  0.010506184 0.0089633824         3599 
 1629000   0.60650044   -8.7814043    204.85504  0.010479591 0.0089541544         3644 
 1630000   0.60250632   -8.7862064    205.35324  0.010498632 0.0089449346         3633 
 1631000    0.5962245   -8.8053026    204.91598  0.010469854 0.0089357306         3640 
 1632000   0.59733953   -8.8122253     204.8933   0.01046228 0.0089265316         3643 
 1633000   0.61428647   -8.7881549    205.03067  0.010462884 0.0089173392         3565 
 1634000   0.60811641   -8.8036936     204.8733  0.010448455 0.0089081686         3621 
 1635000   0.60417775   -8.8230192    205.20043  0.010458737 0.0088990008         3586 
 1636000   0.60902119   -8.7996856    205.35822  0.010460382 0.0088898442         3639 
 1637000   0.60380607   -8.8134544    204.84763     0.010428   0.00888071         3597 
 1638000   0.59252291   -8.8030892    204.63742  0.010410939 0.0088715875         3608 
 1639000   0.59218595   -8.8233296    204.61003  0.010403194 0.0088624707         3662 
 1640000   0.60414834   -8.8105078    204.60933  0.010396816 0.0088533757         3606 
 1641000   0.60125335   -8.7977136    205.23133  0.010422066 0.0088442932         3649 
 1642000    0.5906354   -8.8333527    205.01751  0.010404868 0.0088352228         3656 
 1643000   0.59934615   -8.8297593    204.62017  0.010378381 0.0088261533         3655 
 1644000   0.59546618   -8.7982568    204.79013  0.010380684 0.0088171124         3641 
 1645000   0.60990075   -8.8055901    205.02584  0.010386314 0.0088080777         3677 
 1646000   0.60705729   -8.8232547    204.82508   0.01036984 0.0087990521         3609 
 1647000   0.58703672   -8.8154703    204.97763  0.010371262 0.0087900346         3618 
 1648000   0.59562382   -8.8179196    204.82387  0.010357194 0.0087810277         3621 
 1649000   0.58891195   -8.8266973    204.84863  0.010352164 0.0087720322         3641 
 1650000   0.59986057   -8.8027754    204.94115  0.010350563 0.0087630557         3675 
 1651000   0.58482097   -8.8096323    205.00329   0.01034743 0.0087540906         3640 
 1652000   0.59004567   -8.8106233    204.75545  0.010328665 0.0087451375         3622 
 1653000   0.58368188   -8.8140643    204.98962  0.010334222 0.0087362009         3574 
 1654000   0.58565573   -8.8110475    204.75899  0.010316354 0.0087272782         3590 
 1655000   0.58487307   -8.8232381    204.99162  0.010321834  0.008718367         3638 
 1656000   0.58391652   -8.8360559     205.2218  0.010327184  0.008709465         3664 
 1657000   0.60181363   -8.8275995    204.57296   0.01028832 0.0087005661         3616 
 1658000   0.59995225   -8.8256195    205.17254  0.010312251 0.0086916832         3677 
 1659000   0.57683676   -8.8303598    204.69978  0.010282287 0.0086828116         3647 
 1660000    0.5787697   -8.8250894    204.87595  0.010284937 0.0086739482         3607 
 1661000   0.59475656   -8.8389632    204.82419  0.010276148 0.0086651016         3631 
 1662000    0.5949406   -8.8159008    204.89755  0.010273644 0.0086562699         3602 
 1663000   0.59196815    -8.822838    204.66753   0.01025594 0.0086474554         3653 
 1664000   0.58289188   -8.8246587    204.96451  0.010264649 0.0086386415         3643 
 1665000   0.58363364   -8.8307474    204.87173   0.01025384 0.0086298366         3654 
 1666000   0.58105434   -8.8398968    204.90863  0.010249532 0.0086210542         3611 
 1667000   0.57771613   -8.8241265    204.43912  0.010219912 0.0086122856         3619 
 1668000   0.59265501    -8.822288    204.70626  0.010227131 0.0086035246         3643 
 1669000   0.58853473   -8.8427703    204.65061  0.010218225 0.0085947597         3641 
 1670000   0.58473099   -8.8295618    204.40319   0.01019976 0.0085860217         3607 
 1671000    0.5817695   -8.8290824    204.61692  0.010204315 0.0085772927         3646 
 1672000   0.58055792   -8.8296607    204.55682  0.010195216 0.0085685677         3605 
 1673000   0.58700904   -8.8321417     204.9852   0.01021046 0.0085598632         3626 
 1674000   0.57173535   -8.8318356    204.71028  0.010190675 0.0085511748         3602 
 1675000   0.58185381   -8.8330986    204.70169  0.010184164 0.0085424863         3644 
 1676000   0.58625021     -8.84131    204.66578  0.010176302 0.0085338092         3603 
 1677000   0.57856353   -8.8272309      204.925  0.010183115 0.0085251553         3631 
 1678000   0.58489315    -8.827916    204.54993  0.010158419 0.0085165103         3641 
 1679000    0.5806893   -8.8444086     204.7902  0.010164294 0.0085078864         3634 
 1680000   0.58444207   -8.8388504    204.50329  0.010144012 0.0084992647         3624 
 1681000   0.58280297   -8.8629397    204.61248  0.010143391 0.0084906516         3658 
 1682000   0.58939577   -8.8329087    204.71567  0.010142473 0.0084820525         3617 
 1683000   0.58949855   -8.8458342    204.67213   0.01013429 0.0084734669         3630 
 1684000   0.56924127   -8.8241759    204.53362  0.010121418 0.0084648939         3619 
 1685000   0.58249287   -8.8414328    204.21904  0.010099853 0.0084563305         3636 
 1686000   0.58579467   -8.8529956    204.75386  0.010120297 0.0084477817         3639 
 1687000   0.58068352   -8.8319273    204.61824  0.010107599 0.0084392341         3608 
 1688000   0.57534602   -8.8539359    204.18523  0.010080234 0.0084306966         3675 
 1689000   0.56605107   -8.8401974    204.71666  0.010100487 0.0084221712         3674 
 1690000   0.57388585   -8.8367639     204.5787  0.010087707 0.0084136607         3644 
 1691000   0.57627366   -8.8266701    204.60887  0.010083228 0.0084051611         3595 
 1692000   0.58241469   -8.8418323    204.26305  0.010060237 0.0083966716         3645 
 1693000   0.56715327    -8.856044    204.72874  0.010077217 0.0083881886         3650 
 1694000     0.575259   -8.8414149    204.61805  0.010065823 0.0083797245         3596 
 1695000   0.56870526   -8.8444783    204.60706  0.010059344 0.0083712719         3626 
 1696000   0.57509079   -8.8163984    204.89387  0.010067506 0.0083628289         3638 
 1697000   0.57441399    -8.832051    204.49512  0.010041992 0.0083543901         3626 
 1698000   0.57324155   -8.8576038    204.70667   0.01004646 0.0083459704         3654 
 1699000   0.58248182    -8.853804    204.44377  0.010027652 0.0083375656         3645 
 1700000   0.58022121   -8.8442164    204.46583  0.010022835 0.0083291651         3596 
 1701000    0.5707404   -8.8565367    204.44336  0.010015842 0.0083207861         3660 
 1702000   0.56626598    -8.855281    204.85301  0.010030014 0.0083124088         3628 
 1703000   0.58066722    -8.860021    204.58049  0.010010789 0.0083040499         3612 
 1704000   0.58045522   -8.8385723    204.72772  0.010012114  0.008295696         3664 
 1705000    0.5660892   -8.8643621    204.59287 0.0099996516 0.0082873568         3665 
 1706000   0.57320234   -8.8658891    204.57195 0.0099927683 0.0082790261         3631 
 1707000   0.56904256    -8.866226    204.16871 0.0099672286 0.0082707028         3605 
 1708000   0.56627446   -8.8730286    204.48236 0.0099766961 0.0082623913         3679 
 1709000   0.57373046   -8.8544552    204.46287 0.0099699076 0.0082540858         3586 
 1710000   0.58623888   -8.8534655    204.79095 0.0099800656 0.0082457995         3647 
 1711000   0.56771889     -8.86381    204.04908 0.0099381003 0.0082375315         3655 
 1712000   0.57233266   -8.8617474    204.41815 0.0099502606 0.0082292699         3664 
 1713000    0.5713166   -8.8503683    204.73351 0.0099597934 0.0082210161         3670 
 1714000   0.56298775   -8.8684552    204.70291 0.0099524948 0.0082127744         3621 
 1715000   0.56195639   -8.8626354    204.75048 0.0099490028 0.0082045334         3605 
 1716000   0.57734443    -8.847493    204.50528 0.0099312977 0.0081963119         3662 
 1717000   0.57463006   -8.8356972    204.61745 0.0099309574 0.0081881069         3607 
 1718000   0.57085664   -8.8666654    204.29953  0.009909756 0.0081799022         3614 
 1719000   0.56570337   -8.8757719    204.31964 0.0099049661 0.0081717035         3650 
 1720000   0.55318172   -8.8595209    204.19011 0.0098929319 0.0081635213         3617 
 1721000   0.55801971   -8.8647318    204.35208 0.0098950262 0.0081553497         3654 
 1722000   0.56469015   -8.8791621    204.62317  0.009902399 0.0081471959         3626 
 1723000   0.56559274   -8.8506118    204.70732 0.0099007217 0.0081390565         3586 
 1724000   0.56761309   -8.8607498    204.35229 0.0098778176 0.0081309237         3656 
 1725000   0.56029133   -8.8743479    204.11617 0.0098606846 0.0081227955         3608 
 1726000   0.56196537   -8.8848501    204.09782 0.0098540855 0.0081146814         3642 
 1727000   0.55317684   -8.8908029    204.36391 0.0098612196 0.0081065751         3656 
 1728000   0.54947536   -8.8584564    204.30852 0.0098528416 0.0080984767         3651 
 1729000   0.56428534    -8.883448    204.08414 0.0098363284  0.008090391         3667 
 1730000   0.55713145   -8.8676386    204.10983 0.0098318802 0.0080823153         3636 
 1731000   0.56487463   -8.8763644    203.97111 0.0098195218 0.0080742531         3635 
 1732000   0.57465275   -8.8774968    204.14236 0.0098220921 0.0080661921         3672 
 1733000   0.54262141   -8.8774657    204.38291 0.0098279913 0.0080581434         3651 
 1734000   0.55967568   -8.8803266     204.5118 0.0098285179 0.0080501145         3647 
 1735000   0.56565729   -8.8777212    204.53266 0.0098238548 0.0080420974         3619 
 1736000   0.55403191   -8.8671074    204.60763 0.0098217949 0.0080340835         3601 
 1737000   0.55440428   -8.8990223    204.50461 0.0098111979 0.0080260898         3624 
 1738000   0.55067213   -8.8712127    204.46404 0.0098036077 0.0080181023         3651 
 1739000   0.55717971   -8.8755426    204.21106 0.0097858471 0.0080101222         3683 
 1740000   0.55689395   -8.8896523    204.17299 0.0097784001 0.0080021548         3638 
 1741000   0.56634189   -8.8686265    204.44451 0.0097857797 0.0079941927         3592 
 1742000   0.56660184   -8.8751438    204.20192 0.0097685573 0.0079862457         3629 
 1743000   0.55232467    -8.881264    203.94578 0.0097507065  0.007978314         3639 
 1744000   0.56774855   -8.8703872    204.19223 0.0097568919 0.0079703818         3658 
 1745000   0.54574102   -8.8658101    204.11862 0.0097477851 0.0079624712         3624 
 1746000   0.54517438    -8.868404    204.31197 0.0097514303 0.0079545628         3607 
 1747000   0.55789391   -8.8559882    204.11122 0.0097362726 0.0079466739         3620 
 1748000   0.55361591   -8.8845801    204.23419 0.0097365653 0.0079387939         3648 
 1749000   0.53999254   -8.8772322    204.32201 0.0097351825 0.0079309228         3682 
 1750000    0.5439221   -8.8659146    204.46642 0.0097364964 0.0079230595         3618 
 1751000    0.5524391   -8.8849627    204.10212 0.0097135982 0.0079152057         3643 
 1752000   0.56508529   -8.8795767    204.21066 0.0097132165 0.0079073653         3655 
 1753000   0.54845859   -8.8969823    204.45534  0.009719307 0.0078995351         3637 
 1754000   0.55451217    -8.900777     204.3834 0.0097103476 0.0078917153         3649 
 1755000   0.53829005    -8.869735    204.28793 0.0097002817  0.007883904         3667 
 1756000   0.55608337   -8.8651154    204.25231  0.009693067 0.0078761046         3667 
 1757000   0.54691235   -8.8705653    204.30049 0.0096898354 0.0078683173         3630 
 1758000   0.54288573   -8.8892955    204.16501 0.0096779015 0.0078605302         3662 
 1759000   0.55592009   -8.8859635     204.1189 0.0096702149 0.0078527604         3677 
 1760000   0.55104164   -8.8983743    204.10293 0.0096639645 0.0078449983         3632 
 1761000   0.55240543   -8.8685412     204.1191 0.0096592419 0.0078372571         3608 
 1762000   0.54651223   -8.8842958    204.13711 0.0096546119 0.0078295136         3646 
 1763000   0.55976509   -8.8801954    204.13731 0.0096491449  0.007821788         3662 
 1764000   0.54696946   -8.8762289    204.06562 0.0096402883 0.0078140727         3638 
 1765000   0.53878805   -8.9038796    204.15793 0.0096391848 0.0078063685         3613 
 1766000   0.54017998   -8.8782341    204.37168  0.009643813 0.0077986722         3642 
 1767000   0.55511161   -8.8968219    204.14462 0.0096276465 0.0077909891         3665 
 1768000   0.55831332   -8.8950472    204.15155 0.0096225276 0.0077833126         3615 
 1769000   0.54182545    -8.882833    204.02871 0.0096113017 0.0077756413         3644 
 1770000    0.5564793   -8.8713425    204.07756 0.0096081714 0.0077679826         3617 
 1771000   0.54068815   -8.9115466    204.10317  0.009603951 0.0077603332         3669 
 1772000   0.55728599   -8.8803466    204.25246  0.009605552 0.0077526957         3663 
 1773000   0.54149931    -8.882438    203.91707 0.0095843706 0.0077450649         3641 
 1774000   0.53969223   -8.8900621    203.91397 0.0095788223 0.0077374507         3594 
 1775000    0.5458038   -8.8855983    203.81831 0.0095689346 0.0077298433         3616 
 1776000   0.53993812   -8.8904918    203.96391 0.0095703789 0.0077222467         3670 
 1777000   0.54468024   -8.8985659    204.08927 0.0095708717 0.0077146615         3682 
 1778000   0.55438012   -8.9051925    203.94825 0.0095588794 0.0077070855         3586 
 1779000   0.54558079   -8.8735321      203.861  0.009549419 0.0076995202         3614 
 1780000   0.54650998   -8.8960946    203.77409 0.0095399855 0.0076919671         3705 
 1781000   0.53978803   -8.8954182    204.02402 0.0095463233  0.007684423         3669 
 1782000   0.54677851   -8.8669723    204.21511  0.009549902 0.0076768869         3632 
 1783000    0.5369988   -8.8837232    203.90228 0.0095299254  0.007669367         3636 
 1784000   0.54040279   -8.8870851    204.00559 0.0095294089 0.0076618453         3675 
 1785000   0.52853429   -8.9062716    204.19727 0.0095330191 0.0076543338         3647 
 1786000   0.54634855   -8.8985519    204.02493 0.0095196402 0.0076468426         3615 
 1787000   0.54289304   -8.9029751    203.71751 0.0094999773 0.0076393517         3659 
 1788000   0.53571539   -8.9021496    204.17927 0.0095161854 0.0076318734         3660 
 1789000   0.54398099   -8.9144519    203.84358 0.0094952292 0.0076244073         3676 
 1790000   0.54538342   -8.9016982    204.22474 0.0095076697 0.0076169541         3717 
 1791000   0.53466084   -8.9027398    204.15612 0.0094991682 0.0076094976         3714 
 1792000   0.53623738   -8.9249076    203.82219 0.0094783384 0.0076020563         3703 
 1793000   0.54309402   -8.8995842    203.83079 0.0094734518 0.0075946265         3693 
 1794000   0.53659419   -8.9024576    203.89079 0.0094709581 0.0075872022         3662 
 1795000   0.53754392   -8.9083613    204.21279  0.009480631 0.0075797873         3667 
 1796000   0.53113391   -8.8908354    203.90688 0.0094611579 0.0075723859         3656 
 1797000   0.53922232   -8.9083234    203.98656  0.009459588 0.0075649986         3700 
 1798000   0.54059748   -8.8972629    204.18359  0.009463459 0.0075576243         3688 
 1799000   0.52958405    -8.904386    204.10948 0.0094547658 0.0075502524         3680 
 1800000   0.54483391   -8.9131314    203.95729 0.0094424673 0.0075428876         3656 
 1801000   0.53660351   -8.9099814    203.91019  0.009435045 0.0075355315         3653 
 1802000   0.52642102   -8.8914909    203.76104 0.0094229118 0.0075281854         3654 
 1803000    0.5208593   -8.8972488    203.86393  0.009422441 0.0075208517         3682 
 1804000   0.52948996   -8.9024658    203.91238 0.0094194557 0.0075135172         3675 
 1805000   0.53145685   -8.9119935     203.8623 0.0094119253  0.007506193         3667 
 1806000     0.528927   -8.9114212     204.0473 0.0094152499 0.0074988856         3657 
 1807000    0.5430845   -8.9234814    203.94997 0.0094055509 0.0074915835         3684 
 1808000   0.54119517   -8.9163329    203.71902 0.0093897043 0.0074842918         3671 
 1809000   0.52930038   -8.9246801    203.60137 0.0093790937 0.0074770063         3709 
 1810000   0.52198818   -8.9223525    203.82871 0.0093843791 0.0074697306         3725 
 1811000   0.53301801   -8.9145663    203.92931 0.0093838263 0.0074624766         3686 
 1812000   0.53133025   -8.9131969    203.87753 0.0093762659 0.0074552251         3691 
 1813000   0.51499659   -8.9289477    204.04086 0.0093786017 0.0074479782         3684 
 1814000   0.52839148   -8.9132109     203.7289 0.0093591007 0.0074407426         3690 
 1815000   0.53063014   -8.9158122    203.69236 0.0093522663 0.0074335137         3677 
 1816000   0.52700309   -8.9264656    203.71582 0.0093481927 0.0074262965         3705 
 1817000   0.54171356    -8.914071    203.51064 0.0093336377 0.0074190897         3681 
 1818000   0.54076559   -8.9337352    203.49782  0.009327916 0.0074118909         3685 
 1819000   0.52813493   -8.9228382    203.61306 0.0093280676 0.0074047003         3669 
 1820000   0.51781192   -8.9209779    203.57442 0.0093211732 0.0073975148         3669 
 1821000   0.52360216   -8.9222357     203.6795  0.009320863 0.0073903417         3700 
 1822000   0.52113982   -8.9406871    203.73187 0.0093181428 0.0073831778         3636 
 1823000   0.52560301   -8.9268693    203.44205 0.0092997829 0.0073760283         3686 
 1824000   0.53741288   -8.9284982    203.83334 0.0093125612 0.0073688855         3687 
 1825000   0.52209429   -8.9260069    204.04042 0.0093169142 0.0073617505         3725 
 1826000   0.53295378   -8.9195302     203.8016 0.0093009125 0.0073546187         3685 
 1827000   0.51385992   -8.9215382    203.72621  0.009292383 0.0073475038         3690 
 1828000   0.52570798   -8.9170139    203.87896 0.0092942634 0.0073403978         3674 
 1829000   0.51960046   -8.9237007    203.86273  0.009288442 0.0073333022         3691 
 1830000   0.51853378    -8.929064    203.38477 0.0092616017 0.0073262131         3672 
 1831000   0.51424687   -8.9212204    203.61347 0.0092669518 0.0073191344         3717 
 1832000    0.5117881   -8.9257742    203.51039  0.009257205 0.0073120567         3688 
 1833000   0.51248261   -8.9239651    203.82413 0.0092664179 0.0073049926         3674 
 1834000   0.52188613   -8.9258808    203.73303 0.0092572259 0.0072979398         3674 
 1835000   0.51591337   -8.9223222    203.92254 0.0092607873 0.0072908926         3700 
 1836000   0.51792156   -8.9274963    203.61578 0.0092418199 0.0072838523         3709 
 1837000   0.51796545   -8.9371085    203.71437 0.0092412617 0.0072768307         3698 
 1838000   0.50983749   -8.9433593    203.60952 0.0092314798 0.0072698182         3652 
 1839000   0.51928929   -8.9238469    204.08768 0.0092481275 0.0072628159         3695 
 1840000   0.51979477   -8.9314555    203.78599 0.0092294382 0.0072558137         3692 
 1841000   0.51977216   -8.9399554    203.56948 0.0092146241 0.0072488229         3726 
 1842000   0.52729287   -8.9259081     203.5768 0.0092099531 0.0072418433         3694 
 1843000   0.51605513   -8.9342149    203.54632 0.0092035777 0.0072348728         3707 
 1844000   0.52764211   -8.9298415    203.31714 0.0091882295 0.0072279074         3672 
 1845000   0.51366674   -8.9299047     203.5405 0.0091933377 0.0072209565         3706 
 1846000   0.51507735   -8.9230375    203.37597 0.0091809303 0.0072140053         3670 
 1847000   0.52199944   -8.9482404    203.63764 0.0091877657 0.0072070681         3709 
 1848000   0.51423228   -8.9371314    203.61746 0.0091818839 0.0072001379         3650 
 1849000   0.51657903   -8.9458717    203.23108 0.0091595045 0.0071932181         3673 
 1850000   0.51784656   -8.9323752    203.26384  0.009156029 0.0071863074         3714 
 1851000   0.51403762   -8.9299081    203.35877 0.0091553562 0.0071794093         3671 
 1852000   0.51956244   -8.9435904    203.66728 0.0091642945 0.0071725177         3699 
 1853000   0.51922454   -8.9517345    203.61143 0.0091568372  0.007165638         3661 
 1854000   0.51480754   -8.9322428    203.68383 0.0091551523  0.007158763         3682 
 1855000   0.50160685   -8.9309609    203.46071 0.0091401937 0.0071518986         3692 
 1856000   0.51473317   -8.9306149    203.38155 0.0091317147 0.0071450362         3684 
 1857000   0.51513635   -8.9484413     203.5295 0.0091334367  0.007138188         3662 
 1858000   0.51429359   -8.9365948    203.56021 0.0091298982 0.0071313535         3694 
 1859000   0.50407759   -8.9418282    203.70735 0.0091315829 0.0071245249         3693 
 1860000   0.49595114   -8.9434062    203.44621 0.0091149737 0.0071176996         3690 
 1861000   0.51469446   -8.9407671    203.40829 0.0091083775 0.0071108845         3680 
 1862000   0.50697927   -8.9495944    203.15455 0.0090921299 0.0071040791         3686 
 1863000   0.50825871   -8.9471785    203.00355 0.0090804953 0.0070972822         3677 
 1864000    0.5079114   -8.9555672    203.52896 0.0090991132 0.0070904933         3701 
 1865000   0.51035237    -8.956542    203.73653 0.0091035089  0.007083712         3696 
 1866000   0.51319625   -8.9499025    203.13093 0.0090715851 0.0070769408         3620 
 1867000   0.50077966   -8.9412593    203.45874 0.0090813577 0.0070701822         3682 
 1868000   0.50369366   -8.9480108    203.62662 0.0090839857 0.0070634298         3654 
 1869000   0.50580001   -8.9585856    203.47446 0.0090723407 0.0070566877         3730 
 1870000   0.50605557   -8.9513882    203.67997 0.0090766475 0.0070499584         3680 
 1871000   0.51908175   -8.9669353    203.41792 0.0090601247 0.0070432345         3693 
 1872000   0.51138192    -8.950725    203.32834  0.009051297 0.0070365191         3682 
 1873000   0.50794107   -8.9715707    203.19747 0.0090406419 0.0070298075         3711 
 1874000   0.50790643    -8.970475    203.43097 0.0090462011 0.0070231046         3684 
 1875000   0.49862225   -8.9543695    203.28583 0.0090349256 0.0070164112         3714 
 1876000   0.50792622   -8.9463481    203.54311 0.0090415383 0.0070097227         3693 
 1877000   0.50089738   -8.9551481    203.50513 0.0090350353 0.0070030451         3665 
 1878000   0.48955812   -8.9588943    203.48769 0.0090294502 0.0069963779         3705 
 1879000   0.50309297   -8.9581318     203.7524 0.0090363848 0.0069897163         3630 
 1880000   0.51483389     -8.95423    203.31822 0.0090123325 0.0069830611         3669 
 1881000   0.50539717   -8.9498245    203.10589 0.0089981344 0.0069764205         3686 
 1882000   0.50297591   -8.9697513    203.32992 0.0090032732  0.006969794         3662 
 1883000   0.50327974   -8.9685138    203.25919 0.0089953616 0.0069631795         3669 
 1884000   0.49456987   -8.9812187    203.58118 0.0090048292 0.0069565611         3701 
 1885000   0.50720917   -8.9605746    203.55346 0.0089988265 0.0069499511         3668 
 1886000    0.5051924   -8.9570752    203.42855 0.0089885359 0.0069433509         3691 
 1887000    0.5110093   -8.9580464    203.37185 0.0089812687 0.0069367595         3703 
 1888000   0.49146851   -8.9736679    203.20127 0.0089689828  0.006930175         3685 
 1889000   0.50087028   -8.9695634    203.16272  0.008962534 0.0069236031         3672 
 1890000   0.49744818   -8.9764141    203.15234 0.0089573342 0.0069170347         3708 
 1891000   0.49536093   -8.9706745    203.26124 0.0089573963 0.0069104778         3670 
 1892000   0.49736174   -8.9497662    203.37588 0.0089577116 0.0069039313         3700 
 1893000   0.49568477   -8.9625706    203.59321 0.0089625467 0.0068973904         3705 
 1894000    0.4961757   -8.9745701    203.27405 0.0089437718 0.0068908553         3689 
 1895000   0.49801069   -8.9676555    203.03485 0.0089285334 0.0068843247         3691 
 1896000   0.48514145   -8.9568375    203.04214 0.0089241447  0.006877814         3713 
 1897000   0.49255222   -8.9748944    203.08512 0.0089213284 0.0068713065         3704 
 1898000   0.50250875   -8.9554856    203.19085   0.00892127  0.006864807         3684 
 1899000   0.48342886   -8.9580068    203.14205  0.008914431 0.0068583072         3698 
 1900000   0.49792378   -8.9632197     203.6116 0.0089303332 0.0068518225         3693 
 1901000   0.48027826   -8.9766083    203.05815 0.0089013745 0.0068453448         3652 
 1902000   0.49459171    -8.975764    203.13977 0.0089002703 0.0068388753         3653 
 1903000   0.48826442   -8.9732671     203.3718 0.0089057539 0.0068324181         3716 
 1904000   0.49392143   -8.9724265    203.17953 0.0088926615  0.006825964         3701 
 1905000   0.49030579   -8.9902304    203.12609 0.0088856559 0.0068195179         3705 
 1906000   0.48650054   -8.9712983    202.94875 0.0088732404 0.0068130806         3705 
 1907000   0.49373804   -8.9746926    203.23523 0.0088811059 0.0068066515         3693 
 1908000   0.48092741   -8.9625295    203.05813 0.0088687165 0.0068002323         3711 
 1909000   0.48927753   -8.9812267     203.2468 0.0088723066 0.0067938162         3660 
 1910000   0.48328462   -8.9810196    203.02786 0.0088581091 0.0067874125         3659 
 1911000   0.48556907   -8.9927081    203.20059 0.0088610058 0.0067810179         3703 
 1912000   0.48683665    -8.971085    203.04077 0.0088494059 0.0067746282         3693 
 1913000   0.48825201   -8.9837624    202.99921 0.0088429695 0.0067682512         3688 
 1914000   0.48301384    -8.992992    202.97497  0.008837294 0.0067618767         3719 
 1915000   0.48948702   -8.9783442    203.11171 0.0088386299 0.0067555102         3686 
 1916000   0.48793905   -8.9871892    202.73327 0.0088175571 0.0067491536         3722 
 1917000   0.48382056   -8.9658985    203.09408  0.008828642 0.0067428046         3676 
 1918000    0.4860154   -8.9825468    203.00189 0.0088200336 0.0067364617         3659 
 1919000   0.49688482   -8.9762678    203.13505 0.0088212197 0.0067301283         3680 
 1920000   0.48442928   -8.9589205    202.92946 0.0088077024 0.0067238081         3674 
 1921000   0.47743836   -8.9771358    203.27734 0.0088182085  0.006717493         3678 
 1922000    0.4889803   -8.9690403     203.4526 0.0088212193 0.0067111823         3641 
 1923000   0.47998173   -8.9930286    202.87862 0.0087917586 0.0067048866         3686 
 1924000   0.47980528    -8.994433    203.22494  0.008802189 0.0066985916         3704 
 1925000   0.48749284   -8.9813895    203.04898 0.0087899991 0.0066923059         3697 
 1926000   0.47980086   -8.9835439    202.91099 0.0087794648 0.0066860378         3709 
 1927000   0.48988185   -8.9892915    203.15005 0.0087852468 0.0066797695         3656 
 1928000   0.48550263   -8.9948573    203.12642 0.0087796688 0.0066735092         3697 
 1929000    0.4787705   -8.9776803    203.07349 0.0087728309 0.0066672534         3652 
 1930000   0.47756652   -8.9913511    203.13432 0.0087709119 0.0066610107         3669 
 1931000   0.47247665   -8.9941095    203.50903 0.0087825405 0.0066547766         3663 
 1932000   0.48036421   -8.9900719    203.16163 0.0087630102  0.006648544         3681 
 1933000   0.48324023   -8.9908907    203.14382 0.0087577089 0.0066423183         3708 
 1934000   0.47496256   -8.9769669    203.00457 0.0087471809 0.0066361039         3686 
 1935000   0.47764669     -8.99199    203.05293 0.0087447428 0.0066299006         3694 
 1936000   0.47481531   -8.9878939    202.99165 0.0087375881 0.0066237013         3708 
 1937000   0.48265443    -8.985122    202.77531 0.0087237702 0.0066175095         3712 
 1938000   0.48735624   -8.9982273    203.07918 0.0087323347 0.0066113221         3691 
 1939000   0.48055582   -8.9899353    202.82401  0.008716865 0.0066051491         3709 
 1940000   0.47502683   -8.9944429    203.37621 0.0087360913 0.0065989775         3707 
 1941000   0.47849912   -8.9976159    202.82785 0.0087080477 0.0065928131         3673 
 1942000   0.48327512   -9.0119184     203.2691 0.0087224981 0.0065866596         3675 
 1943000   0.46710287   -8.9866087    202.87187 0.0087009725 0.0065805139         3685 
 1944000   0.47364865   -8.9901033    202.75389 0.0086914391 0.0065743731         3713 
 1945000   0.47352361   -9.0030605    202.71261  0.008685202 0.0065682448         3728 
 1946000   0.48041391   -8.9938351    202.69253 0.0086798788 0.0065621219         3707 
 1947000   0.48373332   -8.9919736    202.88162 0.0086835139 0.0065560088         3686 
 1948000   0.47431983    -8.993564     202.7532 0.0086735627 0.0065499022         3681 
 1949000   0.47811382   -8.9935063    202.86519 0.0086739007 0.0065438031         3677 
 1950000   0.47382442   -8.9965944     203.0143 0.0086758248 0.0065377111         3704 
 1951000   0.46916419   -9.0103852    202.89814 0.0086664162  0.006531628         3707 
 1952000   0.47904569   -9.0025186    203.09915 0.0086705578 0.0065255501         3679 
 1953000   0.47420126    -9.006027    202.87222 0.0086564354 0.0065194813         3695 
 1954000   0.49121931   -9.0163036    202.77745 0.0086479635 0.0065134244         3701 
 1955000   0.47422285   -9.0116961    202.60659 0.0086362571 0.0065073721         3709 
 1956000   0.45528274   -9.0129858    202.86622 0.0086429031 0.0065013225         3725 
 1957000   0.47438717   -9.0074407     202.5883 0.0086266521 0.0064952808         3704 
 1958000   0.47228975   -9.0115051     202.8013 0.0086313116 0.0064892565         3722 
 1959000   0.45840259   -8.9954012    203.10013 0.0086396175 0.0064832319         3713 
 1960000   0.47705066   -9.0131532    202.60617 0.0086142077 0.0064772123         3717 
 1961000    0.4604117   -9.0043375    202.98784 0.0086260344 0.0064712075         3683 
 1962000    0.4665552   -9.0168236     202.9859 0.0086215555 0.0064652068         3707 
 1963000   0.46572932   -9.0063948    202.79304 0.0086089758 0.0064592122         3684 
 1964000   0.47295763   -8.9983928    202.79964 0.0086048729 0.0064532227         3693 
 1965000   0.46975384   -9.0054316     202.9904 0.0086085837 0.0064472448         3727 
 1966000   0.46471162   -9.0184146    202.76149 0.0085945021 0.0064412748         3717 
 1967000    0.4630506    -9.010626    202.68125 0.0085867332  0.006435316         3721 
 1968000   0.45872516   -9.0226916    202.77309 0.0085862591 0.0064293554         3689 
 1969000   0.46778169   -9.0141555    202.75798 0.0085812588 0.0064234054         3669 
 1970000   0.46359094   -9.0229746    202.71753 0.0085751916 0.0064174635         3670 
 1971000   0.46087057   -9.0176399    202.64235 0.0085676623 0.0064115318         3686 
 1972000   0.46951092   -9.0105625    202.80689 0.0085702708 0.0064056044         3719 
 1973000   0.47218072   -9.0053077    203.22853 0.0085837358 0.0063996888         3703 
 1974000    0.4703502   -9.0031155    202.96791 0.0085683853 0.0063937785         3708 
 1975000   0.46781242   -9.0107335    203.04412 0.0085672624 0.0063878781         3711 
 1976000   0.46207912   -9.0188013    202.76726 0.0085512509 0.0063819767         3707 
 1977000   0.45383809   -9.0099665    202.64803 0.0085418999 0.0063760815         3701 
 1978000   0.47441728   -9.0067957    202.88895 0.0085477315 0.0063701968         3671 
 1979000   0.46464015   -9.0005578    203.07422 0.0085512135 0.0063643245         3723 
 1980000   0.47272477   -9.0114747    202.80857  0.008535714 0.0063584583         3657 
 1981000   0.46395964   -9.0219618    202.89014 0.0085348368    0.0063526         3693 
 1982000   0.46708917   -9.0158714    202.81732 0.0085274688 0.0063467439         3689 
 1983000   0.46802209   -9.0010881     202.6582  0.008516482 0.0063409004         3690 
 1984000   0.46795185   -9.0159169    202.97666 0.0085255653 0.0063350618         3697 
 1985000   0.46668613    -9.014994    202.75515 0.0085119711  0.006329228         3720 
 1986000   0.44834902   -9.0143421    202.58927 0.0085007245 0.0063234052         3729 
 1987000   0.45940093   -9.0200723    202.90971 0.0085098855 0.0063175863         3703 
 1988000   0.44067095   -9.0095934    202.76365 0.0084994822 0.0063117753         3702 
 1989000   0.45182567   -9.0330309    202.78133   0.00849595 0.0063059726         3694 
 1990000   0.46032168   -9.0158994    202.78637 0.0084918915 0.0063001736         3688 
 1991000   0.46667331   -9.0267988    202.58162 0.0084790565 0.0062943841         3709 
 1992000   0.45415799   -8.9997939    202.49496 0.0084711747 0.0062886027         3702 
 1993000   0.45583637   -9.0324497    202.76822 0.0084783502 0.0062828285         3679 
 1994000   0.45616245   -9.0240623    202.23189 0.0084516839 0.0062770622         3707 
 1995000   0.45836439   -9.0089396    202.57462 0.0084617637 0.0062712992         3692 
 1996000   0.46007712   -9.0197605    202.66586 0.0084613333 0.0062655476         3692 
 1997000   0.45573553   -9.0161215    202.58679 0.0084537968 0.0062598003         3701 
 1998000   0.45261615   -9.0227632    202.63521 0.0084515855 0.0062540623         3714 
 1999000   0.45081105   -9.0268245    202.50372  0.008441876 0.0062483257         3727 
 2000000   0.46093053   -9.0251128    202.82196  0.008450915  0.006242599         3717 
 2001000   0.46245374   -9.0105111    202.76212 0.0084441996 0.0062368828         3684 
 2002000   0.45794838   -9.0254548    202.65531 0.0084355359 0.0062311693         3712 
 2003000   0.46279787   -9.0337764    202.83602 0.0084388427 0.0062254663         3671 
 2004000   0.45182496   -9.0324402    202.53688 0.0084221922 0.0062197704         3692 
 2005000   0.44538259   -9.0269447    202.64338 0.0084224182 0.0062140819         3702 
 2006000   0.45033005   -9.0371025    202.50811 0.0084126003 0.0062083986         3717 
 2007000   0.45028987   -9.0416818    202.13249  0.008392812 0.0062027196         3714 
 2008000    0.4485099   -9.0391076    202.59051 0.0084076407 0.0061970515         3710 
 2009000   0.44694151   -9.0490748    202.43783 0.0083971226 0.0061913841         3687 
 2010000    0.4529101   -9.0376864    202.90732 0.0084124095  0.006185729         3690 
 2011000   0.44215286   -9.0379015    202.64946 0.0083975411 0.0061800787         3706 
 2012000   0.44607952   -9.0391143    202.28163 0.0083781325 0.0061744385         3705 
Loop time of 5216.24 on 48 procs for 2000000 steps with 4000 atoms

Performance: 66254.585 tau/day, 383.418 timesteps/s
99.4% CPU use with 48 MPI tasks x no OpenMP threads

MPI task timing breakdown:
Section |  min time  |  avg time  |  max time  |%varavg| %total
---------------------------------------------------------------
Pair    | 381.62     | 405.1      | 447.5      |  81.3 |  7.77
Neigh   | 37.607     | 38.907     | 40.448     |  11.7 |  0.75
Comm    | 326.88     | 369.03     | 398.94     |  90.7 |  7.07
Output  | 5.8788     | 5.8811     | 5.9311     |   0.3 |  0.11
Modify  | 4321.3     | 4345.4     | 4366.2     |  17.9 | 83.31
Other   |            | 51.9       |            |       |  0.99

Nlocal:        83.3333 ave          90 max          76 min
Histogram: 2 1 5 2 9 14 2 10 1 2
Nghost:        2449.48 ave        2466 max        2432 min
Histogram: 3 3 8 5 4 9 4 3 1 8
Neighs:        17118.1 ave       19790 max       13912 min
Histogram: 2 1 5 5 7 8 6 6 5 3
FullNghs:      34148.9 ave       37911 max       31356 min
Histogram: 2 7 6 5 9 9 7 1 1 1

Total # of neighbors = 1639145
Ave neighs/atom = 409.78625
Neighbor list builds = 106439
Dangerous builds = 0

#clear
#
#next RN
#
#jump SELF
Total wall time: 1:26:59
