
units lj                  # Use reduced LJ style units
atom_style atomic         # Uncharged point particles
atom_modify map hash      # Needed for indexing of clusters etc
                          # Used to be able to find where atoms are in relation to each other.

lattice fcc 1.0 spacing 1 1 1
Lattice spacing in x,y,z = 1.5874011 1.5874011 1.5874011
region box block 0 10 0 10 0 10 units lattice
create_box 2 box
Created orthogonal box = (0.0000000 0.0000000 0.0000000) to (15.874011 15.874011 15.874011)
  3 by 4 by 4 MPI processor grid
create_atoms 1 box
Created 4000 atoms
  using lattice units in orthogonal box = (0.0000000 0.0000000 0.0000000) to (15.874011 15.874011 15.874011)
  create_atoms CPU = 0.003 seconds
set type 1 type/fraction 2 0.22 78393
Setting atom values ...
  910 settings made for type/fraction
mass 1 1.0
mass 2 1.0
pair_style lj/cut  3.5
pair_modify tail  yes
pair_coeff 1  1  1.0  1.0   # Intearaction between 1 and 1 set with epsilon = 1 and sigma = 1
pair_coeff 1  2  1.5  0.8
pair_coeff 2  2  0.5  0.88

write_data data.0
System init for write_data ...
Neighbor list info ...
  update every 1 steps, delay 10 steps, check yes
  max neighbors/atom: 2000, page size: 100000
  master list distance cutoff = 3.8
  ghost atom cutoff = 3.8
  binsize = 1.9, bins = 9 9 9
  1 neighbor lists, perpetual/occasional/extra = 1 0 0
  (1) pair lj/cut, perpetual
      attributes: half, newton on
      pair build: half/bin/atomonly/newton
      stencil: half/bin/3d
      bin: standard
WARNING: Not all mixed pair coeffs generated from mixing. Use write_data with 'pair ij' option to store all pair coeffs. (../write_data.cpp:312)


#############################
#   M E L T   S Y S T E M   #
#############################

velocity all create 2.4 1741580 mom yes dist gaussian # Assign velocities
                                                    # Temperature 2.4, random number seed, zero linear momentum
                                                                                # Gaussian distribution

timestep 0.002   # simulation timestep
thermo 1000       # output thermodynamic data every 1000 steps bf 100

# Define a fix  in this case with index 1 applied to all
# particles in the simulation. This fix is for simulations
# in the anisotropic NPT ensemble. Note that we use the MTK
# correction.
fix 1 all npt temp 2.4 2.4 0.1 iso 5.68 5.68 0.5 mtk yes tchain 5 pchain 5 # Use NPT ensemble
                                                                         # Set temperature and pressure and damping
                                                                         # Numbers of thermostats in chain and in barostat
run 10000          # run for 10000 steps
Per MPI rank memory allocation (min/avg/max) = 3.642 | 3.644 | 3.648 Mbytes
Step Temp E_pair E_mol TotEng Press Volume 
       0          2.4   -6.9213593            0   -3.3222593   -3.6990896         4000 
    1000    2.4183398   -4.8825564            0   -1.2559537    5.6763877    4400.6785 
    2000    2.3698015   -4.8531035            0   -1.2992899    5.8082166    4400.5272 
    3000    2.3588322   -4.8810831            0   -1.3437193    5.7527005    4387.4563 
    4000    2.3725892   -4.9028035            0   -1.3448094     5.755363     4375.932 
    5000    2.3842852   -4.8514624            0   -1.2759287    5.5307924    4430.8147 
    6000    2.3941863   -4.9137318            0   -1.3233502    5.4628115    4412.1792 
    7000    2.3858305    -4.832633            0    -1.254782    5.4790076    4446.3597 
    8000    2.3895352   -4.8730684            0   -1.2896617    5.6495045    4410.3254 
    9000    2.4558039    -4.849222            0   -1.1664371    5.7089111    4417.8054 
   10000    2.4112296   -4.8719915            0   -1.2560514    5.5643018    4413.7259 
Loop time of 2.30407 on 48 procs for 10000 steps with 4000 atoms

Performance: 749977.380 tau/day, 4340.147 timesteps/s
99.6% CPU use with 48 MPI tasks x no OpenMP threads

MPI task timing breakdown:
Section |  min time  |  avg time  |  max time  |%varavg| %total
---------------------------------------------------------------
Pair    | 0.98074    | 1.0545     | 1.1255     |   3.0 | 45.77
Neigh   | 0.19882    | 0.20631    | 0.21546    |   0.9 |  8.95
Comm    | 0.7047     | 0.79132    | 0.86146    |   4.0 | 34.34
Output  | 0.00025037 | 0.00025427 | 0.00031656 |   0.0 |  0.01
Modify  | 0.21736    | 0.23655    | 0.25046    |   2.0 | 10.27
Other   |            | 0.01509    |            |       |  0.65

Nlocal:        83.3333 ave          93 max          75 min
Histogram: 4 4 6 5 6 9 5 4 3 2
Nghost:        1543.60 ave        1575 max        1521 min
Histogram: 5 7 3 7 7 8 5 2 3 1
Neighs:        8644.48 ave        9863 max        7487 min
Histogram: 3 2 5 8 10 5 5 5 3 2

Total # of neighbors = 414935
Ave neighs/atom = 103.73375
Neighbor list builds = 904
Dangerous builds = 169

# Equilibrate just above the melting temperature to avoid step fn in T

fix 1 all npt temp 1.25 1.25 0.1 iso 5.68 5.68 0.5 mtk yes tchain 5 pchain 5
run 2000
Per MPI rank memory allocation (min/avg/max) = 3.643 | 3.645 | 3.649 Mbytes
Step Temp E_pair E_mol TotEng Press Volume 
   10000    2.4112296   -4.8719915            0   -1.2560514    5.5643018    4413.7259 
   11000    1.2494375    -6.613847            0   -4.7401592    5.7706453    3582.6977 
   12000     1.276287   -6.6134247            0   -4.6994727    5.7981724    3585.3376 
Loop time of 0.520637 on 48 procs for 2000 steps with 4000 atoms

Performance: 663802.440 tau/day, 3841.449 timesteps/s
99.7% CPU use with 48 MPI tasks x no OpenMP threads

MPI task timing breakdown:
Section |  min time  |  avg time  |  max time  |%varavg| %total
---------------------------------------------------------------
Pair    | 0.23026    | 0.25351    | 0.28836    |   2.5 | 48.69
Neigh   | 0.033114   | 0.035839   | 0.038587   |   0.7 |  6.88
Comm    | 0.14372    | 0.17689    | 0.20125    |   3.3 | 33.98
Output  | 5.1309e-05 | 5.2726e-05 | 6.6721e-05 |   0.0 |  0.01
Modify  | 0.041647   | 0.049705   | 0.058043   |   1.9 |  9.55
Other   |            | 0.004639   |            |       |  0.89

Nlocal:        83.3333 ave          92 max          75 min
Histogram: 3 5 3 2 16 6 4 2 4 3
Nghost:        1770.58 ave        1790 max        1742 min
Histogram: 1 2 1 6 5 6 12 5 6 4
Neighs:        10668.5 ave       12433 max        9292 min
Histogram: 3 5 4 11 9 7 3 2 2 2

Total # of neighbors = 512086
Ave neighs/atom = 128.02150
Neighbor list builds = 144
Dangerous builds = 11

#############################
# L I N E A R  Q U E N C H  #
#############################

# Define solid atoms. This closely follows ten Wolde  Ruiz-Montero and Frenkel  Faraday Discuss  1996  104  93-110
# Compute components of the per-atom q6 vector
compute q6 all orientorder/atom degrees 1 6 components 6 nnn NULL cutoff 1.3 # compute the Q6 parameter.
                                                                             # Use all neighbours within 1.3 unit cell.

# get number of connections
compute coord_number all coord/atom orientorder q6 0.5

# An atom is solid if it has 8 or more connections (of a possible 14)
variable is_solid atom c_coord_number>=8
group solid dynamic all var is_solid    # Must be dynamic to update
dynamic group solid defined

# do clustering
compute cluster solid cluster/atom 1.3 # Create a cluster where all atoms within are solid and max 1.3 units from another member

# define chunks one chunk per cluster
compute clus_chunks solid chunk/atom c_cluster nchunk every compress yes  # Says which atoms are in which chunk

# count the size of each chunk
compute size_chunks solid property/chunk clus_chunks count


# Find the maximum entry in the vector of chunk sizes
variable max_n equal max(c_size_chunks)


# Thermo style which includes this variable
# thermo_style custom step temp pe vol v_max_n

thermo ${N}  # Print the thermo information every 100 steps
thermo 1000  

# Reset the npt fix at a lower temperature (below freezing)
fix 1  all npt temp  ${temp} ${temp}  0.1  iso  5.68  5.68  0.5  mtk yes tchain  5  pchain  5
fix 1  all npt temp  0.45 ${temp}  0.1  iso  5.68  5.68  0.5  mtk yes tchain  5  pchain  5
fix 1  all npt temp  0.45 0.45  0.1  iso  5.68  5.68  0.5  mtk yes tchain  5  pchain  5

dump dmp2 all dcd ${N} traj.dcd
dump dmp2 all dcd 1000 traj.dcd


compute msd all msd com yes
variable twopoint equal c_msd[4]/6/(step*dt+1.0e-6)
fix 9 all vector 10 c_msd[4]
variable fit equal slope(f_9)/6/(10*dt)
thermo_style custom step temp pe c_msd[4] v_twopoint v_fit v_max_n

fix 1 all npt temp 1.25 ${temp} 0.1 iso 5.68 5.68 0.5 mtk yes tchain 5 pchain 5
fix 1 all npt temp 1.25 0.45 0.1 iso 5.68 5.68 0.5 mtk yes tchain 5 pchain 5
run 2000000 # 5000000  # Run for this many steps
Neighbor list info ...
  update every 1 steps, delay 10 steps, check yes
  max neighbors/atom: 2000, page size: 100000
  master list distance cutoff = 3.8
  ghost atom cutoff = 3.8
  binsize = 1.9, bins = 9 9 9
  4 neighbor lists, perpetual/occasional/extra = 1 3 0
  (1) pair lj/cut, perpetual
      attributes: half, newton on
      pair build: half/bin/atomonly/newton
      stencil: half/bin/3d
      bin: standard
  (2) compute orientorder/atom, occasional
      attributes: full, newton on
      pair build: full/bin/atomonly
      stencil: full/bin/3d
      bin: standard
  (3) compute coord/atom, occasional
      attributes: full, newton on
      pair build: full/bin/atomonly
      stencil: full/bin/3d
      bin: standard
  (4) compute cluster/atom, occasional
      attributes: full, newton on
      pair build: full/bin/atomonly
      stencil: full/bin/3d
      bin: standard
Per MPI rank memory allocation (min/avg/max) = 9.778 | 9.786 | 9.793 Mbytes
Step Temp PotEng c_msd[4] v_twopoint v_fit v_max_n 
   12000     1.276287   -6.6134247 6.3100984e-30 4.3820126e-32 8.3333333e+20            8 
   13000    1.2191699   -6.6001539   0.54746099 0.0035093652  0.045550893            3 
   14000    1.2649943   -6.6359559    1.0470728 0.0062325759  0.043596927            2 
   15000     1.228468   -6.6716492    1.5247984 0.0084711019  0.042172675            1 
   16000    1.2360023   -6.6491235    2.0578523   0.01071798  0.041881145            2 
   17000    1.2466316   -6.6426138    2.6091278  0.012789842  0.042229858            1 
   18000    1.2435598   -6.6126787     3.081124  0.014264462  0.042423985            3 
   19000    1.2559727   -6.6501955    3.6132781  0.015847711  0.042622091            2 
   20000    1.2481553   -6.5927422    4.1584067  0.017326694  0.042695947            1 
   21000     1.217878   -6.6131715    4.5803651  0.018176051    0.0427274            1 
   22000    1.2486219   -6.5789833    5.0938538    0.0192949  0.042482897            1 
   23000    1.2466058   -6.6830847    5.5004592    0.0199292  0.042070258            1 
   24000    1.2554371   -6.6399987    6.0485052  0.021001754  0.041916332            2 
   25000    1.2590863   -6.6764155     6.534165   0.02178055  0.041809045            2 
   26000    1.2313729   -6.6332089    7.0315793  0.022537113  0.041758333            1 
   27000    1.2318023   -6.6429766    7.4964347  0.023137144  0.041615228            1 
   28000    1.2798039   -6.6337011    7.9638265  0.023701864  0.041437935            2 
   29000    1.2659594   -6.6638263    8.4790548  0.024365099  0.041343133            1 
   30000    1.2223835   -6.6530577    8.9831923  0.024953312  0.041296448            4 
   31000    1.2847907   -6.6621214    9.4393747  0.025374663  0.041232736            2 
   32000    1.2202529   -6.6067697    9.9296722  0.025858521  0.041187118            2 
   33000    1.2217743   -6.6760807    10.371026   0.02618946  0.041130036            1 
   34000    1.2490225   -6.6289912     10.81201  0.026500025   0.04098456            6 
   35000    1.2325369   -6.6976583    11.319752  0.026951789  0.040869702            2 
   36000    1.2577691   -6.6494797    11.865796   0.02746712  0.040841184            1 
   37000    1.2556609    -6.638417    12.240775  0.027569313  0.040779018            2 
   38000        1.236   -6.6269791    12.662374  0.027768363  0.040671213            1 
   39000    1.2403866   -6.6535573    13.120047  0.028034289  0.040519508            2 
   40000    1.2479324   -6.6062077    13.599354  0.028331987  0.040396661            2 
   41000    1.2395034   -6.6140375    14.068844  0.028595211  0.040288459            1 
   42000     1.218391    -6.620418    14.739089  0.029244223  0.040258027            1 
   43000    1.2546654   -6.5999825    15.205879  0.029468758  0.040282789            1 
   44000     1.246602    -6.639996    15.793977  0.029912835  0.040326937            1 
   45000     1.250292   -6.6887415    16.355716  0.030288363  0.040403719            2 
   46000    1.2205526   -6.6700285    16.880634  0.030580858  0.040478737            2 
   47000    1.2295388   -6.6650643    17.441403  0.030924473  0.040568796            1 
   48000    1.2394536   -6.6488452     18.01954  0.031283922  0.040699246            2 
   49000     1.229527   -6.6362186    18.425908  0.031336578  0.040800241            2 
   50000    1.2259348   -6.6592839     18.97329  0.031622149  0.040877092            1 
   51000    1.2604668   -6.6893379    19.320914  0.031570121  0.040931302            2 
   52000    1.2417447   -6.6693103    19.618874  0.031440502  0.040925656            2 
   53000    1.2397429   -6.6735314    20.103896  0.031609899  0.040896405            1 
   54000    1.2301604    -6.648681    20.671624  0.031900655  0.040877227            2 
   55000    1.2226097   -6.6411714    21.198658  0.032119179  0.040864545            1 
   56000    1.2461175   -6.6917683    21.636542  0.032197234   0.04084568            2 
   57000    1.2328341   -6.6710765    22.050475  0.032237536  0.040815816            2 
   58000    1.2244034   -6.6887083    22.370921  0.032142128  0.040765794            3 
   59000    1.2459936   -6.6820161       22.876  0.032310734  0.040715056            1 
   60000    1.2391296   -6.6884503    23.409633  0.032513378  0.040683132            1 
   61000      1.24742   -6.6400646    23.927218  0.032687456  0.040665397            1 
   62000    1.2131123   -6.7095397    24.500418  0.032930669  0.040645897            1 
   63000      1.21796   -6.6632545    25.122285  0.033230536  0.040649769            1 
   64000    1.2438658   -6.6768282    25.538839  0.033253697  0.040655637            1 
   65000    1.2392061   -6.6827622    25.987075  0.033316763  0.040661973            1 
   66000    1.1986735   -6.6629162    26.609813  0.033598249  0.040663946            1 
   67000     1.209462   -6.6730514    27.143677  0.033760792  0.040673538            1 
   68000    1.2318126   -6.6735926    27.505238    0.0337074  0.040690148            3 
   69000    1.2352716   -6.6874395    28.040026  0.033864766  0.040690857            1 
   70000     1.246313   -6.6597231    28.551084  0.033989386  0.040694482            2 
   71000    1.2260308   -6.6894584    29.197618  0.034269505  0.040726101            1 
   72000    1.2275305   -6.6547169    29.636235  0.034301197   0.04075174            1 
   73000    1.2398928   -6.6875274    29.957938  0.034198559  0.040762914            1 
   74000     1.236013   -6.6937157    30.531545  0.034382371   0.04076722            3 
   75000    1.2293874   -6.6881869    31.184607  0.034649563  0.040784374            2 
   76000    1.2223188   -6.6457448    31.936845   0.03501847  0.040826955            1 
   77000    1.2451592   -6.6739936    32.382194  0.035045664  0.040878002            1 
   78000    1.2116971   -6.6997286     32.88823  0.035136998  0.040924593            1 
   79000    1.2316719   -6.6932676    33.460123  0.035295489  0.040969641            2 
   80000    1.2309195   -6.6903868    33.729873  0.035135284  0.041005348            1 
   81000    1.2399853   -6.6942645    34.303769  0.035291943  0.041034369            1 
   82000    1.2166553   -6.6618584    34.777477  0.035342964  0.041072671            2 
   83000    1.2618457    -6.652289    35.237792  0.035379309  0.041093171            1 
   84000    1.1956175   -6.7035405    35.699924  0.035416591  0.041105563            1 
   85000    1.2119878   -6.6805295    36.191103  0.035481474  0.041118127            2 
   86000     1.223999   -6.6810269    36.452249  0.035321947  0.041113671            2 
   87000    1.2164175   -6.7000171    36.758715  0.035209497  0.041099455            2 
   88000    1.1820045   -6.6774004    37.402745  0.035419266  0.041080268            3 
   89000    1.2241906   -6.6902189    37.777217  0.035371926  0.041067399            4 
   90000    1.2209496   -6.6591201     38.35593   0.03551475  0.041054766            1 
   91000    1.2148092   -6.7072862    38.805747  0.035536398  0.041041199            2 
   92000    1.2257781   -6.7041687    39.252844  0.035555112  0.041027332            6 
   93000    1.2331857   -6.6643943    39.623099  0.035504569  0.041007582            4 
   94000    1.2268932   -6.6733677    40.013694  0.035473133  0.040981003            2 
   95000     1.210137   -6.6676202    40.376409  0.035417902  0.040943398            1 
   96000    1.2076853   -6.6566895     40.84756  0.035457951  0.040903758            1 
   97000    1.2056262   -6.7360348     41.07838  0.035290704  0.040861941            2 
   98000    1.1820452   -6.6906021    41.575291  0.035353139  0.040817617            2 
   99000    1.2325285   -6.7365805    42.161244  0.035489262  0.040773976            2 
  100000    1.2128272   -6.6711413    42.713182  0.035594319  0.040740535            1 
  101000    1.2194422   -6.7270208    42.909389  0.035403786  0.040700563            2 
  102000    1.2273446   -6.6716995    43.551545  0.035581328  0.040658621            1 
  103000    1.2224829   -6.6817797    43.945368  0.035554504  0.040626147            1 
  104000     1.215907   -6.6972202    44.681054  0.035802127  0.040600258            2 
  105000    1.2055563   -6.7175791    45.192332   0.03586693  0.040582803            3 
  106000    1.2337833   -6.7011077    45.765926  0.035979501  0.040566995            2 
  107000    1.2199493   -6.7338349    46.137652  0.035932751  0.040550437            1 
  108000    1.2037025   -6.6910938    46.488105  0.035870451  0.040528256            2 
  109000     1.201025   -6.7248764    47.052393  0.035972777  0.040501632            1 
  110000    1.2083489   -6.6847195    47.616343  0.036072987  0.040481777            1 
  111000    1.2066809    -6.687117    48.150546  0.036149058  0.040471562            1 
  112000    1.2156652   -6.6819821     48.53335  0.036111124  0.040460378            2 
  113000    1.2372083    -6.739126    49.026465   0.03615521  0.040443572            2 
  114000    1.2115624   -6.7097716    49.372738  0.036091183  0.040423667            1 
  115000    1.2131655   -6.7003531    50.171835  0.036356402  0.040406798            2 
  116000    1.1887444   -6.6722398    50.369318  0.036184855   0.04039432            2 
  117000     1.221732   -6.7186582    50.847573   0.03621622  0.040378001            3 
  118000    1.1860258   -6.7412387    51.358089  0.036269837  0.040363112            2 
  119000    1.1977398   -6.7080987    51.718691   0.03621757  0.040345068            2 
  120000    1.2141423   -6.7186928    52.712688  0.036606033  0.040338593            2 
  121000    1.2110855   -6.6787627     53.31162  0.036715992  0.040345728            3 
  122000    1.1779198    -6.724521    53.947041  0.036849071  0.040359473            2 
  123000    1.1861834   -6.6638044    54.406574  0.036860822   0.04037339            1 
  124000    1.2107892   -6.6757743    54.964921  0.036938791  0.040386333            3 
  125000    1.2296909   -6.7072406    55.550064  0.037033376  0.040402241            3 
  126000    1.2225511   -6.7074939    56.306607  0.037239819  0.040425392            2 
  127000    1.2038629   -6.7313929    56.817862  0.037282062  0.040451915            4 
  128000    1.2188149   -6.7185195    57.039004  0.037134768  0.040471463            2 
  129000    1.1607062   -6.7360906    57.578421  0.037195363  0.040486175            3 
  130000     1.181195   -6.7275229    57.889024  0.037108348  0.040499672            1 
  131000    1.2083914    -6.691186    58.369297  0.037130596  0.040511441            1 
  132000    1.1818634   -6.7604114    58.746152  0.037087217  0.040521567            5 
  133000    1.1693309   -6.6807939    59.383018  0.037207404  0.040529974            2 
  134000    1.1995385   -6.6931404     59.82098  0.037202102  0.040541438            1 
  135000    1.2223987   -6.7420456     60.02231  0.037050809  0.040551866            2 
  136000    1.1896725   -6.7268895    60.786213  0.037246454  0.040559556            2 
  137000      1.20343   -6.7258854    61.070968   0.03714779  0.040565181            3 
  138000    1.2159126   -6.7048619    61.785506  0.037310088  0.040567416            2 
  139000    1.1982441   -6.7251551    62.262711  0.037327764  0.040573833            1 
  140000    1.1935818   -6.7261652    62.316136  0.037092938  0.040577654            4 
  141000    1.2139925   -6.7079445    62.780151  0.037104108  0.040572852            2 
  142000    1.2069806   -6.7173027    63.611489  0.037330686   0.04056971            1 
  143000    1.1836887   -6.7340692    64.050357  0.037325383  0.040568889            2 
  144000    1.2158393   -6.7811366    64.400012  0.037268525  0.040569077            2 
  145000    1.2014268   -6.7461078    64.912381  0.037305966  0.040569981            2 
  146000    1.1941218   -6.7622867    65.302561  0.037273151  0.040564899            2 
  147000    1.2005846   -6.7400422    65.800149  0.037301672  0.040558845            4 
  148000    1.1700129   -6.7201612    65.970091  0.037145321  0.040550917            2 
  149000    1.1982058   -6.7374615    66.197715  0.037023331  0.040538985            1 
  150000    1.1938956   -6.7340542    67.056829  0.037253794  0.040525173            4 
  151000    1.1738194   -6.7617739    67.256085  0.037117044  0.040513944            2 
  152000    1.1682607    -6.743392    67.685071  0.037108043  0.040498481            2 
  153000     1.182968   -6.7420668    68.306598  0.037204029  0.040484722            1 
  154000     1.187547   -6.7406778    68.590792  0.037116229  0.040469626            1 
  155000    1.1981979   -6.7369302    69.043812  0.037120329  0.040452638            2 
  156000    1.2023489   -6.6868443    69.548831  0.037152153   0.04043475            1 
  157000    1.2036057    -6.735872    69.784037  0.037040359  0.040418451            2 
  158000    1.1905625   -6.7494197    70.110976  0.036978363  0.040401664            1 
  159000    1.1841899   -6.7190982    70.544181  0.036972841  0.040381033            2 
  160000    1.2048562   -6.7488493    70.900272  0.036927225  0.040356982            2 
  161000    1.1819708    -6.755819    71.034664  0.036767425  0.040328296            2 
  162000    1.2016605   -6.6870704    71.572515  0.036817137  0.040299285            1 
  163000    1.1891707   -6.7659938    71.775894  0.036695242  0.040266881            1 
  164000    1.1954377   -6.7667632    72.194086  0.036683986  0.040232912            1 
  165000    1.1866462   -6.7640792    72.530357  0.036631493  0.040197317            1 
  166000    1.1914848   -6.7677273    73.214658  0.036754346  0.040161975            1 
  167000    1.1932163   -6.7137876    73.890171  0.036871343  0.040132225            1 
  168000    1.2007568   -6.7280886    73.999956  0.036706327  0.040103653            4 
  169000    1.1991415   -6.7353556    74.161182   0.03656863  0.040073118            3 
  170000     1.193195   -6.7624522    74.492839  0.036516098  0.040037488            2 
  171000     1.203544   -6.7625281     74.75289  0.036429284  0.039995707            1 
  172000    1.1934407   -6.7509696    75.069811  0.036371032  0.039953739            1 
  173000    1.1914252   -6.7584301    75.423129  0.036330987  0.039912343            2 
  174000    1.1925676   -6.7697142    75.550771  0.036183319  0.039866657            2 
  175000    1.1976049   -6.7464935    76.119203   0.03624724  0.039819408            3 
  176000    1.1661395   -6.7848981    76.305486  0.036129491  0.039772494            4 
  177000    1.1945262   -6.7381381    77.105696  0.036302117  0.039727446            1 
  178000    1.1779934   -6.7400001    77.645991  0.036351119  0.039686096            2 
  179000    1.1781885   -6.7950961    77.729562  0.036186947  0.039645085            3 
  180000    1.1907283   -6.7864941    78.408029  0.036300013  0.039604634            2 
  181000    1.1878163   -6.7941564     78.97253   0.03635936  0.039564966            4 
  182000    1.1705825   -6.7501179       79.475  0.036389652  0.039524423            1 
  183000     1.181992    -6.706373     79.89416  0.036381676  0.039487771            2 
  184000    1.1796112   -6.7514717    80.420163  0.036422175  0.039452062            3 
  185000    1.1681882   -6.7886123    80.704514  0.036353385  0.039418941            1 
  186000    1.1634322   -6.7971514     81.25925  0.036406474  0.039387883            3 
  187000    1.1910205   -6.7338732    81.857318  0.036478306  0.039358369            2 
  188000    1.1812726   -6.7565095     82.06611  0.036376822  0.039327812            3 
  189000    1.1818897   -6.7549622    82.559952  0.036402095  0.039298633            2 
  190000     1.154947   -6.7564231    83.059396   0.03642956  0.039269268            3 
  191000    1.1754279   -6.7731641    83.477572  0.036421279  0.039238031            2 
  192000    1.1884139   -6.7670235    83.708183  0.036331677  0.039205994            3 
  193000    1.1747829   -6.7525606    84.068736  0.036299109  0.039174608            4 
  194000    1.1957215   -6.7605651     84.33673  0.036227118  0.039141936            1 
  195000    1.1980208    -6.787984    84.786335  0.036233477  0.039110984            2 
  196000    1.1804375   -6.7312075    85.471705  0.036340011  0.039079222            2 
  197000    1.1699697   -6.7842105    85.864748  0.036321805  0.039047563            1 
  198000    1.1935372   -6.7634997    86.152572    0.0362595  0.039014468            1 
  199000    1.1593953   -6.7742833    86.407578  0.036184078  0.038983752            2 
  200000    1.1578225   -6.7493865    87.041707  0.036267378  0.038951628            2 
  201000     1.174663    -6.773584    87.424264  0.036245549  0.038920339            1 
  202000    1.1839979   -6.7660074    87.615074  0.036144832  0.038890343            3 
  203000     1.166535   -6.7710463    88.240867  0.036223673  0.038859968            2 
  204000    1.1718612   -6.7753786    88.789161  0.036270082  0.038831443            1 
  205000    1.2080699   -6.7896102    89.527426  0.036393263  0.038804615            1 
  206000    1.1707217   -6.7852523    89.854971  0.036349098  0.038777922            3 
  207000    1.1966536   -6.7837002     90.06848  0.036259452     0.038754            2 
  208000    1.1614619   -6.7986857     90.62807  0.036309323  0.038728993            1 
  209000    1.1666745   -6.7838668    91.081678  0.036316458  0.038703429            1 
  210000    1.1921561   -6.7571043    91.328177   0.03624134  0.038677299            2 
  211000    1.1879893   -6.7915032    91.547136  0.036156057  0.038650848            2 
  212000    1.1444109   -6.7842762    92.276181  0.036272084  0.038623791            1 
  213000    1.1865539   -6.8174892    92.541461   0.03620558  0.038599302            1 
  214000    1.1932738   -6.8234013     92.77891  0.036128859  0.038573479            1 
  215000    1.1732842   -6.7662331    93.758456  0.036340487  0.038548077            1 
  216000    1.1479907     -6.77463      94.0521  0.036285532  0.038524081            2 
  217000    1.1641387   -6.7816378    94.195988  0.036173574  0.038501422            2 
  218000    1.1723105   -6.7955416    94.848506  0.036257074  0.038477158            2 
  219000     1.176743   -6.8316338    94.918838  0.036118279  0.038452056            1 
  220000    1.1465586   -6.7822863    95.752978  0.036270067  0.038425282            3 
  221000    1.1633198    -6.822549    95.684906  0.036080281  0.038399521            4 
  222000     1.171541   -6.7674591    96.328483  0.036159341  0.038374634            2 
  223000    1.1588934   -6.7880858    96.745577  0.036153056  0.038351931            3 
  224000    1.1550561   -6.8210234    96.794607  0.036009898  0.038326926            1 
  225000    1.1587115    -6.774464    97.647348  0.036165684  0.038301927            1 
  226000    1.1683406    -6.803857    97.412336  0.035919003  0.038276918            3 
  227000    1.1689796    -6.803201    98.126304  0.036022872  0.038250334            2 
  228000    1.1712866    -6.795861    98.302853  0.035929405  0.038223521            1 
  229000    1.1623137   -6.7788106    99.464037  0.036195064  0.038198108            5 
  230000    1.1871104   -6.8116713    99.403461  0.036015747  0.038174371            3 
  231000    1.1589989   -6.8006654    99.844756  0.036019032  0.038151168            1 
  232000    1.1566129   -6.8035336    100.58574  0.036129936  0.038128697            2 
  233000    1.1590417   -6.7728804    101.11773  0.036165139  0.038107964            1 
  234000     1.170954   -6.8283159    101.13113  0.036015359  0.038087616            2 
  235000     1.128948   -6.8153057    101.90696   0.03613722   0.03806629            3 
  236000    1.1840024   -6.8054387    102.18514  0.036082323  0.038045215            2 
  237000    1.1782948   -6.7954177     102.7522  0.036129465  0.038024859            1 
  238000    1.1960981    -6.801738     103.0441  0.036079868  0.038004764            1 
  239000    1.1693597    -6.816485    103.36423  0.036040525  0.037983725            2 
  240000    1.1718176   -6.8365977    103.62182  0.035979798  0.037962851            2 
  241000    1.1582633   -6.7911667    104.02583  0.035970203  0.037941407            1 
  242000    1.1490695   -6.7900973    104.71023  0.036057243  0.037920776            2 
  243000    1.1518797   -6.8090749    105.59452  0.036212112  0.037901358            3 
  244000      1.15896   -6.8481269    105.77704  0.036126036  0.037883607            6 
  245000    1.1454006   -6.7650469    106.42618  0.036199381  0.037866779            2 
  246000    1.1558968   -6.8779128    106.54022  0.036090861  0.037850717            2 
  247000    1.1506376   -6.8381183    106.83722  0.036044946  0.037833172            2 
  248000    1.1717541   -6.8078563    107.48151  0.036116098  0.037815808            2 
  249000    1.1490528   -6.8270623    107.92206  0.036118493  0.037799647            4 
  250000    1.1485095   -6.7557678    108.75006   0.03625002  0.037783873            1 
  251000    1.1620601   -6.8024764    108.66952  0.036078859  0.037769244            1 
  252000    1.1320161   -6.8108459    109.09226  0.036075482  0.037753854            1 
  253000    1.1716461   -6.8490045    109.20124  0.035968788  0.037736958            4 
  254000    1.1667541   -6.7963008    109.93682   0.03606851  0.037716932            2 
  255000    1.1604281   -6.8426317    109.42095  0.035758479  0.037696558            3 
  256000    1.1657195    -6.826766    110.36486  0.035926061  0.037674755            1 
  257000    1.1735443   -6.8009601    110.69293   0.03589265  0.037653765            3 
  258000    1.1654011   -6.8198651    110.62912  0.035732919   0.03763237            2 
  259000    1.1462318   -6.8194728    111.37509  0.035834972  0.037610166            4 
  260000    1.1356688    -6.776639    112.00471  0.035898947  0.037587549            3 
  261000     1.152073   -6.8293423    111.83869  0.035708394   0.03756655            3 
  262000    1.1643317   -6.8269286    112.24588  0.035701616  0.037544299            2 
  263000    1.1648328    -6.797432    112.76619  0.035730731  0.037522404            3 
  264000    1.1628489   -6.8330095    113.50021  0.035827087  0.037499713            1 
  265000     1.144957   -6.8511836    113.41639  0.035665532  0.037478006            3 
  266000    1.1381128     -6.79612    114.09902  0.035745308  0.037456511            3 
  267000    1.1511909   -6.8709872    114.31521  0.035678905  0.037435617            2 
  268000    1.1391129   -6.7881344    115.11777  0.035795325  0.037415402            1 
  269000    1.1706091   -6.8715591    114.71417  0.035537227  0.037395395            2 
  270000    1.1350377   -6.8506264    115.33989  0.035598732  0.037375161            1 
  271000    1.1291796   -6.8652766    115.27551  0.035447574  0.037352582            3 
  272000    1.1483387   -6.8262294    116.54134  0.035705068  0.037329368            2 
  273000    1.1285715   -6.8162315    116.25449  0.035486718  0.037305929            3 
  274000    1.1252545   -6.8289016    116.62552  0.035470048  0.037282254            4 
  275000    1.1435114   -6.8797946    116.99091   0.03545179  0.037256695            2 
  276000    1.1294166   -6.8347742     117.4239  0.035454076  0.037232139            1 
  277000    1.1701265   -6.8449428    117.18146  0.035253147   0.03720697            3 
  278000    1.1449059   -6.8612718    117.77936  0.035305564  0.037180046            2 
  279000     1.113517   -6.8741751    117.88765  0.035211365  0.037153482            2 
  280000    1.1675856   -6.8636709     117.9567  0.035106161  0.037124324            3 
  281000    1.1444345   -6.8430684    118.04489   0.03500738  0.037094958            3 
  282000    1.1288511    -6.811299    118.92413  0.035143064  0.037065446            1 
  283000    1.1566198   -6.8291049    119.22283  0.035106839  0.037037032            2 
  284000    1.1376644   -6.8340885    119.30303  0.035006756  0.037009287            2 
  285000    1.1502864   -6.8531458    120.12032  0.035122899  0.036981361            3 
  286000    1.1717299   -6.8130399    120.86788  0.035217913  0.036954441            1 
  287000    1.1134623   -6.8388363    120.84237  0.035087795  0.036928605            3 
  288000    1.1567208   -6.8450483    121.05912  0.035028679  0.036901581            2 
  289000    1.1317965   -6.8365048    121.31493  0.034981236  0.036873625            3 
  290000    1.1352605   -6.8570138     121.3483  0.034870201  0.036844586            2 
  291000    1.1331378   -6.8311236    122.21667  0.034999047  0.036817307            1 
  292000    1.1414917   -6.8533112    122.45456  0.034947078  0.036789268            2 
  293000    1.1342512   -6.8539193     122.6178  0.034874232  0.036762198            1 
  294000    1.1508359   -6.8171103    123.26713  0.034939662  0.036735179            1 
  295000    1.1418179   -6.8846307    123.81751  0.034976698  0.036708875            1 
  296000     1.133291   -6.8953162    123.94712  0.034895024   0.03668194            2 
  297000    1.1436039   -6.8279294     124.6529   0.03497556  0.036655896            1 
  298000    1.1309704   -6.8400002    124.64732  0.034856634   0.03662911            3 
  299000    1.1315336   -6.8059581    125.48494  0.034973506  0.036603272            2 
  300000    1.1367395   -6.8687848    125.60336  0.034889822  0.036578092            3 
  301000    1.1286556   -6.8655169     125.9804  0.034878295  0.036552952            4 
  302000    1.1210898   -6.8574391    126.41537  0.034882828  0.036527353            1 
  303000    1.1377934   -6.8276635    126.83337  0.034882666  0.036502234            2 
  304000    1.1140038   -6.8495829    127.08886  0.034837955  0.036476758            3 
  305000    1.1303807    -6.866733    127.60827  0.034865648  0.036451283            1 
  306000    1.1519868    -6.849317    128.29369  0.034938367  0.036426952            1 
  307000    1.1129059   -6.7996682    128.87181  0.034981489  0.036403278            4 
  308000    1.1349363   -6.8722421     128.6813  0.034816369  0.036379252            1 
  309000    1.0982552   -6.8435406    129.69808  0.034977908  0.036355484            3 
  310000    1.1506451    -6.888527    129.86436  0.034909774  0.036332678            2 
  311000    1.1176676   -6.9014363     129.8409  0.034791239  0.036309836            2 
  312000    1.1201717   -6.8469588    130.63058  0.034890647  0.036287747            2 
  313000    1.1250397   -6.8305394    131.33026  0.034965457  0.036267318            1 
  314000    1.1354931   -6.8639149    131.28159  0.034841186  0.036247266            3 
  315000    1.1394593   -6.9059396    131.31166  0.034738535  0.036226086            4 
  316000    1.1224831   -6.8546723    132.44123  0.034926486  0.036206072            2 
  317000    1.1356673   -6.8396488      132.806  0.034912199  0.036186481            3 
  318000    1.1055808    -6.892546    133.72783  0.035043981  0.036168742            2 
  319000    1.1110737   -6.8325665    133.90475  0.034980343  0.036151695            2 
  320000    1.1310019   -6.8583823    134.17308  0.034940905  0.036134242            2 
  321000    1.1087682   -6.8170257     134.6584  0.034958049  0.036115995            2 
  322000    1.1202346   -6.9140921    134.60481  0.034835613  0.036097687            1 
  323000     1.127288   -6.8471109    134.83372  0.034786822   0.03607835            5 
  324000     1.152099   -6.8652179    135.40935  0.034827507  0.036060164            3 
  325000    1.1215577   -6.8771361    135.99382   0.03487021  0.036042994            3 
  326000    1.1473941    -6.893058     136.3184  0.034846215  0.036025543            1 
  327000    1.1419353   -6.8481132     136.8781  0.034882289  0.036006618            2 
  328000    1.0985778   -6.8158626    137.19236  0.034855781  0.035988536            1 
  329000    1.1169539   -6.8849468    137.03036  0.034708804  0.035969212            4 
  330000    1.1559788   -6.8528601    138.00523  0.034849805  0.035950462            2 
  331000    1.1538378   -6.8857569    138.51116  0.034871893  0.035933019            3 
  332000    1.1235068   -6.9252268    138.12679  0.034670379  0.035915798            1 
  333000    1.1453692   -6.8957412    138.71085  0.034712424  0.035898538            2 
  334000    1.1014547   -6.8626113    139.59563  0.034829249  0.035881443            1 
  335000    1.1105121   -6.8742111      140.105   0.03485199  0.035863759            2 
  336000    1.1095326   -6.9043917    139.87583  0.034691425  0.035845829            2 
  337000    1.1247025   -6.9144638    140.12554  0.034650231  0.035827912            3 
  338000    1.1379903   -6.8542075    140.64524  0.034675849  0.035809474            3 
  339000    1.1135575   -6.8741596    141.18287  0.034705719  0.035791419            1 
  340000    1.1231941   -6.9131454    141.26634  0.034624104  0.035773207            3 
  341000    1.1437084   -6.9115854    141.88882  0.034674687  0.035755064            1 
  342000    1.1109145   -6.9381398    141.99045  0.034598063   0.03573669            4 
  343000    1.1013883   -6.8773966    142.40331    0.0345975  0.035718056            1 
  344000    1.0965938   -6.8895275    143.18716  0.034686811  0.035700347            1 
  345000    1.1500381   -6.8988576    143.14085  0.034575085   0.03568246            3 
  346000    1.1196383   -6.8669299    143.65913  0.034599983  0.035664497            1 
  347000    1.1124512   -6.8954808    143.52245  0.034467448  0.035645776            1 
  348000    1.1243881   -6.9301275    143.96437  0.034474225  0.035626263            2 
  349000    1.1207604   -6.9078155    144.10456   0.03440892  0.035606659            2 
  350000    1.1113121   -6.9112324    144.33005  0.034364297  0.035587285            1 
  351000    1.1170111    -6.910106    144.70563  0.034355564  0.035567539            3 
  352000    1.1192096   -6.9067548    145.59911  0.034469486  0.035548162            2 
  353000     1.135233   -6.8750854    145.62986  0.034379098  0.035528698            1 
  354000    1.1027387   -6.9423147    145.56032  0.034265612  0.035509034            5 
  355000    1.1307033   -6.8788545    146.34529  0.034353354  0.035487713            2 
  356000    1.1062066   -6.9036435    146.61919  0.034320972  0.035466221            3 
  357000    1.0970318   -6.8889307    147.13766  0.034345859  0.035446687            1 
  358000    1.1260726   -6.9034015    147.17967  0.034259701  0.035426528            3 
  359000    1.1365271   -6.9053613    147.59672  0.034261077  0.035406091            2 
  360000     1.102537   -6.9083393    148.11015  0.034284758  0.035386058            2 
  361000    1.1021457   -6.9040704    148.15403  0.034199914  0.035366831            1 
  362000    1.1290722   -6.9275342    148.23305   0.03412363  0.035348036            2 
  363000    1.0837962   -6.8742674    149.51745  0.034324484  0.035328263            1 
  364000    1.1064056   -6.9108487    149.12135  0.034139502  0.035309433            3 
  365000    1.0986157   -6.9437775    149.68262  0.034174115  0.035289812            3 
  366000    1.1001657   -6.9308411    150.13041  0.034182698  0.035269714            2 
  367000    1.1178978   -6.9168559    150.26768  0.034120728  0.035250093            4 
  368000    1.0880688   -6.9008275    150.81946  0.034152958  0.035230513            3 
  369000    1.1099471   -6.8928467    151.26951  0.034162038  0.035211402            2 
  370000    1.0911129   -6.8963642    152.26456   0.03429382  0.035193133            2 
  371000    1.1239928   -6.8846566    152.34129  0.034218619  0.035174955            2 
  372000    1.1062006   -6.9374177    152.86097  0.034243048  0.035156868            2 
  373000    1.0671927   -6.9089003    152.94898  0.034170907  0.035138436            2 
  374000    1.1155385   -6.9273841    153.14286  0.034122741  0.035120229            2 
  375000    1.1339346   -6.9287512    153.15137  0.034033638  0.035101384            1 
  376000    1.1249622   -6.9648687    152.57251   0.03381483  0.035081195            2 
  377000    1.0797131   -6.9142412    153.50142  0.033930465  0.035060488            3 
  378000    1.1225873   -6.8869148    153.47161  0.033834129  0.035039626            2 
  379000    1.1042517   -6.9303195    154.37259  0.033942961  0.035017301            1 
  380000    1.1150587   -6.9034464    154.50792  0.033883315  0.034995549            1 
  381000    1.1027794   -6.9696216      154.405  0.033771872  0.034973548            2 
  382000    1.1179908   -6.8974221    154.47913  0.033699636  0.034950685            1 
  383000    1.1088962    -6.891873    154.73858  0.033668099  0.034927793            1 
  384000    1.1154693   -6.9238358    155.14744   0.03366915  0.034905123            2 
  385000    1.1147753   -6.9107353    155.36894  0.033629641   0.03488193            2 
  386000    1.1304603   -6.9145199    155.74697   0.03362413  0.034858012            1 
  387000    1.1127033   -6.9499672    155.92492  0.033575565  0.034833795            1 
  388000     1.116615   -6.9687536    156.00935  0.033507164  0.034809451            4 
  389000    1.0935393   -6.9027246    156.63812  0.033555723  0.034786202            1 
  390000    1.0915391   -6.9173361    157.38157  0.033628541  0.034764024            2 
  391000    1.0925244   -6.9504393    157.39654  0.033545725   0.03474185            2 
  392000    1.0970383    -6.901027    157.94722  0.033577214  0.034720316            1 
  393000    1.0827922   -6.9166784    158.16613  0.033538196  0.034698355            1 
  394000    1.0785828   -6.9180762     159.0866  0.033647758  0.034676317            3 
  395000    1.0943873   -6.9279366    159.12521  0.033570718  0.034654364            1 
  396000    1.0785407    -6.932874    159.23097    0.0335082  0.034632092            5 
  397000    1.0814124   -6.9273914     159.2861  0.033435369  0.034609784            2 
  398000    1.1183462   -6.9223623    159.90383  0.033480701  0.034587329            4 
  399000    1.0743942   -6.9270592    160.42512  0.033505664  0.034566023            3 
  400000    1.0908394   -6.9582721    160.35036  0.033406325  0.034544244            2 
  401000    1.0722115   -6.9665888    160.82576  0.033421812  0.034522299            2 
  402000    1.0716966    -6.926381    160.93109  0.033360509  0.034500092            3 
  403000    1.1066698    -6.976195    160.76474  0.033243328  0.034477873            1 
  404000      1.07757    -6.927567    161.25271  0.033261698  0.034455555            2 
  405000    1.0889916   -6.9307355    162.21403  0.033377372   0.03443371            1 
  406000    1.0906405    -6.940711    162.44475  0.033342518  0.034412266            5 
  407000    1.1082604   -6.9285729     162.4002  0.033251475  0.034390001            2 
  408000    1.0980274    -6.974581    162.81211  0.033254107   0.03436744            3 
  409000    1.0778643   -6.9449589    163.46126  0.033305064  0.034344165            2 
  410000      1.09993   -6.9406489    163.35757  0.033202758  0.034321801            2 
  411000     1.123854   -6.9178813    163.77752  0.033207122  0.034299181            4 
  412000    1.0870106   -6.9356903    164.07535  0.033186761   0.03427666            1 
  413000    1.0786614   -6.9789691    164.21003  0.033133581   0.03425413            5 
  414000     1.088325    -6.975479    164.50862  0.033113651   0.03423164            2 
  415000     1.087612   -6.9464815    164.85686  0.033103787  0.034208865            1 
  416000    1.0825759   -6.9420301    165.01046   0.03305498  0.034187068            3 
  417000    1.0901976   -6.9004318     165.4976  0.033073062  0.034165153            2 
  418000    1.0955063   -6.9647729    165.86732  0.033067647  0.034142822            2 
  419000    1.1126257   -6.9786376    166.36263  0.033087237  0.034121184            2 
  420000    1.0872642   -6.9485289    167.49568  0.033233269  0.034100332            2 
  421000    1.0837148   -6.9332074    167.85018    0.0332245  0.034079423            1 
  422000    1.0843752   -6.9595681    167.46872  0.033070443  0.034059127            3 
  423000    1.0761686   -7.0021814    167.56492  0.033011214  0.034037925            1 
  424000    1.0781648   -6.9900327    167.38518  0.032898031  0.034016305            2 
  425000    1.0612999   -6.9628193    168.14998  0.032970585  0.033995061            3 
  426000     1.113575   -6.9825969    167.84849  0.032834212  0.033973143            2 
  427000    1.0803261   -6.9704772    168.21542  0.032828926  0.033951093            1 
  428000    1.0852975   -6.9648251    168.76233  0.032858709  0.033929117            1 
  429000     1.095558   -6.9319653    169.05333  0.032838643  0.033906487            4 
  430000    1.0718004   -6.9149507    170.25625  0.032995397  0.033884777            1 
  431000    1.0782412    -6.968518    170.20596  0.032909119  0.033863392            3 
  432000    1.0527361   -6.9709934    170.03945  0.032800819   0.03384137            2 
  433000    1.0782694   -6.9814031    170.09738  0.032736217  0.033819374            2 
  434000    1.0759708    -6.945115    170.98501  0.032831223  0.033797143            2 
  435000     1.073734   -6.9587159    171.35405  0.032826446  0.033775264            1 
  436000    1.0913814   -6.9640062    171.54945  0.032788502  0.033753629            2 
  437000    1.0816056   -6.9796129    171.93284  0.032786583  0.033731861            3 
  438000    1.0960499   -6.9950367     171.7932   0.03268516  0.033710201            1 
  439000    1.0647012   -7.0225536    172.28556  0.032704169  0.033688313            3 
  440000    1.0831981   -6.9497212    173.31976  0.032825713  0.033666278            2 
  441000    1.0859887   -6.9394171    172.48332   0.03259322  0.033644799            3 
  442000    1.0795279     -6.93903    173.50499  0.032712103  0.033623387            2 
  443000     1.097381   -6.9700542    173.24582  0.032589506   0.03360189            2 
  444000    1.0870629   -6.9555958    173.97599  0.032653151  0.033580344            2 
  445000    1.0754072   -6.9930244     174.7074  0.032716742  0.033559114            2 
  446000    1.0831531   -7.0090571    174.62268  0.032627557  0.033538897            2 
  447000    1.0770113   -6.9960239    175.63167  0.032742667   0.03351925            3 
  448000    1.0965377   -6.9512923    175.54257  0.032653008  0.033500066            2 
  449000    1.0490599   -6.9459073    176.30212  0.032721255  0.033481174            2 
  450000    1.0876602   -6.9640836    176.74329   0.03273024  0.033462294            4 
  451000    1.0645887   -6.9622638    176.73417  0.032655982  0.033443582           11 
  452000    1.0728274   -6.9927028    176.47811  0.032536525   0.03342394            2 
  453000    1.0857334   -6.9751417    177.00705  0.032562003  0.033404039            1 
  454000    1.0814864   -6.9947984    178.22824  0.032714434  0.033384525            2 
  455000    1.0796963   -6.9531914    178.40195  0.032674349  0.033365337            3 
  456000    1.1058442   -7.0014051    178.18842  0.032563673  0.033345911            3 
  457000    1.0992122   -6.9842937    179.08255  0.032655461  0.033326313            4 
  458000    1.0943043   -6.9567117    179.00248  0.032569592  0.033306737            2 
  459000    1.0795948   -7.0254906    179.32576  0.032557328  0.033287352            3 
  460000    1.0782334   -6.9689162    179.23201  0.032469568  0.033267184            3 
  461000    1.0600123   -7.0060423    179.30875  0.032413006  0.033247304            9 
  462000    1.0731261   -7.0055235    180.18659  0.032501189  0.033227416            2 
  463000     1.058453    -7.042719    180.35027  0.032460451  0.033207622            3 
  464000    1.0838708   -6.9981772    180.58925  0.032433413  0.033188519            4 
  465000    1.0767492   -6.9643527    181.72589  0.032567364  0.033169384            3 
  466000    1.0872924   -6.9589189    181.27485  0.032416819  0.033150501            4 
  467000    1.0534244   -6.9611976    181.76544  0.032434947  0.033131316            2 
  468000    1.0843393   -7.0275859    181.08032  0.032243647  0.033111429            4 
  469000    1.0705725   -6.9832501    182.24717  0.032382225  0.033091125            2 
  470000    1.0764275   -7.0057297    182.24041   0.03231213  0.033071361            2 
  471000    1.0727144    -6.992463    183.29317  0.032429789  0.033051795            2 
  472000    1.0838506   -7.0023286     183.5811  0.032411918  0.033033422            4 
  473000      1.05197   -6.9888102    184.49112   0.03250372  0.033015204            3 
  474000    1.0337582   -7.0243291    184.52821  0.032441669  0.032997738            2 
  475000    1.0419931    -6.986964    184.27607  0.032329135  0.032979891            4 
  476000    1.0574554   -7.0090835    185.37882  0.032454276  0.032961908            2 
  477000     1.052436   -6.9933683    185.08665  0.032335194   0.03294384            3 
  478000    1.0588408     -7.04392    185.48441  0.032336892  0.032926493            2 
  479000    1.0658286   -6.9996238    185.93633  0.032348005  0.032909236            2 
  480000    1.0799741   -6.9912509    186.35811  0.032353839  0.032892247            2 
  481000     1.065568   -7.0247879    186.03374  0.032230378  0.032874928            2 
  482000    1.0566718   -6.9748666    187.31817  0.032385576  0.032857326            2 
  483000    1.0688362   -7.0412919     186.4484  0.032168461  0.032839966            2 
  484000    1.0598771   -7.0247854    187.11074  0.032216037  0.032822975            3 
  485000     1.061629   -7.0014332    187.89677  0.032284668  0.032805804            2 
  486000    1.0622771   -7.0083747    187.65749   0.03217721  0.032788187            3 
  487000    1.0536091   -7.0043674    187.69423  0.032117425  0.032770535            2 
  488000    1.0309465   -7.0156039    188.63643  0.032212505  0.032752837            2 
  489000    1.0774056   -7.0341683    188.48204   0.03212032  0.032735001            3 
  490000    1.0592671   -7.0105393    189.49063  0.032226298  0.032717472            1 
  491000    1.0448959   -7.0145472    190.25478  0.032290356  0.032699828            2 
  492000    1.0739116   -7.0076254    189.94754  0.032172687  0.032682357            1 
  493000    1.0588279   -6.9955373    189.84601  0.032090265   0.03266427            4 
  494000    1.0547711   -6.9668851    190.14452  0.032075661  0.032645958            2 
  495000    1.0619495   -7.0251421    189.74893  0.031944265  0.032627932            1 
  496000    1.0646539   -6.9973236    190.86742  0.032067779  0.032609717            2 
  497000    1.0444807   -7.0283152    191.19166  0.032057623  0.032591832            2 
  498000    1.0433556   -7.0204703    190.98383  0.031958472  0.032573733            2 
  499000    1.0447612   -7.0117592    191.35374  0.031956202  0.032555405            5 
  500000    1.0199089   -6.9952878    192.16685  0.032027809  0.032537179            5 
  501000    1.0215014   -7.0128034    192.27594  0.031982026  0.032519406            2 
  502000    1.0344715   -6.9958751    192.37077  0.031934059  0.032501894            4 
  503000    1.0492227   -7.0452499    192.30347  0.031859422  0.032483867            2 
  504000    1.0226724   -7.0321573    192.72595  0.031866062  0.032465693            3 
  505000    1.0460416   -7.0092152     193.0428  0.031855247  0.032447796            5 
  506000    1.0534097   -6.9776052    193.79293  0.031915832  0.032429628            1 
  507000    1.0418125    -7.027494    193.63527  0.031826967   0.03241194            2 
  508000    1.0705405   -7.0161361    194.17347  0.031852603  0.032394521            2 
  509000    1.0640941   -7.0426251     193.8242  0.031732842  0.032376818            2 
  510000    1.0405006   -7.0347457    194.79132  0.031828648   0.03235892            1 
  511000    1.0541798   -7.0385935    194.93989  0.031790588  0.032341214            2 
  512000    1.0207599    -6.996691    195.67707  0.031848482  0.032323885            3 
  513000    1.0320567   -7.0056164     195.3815  0.031738385  0.032306272            2 
  514000    1.0438816   -7.0279695    195.82751  0.031748948  0.032289008            1 
  515000    1.0467283   -7.0329134    196.58748  0.031810271  0.032271921            2 
  516000    1.0582339   -7.0635847    197.10279  0.031831847  0.032254994            2 
  517000    1.0650472   -7.0389092    197.48843  0.031832436  0.032237629            2 
  518000    1.0461815   -7.0003376    197.07571  0.031704587  0.032220175            1 
  519000    1.0400392   -6.9969318    197.41924  0.031698658   0.03220332            1 
  520000    1.0220789   -7.0232514    197.78196  0.031695827  0.032186677            1 
  521000    1.0300791    -7.047629    198.03613  0.031675645  0.032169397            2 
  522000     1.053639   -7.0335624    198.32237   0.03166066  0.032152423            4 
  523000    1.0619406   -7.0067794    199.59874  0.031803496  0.032135632            1 
  524000    1.0356056   -7.0835672    198.81253  0.031617768  0.032118075            1 
  525000    1.0351706    -7.008383    199.47397  0.031662535  0.032101192            2 
  526000    1.0652133   -7.0828048    199.97875  0.031682311  0.032084705            1 
  527000    1.0476798   -7.0611758    200.30771  0.031674211  0.032068354            1 
  528000    1.0395742   -7.0336234    200.65039  0.031668306  0.032052312            2 
  529000    1.0422608   -7.0210807    201.01646  0.031666108  0.032036152            6 
  530000    1.0688147   -7.0419907     200.5367  0.031530928   0.03202024            3 
  531000    1.0483272   -7.0628707     200.9559  0.031537336  0.032003716            6 
  532000     1.042458    -7.011905    201.48681  0.031561217  0.031987064            1 
  533000    1.0385985   -7.0554915    201.12304  0.031445128  0.031970326            4 
  534000    1.0230067   -7.0647261     201.4746  0.031441104  0.031953167            3 
  535000    1.0493602   -7.0570572    201.83856  0.031439027  0.031936232            4 
  536000    1.0392252    -7.015699    202.77894  0.031526576   0.03191936            2 
  537000     1.050717   -7.0539676    202.61495  0.031442419   0.03190297            3 
  538000    1.0243024   -7.0937428     202.8459  0.031419749  0.031886497            4 
  539000    1.0522842   -7.0728534     203.5459  0.031469681  0.031869993            1 
  540000    1.0258542   -7.0254151    203.91572  0.031468475  0.031854023            2 
  541000    1.0408619   -7.0249823    204.05926  0.031432419  0.031838356            3 
  542000    1.0354655   -7.0763555    204.41042  0.031428416  0.031822265            2 
  543000     1.049182   -7.0621506    205.70814  0.031569695  0.031806981            3 
  544000    1.0192945   -7.0571612     205.7923  0.031524556   0.03179206            1 
  545000    1.0312314   -7.0933826    206.07482  0.031509912  0.031777572            6 
  546000     1.034451   -7.0587587     206.5648  0.031526984  0.031762721            2 
  547000    1.0630083   -7.0472415    207.18983  0.031564569   0.03174819            3 
  548000    1.0316607   -7.0570668     206.5044  0.031402736  0.031733442            2 
  549000    1.0337906   -7.0804608    207.41678  0.031484029  0.031718677            4 
  550000    1.0338922   -7.0611218    207.56344  0.031449006  0.031703712            2 
  551000    1.0160191   -7.0467339    208.16865  0.031483462  0.031688696            2 
  552000    1.0443627   -7.1156962    207.97498  0.031397189  0.031673691            3 
  553000    1.0116068   -7.0360277    207.87796  0.031325792   0.03165808            2 
  554000    1.0232296   -7.0749962    207.67793   0.03123916  0.031642446            1 
  555000    1.0221802   -7.0856054    208.52897  0.031310655  0.031626372            3 
  556000    1.0195488   -7.0815443    208.43953  0.031240937  0.031610181            3 
  557000    1.0341711   -7.0723883    208.45238  0.031186772  0.031593751            2 
  558000    1.0586583   -7.0751191    209.51243  0.031289192  0.031578069            4 
  559000    1.0394843   -7.0996398    209.22757  0.031190753  0.031561651            2 
  560000      1.03231   -7.0229023    209.87684  0.031231672   0.03154586            2 
  561000    1.0187706    -7.070965    209.71676  0.031152223  0.031529805            2 
  562000    1.0081587   -7.0585355    210.51989   0.03121588    0.0315135            2 
  563000    1.0187497   -7.0824757    210.40978  0.031144136  0.031497576            3 
  564000    1.0424868   -7.0390315    210.85467  0.031154649  0.031481313            2 
  565000    1.0283932   -7.0652413    211.05908  0.031129657  0.031465551            1 
  566000    1.0446116   -7.0897948    211.83362  0.031188695   0.03144987            3 
  567000    1.0135781   -7.0699677     211.5814  0.031096619  0.031433971            1 
  568000    1.0097064   -7.0434083    211.58885  0.031042966  0.031417854            2 
  569000     1.038957   -7.1031657    211.93328  0.031038852  0.031401691            3 
  570000    1.0096597   -7.1301165    212.36158  0.031047014  0.031385099            3 
  571000    1.0265746   -7.0776458    212.70573  0.031042868  0.031368678            2 
  572000     1.030187   -7.0999228    212.68606  0.030985731  0.031352127            3 
  573000    1.0161349   -7.0677228    213.02467  0.030980901  0.031335292            2 
  574000    1.0295053   -7.0281725    213.87206   0.03104995  0.031318565            2 
  575000    1.0115034   -7.0803407    213.31291  0.030914915  0.031302014            2 
  576000    1.0281582   -7.0615335    214.21647  0.030991966   0.03128533            1 
  577000    1.0295792    -7.062651    214.23029   0.03094025  0.031269303            4 
  578000    1.0088881   -7.0738766    213.51615  0.030783759  0.031252871            2 
  579000    1.0230824   -7.0807772    215.60694  0.031031511  0.031236597            1 
  580000    1.0251347    -7.099596     214.6328  0.030838045  0.031220538            3 
  581000    1.0409695   -7.1100154    214.49116  0.030764652  0.031203578            2 
  582000    1.0400582   -7.0761209    214.98664  0.030782737  0.031186443            1 
  583000    1.0248141    -7.061005    214.52308  0.030663677  0.031169183            3 
  584000     1.017976   -7.0454566    214.88935  0.030663435   0.03115195            1 
  585000    1.0241809   -7.0659651    215.78367  0.030738415  0.031134531            3 
  586000    1.0434965    -7.085232    215.16063  0.030597359  0.031116836            2 
  587000    1.0093595   -7.0945126    215.96653  0.030659644  0.031099466            2 
  588000     1.004883   -7.0820254    215.78065  0.030581157  0.031081813            2 
  589000    1.0379349    -7.073399    216.30485  0.030603403  0.031064194            2 
  590000    1.0174117   -7.0727584    216.52562  0.030582714  0.031046968            4 
  591000    1.0185594   -7.1062751    216.86154  0.030578333  0.031029534            7 
  592000    1.0123131   -7.0889015    217.59955  0.030630567  0.031012137            4 
  593000    1.0292862   -7.0622262    217.65297   0.03058642  0.030995445            2 
  594000    1.0194893   -7.1116453    218.25825  0.030619844  0.030978647            2 
  595000    1.0294686   -7.0509697    218.65859  0.030624452  0.030961815            1 
  596000    1.0247039   -7.0792517    219.03465   0.03062565  0.030945671            2 
  597000   0.99881718   -7.0745901    219.22909  0.030601492  0.030929011            1 
  598000   0.99904908   -7.0895348    219.07004  0.030528155  0.030912143            2 
  599000    1.0039777   -7.1334195    218.88906  0.030452012  0.030895397            3 
  600000    1.0114744   -7.1049917    219.39487   0.03047151  0.030878518            3 
  601000    0.9889105   -7.0943796    220.45395  0.030567657  0.030861754            2 
  602000     1.004001   -7.0944195    220.14146  0.030473625  0.030845043            2 
  603000    1.0191924     -7.11236    219.92843  0.030393646  0.030828278            4 
  604000    1.0139709   -7.1103555    220.36315  0.030403304  0.030811423            2 
  605000    0.9943928   -7.1399514    220.20365  0.030331081  0.030794123            1 
  606000    1.0154613   -7.0944077    220.49608  0.030321243  0.030776516            3 
  607000    1.0057541   -7.1232756    221.22186  0.030370931  0.030759314            2 
  608000    1.0293842    -7.113003    221.65193  0.030379925  0.030742358            3 
  609000   0.99962514   -7.1402356     221.6296  0.030326983  0.030725373            3 
  610000    1.0253326   -7.1525062    222.09382  0.030340685  0.030708496            2 
  611000    1.0198792    -7.129282    222.46094  0.030341099  0.030691659            2 
  612000   0.99325719   -7.1239252    222.90248  0.030351645  0.030675289            1 
  613000     1.003018   -7.1197771    223.40889  0.030370974  0.030658866            1 
  614000    1.0320972   -7.1038994    223.51457  0.030335853  0.030642071            4 
  615000    1.0081485   -7.1064678    223.22851  0.030247765  0.030625277            2 
  616000   0.98675232   -7.1317182     223.2359  0.030199662   0.03060831            3 
  617000    1.0195282    -7.118903     224.1567  0.030275081  0.030591066            4 
  618000    1.0220955   -7.0971671    223.92356  0.030194655  0.030574097            4 
  619000    1.0065079   -7.1345138    223.79879  0.030129077  0.030557213            2 
  620000    1.0084542   -7.1442919    223.86304  0.030089118  0.030539954            4 
  621000    1.0090704   -7.1167985    224.33342  0.030103787  0.030522302            2 
  622000    1.0177526   -7.1171458    223.70188  0.029970777  0.030504516            3 
  623000   0.99269104   -7.1058845    224.77031  0.030065585  0.030486709            1 
  624000   0.99805965   -7.1004382    225.56745  0.030123858   0.03046955            3 
  625000   0.99223985    -7.097614    225.66963  0.030089285  0.030452744            3 
  626000    1.0256415    -7.116738    226.18309   0.03010957  0.030435711            3 
  627000    1.0102038   -7.1319378    225.70082  0.029997451  0.030419012            2 
  628000   0.99959491   -7.0894593    226.29607  0.030028672  0.030402269            1 
  629000    1.0326417   -7.1347157    226.10995  0.029956274  0.030385168            3 
  630000   0.99593868   -7.0955378    227.37871  0.030076549  0.030368407            2 
  631000    0.9876764   -7.1795764    227.42826  0.030035428  0.030352042            2 
  632000   0.99615656   -7.0956071    227.93566  0.030054808  0.030335726            2 
  633000    1.0234249   -7.1312232    227.04866  0.029890556  0.030319024            2 
  634000    1.0321619   -7.1372441    227.86438  0.029950628  0.030302482            1 
  635000   0.99313417   -7.0913639    229.12889  0.030069408  0.030286103            3 
  636000   0.99900873   -7.1313701    228.76505  0.029974456  0.030269673            1 
  637000    1.0057252   -7.1286386    229.44811  0.030016759  0.030253276            1 
  638000   0.98502552   -7.1272275    229.56808  0.029985381  0.030237269            1 
  639000   0.98873608   -7.1454459    230.20809  0.030021921  0.030221107            3 
  640000    1.0190822   -7.1518465    229.97246   0.02994433  0.030204743            3 
  641000    1.0009818    -7.118908    230.29685  0.029939789  0.030188793            3 
  642000    1.0114243   -7.1057034    231.07159  0.029993717  0.030173187            4 
  643000   0.97996694   -7.1196037    230.80459  0.029912466   0.03015691            8 
  644000   0.98791838   -7.1209578    231.33366   0.02993448  0.030140863            1 
  645000   0.99349751   -7.1691642    230.94878  0.029838343  0.030124975            2 
  646000    1.0102022   -7.1350435    231.29129  0.029836337  0.030108883            2 
  647000    1.0017709    -7.122875    231.48427  0.029815079   0.03009321            2 
  648000    1.0290927   -7.1338653    232.36773  0.029882681  0.030077342            3 
  649000   0.98761662   -7.1028519    232.53333  0.029857901  0.030061395            2 
  650000   0.94308625   -7.1387532    232.06332  0.029751707   0.03004522            2 
  651000    1.0187605   -7.1298705    232.28693   0.02973463   0.03002867            3 
  652000    1.0074227    -7.151401    232.00509  0.029653003  0.030012139            5 
  653000   0.98637818   -7.1414586    232.44449  0.029663666  0.029995501            2 
  654000    1.0254976   -7.1571495    231.79587  0.029535661  0.029978898            2 
  655000   0.99459203   -7.1257255    233.56843  0.029716086  0.029962562            2 
  656000   0.99499876   -7.1825093    233.36881  0.029645428  0.029945778            3 
  657000    1.0082286   -7.1399498    232.85682  0.029535366  0.029928944            2 
  658000   0.97644246   -7.1760612    232.85572   0.02949034  0.029912092            5 
  659000    1.0105707   -7.1565792    232.88352  0.029449105  0.029894966            2 
  660000    1.0007538    -7.118888    234.55522  0.029615558  0.029878237            2 
  661000   0.98359255   -7.1277736    234.61319  0.029578062  0.029861875            4 
  662000    1.0024019   -7.1661676    234.99756  0.029581768  0.029845543            3 
  663000   0.99973123   -7.1275887    235.00469  0.029538046  0.029829285            3 
  664000    1.0014001   -7.1665621    235.27805  0.029527868    0.0298128            2 
  665000   0.97852666   -7.1423611    236.48391  0.029634575  0.029796759            2 
  666000    1.0053143   -7.1264603    236.51836  0.029594389  0.029780776            2 
  667000   0.98812999   -7.1517701    235.76656  0.029456092  0.029765009            3 
  668000   0.98254097    -7.190382     236.4366  0.029495584  0.029749043            3 
  669000   0.98433215   -7.1269082    237.31343  0.029560717  0.029733029            3 
  670000   0.97747182   -7.1607667    237.51097  0.029541165  0.029717023            1 
  671000   0.98217024   -7.1472048    236.79451   0.02940816  0.029700653            5 
  672000   0.98646251   -7.1688834    237.10338  0.029402701  0.029684148            4 
  673000   0.99107533   -7.1557948    237.34284  0.029388663  0.029667678            2 
  674000   0.97708644   -7.1376827    238.04022  0.029431284  0.029651218            3 
  675000    0.9692164    -7.137225    238.24371  0.029412804  0.029634857            3 
  676000   0.99001841   -7.1548962    238.41699  0.029390654  0.029618875            1 
  677000   0.98055176   -7.1495765    238.81403  0.029396114  0.029602725            3 
  678000   0.98826535   -7.1598581    238.80549  0.029351708  0.029586463            2 
  679000    0.9809414   -7.1650677    238.68632  0.029293853  0.029570278            2 
  680000   0.98456495   -7.2054203    238.76317  0.029260192  0.029553657            2 
  681000   0.99316538   -7.1702867    238.94216  0.029239129  0.029536983            1 
  682000   0.97716527   -7.2216339    238.97879  0.029200732   0.02952043            1 
  683000   0.98543912   -7.1824365    239.06535   0.02916854  0.029504085            1 
  684000     1.000812   -7.1843539    239.78664  0.029213772  0.029487774            4 
  685000   0.98733621   -7.1808916    239.95096  0.029191114  0.029471152            3 
  686000   0.98549054   -7.1469242    240.26421  0.029186614  0.029454811            3 
  687000   0.95322509   -7.1798251    240.57445  0.029181762  0.029438452            2 
  688000   0.97107549   -7.1832829     240.2254  0.029097069  0.029422153            2 
  689000   0.99009108   -7.1754288    240.49786  0.029087792  0.029405999            2 
  690000   0.98858664    -7.222163     240.8778  0.029091522  0.029389421            3 
  691000    0.9603917   -7.1590986    241.62946   0.02914007  0.029373084            4 
  692000   0.97792778   -7.1706807    240.98992  0.029020944  0.029356634            4 
  693000   0.96336869   -7.1776225    241.94466  0.029093875  0.029340235            3 
  694000   0.98187524   -7.2100295    241.38566   0.02898483  0.029323745            3 
  695000   0.95815348   -7.1460794    242.97572  0.029133779  0.029307514            2 
  696000    0.9656174   -7.1908069    242.75765  0.029065811  0.029291482            5 
  697000   0.98279623     -7.16641    243.55352  0.029119264  0.029275384            4 
  698000     0.976846   -7.1595504     243.1161  0.029025322  0.029259344            4 
  699000   0.97160732   -7.1871104    243.61452  0.029043219  0.029243158            4 
  700000    0.9783979   -7.1973022    243.14807  0.028946199  0.029227003            4 
  701000   0.97727403   -7.1961157    243.36185   0.02893032  0.029210825            2 
  702000   0.96943872   -7.2052482    243.30491  0.028882349  0.029194627            3 
  703000   0.99797029   -7.2073438    243.94628  0.028917293   0.02917809            3 
  704000   0.97317435    -7.180133    244.30635  0.028918839  0.029161599            4 
  705000   0.98042353   -7.1629553    245.07436    0.0289686  0.029145452            1 
  706000   0.96058611   -7.2082082    244.63873  0.028876148  0.029129159            3 
  707000   0.96795636    -7.212619    244.49174  0.028817979  0.029112438            3 
  708000   0.98945167   -7.1862534    244.65914   0.02879698  0.029095767            2 
  709000    0.9482207   -7.1812135    244.78958  0.028771695  0.029079009            1 
  710000   0.97129136   -7.1753068    244.48322  0.028695214  0.029061927            2 
  711000   0.97502425   -7.2031187    244.44787  0.028650712  0.029044506            4 
  712000   0.96636925   -7.1771718    244.70522  0.028640593  0.029027291            2 
  713000   0.96443277   -7.2116913    245.49104  0.028692267  0.029010034            2 
  714000    0.9833879   -7.1875834    245.07197  0.028603171  0.028992526            3 
  715000   0.97005631   -7.2220794     245.5592  0.028619954  0.028974851            2 
  716000    0.9679537   -7.2320214    244.91662  0.028505193   0.02895716            2 
  717000   0.96595371   -7.2357203    245.64855  0.028550506  0.028939457            4 
  718000   0.94958183   -7.1915809    247.07568  0.028676379  0.028922032            2 
  719000   0.96961202   -7.2227769    245.84169  0.028493474  0.028904751            1 
  720000   0.96081638   -7.2040283    246.57798  0.028539118  0.028887585            2 
  721000   0.96601587   -7.1747073    246.90307   0.02853711  0.028870068            3 
  722000   0.97385602    -7.192816    247.40088  0.028555041  0.028852744            2 
  723000   0.95244949   -7.2115951    246.42542  0.028403114  0.028835371            5 
  724000   0.95261657   -7.2333848    246.69919  0.028395394  0.028817646            2 
  725000   0.96112855   -7.2228238    247.58246  0.028457754  0.028800205            2 
  726000   0.96179516   -7.2209427    247.19105  0.028373628  0.028782799            5 
  727000      0.96958   -7.2197408    248.04568  0.028432563   0.02876531            5 
  728000    0.9416242    -7.210943    248.26577  0.028418701  0.028747895            2 
  729000   0.97267098   -7.2224332    247.89552  0.028337394  0.028730219            3 
  730000   0.96704645   -7.1947263    247.86138  0.028294678  0.028712365            4 
  731000   0.95301277   -7.1926775    249.25782  0.028415164  0.028694812            2 
  732000   0.95680626   -7.2012364     247.9672  0.028229417   0.02867699            2 
  733000   0.96705268   -7.2015815    248.44673  0.028245421  0.028659096            3 
  734000   0.94993609   -7.2159777    249.06566  0.028277209  0.028640972            4 
  735000   0.95250224    -7.250417    248.39982  0.028163244  0.028622603            2 
  736000   0.95169236   -7.2262479    248.64994  0.028153299   0.02860417            3 
  737000    0.9709442   -7.2038425    248.33466   0.02807945  0.028585821            3 
  738000   0.97948698     -7.21358    249.63226  0.028187924  0.028567525            2 
  739000   0.95886013   -7.2014695    249.67169  0.028154228  0.028549444            4 
  740000   0.96078413   -7.2223175    250.19496  0.028175109  0.028531684            2 
  741000   0.96055783   -7.2286498    250.01759  0.028117138  0.028513865            3 
  742000   0.96381689   -7.2353107    250.16966  0.028096323  0.028496179            4 
  743000   0.94585119   -7.2374179    249.95458  0.028034386  0.028478452            5 
  744000   0.95917686   -7.2467015     250.3713   0.02804338  0.028460326            2 
  745000   0.97498885   -7.2356883    250.36075  0.028004558   0.02844213            2 
  746000   0.96410761   -7.2525705    251.39123   0.02808213  0.028424234            2 
  747000   0.97523124   -7.2234972    251.69687  0.028078634  0.028406545            4 
  748000   0.97096633   -7.2191711    251.54851  0.028024567  0.028388868            3 
  749000   0.94349471   -7.2537931    251.42308  0.027973196  0.028370927            5 
  750000   0.94968088   -7.2297087    251.78237  0.027975819  0.028353048            1 
  751000   0.96971782    -7.196543    251.67667  0.027926838  0.028334974            2 
  752000   0.97120482   -7.2258917    252.25639  0.027953943   0.02831668            2 
  753000   0.95691574   -7.2355372     252.1351  0.027903398  0.028298426            3 
  754000   0.96396511   -7.2397869    251.96944  0.027848082  0.028280399            2 
  755000   0.95345696   -7.2344522    251.91328  0.027804998  0.028262282            2 
  756000   0.94924928   -7.2378074     251.9763  0.027775166  0.028243988            1 
  757000   0.96998145   -7.2627569    252.46873  0.027792682  0.028225784            2 
  758000   0.95085586   -7.2358807    252.95812  0.027809819  0.028207593            2 
  759000   0.95408141   -7.2530861    253.12379  0.027791369   0.02818944            3 
  760000   0.94039898   -7.2185845    252.97243  0.027738205  0.028171277            2 
  761000   0.95978707   -7.2334913    253.09758   0.02771546  0.028153201            1 
  762000    0.9513679   -7.2150989     254.0336  0.027781452  0.028135034            3 
  763000   0.93615862   -7.2552073    253.91965  0.027732596  0.028117045            4 
  764000   0.94835963   -7.2529521    253.92543  0.027696927   0.02809899            2 
  765000   0.93471684   -7.2499231    253.65672   0.02763145  0.028080996            2 
  766000   0.93769459    -7.206855    254.50037  0.027687159  0.028062862            3 
  767000   0.94858373   -7.2405208    255.09626  0.027715804  0.028044875            4 
  768000    0.9440912   -7.1988866    254.73112  0.027640096  0.028026919            2 
  769000   0.96414599   -7.2565878    254.40402  0.027568706  0.028008916            2 
  770000    0.9506662   -7.2277915    255.08644  0.027606757  0.027990936            2 
  771000   0.94593694    -7.249729     255.1684   0.02757981  0.027972939            3 
  772000   0.95913135   -7.2286211    255.31943  0.027560387  0.027954906            5 
  773000   0.96758347   -7.3089624    255.65275  0.027560667  0.027937015            5 
  774000   0.92935718   -7.2418524     255.6452  0.027524246  0.027919204            2 
  775000   0.95376365   -7.2511722    256.09153  0.027536724  0.027901502            2 
  776000    0.9371778    -7.243707    256.66565  0.027562892  0.027883811            3 
  777000   0.92893777   -7.2652236    256.15538  0.027472692  0.027865922            8 
  778000   0.93658033    -7.258613    256.44295  0.027468182  0.027848125            2 
  779000   0.94203069   -7.2724404    256.51407  0.027440529  0.027830326            2 
  780000   0.96848529   -7.2187029    256.75402  0.027430986  0.027812449            1 
  781000   0.93290853   -7.2829833    256.22766  0.027339699  0.027794373            3 
  782000    0.9331505   -7.2508245     257.0839  0.027395982  0.027776433            2 
  783000   0.93472478   -7.2348469    257.13096  0.027366002  0.027758453            1 
  784000   0.92311191   -7.2755239    257.45532  0.027365574  0.027740344            2 
  785000   0.96742698   -7.2630365    258.29092  0.027419418  0.027722532            8 
  786000   0.94363732   -7.2169765    258.74606  0.027432789  0.027704761            3 
  787000   0.93628716   -7.2896228    257.90487  0.027308859  0.027687035            3 
  788000   0.91948096   -7.2727717    257.73273  0.027255999  0.027669317            4 
  789000   0.93825502   -7.2735527     258.5941  0.027312431  0.027651575            1 
  790000   0.95443124   -7.2641938    259.39679  0.027362531  0.027634042            2 
  791000   0.94899064   -7.2715862    258.67005  0.027251374  0.027616541            2 
  792000   0.93353921   -7.2873969     259.1478  0.027267235   0.02759881            2 
  793000    0.9389763   -7.2816622    259.22582  0.027241049  0.027580791            2 
  794000   0.92622053   -7.2766214     258.7125  0.027152865  0.027563057            4 
  795000   0.92656894   -7.2983706    259.10464  0.027159816  0.027545078            3 
  796000   0.92964192   -7.2639949    259.09026   0.02712419  0.027527089            2 
  797000   0.94543596   -7.2619222    259.20553   0.02710221  0.027509135            3 
  798000   0.92367676   -7.2932848    259.15867  0.027063354  0.027490693            2 
  799000   0.93612162   -7.2688749    258.94518  0.027007215  0.027472231            2 
  800000    0.9174873   -7.3017253     259.4417  0.027025177  0.027453872            2 
  801000   0.92208622    -7.289449    259.22996  0.026969409  0.027435442            2 
  802000   0.93796443    -7.251598    259.17292  0.026929854  0.027416979            1 
  803000   0.92801103   -7.2506959    260.63403  0.027047949  0.027398476            2 
  804000   0.92964039   -7.2683671    259.97093  0.026945577   0.02738017            4 
  805000   0.92870427   -7.2511503    260.64116  0.026981487  0.027361868            3 
  806000   0.93289313   -7.2897977    260.80039  0.026964473  0.027343513            1 
  807000   0.93190277   -7.3096946       260.27  0.026876291  0.027325293            3 
  808000   0.92667229   -7.2805718    260.82236  0.026899996  0.027307054            3 
  809000   0.93803221   -7.2535121    261.57596  0.026944372  0.027289009            4 
  810000   0.94189567   -7.2752559    260.57196  0.026807814  0.027270954            4 
  811000   0.92832538    -7.312238    261.04106  0.026822961  0.027252528            2 
  812000   0.91608437   -7.2470963    262.14201  0.026902916  0.027234294            2 
  813000     0.940936   -7.2758791    261.99003  0.026854247   0.02721611            3 
  814000   0.92750291   -7.2877051    262.25173  0.026848047  0.027197976            3 
  815000   0.91547135   -7.2650469    262.43552  0.026833898  0.027179782            3 
  816000   0.93292909   -7.3080291    262.31442  0.026788646  0.027161645            1 
  817000   0.92248356   -7.2511644    263.43379  0.026870031  0.027143671            3 
  818000   0.91698454   -7.2995184    262.60021  0.026752263  0.027125545            3 
  819000   0.91637603   -7.2632588     262.9666  0.026756878  0.027107358            4 
  820000   0.93138929   -7.2988221    263.05419  0.026733149  0.027089182            1 
  821000   0.93110602   -7.3014601    263.49248  0.026745075  0.027071079            1 
  822000   0.91947629    -7.252151    263.07309  0.026670022  0.027053067            3 
  823000   0.92303668   -7.3282388    262.54217  0.026583857  0.027034758            1 
  824000   0.91434442   -7.2749971    263.81636  0.026680458  0.027016525            2 
  825000   0.91080068   -7.2965247    263.44282  0.026610386   0.02699824            2 
  826000   0.92932992    -7.312358    263.37952  0.026571783  0.026979947            3 
  827000   0.91071886   -7.3138941    263.12458  0.026513964  0.026961608            2 
  828000   0.93483357   -7.2768957    264.03236  0.026573305  0.026943658            3 
  829000   0.92504728   -7.3107484    264.03616  0.026541633  0.026925752            2 
  830000   0.93332162   -7.3053565    264.61896  0.026568169  0.026907721            3 
  831000   0.90165283    -7.319766     264.1173  0.026485891  0.026889654            4 
  832000   0.92427145   -7.3010685    264.62786  0.026505194  0.026871705            3 
  833000   0.92234093   -7.2912753    265.33295  0.026543912  0.026853827            2 
  834000   0.91678665   -7.3184592    264.97053  0.026475873  0.026835817            1 
  835000   0.93889915   -7.2969751    265.33558  0.026480596   0.02681803            2 
  836000   0.92666565   -7.2878999    265.64354  0.026479619  0.026800126            2 
  837000   0.90270091   -7.3043802    265.84494  0.026468035  0.026782363            1 
  838000   0.90932854   -7.2845647    265.32255  0.026384502  0.026764486            4 
  839000    0.9142721   -7.3006085    266.35856  0.026455956  0.026746766            3 
  840000   0.91021022   -7.2952367    266.24027  0.026412725  0.026728996            4 
  841000   0.91286579   -7.3327508    266.59545  0.026416513  0.026711143            9 
  842000   0.93101614   -7.3205535    266.39387  0.026365189  0.026692972            4 
  843000   0.91781283   -7.2963355    266.06194  0.026301102  0.026674846            6 
  844000   0.89629614   -7.3250697     266.5355  0.026316697  0.026656707            5 
  845000   0.90578824   -7.3361441    266.30815  0.026263131  0.026638618            2 
  846000    0.9158773   -7.3051041     266.6778  0.026268499  0.026620681            4 
  847000   0.90367469   -7.3286328      267.213  0.026290141  0.026602753            6 
  848000     0.905772   -7.3145124    267.23517  0.026261317  0.026584718            3 
  849000   0.92955958   -7.2962039    267.72026  0.026277999  0.026566798            5 
  850000   0.90769835   -7.3219483    267.76814  0.026251778  0.026548696            4 
  851000   0.92605103   -7.3311792     266.8298  0.026129045  0.026530563            4 
  852000   0.91668295    -7.338947     266.5344  0.026069484  0.026512089            3 
  853000   0.92026466   -7.2766899    266.88245  0.026072924  0.026493863            1 
  854000   0.92291934    -7.318175    267.79004  0.026130957  0.026475533            3 
  855000   0.92272141   -7.3064805     267.3211  0.026054688  0.026457265            1 
  856000   0.91083423   -7.3254282    268.42525  0.026131742  0.026439014            2 
  857000   0.93516046   -7.3124933    268.09967  0.026069591  0.026420769            4 
  858000    0.9059364   -7.3192784    268.42458  0.026070764  0.026402456            2 
  859000    0.9147234    -7.331351    268.44125   0.02604203  0.026384251            3 
  860000   0.89847295    -7.294683    269.21406  0.026086634    0.0263663            3 
  861000   0.92268155   -7.3360935    269.37992  0.026072388  0.026348289            1 
  862000   0.91611384   -7.3287383    269.41614  0.026045644  0.026330084            2 
  863000    0.9162284   -7.3471899    268.85602  0.025961377  0.026312134            2 
  864000   0.91919281   -7.3171278    269.96205  0.026038006   0.02629423            1 
  865000   0.90076612   -7.3443033    269.11609  0.025926406  0.026276267            3 
  866000    0.9173729   -7.3648515    269.41416   0.02592515  0.026258332            2 
  867000   0.91120062   -7.3064385    270.14384  0.025965383  0.026240414            2 
  868000   0.89780424   -7.3373875    269.51789  0.025875373  0.026222398            5 
  869000   0.89391221   -7.3049323    269.42449  0.025836641  0.026204193            2 
  870000   0.89252303   -7.3460202    269.36882  0.025801611  0.026185878            3 
  871000   0.90646769   -7.3237803     269.0272  0.025739304  0.026167475            2 
  872000   0.91872014    -7.322065    270.06657  0.025809114  0.026149126            3 
  873000   0.90120177   -7.3288865    269.72363  0.025746815  0.026130669            2 
  874000   0.90826013   -7.3536737    269.41981  0.025688388  0.026112012            3 
  875000   0.89061237   -7.3282792    270.34149  0.025746809  0.026093355            4 
  876000   0.90778856   -7.3258496    270.81224  0.025762199  0.026074925            2 
  877000   0.89731908   -7.3925391    270.32915  0.025686921  0.026056616            6 
  878000   0.89428857   -7.3300893    270.95612  0.025717172  0.026038269            3 
  879000   0.89850039    -7.329799    270.45344  0.025640258  0.026019788            5 
  880000   0.90539816    -7.344093    271.08353  0.025670789  0.026001297            5 
  881000   0.91619124   -7.3501714    270.48944  0.025585456  0.025982879            2 
  882000   0.89060112   -7.3752927    271.08099  0.025612338  0.025964474            3 
  883000   0.90606067   -7.3460082    271.14837  0.025589691  0.025946162            4 
  884000   0.90478595    -7.360459    271.87293  0.025629047  0.025927921            2 
  885000   0.91596177   -7.3707508    271.31341  0.025547402  0.025909817            2 
  886000   0.89758946     -7.35895    272.29923   0.02561129  0.025891735            3 
  887000   0.89983669   -7.3332792    273.12027  0.025659552  0.025873808            3 
  888000   0.90073783   -7.3723815    272.77168  0.025597943  0.025855849            3 
  889000   0.89681956   -7.3452668    272.62543   0.02555544  0.025838002            2 
  890000   0.89728888   -7.3070296     272.3688  0.025502696  0.025820166            3 
  891000   0.88031072   -7.3444328      273.189  0.025550786  0.025802293            2 
  892000    0.8887922    -7.316141     272.4399  0.025452158  0.025784412            1 
  893000   0.88678195   -7.3685606    272.33332  0.025413711  0.025766413            2 
  894000   0.87401055   -7.3757789    272.22369  0.025375064  0.025748327            8 
  895000    0.8895947   -7.3757329    272.86391  0.025406323  0.025730161            3 
  896000     0.876347   -7.3580982    273.24873  0.025413758  0.025712008            3 
  897000   0.88455415   -7.3672612    272.50285  0.025316133   0.02569396            3 
  898000   0.88960669   -7.3387282    273.38386  0.025369698  0.025675908            2 
  899000   0.88913985   -7.3538833    273.54531  0.025356443  0.025657957            5 
  900000   0.88859532   -7.3730531    273.06904  0.025284171  0.025639824            2 
  901000   0.90083428    -7.376384    273.25201  0.025273031  0.025621689            3 
  902000     0.893948   -7.3822117     273.6414  0.025280987  0.025603378            2 
  903000   0.90336347     -7.37396    274.31954  0.025315572  0.025585237            3 
  904000   0.88758297   -7.3940153    273.21297  0.025185561   0.02556699            2 
  905000   0.89951595   -7.3892894    273.33645  0.025169102   0.02554863            4 
  906000   0.90137244   -7.3913354    273.44734  0.025151521  0.025530298            1 
  907000   0.91397533   -7.3563755    274.60476  0.025230132  0.025512043            3 
  908000   0.89484747   -7.3696439    273.88014  0.025135842  0.025493907            4 
  909000   0.87337194   -7.3766059    274.34691  0.025150982  0.025475748            2 
  910000   0.88464063   -7.4023021    275.02284  0.025185242  0.025457561            3 
  911000   0.89594015   -7.4015394    274.84634  0.025141451  0.025439569            4 
  912000   0.88026876   -7.3856244    275.24921  0.025150695  0.025421405            3 
  913000   0.89073141   -7.3850072    274.06201  0.025014788  0.025403097            2 
  914000   0.89652818   -7.3997788    274.56769  0.025033524  0.025384602            3 
  915000   0.88850953    -7.341794     274.8383   0.02503081  0.025366292            2 
  916000   0.89930964   -7.3673927    274.06958   0.02493355  0.025347859            3 
  917000   0.88574134   -7.3644878    274.90042  0.024981863  0.025329421            5 
  918000   0.89202857   -7.3803817    274.71685  0.024937986  0.025310816            4 
  919000   0.88013118   -7.3538079    274.93364  0.024930508  0.025292255            2 
  920000   0.91140371   -7.3796351    275.80032  0.024981913  0.025273808            1 
  921000   0.87206232   -7.3813192    275.48406  0.024926173  0.025255387            3 
  922000   0.90938428   -7.3558083    276.04374  0.024949723  0.025237166            4 
  923000   0.86802689   -7.3850373    276.16163  0.024933336  0.025219022            4 
  924000   0.88318779    -7.411289     275.2767  0.024826542  0.025200659            4 
  925000   0.88364003   -7.3864512    276.49672  0.024909614  0.025182256            4 
  926000   0.87535647    -7.361742     276.3242  0.024867189  0.025163895            4 
  927000   0.87695169   -7.4014719    275.72038  0.024786082  0.025145525            3 
  928000   0.89175331   -7.4081867    276.51066   0.02483034  0.025127179            7 
  929000   0.86567977   -7.4061565    276.47643  0.024800541  0.025108959            3 
  930000   0.87048016    -7.394526    276.32364  0.024760183  0.025090769            2 
  931000   0.87731048   -7.4101102     276.4826  0.024747816  0.025072613            4 
  932000   0.88073799   -7.4122309     276.7493  0.024745109  0.025054506            2 
  933000   0.90180886    -7.369176    276.49655  0.024696012  0.025036309            2 
  934000   0.86826502   -7.3770007     276.4266   0.02466333  0.025018039            4 
  935000   0.85954894   -7.4098072    276.98919  0.024687093  0.024999968            4 
  936000   0.88498578    -7.417894    277.45776  0.024702436  0.024981799            4 
  937000   0.88213024   -7.4247273    276.60777  0.024600477  0.024963516            7 
  938000   0.88918249   -7.3902739    277.37593  0.024642496  0.024945337            4 
  939000   0.86388442   -7.3978941    277.39631  0.024618061  0.024927029            2 
  940000   0.87159381   -7.4036616    277.28552   0.02458205  0.024908925            2 
  941000   0.87170947   -7.3938843    277.07316   0.02453712  0.024890661            5 
  942000   0.89303416    -7.402494    277.85256  0.024580021   0.02487246            2 
  943000   0.87936955   -7.4156196    277.82833  0.024551814  0.024854321            3 
  944000   0.88906921   -7.3892206    278.21036  0.024559531  0.024836175            2 
  945000   0.88666314   -7.4175086    278.34148  0.024545104  0.024817978            2 
  946000   0.90206154   -7.4023029     278.2852    0.0245142  0.024799808            2 
  947000   0.86544747   -7.4201376    278.19375  0.024480267  0.024781655            3 
  948000   0.89196834   -7.4210569    278.34753  0.024467961  0.024763541            2 
  949000   0.87931142    -7.423943    279.12609  0.024510545   0.02474553            4 
  950000   0.86329849   -7.4069625    278.33614  0.024415451  0.024727438            3 
  951000   0.89864048   -7.4081233    279.41019  0.024483894  0.024709408            3 
  952000   0.88022887   -7.3985575    278.49772  0.024378302  0.024691426            3 
  953000   0.87550841   -7.4088694    278.95699  0.024392881  0.024673354            2 
  954000   0.87472104   -7.4093741    278.89467  0.024361869  0.024655289            2 
  955000   0.87889028   -7.4493529     278.8462  0.024332129  0.024637235            2 
  956000   0.86173063   -7.4243709    279.59011  0.024371523  0.024619348            3 
  957000   0.86543774   -7.3986708    280.93595  0.024463249  0.024601678            3 
  958000   0.86768917     -7.39817    280.60595  0.024409008  0.024584043            4 
  959000   0.87068445   -7.4119071    279.88459  0.024320872  0.024566299            6 
  960000   0.86403054   -7.4523854    280.45118   0.02434472  0.024548607            2 
  961000   0.86403178   -7.4059816    279.88277  0.024270098  0.024530969            3 
  962000    0.8616876   -7.4402651    280.73435  0.024318637  0.024513306            3 
  963000   0.87109949    -7.450093    281.53277  0.024362476  0.024495617            2 
  964000    0.8711501   -7.4377683    280.94338  0.024286254  0.024478072            2 
  965000   0.87260393   -7.4213726    280.97774  0.024264053   0.02446041            3 
  966000   0.86590022   -7.4460536    281.55674  0.024288884   0.02444273            2 
  967000   0.87411523   -7.4293539    280.88366  0.024205762  0.024425109            2 
  968000   0.85320405   -7.4624457    281.00018  0.024190787  0.024407332            2 
  969000   0.87131644   -7.4326163    281.75498  0.024230734  0.024389624            5 
  970000   0.86279789     -7.40608    281.53561  0.024186908  0.024372029            4 
  971000   0.87420335   -7.3909774    281.68539  0.024174853  0.024354492            3 
  972000   0.84882864   -7.4522553    281.10525  0.024100244  0.024336869            2 
  973000   0.86411312    -7.441136    281.89562  0.024143167  0.024319033            2 
  974000   0.87022562   -7.4229287    281.18317  0.024057423  0.024301254            7 
  975000   0.86366165   -7.4246385    280.71746  0.023992946  0.024283412            2 
  976000   0.88215594   -7.4018806    282.49031  0.024119733  0.024265725           10 
  977000   0.87385935   -7.3867849     282.2983  0.024078668  0.024248065            3 
  978000   0.86802426   -7.4318583    282.15214  0.024041593   0.02423044            1 
  979000   0.87604156   -7.4035357    283.22889   0.02410869  0.024212855           11 
  980000   0.86521985     -7.42478    282.71845  0.024040684  0.024195335            7 
  981000   0.86634229   -7.4132938    282.27379  0.023978406   0.02417787            4 
  982000   0.86721222   -7.4355798    282.14702   0.02394323  0.024160439            3 
  983000   0.85126572   -7.4309337    282.55011  0.023953044   0.02414271            2 
  984000   0.86470466   -7.4338774    282.52716  0.023926758  0.024124948            2 
  985000   0.87164218   -7.4299396     282.9519  0.023938401  0.024107434            6 
  986000   0.87392135   -7.4594859    283.57471   0.02396676  0.024089817            3 
  987000   0.86886201   -7.4293309    283.66151  0.023949807  0.024072204            8 
  988000   0.85882932   -7.4579495    282.78895   0.02385197  0.024054539            3 
  989000   0.86327554   -7.4402064    283.11665  0.023855464  0.024036966            1 
  990000   0.86929533   -7.4163353    283.46638  0.023860806  0.024019336            3 
  991000    0.8533918   -7.4639979    282.81823  0.023782226  0.024001587            3 
  992000   0.85789687   -7.4409023    282.26979   0.02371218  0.023983779            3 
  993000   0.85533562   -7.4395232    283.71163  0.023809301  0.023966019            2 
  994000   0.87167945   -7.4680227    282.86978  0.023714771  0.023948258            2 
  995000   0.86008634   -7.4091266    283.06255  0.023707081  0.023930635            2 
  996000   0.87082747   -7.4519956    282.71125  0.023653887  0.023912968            4 
  997000   0.87932616   -7.4390339    283.61188   0.02370544  0.023895283            2 
  998000   0.82803374   -7.4696959    283.04123  0.023634038  0.023877544            3 
  999000   0.86059011   -7.4614067    283.63636  0.023660024  0.023859745            2 
 1000000   0.86413337   -7.4673698     282.6337  0.023552808  0.023841833            4 
 1001000   0.85211471   -7.4305902    284.06595  0.023648514  0.023824122            4 
 1002000   0.85026087   -7.4570629    283.58269  0.023584721  0.023806479            5 
 1003000   0.83974276   -7.4462522    284.14805   0.02360818  0.023788798            3 
 1004000   0.86315083    -7.479257    283.23263  0.023508685   0.02377097            5 
 1005000   0.85098408   -7.4262058    284.45352  0.023586527  0.023753232            3 
 1006000   0.83848249    -7.438261     283.8988  0.023517131  0.023735598            2 
 1007000   0.85759625   -7.4869686    283.76832  0.023482979  0.023717843            2 
 1008000   0.83624008   -7.4698825    284.31611   0.02350497  0.023700137            2 
 1009000    0.8358619   -7.4762328    283.84835  0.023443042   0.02368243            4 
 1010000   0.84708333   -7.4579387     285.2419   0.02353481  0.023664748            7 
 1011000    0.8697027   -7.4316781    285.29897  0.023516236  0.023647305            2 
 1012000    0.8576065   -7.4566008    285.73814  0.023529162  0.023629989            2 
 1013000    0.8521539   -7.4606911    285.69577  0.023502449   0.02361257            3 
 1014000   0.85461541   -7.4654356     284.8601  0.023410593  0.023595082            4 
 1015000   0.85361277    -7.473777     284.9598  0.023395715  0.023577563            1 
 1016000   0.84693488   -7.4657464      284.022  0.023295768  0.023559917            2 
 1017000   0.84223125   -7.4470876     284.9947  0.023352564  0.023542305            2 
 1018000   0.83500343   -7.4677955    285.51566  0.023372271  0.023524713            3 
 1019000   0.85998705   -7.4844381    284.94699  0.023302829  0.023507122            4 
 1020000   0.87887722   -7.4836884    285.95891  0.023362656  0.023489568            3 
 1021000   0.85247681    -7.463491    286.06255  0.023348233  0.023472079            3 
 1022000   0.83785904   -7.4549531    285.34879  0.023267188  0.023454583            5 
 1023000   0.82091385   -7.4728847    285.28511  0.023239256  0.023437098            4 
 1024000   0.84695198   -7.4682991    285.53407  0.023236822    0.0234197            3 
 1025000   0.84398069   -7.4668433    286.16235  0.023265232  0.023402194            3 
 1026000   0.87091079   -7.4461561    286.39593  0.023261528  0.023384773            5 
 1027000   0.86009535   -7.4556012    286.39571   0.02323886  0.023367336            2 
 1028000   0.85125025   -7.4743879    286.01236  0.023185179  0.023349974            3 
 1029000   0.81281001   -7.4633767    286.81441    0.0232276  0.023332518            2 
 1030000   0.82394674    -7.466164    286.68085  0.023194244  0.023315078            5 
 1031000   0.83922536   -7.4625278    286.70104  0.023173378   0.02329751            3 
 1032000   0.81516757    -7.473678    286.12594  0.023104485  0.023280064            4 
 1033000   0.84493386   -7.4993084    285.88524  0.023062701   0.02326247            5 
 1034000   0.82936057   -7.4591479    286.75764  0.023110706  0.023244995            3 
 1035000   0.83722849   -7.4833878    286.47835   0.02306589  0.023227713            2 
 1036000    0.8411648   -7.4758165    287.55096  0.023129904  0.023210405            8 
 1037000   0.83832572   -7.4757115     287.4786  0.023101784  0.023193118            3 
 1038000   0.84764816   -7.4740053    287.66398  0.023094411  0.023175842            2 
 1039000   0.81602791   -7.4962895     287.8735  0.023088988  0.023158566            3 
 1040000   0.82356139   -7.5099439    287.56648  0.023042186  0.023141263            4 
 1041000   0.83284143   -7.4822761    287.77448  0.023036702  0.023124083            4 
 1042000   0.82870551   -7.4989582    288.03706  0.023035594   0.02310685            5 
 1043000   0.84944393   -7.4975849    288.06469  0.023015715  0.023089635            5 
 1044000   0.84480683   -7.5001409    287.60109  0.022956664  0.023072542            2 
 1045000   0.85639837   -7.5096054    288.26109  0.022987327  0.023055529            2 
 1046000   0.84092095   -7.5061064    287.62672  0.022914812  0.023038444            2 
 1047000   0.83434319   -7.5161192    288.25776  0.022943152  0.023021401            2 
 1048000   0.86480945   -7.5038758    288.16276  0.022913705  0.023004315            4 
 1049000   0.85450339   -7.5064585    288.43878  0.022913789  0.022987268            4 
 1050000   0.84063251   -7.4854769    288.74722  0.022916446  0.022970314            3 
 1051000   0.83027489   -7.4869885    289.07858  0.022920915   0.02295349            6 
 1052000   0.84851076   -7.5007895    289.09921  0.022900762  0.022936701            3 
 1053000   0.84254582   -7.5170246     289.0658  0.022876369  0.022919898            5 
 1054000   0.83368377   -7.5071841    289.17978  0.022863676  0.022903058            4 
 1055000   0.84273708   -7.4751662     289.7584   0.02288771  0.022886352            2 
 1056000   0.85201726   -7.5336802    289.18566  0.022820838  0.022869668            3 
 1057000   0.83582931   -7.4943909    290.65475   0.02291507  0.022852934            3 
 1058000   0.83333696   -7.4955797    289.97735  0.022840056  0.022836358            4 
 1059000   0.82590521   -7.5060743    290.04121  0.022823514  0.022819681            2 
 1060000   0.83113518   -7.5112774     290.4184  0.022831635  0.022802991            3 
 1061000   0.82217692   -7.5177205    289.70084  0.022753758  0.022786235            4 
 1062000   0.82174674   -7.4977335    290.74933  0.022814605  0.022769472            4 
 1063000   0.84640367    -7.522581    289.99265  0.022733823  0.022752767            4 
 1064000   0.82892189   -7.4886312     290.6818  0.022766432  0.022736147            2 
 1065000   0.84329373   -7.5031373    290.58285  0.022737312  0.022719698            3 
 1066000   0.84723625   -7.4747301    291.46497  0.022784941  0.022703305            2 
 1067000   0.81767996   -7.5025105    290.49339  0.022687706  0.022686881            1 
 1068000   0.82676057   -7.5148478    290.79942  0.022690342  0.022670392            2 
 1069000   0.83696196   -7.5303428    291.23256  0.022702881  0.022653924            3 
 1070000   0.83625867   -7.5298237    291.32521  0.022688879  0.022637496            3 
 1071000   0.80026933    -7.526793    291.08019   0.02264863  0.022621064            3 
 1072000   0.81279427   -7.5046031    291.70581  0.022676135  0.022604748            2 
 1073000   0.82907963   -7.4988241    291.73353  0.022657155    0.0225884            4 
 1074000   0.80798594   -7.5268112    291.71012  0.022634243  0.022572105            2 
 1075000   0.81912887   -7.5309543     292.2356  0.022653923  0.022555807            4 
 1076000   0.81442249   -7.4960272     291.9594  0.022611477  0.022539412            5 
 1077000   0.81558715   -7.5207243    291.37604  0.022545345  0.022523053            4 
 1078000   0.80641965   -7.5373969    291.60902  0.022542441  0.022506708            4 
 1079000   0.80999582   -7.5380537    291.46264  0.022510244  0.022490361            3 
 1080000   0.83000285   -7.5141529    292.29332  0.022553497  0.022474065            3 
 1081000   0.82834047   -7.5260529    292.31058  0.022533964  0.022457692            4 
 1082000   0.81938367   -7.5047274    292.48084  0.022526251  0.022441368            3 
 1083000   0.82470309   -7.5436879    292.16944  0.022481489  0.022425101            3 
 1084000   0.83058254   -7.5514705    292.52489  0.022488076  0.022408801            6 
 1085000   0.81600031   -7.5522251    291.83888  0.022414661  0.022392424            2 
 1086000   0.83220107    -7.503401    292.18005    0.0224202  0.022376102            3 
 1087000   0.81312605    -7.541523    292.37669   0.02241465  0.022359763            1 
 1088000   0.81861109   -7.5201091    292.05463   0.02236938  0.022343362            4 
 1089000   0.82461395   -7.5287773    291.72171  0.022323363  0.022327001            3 
 1090000   0.81796847   -7.5577866    292.43916  0.022357734  0.022310599            4 
 1091000   0.82689798   -7.5458802    292.32891   0.02232882  0.022294178            5 
 1092000   0.82943571   -7.5094703    292.51409  0.022322504  0.022277963            3 
 1093000   0.82071752   -7.5314481    293.45484  0.022373806  0.022261739            2 
 1094000   0.80465455   -7.5445976    293.32032  0.022343107  0.022245445            5 
 1095000   0.81740019   -7.5468162    292.88403    0.0222895  0.022229086            4 
 1096000    0.8407665   -7.5335558    292.37562  0.022230506  0.022212742            4 
 1097000   0.81348428   -7.5430207    293.36925  0.022285723  0.022196407            2 
 1098000   0.81653527   -7.5437026    293.30745  0.022260735  0.022180078            9 
 1099000   0.80950519   -7.5407575    293.46916  0.022252742  0.022163775            4 
 1100000   0.79791351   -7.5327539    293.66578  0.022247408  0.022147446            4 
 1101000   0.82956214    -7.517087    293.12859  0.022186542  0.022131136            2 
 1102000   0.81366518   -7.5451554    293.76661  0.022214656  0.022114982            3 
 1103000   0.82231422   -7.4996455    294.05817  0.022216544  0.022098666            3 
 1104000   0.80474302   -7.5256496     293.5262  0.022156265  0.022082325            2 
 1105000   0.81783163   -7.5325734    293.04594  0.022099995  0.022066107            5 
 1106000   0.81356806   -7.5539378    293.70407  0.022129601  0.022049781            2 
 1107000   0.81562721   -7.5719512    294.34588  0.022157925  0.022033543            2 
 1108000   0.82680985   -7.5421382    294.37485  0.022140106  0.022017338            7 
 1109000   0.81854094   -7.5384913    294.45922  0.022126482  0.022001158            4 
 1110000   0.83151433    -7.540452    293.93957  0.022067535  0.021985038            2 
 1111000   0.79688762   -7.5419537    293.84915   0.02204089  0.021968845            2 
 1112000   0.80627524   -7.5368485    294.74081   0.02208789  0.021952687            3 
 1113000   0.79730154   -7.5477551    293.96481  0.022009943  0.021936573            1 
 1114000   0.79016259   -7.5360574    294.15265  0.022004238  0.021920581            2 
 1115000    0.7884729   -7.5814301     293.6794  0.021949133  0.021904331            4 
 1116000   0.82415478    -7.583609    294.55377  0.021994756  0.021888098            2 
 1117000   0.83103844   -7.5544618     294.1707  0.021946486  0.021871895            3 
 1118000   0.80117365   -7.5474116    294.69811  0.021966168  0.021855827            5 
 1119000    0.8173354   -7.5807299    293.92994  0.021889331  0.021839833            4 
 1120000   0.79499362   -7.5729952    294.88105  0.021940554  0.021823747            4 
 1121000   0.80319712   -7.5617429    295.58573  0.021973367  0.021807772            2 
 1122000   0.79555184   -7.5599294    295.50784  0.021947998    0.0217919            5 
 1123000   0.80447251   -7.5827764    295.58636   0.02193428  0.021776025            5 
 1124000   0.79733395   -7.5785839    295.15757  0.021882975    0.0217601            3 
 1125000   0.80569599   -7.5369655    295.92421  0.021920312  0.021744272            1 
 1126000   0.80145833   -7.5656903     294.7083  0.021810857  0.021728297            3 
 1127000   0.82196797    -7.573745    294.88108   0.02180428    0.0217123            3 
 1128000   0.79727325    -7.568907     295.2994  0.021815854  0.021696279            1 
 1129000   0.80701211   -7.5685117    295.65188  0.021822548  0.021680275            3 
 1130000   0.80243685   -7.5742496    295.94542  0.021824884  0.021664271            4 
 1131000   0.79811682   -7.5651652    294.90968  0.021729272  0.021648265            3 
 1132000   0.79385783   -7.5624477     294.8581  0.021706279  0.021632239            4 
 1133000    0.7893844   -7.5848953    294.75005  0.021679174  0.021616177            3 
 1134000   0.79234738   -7.5740061    295.16818  0.021690783  0.021600119            3 
 1135000   0.79208482   -7.5871552    295.32318  0.021683053  0.021583987            2 
 1136000    0.8049946   -7.5890972    295.90569  0.021706697  0.021567817            5 
 1137000   0.80369831   -7.5749573    295.22722  0.021637879  0.021551683            4 
 1138000   0.77904278   -7.5639004    296.33952  0.021700316  0.021535633            8 
 1139000   0.79453522   -7.5260437    296.45587  0.021689777  0.021519644            7 
 1140000   0.79778306   -7.5480933    296.22819  0.021654108  0.021503698            3 
 1141000   0.79247716   -7.5932056    295.88105  0.021609776  0.021487739            2 
 1142000   0.80685912   -7.5656352    296.18076  0.021612723  0.021471736            2 
 1143000   0.79719018   -7.5709061    296.65345  0.021628277  0.021455704            2 
 1144000   0.81247317    -7.564554    296.22051  0.021577834  0.021439665            3 
 1145000   0.80352201   -7.5765424    296.31376  0.021565776  0.021423691            2 
 1146000   0.79471645   -7.5627616    295.89699  0.021516652  0.021407664            2 
 1147000   0.79561792   -7.5895889    296.21915  0.021521298  0.021391604            4 
 1148000    0.8013863   -7.5702642    296.13007  0.021496085  0.021375532            3 
 1149000   0.79676146    -7.591605    295.82578  0.021455307  0.021359529            3 
 1150000   0.81248311   -7.5813777    295.88611  0.021441022  0.021343583            2 
 1151000   0.78416789   -7.5944358    296.45841  0.021463829  0.021327583            2 
 1152000   0.79442326   -7.5976787    296.63842  0.021458219  0.021311556            2 
 1153000   0.79760971   -7.5909868    296.37901   0.02142086  0.021295541            3 
 1154000   0.79114411   -7.6100893    296.52273  0.021412675  0.021279502            2 
 1155000   0.80211863   -7.5852395    296.30527  0.021378447  0.021263474            2 
 1156000   0.78416035   -7.6267991     296.0137  0.021338935  0.021247426            6 
 1157000   0.81057126   -7.6000643    297.00721  0.021392049  0.021231337            3 
 1158000   0.79453946   -7.6290599    296.58753  0.021343375  0.021215313            4 
 1159000    0.7849092   -7.6374377    296.42988  0.021313624  0.021199367            3 
 1160000    0.7819966   -7.5947076    296.45269  0.021296888  0.021183412            4 
 1161000   0.80400723   -7.6013851    296.85367  0.021307326  0.021167493            5 
 1162000   0.78122902   -7.5627919    297.55437   0.02133924  0.021151671            4 
 1163000   0.78539941   -7.5860877    297.39854  0.021309727  0.021135952            3 
 1164000   0.77683688   -7.6249124    296.85612  0.021252586  0.021120144            7 
 1165000    0.7717243   -7.6269086    297.12328  0.021253453  0.021104353            3 
 1166000     0.790617    -7.621652    297.33471  0.021250336  0.021088577            3 
 1167000   0.78467375   -7.6150249    298.39363  0.021307742  0.021072844            3 
 1168000   0.79887499   -7.6129738    297.65908  0.021237092  0.021057146            3 
 1169000   0.79612799    -7.599683    297.84231  0.021231987  0.021041452            2 
 1170000   0.78692091    -7.618947    297.72587  0.021205546  0.021025774            3 
 1171000   0.79540724   -7.6090572    298.17279  0.021219242  0.021010077           10 
 1172000   0.76993555   -7.6034816    298.46697  0.021222054  0.020994545            3 
 1173000   0.78675975   -7.6056717    298.71723  0.021221741  0.020979001            5 
 1174000   0.76165419   -7.6007307    297.37614  0.021108471  0.020963386            2 
 1175000   0.77587136   -7.5925533    298.01475  0.021135798  0.020947822            3 
 1176000   0.77976511   -7.6159755    298.54058  0.021155086  0.020932222            3 
 1177000   0.79238044   -7.6288837    298.10915  0.021106567  0.020916628            4 
 1178000   0.79638417   -7.6039797    298.79225  0.021136973  0.020901036            3 
 1179000   0.77553345   -7.6136732    298.19376  0.021076743  0.020885517            2 
 1180000    0.7864645   -7.6381668     298.4042  0.021073743  0.020870033            4 
 1181000   0.79484902   -7.6432409    298.05172  0.021031028  0.020854543            3 
 1182000   0.77807922   -7.6131464    298.77534  0.021064251  0.020839102            2 
 1183000   0.76745175   -7.6458238     298.9977  0.021062109  0.020823621            5 
 1184000   0.77204309   -7.6036623     299.4685  0.021077457  0.020808115            3 
 1185000   0.77484963   -7.6063772    298.15047  0.020966981  0.020792648            1 
 1186000   0.79510995   -7.5984725    299.42575  0.021038909   0.02077727            5 
 1187000   0.76296097    -7.608404    299.49414  0.021025986  0.020761887            3 
 1188000   0.77214776   -7.6195928    299.53014  0.021010812  0.020746527            3 
 1189000   0.79331339   -7.6265926    299.60027  0.020998057  0.020731154            3 
 1190000   0.78722637   -7.6451173    298.58539  0.020909341  0.020715698            3 
 1191000   0.78625117   -7.6260842    299.10507  0.020928147  0.020700258            3 
 1192000   0.77879528   -7.6310546    299.12455  0.020911951  0.020684796            1 
 1193000   0.78449545    -7.591528    299.83682  0.020944175  0.020669461            4 
 1194000   0.77785031    -7.609357    299.31213  0.020890015  0.020654208            5 
 1195000   0.78203866   -7.6285063    300.03556  0.020922982  0.020638932            3 
 1196000   0.79232319   -7.6320669    300.37437  0.020929095  0.020623641            3 
 1197000   0.78925469   -7.6364785    299.53919  0.020853466   0.02060834            2 
 1198000   0.79131465   -7.6477307    299.39876  0.020826291  0.020593145            3 
 1199000   0.77985348   -7.6381972    299.21305  0.020796014  0.020577939            4 
 1200000   0.78995744   -7.6308797    299.73563  0.020814974   0.02056264            3 
 1201000   0.75432949   -7.6154684    300.72795  0.020866497  0.020547404            5 
 1202000   0.77625145   -7.6521127    299.85476  0.020788599  0.020532181            4 
 1203000    0.7750861   -7.6305146    300.22097  0.020796687  0.020516916            2 
 1204000   0.78847743   -7.6544786    299.75405  0.020747096  0.020501591            3 
 1205000   0.77433971    -7.649629    299.54235  0.020715238  0.020486221            2 
 1206000   0.76380841   -7.6709581    299.47137  0.020693157  0.020470806            5 
 1207000   0.75758301   -7.6657241     300.3753  0.020738421  0.020455403            3 
 1208000   0.77577429    -7.628631    299.49618  0.020660609  0.020440048            5 
 1209000   0.78300825    -7.651173    300.07916  0.020683703  0.020424811            3 
 1210000   0.77089573   -7.6417735    299.81433   0.02064837  0.020409506            3 
 1211000   0.77209841   -7.6330823    300.51181  0.020679315  0.020394325            3 
 1212000   0.77821745   -7.6427115    300.12739  0.020635822  0.020379083            4 
 1213000    0.7700234   -7.6686939      299.574  0.020580792   0.02036383            3 
 1214000   0.77094755   -7.6387064    300.35591  0.020617512  0.020348617            3 
 1215000   0.77172478   -7.6631832    300.86153  0.020635221  0.020333394            3 
 1216000   0.77469068   -7.6615756     299.9793  0.020557792  0.020318135            3 
 1217000   0.75878445   -7.6447297    301.38441  0.020637114  0.020302906            3 
 1218000   0.75957455   -7.6470221    301.01533  0.020594918  0.020287695            4 
 1219000   0.77320392    -7.653259    301.01373  0.020577914  0.020272529            5 
 1220000   0.75114684   -7.6551401    300.49599  0.020525683  0.020257382            4 
 1221000   0.76052308   -7.6352256    300.77757  0.020528089  0.020242289            4 
 1222000   0.77602217   -7.6620901    300.93984  0.020522357  0.020227252            4 
 1223000   0.75391401   -7.6545607    301.19508  0.020522968   0.02021217            8 
 1224000   0.74888133   -7.6411476    300.69015  0.020471824  0.020197075            4 
 1225000   0.77270567   -7.6620418    300.81621  0.020463688  0.020181908            4 
 1226000   0.78272102   -7.6909263    300.70153  0.020439201  0.020166716            6 
 1227000   0.75585526   -7.6692037    300.77831  0.020427758  0.020151569            5 
 1228000   0.75451155    -7.660485    300.87059  0.020417385  0.020136423            5 
 1229000   0.75717151   -7.6615589    301.77395  0.020462026   0.02012137            3 
 1230000   0.76397266   -7.6704067    301.54316  0.020429753  0.020106237            2 
 1231000   0.78038121    -7.665276     301.3325  0.020398897  0.020091194            2 
 1232000   0.73669317   -7.6670667    301.96837  0.020425349  0.020076207            5 
 1233000    0.7521843   -7.6744851    301.19861   0.02035676   0.02006118            3 
 1234000   0.77112548   -7.6835406     302.0123  0.020395212  0.020046163            2 
 1235000   0.74847219   -7.6604154    301.67445  0.020355901  0.020031124            4 
 1236000   0.74497702   -7.6851709    300.53991  0.020262939  0.020016131            3 
 1237000   0.75881866    -7.673153    301.13786  0.020286841  0.020001048            3 
 1238000   0.76517849   -7.6914192     302.1952  0.020341626  0.019986011            7 
 1239000    0.7695383   -7.6801802     301.6716  0.020289992  0.019970945            3 
 1240000   0.76153529   -7.6950385    301.68843   0.02027476  0.019955838            5 
 1241000   0.75188337   -7.6970759    301.55078  0.020249179  0.019940773            2 
 1242000   0.77690201   -7.6774253    301.27112  0.020214111  0.019925722            4 
 1243000   0.76178226   -7.6542675    302.48507  0.020279235  0.019910816            4 
 1244000   0.77240185   -7.6646824    302.02151  0.020231881  0.019895918            2 
 1245000   0.75085047   -7.6660403    301.79017  0.020200145  0.019881042            5 
 1246000    0.7542992   -7.6676016    302.91684  0.020259285  0.019866234            7 
 1247000   0.75703908   -7.6813504    302.40898  0.020209101  0.019851477            2 
 1248000   0.75343357   -7.6569194    302.58221  0.020204475  0.019836719            4 
 1249000   0.75957208   -7.6843196    302.02304   0.02015099  0.019821865            3 
 1250000   0.75198161    -7.665083    301.58018  0.020105345   0.01980699            4 
 1251000   0.75279395   -7.6913755    302.63734  0.020159695  0.019792157            3 
 1252000   0.75754449   -7.6897828    302.19556  0.020114188  0.019777296            2 
 1253000   0.75308581   -7.6873251     302.1381  0.020094314  0.019762393            4 
 1254000   0.74955557   -7.7197834    302.26922  0.020087003  0.019747425            3 
 1255000   0.75669812   -7.6860337    302.71398   0.02010053    0.0197325           10 
 1256000   0.76038294   -7.6871246    302.00745  0.020037649  0.019717609            6 
 1257000   0.74363385    -7.686887      302.351  0.020044484  0.019702746            3 
 1258000   0.74295539   -7.7179906    302.24358  0.020021435  0.019687887            5 
 1259000   0.76081372   -7.6808266    303.16387  0.020066446  0.019673039            5 
 1260000   0.73294018    -7.721791    302.66683  0.020017648  0.019658156            3 
 1261000   0.75344017   -7.7150881    302.09804  0.019964185  0.019643295            3 
 1262000   0.75666569   -7.6829517    302.21343  0.019955984  0.019628446            3 
 1263000   0.75676912   -7.7042652    302.64854  0.019968893  0.019613648            5 
 1264000   0.74327505   -7.6844713    302.85473  0.019966688  0.019598871            3 
 1265000    0.7452733   -7.6698285    302.52505  0.019929186   0.01958406            4 
 1266000   0.74408504   -7.7074255    302.32686  0.019900399   0.01956922            2 
 1267000   0.74283572   -7.6914088    303.59049  0.019967804  0.019554474            2 
 1268000   0.74489754   -7.6905744    302.66902  0.019891497  0.019539757            3 
 1269000   0.76363563     -7.68293    303.24676  0.019913762  0.019525012            2 
 1270000   0.75455872   -7.7153901    303.28759   0.01990076  0.019510278            4 
 1271000   0.74644361   -7.6927699    302.94476  0.019862625  0.019495568            5 
 1272000   0.74773774   -7.7185381    302.67668  0.019829447    0.0194809            2 
 1273000   0.75555691    -7.680898    302.63142  0.019810907  0.019466195            6 
 1274000   0.73357038   -7.6862902    303.13159  0.019828073  0.019451512            4 
 1275000   0.74602323     -7.68927    303.49783  0.019836459  0.019436852            5 
 1276000   0.73814243   -7.7214974    302.74206  0.019771556  0.019422149            6 
 1277000   0.74453791   -7.7018599    302.49316   0.01973983  0.019407413            2 
 1278000    0.7331449    -7.728445    302.54111  0.019727511  0.019392641            2 
 1279000   0.75192163   -7.7227473    303.15731  0.019752235  0.019377926            5 
 1280000   0.73653036   -7.7221153     303.1431  0.019735879  0.019363289            9 
 1281000   0.76068335   -7.7257832    303.36069  0.019734627  0.019348653            3 
 1282000   0.73437828    -7.717318    303.39634  0.019721551  0.019334003            4 
 1283000   0.75572229   -7.7074522    303.19268  0.019692951  0.019319328            6 
 1284000   0.74843314   -7.7109347    303.01159  0.019665861  0.019304739            3 
 1285000   0.72340251   -7.7029098    303.78173  0.019700501  0.019290191            2 
 1286000   0.75090392   -7.7037184    303.72708  0.019681641  0.019275648            6 
 1287000   0.73261828    -7.715014    303.56749  0.019656015  0.019261078            3 
 1288000   0.71917912   -7.7390785    302.85869  0.019594895   0.01924644            5 
 1289000   0.74005868   -7.7001098     303.7094  0.019634691  0.019231758            5 
 1290000   0.74430931    -7.720511    303.67505  0.019617251  0.019217127            9 
 1291000   0.72887056   -7.7040264    303.76477  0.019607847  0.019202506            4 
 1292000   0.72720056   -7.7216749    303.84989  0.019598161  0.019187921            6 
 1293000   0.75322628   -7.7206039      303.805  0.019580111  0.019173319            3 
 1294000   0.74096092   -7.6975188     303.7714  0.019562815  0.019158754            3 
 1295000   0.72768654   -7.7353284    303.37606  0.019522269  0.019144107            3 
 1296000   0.73482538   -7.7243148    302.81448  0.019471095  0.019129524            7 
 1297000   0.74334801   -7.7091306     303.4098  0.019494333  0.019114918            2 
 1298000   0.73591635   -7.7296721    303.55031  0.019488335   0.01910042            8 
 1299000   0.69906237   -7.7396829    304.05077  0.019505438  0.019085916           11 
 1300000    0.7540639    -7.717449     303.7556  0.019471513  0.019071418            4 
 1301000   0.72555712   -7.7532858    303.51288  0.019440999  0.019056893            2 
 1302000   0.74663465   -7.7077316    304.13823  0.019466092  0.019042366            4 
 1303000   0.73173939   -7.7140099    303.78145  0.019428335  0.019027897            2 
 1304000   0.71956652    -7.744515    304.15647  0.019437402  0.019013406            3 
 1305000   0.72478391   -7.7411757      304.295  0.019431354  0.018998932            4 
 1306000   0.74185094   -7.7916485    303.11521  0.019341195   0.01898445            3 
 1307000   0.74194393   -7.7726929    304.09779  0.019389045  0.018969964            2 
 1308000    0.7406885   -7.7489092    304.52123    0.0194012   0.01895544            3 
 1309000   0.71247857   -7.7456655    304.40903  0.019379235     0.018941            4 
 1310000   0.73553381   -7.7535652    304.45666  0.019367472  0.018926593            5 
 1311000   0.73087541   -7.7293641    304.07393  0.019328371  0.018912202            3 
 1312000   0.72560473   -7.7381371    304.54833  0.019343771  0.018897801            3 
 1313000   0.75426161   -7.7204232    304.51657  0.019327023  0.018883487            2 
 1314000   0.71395139   -7.7399105     304.1608  0.019289751  0.018869206            7 
 1315000   0.72654366   -7.7181468    304.84873  0.019318678  0.018854901            3 
 1316000   0.73350355   -7.7643446    303.79248  0.019237113  0.018840528            3 
 1317000   0.73160705   -7.7522955    305.04794  0.019301945  0.018826166            4 
 1318000   0.72357603   -7.7511361     304.7342  0.019267463  0.018811869            5 
 1319000   0.71685347   -7.7604417    304.63362  0.019246501  0.018797554            3 
 1320000   0.73874846   -7.7800796    304.31085  0.019211543  0.018783284            6 
 1321000   0.72890472   -7.7449653    304.68657  0.019220702  0.018768967            7 
 1322000   0.72728202   -7.7601694    304.52838  0.019196192   0.01875463            4 
 1323000    0.7412266   -7.8036217    304.32803  0.019169062  0.018740299            6 
 1324000   0.72995376   -7.7471917     304.4646   0.01916318  0.018725995            3 
 1325000   0.73171117   -7.7382062    304.01999  0.019120754  0.018711662            2 
 1326000   0.71882153   -7.7482705    304.24686  0.019120592  0.018697327            6 
 1327000   0.71851541   -7.7807438    304.50081  0.019122131  0.018683025            4 
 1328000   0.71105398   -7.7638148    304.81644  0.019127538  0.018668816            5 
 1329000   0.73158666   -7.7599529    304.93029  0.019120284  0.018654576            4 
 1330000   0.74648635   -7.7908262    304.77232   0.01909601  0.018640292            3 
 1331000   0.72449623   -7.7946371    304.92515  0.019091231  0.018625986            5 
 1332000   0.70766766   -7.7832281    304.73459  0.019064977  0.018611697            7 
 1333000    0.7199271   -7.7895983    304.33081  0.019025432  0.018597433            2 
 1334000   0.72252224   -7.7665857    305.35327  0.019075042  0.018583193            4 
 1335000   0.72663103    -7.771719    305.10107   0.01904501  0.018568979            4 
 1336000   0.71578123   -7.7915976     305.1063  0.019031082    0.0185548            5 
 1337000   0.73056781   -7.7749322    304.99216  0.019009733  0.018540625            6 
 1338000   0.71898824   -7.7593054     305.4749  0.019025592    0.0185265            5 
 1339000    0.7277472   -7.7642777    304.97578   0.01898032  0.018512354            8 
 1340000   0.70556128   -7.7745061    304.85766   0.01895881  0.018498193            4 
 1341000   0.73164912   -7.7826242    304.93207  0.018949296  0.018484061            3 
 1342000   0.69416993    -7.749919    305.25346  0.018955133  0.018469883            4 
 1343000   0.71016978   -7.7807817    305.22915   0.01893951  0.018455705           14 
 1344000   0.71518046   -7.7761214    305.24204  0.018926218  0.018441509            3 
 1345000    0.7060987   -7.7945967    303.63335  0.018812475  0.018427302            6 
 1346000   0.71469334   -7.7909564    304.58222  0.018857245  0.018413127            6 
 1347000   0.71823684   -7.7685086    305.32943  0.018889472  0.018399004            3 
 1348000   0.70556074   -7.7908085    305.35603  0.018877104  0.018384889            3 
 1349000    0.7162764   -7.7770627    305.06002  0.018844825   0.01837075            3 
 1350000   0.69752325   -7.7855711    304.84018  0.018817295   0.01835659            8 
 1351000   0.71153322   -7.7824119    305.74657  0.018859275  0.018342519            3 
 1352000   0.70735263   -7.7951246    305.58508  0.018835372  0.018328439            4 
 1353000   0.69306923   -7.7759151    305.56431  0.018820172  0.018314427            5 
 1354000   0.70025792   -7.7650111    305.13084  0.018779594   0.01830041            5 
 1355000   0.72242813   -7.7594303    304.97358  0.018756063  0.018286373            8 
 1356000   0.72411667   -7.7790448    305.69366  0.018786484  0.018272353            6 
 1357000   0.71857284    -7.794299    305.60859  0.018767415  0.018258356            7 
 1358000   0.72444743   -7.7885927    305.42965  0.018742615  0.018244383            2 
 1359000   0.69928618   -7.7595388    306.37151  0.018786578  0.018230415            4 
 1360000   0.70363102    -7.781739    305.66157  0.018729263  0.018216452            4 
 1361000   0.69624244   -7.8045581    305.91632    0.0187311   0.01820243            5 
 1362000   0.70512319    -7.806885    304.68831  0.018642212  0.018188421            5 
 1363000   0.71056197   -7.8011814    304.96004  0.018645148  0.018174423            5 
 1364000   0.71014804   -7.8261451    305.89261  0.018688453  0.018160453            6 
 1365000    0.7177344   -7.7858839    306.24453  0.018696247  0.018146524            5 
 1366000   0.70251992   -7.8033824    305.98028   0.01866644  0.018132527            9 
 1367000   0.70333882   -7.8061969    305.11846  0.018600248  0.018118496            3 
 1368000   0.71584744   -7.8346728    304.97089  0.018577661  0.018104459            8 
 1369000   0.71842756   -7.8286078    305.68461  0.018607536  0.018090467            5 
 1370000    0.7233146   -7.7960913    305.32165  0.018571877  0.018076493            4 
 1371000   0.69970473   -7.8078367    305.35298  0.018560235  0.018062578            3 
 1372000   0.71193738   -7.7892451    305.79936  0.018573819  0.018048654            5 
 1373000   0.69005806   -7.8197943    305.43435  0.018538137  0.018034709            5 
 1374000   0.70432326     -7.80592    305.10805  0.018504855   0.01802075            7 
 1375000   0.72822719   -7.8021583    306.00222  0.018545589  0.018006821            6 
 1376000    0.7023166   -7.8094209    306.07682  0.018536629  0.017992888            5 
 1377000   0.70496012   -7.8305978    304.76256  0.018443631   0.01797894            7 
 1378000   0.70701368   -7.8152133    306.07618  0.018509687   0.01796503            6 
 1379000   0.70529795   -7.7916474    306.34809  0.018512696  0.017951201            9 
 1380000    0.7015496   -7.8195985    305.42871  0.018443763  0.017937355            6 
 1381000   0.71491764   -7.8041511    306.27579  0.018481523  0.017923505            4 
 1382000   0.67478425   -7.7891614    305.93658  0.018447695   0.01790967            6 
 1383000   0.69352248   -7.8278416    305.76495  0.018424015  0.017895816            6 
 1384000   0.71393724   -7.8093279    305.49024  0.018394162  0.017881964            4 
 1385000   0.69286102   -7.8231878    305.79545  0.018399245  0.017868055            2 
 1386000     0.708248   -7.7922988    306.52673  0.018429938  0.017854187            8 
 1387000   0.69889107   -7.7755261    305.58977  0.018360356    0.0178404            3 
 1388000    0.6897539   -7.8402023    305.37915  0.018334483  0.017826534            5 
 1389000    0.6928906   -7.7837946     305.7109  0.018341187  0.017812661            3 
 1390000   0.67488365    -7.838879    305.69379  0.018326966  0.017798826            4 
 1391000   0.69085446   -7.8169297    305.92434  0.018327602  0.017784977            4 
 1392000   0.71572667   -7.8021725    306.27132  0.018335208  0.017771146            4 
 1393000   0.70748508   -7.8089044    306.11728  0.018312831  0.017757357            5 
 1394000   0.69278288   -7.8413403    306.20956   0.01830521  0.017743552            4 
 1395000   0.68706218   -7.8186359    306.35606   0.01830084  0.017729745            5 
 1396000   0.70400894   -7.8461515    305.35448  0.018227941  0.017715926            3 
 1397000   0.69072353   -7.8373293    305.17518  0.018204198   0.01770206            5 
 1398000    0.7039005   -7.8442406    305.87356  0.018232807  0.017688224            3 
 1399000   0.69080381   -7.8344682    305.78605  0.018214561  0.017674397            9 
 1400000   0.70889778    -7.836237    305.63325  0.018192455   0.01766062            4 
 1401000   0.68392606   -7.8386201    305.38265  0.018164564  0.017646895            3 
 1402000   0.68987939   -7.8341411    306.14452  0.018196892  0.017633156            7 
 1403000   0.69294495   -7.8386199    306.00509  0.018175641  0.017619417            4 
 1404000    0.6909891   -7.8561733    305.58246   0.01813761  0.017605693            6 
 1405000   0.69579434   -7.8423097    305.39023  0.018113299  0.017591969            3 
 1406000   0.69781049   -7.8726548    306.18668  0.018147622  0.017578283            2 
 1407000   0.68775586   -7.8453616    305.52447  0.018095503  0.017564562           15 
 1408000   0.69979003     -7.82947     305.7644  0.018096851  0.017550819            3 
 1409000   0.69815974   -7.8443696    305.68145  0.018079102  0.017537105            6 
 1410000   0.69217976   -7.8233355    305.69199  0.018066902  0.017523428           10 
 1411000   0.68460025   -7.8516143    306.08905  0.018077548  0.017509746            4 
 1412000   0.69389291   -7.8413289    306.48332  0.018088015  0.017496062            4 
 1413000   0.69007081   -7.8237341    305.83777  0.018037141  0.017482432            2 
 1414000   0.67941005   -7.8682779    305.61912  0.018011499  0.017468785            6 
 1415000   0.69696489   -7.8436893    306.42836  0.018046429  0.017455119            5 
 1416000   0.68698552   -7.8722662     305.8337  0.017998688  0.017441461            3 
 1417000   0.69306931   -7.8683666     305.9184  0.017990967  0.017427837            3 
 1418000   0.67899557   -7.8617929    306.01984  0.017984241  0.017414231            4 
 1419000   0.69069984   -7.8508165     306.4151  0.017994779  0.017400632            7 
 1420000    0.6806953   -7.8496147    305.99595  0.017957509  0.017387019            3 
 1421000    0.6851098   -7.8321957    305.69891  0.017927452   0.01737346            3 
 1422000   0.70060517   -7.8407826     306.0934  0.017937963  0.017359888            4 
 1423000   0.68040344   -7.8920332    305.67563  0.017900892  0.017346248            3 
 1424000   0.68470458   -7.8720562    306.49212  0.017936102  0.017332628            3 
 1425000   0.68102464   -7.8799411    306.20333  0.017906627  0.017319059            6 
 1426000   0.67408456   -7.8664275    306.05355  0.017885317  0.017305475            7 
 1427000   0.69164618   -7.8481106    306.06706  0.017873573  0.017291898            3 
 1428000   0.69256042   -7.8635217    306.39966  0.017880466  0.017278344            4 
 1429000   0.68080024   -7.8789091    306.74988  0.017888376  0.017264807            7 
 1430000   0.68527308    -7.848421    306.19439  0.017843496  0.017251369            7 
 1431000   0.67538239   -7.8537288    306.03176  0.017821556  0.017237897            4 
 1432000   0.69072416   -7.8597616    306.43955  0.017832842  0.017224422            6 
 1433000   0.69114984    -7.880988    305.93618  0.017791125  0.017210967            4 
 1434000   0.70037637   -7.8671949     306.3774  0.017804358  0.017197518            3 
 1435000   0.68573472   -7.8602255     306.6835  0.017809727   0.01718407            2 
 1436000   0.67301255   -7.8782147    306.00648  0.017758036   0.01717059            3 
 1437000   0.66732556   -7.8892577    306.22716  0.017758476  0.017157056            5 
 1438000   0.65538719   -7.8657959    306.27516  0.017748908  0.017143599            3 
 1439000   0.68019252    -7.886984    305.89712  0.017714682  0.017130155            2 
 1440000   0.67758051   -7.8471575    306.15367  0.017717226  0.017116693            2 
 1441000   0.69981614   -7.8858112    306.05173  0.017699036  0.017103242            2 
 1442000   0.68433567   -7.8814238    306.67786  0.017722946  0.017089822            5 
 1443000   0.69466857    -7.862531    306.69418  0.017711606  0.017076403            4 
 1444000   0.67728044     -7.88684    305.36462  0.017622612  0.017062969            7 
 1445000   0.68002724   -7.8660902    306.24114  0.017660965  0.017049537            5 
 1446000    0.6816736   -7.8577787    306.91211   0.01768742  0.017036106           11 
 1447000   0.67489501   -7.8689343    306.42187  0.017646963  0.017022692            7 
 1448000   0.70157747   -7.8703156     306.5285  0.017640913  0.017009258            4 
 1449000   0.67763638   -7.8913405    306.02569  0.017599821   0.01699584            8 
 1450000   0.69147021   -7.8751274    306.48229  0.017613925  0.016982392            5 
 1451000   0.67972629   -7.8765176    306.21087  0.017586198  0.016968925           10 
 1452000   0.66865302   -7.8780558    305.67389  0.017543267  0.016955469            5 
 1453000    0.6720069   -7.8704752    306.30539  0.017567412  0.016942063            4 
 1454000   0.65626333   -7.8608651    306.65384    0.0175753  0.016928685            4 
 1455000   0.66934867   -7.8731064    306.37304  0.017547139  0.016915282            4 
 1456000    0.6612935   -7.8504715    306.28315  0.017529942  0.016901849            4 
 1457000   0.66042668   -7.8838875    306.21735  0.017514147  0.016888457            3 
 1458000   0.67178645   -7.8676482    305.68274  0.017471579  0.016875043            5 
 1459000   0.66057953   -7.8846375    306.55932  0.017509671  0.016861639            4 
 1460000   0.66521796   -7.8661929    306.14045   0.01747377  0.016848218            5 
 1461000   0.66869157   -7.8680944    305.86819   0.01744628  0.016834894            9 
 1462000   0.66580855   -7.8942524    305.95503  0.017439297  0.016821562            4 
 1463000   0.67464497   -7.8986662     305.9399  0.017426515  0.016808182            4 
 1464000   0.66471613   -7.8972125    305.99735  0.017417882  0.016794801            8 
 1465000   0.66761824    -7.870406    305.61185  0.017384064  0.016781445            6 
 1466000   0.66775602   -7.8887547      306.368  0.017415188  0.016768109            9 
 1467000   0.66906238   -7.9008132    306.26745  0.017397606  0.016754811           12 
 1468000   0.66293548   -7.8665581    306.62293  0.017405934  0.016741583            9 
 1469000   0.67708911   -7.8960398    305.97868  0.017357538  0.016728344            5 
 1470000   0.65993912    -7.893256    306.73286  0.017388484  0.016715117            2 
 1471000   0.64856249   -7.8548657    306.87525   0.01738473   0.01670193            3 
 1472000   0.68029927   -7.8993268     306.9018  0.017374422  0.016688735            3 
 1473000   0.66530566   -7.9010433    306.29741  0.017328435  0.016675537            3 
 1474000   0.66119797   -7.8886141    306.18637  0.017310401  0.016662368            8 
 1475000   0.64891777    -7.898042     306.5844  0.017321152  0.016649182            6 
 1476000   0.67131163   -7.8847453    305.63982  0.017256087  0.016635971            6 
 1477000   0.66342547   -7.8804173    306.53103  0.017294687  0.016622788            5 
 1478000   0.66338823   -7.8902559    305.66639  0.017234235  0.016609599            3 
 1479000   0.65770576   -7.9073302    306.43271   0.01726576  0.016596397            6 
 1480000   0.66881841   -7.9205222    305.59833  0.017207113  0.016583192            8 
 1481000   0.63830218   -7.8966604    306.40929  0.017241126  0.016570048            7 
 1482000   0.65977137   -7.9157898     305.8022  0.017195356  0.016556843            7 
 1483000   0.65369194   -7.8945545    306.00231  0.017195005  0.016543649            3 
 1484000   0.67325353   -7.9008464    306.13412   0.01719082  0.016530456            4 
 1485000   0.66390473   -7.8954145    306.32827  0.017190139  0.016517302            3 
 1486000   0.64271604   -7.8924865    306.16617   0.01716948   0.01650419            2 
 1487000   0.65616988   -7.8991354    306.16142  0.017157668  0.016491084            2 
 1488000   0.66450612    -7.898669    306.36147  0.017157341  0.016477997            4 
 1489000   0.66415112   -7.8825263    306.83496  0.017172317   0.01646495            3 
 1490000   0.66275849   -7.9021302    307.04159  0.017172349  0.016451903            4 
 1491000   0.66661832   -7.8956263    306.05467  0.017105671  0.016438878            8 
 1492000   0.66590562   -7.9032386    306.64308  0.017127071  0.016425852            7 
 1493000   0.65044078   -7.8939334     306.4813   0.01710657  0.016412846            6 
 1494000   0.67147965   -7.9130241    306.11864  0.017074891  0.016399809            5 
 1495000   0.64625428   -7.9187924    306.30052  0.017073607   0.01638673            3 
 1496000   0.67190954    -7.900959    306.10503  0.017051305  0.016373658            6 
 1497000   0.65916404   -7.9176443    306.46968  0.017060214   0.01636059            5 
 1498000   0.66548738   -7.9209432    306.11085  0.017028863   0.01634753            4 
 1499000   0.65571122   -7.9128112    305.70267  0.016994811  0.016334446            3 
 1500000   0.64641389   -7.9205196    305.84273  0.016991263  0.016321409            3 
 1501000   0.64941171   -7.9473391    305.80823  0.016978028  0.016308371            3 
 1502000   0.66520467   -7.9336861     306.2046  0.016988715  0.016295287            5 
 1503000   0.65058256   -7.9469266    306.27768  0.016981464  0.016282194            2 
 1504000   0.64886299   -7.9443052    305.59063  0.016932105  0.016269085            4 
 1505000   0.64707344   -7.9491444    306.02083  0.016944675  0.016256006            3 
 1506000    0.6614294   -7.9190381     306.1801  0.016942237  0.016242923            6 
 1507000   0.64620481   -7.9246773     305.8975  0.016915367  0.016229864            2 
 1508000   0.65708328   -7.9239457    306.21558  0.016921727  0.016216833            4 
 1509000   0.65476159   -7.9613409    306.74808   0.01693992  0.016203857            4 
 1510000   0.64476068   -7.9484109    306.05708  0.016890567  0.016190885            1 
 1511000   0.64907419   -7.9306758    306.02401  0.016877565  0.016177861            7 
 1512000   0.65625165   -7.9341751    306.23203  0.016877868   0.01616488            7 
 1513000   0.64347655    -7.956284    305.88944  0.016847843  0.016151915            2 
 1514000   0.64174467   -7.9166161    306.02388  0.016844115  0.016138953            5 
 1515000   0.64377508   -7.9434562    306.05602  0.016834764  0.016126011            7 
 1516000   0.63713833   -7.9520981     305.5098  0.016793635  0.016113082            3 
 1517000   0.64552423   -7.9760366     306.3977  0.016831339  0.016100151            3 
 1518000   0.64704626   -7.9550423     306.0684  0.016802174  0.016087205            4 
 1519000   0.64752722   -7.9606404    306.30262  0.016803962  0.016074249           12 
 1520000   0.64412364   -7.9378094    306.24418  0.016789703  0.016061313           13 
 1521000   0.64930855    -7.942313    306.04289  0.016767636  0.016048426           11 
 1522000   0.64464085    -7.949856     305.6005  0.016732397  0.016035556            9 
 1523000   0.65274809   -7.9577124    305.57064  0.016719777  0.016022648           13 
 1524000   0.64533103   -7.9410547    305.93477  0.016728717   0.01600978            6 
 1525000   0.64199556   -7.9587913    305.58079  0.016698404  0.015996907           10 
 1526000   0.63588009   -7.9564685    306.32639  0.016728178  0.015984042            4 
 1527000   0.64086367   -7.9623271    305.81335  0.016689224  0.015971166            2 
 1528000   0.63530575    -7.961746    305.27291  0.016648828   0.01595833            5 
 1529000   0.63820063   -7.9493711     306.0647  0.016681093   0.01594547            5 
 1530000   0.63013335   -7.9701259    305.97181  0.016665131  0.015932637            7 
 1531000   0.64175063    -7.948482    305.92658  0.016651784  0.015919827            3 
 1532000   0.64610531   -7.9734025    306.56504  0.016675644  0.015907043            5 
 1533000   0.63482267   -7.9582717    306.13135  0.016641191  0.015894262            4 
 1534000   0.64280717    -7.975738    305.53137  0.016597749  0.015881489            3 
 1535000   0.64525363   -7.9731565    305.96536  0.016610497  0.015868676            4 
 1536000   0.66008491   -7.9464953    305.87984  0.016595043  0.015855925            4 
 1537000   0.63790929   -7.9580621    306.02595  0.016592168  0.015843188            6 
 1538000   0.64016465   -7.9732304    306.57438  0.016611095  0.015830467            2 
 1539000    0.6463564   -7.9651227     306.1946  0.016579738  0.015817725            4 
 1540000   0.62929659   -7.9839989     306.3404  0.016576862  0.015804996            5 
 1541000   0.64435769   -7.9888367     305.7819  0.016535902   0.01579228            6 
 1542000   0.64380985   -7.9653805    306.55174  0.016566782  0.015779568            4 
 1543000   0.63413784   -7.9707516    306.09894  0.016531591  0.015766891            3 
 1544000    0.6366138    -7.938121    305.72463  0.016500681  0.015754221            3 
 1545000     0.637578   -7.9550324    305.83616  0.016496018  0.015741566            4 
 1546000   0.62922338    -7.962441    305.90295  0.016488947  0.015728907            3 
 1547000    0.6441703   -7.9747056    305.05451  0.016432585  0.015716269            4 
 1548000   0.63215591   -7.9852114    306.35353    0.0164919  0.015703621            4 
 1549000   0.64586951   -7.9856346    306.10359  0.016467807  0.015690928            4 
 1550000   0.63319442   -7.9893689    306.40075  0.016473159  0.015678228            3 
 1551000   0.64000029   -7.9736152    305.37498  0.016407424  0.015665546            5 
 1552000   0.63040718   -7.9826922    305.71883  0.016415315   0.01565287            4 
 1553000    0.6276715   -8.0061176    305.09711  0.016371384    0.0156402            5 
 1554000   0.62436511   -7.9785246    305.88393  0.016403042  0.015627532            2 
 1555000   0.62545829   -7.9896407    305.42086  0.016367678  0.015614869            4 
 1556000   0.63729849   -8.0123846    305.39533  0.016355791  0.015602219            9 
 1557000   0.63424351   -7.9955134    305.89588  0.016372077  0.015589565            2 
 1558000   0.62488693   -8.0121461    305.77404  0.016355051  0.015576911            6 
 1559000   0.63717697   -8.0058975    305.57849  0.016334108  0.015564251            6 
 1560000   0.63060365   -8.0166829    305.10066  0.016298112  0.015551574           11 
 1561000   0.64235217   -7.9985489    305.60481  0.016314585  0.015538924            6 
 1562000   0.63459523   -7.9971302    305.14088   0.01627939  0.015526308            7 
 1563000   0.61930166   -8.0254084    305.13074  0.016268433   0.01551369            5 
 1564000   0.63034654   -8.0061195    304.99802   0.01625096  0.015501085            5 
 1565000   0.62763035    -7.992822    304.77834  0.016228878  0.015488491            4 
 1566000   0.63201881   -8.0025096    305.63623  0.016264167  0.015475931            5 
 1567000   0.63861345   -7.9990044    305.75249  0.016259971   0.01546339            3 
 1568000   0.62272322   -7.9942069    306.61127  0.016295242  0.015450855            6 
 1569000   0.63593177   -8.0218445    305.76629  0.016239977  0.015438307            3 
 1570000   0.64367565   -8.0074514    305.26329  0.016202935  0.015425749            6 
 1571000   0.62563733   -8.0285116    305.80434  0.016221321  0.015413223            9 
 1572000   0.61810238   -8.0076841      305.506  0.016195187  0.015400679            4 
 1573000   0.62728726   -8.0100878    305.95496  0.016208676  0.015388155            4 
 1574000   0.62870534   -8.0126178    305.42882  0.016170522  0.015375643            2 
 1575000   0.62018028   -7.9915357    305.37993  0.016157668  0.015363142            4 
 1576000   0.61963996   -8.0157195    305.71523  0.016165145  0.015350649            3 
 1577000   0.62683266   -8.0300953    305.69391  0.016153768  0.015338166            3 
 1578000   0.62194775   -8.0192436    305.53864  0.016135331  0.015325671            3 
 1579000   0.62103359   -8.0240623    304.69372  0.016080521  0.015313202            3 
 1580000   0.62418861    -8.022207    305.03568   0.01608838  0.015300736            3 
 1581000   0.62755535   -8.0225219     305.3607  0.016095335  0.015288283            6 
 1582000   0.60974672   -8.0344292    305.84276  0.016110554  0.015275881            5 
 1583000   0.61905301   -8.0202955    305.56303  0.016085651  0.015263464            4 
 1584000   0.62513888    -8.008234    306.05793  0.016101533  0.015251087            8 
 1585000   0.61597668   -8.0187673     305.6356  0.016069169  0.015238699            4 
 1586000   0.61640867   -8.0226757    305.63204   0.01605885    0.0152263            6 
 1587000   0.63297205   -8.0379691    305.59023  0.016046536  0.015213895            3 
 1588000   0.62366687    -8.046498    304.83128  0.015996604  0.015201498            3 
 1589000   0.60817221   -8.0100513    305.68035  0.016031065  0.015189122            4 
 1590000   0.61642791   -8.0292972    305.86967  0.016030905  0.015176772            3 
 1591000    0.6135565     -8.02209    305.91753  0.016023336  0.015164429            3 
 1592000   0.60635789   -8.0166638    305.76787  0.016005437  0.015152112            3 
 1593000   0.61936496   -8.0247517    305.65872   0.01598968  0.015139781            8 
 1594000   0.63110996   -8.0183906    305.54558  0.015973734  0.015127455            8 
 1595000   0.62804295   -8.0238157    305.59487  0.015966294  0.015115152            5 
 1596000   0.61812363    -8.035327    305.48013  0.015950299  0.015102846            4 
 1597000    0.6115925   -8.0147495    305.07083  0.015918954  0.015090544            6 
 1598000   0.61524462   -8.0405317      304.597  0.015884283  0.015078252            5 
 1599000   0.62162333   -8.0277659    305.36157  0.015914195  0.015065973            7 
 1600000   0.61692651    -8.016159    305.01874  0.015886393  0.015053715            6 
 1601000   0.60785487   -8.0331011    305.09375  0.015880374  0.015041455            5 
 1602000   0.62150164   -8.0208709    305.62986  0.015898349  0.015029192            8 
 1603000   0.61250783   -8.0297809    305.47005  0.015880123  0.015016933            7 
 1604000   0.60680258   -8.0289486      305.022  0.015846945  0.015004702           11 
 1605000   0.59421431   -8.0294537    305.91848  0.015883618  0.014992478           10 
 1606000   0.60241553    -8.020628    305.17015  0.015834898  0.014980272            6 
 1607000   0.61482283   -8.0415605    305.07243  0.015819977  0.014968062           12 
 1608000   0.62263414   -8.0383325    305.06206  0.015809601  0.014955856            3 
 1609000   0.61300309   -8.0560344      305.673  0.015831417  0.014943669            7 
 1610000   0.62509724   -8.0446449    304.78336  0.015775536   0.01493149            7 
 1611000   0.60837971   -8.0587312    305.50283   0.01580296  0.014919312            8 
 1612000   0.60851716   -8.0323467    305.23834  0.015779484   0.01490714           11 
 1613000   0.60810421   -8.0494735    304.86294  0.015750307  0.014894961            7 
 1614000   0.61149172    -8.057362    304.97562  0.015746366  0.014882789            6 
 1615000   0.61352169   -8.0503345    305.73717  0.015775912  0.014870644            4 
 1616000   0.59180266   -8.0517697     304.5281  0.015703801  0.014858504            7 
 1617000   0.60178109   -8.0517593    305.07119  0.015722077  0.014846388            7 
 1618000   0.59711289   -8.0595153    304.55135  0.015685587  0.014834249            7 
 1619000    0.6226916   -8.0505776    304.65556  0.015681262  0.014822142           13 
 1620000   0.61303492   -8.0281194    305.65805  0.015723151  0.014810057            8 
 1621000   0.61179581   -8.0627066    305.02968  0.015681147  0.014797985            3 
 1622000   0.60582372   -8.0638709    305.56127  0.015698791   0.01478591            5 
 1623000    0.6138808   -8.0807232    305.14316  0.015667651  0.014773872            3 
 1624000   0.59088731   -8.0537871    304.75944  0.015638313  0.014761843            7 
 1625000   0.60280924   -8.0445785    304.63668  0.015622394  0.014749803            6 
 1626000   0.59923266   -8.0767106    305.35011   0.01564935  0.014737783           10 
 1627000   0.60524235   -8.0780332    304.85441  0.015614342  0.014725742            8 
 1628000   0.59553818    -8.049184    304.68043  0.015595845  0.014713697            9 
 1629000   0.60586328    -8.035106    305.30718  0.015618333  0.014701683            8 
 1630000   0.62103134    -8.051072    304.93091  0.015589515  0.014689674            5 
 1631000   0.59145042   -8.0665844    304.47538  0.015556682  0.014677695            9 
 1632000   0.60239345   -8.0608765     305.5878  0.015603952  0.014665719           12 
 1633000   0.61127238   -8.0609154    304.59307  0.015543635  0.014653742           11 
 1634000    0.5973003   -8.0669928      305.273  0.015568798  0.014641779            8 
 1635000   0.58975989   -8.0700871    305.48925  0.015570298  0.014629832            7 
 1636000   0.59722929   -8.0763799    304.84644  0.015528038  0.014617881            8 
 1637000   0.60151976   -8.0251181    305.36914  0.015545161  0.014605934            6 
 1638000    0.6218864   -8.0877711    304.68523  0.015500876  0.014594017            6 
 1639000   0.59689984   -8.0736467    304.43073  0.015478479  0.014582098           10 
 1640000   0.61509158   -8.0554419    305.15666  0.015505928  0.014570187            7 
 1641000   0.59457734   -8.0625028    304.52973  0.015464642  0.014558295            7 
 1642000    0.6021142     -8.09996    304.81079  0.015469488   0.01454638            5 
 1643000   0.60735216   -8.0574961    305.14591   0.01547707  0.014534477           11 
 1644000   0.58108641   -8.0781662    304.60771  0.015440374  0.014522602            6 
 1645000   0.60337188   -8.0626967     305.1124  0.015456555  0.014510737            5 
 1646000   0.59636887   -8.0672569    304.42264  0.015412244  0.014498849            8 
 1647000   0.58909502   -8.0713597    304.72744  0.015418308  0.014486973            6 
 1648000   0.58626351   -8.0526971    304.49808  0.015397355  0.014475104            5 
 1649000   0.59856391   -8.1002871    304.85938  0.015406275  0.014463233            7 
 1650000   0.58144062   -8.0704846    304.83061  0.015395485  0.014451383            5 
 1651000   0.59102723   -8.0862936    305.05104  0.015397286  0.014439544            3 
 1652000   0.59549277   -8.0799863    304.64459  0.015367463  0.014427742            7 
 1653000   0.59321411   -8.0835225    304.59198  0.015355514  0.014415957            6 
 1654000   0.59475143   -8.0824722    304.74266  0.015353822  0.014404179            5 
 1655000   0.58702047   -8.0831753    305.18161  0.015366647  0.014392407            5 
 1656000   0.60316341   -8.0766258    304.77106  0.015336708  0.014380621            5 
 1657000   0.59655117   -8.0728259    304.49285  0.015313461  0.014368862            5 
 1658000   0.58950627   -8.0819573    304.78854  0.015319086   0.01435712            5 
 1659000   0.58229013   -8.0885025    304.88795  0.015314846  0.014345364            6 
 1660000   0.59205387    -8.076553    304.91214  0.015306834  0.014333635            6 
 1661000   0.59250299   -8.0909946    304.48192  0.015276034  0.014321908            5 
 1662000   0.58571583   -8.0805216    305.03437  0.015294543  0.014310194            7 
 1663000   0.57796539   -8.0823733    305.09613  0.015288441  0.014298501            4 
 1664000   0.58717953   -8.0758853    304.74643   0.01526174  0.014286819            4 
 1665000    0.5779793   -8.0768029    304.76001  0.015253254  0.014275124            5 
 1666000   0.58313618    -8.081336    304.96169  0.015254186  0.014263441           12 
 1667000   0.58057156   -8.0909931    304.07586  0.015200753   0.01425175            4 
 1668000   0.58895238   -8.0892533    304.66619  0.015221133  0.014240093            9 
 1669000   0.58255511   -8.0745416    304.90385  0.015223879  0.014228432            7 
 1670000   0.58781665   -8.0963219    304.16671   0.01517798  0.014216772            7 
 1671000   0.59653378   -8.1119025    304.64082   0.01519254  0.014205122            6 
 1672000   0.58395526   -8.0803098    304.62523  0.015182677  0.014193499            5 
 1673000   0.58260652   -8.0905909    303.94108  0.015139524  0.014181888            3 
 1674000    0.5816075   -8.0961511    304.71084  0.015168799  0.014170296            6 
 1675000   0.58563901   -8.0986769    304.85772  0.015167051  0.014158718            4 
 1676000   0.57692862   -8.0892323    304.59763  0.015145069  0.014147158            6 
 1677000   0.58598174    -8.109472    304.62798  0.015137546  0.014135603            7 
 1678000   0.57369049   -8.0903426    304.49252  0.015121798  0.014124058            4 
 1679000   0.57634227   -8.1003973    304.97302   0.01513664  0.014112534            6 
 1680000   0.58886936   -8.1004682    304.64476  0.015111347  0.014101013            4 
 1681000   0.58229672   -8.1029988    304.43871  0.015092143  0.014089499            7 
 1682000   0.58371775   -8.0894468    304.48064  0.015085248  0.014078005            6 
 1683000   0.57418756   -8.0874184    304.62088  0.015083228  0.014066512            5 
 1684000   0.58061615    -8.097769    304.31591   0.01505918  0.014055018            6 
 1685000    0.5738248   -8.0940552    304.42366  0.015055572  0.014043533           11 
 1686000   0.57254449   -8.0837906    304.68398  0.015059509  0.014032058            5 
 1687000   0.57504618    -8.102777    305.15537  0.015073867  0.014020609            8 
 1688000   0.58662827   -8.0954732    304.81316  0.015048043  0.014009166            4 
 1689000   0.57363185   -8.1029416    304.49777  0.015023572  0.013997737            5 
 1690000   0.59319738    -8.118847    304.45789  0.015012716  0.013986309            4 
 1691000   0.57832802   -8.0875962    305.01298  0.015031194  0.013974901            4 
 1692000   0.58454198   -8.0755168    304.34737  0.014989528  0.013963512            4 
 1693000   0.57157628   -8.0946149    304.31526  0.014979094  0.013952115            6 
 1694000   0.57320833   -8.0900712    304.59321  0.014983924  0.013940734            6 
 1695000   0.58903124   -8.0965713    304.26433  0.014958915  0.013929355            6 
 1696000   0.58120023   -8.0949464    304.70977  0.014971982  0.013917991            5 
 1697000   0.57628656   -8.1009358    304.17234  0.014936768  0.013906638            4 
 1698000   0.56397097   -8.1145809    304.24046  0.014931314  0.013895301            6 
 1699000   0.57346557   -8.1084079    304.63848  0.014942048  0.013883956            5 
 1700000    0.5759171   -8.1141833    304.46783  0.014924894  0.013872655            3 
 1701000   0.58872756   -8.0966662    304.46334  0.014915899  0.013861341            5 
 1702000     0.567775   -8.1068449    304.17908  0.014893218  0.013850027            4 
 1703000   0.57051443   -8.1147102    304.74514  0.014912172  0.013838728            2 
 1704000    0.5798279   -8.1169393    304.77517  0.014904889  0.013827455            2 
 1705000   0.56996087   -8.0836606    304.36575  0.014876137  0.013816191            4 
 1706000   0.57000156   -8.0989137    304.35803   0.01486704  0.013804927            6 
 1707000   0.56435621   -8.1038357    304.09197  0.014845341  0.013793663            4 
 1708000   0.57959477   -8.1129861    304.42058  0.014852682  0.013782413            4 
 1709000    0.5768344   -8.1111327    304.35612  0.014840849  0.013771193            4 
 1710000   0.57908837   -8.1029808    304.58105  0.014843131  0.013759987            5 
 1711000   0.57421529   -8.1153114    304.55156   0.01483302   0.01374879            4 
 1712000   0.57432278   -8.1039038    304.74678  0.014833858  0.013737603            4 
 1713000   0.57753135   -8.1025402    304.44184  0.014810364  0.013726437            3 
 1714000   0.57257395   -8.1152033    304.43127  0.014801209  0.013715278            4 
 1715000   0.56839043   -8.1152725    304.48955  0.014795411  0.013704115            6 
 1716000   0.55774213   -8.1115684    304.45602   0.01478516  0.013692984            5 
 1717000   0.57701604   -8.1415327    304.51321  0.014779325  0.013681825            4 
 1718000    0.5539555   -8.1227291    304.24642  0.014757781  0.013670688            4 
 1719000   0.57291618   -8.0965812    303.99423  0.014736971   0.01365954            4 
 1720000   0.57297818   -8.1083232    303.97101  0.014727278  0.013648418            3 
 1721000   0.55758331   -8.1283153    304.40056  0.014739519  0.013637289            4 
 1722000   0.56536248   -8.1374972    304.31727  0.014726929  0.013626162            8 
 1723000   0.56191782   -8.1322412     304.6298  0.014733498  0.013615047            6 
 1724000   0.56483859   -8.1223832    304.43749  0.014715656  0.013603946            4 
 1725000   0.56932618   -8.1240764    304.78665  0.014723993  0.013592856            8 
 1726000   0.56992641   -8.1262461    304.16647  0.014685519  0.013581772            2 
 1727000   0.57382061   -8.1324989    303.79863  0.014659266  0.013570703            5 
 1728000   0.56110474    -8.127418    304.49595  0.014684411  0.013559637            5 
 1729000   0.56415106   -8.1293285    303.95426   0.01464981  0.013548584            5 
 1730000   0.56812218   -8.1404213    304.40688  0.014663144  0.013537545            5 
 1731000   0.56517486   -8.1235782    304.14208  0.014641926  0.013526527            8 
 1732000   0.55541769    -8.126323    304.26464  0.014639369  0.013515496            8 
 1733000   0.56326688   -8.1218423    304.28825  0.014632057  0.013504465            8 
 1734000   0.55709859   -8.1403433    304.36972  0.014627534  0.013493466            4 
 1735000   0.56024308   -8.1472171    303.71308  0.014587564  0.013482469            6 
 1736000   0.56170646   -8.1174535    303.88336  0.014587335  0.013471485            5 
 1737000   0.55369715   -8.1506854    303.99596  0.014584339  0.013460498            6 
 1738000   0.57456958   -8.1532244    304.57764  0.014603838  0.013449518           12 
 1739000   0.55944829   -8.1458034      304.105  0.014572791  0.013438553            6 
 1740000   0.55468285   -8.1454092     304.0077  0.014559756  0.013427586            5 
 1741000   0.55704768   -8.1471355    304.11033  0.014556305  0.013416625            7 
 1742000   0.56450612   -8.1202565    303.91887   0.01453879  0.013405698            5 
 1743000   0.55391848   -8.1215402    303.92373  0.014530681  0.013394779            3 
 1744000     0.554285   -8.1440648    303.62536  0.014508093   0.01338385            4 
 1745000   0.55133443   -8.1425038    304.15536  0.014525089  0.013372925           10 
 1746000   0.55882633   -8.1294008    303.91381  0.014505241  0.013362013            6 
 1747000   0.56387425   -8.1360922     304.1606   0.01450871   0.01335111            3 
 1748000   0.55180844   -8.1430381    303.85431  0.014485808  0.013340237            5 
 1749000    0.5609981   -8.1552312    303.93187  0.014481221  0.013329348            6 
 1750000   0.54800982   -8.1622987     304.3363  0.014492205  0.013318469            3 
 1751000   0.54895498    -8.138211    304.28339   0.01448141  0.013307582            4 
 1752000   0.55124814   -8.1518325     303.8648  0.014453235  0.013296723            3 
 1753000   0.55690221   -8.1571597    303.82852  0.014443265  0.013285857            4 
 1754000   0.54776441   -8.1398105     304.1762  0.014451549  0.013275004            7 
 1755000   0.55275939   -8.1538534    303.45219  0.014408936  0.013264174            4 
 1756000   0.55206249   -8.1697268    303.88219  0.014421137  0.013253336            3 
 1757000   0.54340075   -8.1524944    304.11979  0.014424198  0.013242526            4 
 1758000   0.55210612   -8.1615857    303.69437  0.014395827  0.013231721            5 
 1759000   0.54742965   -8.1623755    303.93395  0.014398993  0.013220932            6 
 1760000   0.55504027   -8.1339148    303.78645  0.014383828  0.013210147            4 
 1761000   0.54817019   -8.1603338    304.37195  0.014403367  0.013199382            6 
 1762000   0.55473025   -8.1713502    303.65225  0.014361154  0.013188619            3 
 1763000   0.54022259   -8.1744281    303.86248  0.014362946  0.013177859           10 
 1764000   0.55607111   -8.1631376    304.20373  0.014370924  0.013167108            5 
 1765000   0.54774731   -8.1541023    303.64607  0.014336453  0.013156379            6 
 1766000   0.54362999   -8.1644629    303.92325  0.014341414  0.013145669            4 
 1767000   0.55663057   -8.1721181    303.53322  0.014314904  0.013134953            3 
 1768000   0.54976759   -8.1586335    303.89316  0.014323772  0.013124256            6 
 1769000   0.54117486   -8.1547143    303.73331  0.014308145  0.013113577            4 
 1770000   0.53863396    -8.163438    303.98343  0.014311838  0.013102904            5 
 1771000   0.54440808   -8.1691992    303.13274  0.014263728  0.013092226            4 
 1772000   0.55092476   -8.1736936    303.66365  0.014280646  0.013081555            7 
 1773000   0.53893792   -8.1716147    304.16774  0.014296284  0.013070895            3 
 1774000   0.55221603   -8.1634827    303.86366  0.014273941  0.013060247            7 
 1775000   0.54815932   -8.1687555    303.72803  0.014259532   0.01304961            8 
 1776000   0.54024108   -8.1913142    303.86508  0.014257934   0.01303898            6 
 1777000    0.5529781   -8.1937098    303.28281  0.014222604  0.013028359            3 
 1778000   0.54406347   -8.1773581    303.68117  0.014233276  0.013017738            5 
 1779000   0.54155724   -8.1614585    303.43035  0.014213526   0.01300714            5 
 1780000   0.54316368   -8.1756951    303.56659  0.014211919  0.012996538            6 
 1781000   0.55069096   -8.1856657    303.53954  0.014202674  0.012985953            3 
 1782000   0.53828078   -8.1794591      303.476  0.014191732  0.012975374            3 
 1783000    0.5362621     -8.14938     303.7028  0.014194373  0.012964805            5 
 1784000   0.54126679   -8.1538273    304.01625  0.014201058  0.012954251            8 
 1785000   0.53753613    -8.164814    304.03302  0.014193885  0.012943708            8 
 1786000   0.54390634   -8.1786406    303.49353  0.014160766  0.012933181            6 
 1787000   0.53721021   -8.1826519    302.51555  0.014107235  0.012922647            4 
 1788000   0.52875154   -8.1698538    303.25283  0.014133707  0.012912132            5 
 1789000   0.54599482   -8.1725465      303.569  0.014140535  0.012901626            6 
 1790000   0.53500111   -8.1859107    303.94292  0.014150043  0.012891131            5 
 1791000   0.53684783   -8.1661777    303.50227  0.014121639  0.012880646           11 
 1792000   0.53518515   -8.1649204    303.41528  0.014109714  0.012870172            7 
 1793000   0.54367352   -8.1957074    303.31141  0.014097017  0.012859708            7 
 1794000   0.54983266   -8.1715319    302.85267   0.01406785  0.012849256            7 
 1795000   0.53667613   -8.1810484    303.25877  0.014078866  0.012838807            4 
 1796000   0.53416515   -8.1764599      303.629  0.014088205  0.012828372            5 
 1797000   0.53373477   -8.1708701    303.89886   0.01409288  0.012817955            5 
 1798000   0.54671069    -8.168279    303.35908  0.014060024  0.012807541            6 
 1799000   0.53435569   -8.1783092    303.85652  0.014075251  0.012797134            4 
 1800000   0.53625305   -8.1759899    303.64753  0.014057756  0.012786744            5 
 1801000   0.53036433   -8.1801768    303.52989  0.014044507  0.012776366            6 
 1802000   0.54136989   -8.1664145    303.64061  0.014041834  0.012765999            4 
 1803000   0.53526776   -8.1976982     303.6305  0.014033578  0.012755634            4 
 1804000   0.53749753   -8.1884143    303.12774  0.014002575  0.012745274            4 
 1805000   0.52647651   -8.2024492    303.41275  0.014007976  0.012734934            3 
 1806000   0.52682501   -8.1909934    303.70705  0.014013799  0.012724601            7 
 1807000   0.54120778   -8.1816927    303.55323   0.01399895  0.012714272            9 
 1808000   0.53579407   -8.1965811    303.46182  0.013986994  0.012703961            9 
 1809000   0.53161248   -8.1944332    303.28108  0.013970936  0.012693649            4 
 1810000   0.53298214   -8.1853697    303.67349  0.013981284  0.012683358            4 
 1811000    0.5372048   -8.1854956     304.0795  0.013992246   0.01267307            3 
 1812000   0.52883125   -8.1973421    303.31414  0.013949326  0.012662792            6 
 1813000    0.5297415   -8.1748795    303.56577  0.013953198   0.01265252           11 
 1814000   0.53897325   -8.1946321    303.46121  0.013940703  0.012642265            3 
 1815000    0.5370712   -8.1957941    303.20802  0.013921397  0.012632024            6 
 1816000   0.51234577   -8.2067491    303.84949  0.013943167  0.012621787            5 
 1817000   0.51599166    -8.189332    303.37062  0.013913531  0.012611558            4 
 1818000   0.52845318   -8.1780762    303.44825  0.013909436  0.012601339            2 
 1819000   0.52756415   -8.2000662    303.32351  0.013896074  0.012591139            6 
 1820000   0.52487347   -8.1985552    303.74496  0.013907736  0.012580947            6 
 1821000   0.52850336    -8.201539    303.43728  0.013886019  0.012570759            5 
 1822000   0.52971983   -8.2012205    303.08061  0.013862084  0.012560578            7 
 1823000   0.53167397   -8.1971917    302.71816  0.013837912  0.012550412            5 
 1824000   0.52191379   -8.2025219    303.15336  0.013850208  0.012540246            8 
 1825000   0.52907088    -8.198944    303.46439  0.013856822  0.012530084            4 
 1826000   0.52743155   -8.1909168    303.47373  0.013849659  0.012519934            5 
 1827000   0.52175707   -8.2014731    303.44629  0.013840827  0.012509804            5 
 1828000   0.52832951   -8.1966936    303.23147  0.013823462  0.012499675            5 
 1829000   0.51312894   -8.1945331    303.21949  0.013815359  0.012489564            6 
 1830000   0.50990147   -8.2022933    303.19677  0.013806775   0.01247945            4 
 1831000   0.51696553   -8.1845863    303.57716  0.013816547  0.012469354            6 
 1832000   0.51668267   -8.1932694     302.6769  0.013768054  0.012459284            6 
 1833000   0.52172681   -8.2215589    303.14486  0.013781818  0.012449209            4 
 1834000   0.51547413   -8.2104655    303.08204  0.013771449  0.012439148            6 
 1835000   0.52168476   -8.1951371    302.99025  0.013759775  0.012429095            5 
 1836000   0.52757313   -8.1958317    303.17318  0.013760584  0.012419043            6 
 1837000   0.52540172   -8.2039346    303.13758  0.013751478  0.012409014            7 
 1838000   0.52101081   -8.1944403    303.30158  0.013751432  0.012398997            8 
 1839000   0.52153935   -8.2044773    303.24709  0.013741485  0.012388982            4 
 1840000    0.5196365   -8.2038642    303.02648  0.013724025  0.012378984            8 
 1841000   0.51673352   -8.1989501    303.46941   0.01373662   0.01236898            5 
 1842000    0.5259477   -8.2091165    302.94512  0.013705443  0.012358976            6 
 1843000    0.5257461   -8.2151967    302.61524  0.013683091  0.012348989            3 
 1844000   0.51672268   -8.2174525    303.47136   0.01371436  0.012339008            5 
 1845000     0.505347   -8.2184349    302.59924  0.013667536  0.012329045            7 
 1846000   0.52121951   -8.1928664    302.92066  0.013674642  0.012319087            7 
 1847000   0.51931748    -8.217076    303.17121  0.013678542  0.012309146            6 
 1848000   0.51304189   -8.2108764    303.36239  0.013679761  0.012299208            4 
 1849000   0.52481821   -8.2445161    303.27054  0.013668223   0.01228928            6 
 1850000   0.51658314   -8.1983142    303.21749  0.013658445  0.012279367            8 
 1851000    0.5154838   -8.2165418    303.30696  0.013655095  0.012269461            6 
 1852000   0.50730438   -8.2361242    303.19581   0.01364272  0.012259543            6 
 1853000   0.52774778   -8.2234204     303.2196  0.013636427  0.012249645            9 
 1854000    0.5149043   -8.2327237    302.74973  0.013607952  0.012239751           10 
 1855000   0.51068639   -8.2038578    303.00819  0.013612228   0.01222987            6 
 1856000   0.52346619   -8.2203675      303.052  0.013606861  0.012219996            7 
 1857000   0.51793839   -8.2141192    302.77605   0.01358715  0.012210137            6 
 1858000   0.49851847   -8.2217634    302.73643   0.01357806  0.012200291            7 
 1859000    0.5149363    -8.230658    302.98983  0.013582115  0.012190442            6 
 1860000   0.51743268    -8.218953    302.84259  0.013568216  0.012180602            6 
 1861000   0.50975727   -8.2365419    303.26487  0.013579835  0.012170769            4 
 1862000   0.50814201   -8.2211214    302.57878  0.013541836  0.012160948            6 
 1863000   0.51673336    -8.223324    303.58378  0.013579521  0.012151143            4 
 1864000   0.51376103   -8.2301814    302.59601  0.013528076  0.012141343            4 
 1865000   0.50401031   -8.2267375    302.84807  0.013532085  0.012131542            4 
 1866000   0.52019366    -8.208411    303.01845  0.013532442  0.012121768            6 
 1867000   0.50826339   -8.2091885    302.58426  0.013505814  0.012111994            5 
 1868000   0.49955107   -8.2080238    303.29551  0.013530314  0.012102235            7 
 1869000   0.49928455   -8.2180436    302.84214   0.01350286  0.012092478            8 
 1870000   0.51060615   -8.2266707    303.04537  0.013504696  0.012082723            5 
 1871000   0.50617841   -8.2381795    303.02357  0.013496507   0.01207299            8 
 1872000   0.51508094   -8.2472678    302.62464  0.013471539  0.012063258            8 
 1873000   0.51175162   -8.2162462    302.52055  0.013459715  0.012053531            5 
 1874000   0.51421285   -8.2384941    302.68442   0.01345982  0.012043814            6 
 1875000   0.50122746   -8.2376187    302.56944  0.013447531  0.012034111            6 
 1876000   0.50733677   -8.2031223    302.60951  0.013442143  0.012024421            6 
 1877000   0.51177837   -8.2204317    302.89199  0.013447522  0.012014745            7 
 1878000   0.50910563    -8.228211    302.99378  0.013444878  0.012005073            4 
 1879000   0.50434166   -8.2183612    302.89522  0.013433352  0.011995403            7 
 1880000   0.49712931   -8.2485297    302.49726  0.013408567  0.011985746            3 
 1881000   0.49808864   -8.2450763    302.64566  0.013408013  0.011976109            7 
 1882000    0.5137133   -8.2476925    303.02929  0.013417875  0.011966465            6 
 1883000   0.50561785   -8.2412998    302.49216  0.013386978  0.011956836            5 
 1884000   0.49887495   -8.2417489    302.29001  0.013370931  0.011947211            4 
 1885000    0.5004107   -8.2234055     302.4575  0.013371242  0.011937591            8 
 1886000   0.50360882   -8.2447287    302.55079  0.013368275  0.011927978            9 
 1887000   0.49815322   -8.2536249    303.12666  0.013386621  0.011918388            7 
 1888000   0.50764452   -8.2378829    302.90414   0.01336971  0.011908807            6 
 1889000   0.47913327   -8.2501244    302.45268  0.013342716  0.011899222            4 
 1890000   0.49937534   -8.2437728    302.20239   0.01332462  0.011889653            6 
 1891000   0.49580868   -8.2441625    302.56803  0.013333687  0.011880091            5 
 1892000   0.50010578   -8.2323063     302.3712   0.01331797   0.01187054            6 
 1893000   0.50459773   -8.2381963    302.31782  0.013308585  0.011860998            7 
 1894000   0.49179215   -8.2587302    302.63286   0.01331542  0.011851464            5 
 1895000   0.49862515   -8.2533305    302.44011  0.013299917  0.011841946            9 
 1896000   0.49134953   -8.2567909    302.32143  0.013287686  0.011832439            6 
 1897000   0.49168319   -8.2404875    302.20563  0.013275594  0.011822938            6 
 1898000   0.49364153   -8.2417181    302.09968  0.013263948  0.011813449            4 
 1899000   0.50570103   -8.2506455    302.51152  0.013275036  0.011803957            7 
 1900000    0.4903127   -8.2385422    302.20093  0.013254427  0.011794475            5 
 1901000   0.49410215   -8.2394818    302.08785  0.013242498  0.011785006            6 
 1902000    0.4997076   -8.2656666    302.52606  0.013254735  0.011775554            8 
 1903000   0.49257368   -8.2383115    302.81467  0.013260408  0.011766111            5 
 1904000   0.49213368   -8.2501277    302.64991  0.013246232  0.011756668            4 
 1905000   0.48506067    -8.240035    302.45385  0.013230702  0.011747239            5 
 1906000   0.48825156   -8.2383229    302.21079  0.013213133  0.011737813            6 
 1907000   0.48674966   -8.2564721    302.80582  0.013232207  0.011728403            8 
 1908000   0.50039231   -8.2590297    302.77455  0.013223906  0.011718998            6 
 1909000   0.48894283    -8.241151    302.08249  0.013186768  0.011709606            7 
 1910000   0.48860315   -8.2548002    302.49183  0.013197724  0.011700227            6 
 1911000   0.49555951   -8.2434986    302.39751  0.013186705  0.011690855            7 
 1912000   0.48633942    -8.259631    302.46931  0.013182937  0.011681491            4 
 1913000   0.49677054   -8.2458078    302.91774   0.01319558  0.011672138            4 
 1914000   0.48442444   -8.2589449    302.47563  0.013169437  0.011662787            5 
 1915000   0.49251857   -8.2547172    302.53429  0.013165113  0.011653453            5 
 1916000   0.49043459   -8.2632976    302.35812  0.013150579  0.011644133           10 
 1917000   0.49492409   -8.2679199    302.13978  0.013134228  0.011634807            4 
 1918000   0.49366435   -8.2718835    302.15377  0.013127988  0.011625496            9 
 1919000   0.48201611   -8.2625423     302.3894  0.013131379  0.011616184            3 
 1920000   0.48357346   -8.2641125    302.84184  0.013144177  0.011606888            8 
 1921000   0.48664652   -8.2567879    302.44366  0.013120062  0.011597593            7 
 1922000   0.48145743   -8.2506368    302.11173  0.013098844  0.011588319            7 
 1923000   0.48716137   -8.2625862    302.04355  0.013089078  0.011579058            5 
 1924000   0.48425072   -8.2667021    302.18985  0.013088611  0.011569808            7 
 1925000   0.48495491   -8.2503731    302.58852   0.01309907  0.011560561            5 
 1926000   0.48587103   -8.2675884    302.34138  0.013081576  0.011551317           10 
 1927000   0.49118459   -8.2626574    302.24095  0.013070444  0.011542074           12 
 1928000   0.48487826    -8.263397    302.42317  0.013071541  0.011532849            8 
 1929000   0.48041819   -8.2513782     302.1896  0.013054674  0.011523637            5 
 1930000   0.49087662    -8.251132    302.23796  0.013049998  0.011514439            5 
 1931000   0.47788525   -8.2514192    302.40113  0.013050282  0.011505243            7 
 1932000   0.48248796   -8.2543437    302.23447  0.013036338  0.011496056            3 
 1933000    0.4812095   -8.2327843    301.84252  0.013012697  0.011486882            7 
 1934000   0.48176782   -8.2587047    302.08832   0.01301656  0.011477705            4 
 1935000   0.46746714   -8.2670112    302.05272    0.0130083  0.011468544            4 
 1936000   0.48321944   -8.2671922    302.07379  0.013002488  0.011459382            7 
 1937000   0.47475982   -8.2668044    302.02711  0.012993767  0.011450234            3 
 1938000   0.47119282   -8.2681299     302.5014  0.013007456  0.011441086            4 
 1939000   0.48273184   -8.2623115    301.85317  0.012972889  0.011431954            5 
 1940000   0.47404234   -8.2657349    302.41487  0.012990329  0.011422828            5 
 1941000   0.47804209   -8.2800968    302.01852   0.01296662  0.011413717            6 
 1942000   0.48743032   -8.2622967    302.08858   0.01296295   0.01140461            6 
 1943000   0.48583846   -8.2745635    302.35904  0.012967878  0.011395518            5 
 1944000   0.47289486   -8.2667671    302.23058  0.012955701  0.011386434            4 
 1945000   0.47431314   -8.2695597    301.89604  0.012934706  0.011377352            4 
 1946000   0.47254015   -8.2787525    302.37655  0.012948636  0.011368291            5 
 1947000   0.47684044   -8.2783836    302.18201  0.012933659  0.011359235           12 
 1948000   0.47714651   -8.2795023    301.84075  0.012912421  0.011350182            4 
 1949000   0.47173153   -8.2773388    302.27404  0.012924322  0.011341149            6 
 1950000   0.47176687   -8.2921594    302.15878  0.012912768  0.011332116           10 
 1951000    0.4738569   -8.2718188    301.99567  0.012899183  0.011323079            5 
 1952000   0.47180682   -8.3023727    302.09704  0.012896902  0.011314052            8 
 1953000   0.48445697   -8.2754584    302.67736  0.012915061   0.01130505            2 
 1954000   0.46968476   -8.2930597    302.09791  0.012883739  0.011296057            3 
 1955000   0.47414614   -8.2738105    302.38536  0.012889401  0.011287071            2 
 1956000   0.46926195   -8.2887467     302.1404  0.012872376  0.011278085            4 
 1957000    0.4669706   -8.2798754    301.71695  0.012847767  0.011269113            8 
 1958000    0.4751482   -8.2740973    302.10782  0.012857841  0.011260143            6 
 1959000   0.47902443   -8.2674138    302.33549  0.012860962  0.011251188            4 
 1960000   0.46550924   -8.2773993    301.96852  0.012838798  0.011242249            2 
 1961000   0.46496079   -8.2915332    301.66339  0.012819284  0.011233308            5 
 1962000   0.47678132   -8.2806443    302.00337   0.01282719  0.011224377            3 
 1963000    0.4668165   -8.2769408    301.60545  0.012803764  0.011215451            3 
 1964000   0.46233118    -8.283159    302.01814  0.012814755  0.011206533            8 
 1965000     0.470842   -8.2926428    301.96092  0.012805806  0.011197621            6 
 1966000   0.45963202   -8.2731199    302.11496  0.012805822  0.011188714            3 
 1967000      0.47685    -8.285311    301.59131  0.012777127  0.011179811            3 
 1968000   0.47164142    -8.286848    301.72736  0.012776396  0.011170924            3 
 1969000    0.4608824   -8.2856997    301.68884  0.012768277   0.01116204            5 
 1970000   0.47131846   -8.2861712    301.84661  0.012768469  0.011153168            4 
 1971000   0.47474501   -8.2897258    301.64804  0.012753595  0.011144304            3 
 1972000   0.46248807   -8.2874836    301.85162  0.012755731  0.011135449            3 
 1973000   0.46100017   -8.2972857     301.9209  0.012752192  0.011126606            4 
 1974000   0.47106307   -8.2968189     301.9325  0.012746222  0.011117766            4 
 1975000    0.4662304   -8.2947356    301.60115  0.012725787  0.011108937            5 
 1976000   0.46774844   -8.2900314     302.0527   0.01273839   0.01110012            4 
 1977000   0.45940843   -8.2974247    301.77311  0.012720161  0.011091297            3 
 1978000    0.4692359   -8.2980001    301.27433  0.012692717  0.011082492            6 
 1979000   0.46412332   -8.3086789    301.68847  0.012703742  0.011073693            3 
 1980000   0.45849043   -8.3055541    301.53206  0.012690743  0.011064905            4 
 1981000   0.45511602    -8.304681    301.71131  0.012691877  0.011056125            3 
 1982000   0.45104809   -8.2967794    301.67561  0.012683973  0.011047347            2 
 1983000   0.45778175   -8.3003439    301.65121  0.012676551  0.011038583            6 
 1984000   0.45851383   -8.3047529    301.44032  0.012661304  0.011029831            3 
 1985000   0.46265541   -8.2883825    301.86037  0.012672559  0.011021074            3 
 1986000   0.46332608   -8.2876402    302.08369  0.012675549  0.011012325            4 
 1987000   0.46252911    -8.296279    301.76168  0.012655665  0.011003589            2 
 1988000   0.46114173   -8.3104079    301.56172  0.012640917  0.010994862            5 
 1989000   0.45460258   -8.3064511    301.61795  0.012636918  0.010986146            3 
 1990000   0.46964739   -8.2918521    302.00481  0.012646768  0.010977435            6 
 1991000   0.45180536   -8.3134556     301.3145  0.012611523  0.010968736            7 
 1992000    0.4625417   -8.2949763     301.8215  0.012626401   0.01096005            5 
 1993000   0.45934519   -8.3055518     301.6879   0.01261448  0.010951372            4 
 1994000   0.46309703   -8.3122584    301.53859  0.012601914  0.010942703            2 
 1995000   0.45698552    -8.310426    301.48566  0.012593386  0.010934037            4 
 1996000   0.46457712   -8.3199892    301.65141  0.012593997  0.010925379            3 
 1997000   0.45990836   -8.3225451    301.40276  0.012577314   0.01091673            4 
 1998000    0.4608472   -8.3017012    301.82204  0.012588507   0.01090808            4 
 1999000   0.46920054   -8.3041762    301.71568  0.012577775  0.010899451            3 
 2000000   0.46233313   -8.3036119    301.71124  0.012571301  0.010890825            3 
 2001000   0.45457343   -8.3047139    301.49123  0.012555857  0.010882205            3 
 2002000    0.4413134   -8.3121982    301.74043  0.012559958  0.010873594            9 
 2003000   0.44879076   -8.3221998    301.24423  0.012533043  0.010864991            5 
 2004000   0.45955917   -8.3100502    301.80912  0.012550279  0.010856403            6 
 2005000    0.4647913   -8.3217503    301.35384  0.012525097  0.010847828            9 
 2006000   0.45625382   -8.3064947    301.92986  0.012542782  0.010839251            5 
 2007000   0.45198069   -8.3272944    301.12546  0.012503133  0.010830684            2 
 2008000   0.45230799   -8.3138441    301.60727  0.012516902  0.010822118            3 
 2009000    0.4527031   -8.3227326    301.68515  0.012513902  0.010813569            3 
 2010000   0.45079911   -8.3234584    301.76669  0.012511057  0.010805018            2 
 2011000   0.45706841   -8.3162693    301.19794  0.012481267  0.010796474            2 
 2012000   0.45827248   -8.3182337    301.15865  0.012473436  0.010787938            4 
Loop time of 4595.74 on 48 procs for 2000000 steps with 4000 atoms

Performance: 75200.006 tau/day, 435.185 timesteps/s
99.4% CPU use with 48 MPI tasks x no OpenMP threads

MPI task timing breakdown:
Section |  min time  |  avg time  |  max time  |%varavg| %total
---------------------------------------------------------------
Pair    | 276.09     | 309.48     | 328.64     |  64.1 |  6.73
Neigh   | 29.932     | 31.204     | 32.412     |  10.5 |  0.68
Comm    | 283.54     | 300.1      | 337.94     |  70.4 |  6.53
Output  | 4.1265     | 4.1282     | 4.1655     |   0.3 |  0.09
Modify  | 3897.2     | 3908.6     | 3921.2     |   8.5 | 85.05
Other   |            | 42.26      |            |       |  0.92

Nlocal:        83.3333 ave          93 max          77 min
Histogram: 4 7 4 11 6 8 3 2 1 2
Nghost:        1961.38 ave        1986 max        1934 min
Histogram: 2 1 4 8 5 9 9 8 1 1
Neighs:        12435.8 ave       13964 max       10963 min
Histogram: 4 3 3 6 10 9 5 0 4 4
FullNghs:      24871.8 ave       28101 max       22792 min
Histogram: 4 7 7 8 7 7 5 0 1 2

Total # of neighbors = 1193844
Ave neighs/atom = 298.46100
Neighbor list builds = 107399
Dangerous builds = 1

#clear
#
#next RN
#
#jump SELF
Total wall time: 1:16:38
