
units lj                  # Use reduced LJ style units
atom_style atomic         # Uncharged point particles
atom_modify map hash      # Needed for indexing of clusters etc
                          # Used to be able to find where atoms are in relation to each other.

lattice fcc 1.0 spacing 1 1 1
Lattice spacing in x,y,z = 1.5874011 1.5874011 1.5874011
region box block 0 10 0 10 0 10 units lattice
create_box 2 box
Created orthogonal box = (0.0000000 0.0000000 0.0000000) to (15.874011 15.874011 15.874011)
  3 by 4 by 4 MPI processor grid
create_atoms 1 box
Created 4000 atoms
  using lattice units in orthogonal box = (0.0000000 0.0000000 0.0000000) to (15.874011 15.874011 15.874011)
  create_atoms CPU = 0.012 seconds
set type 1 type/fraction 2 0.75 78393
Setting atom values ...
  3002 settings made for type/fraction
mass 1 1.0
mass 2 1.0
pair_style lj/cut  3.5
pair_modify tail  yes
pair_coeff 1  1  1.0  1.0   # Intearaction between 1 and 1 set with epsilon = 1 and sigma = 1
pair_coeff 1  2  1.5  0.8
pair_coeff 2  2  0.5  0.88

write_data data.0
System init for write_data ...
Neighbor list info ...
  update every 1 steps, delay 10 steps, check yes
  max neighbors/atom: 2000, page size: 100000
  master list distance cutoff = 3.8
  ghost atom cutoff = 3.8
  binsize = 1.9, bins = 9 9 9
  1 neighbor lists, perpetual/occasional/extra = 1 0 0
  (1) pair lj/cut, perpetual
      attributes: half, newton on
      pair build: half/bin/atomonly/newton
      stencil: half/bin/3d
      bin: standard
WARNING: Not all mixed pair coeffs generated from mixing. Use write_data with 'pair ij' option to store all pair coeffs. (../write_data.cpp:312)


#############################
#   M E L T   S Y S T E M   #
#############################

velocity all create 2.4 6229865 mom yes dist gaussian # Assign velocities
                                                    # Temperature 2.4, random number seed, zero linear momentum
                                                                                # Gaussian distribution

timestep 0.002   # simulation timestep
thermo 1000       # output thermodynamic data every 1000 steps bf 100

# Define a fix  in this case with index 1 applied to all
# particles in the simulation. This fix is for simulations
# in the anisotropic NPT ensemble. Note that we use the MTK
# correction.
fix 1 all npt temp 2.4 2.4 0.1 iso 5.68 5.68 0.5 mtk yes tchain 5 pchain 5 # Use NPT ensemble
                                                                         # Set temperature and pressure and damping
                                                                         # Numbers of thermostats in chain and in barostat
run 10000          # run for 10000 steps
Per MPI rank memory allocation (min/avg/max) = 3.642 | 3.644 | 3.648 Mbytes
Step Temp E_pair E_mol TotEng Press Volume 
       0          2.4    -3.937065            0  -0.33796495   -3.5201857         4000 
    1000    2.4203036   -3.3868767            0     0.242671    5.7980824    3734.4163 
    2000    2.4068568   -3.4766463            0    0.1327363    5.5882337    3702.9934 
    3000    2.4396515    -3.455272            0    0.2032904    5.8670195    3696.7033 
    4000     2.382466   -3.4258729            0   0.14693274    5.4887542    3729.6202 
    5000    2.4072697   -3.4193527            0   0.19064913    5.8663524    3714.4566 
    6000    2.3946653   -3.4726747            0   0.11842519    5.7519834    3686.0706 
    7000    2.3971758   -3.4649014            0   0.12996337    5.4696137    3718.8756 
    8000    2.3730614   -3.4879848            0  0.070717316    5.4186501    3703.2188 
    9000    2.3597195   -3.4443372            0  0.094357142    5.6720912    3695.9315 
   10000    2.4104592    -3.423907            0   0.19087777    5.2883673    3752.3142 
Loop time of 2.64683 on 48 procs for 10000 steps with 4000 atoms

Performance: 652857.535 tau/day, 3778.111 timesteps/s
99.6% CPU use with 48 MPI tasks x no OpenMP threads

MPI task timing breakdown:
Section |  min time  |  avg time  |  max time  |%varavg| %total
---------------------------------------------------------------
Pair    | 1.1813     | 1.2538     | 1.3352     |   2.9 | 47.37
Neigh   | 0.21747    | 0.22453    | 0.23822    |   0.9 |  8.48
Comm    | 0.7961     | 0.89457    | 0.96267    |   4.4 | 33.80
Output  | 0.00026554 | 0.00026972 | 0.00034326 |   0.0 |  0.01
Modify  | 0.20876    | 0.25795    | 0.30634    |   5.7 |  9.75
Other   |            | 0.01571    |            |       |  0.59

Nlocal:        83.3333 ave          94 max          74 min
Histogram: 1 3 4 7 15 6 1 6 2 3
Nghost:        1708.42 ave        1739 max        1673 min
Histogram: 1 2 3 6 7 14 4 5 4 2
Neighs:        10176.7 ave       11759 max        8606 min
Histogram: 2 3 2 9 10 10 3 4 2 3

Total # of neighbors = 488481
Ave neighs/atom = 122.12025
Neighbor list builds = 908
Dangerous builds = 204

# Equilibrate just above the melting temperature to avoid step fn in T

fix 1 all npt temp 1.25 1.25 0.1 iso 5.68 5.68 0.5 mtk yes tchain 5 pchain 5
run 2000
Per MPI rank memory allocation (min/avg/max) = 3.644 | 3.646 | 3.649 Mbytes
Step Temp E_pair E_mol TotEng Press Volume 
   10000    2.4104592    -3.423907            0   0.19087777    5.2883673    3752.3142 
   11000    1.2213947   -5.0227195            0   -3.1910854    6.0323296     2836.735 
   12000     1.245749   -5.1401054            0   -3.2719491    5.5630141    2823.0621 
Loop time of 0.657322 on 48 procs for 2000 steps with 4000 atoms

Performance: 525769.594 tau/day, 3042.648 timesteps/s
99.6% CPU use with 48 MPI tasks x no OpenMP threads

MPI task timing breakdown:
Section |  min time  |  avg time  |  max time  |%varavg| %total
---------------------------------------------------------------
Pair    | 0.29936    | 0.32301    | 0.35774    |   2.4 | 49.14
Neigh   | 0.04185    | 0.044382   | 0.048477   |   0.6 |  6.75
Comm    | 0.2017     | 0.23944    | 0.26449    |   3.1 | 36.43
Output  | 5.4667e-05 | 5.6564e-05 | 7.4627e-05 |   0.0 |  0.01
Modify  | 0.039968   | 0.045415   | 0.050539   |   1.5 |  6.91
Other   |            | 0.00502    |            |       |  0.76

Nlocal:        83.3333 ave          93 max          74 min
Histogram: 2 1 5 4 12 13 6 2 2 1
Nghost:        2069.79 ave        2086 max        2050 min
Histogram: 5 1 1 4 6 9 11 3 2 6
Neighs:        13528.2 ave       15415 max       11433 min
Histogram: 1 1 4 5 10 11 6 6 2 2

Total # of neighbors = 649352
Ave neighs/atom = 162.33800
Neighbor list builds = 144
Dangerous builds = 18

#############################
# L I N E A R  Q U E N C H  #
#############################

# Define solid atoms. This closely follows ten Wolde  Ruiz-Montero and Frenkel  Faraday Discuss  1996  104  93-110
# Compute components of the per-atom q6 vector
compute q6 all orientorder/atom degrees 1 6 components 6 nnn NULL cutoff 1.3 # compute the Q6 parameter.
                                                                             # Use all neighbours within 1.3 unit cell.

# get number of connections
compute coord_number all coord/atom orientorder q6 0.5

# An atom is solid if it has 8 or more connections (of a possible 14)
variable is_solid atom c_coord_number>=8
group solid dynamic all var is_solid    # Must be dynamic to update
dynamic group solid defined

# do clustering
compute cluster solid cluster/atom 1.3 # Create a cluster where all atoms within are solid and max 1.3 units from another member

# define chunks one chunk per cluster
compute clus_chunks solid chunk/atom c_cluster nchunk every compress yes  # Says which atoms are in which chunk

# count the size of each chunk
compute size_chunks solid property/chunk clus_chunks count


# Find the maximum entry in the vector of chunk sizes
variable max_n equal max(c_size_chunks)


# Thermo style which includes this variable
# thermo_style custom step temp pe vol v_max_n

thermo ${N}  # Print the thermo information every 100 steps
thermo 1000  

# Reset the npt fix at a lower temperature (below freezing)
fix 1  all npt temp  ${temp} ${temp}  0.1  iso  5.68  5.68  0.5  mtk yes tchain  5  pchain  5
fix 1  all npt temp  0.45 ${temp}  0.1  iso  5.68  5.68  0.5  mtk yes tchain  5  pchain  5
fix 1  all npt temp  0.45 0.45  0.1  iso  5.68  5.68  0.5  mtk yes tchain  5  pchain  5

dump dmp2 all dcd ${N} traj.dcd
dump dmp2 all dcd 1000 traj.dcd


compute msd all msd com yes
variable twopoint equal c_msd[4]/6/(step*dt+1.0e-6)
fix 9 all vector 10 c_msd[4]
variable fit equal slope(f_9)/6/(10*dt)
thermo_style custom step temp pe c_msd[4] v_twopoint v_fit v_max_n

fix 1 all npt temp 1.25 ${temp} 0.1 iso 5.68 5.68 0.5 mtk yes tchain 5 pchain 5
fix 1 all npt temp 1.25 0.45 0.1 iso 5.68 5.68 0.5 mtk yes tchain 5 pchain 5
run 2000000 # 5000000  # Run for this many steps
Neighbor list info ...
  update every 1 steps, delay 10 steps, check yes
  max neighbors/atom: 2000, page size: 100000
  master list distance cutoff = 3.8
  ghost atom cutoff = 3.8
  binsize = 1.9, bins = 8 8 8
  4 neighbor lists, perpetual/occasional/extra = 1 3 0
  (1) pair lj/cut, perpetual
      attributes: half, newton on
      pair build: half/bin/atomonly/newton
      stencil: half/bin/3d
      bin: standard
  (2) compute orientorder/atom, occasional
      attributes: full, newton on
      pair build: full/bin/atomonly
      stencil: full/bin/3d
      bin: standard
  (3) compute coord/atom, occasional
      attributes: full, newton on
      pair build: full/bin/atomonly
      stencil: full/bin/3d
      bin: standard
  (4) compute cluster/atom, occasional
      attributes: full, newton on
      pair build: full/bin/atomonly
      stencil: full/bin/3d
      bin: standard
Per MPI rank memory allocation (min/avg/max) = 9.840 | 9.847 | 9.851 Mbytes
Step Temp PotEng c_msd[4] v_twopoint v_fit v_max_n 
   12000     1.245749   -5.1401054 3.9443045e-34 2.7391003e-36 8.3333333e+20            1 
   13000    1.2812444   -5.1522602   0.69757181  0.004471614   0.05872989            2 
   14000    1.2712671   -5.0687633    1.4610421 0.0086966787  0.061071209            4 
   15000    1.2223869   -5.1475022    2.1158217  0.011754564  0.059630864            1 
   16000    1.2415801   -5.1206294    2.8078648  0.014624295  0.058558946            3 
   17000    1.2329291   -5.0854527    3.4941809  0.017128337    0.0582462            1 
   18000    1.2576556   -5.1364949    4.2380915  0.019620794  0.058135269            2 
   19000    1.2412031   -5.1424685     4.958551   0.02174803  0.058773618            3 
   20000    1.2272689   -5.1212265    5.7259682    0.0238582  0.059099799            1 
   21000    1.2298584   -5.1221843    6.3100954   0.02504006    0.0591801            1 
   22000    1.2853125   -5.0739138    6.9849525  0.026458153   0.05878173            1 
   23000    1.2530921   -5.1226295    7.6321871  0.027652851  0.058410001            2 
   24000    1.2488836   -5.1158618    8.3146911  0.028870455  0.058018099            2 
   25000    1.2712101   -5.0851522    9.1178162   0.03039272  0.057898975            3 
   26000    1.2455324   -5.1217617     9.928139  0.031820958  0.058052168            3 
   27000    1.2260977   -5.1342934    10.604394   0.03272961  0.058328026            2 
   28000    1.2313642    -5.123361    11.379991  0.033869021  0.058582311            1 
   29000    1.2535534   -5.1381763    12.171465  0.034975473   0.05890917            1 
   30000    1.2290678   -5.1140378    12.927055  0.035908485  0.059223675            2 
   31000    1.2465745   -5.0968732    13.773796  0.037026334  0.059529845            2 
   32000    1.2249855   -5.1212774    14.382158  0.037453536  0.059798368            2 
   33000     1.229323   -5.1264503     15.15591    0.0382725   0.05995469            4 
   34000    1.2422618   -5.1430542    15.706914  0.038497337  0.060048185            2 
   35000    1.2642433   -5.1385378      16.4685  0.039210713  0.060068338            4 
   36000    1.2290368   -5.0981214    17.185225  0.039780612  0.060068601            3 
   37000    1.2153456   -5.1306996    17.869361  0.040246308  0.059988635            3 
   38000     1.246237   -5.1342481    18.688011  0.040982481  0.059971048            1 
   39000    1.2382898   -5.0987444    19.421712  0.041499384  0.060023441            2 
   40000    1.2479156   -5.1378822    20.112087   0.04190018  0.060115874            2 
   41000    1.2543119   -5.1398459    20.840179  0.042358086  0.060126877            2 
   42000    1.2460414   -5.1344273    21.446001  0.042551588  0.060128208            2 
   43000    1.2203713   -5.0901496    22.297202  0.043211631  0.060128244            4 
   44000    1.2293402   -5.1431412    23.204514  0.043947942  0.060154032            2 
   45000    1.2393268   -5.1238032    23.893319  0.044246887  0.060220098            2 
   46000    1.2395466   -5.1050207    24.731574  0.044803576    0.0603048            3 
   47000    1.2264587    -5.143212    25.491801  0.045198229  0.060407143            2 
   48000    1.2260128   -5.1354185    26.227317  0.045533535  0.060503511            1 
   49000    1.2516495   -5.1677002    26.701621   0.04541092  0.060551753            3 
   50000     1.237972   -5.1200857    27.453354  0.045755589  0.060524906            3 
   51000    1.2210222     -5.11039    28.187028  0.046057234  0.060503638            1 
   52000     1.224336   -5.1334434    28.803849  0.046160015  0.060478439            1 
   53000    1.2295716   -5.1484194    29.278727  0.046035733  0.060423706            1 
   54000    1.2460627   -5.1580855    29.798047   0.04598464  0.060321766            2 
   55000    1.2609526   -5.1358267    30.194073  0.045748596  0.060173787            1 
   56000    1.2034759   -5.1082535    30.945041  0.046049167  0.059996086            2 
   57000    1.2345829   -5.1308578    31.857428  0.046575187  0.059849841            4 
   58000    1.2370566   -5.1385687    32.457615  0.046634504  0.059749901            2 
   59000     1.206731   -5.0895384    33.567779  0.047412117  0.059695284            3 
   60000    1.2430053    -5.107163    34.337627  0.047691149  0.059676864            3 
   61000     1.244972   -5.1602759    35.152233  0.048022176  0.059668825            2 
   62000    1.2339964   -5.1515407    35.978713  0.048358485  0.059699849            2 
   63000    1.2272838   -5.1171691    36.670464  0.048505904  0.059751877            2 
   64000    1.2192861   -5.0932222    37.424954  0.048730409  0.059770479            2 
   65000    1.2450398   -5.1729939    38.181252  0.048950323  0.059795777            1 
   66000    1.2138026   -5.1325875    38.928572  0.049152237  0.059834796            2 
   67000    1.2405535   -5.1587855    39.535714  0.049173773   0.05986948            1 
   68000    1.1917556   -5.1400271     40.34869  0.049446923  0.059901382            3 
   69000    1.2491186   -5.1360173    40.862064  0.049350319  0.059924421            2 
   70000    1.2489174   -5.1370111    41.674757  0.049612805  0.059924561            4 
   71000    1.2182119    -5.132915    42.180522  0.049507654  0.059904203            2 
   72000    1.2221181   -5.1124606    42.865398  0.049612729  0.059871336            2 
   73000    1.2473207   -5.1557626    43.381103  0.049521807  0.059843098            5 
   74000     1.233462   -5.1434509    44.509221  0.050122996  0.059829442            3 
   75000    1.2379702    -5.146268     45.06786    0.0500754  0.059827478            4 
   76000    1.2511234   -5.1615971    45.790589  0.050208979  0.059812245            4 
   77000    1.2415411   -5.1314195     46.52912   0.05035619  0.059800134            3 
   78000    1.2191754   -5.1587173    47.282247  0.050515221   0.05979782            2 
   79000    1.2212823   -5.1530825    48.037065  0.050672009  0.059790347            4 
   80000    1.1985997   -5.1134355    48.949537  0.050989101  0.059799209            4 
   81000    1.2040026   -5.1383846    49.585518  0.051013907  0.059814801            4 
   82000     1.227191    -5.140436    50.290324  0.051108052  0.059816009            2 
   83000    1.2353819   -5.1567553    50.666784  0.050870265  0.059809936            2 
   84000    1.2105246   -5.1192946    51.200291  0.050793939  0.059770701            2 
   85000    1.2483025   -5.1866317    51.231623  0.050227081  0.059715165            5 
   86000    1.2202783   -5.1493204    52.118363   0.05050229  0.059634902            3 
   87000    1.2468642   -5.1554625     52.91702  0.050686801  0.059570676            2 
   88000    1.2359836   -5.1398417    53.911249  0.051052319  0.059517358            4 
   89000    1.2250852   -5.1374853    54.469279  0.051001197  0.059470917            4 
   90000    1.2332193   -5.1536387    54.758696  0.050702496  0.059407718            4 
   91000    1.1921566   -5.1474188    55.397253  0.050730085  0.059327185            2 
   92000    1.2189862   -5.1325826    56.026369  0.050748523  0.059240562           10 
   93000    1.2287083   -5.1829763    56.263914  0.050415693  0.059144789            5 
   94000    1.1879606   -5.1515435    57.167947  0.050680804  0.059053366            2 
   95000     1.201291   -5.1828618    57.379376  0.050332785  0.058951956            2 
   96000     1.206737   -5.1797721    58.327581  0.050631581  0.058861558            2 
   97000    1.1960959   -5.1595793    59.115047  0.050786123  0.058787026            3 
   98000    1.2194982   -5.1469159    59.981034  0.051004281  0.058716205            3 
   99000    1.1958791   -5.1830738    60.622353  0.051028917   0.05865568            3 
  100000      1.22017    -5.194702    61.144424  0.050953686  0.058602782            2 
  101000    1.2065434   -5.1545596    62.124351  0.051257715  0.058542438            2 
  102000    1.2221503   -5.1664137    62.835691  0.051336348  0.058486581            2 
  103000    1.2214156   -5.1981179    63.357361      0.05126  0.058435809            3 
  104000    1.1981779   -5.1551039    64.178611  0.051425169   0.05838499            3 
  105000    1.1955086   -5.1442576    64.418577  0.051125855  0.058328588            2 
  106000    1.2340469   -5.1453372     65.44329  0.051449127  0.058279678            2 
  107000    1.2033403   -5.2011615    66.044047  0.051436174  0.058241408            4 
  108000    1.2082606   -5.1304054    67.063019  0.051746157  0.058198938            4 
  109000    1.1962447   -5.1705815    67.566624   0.05165644   0.05815338            2 
  110000    1.2331963   -5.2113982    67.885213  0.051428191  0.058116096            2 
  111000     1.206819   -5.1784509    68.454875  0.051392548  0.058058016            7 
  112000    1.2178254   -5.1637945    69.215806  0.051499855  0.058006593            2 
  113000    1.2218892   -5.1602283    69.924794  0.051566957  0.057951074            2 
  114000    1.1899759   -5.1910682    70.182386  0.051302913  0.057891644            3 
  115000    1.2526916   -5.1735699    70.752633  0.051270023   0.05783482            3 
  116000    1.2226864    -5.141487    71.522185  0.051380879  0.057766422            1 
  117000    1.1986451   -5.1893669    72.002789  0.051284037  0.057702834            2 
  118000    1.2290161   -5.1668669    72.710226   0.05134903  0.057641217            3 
  119000    1.2191195   -5.1610397    73.305233  0.051334197  0.057587276            1 
  120000    1.2181228   -5.1858458    74.437931  0.051693008  0.057542775            4 
  121000    1.2001896   -5.1536824    75.099476  0.051721402  0.057495116            3 
  122000    1.2109403   -5.1975842    75.583936  0.051628371  0.057447996            3 
  123000     1.165524   -5.1418697    76.580838  0.051884037  0.057405189            4 
  124000    1.1975697   -5.1617337     77.09897  0.051813824  0.057360493            2 
  125000    1.1969482    -5.193586     77.67319  0.051782126  0.057321334            3 
  126000     1.213029   -5.1453943    78.143451  0.051682177  0.057280038            1 
  127000    1.2138528   -5.1522493    78.999433  0.051836898  0.057243733            2 
  128000    1.2137504   -5.2235599     79.38784  0.051684791  0.057207953            2 
  129000    1.1784837   -5.2185047    79.800348  0.051550613  0.057169092            1 
  130000     1.187802   -5.1905086    80.651172  0.051699469  0.057126858            2 
  131000    1.1679137   -5.1763459    81.750948  0.052004419  0.057089573            1 
  132000    1.1860732   -5.2038872    82.264254  0.051934504  0.057061043            4 
  133000    1.2002166   -5.2064363    82.591057  0.051748783  0.057021812            2 
  134000    1.1955979   -5.1888551    83.350872  0.051835119  0.056983868            2 
  135000    1.1840117   -5.1729628    83.612032  0.051612365  0.056940238            2 
  136000    1.1647753   -5.2446059    83.981735  0.051459396  0.056889448            2 
  137000    1.1840519   -5.1975783    84.376486  0.051323897  0.056829862            2 
  138000    1.2183216   -5.1824901    85.097861  0.051387597  0.056773313            2 
  139000    1.1687875   -5.1910572    85.669963  0.051360889  0.056715302            3 
  140000    1.2039655   -5.1477606    86.400493  0.051428865   0.05665695            2 
  141000    1.1805097   -5.1814864    86.797104  0.051298525  0.056600173            2 
  142000    1.2006362   -5.1897062    87.277268  0.051219054  0.056539695            2 
  143000    1.1806207   -5.2231019    87.975243  0.051267624  0.056479146            3 
  144000    1.1847492    -5.229498    88.790556  0.051383423  0.056428065            2 
  145000    1.2089775   -5.2043426    89.385535  0.051370997  0.056373052            3 
  146000    1.2217412   -5.2414503    89.283218  0.050960741  0.056317463            3 
  147000    1.2025446   -5.1724283    90.967685  0.051568983  0.056259736            1 
  148000     1.193698   -5.1943625    91.669598  0.051615764  0.056199702            2 
  149000    1.1618125   -5.2438847    91.277858  0.051050256  0.056140851            4 
  150000    1.1883073   -5.1819909    92.463684  0.051368713  0.056084958            2 
  151000    1.1839731   -5.2294533      92.8084  0.051218764  0.056033908            1 
  152000    1.1863933   -5.2140852    93.805319  0.051428355  0.055987506            3 
  153000    1.1906095   -5.2300907     94.47071  0.051454635  0.055941886            1 
  154000    1.1833481    -5.208135     95.30354   0.05157118  0.055899848            2 
  155000    1.2000447   -5.2249641    95.698459  0.051450784  0.055855819            4 
  156000    1.2054746   -5.2096355    96.223798  0.051401601  0.055809523            2 
  157000    1.2092642   -5.2137878    96.906561  0.051436604   0.05577164            3 
  158000    1.1674708   -5.1603595    97.658267  0.051507524  0.055737851            4 
  159000    1.2140748   -5.2353688    98.205951  0.051470624  0.055695923            2 
  160000    1.1996958    -5.207935    99.147247  0.051639191  0.055655994            2 
  161000    1.1741991   -5.1843469    99.202296  0.051346944  0.055614207            2 
  162000     1.185773   -5.1599561    100.19452  0.051540393   0.05556954            2 
  163000    1.1799692   -5.2135853    100.54883  0.051405332  0.055525268            5 
  164000    1.1737429   -5.2267976    101.11888  0.051381543  0.055481059            1 
  165000    1.2013379    -5.183005    102.58519  0.051810702  0.055441596            3 
  166000    1.2022542   -5.2324213    102.42776   0.05141956  0.055405973            4 
  167000    1.1981333   -5.2435649    102.89629  0.051345453   0.05536864            1 
  168000    1.1857912   -5.2023278    103.85098  0.051513381  0.055336128            6 
  169000    1.1898295    -5.212985     104.3658  0.051462426  0.055301781            4 
  170000    1.2029986   -5.2218041    105.09148  0.051515432   0.05526666            1 
  171000    1.1944222   -5.2678324    104.91577  0.051128541  0.055229804            2 
  172000    1.1532193   -5.2411273    105.63967  0.051182009  0.055185198            1 
  173000    1.1975057   -5.2047383    106.39377  0.051249409  0.055143109            3 
  174000    1.1905137   -5.2036995    106.64792   0.05107659  0.055098714            2 
  175000    1.1928951   -5.2130501    108.08123   0.05146725  0.055062018            4 
  176000    1.1872026    -5.207389    108.52784   0.05138629  0.055027312            2 
  177000    1.1949638   -5.2752819    108.29081  0.050984375  0.054987931            3 
  178000    1.1805559   -5.2196251    109.37481  0.051205436  0.054948529            2 
  179000    1.1665347   -5.2216362    110.16972  0.051289439  0.054910312            4 
  180000    1.1857497   -5.2310505    110.69487  0.051247625  0.054871001            2 
  181000    1.1673435   -5.1885204    111.46724  0.051320091  0.054833416            4 
  182000    1.1517422   -5.2168209    111.57687  0.051088311  0.054792456            3 
  183000    1.2002571   -5.2246965    111.96007   0.05098364   0.05474379            3 
  184000    1.1838935   -5.2764397    112.48445  0.050944045   0.05469288            3 
  185000    1.1817442   -5.2213884    113.29464  0.051033621  0.054648825            6 
  186000    1.2231085   -5.2084299    113.54415  0.050871034  0.054601233            5 
  187000    1.1763989   -5.2098466       113.93  0.050770946  0.054554007            4 
  188000    1.1657336   -5.2727019    114.92049  0.050939934  0.054507001            4 
  189000    1.1464125   -5.2424104    115.60589  0.050972615  0.054463011            4 
  190000    1.2125331   -5.2523732    115.40165   0.05061476  0.054415972            2 
  191000    1.1808571   -5.2181159    116.38418   0.05077844  0.054366795            2 
  192000    1.1741046   -5.1756475    117.59418  0.051039139  0.054319284            4 
  193000    1.1884455   -5.2229237    117.53203  0.050747855  0.054272735            3 
  194000    1.1851941   -5.2524931    118.60627  0.050947712  0.054228225            3 
  195000    1.1792088    -5.247749    119.02183  0.050864028  0.054185144            4 
  196000    1.1431545   -5.2391241    120.11174  0.051067918  0.054146113            2 
  197000    1.1471924   -5.2429143    120.61453  0.051021374  0.054109267            3 
  198000    1.1853617   -5.2708734    121.01228  0.050931092  0.054068339            4 
  199000    1.2176582   -5.2565762    121.46422  0.050864413  0.054031956           11 
  200000    1.1756879   -5.2225336    122.95486  0.051231193  0.053999158            1 
  201000    1.1741332   -5.2014755    123.38236   0.05115355  0.053972904            5 
  202000    1.1716469   -5.2431054    124.29665  0.051277497  0.053947843            1 
  203000    1.1725308   -5.2267631    124.81956  0.051239556  0.053922411            2 
  204000    1.1783675   -5.2719225    124.84943  0.051000582  0.053899813            3 
  205000    1.1531121    -5.260832    126.22151  0.051309556  0.053873514            3 
  206000    1.2037917    -5.256006    126.67193  0.051242689  0.053851572            4 
  207000     1.194879   -5.2512466    126.96951  0.051114941  0.053830515            2 
  208000    1.1559229   -5.2625637    127.46385  0.051067246  0.053809422            3 
  209000    1.1737724   -5.2404078    129.00919  0.051439071  0.053788181            2 
  210000    1.1576315   -5.2320931    129.04512  0.051208381  0.053767428            3 
  211000    1.1832967   -5.3091961    128.66326  0.050814872  0.053742616            1 
  212000    1.1704598   -5.2496519    129.72665  0.050993179  0.053719136            2 
  213000    1.1718461   -5.2640747    130.02004   0.05086856  0.053691972            3 
  214000     1.178852   -5.2713811    130.34689  0.050758135  0.053661611            3 
  215000    1.1448029    -5.293968    130.90584  0.050738699  0.053629859            2 
  216000    1.1658281   -5.2176694    131.69207  0.050807124  0.053596132            2 
  217000     1.171548    -5.236888    132.70112  0.050960493  0.053564483            1 
  218000    1.1898869   -5.1961195    133.27106  0.050944595  0.053533283            1 
  219000     1.162162   -5.2414758    134.36057  0.051126547  0.053505009            2 
  220000     1.164849   -5.2743586    133.67008  0.050632605  0.053473354            1 
  221000    1.1870366   -5.2644311    135.33577  0.051031589  0.053444815            3 
  222000     1.160002   -5.2731142    135.15304  0.050733124  0.053418088            2 
  223000    1.1567262   -5.2589681     135.8487  0.050765583  0.053391265            2 
  224000    1.1515886   -5.2189674    137.01896  0.050974316  0.053364476            2 
  225000    1.1444558   -5.2922867    137.70477  0.051001767  0.053338825            6 
  226000    1.1722746   -5.2758906    137.45017  0.050682216  0.053311767            4 
  227000    1.1660486   -5.2505265    138.24848  0.050752011  0.053283674            3 
  228000     1.165636   -5.3035811    138.24407  0.050527804  0.053250835            2 
  229000    1.1345207   -5.3245689     138.4111  0.050367941  0.053217683            1 
  230000     1.161216   -5.2696588    139.91409  0.050693511  0.053187701            2 
  231000    1.1492112   -5.2787363    140.56694  0.050709575  0.053158074            3 
  232000    1.1689776    -5.258091    141.20352  0.050719656  0.053127801            3 
  233000    1.1264212   -5.2379356    141.45123  0.050590569  0.053097249            1 
  234000    1.1836717   -5.2849582    141.83619  0.050511462  0.053068282            3 
  235000    1.1680501   -5.2933247    142.07787  0.050382222  0.053042027            3 
  236000    1.1567655   -5.2509259    143.51716  0.050676964  0.053012269            2 
  237000    1.1451456   -5.2702492    144.04145  0.050647487  0.052986068            3 
  238000    1.1554673   -5.2968038    144.02262  0.050428088  0.052959185            2 
  239000    1.1304426    -5.285721    144.54431  0.050398991    0.0529306            3 
  240000    1.1603221   -5.2703093    145.23082  0.050427367  0.052901605            1 
  241000    1.1451386   -5.2482441    146.18579  0.050548338  0.052870025            3 
  242000    1.1796302   -5.2725277    145.64946  0.050154774  0.052834983            5 
  243000    1.1602196   -5.2841041    146.18236  0.050131124  0.052799263            1 
  244000    1.1559455   -5.2908146    147.10799  0.050241799  0.052762076            3 
  245000    1.1402496   -5.2731404    147.25108  0.050085402  0.052724035            2 
  246000    1.1578267   -5.2798015    147.73425  0.050045478  0.052686597            4 
  247000    1.1710407   -5.3039676    148.64317  0.050149516  0.052649571            3 
  248000    1.1668815   -5.3321024    149.13014  0.050110933  0.052614471            2 
  249000    1.1455429   -5.3153077    149.46718  0.050022484  0.052580546            4 
  250000    1.1513929   -5.2606077    149.43482  0.049811607   0.05254179            2 
  251000    1.1491182   -5.2876205    149.55686  0.049653674  0.052501284            3 
  252000     1.127184   -5.2624028    151.09592  0.049965582  0.052459858            3 
  253000    1.1724601   -5.2712109    151.08234  0.049763617  0.052420902            4 
  254000    1.1400455   -5.3069946    151.34506  0.049653889  0.052379949            3 
  255000    1.1471764   -5.3005079    151.76046   0.04959492   0.05233843            3 
  256000    1.1355816   -5.3029098    153.07206  0.049828143   0.05229627            6 
  257000    1.1467228   -5.2926333    152.65299  0.049498377  0.052254212            2 
  258000    1.1444471   -5.2201135    154.10081  0.049774162  0.052214855            4 
  259000    1.1627033   -5.3089341    154.70682   0.04977697  0.052176716            5 
  260000    1.1353085   -5.2799177    155.66939  0.049894034  0.052138964            3 
  261000    1.1641206   -5.2826896    155.64589  0.049695366  0.052102711            4 
  262000    1.1353466   -5.2851413     156.4163  0.049750732  0.052067768            2 
  263000    1.1824862   -5.3118022    156.34288  0.049538301  0.052029446            4 
  264000    1.1605563   -5.3423889    156.65638  0.049449614  0.051992184            3 
  265000    1.1517469   -5.2970474     157.9738  0.049677296  0.051954207            1 
  266000     1.124305   -5.2797143    158.18571  0.049556926  0.051917679            5 
  267000    1.1737978   -5.2868047    159.53912  0.049793731  0.051883656            2 
  268000    1.1584651   -5.2906496    159.10444  0.049472774  0.051848762            2 
  269000    1.1577306   -5.3021847    160.42164  0.049696916    0.0518146            3 
  270000    1.1474744   -5.2854925    160.82888  0.049638543  0.051780214            3 
  271000    1.1824935   -5.2698843    161.67931  0.049716884  0.051746497            2 
  272000    1.1518502   -5.3071532    161.83773  0.049582639  0.051716063            4 
  273000    1.1487245   -5.2785085    163.09656  0.049785276  0.051682811            1 
  274000    1.1414676   -5.3122643    162.61051  0.049455752  0.051649895            2 
  275000    1.1506403   -5.2921491     163.8323  0.049646151  0.051616951            2 
  276000    1.1387475   -5.2815574    164.59254  0.049695816  0.051586043            4 
  277000    1.1373017    -5.318985    164.22953  0.049407199  0.051554372            5 
  278000    1.1484169   -5.3251085    164.73128  0.049379881  0.051522573            3 
  279000    1.1496694   -5.2959067    165.42745  0.049410829  0.051490435            2 
  280000      1.13669   -5.2734115    166.53644  0.049564416  0.051459033            2 
  281000     1.132459   -5.2938295    167.19468  0.049583239  0.051426734            5 
  282000      1.14373   -5.3558796    166.79674  0.049289818  0.051393327            7 
  283000    1.1470959   -5.3305941    167.57411  0.049344555  0.051360973            1 
  284000    1.1450189   -5.3546743    167.84537  0.049250402  0.051328536            5 
  285000    1.1260406    -5.299994    168.36608  0.049229847  0.051293573            3 
  286000    1.1376004   -5.3435718    169.54717  0.049401855   0.05126178            4 
  287000    1.1189883   -5.3045469    169.72841  0.049282348  0.051228165            2 
  288000    1.1264125   -5.3043611    170.35921  0.049293754  0.051195654            3 
  289000    1.1243201   -5.3305513    170.89088  0.049276494  0.051162379            2 
  290000     1.145987   -5.3357778    170.56773  0.049013716  0.051130367            3 
  291000     1.143752   -5.3688286    170.37742  0.048790785  0.051096207            1 
  292000    1.1421046   -5.3114527     171.6116  0.048975913  0.051061625            2 
  293000    1.1281192   -5.3382467     172.5097  0.049064192  0.051027388            3 
  294000     1.160289   -5.2993442    173.80302  0.049263895  0.050995018            3 
  295000    1.1339883   -5.3239436    173.91233  0.049127777  0.050963257            3 
  296000    1.1196675   -5.3011746    175.01589  0.049272491  0.050934337            4 
  297000     1.104003   -5.3072553    174.77088  0.049037846  0.050905752            3 
  298000    1.1106149   -5.3149173    175.26526  0.049011538  0.050874416            3 
  299000    1.1478567   -5.3328867    176.21851  0.049113298  0.050843896            3 
  300000    1.1260425   -5.3326061    176.60808    0.0490578   0.05081302            5 
  301000    1.1480279   -5.2852325    177.19449  0.049057167  0.050785778            2 
  302000    1.1220694    -5.258192    178.74931  0.049323761  0.050757685            6 
  303000    1.1502789   -5.3354347    178.06211  0.048971979   0.05073043            2 
  304000    1.1505866   -5.3071261    178.83432  0.049022567   0.05070338            2 
  305000    1.1229269    -5.383659    178.84613  0.048865063  0.050674542            2 
  306000     1.106406   -5.3716572    179.14686   0.04878727   0.05064385            2 
  307000    1.1302402   -5.2751971    180.28018  0.048935989  0.050612497            2 
  308000    1.1304815   -5.3092806    179.99251  0.048699271  0.050579873            2 
  309000    1.1368035   -5.3658729    180.34416  0.048636505  0.050548578            3 
  310000    1.1148303   -5.3711771    180.82403  0.048608609  0.050516147            3 
  311000    1.1128024   -5.3581568    181.48309  0.048628908  0.050482714            2 
  312000    1.1135334   -5.3537828     181.9953  0.048609855  0.050449871            3 
  313000    1.1258333   -5.3340278    182.59387  0.048613915  0.050417199            4 
  314000    1.1043412   -5.3277638    183.66155   0.04874245  0.050385186            3 
  315000     1.143408    -5.349306    183.96692  0.048668496  0.050354504            3 
  316000    1.1553471   -5.3723306    183.86392  0.048487321  0.050323591            2 
  317000     1.118062   -5.3663036      184.538  0.048511567  0.050290993            2 
  318000    1.1425096   -5.3132008    185.74917  0.048676406  0.050260071            3 
  319000    1.1380234   -5.3506582    186.57496  0.048739539  0.050230964            6 
  320000    1.1228963   -5.3418644    186.56192  0.048583833   0.05020132            3 
  321000    1.1424873   -5.3593122    186.64171  0.048453195  0.050170497            2 
  322000    1.1215294   -5.3403387    187.30479  0.048474324   0.05013842            3 
  323000    1.1239526   -5.3426141    187.68194  0.048421553  0.050109133            1 
  324000     1.138653   -5.3821053    188.34574  0.048442834  0.050079132            2 
  325000    1.1153347   -5.3396888    188.99491  0.048460234  0.050047762            2 
  326000    1.1310693   -5.3407596    189.15776  0.048353211  0.050015704            2 
  327000    1.1155208   -5.2975598    189.94215  0.048405236   0.04998383            3 
  328000    1.1362682   -5.3832804    189.82539  0.048227996  0.049951498            7 
  329000    1.1045948   -5.3416707    190.15415  0.048164678  0.049917877            2 
  330000    1.1455416   -5.3829038    190.12808   0.04801214  0.049882774            2 
  331000    1.1291392   -5.3758421    190.80146  0.048036622    0.0498486            2 
  332000    1.1000975   -5.3656517    191.88718  0.048164453  0.049815669            4 
  333000    1.1115653   -5.3229421    192.15537   0.04808693  0.049782524            3 
  334000    1.0775175   -5.3318296    193.08131  0.048173978  0.049750833            1 
  335000    1.1266125   -5.3566966    193.23522  0.048068464  0.049719173            2 
  336000    1.1134179    -5.341399    193.59573  0.048014813  0.049687822            2 
  337000    1.1159847   -5.3666447    194.74717  0.048157066  0.049655723            3 
  338000    1.1150187   -5.3775419    194.51491  0.047957326  0.049625693            2 
  339000    1.1249467   -5.3656455    194.70449  0.047862461  0.049593149            4 
  340000    1.1150976   -5.3683391    195.28943  0.047865057  0.049559537            2 
  341000     1.137822   -5.3579025    195.72233   0.04783048  0.049526188            2 
  342000    1.1439397   -5.3424911    196.44079  0.047865688  0.049492933            2 
  343000    1.1071873   -5.3525334    197.20455  0.047911699  0.049459111            3 
  344000    1.1162641   -5.3739799    197.51268  0.047847063  0.049427517            5 
  345000     1.122493   -5.3805294    197.61149  0.047732244  0.049394577            2 
  346000    1.1150049   -5.3392782    198.99788  0.047928198   0.04936261            1 
  347000    1.1178712   -5.3500968    198.73681   0.04772738  0.049330313            4 
  348000    1.1048008   -5.3833412    200.05006  0.047904708  0.049299235            6 
  349000    1.1194544   -5.3509328    200.36219  0.047841973  0.049268292            1 
  350000    1.1303869   -5.3455902    200.81845  0.047813918  0.049236684            2 
  351000     1.133683   -5.3506993     201.3422  0.047802043  0.049205398            5 
  352000    1.1072925   -5.3615753     201.9999  0.047821946  0.049175239            1 
  353000    1.1104862   -5.3704887    201.75047   0.04762759  0.049146137            3 
  354000    1.1207842   -5.3936455    203.06109  0.047801574  0.049116567            2 
  355000    1.0868993    -5.376303    203.50519  0.047771172  0.049087567            5 
  356000    1.1148116   -5.3834853    202.79899  0.047471675  0.049057943            3 
  357000    1.0909419   -5.4165525    203.18817  0.047429545    0.0490263            4 
  358000    1.1258878   -5.4045043    204.07854  0.047504314   0.04899355            2 
  359000    1.1249847   -5.3539139    205.23218  0.047639781  0.048962892            8 
  360000    1.1082642   -5.3957453     205.5664  0.047584815  0.048932433            4 
  361000     1.115677   -5.3922003    205.64904  0.047472078  0.048901776            3 
  362000    1.1075448   -5.3778979    206.42868  0.047520415  0.048871516            5 
  363000    1.1292037   -5.3745527    206.92035  0.047502376   0.04884136            2 
  364000    1.1157868   -5.3825965    207.33021  0.047465708  0.048811995            6 
  365000    1.1114694   -5.4042398    207.58838  0.047394607  0.048783306            4 
  366000    1.0966812   -5.3712087    208.34509  0.047437406  0.048754062            3 
  367000    1.1043996   -5.4174625    208.09235  0.047250762  0.048722786            1 
  368000    1.0943402   -5.4149346    208.65055  0.047248767   0.04869092            3 
  369000    1.1144203   -5.3786914     208.9728  0.047193496  0.048658487            5 
  370000    1.1330222   -5.3640784     209.6568  0.047219999  0.048625826            2 
  371000    1.0935813    -5.364086     210.1431  0.047201955  0.048595527            3 
  372000     1.100837   -5.3960486    210.31449  0.047113461  0.048565937            2 
  373000    1.0968097   -5.3888821     210.8856  0.047114744  0.048535187            3 
  374000    1.1055842   -5.3859635    211.17408  0.047053049  0.048503411            1 
  375000    1.1033331   -5.4249733    211.95578  0.047101285  0.048473075            2 
  376000    1.0812433   -5.3243737    213.37167  0.047289821   0.04844327            3 
  377000    1.0782791   -5.4019758    213.31979  0.047152914  0.048413526            1 
  378000    1.1091515   -5.3666777    214.47959  0.047283861  0.048384708            6 
  379000     1.098239   -5.3977948    214.40155  0.047141943  0.048356993            1 
  380000     1.115668   -5.4083696    215.12339  0.047176182  0.048329147            3 
  381000    1.1166981   -5.4015436    215.78047  0.047196079  0.048300821            2 
  382000    1.1095688   -5.3332079     216.4784  0.047224781  0.048273756            3 
  383000     1.098421   -5.4140769    214.88916  0.046755692  0.048244651            3 
  384000    1.1081038   -5.3708652    215.68302  0.046806211  0.048215036            3 
  385000    1.0903921   -5.3600404    216.81657  0.046929993  0.048185773            4 
  386000    1.0956262   -5.3672185    217.77095  0.047014454  0.048155314            4 
  387000    1.0988774   -5.4078526    217.97289  0.046936454  0.048126886            2 
  388000    1.0935095   -5.4158884    217.50776  0.046715585  0.048098946            2 
  389000    1.1007185   -5.4331609    218.37005  0.046780216  0.048070727            2 
  390000    1.0842858   -5.4028454    219.44583  0.046890134  0.048042333            4 
  391000     1.111647   -5.4110777    218.86364  0.046646129  0.048014596            4 
  392000    1.0704619   -5.3918525    221.42354   0.04707133  0.047986105            3 
  393000    1.1009553   -5.3904826    221.02994  0.046868096  0.047957973            7 
  394000    1.1118112   -5.4053592    221.63859  0.046877875  0.047929505            3 
  395000    1.0720729   -5.3743135    221.71572  0.046775467  0.047901288            5 
  396000    1.1063396   -5.3717569    222.47754  0.046817665  0.047873496            1 
  397000    1.1120739   -5.4228156    222.30669  0.046663872  0.047844878            2 
  398000    1.0869693   -5.4214365    222.43139  0.046572738  0.047815974            4 
  399000    1.1091737   -5.3897149    223.30522  0.046638517  0.047786636            4 
  400000    1.1033202    -5.416633    223.30491  0.046521855  0.047756642           11 
  401000    1.0862801   -5.3963051     223.9847  0.046547112  0.047727503            3 
  402000    1.1089603   -5.3798884    224.35562  0.046508212  0.047699489            4 
  403000     1.095277   -5.4210352    224.77236  0.046478982  0.047670731            3 
  404000    1.1003642   -5.3914538    226.43473  0.046706833  0.047643376            3 
  405000    1.0875079   -5.4320072    225.67024  0.046434205  0.047615043            5 
  406000    1.1066751   -5.4204462    226.96773   0.04658615  0.047586949            4 
  407000    1.0757404   -5.4243582    226.28574  0.046332051  0.047559649            2 
  408000    1.0983705   -5.4157881     228.0282  0.046574387  0.047531213            2 
  409000    1.0861297   -5.3852635    227.62019  0.046377381  0.047503427            4 
  410000    1.0957511   -5.4137596    228.92467  0.046529405  0.047475925            3 
  411000    1.0933097   -5.4157105    228.42989  0.046315874  0.047448456            4 
  412000    1.1097252   -5.3827384    229.58226  0.046436541  0.047422067            2 
  413000    1.0927928   -5.4270898    230.49533   0.04650834  0.047397245            2 
  414000    1.0916858    -5.437186    229.99789  0.046295872  0.047370423            3 
  415000    1.0889694   -5.4409237    230.95596  0.046376698  0.047342795            3 
  416000    1.0736449   -5.4195686    231.79403  0.046433099  0.047315436            2 
  417000    1.0910385   -5.4452665     231.4435  0.046251698  0.047288636            2 
  418000    1.0910395   -5.4266113    232.27192  0.046306204  0.047261715            1 
  419000    1.0879835    -5.438513    232.65522   0.04627192  0.047235627            2 
  420000     1.081184   -5.3994399    234.37319  0.046502618   0.04720946            1 
  421000    1.1067428   -5.3913523     234.3352   0.04638464  0.047185184            4 
  422000    1.0652397   -5.4361342    234.04255  0.046216933  0.047159386            2 
  423000    1.0885815     -5.40191    235.10775  0.046317523  0.047133432            2 
  424000    1.0958784   -5.4435446     234.8542  0.046158451  0.047107971            4 
  425000     1.080103   -5.4245148    236.07845  0.046289892  0.047081637            3 
  426000    1.0655791   -5.3986708    236.61602  0.046286389  0.047055353            3 
  427000    1.0933411   -5.4371471    235.61989  0.045983585  0.047028338            3 
  428000    1.0705772   -5.4289417    237.37244  0.046217375  0.047001518            2 
  429000    1.0931818   -5.4341675    237.79626   0.04619197  0.046975265            7 
  430000    1.0657375   -5.4374477    238.48187  0.046217417  0.046949225            3 
  431000    1.0802297   -5.4305926    238.91175  0.046193301    0.0469229            7 
  432000    1.0896388   -5.4323924    239.04002  0.046111114  0.046898166            6 
  433000     1.075835   -5.4086911    239.32362  0.046059203   0.04687304            1 
  434000    1.0809235   -5.4594082    239.64617   0.04601501  0.046847175            3 
  435000    1.1098774   -5.4460753    240.46556    0.0460662  0.046821893            5 
  436000    1.0858815   -5.4660381    240.22466  0.045914499  0.046797218            4 
  437000    1.0835953   -5.4245502    241.87883  0.046124872  0.046771637            5 
  438000    1.0846296    -5.434133    242.48088   0.04613411  0.046747087            3 
  439000    1.0736103   -5.4181467     243.3308  0.046190357  0.046722841            2 
  440000    1.0809746     -5.44162    243.38209  0.046095093  0.046699019           11 
  441000    1.0708619   -5.4250984    243.76631  0.046063173  0.046676315            3 
  442000    1.0857479   -5.4588945     243.2526  0.045862103  0.046651392            2 
  443000    1.0761748     -5.44746    243.27302   0.04576242  0.046627561            4 
  444000    1.0801758    -5.418954    244.03302  0.045801993  0.046603095            1 
  445000    1.0809838   -5.4387819    244.83407  0.045849076  0.046579529            9 
  446000    1.0847371    -5.428455    244.38073   0.04566157  0.046555048            2 
  447000    1.0933237   -5.4385989    245.44966  0.045758698  0.046530305            3 
  448000    1.0738074   -5.4182336    246.52574  0.045856722  0.046505815            4 
  449000    1.0785633   -5.4460649     246.7964  0.045804825  0.046482116            5 
  450000    1.0643736   -5.4217741    247.45623  0.045825227  0.046458201            5 
  451000    1.0661881   -5.4048594    248.18322   0.04585795  0.046435524            3 
  452000    1.0551606   -5.4531344    249.15766  0.045936147  0.046413175            7 
  453000     1.058906   -5.4431926     249.9123  0.045973565  0.046390206            3 
  454000    1.1058444   -5.4781808    249.80622   0.04585283  0.046368253            9 
  455000    1.0586528    -5.441421     250.5678  0.045891538  0.046345624            4 
  456000    1.0556569   -5.4410096    250.30711  0.045743258  0.046322008            3 
  457000    1.1040184   -5.4769082    250.24265   0.04563141   0.04630006            3 
  458000    1.0597098   -5.4561994    251.49236  0.045759162  0.046277769            2 
  459000    1.0733406   -5.4581454    251.74329  0.045705027  0.046254951            5 
  460000    1.0694033   -5.4422295    252.47752  0.045738681  0.046232321            6 
  461000     1.050638   -5.4651137    252.09183  0.045569745  0.046208495            3 
  462000    1.0694849    -5.471839    252.37208  0.045521659  0.046183679            3 
  463000    1.0717656   -5.4001374    254.13445  0.045740542  0.046160722            3 
  464000    1.0592752   -5.4362738    253.66376  0.045557429  0.046137987            5 
  465000    1.0544142    -5.452853    253.28063  0.045390794  0.046114091            5 
  466000    1.0768388    -5.457781    253.62937  0.045355752  0.046089768            5 
  467000    1.0834542   -5.4399087    254.52049  0.045417647  0.046064859            2 
  468000     1.065719   -5.4703898    254.53779  0.045323681  0.046040868            4 
  469000    1.0477844   -5.4526845    255.77474  0.045446826  0.046016204            3 
  470000    1.0617167   -5.4768515     254.7223  0.045163529  0.045991058            2 
  471000    1.1007422   -5.4496747    255.13192  0.045140112  0.045966059            9 
  472000    1.0814462   -5.4509241    256.91565  0.045359401  0.045942696            4 
  473000    1.0605056   -5.4413341    258.24113  0.045497027  0.045919944            2 
  474000    1.0960237   -5.5073968    256.46364  0.045088545  0.045897324            6 
  475000    1.0747237   -5.4916815    258.24676  0.045306449  0.045873827            4 
  476000    1.0594371   -5.4718371    257.10994  0.045012244  0.045850914           10 
  477000    1.0829372   -5.4821811    258.49078  0.045159115  0.045827762            5 
  478000    1.0765739    -5.456982    258.90586  0.045137005   0.04580423            5 
  479000    1.0514075   -5.4815307    258.97445  0.045054706  0.045780474            4 
  480000    1.0562136   -5.4460236    260.40479  0.045209165  0.045756231            2 
  481000    1.0560395   -5.4862908    259.19733  0.044905983   0.04573114            4 
  482000    1.0586434   -5.4972288    260.70813   0.04507402  0.045706235            2 
  483000    1.0680148   -5.4667032     260.7931  0.044995359  0.045682395            4 
  484000    1.0564819    -5.508356    261.37367  0.045002354  0.045658786            2 
  485000    1.0587461   -5.5265636     261.5383  0.044937852  0.045634869            2 
  486000    1.0526579   -5.5135023    260.83934  0.044725539  0.045611577            3 
  487000    1.0539679   -5.4676756    263.51339  0.045091271  0.045587763            3 
  488000    1.0613798   -5.4704844    262.58267  0.044839937  0.045564591            3 
  489000     1.045795   -5.4692757    264.16419  0.045017756  0.045541033            5 
  490000    1.0643049   -5.4534734    265.16416  0.045095946  0.045517382            4 
  491000    1.0529976   -5.4997984    264.74299   0.04493262  0.045493068            4 
  492000    1.0393592   -5.4710875    264.63861  0.044823613  0.045468782            3 
  493000    1.0763422   -5.4986328    264.66742  0.044737562  0.045444879            6 
  494000    1.0560177   -5.5031214    265.97435  0.044867468  0.045420329            7 
  495000    1.0525983   -5.4690932    267.10569  0.044967288  0.045396923            3 
  496000    1.0419645   -5.5177974    266.32861   0.04474607  0.045373228            4 
  497000    1.0636767   -5.4865405    267.03353  0.044774233  0.045349262            4 
  498000    1.0945417   -5.4862169    267.08911  0.044693625   0.04532591            5 
  499000    1.0707087   -5.4652043    268.63431  0.044862109  0.045302871            3 
  500000     1.061217   -5.4962334    268.32506  0.044720844   0.04527904            3 
  501000    1.0471163   -5.5035117     268.7713  0.044705804  0.045255437            5 
  502000    1.0809169   -5.4879719    269.39094  0.044719612  0.045232128            3 
  503000    1.0381375   -5.4839116    269.75025  0.044690233  0.045208556            3 
  504000    1.0374532   -5.5231465    269.73813  0.044599558  0.045184859            1 
  505000    1.0585538   -5.5153899    269.77099  0.044516666  0.045161558            6 
  506000    1.0702704    -5.475324    270.53036  0.044553749  0.045138842            4 
  507000    1.0416167   -5.4613772    271.90115  0.044691182  0.045116439            2 
  508000    1.0604836   -5.5034085    271.91182  0.044604957  0.045093625            3 
  509000    1.0584225   -5.4870893    272.45288  0.044605907  0.045071388            3 
  510000    1.0599627   -5.4997378    271.78564  0.044409418  0.045047748            6 
  511000    1.0571428   -5.5234527    271.74156  0.044315324  0.045023495            4 
  512000    1.0435762   -5.4919541      273.345  0.044489746   0.04500068            3 
  513000    1.0549034   -5.4531506    274.08445  0.044523141  0.044978164            3 
  514000    1.0483145   -5.4964794    274.19327  0.044454162  0.044955635            3 
  515000    1.0674776   -5.4904143    275.26636  0.044541483   0.04493261            3 
  516000    1.0399767   -5.5120217    275.00015  0.044412169   0.04490859            4 
  517000       1.0507     -5.48451     274.6806  0.044274759  0.044884889            3 
  518000    1.0066703   -5.5051918    275.82664  0.044373656  0.044861474            4 
  519000    1.0328468   -5.5343666    275.33759  0.044209633  0.044837631            2 
  520000    1.0460389   -5.5225583    275.45014   0.04414265   0.04481316            3 
  521000    1.0547862   -5.5162041    276.37106  0.044205225  0.044788846            4 
  522000    1.0463418    -5.482846    276.75445  0.044181744  0.044764319            6 
  523000    1.0559293   -5.4903368    276.95456  0.044129152  0.044739471            3 
  524000    1.0398496   -5.4997633    277.63053  0.044152438  0.044714575            3 
  525000    1.0529821    -5.512019    277.62741  0.044067843  0.044689284            8 
  526000    1.0345844   -5.5151277    277.14517  0.043907664  0.044664733            6 
  527000    1.0664349   -5.5201238    278.78323   0.04408337  0.044639875            2 
  528000     1.063968    -5.506152    278.71672  0.043989381  0.044615209            2 
  529000    1.0577288   -5.5010805    279.78027  0.044073767  0.044591707            3 
  530000    1.0346193   -5.5728241    279.62411  0.043966055  0.044567149            4 
  531000    1.0496395   -5.5294795    279.52526  0.043867743  0.044543279            2 
  532000    1.0484838   -5.5153037    280.97747  0.044012761  0.044520103            4 
  533000      1.02762    -5.535759     280.5619  0.043865213  0.044495919            6 
  534000    1.0520177   -5.5470513    281.38755  0.043911914   0.04447149            3 
  535000    1.0129405   -5.5411642    282.87005  0.044060756  0.044447775            5 
  536000    1.0557482   -5.5032465    283.41657  0.044063521  0.044425483            2 
  537000    1.0621856   -5.5240364    283.68929  0.044023788  0.044403797            2 
  538000    1.0468427   -5.5084067    284.49338  0.044066509  0.044381348            3 
  539000    1.0430782   -5.5153891    284.78985  0.044030589   0.04435973            3 
  540000    1.0386742    -5.544458    285.73876  0.044095487  0.044338011            8 
  541000    1.0645979   -5.5283438    285.10571  0.043916468   0.04431563            4 
  542000    1.0574479   -5.5382232    285.54335  0.043902729  0.044293473            4 
  543000    1.0279314   -5.5508267    285.34774  0.043791857  0.044271309            4 
  544000    1.0492512   -5.5911781    286.53134  0.043892668  0.044249255            4 
  545000    1.0507176   -5.5412811    286.51082  0.043808994  0.044226607            2 
  546000     1.028861   -5.5283093    286.69998  0.043757628  0.044204708            3 
  547000    1.0334271   -5.5191415    288.12157  0.043894206  0.044182802            3 
  548000    1.0358861   -5.5303178    288.63024  0.043891459  0.044161396            2 
  549000    1.0494606    -5.532492    289.33061  0.043917822  0.044140328            7 
  550000    1.0446463    -5.526153    290.10699  0.043955604  0.044119625            4 
  551000    1.0494816   -5.5348752    290.31774  0.043907704  0.044098205            2 
  552000    1.0222832   -5.5360281    290.33551  0.043830843  0.044078298            3 
  553000    1.0317963   -5.5069276    291.27658  0.043893396  0.044058703            3 
  554000    1.0351735   -5.5246937    292.07236  0.043933869  0.044038864            3 
  555000    1.0003165    -5.530002    291.43237  0.043758614  0.044018201            3 
  556000    1.0239547    -5.552189    291.74038  0.043726077  0.043999081            2 
  557000    1.0258423   -5.5315634    292.00383  0.043686988  0.043979454            4 
  558000    1.0321885   -5.5283355    293.60253  0.043847451  0.043959387            4 
  559000    1.0347529   -5.5281886    294.98722  0.043975436  0.043940628            2 
  560000    1.0144924   -5.5713196    294.83538  0.043874312  0.043921544            5 
  561000    1.0250786   -5.5260528     295.2016  0.043850505  0.043902052            3 
  562000    1.0578233   -5.5625448    295.25977  0.043781105  0.043882741            3 
  563000    1.0232528   -5.5393659    295.47715  0.043735516   0.04386315            5 
  564000    1.0070648   -5.5533246    296.16607  0.043759762  0.043843737            2 
  565000    1.0130403   -5.5415014    296.10039  0.043672624  0.043825017            4 
  566000    1.0395408   -5.5353235    297.84662  0.043852564   0.04380641            3 
  567000    1.0276557   -5.5400037    297.46533  0.043719184  0.043788306            4 
  568000     1.027231   -5.4943135    298.62058  0.043811705  0.043769763            7 
  569000    1.0263156   -5.5587428    298.28815   0.04368602  0.043751576            7 
  570000    1.0349956   -5.5250904    299.32563  0.043761058  0.043733245            2 
  571000    1.0167684   -5.5410796    300.05958  0.043791533  0.043715671            2 
  572000    1.0111853   -5.5613229    300.77251  0.043818838  0.043698562            4 
  573000    1.0246343   -5.5528873    300.34506  0.043680201  0.043679918            3 
  574000    1.0214851   -5.5062686    300.76597  0.043665211  0.043661649            2 
  575000    1.0303425   -5.5282185    302.13856  0.043788197  0.043642943            4 
  576000     1.041512   -5.5647607     300.8672   0.04352824  0.043624325            3 
  577000    1.0508404   -5.5446662    301.08124  0.043483714  0.043605349            4 
  578000    1.0074333   -5.5466214    301.41405  0.043456467  0.043586785            2 
  579000     1.004937   -5.5716725     301.2451  0.043357096  0.043567893            5 
  580000    1.0290912   -5.5594938    302.64197  0.043483042  0.043548422            2 
  581000    1.0275011    -5.596609    302.28338  0.043356767  0.043528698            5 
  582000    1.0510893   -5.5327822     303.2415  0.043419458  0.043509168            3 
  583000    1.0387534   -5.5641478    303.18677   0.04333716  0.043489958            3 
  584000    1.0034861   -5.5594176    303.71736  0.043338664  0.043471084            3 
  585000    1.0239633   -5.5783728    304.56174  0.043384864  0.043452104            8 
  586000    1.0237763   -5.5402712    305.43176   0.04343455  0.043434287            4 
  587000    1.0083564   -5.5774944    305.56403  0.043379335  0.043415883            4 
  588000    1.0116746    -5.536072    306.51064  0.043439716  0.043397374            2 
  589000     1.005707   -5.5501937     305.3148  0.043196773  0.043378059            3 
  590000    1.0028344   -5.5783395    305.88396  0.043203949   0.04335876            5 
  591000    1.0152254   -5.5867802    306.20436  0.043176024  0.043339289            3 
  592000    1.0266025   -5.5857647     306.2648  0.043111599  0.043319659            3 
  593000   0.99694976   -5.5728636    307.38035  0.043195665  0.043300326            8 
  594000    1.0439148   -5.5992862    306.69331  0.043026558  0.043280566            2 
  595000    1.0345977   -5.5804015    308.47541  0.043203839  0.043260626            6 
  596000   0.99313663   -5.5918773    309.27199  0.043242728  0.043241207            1 
  597000   0.99377129   -5.5435513    308.16557  0.043015853  0.043221287            4 
  598000    1.0295385   -5.5785109    308.93766  0.043051514  0.043201851            4 
  599000    1.0247939   -5.5776092    308.91739  0.042976821  0.043182121            2 
  600000   0.99780501   -5.5899723    308.44117  0.042839051  0.043162205            5 
  601000     1.043032   -5.5801357    310.02621   0.04298755  0.043141662            3 
  602000    1.0178421   -5.5587374    311.53235  0.043124633  0.043122134            5 
  603000    1.0228181   -5.5522588    310.72592   0.04294167  0.043102416            3 
  604000    1.0300809   -5.5849788    311.73695  0.043010064  0.043083743            2 
  605000     1.006762   -5.6047104    310.69098  0.042794901  0.043064109            3 
  606000    1.0153078    -5.557964    312.71434  0.043002521  0.043044517            3 
  607000    1.0042304    -5.586095    312.14131  0.042853008  0.043024657            6 
  608000    1.0346115   -5.5703889    312.75293  0.042866356  0.043005697            3 
  609000    1.0034437   -5.6109661    312.22588  0.042723847  0.042985606            5 
  610000    1.0134002   -5.5746067    312.73782  0.042723746  0.042966147            3 
  611000    1.0181337   -5.5995511    313.69596  0.042784501   0.04294659            4 
  612000   0.99202993   -5.5470614    315.58474  0.042971778  0.042927499            5 
  613000    1.0076016    -5.601002     315.3195   0.04286562   0.04290861            3 
  614000   0.98924771   -5.6068419    314.86021   0.04273347  0.042889439            2 
  615000   0.98573025   -5.6082315    314.99854  0.042682728   0.04287024            4 
  616000    1.0175274   -5.5820349    317.61102  0.042966858  0.042850891            3 
  617000     1.014235   -5.5629943     316.7301  0.042778242   0.04283157            2 
  618000    1.0062223   -5.5798865    316.84319  0.042724271   0.04281266            3 
  619000    1.0027819   -5.5950454    317.42812  0.042733995  0.042793415            6 
  620000    1.0062791     -5.58797    317.69888  0.042701463  0.042774359            2 
  621000    1.0108983   -5.5970978    316.62056  0.042487998  0.042754525            2 
  622000    1.0071281   -5.6475616    316.08368   0.04234776  0.042734495            4 
  623000   0.99177528   -5.6104409    318.12447  0.042552765  0.042714501            2 
  624000    1.0077443   -5.5935466    318.62398  0.042551279   0.04269424            3 
  625000    1.0070272   -5.5785084    320.09192  0.042678922  0.042674899            6 
  626000   0.99420625   -5.5930205    321.31524  0.042773594  0.042656114            1 
  627000    1.0116529   -5.6338955    320.71079  0.042625039  0.042637593            4 
  628000     1.004462   -5.6392981    320.69255  0.042554743  0.042619055            4 
  629000   0.99196091   -5.6091587    321.59945   0.04260724  0.042599877            5 
  630000    1.0058983   -5.6209071    321.12357  0.042476663  0.042581432            4 
  631000    1.0166307   -5.6012704    322.31181  0.042566272  0.042562688            6 
  632000   0.99846743   -5.5551646    323.67832  0.042679103  0.042544184            4 
  633000    1.0015743   -5.6376524    322.29853  0.042430033   0.04252573            3 
  634000    1.0223881   -5.5968142    323.46946  0.042517016  0.042507568            3 
  635000   0.98520718    -5.591592    325.81684  0.042758115   0.04248997            2 
  636000    0.9950795   -5.5929966    323.74748  0.042419744  0.042472118            3 
  637000   0.99993243   -5.5963717    324.68954  0.042476392   0.04245396            3 
  638000    1.0185911    -5.606399    324.68704  0.042409488  0.042436252            3 
  639000    1.0092884   -5.5792392    326.55624  0.042586886  0.042418323            4 
  640000   0.99777442   -5.6131772    326.84709  0.042558215   0.04239976            6 
  641000    1.0091732   -5.6127971    326.48424  0.042444649  0.042381292            2 
  642000   0.99370889   -5.6249628    325.72695  0.042280238  0.042362674            3 
  643000   0.99008007   -5.6243148    326.33025  0.042292671  0.042343267            4 
  644000    1.0091394   -5.6198438    327.55782  0.042385846  0.042323949            4 
  645000   0.99263854   -5.5707392    328.38395  0.042426867  0.042304979            3 
  646000   0.99763908   -5.6031561    326.77967   0.04215424  0.042286184            2 
  647000    1.0038579    -5.626869     326.8253  0.042094964  0.042267037            3 
  648000   0.98788011   -5.6517427    327.68047  0.042139978  0.042247162            4 
  649000   0.97546864   -5.6368209    328.14346  0.042134496  0.042227792            6 
  650000   0.99409988   -5.6242093    327.92684  0.042041903  0.042208163            3 
  651000   0.98894614   -5.6206633    328.31798  0.042027391  0.042189456            3 
  652000   0.97200645   -5.6444749    329.95075   0.04217162  0.042170566            3 
  653000   0.98318123    -5.628674    330.06194  0.042121227  0.042151778            3 
  654000   0.99828206   -5.6334001    331.74915  0.042271808  0.042133867            3 
  655000   0.99342262    -5.650402     330.1482  0.042003587   0.04211544            7 
  656000    0.9875862   -5.6446593    330.77007  0.042018556  0.042097537            4 
  657000   0.98729181    -5.610248    333.21309  0.042264471   0.04207967            4 
  658000    1.0131292   -5.6204199    332.75559  0.042142299   0.04206203            4 
  659000   0.97788055    -5.651949    332.62728  0.042062124  0.042044159            3 
  660000   0.98861946   -5.6363119    333.73862  0.042138714   0.04202665            3 
  661000   0.97474709   -5.6430284    333.12383  0.041997457  0.042008781            5 
  662000   0.97877574   -5.6582892    333.44425  0.041974352  0.041990633            6 
  663000    1.0188351    -5.591525    335.71179  0.042196052  0.041973401           10 
  664000   0.98336823   -5.6152771    336.25494  0.042200671   0.04195636            3 
  665000    1.0166406   -5.6352518    336.28658  0.042141176  0.041939241            2 
  666000   0.97398791   -5.6461445    335.63882  0.041996849  0.041922235            5 
  667000   0.99906016   -5.5838095    337.01114   0.04210534  0.041904633            5 
  668000   0.97464022   -5.6581312    336.40277  0.041966413  0.041887902            4 
  669000   0.98903314   -5.6592427     337.3288  0.042019034  0.041870586            6 
  670000   0.98418248   -5.6596007    336.11772  0.041805687  0.041853046            4 
  671000    1.0052675   -5.6524082    336.97502  0.041849854  0.041834507            3 
  672000   0.98363337   -5.6323832    339.90133  0.042150462  0.041816504            3 
  673000   0.95818102   -5.6639916    338.19472  0.041876513  0.041798773            4 
  674000   0.97342766   -5.6427587    338.68362  0.041874829  0.041781252            3 
  675000   0.99279335   -5.6769519    338.49427  0.041789417  0.041763527            4 
  676000   0.98802812   -5.5909129    341.06978  0.042045092  0.041746011            5 
  677000   0.98300067   -5.6432801    339.83137  0.041830548   0.04172891            4 
  678000   0.98184913   -5.6625145    339.56829  0.041736516  0.041711182            5 
  679000   0.96639248   -5.6220522    340.65513  0.041808435  0.041692999            5 
  680000   0.97461761   -5.6366741    340.13608  0.041683343  0.041675393            3 
  681000    0.9869986   -5.6744452    340.73032  0.041694851  0.041657401            2 
  682000   0.96674086   -5.6712849    340.26808  0.041577234  0.041639112            7 
  683000   0.98839143   -5.6471738    340.95644  0.041600347  0.041620406            3 
  684000   0.97993433   -5.6605884    341.41849  0.041595821  0.041602016            2 
  685000   0.98273689   -5.6436918    341.77967  0.041579035  0.041584466            7 
  686000    0.9746225   -5.6624425    342.40142  0.041593952  0.041566577            3 
  687000   0.96661704   -5.6753746    342.60422  0.041558008  0.041548451            6 
  688000    0.9756813   -5.6466666    343.35277  0.041588271  0.041530239            2 
  689000   0.98154986   -5.6919208    341.56927    0.0413122  0.041511038            3 
  690000   0.97892242   -5.6620443    343.22943   0.04145283  0.041492057            8 
  691000   0.98528998   -5.6513324    343.92758  0.041477035  0.041472728           10 
  692000   0.97115512   -5.6614345    344.35796  0.041468926   0.04145375            5 
  693000    0.9937045   -5.6649382    344.07148  0.041374637  0.041434922            5 
  694000   0.97666985   -5.6427015    344.89915  0.041414404  0.041416266            6 
  695000   0.99295246   -5.6703366    345.64412  0.041444139  0.041397256            2 
  696000   0.97395049   -5.6697853    345.12577  0.041322529  0.041378376            2 
  697000   0.97753523     -5.64966    346.24542  0.041397109  0.041359538            2 
  698000   0.94813674   -5.6581762    345.05796  0.041196032  0.041340749            2 
  699000   0.95346143   -5.6999049      345.322  0.041168574  0.041321697            5 
  700000   0.96686022   -5.6600231     346.3811  0.041235846  0.041302477            5 
  701000   0.95265132   -5.6717416    346.06629  0.041139597  0.041283395            4 
  702000   0.99406089   -5.6587445    346.97949  0.041189398  0.041264515            2 
  703000   0.98197945   -5.7062735    348.06981  0.041260053  0.041245584            6 
  704000   0.96782572   -5.6827642    347.85384  0.041175881  0.041226284            2 
  705000   0.96944797   -5.6622947    348.35871  0.041177152  0.041207148            6 
  706000   0.96945091   -5.6654143    348.39692  0.041123338  0.041188545            5 
  707000   0.95670623   -5.6720997    347.97729   0.04101571  0.041169731            5 
  708000   0.98799265   -5.6759515     349.0031  0.041078519  0.041150563            6 
  709000    0.9928381   -5.6956893    349.67862  0.041099979  0.041131514            4 
  710000   0.97866425   -5.6725103    349.99226  0.041078904  0.041112813            4 
  711000   0.97622055   -5.6681515    351.50374  0.041198282  0.041094353            4 
  712000   0.96469288   -5.6755181    351.61619   0.04115358  0.041076191            3 
  713000   0.97110857   -5.6910466    352.41926  0.041189722  0.041057716            2 
  714000   0.99226513   -5.6835387     351.6543  0.041042752  0.041039144            3 
  715000   0.97665286   -5.6890153    352.40626  0.041072991  0.041020485            3 
  716000    0.9745211   -5.6753018    353.05696   0.04109136  0.041002787            7 
  717000   0.96622857   -5.6455189    353.48968  0.041084342  0.040985021            3 
  718000   0.96935806   -5.6776791    353.48197  0.041026227  0.040967368            7 
  719000   0.96631391   -5.6714488    353.86557  0.041013626  0.040949565            3 
  720000   0.97189163   -5.7020493    354.84214  0.041069692   0.04093156            5 
  721000     0.960246   -5.7083848    354.84962  0.041013595  0.040913835            8 
  722000   0.97915552   -5.6517252    355.57148  0.041040107  0.040896299            3 
  723000   0.95714409   -5.6822525    356.38075   0.04107662  0.040879195            9 
  724000     0.979351   -5.7050226    356.01398  0.040977668  0.040862206            6 
  725000   0.96734457   -5.7194118    356.44556  0.040970754  0.040844073            5 
  726000   0.94478454   -5.6832492    358.19332  0.041114935  0.040825996            4 
  727000   0.96327103   -5.7077831    357.07239  0.040929893  0.040808252            4 
  728000   0.96606495   -5.6779307    357.83265  0.040960697  0.040790893            4 
  729000   0.95045608   -5.6746479    357.27102  0.040840308  0.040773329            6 
  730000   0.95462111    -5.710637    357.38745  0.040797654  0.040755511            3 
  731000   0.93690185   -5.6471029    359.02893  0.040928971  0.040737968            3 
  732000   0.95925582   -5.6990103    358.83534  0.040851018  0.040720807            7 
  733000   0.96501829    -5.668792    358.52019  0.040759457   0.04070346            2 
  734000   0.94520334   -5.6726344    359.38567  0.040802188  0.040685934            4 
  735000   0.96065251   -5.6874651    359.61074  0.040772193  0.040668606            3 
  736000   0.97299488   -5.7184157     358.2403  0.040561628  0.040650291            6 
  737000   0.95372652   -5.6809166    359.78602  0.040681368  0.040632708            2 
  738000   0.93544585   -5.6724899    361.25566  0.040792193  0.040614484            4 
  739000   0.97599016   -5.7343124    359.87983  0.040581849  0.040597148            3 
  740000   0.94852328   -5.6938087    361.17879  0.040673287  0.040579523            4 
  741000    0.9582353   -5.6887966    362.06093  0.040717603  0.040562071            2 
  742000   0.94538616   -5.7046084    361.79087  0.040632398  0.040544568            6 
  743000   0.96555256   -5.6898661    363.44583  0.040763327  0.040527256            3 
  744000   0.93550551   -5.6851975    364.34183  0.040808896  0.040510045            3 
  745000   0.94405323   -5.6682282    364.86843  0.040813024  0.040493127            7 
  746000   0.94771787   -5.6636724    364.30106  0.040694936  0.040476145            6 
  747000   0.97269119   -5.7309743    362.78404  0.040471223  0.040459072            6 
  748000   0.94309527    -5.722427    364.80328  0.040642076  0.040441756            4 
  749000   0.93543683   -5.7138228    364.67122  0.040573122  0.040424513            8 
  750000   0.93307332   -5.6867525    365.33029  0.040592254  0.040407155            3 
  751000   0.98693702   -5.7100147    365.89509  0.040600876  0.040389958            5 
  752000   0.95021803   -5.6753697    366.49121  0.040612944  0.040372983            4 
  753000   0.95942813   -5.6553895    366.63708  0.040575153  0.040356159            3 
  754000   0.94037054   -5.6755046     367.6709  0.040635599  0.040338889            7 
  755000   0.94538199   -5.7338372    365.61035  0.040354343  0.040321438            7 
  756000   0.93910248   -5.7063315    367.74662  0.040536444  0.040303567            7 
  757000   0.94944232   -5.7447358    367.08235   0.04040977   0.04028599            6 
  758000   0.93433941    -5.737524    366.82213  0.040327851  0.040267629            4 
  759000   0.94421557   -5.7157924    368.21528  0.040427677  0.040249765            3 
  760000   0.96465559   -5.7291439    367.68156  0.040315961  0.040231751           11 
  761000   0.95378427   -5.7315683    367.30839  0.040222119   0.04021344            7 
  762000   0.93534383   -5.7130399    367.51864  0.040192327  0.040195657            4 
  763000   0.95285478   -5.7098048    368.72504  0.040271411  0.040177803            8 
  764000   0.94699888    -5.758591    368.14862  0.040155827  0.040159606           10 
  765000   0.93763182    -5.731829     368.8976  0.040184923  0.040140756            8 
  766000   0.95696822   -5.7478686    369.63281  0.040212447  0.040122497            7 
  767000   0.94020124   -5.7288127    371.39208   0.04035116  0.040104424            4 
  768000   0.94615231   -5.7303566    370.19415  0.040168636  0.040086202            6 
  769000   0.96465435   -5.7441223    369.59196  0.040051144  0.040067903            5 
  770000   0.94230875   -5.7197061    371.43383  0.040198467  0.040049769            5 
  771000   0.93304333   -5.7340377    370.79998  0.040077819  0.040031652            3 
  772000   0.94800562   -5.7187805    371.98741  0.040154082  0.040013157            3 
  773000   0.95820523   -5.7408692    372.13296  0.040117827  0.039995044            4 
  774000   0.96086413   -5.7355198    372.59632  0.040115883  0.039976884            4 
  775000   0.94251182   -5.7497514    372.26402  0.040028389  0.039958715            2 
  776000   0.92933982   -5.7133867    373.39595  0.040098362  0.039940288           11 
  777000   0.93305066   -5.7495156    373.18821  0.040024476  0.039922216           12 
  778000    0.9306177    -5.734056    372.41971  0.039890715  0.039904157            5 
  779000   0.94789368   -5.7365836     373.4485  0.039949561  0.039886208            2 
  780000   0.94563119   -5.7317748    374.33374  0.039992921  0.039868168            4 
  781000   0.93529767   -5.7256744    374.22552  0.039930166  0.039849986            4 
  782000   0.94718301   -5.7311327    375.97484   0.04006552  0.039832508            6 
  783000   0.94394578   -5.7371448    375.83305   0.03999926   0.03981467            5 
  784000   0.93358376   -5.7481919    375.06414  0.039866511  0.039796562            7 
  785000   0.93475509   -5.7488948    375.57771  0.039870245  0.039778708            3 
  786000   0.96043384   -5.7811008    374.90313  0.039747999  0.039760792            6 
  787000   0.92801668   -5.7845443    375.09959  0.039718296  0.039742757            2 
  788000   0.93441641   -5.7554571    376.80943  0.039848713  0.039724606            7 
  789000   0.94645902   -5.7482569    377.51973  0.039873229  0.039706911            5 
  790000   0.93346809   -5.7268189    377.76276  0.039848393  0.039689605            4 
  791000   0.93868714    -5.732525    378.42773  0.039868071  0.039672508            4 
  792000   0.94575849   -5.7570659    377.39288  0.039708847  0.039654885            4 
  793000    0.9315868   -5.7398592    379.80192  0.039911929  0.039637589            2 
  794000   0.93220832   -5.7568472    379.01648  0.039779228  0.039620163            3 
  795000   0.94597383    -5.741247     380.1005  0.039842819  0.039602976            5 
  796000    0.9459622   -5.7748133    379.25467  0.039704215  0.039585471            6 
  797000   0.92079499   -5.7549421    380.31225  0.039764978  0.039567665            3 
  798000   0.95444464   -5.7908342    379.23264  0.039602406  0.039549799            2 
  799000   0.92903453   -5.7322762    381.12583  0.039750295  0.039531922            2 
  800000   0.93204469   -5.7592819    380.56846  0.039642548  0.039514261            6 
  801000   0.92512398   -5.7558618    380.81934  0.039619157   0.03949644            3 
  802000   0.94917546   -5.7684568    380.99589  0.039588102  0.039478634            4 
  803000   0.93534049   -5.7495188    379.60268  0.039394217  0.039460423            2 
  804000   0.95557043   -5.7537417    381.18149  0.039508861   0.03944225            4 
  805000   0.92183132   -5.7729277    381.13263  0.039454723  0.039424252            3 
  806000   0.94099261   -5.7612551    381.54615  0.039448527  0.039406054            7 
  807000   0.92665646   -5.7686813    381.38017  0.039382504  0.039388196            4 
  808000   0.92567308   -5.7316475    382.11906  0.039409969  0.039370029            4 
  809000   0.94617931   -5.7617209    383.62233  0.039516103   0.03935205            2 
  810000   0.94953929   -5.7690265    383.99538  0.039505697  0.039334171            4 
  811000   0.95571106   -5.7691353    382.10127  0.039262358  0.039316278            8 
  812000   0.92280183   -5.7975868    383.54783  0.039362462  0.039297862            6 
  813000   0.91711718   -5.7688424    383.89968  0.039350111  0.039279044            3 
  814000   0.92290139   -5.7694915    383.98134  0.039310129  0.039260365            5 
  815000   0.93258154   -5.7605306    383.55881  0.039218692  0.039241828            2 
  816000   0.93924234   -5.7640472    382.30909  0.039043003  0.039222774            5 
  817000   0.92448937   -5.7982453    383.53165  0.039119915   0.03920345            7 
  818000   0.94454754   -5.7581846    384.62407  0.039183381   0.03918459            4 
  819000   0.93848099   -5.7867484    384.84285  0.039157799  0.039165507            4 
  820000   0.93578668   -5.7571199    385.53347   0.03918023  0.039146795            4 
  821000   0.90637928   -5.7937167    383.81375  0.038957953  0.039127182            4 
  822000   0.93303303   -5.7408224    385.70569  0.039102361  0.039107407            5 
  823000   0.93002617   -5.7967685    385.14562  0.038998139  0.039088074            4 
  824000   0.91602802    -5.809031    384.76271  0.038912086  0.039068484            5 
  825000   0.93021296   -5.7498198    385.91879  0.038981696  0.039049078            3 
  826000   0.90515931   -5.7428273    387.04111  0.039047731  0.039030112            2 
  827000   0.94372684   -5.8011963    383.67241  0.038661065  0.039010709            3 
  828000   0.93792264   -5.7857178    385.26623  0.038774782   0.03899103            8 
  829000   0.91034363   -5.7950246    385.86604  0.038788303  0.038971034            3 
  830000   0.92659786    -5.794843     386.7114  0.038826445  0.038951118            3 
  831000    0.9318426   -5.8196569    386.62341  0.038770899  0.038931191            3 
  832000   0.92240298   -5.8091494    385.69157  0.038630966  0.038911205            4 
  833000    0.9144792   -5.7731333    388.24758  0.038840294  0.038891335            3 
  834000   0.92693166    -5.775269    388.71369  0.038840297  0.038871376            8 
  835000   0.91458801   -5.8017131    388.39778  0.038762253  0.038851662            3 
  836000   0.90914521   -5.7899311    387.52942  0.038629328  0.038831817            5 
  837000   0.90746511   -5.7687803    388.75286  0.038704985  0.038811833            9 
  838000   0.90858321   -5.7772128    388.02442  0.038586358  0.038791746            3 
  839000   0.91158096    -5.768635    389.17614  0.038654762  0.038771692            6 
  840000   0.94441092   -5.8089361    388.77786  0.038569232  0.038751586            7 
  841000   0.91599643    -5.787665    389.65406  0.038610192  0.038731423            5 
  842000   0.93381638    -5.797803    388.34001  0.038434284  0.038710969            4 
  843000   0.93115769   -5.8058846    387.74824  0.038330194  0.038690112            5 
  844000   0.91377857   -5.7992089    387.95628   0.03830532  0.038668698            4 
  845000   0.89527521   -5.8112866    389.55616  0.038417767  0.038647571            6 
  846000   0.94977955   -5.8003931    389.64381   0.03838099  0.038626617            3 
  847000    0.9271272   -5.7913606    390.05935   0.03837656  0.038605767            6 
  848000   0.91125176   -5.7938499    390.78287  0.038402405  0.038585139            4 
  849000    0.9218048   -5.7947087    388.68519  0.038151275  0.038564404            5 
  850000   0.91690694   -5.8260609    389.34801  0.038171373  0.038543152            6 
  851000   0.90867728    -5.761927    391.41215  0.038328647  0.038522121            4 
  852000   0.90747263   -5.8179991    390.65333  0.038209441  0.038501436            3 
  853000     0.906531   -5.8367482    389.46679  0.038048729  0.038480766           10 
  854000   0.90027783   -5.8278801    390.76676  0.038131027  0.038459758            5 
  855000   0.89997246   -5.8344574    392.12401  0.038218714   0.03843916            5 
  856000   0.89632513   -5.7995697    392.25954   0.03818726   0.03841847            9 
  857000   0.91391856   -5.8213575    392.19289  0.038136221  0.038397536            6 
  858000   0.91926086   -5.8068834    392.74444  0.038145342  0.038376356            8 
  859000   0.89566966   -5.7994398    393.27756  0.038152654  0.038355332            4 
  860000   0.89751063   -5.8320249    393.56828  0.038136461  0.038334676            9 
  861000   0.92954552   -5.8014148    393.24833  0.038061201  0.038313948            5 
  862000   0.90910729   -5.8352525    392.19091  0.037914821  0.038292928           12 
  863000   0.89441364   -5.8179233    393.74462  0.038020917  0.038271969            5 
  864000   0.91567146   -5.7976387    394.38592  0.038038766  0.038251333            8 
  865000   0.90108076   -5.8191805     393.7831  0.037936715  0.038230534            6 
  866000    0.8855212   -5.8483747    393.34515  0.037850765  0.038209498            6 
  867000   0.89962334   -5.8034658    393.45296   0.03781747  0.038187793            8 
  868000   0.91543694   -5.8306943    394.72983  0.037896489  0.038166443            6 
  869000   0.90053404   -5.8129479    395.29347  0.037906931  0.038145081            8 
  870000    0.9111508   -5.7991773    395.72387  0.037904585  0.038124203            3 
  871000   0.89893903   -5.8229085    394.95347  0.037787359  0.038103314            8 
  872000   0.89102781   -5.8506738    394.80218  0.037729566   0.03808215            4 
  873000   0.91245709   -5.8352623    395.54792  0.037757533  0.038060833            4 
  874000   0.90720237   -5.8225229     395.9809  0.037755616  0.038039585            8 
  875000    0.9007035   -5.8345962    395.13804  0.037632194  0.038018462            7 
  876000    0.9110633   -5.8416772    396.35124  0.037704646  0.037997493            6 
  877000   0.88737979   -5.7955841    398.01493  0.037819739  0.037976674            9 
  878000   0.89278235    -5.806116    396.08208  0.037593212   0.03795524            9 
  879000   0.87340149   -5.8270654    396.68416  0.037607523  0.037933942            7 
  880000    0.9018341   -5.7872004    398.57202  0.037743563  0.037912909            6 
  881000   0.89430089   -5.8283332    398.21948  0.037667374  0.037891878            2 
  882000   0.89193257   -5.8497924    397.66509  0.037572287  0.037870686            5 
  883000   0.90759123   -5.8073283    399.75437  0.037726913  0.037849701            6 
  884000   0.90371459   -5.8580058    396.78816  0.037404616  0.037828653            9 
  885000   0.89802605   -5.8380903    398.59086  0.037532096  0.037807296            6 
  886000   0.88220403   -5.8417462    399.08572  0.037536279   0.03778634            4 
  887000   0.89530854   -5.8147115    399.09961  0.037495266  0.037765391           10 
  888000   0.88142157    -5.828774    398.78893  0.037423886  0.037743872            3 
  889000   0.91363473   -5.8609517    399.40894  0.037439908  0.037722607            4 
  890000   0.88559529   -5.8178834    399.46254   0.03740286  0.037701324            4 
  891000   0.88652239   -5.8404038    401.01579  0.037506153  0.037680295            4 
  892000   0.89260465   -5.8654565    399.31832  0.037305523  0.037659261            8 
  893000   0.89415574   -5.8695046     400.0564  0.037332624  0.037638034            5 
  894000   0.89159466    -5.833556    401.01887   0.03738058  0.037617093            3 
  895000   0.88891062   -5.8221678    401.80534  0.037412043  0.037596532            7 
  896000   0.90355605   -5.8546677    402.12142  0.037399686  0.037576382            5 
  897000   0.87777005   -5.8452364    401.82283  0.037330252   0.03755605            2 
  898000   0.91439932   -5.8511437    402.46443  0.037348221  0.037535499            5 
  899000    0.8858989   -5.8861901    401.83932  0.037248732  0.037514494            3 
  900000   0.88848821   -5.8369221    402.89643  0.037305225  0.037493597           14 
  901000   0.87869255   -5.8200827    403.12971  0.037285396  0.037473373            6 
  902000   0.92053702   -5.8783844    403.21535  0.037251972  0.037453061            8 
  903000   0.87012185   -5.8713242    402.62908  0.037156615  0.037432104           11 
  904000   0.88326814   -5.8495136    403.79099  0.037222621  0.037411209            4 
  905000    0.8714676   -5.8412572     404.1516  0.037214696  0.037390481            7 
  906000   0.88252744   -5.8350424    403.25089  0.037090773  0.037369785            3 
  907000   0.87739032   -5.8686455    403.38569  0.037062265  0.037349136            6 
  908000   0.89737848   -5.8421266     405.6433  0.037228644  0.037328711            3 
  909000   0.90884632   -5.8622452    404.35189  0.037069297  0.037308414            7 
  910000   0.88890651   -5.8496273    404.95732  0.037084004   0.03728782            9 
  911000   0.87804121   -5.8546735    404.18539  0.036972685  0.037267319           14 
  912000   0.89630064   -5.8585745     405.8194  0.037081451  0.037246589            6 
  913000   0.91359381   -5.8563776    405.77945  0.037037189  0.037226153            6 
  914000   0.88995756   -5.8599928    405.62385  0.036982481  0.037205597            4 
  915000   0.87614054   -5.8580023    406.00061  0.036976376  0.037184828            3 
  916000   0.87872773   -5.8882489    405.31232  0.036873392  0.037163909            4 
  917000   0.88699068   -5.8707897     405.9873   0.03689452  0.037142904            6 
  918000   0.89265272   -5.8832111    407.72855  0.037012395   0.03712206            7 
  919000   0.88230404   -5.8603855    406.95864  0.036902307  0.037101299           16 
  920000    0.8915125   -5.8639722    406.17969  0.036791639   0.03708028            5 
  921000   0.89045679   -5.8475867    407.64863  0.036884603  0.037059373           12 
  922000   0.87942533   -5.8633778    407.19337   0.03680345  0.037038321            4 
  923000   0.89349342   -5.8596886    407.51531  0.036792642  0.037017173           10 
  924000   0.88177878   -5.8700082    407.59641  0.036760138  0.036995939            8 
  925000   0.88647185   -5.8486353    407.65193  0.036725399  0.036974695            8 
  926000   0.88861372   -5.8920187    407.66404  0.036686829  0.036953199            5 
  927000   0.88306209   -5.9043276    407.35649  0.036619606  0.036931641            4 
  928000   0.88852036   -5.8645791    407.04962  0.036552588  0.036910045            7 
  929000   0.88277855   -5.8460936    408.58942  0.036651366  0.036888709            4 
  930000   0.88400126   -5.9109897    406.92206   0.03646255  0.036867244            5 
  931000   0.87152124   -5.8338701     408.8523   0.03659616  0.036845822            2 
  932000   0.91018916   -5.8833429    408.37476  0.036514195  0.036824364            7 
  933000   0.87541157   -5.9099849    408.13148  0.036453329  0.036802558            8 
  934000   0.89377083   -5.8697212    408.33278  0.036432261  0.036780886            4 
  935000   0.88738911   -5.8530944    409.25402  0.036475403  0.036759384           10 
  936000   0.88019923   -5.8754099    409.32406  0.036442669  0.036737894            6 
  937000   0.87063576   -5.9204767    408.54322  0.036334331  0.036716251            6 
  938000   0.86599936    -5.881519    409.32359  0.036364924  0.036694625            6 
  939000    0.8784834   -5.9095722    410.63114  0.036442239  0.036672753            7 
  940000   0.89783263   -5.8879171    409.61925  0.036313764  0.036651119            6 
  941000   0.87989099   -5.8574194    410.23218  0.036329453  0.036629772            5 
  942000   0.86120435   -5.8657965    410.62209  0.036325379  0.036608168            4 
  943000   0.89029925   -5.9160681    409.58581  0.036195282  0.036586438            5 
  944000   0.86869743   -5.8961604    411.12556  0.036292864  0.036564443            7 
  945000   0.87335115   -5.8942537    410.21086  0.036173798   0.03654281            8 
  946000   0.86302323   -5.9196131    410.71633  0.036180085  0.036521063            7 
  947000   0.88399896   -5.9262519    410.79734  0.036149009  0.036499299           11 
  948000   0.86653343   -5.8973965    410.94454  0.036123817  0.036477906            9 
  949000   0.85974648   -5.8676045    412.30373  0.036205104  0.036456265            8 
  950000    0.8752118   -5.9098583    411.63797  0.036108594    0.0364344            5 
  951000   0.86506624   -5.8991664    412.33044  0.036131304  0.036412715            8 
  952000   0.88647028   -5.8765413    412.24158  0.036085572  0.036391243            5 
  953000   0.87956939   -5.8751863    412.29381  0.036052274   0.03636977            5 
  954000   0.89471792   -5.9052371    411.47891  0.035943301  0.036348065            6 
  955000   0.87851662   -5.8765933    413.57111   0.03608823   0.03632606            5 
  956000   0.86430766   -5.9017933      412.443  0.035952144  0.036304225           13 
  957000   0.87051467   -5.8808869     413.5001  0.036006627  0.036282136            5 
  958000   0.87050629   -5.9069005    411.75417  0.035817168   0.03626013            7 
  959000   0.87660159   -5.9191705    412.52215  0.035846554  0.036238033            6 
  960000   0.86908225   -5.8984896    411.93686  0.035758408  0.036215513            7 
  961000   0.89889088   -5.9534257    410.00698  0.035553849   0.03619288            4 
  962000   0.87895568   -5.9259573    412.72408  0.035752259  0.036170504            4 
  963000   0.88455092   -5.9274524    412.49753  0.035695529  0.036148483            7 
  964000   0.88686608   -5.9036606    413.83326  0.035773968  0.036126318            3 
  965000   0.87625516   -5.9054741    413.85936   0.03573915  0.036104407            9 
  966000   0.85711006   -5.8825276    415.41843  0.035836649   0.03608256            4 
  967000   0.85301246   -5.9134514    415.06729  0.035769329  0.036060313            7 
  968000   0.88159891   -5.9114317    414.67072  0.035698237  0.036038178            7 
  969000   0.88537843   -5.8847869    413.53516  0.035563739  0.036015985            5 
  970000   0.87095841   -5.8942811    414.85303  0.035640294  0.035994313            6 
  971000     0.889491   -5.9213617    415.92542  0.035695624   0.03597257            4 
  972000   0.87060515   -5.9039145    416.41976  0.035701283  0.035950982            7 
  973000   0.85325654   -5.9167706    415.16869  0.035557441  0.035929117            4 
  974000   0.86298207    -5.923948    415.41537  0.035542041  0.035907364            8 
  975000   0.85900993   -5.8935079    416.32114  0.035583004  0.035885599           12 
  976000   0.85413853   -5.8978916    416.76789   0.03558469  0.035863778            4 
  977000   0.86242474   -5.8994378    415.13908  0.035409338  0.035842043           14 
  978000   0.85048495   -5.9202566    416.95698  0.035528032  0.035820358            6 
  979000    0.8799316   -5.9295173    417.48577  0.035536752  0.035798741            4 
  980000   0.87006831   -5.9508379    416.35357  0.035404216  0.035777078            8 
  981000   0.86040244   -5.9337389    417.23032  0.035442602    0.0357553            7 
  982000   0.84547513   -5.9309747    417.41948  0.035422563  0.035733601            8 
  983000    0.8573622   -5.9462069     417.6027   0.03540206  0.035711898           11 
  984000   0.85412821   -5.9157836    417.93788  0.035394468  0.035690389            4 
  985000   0.86249094   -5.9212963    417.65166  0.035334319  0.035668458            5 
  986000   0.87874679   -5.9290784    417.27347  0.035266521  0.035646688           12 
  987000   0.84217977   -5.9361789     417.9156  0.035285005  0.035624681            7 
  988000   0.86041698   -5.9493399    418.18314  0.035271858  0.035602598           15 
  989000   0.85327081   -5.9479209    417.73111  0.035198105  0.035580667            6 
  990000   0.86228148   -5.9559121    418.12864  0.035196013  0.035558486            6 
  991000   0.85648868   -5.9495413    419.56618  0.035281381  0.035536669            4 
  992000   0.86683625   -5.9370422    418.86752  0.035187124  0.035514976            4 
  993000   0.85682089   -5.9418654    418.17371  0.035093464   0.03549311            5 
  994000   0.86484801   -5.9484419    418.94492  0.035122814  0.035471157           16 
  995000   0.85872875   -5.9055096    419.63834  0.035145589  0.035449422            3 
  996000   0.85312307   -5.9110735    419.22819  0.035075986   0.03542803            7 
  997000   0.86400619   -5.9235136    420.37562  0.035136712  0.035406592            8 
  998000   0.85298241   -5.9480923    420.83396  0.035139776  0.035385216            5 
  999000   0.86344554   -5.9297558    419.33898  0.034979895  0.035363528           10 
 1000000   0.85062519   -5.9515236    420.93418  0.035077848  0.035342031            6 
 1001000   0.85630576   -5.9268577    422.51598   0.03517449  0.035320918            4 
 1002000   0.87480491   -5.9454773    421.62048   0.03506491  0.035299849            5 
 1003000   0.85971119   -5.9488275    422.35937   0.03509134  0.035278627            5 
 1004000   0.84804355   -5.9290919    421.44072  0.034980139  0.035257303           10 
 1005000   0.86034775   -5.9346499    421.97899  0.034989966  0.035236273            5 
 1006000   0.85151726   -5.9535938      420.887  0.034864728  0.035214749            7 
 1007000   0.86019034   -5.9536413     421.2142  0.034857183  0.035193127           17 
 1008000   0.85376742   -5.9456509    421.46257  0.034843135  0.035171479            5 
 1009000   0.87084991   -5.9447416    422.76221  0.034915941  0.035150115            6 
 1010000   0.83198018    -5.954738    422.30375  0.034843544   0.03512891           11 
 1011000   0.87182992   -5.9644509    422.56853  0.034830904  0.035107843            9 
 1012000    0.8414216   -5.9488256    422.57805   0.03479727  0.035086571            6 
 1013000   0.84988055   -5.9704859    424.09379  0.034887611  0.035065333            6 
 1014000   0.87378044   -5.9261038    424.98487  0.034926436  0.035044366            5 
 1015000   0.85868275   -5.9605835     423.7586  0.034791346  0.035023665            6 
 1016000   0.85344045   -5.9373381    425.34344  0.034887093  0.035002887            8 
 1017000   0.85692353   -5.9611205    424.27158   0.03476496  0.034982014           13 
 1018000   0.86110735   -5.9499344    424.75071  0.034770032  0.034960855            4 
 1019000    0.8290247   -5.9287492    425.90055  0.034829944  0.034939854            4 
 1020000   0.84659068   -5.9489512      425.231  0.034741095  0.034918703            5 
 1021000   0.84777471   -5.9886558    425.69487  0.034744929  0.034897707            3 
 1022000   0.83309216    -5.950108    424.70626  0.034630322  0.034876374            5 
 1023000   0.88094075   -5.9517742    425.12139  0.034630286  0.034855203            4 
 1024000   0.84167568   -5.9558141    425.60892  0.034636143  0.034834137            4 
 1025000   0.83436519   -5.9713843    426.11492  0.034643489  0.034812996            4 
 1026000   0.83808761   -5.9998919    425.64851  0.034571842  0.034791781            6 
 1027000   0.83847369   -5.9680454    425.16134  0.034498648  0.034770649            8 
 1028000   0.84220091   -5.9899472    425.42158  0.034486185  0.034749542            3 
 1029000   0.84909892   -5.9747406    426.14074  0.034510912  0.034728248            8 
 1030000   0.84396035   -5.9563532      427.521  0.034589078  0.034707027            9 
 1031000   0.84060386   -5.9805937     426.9657  0.034510645  0.034686125           11 
 1032000   0.86431958   -5.9424684    427.71814  0.034537963  0.034665568            6 
 1033000   0.85199225   -5.9418137    428.09722  0.034535109   0.03464509            8 
 1034000   0.82067879   -5.9320421    428.40046  0.034526149  0.034624688            9 
 1035000   0.84120161   -5.9849117    427.83767  0.034447477  0.034603977            8 
 1036000   0.84515802   -5.9693455    428.53009  0.034469923  0.034583094            4 
 1037000    0.8351425   -5.9674477    428.89182  0.034465752   0.03456208            6 
 1038000    0.8401825   -5.9842848    428.92243  0.034435006  0.034541404            3 
 1039000   0.84169813   -6.0079249    427.46299  0.034284809  0.034520595            5 
 1040000   0.84846124   -5.9870465    429.67166  0.034428819  0.034499833            4 
 1041000   0.84141129    -5.991033    428.50349  0.034302233  0.034479063            5 
 1042000   0.83619061    -5.963732    429.79155  0.034372325  0.034458122            3 
 1043000    0.8446665   -5.9922795    429.64628  0.034327763  0.034437377            5 
 1044000   0.83197211   -6.0027421    430.64896  0.034374917  0.034416733            7 
 1045000   0.84428384   -5.9757079    430.36275  0.034319198  0.034396181            4 
 1046000   0.82595939   -5.9717791     430.5604  0.034302135   0.03437527            4 
 1047000   0.82703375   -5.9777102    429.37293  0.034174859  0.034354373            6 
 1048000   0.84974697   -5.9680579    430.57406  0.034237759  0.034333695            7 
 1049000   0.83934134   -5.9847834    430.77783  0.034221308  0.034313118            8 
 1050000   0.82847884   -5.9773291    429.48369  0.034086007  0.034292175            4 
 1051000   0.85293392    -5.990803    429.62378  0.034064683  0.034271393            8 
 1052000   0.83478838   -5.9774687    430.42702   0.03409593  0.034250479            8 
 1053000   0.81934424   -5.9960698    429.21595  0.033967708  0.034229427            4 
 1054000   0.84630109   -5.9978799    429.73981  0.033976898  0.034208342            8 
 1055000   0.84462545   -5.9931377    429.78874  0.033948558   0.03418726           10 
 1056000   0.82847681   -5.9906739    430.92305  0.034005922  0.034166134            4 
 1057000   0.83511142   -5.9989444     430.0921  0.033908238  0.034144866            9 
 1058000   0.83496487   -6.0006838    430.33541  0.033895353  0.034123609            7 
 1059000   0.82006156   -5.9848428    430.66561   0.03388933  0.034102218            6 
 1060000   0.81638351   -5.9793395    430.85775  0.033872465  0.034080916            4 
 1061000   0.81956115   -6.0123076    431.11752  0.033860942   0.03405953            6 
 1062000   0.82980789   -6.0238253    430.90894  0.033812692  0.034038156            6 
 1063000   0.83667735   -6.0192113    430.59137  0.033755987  0.034016786            8 
 1064000   0.81966792   -5.9727394    431.51329  0.033796467  0.033995515            3 
 1065000   0.81817123   -5.9899522    430.26348  0.033666939  0.033974215            6 
 1066000   0.83019513   -6.0073882    430.79884  0.033677208  0.033952875            7 
 1067000   0.83242363   -6.0035597    432.02458  0.033741376  0.033931319           11 
 1068000   0.81164345    -6.022815    430.88959  0.033621223  0.033909791            6 
 1069000   0.83324823   -6.0115231    430.76626  0.033580158  0.033888218           17 
 1070000   0.80402733   -6.0237977    431.90023   0.03363709  0.033866484            4 
 1071000   0.80925271   -6.0216512    431.05267  0.033539735  0.033844696            8 
 1072000   0.82922621    -6.008706    432.39337  0.033612669  0.033823231            9 
 1073000    0.8280466   -5.9924246    431.60935  0.033520452  0.033801685            4 
 1074000   0.83940039    -6.015285    433.09744  0.033604705   0.03378021            6 
 1075000    0.8178493   -6.0242208    431.27304  0.033432019  0.033758651            9 
 1076000   0.82572035   -6.0131143    433.35677  0.033562328  0.033737354            4 
 1077000   0.81179892   -6.0351844     433.1179  0.033512682  0.033715878            5 
 1078000   0.82310153   -5.9895435    433.32815  0.033497847  0.033694672            8 
 1079000   0.83068532     -6.02804    433.48851  0.033479187  0.033673328           19 
 1080000   0.81709005   -5.9973716    432.50527   0.03337232  0.033651858            6 
 1081000   0.82445348   -6.0023549    435.19049   0.03354845  0.033630778           20 
 1082000   0.81647077   -6.0054631    434.54459  0.033467698  0.033609747            5 
 1083000    0.8192183   -6.0077981    433.82751  0.033381618  0.033588354            5 
 1084000   0.83242258   -6.0102085    434.24783  0.033383136  0.033567133            6 
 1085000   0.82976778   -6.0388076    433.35699  0.033283947  0.033546028           11 
 1086000   0.81712897   -6.0211199    434.77348  0.033361992  0.033524734            5 
 1087000   0.81383511   -6.0688763    433.76936  0.033254321  0.033503315            4 
 1088000   0.81549243   -6.0032191    435.09677  0.033325427  0.033482142            7 
 1089000   0.83844108   -6.0172568    434.73247  0.033266948  0.033460922            5 
 1090000   0.82061607   -6.0202534    434.77359  0.033239571  0.033439836            6 
 1091000   0.81367863   -6.0153467    435.36738  0.033254459  0.033418889            9 
 1092000   0.80448354   -6.0165534    435.51463  0.033235243  0.033397979            7 
 1093000   0.80564772   -6.0585963    436.12831  0.033251624  0.033377045            9 
 1094000   0.81203696   -6.0436618    436.72051   0.03326634  0.033356089            7 
 1095000    0.7943955   -6.0042169    436.49895  0.033219098  0.033335132            6 
 1096000   0.82040146    -6.013792    436.31922  0.033175123  0.033314087            9 
 1097000   0.79663522    -6.024107    436.24678  0.033139379  0.033292955            7 
 1098000   0.82385831   -6.0115036    437.77724  0.033225352   0.03327206           15 
 1099000   0.82702858   -6.0069984    436.56703  0.033103354  0.033251129            4 
 1100000    0.8063346    -6.049656    436.56191  0.033072872  0.033230047            9 
 1101000   0.83764904   -6.0421663    436.40153  0.033030694  0.033208901            9 
 1102000    0.8294766   -6.0317337    435.94907  0.032966505  0.033187721            4 
 1103000   0.80115289   -6.0185509    436.34016  0.032966165  0.033166258           13 
 1104000   0.80949872   -6.0355003    436.11358  0.032919201  0.033144874            9 
 1105000   0.81662308   -6.0518483    435.41726  0.032836897  0.033123239            3 
 1106000   0.81099771   -6.0539191    435.61121  0.032821821  0.033101481            6 
 1107000   0.81687755   -6.0494211    436.33513  0.032846667  0.033079886            4 
 1108000   0.82214952   -6.0722396    436.03247  0.032794259  0.033058195            7 
 1109000   0.80594513   -6.0664941     435.6412  0.032735287  0.033036345            8 
 1110000   0.81758966   -6.0207153    436.43915  0.032765702  0.033014619            4 
 1111000   0.80791631   -6.0436565    436.84481  0.032766637  0.032993084            3 
 1112000   0.79340455   -6.0510628    436.90781  0.032741892  0.032971491           16 
 1113000   0.81591434   -6.0406234    438.29576  0.032816394  0.032950237            3 
 1114000   0.80542592   -6.0621255    437.13827   0.03270035  0.032929083            6 
 1115000   0.81352678   -6.0715952    437.04133  0.032663777  0.032907625            8 
 1116000   0.81307625   -6.0503574    438.35807  0.032732831  0.032886247            8 
 1117000   0.80168384   -6.0285724    437.77111  0.032659737  0.032864867            7 
 1118000   0.79837376   -6.0602065    437.52507  0.032612184  0.032843673            3 
 1119000   0.81577198   -6.0961773    437.86802  0.032608581  0.032822151            4 
 1120000   0.81763649   -6.0449272    438.51309  0.032627462  0.032800764            4 
 1121000   0.80648454   -6.0679257    437.10623  0.032493773  0.032779317            5 
 1122000   0.82095979   -6.0516671    439.82607  0.032666821  0.032758128            9 
 1123000    0.8078885   -6.0518264    438.46876  0.032537011  0.032736911            8 
 1124000   0.80380602    -6.093736    438.99225  0.032546875  0.032715727            8 
 1125000   0.81201296   -6.0745573    438.20352   0.03245952  0.032694562           12 
 1126000   0.82113656   -6.0707407    438.81151  0.032475689  0.032673274            5 
 1127000   0.79791062    -6.047008    440.57271  0.032577101  0.032652157            7 
 1128000   0.80875713    -6.048818    441.22401  0.032596336  0.032631256            9 
 1129000   0.79415276   -6.0586075    440.27889  0.032497704   0.03261039            4 
 1130000   0.80990516     -6.07301    439.81166  0.032434488  0.032589304            5 
 1131000   0.78877309    -6.043953    439.72028  0.032399078  0.032568177            6 
 1132000   0.80805503   -6.0574311    440.30755  0.032413689  0.032547188            7 
 1133000   0.81059774   -6.0728949    440.46153  0.032396406  0.032526067            6 
 1134000   0.80459977    -6.063551    440.48646  0.032369669  0.032504937            4 
 1135000   0.80033965   -6.0885104     440.8737  0.032369581  0.032483856            6 
 1136000   0.80330294   -6.0633068    442.03592  0.032426344  0.032462853            5 
 1137000   0.80302809   -6.0380774    442.13861  0.032405351  0.032441987            7 
 1138000   0.79500518   -6.0732893    441.94773  0.032362898  0.032421131           13 
 1139000   0.81003136   -6.0880598    441.04397  0.032268362    0.0324001            8 
 1140000   0.80993536   -6.0674294    441.56933   0.03227846  0.032379355           12 
 1141000   0.78735821   -6.0752452     441.8941   0.03227389  0.032358613            8 
 1142000    0.7961854   -6.1050725    441.36222  0.032206817  0.032337619            7 
 1143000   0.79437594   -6.0984089    440.14264  0.032089723   0.03231682            5 
 1144000   0.79708598   -6.0861509    442.70193  0.032248101  0.032295914            6 
 1145000   0.81309133   -6.0871776    443.00971  0.032242337   0.03227526            7 
 1146000   0.80110298   -6.0712254    443.16242  0.032225307  0.032254685            8 
 1147000   0.79567301   -6.0824887    442.24497  0.032130556  0.032233931            7 
 1148000   0.80038775   -6.0544597    441.82641  0.032072184  0.032213291            8 
 1149000   0.76937097   -6.0623747    444.18791  0.032215543  0.032192648            7 
 1150000   0.79245841   -6.0430243    443.74004  0.032155075   0.03217216            7 
 1151000   0.79117127   -6.1000084    444.49111  0.032181517  0.032151538            6 
 1152000   0.79429828   -6.0774761    441.60306  0.031944666  0.032130741            7 
 1153000   0.79267543   -6.0881896    441.98639  0.031944665  0.032109903           10 
 1154000   0.82096238   -6.1109185    442.71669  0.031969721  0.032089141            6 
 1155000   0.77382723    -6.100283    443.68624  0.032011994  0.032068435            6 
 1156000   0.79823085   -6.0891349    443.80626  0.031992954  0.032047831            8 
 1157000   0.78726016   -6.1162372    443.87285  0.031970099  0.032027459            9 
 1158000   0.79315872   -6.1046397    444.09661  0.031958593   0.03200687            5 
 1159000   0.79735018   -6.1016137    445.64875  0.032042619  0.031986452           10 
 1160000   0.77445055   -6.1000507    444.33153  0.031920369  0.031965971           17 
 1161000   0.78260401   -6.1187481    443.93936  0.031864726  0.031945511            7 
 1162000   0.77774589   -6.0818645    445.59364  0.031955941  0.031925073            9 
 1163000   0.79399264   -6.1025811    444.29153  0.031835163  0.031904679            5 
 1164000   0.78004125   -6.1160592    443.98039  0.031785538  0.031884299            7 
 1165000   0.78436692   -6.1110638    445.68867  0.031880448  0.031863901            8 
 1166000   0.77878581   -6.1015743    444.21481  0.031747771  0.031843566            6 
 1167000   0.78293054   -6.0825767    445.66491  0.031824115  0.031822999            6 
 1168000    0.8053143   -6.0680602    446.74231  0.031873738  0.031802684            9 
 1169000   0.78382997   -6.0905806    447.24468  0.031882284  0.031782338           16 
 1170000   0.78888057   -6.0986778    446.56345  0.031806513  0.031762187            7 
 1171000   0.79664011   -6.1056754    446.11063  0.031747127  0.031742191            5 
 1172000   0.78299849   -6.0951697    446.79799  0.031768913  0.031722205            5 
 1173000   0.79247003    -6.110693    446.19361  0.031698893  0.031702149            8 
 1174000   0.78537267   -6.1469873    446.49479   0.03169327  0.031682008            8 
 1175000    0.7926476   -6.1421889    446.33945   0.03165528  0.031661885           14 
 1176000   0.79640005   -6.1099233    446.32443  0.031627298  0.031641583            5 
 1177000    0.7824699   -6.1143164    447.59475  0.031690368  0.031621432            7 
 1178000    0.7973173   -6.1494099     446.1962   0.03156453   0.03160111            8 
 1179000   0.79341007   -6.1222344    446.61789  0.031567564  0.031580773            7 
 1180000   0.77916402   -6.1243356    446.47994   0.03153107  0.031560397           17 
 1181000     0.781657   -6.1610288    446.14193   0.03148052  0.031539976            6 
 1182000   0.78576458    -6.123246    446.63258  0.031488479  0.031519715            7 
 1183000   0.79658905   -6.1125832    447.67906  0.031535577  0.031499427           10 
 1184000   0.79008789   -6.1199733    446.19568  0.031404539  0.031478859            7 
 1185000   0.79532665   -6.1160776    446.74532  0.031416689  0.031458335            6 
 1186000   0.77514166   -6.1529311    445.86697  0.031328483  0.031437937            6 
 1187000   0.77768585   -6.1585248    448.34312  0.031475928  0.031417554            9 
 1188000   0.78546333    -6.138216    447.74839  0.031407715  0.031397278            9 
 1189000   0.78296723   -6.1191082    448.80009  0.031455011  0.031376966            8 
 1190000   0.78614759   -6.1263018    448.23167  0.031388772  0.031356925            7 
 1191000   0.77790684   -6.1381862    448.76702  0.031399876  0.031336578           12 
 1192000   0.76780185    -6.129536    448.45352  0.031351617  0.031316131            8 
 1193000   0.81105701   -6.0977081    449.59986   0.03140541  0.031295833            4 
 1194000    0.7998174    -6.129653    448.50385  0.031302614  0.031275496           10 
 1195000   0.76735028   -6.1250116    448.18854  0.031254431  0.031255285            6 
 1196000   0.77080553   -6.1306438    448.47526  0.031248276  0.031234854            8 
 1197000   0.76366596    -6.118575    448.59776  0.031230699  0.031214595            9 
 1198000   0.77640699   -6.1283933    447.52437  0.031129964  0.031194331            9 
 1199000   0.76863463   -6.1198453    449.37897    0.0312329    0.0311742            7 
 1200000   0.75977246   -6.1419255    448.96763  0.031178308  0.031154031           15 
 1201000   0.79328919   -6.1198648    449.62692  0.031198093  0.031133883            7 
 1202000   0.77064592   -6.1051585    450.04681  0.031201249  0.031113788            7 
 1203000   0.77458584   -6.1376748    449.09407  0.031109315  0.031093771           11 
 1204000   0.78210463   -6.1400481    449.41483  0.031105677  0.031073588           14 
 1205000   0.78037177   -6.1370712     448.6858  0.031029447  0.031053274            8 
 1206000   0.77041795   -6.1361826     448.8122  0.031012451  0.031032879            9 
 1207000    0.7886648   -6.1659092    450.14195  0.031078566  0.031012549            9 
 1208000   0.76837342   -6.1711164    449.57609  0.031013803  0.030992197            7 
 1209000   0.76076993   -6.1282383    449.17773  0.030960693  0.030971793           12 
 1210000   0.76820711   -6.1390523     449.6066  0.030964642   0.03095143            7 
 1211000    0.7803418   -6.1853821    448.48534  0.030861915   0.03093092           16 
 1212000   0.79707598   -6.1463904     451.0699  0.031014157  0.030910279           17 
 1213000   0.76473239    -6.166392    449.80995   0.03090203  0.030889814           17 
 1214000   0.76823178    -6.136949    450.14815  0.030899791  0.030869366            8 
 1215000   0.76096813   -6.1448436    450.87263  0.030924049  0.030848999           12 
 1216000   0.78159107   -6.1750683    448.65983  0.030746973  0.030828348           11 
 1217000   0.76233294   -6.1657105    449.08614    0.0307509  0.030807819            5 
 1218000   0.77528302   -6.1740778     449.4865  0.030753044  0.030787338            7 
 1219000   0.77794889   -6.1787099    448.49333  0.030659921  0.030766784            7 
 1220000    0.7745611   -6.1657382    450.31653  0.030759326  0.030746204           12 
 1221000   0.76509437   -6.1485442    450.23217  0.030728376   0.03072579            5 
 1222000   0.74536949   -6.1835564    450.57907  0.030726887  0.030705131            4 
 1223000   0.75881356    -6.167039    449.99639   0.03066206   0.03068445            8 
 1224000   0.77358041   -6.1921482    449.84838  0.030626932  0.030663812            9 
 1225000   0.76411874   -6.1879304    450.63163  0.030655213   0.03064324            5 
 1226000   0.76696142   -6.1867904     451.0833  0.030660909  0.030622644            8 
 1227000   0.74495919   -6.1727711    450.50499  0.030596645  0.030602071           10 
 1228000   0.76811576   -6.1725709    450.65446  0.030581872    0.0305816           16 
 1229000   0.77402764   -6.1580943    449.28685  0.030464256  0.030561159            7 
 1230000    0.7664928   -6.1606476    451.28844  0.030575098  0.030540731            8 
 1231000    0.7619636    -6.194715    449.05599  0.030399133  0.030520341            4 
 1232000   0.75638146   -6.1582011     450.7887   0.03049166  0.030499782            6 
 1233000   0.76755346   -6.1658313    449.98529  0.030412631  0.030479206            9 
 1234000   0.74737605   -6.2122771    449.84546  0.030378543  0.030458418           16 
 1235000   0.75497651   -6.1582869    451.11957  0.030439917  0.030437728            8 
 1236000    0.7619089   -6.1960924    449.86767  0.030330884  0.030417067            7 
 1237000   0.77031989   -6.1743355    450.75215  0.030365949  0.030396474           23 
 1238000   0.75014332   -6.1811426    451.06062  0.030362185  0.030376028            5 
 1239000   0.74976491   -6.1658833    451.13907  0.030342956  0.030355601            6 
 1240000   0.74415041   -6.1933611    450.93171   0.03030455  0.030335103            6 
 1241000   0.75264827   -6.1788153    450.80195  0.030271418  0.030314566           12 
 1242000   0.75795746   -6.1977113    449.98819  0.030192445  0.030294011            9 
 1243000   0.74622375   -6.1616613    451.66832  0.030280794  0.030273622            5 
 1244000   0.74742583   -6.1761908    452.91292  0.030339826   0.03025324            8 
 1245000   0.75565779   -6.1622061    451.36325   0.03021173  0.030232782            5 
 1246000   0.75949106   -6.1958433     450.9227  0.030158019  0.030212207            9 
 1247000    0.7539945   -6.1598966    451.95573  0.030202869  0.030191711            4 
 1248000   0.74691522   -6.1791504    451.82422  0.030169886  0.030171174           11 
 1249000   0.75072212    -6.183232    451.47728  0.030122584  0.030150708            5 
 1250000   0.75238534   -6.1824098    451.05476  0.030070317  0.030130151           10 
 1251000   0.75640005   -6.1620407    451.66917  0.030087209  0.030109688            9 
 1252000   0.77216387   -6.2038033     451.8786  0.030077116  0.030089238           11 
 1253000   0.74860214   -6.1945679    451.53919  0.030030539   0.03006862           11 
 1254000   0.77200775   -6.2080577     451.8689  0.030028502  0.030048141           15 
 1255000   0.75465959   -6.1784822    451.58426  0.029985675  0.030027741            8 
 1256000   0.75623769   -6.1775671    453.02716  0.030057535  0.030007378            7 
 1257000   0.74283311   -6.1926469    452.88651  0.030024298  0.029987102            4 
 1258000   0.74376106   -6.2152181    451.65622  0.029918934  0.029966769           22 
 1259000   0.75243362   -6.1852937     453.6188  0.030025073  0.029946378            9 
 1260000   0.76104096   -6.2051332    452.28312  0.029912905  0.029926115           19 
 1261000    0.7496139    -6.174001    454.03937  0.030005245  0.029905783            6 
 1262000   0.74249147   -6.1907586    452.52725   0.02988162  0.029885736            9 
 1263000   0.74119176   -6.2046111    453.23792  0.029904851  0.029865667            6 
 1264000   0.74813161   -6.1950414    453.78893  0.029917519  0.029845669            8 
 1265000   0.74984283   -6.2218072    453.20244  0.029855233  0.029825489            7 
 1266000   0.74986929   -6.1727782    454.64073  0.029926325  0.029805441            9 
 1267000   0.76007704   -6.2007174    452.37224  0.029753502  0.029785157            7 
 1268000   0.73677897   -6.1922542    454.06939  0.029841574  0.029764911            8 
 1269000   0.74978092   -6.1896981    452.86124  0.029738721  0.029744641           18 
 1270000    0.7657572   -6.2241635    453.67012  0.029768381  0.029724388            8 
 1271000   0.73947051   -6.2108993    453.59598  0.029740098  0.029704105            7 
 1272000   0.75940767   -6.2309245    453.21118  0.029691508  0.029683739            9 
 1273000   0.74884287   -6.2088187    453.61565  0.029694662  0.029663432            4 
 1274000   0.74829384   -6.1933215    454.39876  0.029722577  0.029643208           13 
 1275000   0.74502779   -6.1948115    455.04904  0.029741767  0.029623118           15 
 1276000   0.73706009   -6.2121589    454.93854  0.029711242   0.02960296           10 
 1277000   0.75307909   -6.2356711    452.52423  0.029530425   0.02958268            5 
 1278000   0.73156687   -6.2055117    454.30644  0.029623529   0.02956254           13 
 1279000   0.72316857   -6.1720856    455.38207   0.02967045  0.029542343            7 
 1280000   0.75781384   -6.1916153    455.18261  0.029634285  0.029522206            5 
 1281000   0.73117726   -6.2171733    454.11995  0.029542021  0.029501978            9 
 1282000   0.74599994   -6.2121212    453.90241  0.029504837  0.029481699            8 
 1283000   0.73650136   -6.2527736    452.99351  0.029422805   0.02946147            9 
 1284000   0.74327924   -6.2343584    454.57988  0.029502848   0.02944114            9 
 1285000   0.72845482   -6.2162441      455.626   0.02954773  0.029421019            9 
 1286000   0.73807439   -6.2444987    453.88677  0.029412051   0.02940089           35 
 1287000   0.74402462   -6.2216629    454.52765  0.029430694  0.029380766            9 
 1288000    0.7506557   -6.1938788    456.27953  0.029521191  0.029360806            3 
 1289000    0.7418901   -6.1946932    456.19688  0.029492946  0.029340873            3 
 1290000   0.71954366   -6.1933641    456.83999  0.029511628  0.029320947            9 
 1291000   0.72845498   -6.2059751    454.66423  0.029348324  0.029300985            6 
 1292000   0.73071527   -6.2146179    456.62883  0.029452324  0.029281103            8 
 1293000   0.72468708   -6.2426873    455.62169  0.029364636  0.029261178           14 
 1294000   0.71691053   -6.2223001    454.75749  0.029286289  0.029241132           11 
 1295000   0.73935619   -6.2533306    456.10227  0.029350211   0.02922113           13 
 1296000   0.74516285   -6.2091494    457.06568  0.029389511  0.029201166            7 
 1297000   0.74704526   -6.2252371    454.67387  0.029213176  0.029181222           22 
 1298000   0.74759665    -6.236278    456.03648  0.029278151  0.029161204           17 
 1299000   0.72541116   -6.2408974    456.46543   0.02928313  0.029141304            7 
 1300000    0.7390394   -6.2450507    455.76544  0.029215733  0.029121347           21 
 1301000   0.72973775   -6.2227909    455.81119  0.029196208  0.029101334           11 
 1302000   0.75345259   -6.2414911    455.30843  0.029141605  0.029081466            5 
 1303000   0.73376215   -6.2651282    455.92878  0.029158914  0.029061395           22 
 1304000   0.74382818   -6.2182846    455.36468  0.029100504  0.029041232            7 
 1305000   0.73322815    -6.258672    454.99473  0.029054581  0.029021011           18 
 1306000   0.71644414   -6.2386856    455.99603  0.029096225  0.029000718           10 
 1307000   0.72628457   -6.2396761    456.46558  0.029103901  0.028980597           10 
 1308000   0.72307099   -6.2583657    455.49973  0.029020115  0.028960516           18 
 1309000   0.73229144   -6.2364375     456.3356  0.029051159  0.028940401            9 
 1310000   0.73860569   -6.2615442    454.44887  0.028908961  0.028920337            6 
 1311000   0.74462295   -6.2689724    454.63745  0.028898897  0.028900104           42 
 1312000   0.71722719   -6.2572627    455.42321  0.028926779  0.028879839           13 
 1313000   0.71782908   -6.2536581    455.53876  0.028912082  0.028859664           11 
 1314000    0.7257448   -6.2588861    456.03874  0.028921787  0.028839516           13 
 1315000   0.72675761   -6.2557894    456.64667  0.028938319  0.028819367           14 
 1316000   0.71945846   -6.2947404     455.4297  0.028839267    0.0287992            9 
 1317000   0.72467193   -6.2746954    456.40454  0.028879052  0.028778968            8 
 1318000   0.72831733   -6.2851638    456.36282  0.028854503  0.028758788           11 
 1319000   0.72197264   -6.2784936    455.11479  0.028753778  0.028738491            9 
 1320000    0.7259054   -6.2815431    456.20512  0.028800828  0.028718229            9 
 1321000   0.73181938   -6.2472815    455.43023  0.028730143  0.028698046           11 
 1322000   0.72189594   -6.2563876    456.66803  0.028786437  0.028677996            8 
 1323000   0.73143921   -6.2799025    454.86932   0.02865138  0.028657833           11 
 1324000   0.71947798   -6.2901106    455.15286  0.028647587   0.02863754           22 
 1325000   0.73377862   -6.2929113    455.03076  0.028618287  0.028617391           10 
 1326000   0.71751434     -6.26902    455.84965  0.028648168  0.028597202           16 
 1327000   0.72130711   -6.2691819    456.68594  0.028679097  0.028577096           19 
 1328000   0.73051585   -6.2871106    455.79607  0.028601661  0.028556972            9 
 1329000   0.72545604   -6.2465004    457.09852  0.028661809  0.028536761           12 
 1330000   0.72839988    -6.274309     456.4247  0.028598039  0.028516552            6 
 1331000   0.71504766   -6.2952769    455.25296  0.028503191  0.028496342           15 
 1332000   0.73911686   -6.2810226    456.87585  0.028583324  0.028476184           40 
 1333000   0.72123635   -6.2996815    455.77852  0.028493281  0.028456034           13 
 1334000   0.72663172    -6.285926    456.51584  0.028517981   0.02843582           11 
 1335000   0.71629121   -6.2775768    456.08082  0.028469464  0.028415674           11 
 1336000    0.7278534   -6.2602722    455.61658  0.028419198  0.028395633            9 
 1337000   0.71404727   -6.2833053    456.25677  0.028437844  0.028375593            7 
 1338000   0.71790038   -6.2700623    456.73029  0.028446082  0.028355396           14 
 1339000   0.72541714   -6.2865913     455.7974  0.028366779  0.028335264           20 
 1340000   0.72737244   -6.3189188     457.0378  0.028422749  0.028315295           11 
 1341000   0.71249045   -6.2968995    456.24867  0.028352515  0.028295167           11 
 1342000   0.68639636     -6.28067    456.94403  0.028374567  0.028275051           27 
 1343000   0.71243309   -6.2861093    456.67696  0.028336867  0.028254914           12 
 1344000   0.70769295   -6.2790021    456.36672  0.028296548  0.028234687           11 
 1345000   0.70752995   -6.2783838    456.34891  0.028274406  0.028214626           16 
 1346000   0.70739682   -6.2807318    458.26855  0.028372248  0.028194478           11 
 1347000   0.71614402   -6.2898381    456.92688  0.028268181  0.028174365            8 
 1348000   0.70075086   -6.2798298    456.84761   0.02824231  0.028154358            6 
 1349000   0.72300828   -6.2882717     456.0886  0.028174487  0.028134371           11 
 1350000   0.71365682   -6.2721941    456.36194   0.02817049  0.028114269           20 
 1351000   0.71013984    -6.306771    455.66761   0.02810681  0.028094088           12 
 1352000   0.72718803    -6.275438    456.63884  0.028145885  0.028073972           10 
 1353000   0.72026437   -6.3179683    456.96926  0.028145434  0.028053949           17 
 1354000   0.71485628   -6.2890492    457.57643  0.028162016  0.028033988           15 
 1355000   0.71573199   -6.3053534    457.71506  0.028149758    0.0280141           13 
 1356000    0.6975321   -6.3108406     457.3419  0.028106066   0.02799422           21 
 1357000   0.69712869   -6.2939827    457.38845  0.028088212  0.027974253           22 
 1358000   0.71810083   -6.3079216     458.0749  0.028109653  0.027954317           26 
 1359000   0.71457084   -6.2865248    457.16806  0.028033362  0.027934435           14 
 1360000   0.69556472   -6.3081289    458.20178  0.028076089  0.027914572           14 
 1361000   0.70570337   -6.3118688    457.98454  0.028042159  0.027894579           12 
 1362000   0.71069364   -6.2694151    458.94509  0.028080341  0.027874834           25 
 1363000   0.70957247   -6.2985643    456.15535  0.027889175  0.027854969           12 
 1364000   0.70375104   -6.2877916    458.39088  0.028005308  0.027835011           22 
 1365000   0.70653892   -6.2949618    457.72586  0.027944191  0.027815082           31 
 1366000   0.68612285   -6.3058952    457.66138  0.027919801  0.027795146           26 
 1367000   0.69869513   -6.3249876     457.1186  0.027866289  0.027775176           33 
 1368000   0.72207055    -6.310655    457.42555  0.027864617  0.027755227           19 
 1369000   0.72022993   -6.3019097    458.06942  0.027883456  0.027735302            5 
 1370000   0.70782389    -6.317068     457.9946  0.027858553  0.027715405           18 
 1371000   0.70851966   -6.2925442    457.69268  0.027819881   0.02769552            6 
 1372000   0.70052469   -6.3037724    458.29698  0.027836308  0.027675737           13 
 1373000   0.70369974   -6.3174999    459.09955  0.027864746  0.027655898           14 
 1374000   0.70221126   -6.3227491    458.07684  0.027782438  0.027636015            5 
 1375000   0.71176828   -6.3035144    458.70305  0.027800185  0.027616241            6 
 1376000   0.71570734   -6.2776264    459.63402  0.027836362  0.027596465            6 
 1377000   0.70919651   -6.2893873    459.62152  0.027815391  0.027576785           23 
 1378000   0.72066265   -6.3413811    457.96868  0.027695251  0.027557038           18 
 1379000   0.70358131   -6.3282336    458.05996  0.027680684  0.027537222           15 
 1380000   0.70789267   -6.3592086     458.4709  0.027685441  0.027517413           17 
 1381000   0.71938282   -6.3431481    458.25814  0.027652555  0.027497707            8 
 1382000    0.7043266   -6.3444082     458.1419  0.027625537  0.027477922            6 
 1383000   0.68769725     -6.31639    458.57551  0.027631689  0.027458178            5 
 1384000    0.7120894   -6.3347646    457.95334  0.027574262  0.027438394            5 
 1385000   0.68370149   -6.3395531     458.2904  0.027574633  0.027418548           15 
 1386000    0.7021151    -6.348472     459.0837  0.027602435  0.027398757            7 
 1387000   0.70250393   -6.3276966    458.93348  0.027573509  0.027378994           10 
 1388000   0.69006686   -6.3297371    458.98286  0.027556608  0.027359314           13 
 1389000   0.70368326   -6.3083018    459.80207  0.027585918  0.027339617           10 
 1390000   0.70428019   -6.3363678    457.13054  0.027405908  0.027319873           17 
 1391000   0.70838793   -6.3486221    458.13752  0.027446533  0.027300053           15 
 1392000   0.69439177   -6.3262902    458.92048  0.027473688  0.027280316           15 
 1393000   0.68011012   -6.3101628    457.73574   0.02738309  0.027260575           12 
 1394000   0.69501599   -6.3427286    459.28024  0.027455777  0.027240795           16 
 1395000   0.68662118   -6.3401013    459.00242  0.027419499  0.027221025           13 
 1396000    0.7032001   -6.3267224    458.43419  0.027365938  0.027201283           13 
 1397000   0.70121457   -6.3366013    458.43915  0.027346645  0.027181555           24 
 1398000   0.71042538   -6.3369597    458.62761  0.027338317  0.027161779           15 
 1399000   0.68970437   -6.3498436     457.8303  0.027271283  0.027142019           20 
 1400000   0.69710536   -6.3403135    458.40552  0.027286043  0.027122299           18 
 1401000   0.71028821   -6.3547853    457.50006  0.027212709  0.027102546           12 
 1402000   0.69953117   -6.3572891    457.65063  0.027202249   0.02708276           17 
 1403000    0.6926447   -6.3118583    459.23235  0.027276809  0.027062922           26 
 1404000   0.69386722    -6.331621    458.72112  0.027227037  0.027043158           12 
 1405000   0.68216447   -6.3418284    458.26538  0.027180628   0.02702333           19 
 1406000    0.7055335    -6.339153    458.39201  0.027168801  0.027003533           20 
 1407000   0.68675622   -6.3514603    458.50682  0.027156291  0.026983721           24 
 1408000   0.68001652   -6.3563427    457.97022  0.027105245   0.02696394           12 
 1409000   0.69903523   -6.3741621    457.65786  0.027067534  0.026944136           14 
 1410000   0.68659128   -6.3569787     458.3476  0.027089102  0.026924306           34 
 1411000   0.69203711    -6.341835    458.97776   0.02710712  0.026904544           39 
 1412000   0.70382448   -6.3833545    457.51744  0.027001737  0.026884769           46 
 1413000   0.69955008   -6.3725247    457.08586  0.026957175  0.026864973           31 
 1414000   0.67463211   -6.3673122    458.67657  0.027031858  0.026845075           30 
 1415000   0.68880659   -6.3622347    457.23041  0.026927586  0.026825205           31 
 1416000   0.68700737   -6.3903464    457.12777  0.026902529   0.02680531           15 
 1417000   0.68206687   -6.3546715    458.14698  0.026943483  0.026785392           11 
 1418000   0.68863361   -6.3511764    458.05374  0.026919002  0.026765623           11 
 1419000   0.69794544   -6.3555113    457.65692  0.026876727  0.026745873           13 
 1420000   0.67456462   -6.3495486    457.17448  0.026829488  0.026726127            9 
 1421000   0.68890627   -6.3659721    458.94493  0.026914434  0.026706389           11 
 1422000   0.68013505   -6.3564531    459.02995  0.026900489  0.026686708            9 
 1423000   0.70318701   -6.3406118    457.81697  0.026810551  0.026667103           14 
 1424000   0.70716643   -6.4030351    457.30235  0.026761608  0.026647437           15 
 1425000    0.7019504   -6.3600123       458.15  0.026792398  0.026627796           10 
 1426000   0.67534326    -6.368734    457.08332  0.026711274  0.026608134           22 
 1427000   0.69692097   -6.3572647    457.47024  0.026715151  0.026588429           36 
 1428000   0.67965783   -6.3814784     457.2994  0.026686473  0.026568654           20 
 1429000   0.66028399   -6.3581603    458.19379  0.026719955  0.026548949           20 
 1430000   0.68068004   -6.3679979    457.53151  0.026662675  0.026529269           11 
 1431000   0.68113417   -6.3727183    458.43102  0.026696425  0.026509694           25 
 1432000   0.67473327   -6.3697097    458.77335  0.026697704  0.026490029           14 
 1433000   0.66503147   -6.3827629    457.61468  0.026611693  0.026470347           26 
 1434000   0.67096402   -6.3885947    458.44033  0.026641117  0.026450669           28 
 1435000   0.68584956   -6.3758571    459.03488  0.026657078  0.026430982           29 
 1436000   0.68547193   -6.3931492    458.07245  0.026582663  0.026411284           32 
 1437000   0.68942707   -6.3913325    458.48062  0.026587834  0.026391597           19 
 1438000    0.6755339   -6.3694151    457.95259  0.026538746  0.026371955           22 
 1439000   0.67926617    -6.384415    458.24232  0.026537081  0.026352351           18 
 1440000   0.67115286   -6.3678943    459.64472   0.02659981  0.026332812            7 
 1441000   0.67695848    -6.384263    459.51266  0.026573714  0.026313382           13 
 1442000   0.68813594   -6.3616252    458.77996  0.026512943  0.026293882           12 
 1443000    0.6877336   -6.3789028     458.9875  0.026506554  0.026274346           12 
 1444000   0.68175657   -6.3645198    458.87185  0.026481524  0.026254821           21 
 1445000   0.67202558   -6.3824031    457.64716   0.02639257  0.026235322           15 
 1446000   0.67040555   -6.3894392    458.36257  0.026415547  0.026215836           11 
 1447000   0.67712411   -6.3561079    459.43403  0.026458997  0.026196409            9 
 1448000   0.69218628   -6.3825717    458.83303  0.026406137  0.026176988           10 
 1449000    0.6613736   -6.4029955    458.52966  0.026370466  0.026157533            8 
 1450000   0.67252695   -6.4114075    457.28636  0.026280825  0.026138012           15 
 1451000   0.67042454   -6.4099962    457.83168  0.026294032  0.026118478           22 
 1452000   0.66217684   -6.3687472    458.27288  0.026301244  0.026098992           20 
 1453000   0.67153526   -6.4155138    458.47061  0.026294483  0.026079524           15 
 1454000   0.66113823   -6.4068851    458.89994  0.026301005   0.02606003            9 
 1455000   0.67184539   -6.3935732    458.01088  0.026232009  0.026040524           19 
 1456000   0.64001243   -6.3826853    459.20796  0.026282507  0.026021082           41 
 1457000   0.68071748     -6.40465    458.07703  0.026199784  0.026001534           11 
 1458000   0.67105954   -6.4153066    457.63642  0.026156631  0.025981992           15 
 1459000   0.65354833   -6.4348661    457.96961  0.026157734  0.025962422           12 
 1460000   0.66873819   -6.4200349    458.08837  0.026146597  0.025942879           12 
 1461000   0.67576688   -6.4065996    457.75028  0.026109416  0.025923432           32 
 1462000   0.68179523   -6.4252298    457.90067   0.02610013  0.025903974           12 
 1463000   0.65070638    -6.386846    458.09595  0.026093413  0.025884456           13 
 1464000   0.66075134    -6.425473    458.76766  0.026113824  0.025864945           15 
 1465000    0.6599625    -6.417756    457.66771   0.02603343  0.025845481           11 
 1466000   0.67157809   -6.4016471    458.45213  0.026060262  0.025826055            9 
 1467000   0.65925802   -6.3841487     459.2116   0.02608564   0.02580665           25 
 1468000   0.68130184   -6.4369932    458.94522  0.026052749  0.025787186            6 
 1469000    0.6683653   -6.4185536    457.64818  0.025961435   0.02576777           22 
 1470000   0.65701009   -6.4198574    457.86115  0.025955847  0.025748322           24 
 1471000   0.67108598   -6.4172866    458.20519  0.025957693  0.025728945           27 
 1472000   0.67550429   -6.4138679    458.32618  0.025946908   0.02570951           30 
 1473000   0.67259703   -6.4194572    458.15288  0.025919489  0.025690144           17 
 1474000   0.67112353   -6.4005981     458.7345  0.025934786  0.025670784           30 
 1475000   0.66083525   -6.4094058    459.71435  0.025972562  0.025651414           13 
 1476000   0.66357099   -6.4597051    457.48612  0.025829162   0.02563206           22 
 1477000   0.66955668   -6.4318511    458.37055  0.025861575  0.025612575           26 
 1478000   0.66391323   -6.4538333    457.39948  0.025789326  0.025593027           14 
 1479000   0.66765968   -6.4143581    459.11511  0.025868555  0.025573637           10 
 1480000   0.65384974   -6.4195596     457.9337  0.025784555  0.025554216           14 
 1481000   0.64820099   -6.4399812     457.2243  0.025727228  0.025534795           11 
 1482000   0.66047272   -6.4250937    458.84193  0.025800828  0.025515392           23 
 1483000   0.65225668   -6.4451055    458.21634  0.025748277  0.025496028           23 
 1484000   0.65905826   -6.4313019    458.52662   0.02574835  0.025476681            9 
 1485000   0.66211572   -6.4246615    459.31386  0.025775188  0.025457345           11 
 1486000   0.65406467   -6.4259263    458.56923  0.025716085  0.025438029           11 
 1487000   0.66080029   -6.4393206    458.50623  0.025695261  0.025418756            7 
 1488000   0.66680157   -6.4230551    459.31674  0.025723384  0.025399523           11 
 1489000   0.65695015   -6.4346677    458.68844  0.025670945  0.025380343           20 
 1490000   0.67385551   -6.4480243     459.1117  0.025677388  0.025361102           17 
 1491000   0.66026555   -6.4460505    457.79707  0.025586691  0.025341842           16 
 1492000   0.64661501   -6.4295019    458.27567  0.025596273  0.025322691           13 
 1493000   0.66515962   -6.4550688    459.26362  0.025634272  0.025303497           17 
 1494000   0.67263934   -6.4222656    459.82669  0.025648521  0.025284465           11 
 1495000   0.65163362   -6.4344224    458.93928    0.0255819  0.025265435           25 
 1496000   0.66388858   -6.4522762    459.97727   0.02562262  0.025246443           24 
 1497000   0.65229939    -6.426133     458.8308  0.025541683  0.025227449           28 
 1498000   0.66006185   -6.4547924    459.24562  0.025547709  0.025208423           20 
 1499000   0.65363438   -6.4487323    459.22578  0.025529563  0.025189359           15 
 1500000   0.65288405   -6.4227378    460.10088   0.02556116  0.025170307           13 
 1501000   0.65767838   -6.4412316    459.53654  0.025512799  0.025151323           18 
 1502000    0.6543517   -6.4444157    459.12826  0.025473161  0.025132471           39 
 1503000   0.65835742   -6.4384744    458.49769  0.025421252  0.025113586           42 
 1504000   0.65274648   -6.4220713    459.16597  0.025441377  0.025094618           49 
 1505000   0.64537034   -6.4585887     460.2192   0.02548279  0.025075679           37 
 1506000   0.64836517   -6.4553848     459.0953   0.02540368  0.025056773            7 
 1507000   0.66511415   -6.4597855    459.23207  0.025394385  0.025037881           11 
 1508000   0.65929101   -6.4636337    460.28696   0.02543584  0.025018989           39 
 1509000   0.65309138   -6.4584237    460.19348  0.025413821   0.02500003            9 
 1510000   0.65068911   -6.4765104    459.23972  0.025344356  0.024981094           16 
 1511000   0.63741096   -6.4627124    458.16708  0.025268425  0.024962162            9 
 1512000   0.64340167   -6.4890535    457.86934  0.025235303  0.024943205           22 
 1513000   0.66883586   -6.4854974    458.52978     0.025255  0.024924172           27 
 1514000   0.65844247    -6.492333    458.46075  0.025234519  0.024905166           27 
 1515000   0.62194148   -6.4712891    458.87389  0.025240588  0.024886173           35 
 1516000    0.6457893   -6.4937634    458.46814  0.025201635  0.024867228           26 
 1517000    0.6452971   -6.4805432    459.29988  0.025230712  0.024848372           18 
 1518000   0.62600738   -6.4524397       459.52  0.025226175  0.024829529           21 
 1519000   0.64131703   -6.4663304    459.59569   0.02521372  0.024810631           27 
 1520000   0.64261639   -6.5009393    459.60466  0.025197624  0.024791811           39 
 1521000   0.63413725   -6.4997396    458.54223  0.025122849  0.024772978           18 
 1522000   0.63988394   -6.4633755    460.20142  0.025197187  0.024754178           57 
 1523000   0.64534783   -6.4882121    459.76302  0.025156654   0.02473542           19 
 1524000   0.65123098   -6.4949223     459.6889  0.025136095  0.024716711           33 
 1525000   0.63512196   -6.4773162    459.12691  0.025088902  0.024697916           27 
 1526000   0.64372225    -6.482396      460.327  0.025137997  0.024679091           69 
 1527000   0.64345553   -6.4824488    458.90193  0.025043764  0.024660391           32 
 1528000   0.65363972   -6.4941623     459.7975  0.025076216  0.024641678          103 
 1529000    0.6409923   -6.4838582    459.07872  0.025020641  0.024622894           25 
 1530000    0.6464666   -6.4789131    460.10282  0.025060066  0.024604162           22 
 1531000   0.64146288   -6.5145953    460.02794  0.025039622  0.024585472           36 
 1532000   0.64181268   -6.4943874    458.65135  0.024948398  0.024566721           22 
 1533000   0.62963287   -6.4713058    458.74062  0.024936976  0.024548019           29 
 1534000   0.65195987   -6.4941139    459.85546  0.024981283  0.024529312           26 
 1535000   0.64705783    -6.498898    459.47214  0.024944198  0.024510643           47 
 1536000   0.63862862    -6.472209    459.79187  0.024945305  0.024492063           24 
 1537000   0.63576757   -6.4995694     459.6812  0.024923075  0.024473436           26 
 1538000   0.63830969   -6.4857362    459.29275  0.024885823  0.024454836           14 
 1539000   0.63680739   -6.4699773    460.59986   0.02494043  0.024436375           32 
 1540000   0.62433187   -6.4625244    460.20702  0.024902978  0.024417941           55 
 1541000   0.63586746   -6.4764357    461.08324  0.024934201  0.024399485           36 
 1542000   0.64243122   -6.5005748    460.02032  0.024860588  0.024380979            8 
 1543000   0.64160454   -6.4949542    460.64948  0.024878455  0.024362485           18 
 1544000   0.65345842   -6.4843624    460.18502  0.024837275  0.024343964           14 
 1545000   0.63385074   -6.4855898    460.36924  0.024831135  0.024325462           13 
 1546000    0.6360981   -6.4839319    459.59643  0.024773417  0.024306956           16 
 1547000   0.62430851   -6.4923019    460.64088  0.024813665  0.024288521           25 
 1548000   0.63513027    -6.500012    459.42718  0.024732299  0.024270066           32 
 1549000   0.62944546   -6.5144692    459.91409  0.024742527  0.024251656           58 
 1550000   0.63611909   -6.5193467    458.77114  0.024665115  0.024233204           40 
 1551000   0.63306723   -6.5290793     459.4942  0.024688062  0.024214748           15 
 1552000   0.63908611   -6.4969532    459.05694  0.024648676  0.024196313           40 
 1553000   0.63109373   -6.5049015     459.0126  0.024630425  0.024177927           32 
 1554000   0.64292023   -6.4936305    459.94449  0.024664548  0.024159483           31 
 1555000   0.64265342   -6.5229844    460.28461  0.024666914  0.024141132           15 
 1556000   0.63391319   -6.4972559    459.69213   0.02461933  0.024122823           46 
 1557000    0.6426905   -6.4997166    459.32182  0.024583698  0.024104634           35 
 1558000   0.62670473   -6.4996477    460.13056  0.024611177  0.024086413           13 
 1559000   0.64272178   -6.5263077    459.44627  0.024558813   0.02406814           20 
 1560000   0.63429844   -6.5088629    459.90833  0.024567753  0.024049884           10 
 1561000     0.630862   -6.5157837    460.60384  0.024589143  0.024031613           11 
 1562000    0.6384161    -6.508349    460.94839  0.024591784   0.02401338           16 
 1563000   0.64928417   -6.5308509    460.49057   0.02455164  0.023995233           30 
 1564000   0.63829874   -6.5166218    459.99265  0.024509412  0.023976982           42 
 1565000   0.62964178   -6.5311813    460.20369  0.024504989  0.023958701           59 
 1566000   0.63084232   -6.4795182    461.31211  0.024548324  0.023940454           29 
 1567000   0.62244583   -6.5264839    460.01818  0.024463847  0.023922291           21 
 1568000   0.63145475   -6.5185045    459.42447  0.024416692  0.023904087           18 
 1569000   0.62585955   -6.5169084    459.38789  0.024399187  0.023885932           21 
 1570000   0.61713768   -6.5383095    460.19036   0.02442624   0.02386776           58 
 1571000   0.61517791   -6.5338779    459.24771  0.024360689   0.02384966           36 
 1572000   0.62811757    -6.535217    460.14985  0.024393016  0.023831524           41 
 1573000   0.62464759   -6.5480813    459.86468  0.024362401  0.023813398           54 
 1574000   0.61801194   -6.5410645    460.44105  0.024377438  0.023795323           14 
 1575000   0.63299031   -6.5336345     459.7811  0.024327042  0.023777275           35 
 1576000   0.62251721   -6.5139516    461.20103  0.024386687  0.023759251           21 
 1577000   0.62361733   -6.5447057    458.97383  0.024253531  0.023741191           23 
 1578000   0.62139137   -6.5495393    460.45284  0.024316267  0.023723111           63 
 1579000   0.62206947   -6.5250429    459.81265  0.024267081  0.023705119           19 
 1580000   0.61958261   -6.5402756    461.38834  0.024334828  0.023687141           38 
 1581000   0.61840232   -6.5319591    460.39635  0.024267149  0.023669194           28 
 1582000   0.62045156   -6.5189944    460.15049  0.024238859  0.023651241           37 
 1583000   0.62489411   -6.5366189    459.52663  0.024190705  0.023633331           46 
 1584000   0.61415838   -6.5481424    460.11648  0.024206465  0.023615379           20 
 1585000   0.62493474   -6.5368924    459.97685  0.024183851  0.023597456           26 
 1586000   0.61844917   -6.5450764    459.74429  0.024156384  0.023579504           40 
 1587000   0.60999507   -6.5162933    459.77866  0.024142967  0.023561546           46 
 1588000   0.62177268   -6.5223322    460.31193  0.024155748  0.023543621           49 
 1589000   0.62056687   -6.5311795    461.06977   0.02418029  0.023525734           46 
 1590000   0.61117792   -6.5487119    460.14218  0.024116467  0.023507794           42 
 1591000   0.61861227   -6.5286408    460.75001  0.024133145  0.023489918           33 
 1592000   0.63397147   -6.5485327     460.4045  0.024099901  0.023472103           60 
 1593000   0.62984949   -6.5378256    460.11278  0.024069511   0.02345423           72 
 1594000   0.61174273   -6.5502685    458.91498  0.023991791  0.023436332           46 
 1595000   0.60001859   -6.5225238    460.73801  0.024071996  0.023418452           38 
 1596000   0.61907321   -6.5509394    460.66797  0.024053257  0.023400604           43 
 1597000    0.6097463   -6.5616768     459.7142  0.023988426  0.023382733           42 
 1598000   0.60539465   -6.5386908     460.4889  0.024013814  0.023364865           54 
 1599000   0.60360073   -6.5751588    458.84341   0.02391304   0.02334699           39 
 1600000   0.61386379   -6.5438922    459.43015  0.023928654  0.023329147           13 
 1601000   0.60820917   -6.5786028    460.02118  0.023944471  0.023311268           26 
 1602000    0.6177376   -6.5518084    460.13084  0.023935229  0.023293386           29 
 1603000   0.61780539   -6.5823049    460.74779   0.02395237  0.023275482           55 
 1604000   0.60972514   -6.5703265    459.44719  0.023869867  0.023257687           47 
 1605000   0.60174722   -6.5804073    460.45693  0.023907421  0.023239878           39 
 1606000   0.61119593   -6.5576204    460.60172  0.023900048  0.023222105           41 
 1607000   0.60541311   -6.5803761    459.41559  0.023823667  0.023204312           66 
 1608000   0.61374093   -6.5542189    460.09895  0.023844266  0.023186531           34 
 1609000   0.61102644   -6.5701741    460.43544  0.023846874  0.023168846           60 
 1610000   0.61771403   -6.5649358    459.86818  0.023802701  0.023151205           59 
 1611000   0.61540867   -6.5711449    460.77041  0.023834596  0.023133531           45 
 1612000   0.60842336   -6.5429104    460.25097  0.023792957  0.023115886           45 
 1613000   0.60277917   -6.5520002    460.50374  0.023791266  0.023098273           38 
 1614000   0.60825893   -6.5739648    459.56867  0.023728246  0.023080593           66 
 1615000   0.61203133   -6.5856414    459.48149  0.023709055  0.023062946           21 
 1616000   0.59808431   -6.5736148    459.27477  0.023683723  0.023045269           17 
 1617000   0.61008123   -6.6080629    459.06124  0.023658072    0.0230276           15 
 1618000   0.60160698   -6.5522537    460.50748  0.023717938  0.023010008           24 
 1619000   0.61262877    -6.572523    459.50977  0.023651934  0.022992395           15 
 1620000   0.59973875   -6.5715215    460.51205  0.023688892  0.022974794           16 
 1621000   0.60166939   -6.5794407    459.85936  0.023640724  0.022957223           19 
 1622000    0.6136591   -6.5857155    460.34541  0.023651121  0.022939649           22 
 1623000   0.59900489   -6.5686833    460.76189  0.023657932  0.022922076           20 
 1624000   0.60188598   -6.6072577    459.01252  0.023553598  0.022904578           40 
 1625000   0.59488986    -6.589851    459.31777  0.023554757  0.022887061           16 
 1626000   0.60865688   -6.5948381    459.88655  0.023569421  0.022869576           26 
 1627000    0.5940713   -6.5840998    458.58116  0.023488074  0.022852086           16 
 1628000   0.60415531    -6.566742    460.23819  0.023558466  0.022834653           20 
 1629000    0.6132415   -6.5689668    461.21272  0.023593857   0.02281729           30 
 1630000   0.59529514   -6.5642053    459.24557  0.023478813  0.022799882           33 
 1631000   0.60566418   -6.6003554    459.92163  0.023498959   0.02278243           62 
 1632000   0.61152997   -6.5806107    459.12701  0.023443986  0.022764955           52 
 1633000   0.60239969   -6.5832225    459.97741  0.023473025  0.022747505           57 
 1634000   0.60338305   -6.5792126    460.64051  0.023492478  0.022730072           32 
 1635000   0.59874075   -6.5905329    459.49004  0.023419472  0.022712662           26 
 1636000   0.60197311    -6.606406    458.82411  0.023371236  0.022695199           27 
 1637000   0.60925818   -6.6014349     460.1196  0.023422908  0.022677743           28 
 1638000   0.61642626   -6.5781779    459.66941  0.023385704  0.022660343           33 
 1639000   0.60468564   -6.5979329    459.58512   0.02336715  0.022642915           30 
 1640000   0.60023321   -6.5957623    459.88539   0.02336816  0.022625518           44 
 1641000   0.58436406   -6.5731792    459.99681  0.023359578  0.022608132           44 
 1642000   0.60871304   -6.5982353    458.36441  0.023262506  0.022590726           46 
 1643000   0.61020531   -6.6036921    459.36613  0.023299154  0.022573322           41 
 1644000   0.59365636   -6.6110444     459.3559  0.023284464  0.022555929           27 
 1645000   0.59631948   -6.6000731    459.01188  0.023252882  0.022538549           25 
 1646000   0.60510039   -6.6061504     460.2248  0.023300162  0.022521217           47 
 1647000   0.59194539   -6.5817985    459.21615   0.02323498  0.022503858           33 
 1648000   0.60252701   -6.6096509     459.2728  0.023223746  0.022486487           59 
 1649000   0.59365765   -6.5892547    460.24314  0.023258699  0.022469182           47 
 1650000   0.58840811   -6.6192029    459.42289  0.023203176  0.022451937           37 
 1651000   0.58457231   -6.6137886    458.98321   0.02316693  0.022434671           24 
 1652000   0.58869323   -6.6169349    459.56835  0.023182423  0.022417374           65 
 1653000    0.5997833   -6.6051302    460.06846  0.023193611  0.022400109          133 
 1654000   0.58674057   -6.6210125    459.92533  0.023172377  0.022382872           70 
 1655000   0.58689479   -6.5983139    459.45634   0.02313476  0.022365635           60 
 1656000   0.59818195   -6.6030827    459.81896  0.023139038   0.02234835           32 
 1657000   0.59343202   -6.6102176    458.83693  0.023075685  0.022331138           20 
 1658000   0.59039252   -6.6185913     459.4555  0.023092858  0.022313934           31 
 1659000    0.5964211    -6.628633    459.18497  0.023065349  0.022296751           54 
 1660000     0.594733   -6.5869979    458.66993  0.023025599  0.022279517           53 
 1661000   0.59914827   -6.6059768    458.56904  0.023006675  0.022262342           38 
 1662000   0.58137522    -6.604914     459.2946  0.023029212  0.022245186           35 
 1663000   0.58456885   -6.6306461    458.41646   0.02297136  0.022227965           44 
 1664000   0.58432764   -6.6136376    459.94274  0.023033991  0.022210763           76 
 1665000   0.57139691    -6.611086    459.10218  0.022978087  0.022193595           41 
 1666000   0.59911999   -6.6170471    459.63187   0.02299079  0.022176457           62 
 1667000   0.58444844    -6.637621    458.99332  0.022945077  0.022159262           52 
 1668000   0.59201352   -6.5865131    459.82103  0.022972673   0.02214217           64 
 1669000   0.58747015    -6.627274    459.78663  0.022957192  0.022125105           58 
 1670000   0.57920487   -6.6246618    458.94409  0.022901402  0.022108045           28 
 1671000   0.58488197   -6.6141717    459.32884  0.022906884  0.022090953           71 
 1672000    0.5819798   -6.6189079    459.36141  0.022894807  0.022073954           45 
 1673000   0.58243696   -6.6257779    459.02238  0.022864235  0.022056879           75 
 1674000   0.57258134    -6.652434    458.54353  0.022826739  0.022039821           83 
 1675000   0.59225733   -6.6349791    458.35948  0.022803954  0.022022798           77 
 1676000   0.58009656   -6.6350358    458.93608  0.022819018  0.022005822           70 
 1677000   0.58092565   -6.6189767      459.347   0.02282583   0.02198885           43 
 1678000   0.59518987   -6.6393104    459.15734  0.022802808  0.021971894           40 
 1679000   0.58844814   -6.6221706    459.23298  0.022792981     0.021955           46 
 1680000   0.57788536   -6.6245515    459.83189  0.022809121  0.021938107           66 
 1681000   0.58302657   -6.6365982    458.97557  0.022753102  0.021921173           74 
 1682000   0.56906001   -6.6431438    459.14446  0.022747942  0.021904236          112 
 1683000   0.57020847   -6.6376373    458.73263  0.022714034  0.021887319           87 
 1684000   0.57434316   -6.6355045    459.14706  0.022721054  0.021870403           53 
 1685000   0.57228868    -6.646288    458.63007  0.022682001    0.0218535          140 
 1686000   0.58044634   -6.6471796    458.96086  0.022684898   0.02183658          127 
 1687000   0.58174409   -6.6545605    458.42528  0.022644995  0.021819675           95 
 1688000   0.57815314   -6.6664889    458.61035  0.022640716  0.021802726          119 
 1689000    0.5783724   -6.6515461    458.81331  0.022637325  0.021785799          130 
 1690000   0.58140832     -6.65453    458.77163  0.022621875  0.021768914          107 
 1691000    0.5730315   -6.6720946    458.96612  0.022618082  0.021752082          174 
 1692000   0.57728546   -6.6376396    459.82354  0.022646943  0.021735249          123 
 1693000   0.58177075     -6.64746    460.21338  0.022652756   0.02171846          175 
 1694000   0.57440165   -6.6546367    459.00992  0.022580181   0.02170167          131 
 1695000   0.59160159   -6.6704106    457.63071  0.022499051  0.021684864           96 
 1696000   0.57287692   -6.6640489    458.36114  0.022521676  0.021668056           96 
 1697000   0.57762079   -6.6681342    458.10933  0.022496038  0.021651187          108 
 1698000   0.57911041   -6.6582145     458.6201  0.022507857  0.021634351          185 
 1699000   0.57299229   -6.6783056    458.01609  0.022464984  0.021617483          264 
 1700000    0.5667132   -6.6701885    458.41996  0.022471567  0.021600672          264 
 1701000   0.57702688    -6.670416    457.95008  0.022435336  0.021583896          235 
 1702000   0.58887003   -6.6765118    458.59557  0.022453759  0.021567104          206 
 1703000   0.57402865   -6.6503319    457.95584   0.02240927  0.021550338          187 
 1704000   0.57207068   -6.6869969    458.06317  0.022401368   0.02153355          201 
 1705000   0.58069687   -6.6771411    458.54299  0.022411681  0.021516748          179 
 1706000   0.57200732   -6.6922727    458.07643  0.022375754  0.021499966          140 
 1707000   0.57614838   -6.6895096    458.52445  0.022384517  0.021483176          138 
 1708000   0.57029121    -6.682177    458.09696  0.022350554  0.021466425           98 
 1709000   0.57027188   -6.6813481    457.68524    0.0223174  0.021449683          118 
 1710000   0.56153844   -6.6898986    457.15935  0.022278721   0.02143297           87 
 1711000   0.58792862   -6.6748064    458.80961  0.022346075  0.021416297           47 
 1712000   0.57831152   -6.6543454    458.01381  0.022294286  0.021399649          148 
 1713000   0.57760466   -6.6775174     457.9769  0.022279476  0.021382991           87 
 1714000   0.57443677   -6.6869694    458.20819  0.022277722  0.021366357          111 
 1715000    0.5628632   -6.6903056    457.33072  0.022222095  0.021349698          117 
 1716000   0.57971166   -6.6843491     457.2807  0.022206716  0.021333019          200 
 1717000   0.58353645   -6.7075596    457.60765  0.022209651  0.021316345          188 
 1718000   0.57053909   -6.6770489    457.28659   0.02218115  0.021299707          108 
 1719000   0.57373129   -6.6888042    458.54436  0.022229221  0.021283123          219 
 1720000   0.56131815   -6.6619763    458.29612  0.022204269  0.021266532          180 
 1721000   0.56027664   -6.6976559    457.91522  0.022172924  0.021249938          197 
 1722000   0.56965403   -6.6911269    457.62792  0.022146144  0.021233352          297 
 1723000    0.5562716   -6.6723421    457.53739  0.022128912  0.021216754          171 
 1724000   0.56667181     -6.70921    458.90747  0.022182302   0.02120017          278 
 1725000   0.55214219    -6.703273    457.80923  0.022116388  0.021183581          270 
 1726000   0.55838469   -6.6883967    458.46624  0.022135295  0.021166991          508 
 1727000    0.5654199    -6.702473    457.04875   0.02205408   0.02115043          249 
 1728000    0.5594827   -6.7043765    456.69317  0.022024169  0.021133853          237 
 1729000    0.5660127   -6.7083879    457.50161  0.022050396  0.021117287          160 
 1730000   0.55299463   -6.6959114    457.64738  0.022044672  0.021100787          420 
 1731000   0.55850217   -6.7019586    457.61408  0.022030333  0.021084271          304 
 1732000   0.55211703   -6.7118917    457.61833  0.022017818  0.021067748          203 
 1733000   0.55818235   -6.7096937    457.41499  0.021995335   0.02105121          151 
 1734000   0.56617334   -6.6917342    457.19738  0.021972193  0.021034718          233 
 1735000   0.54871314   -6.7025911     456.1153  0.021907555  0.021018237          252 
 1736000   0.58001149   -6.7306653    456.61225  0.021918791  0.021001771          237 
 1737000   0.56169185   -6.7010463    457.93428  0.021969597  0.020985356          345 
 1738000   0.55386094   -6.7088664    456.99153  0.021911753  0.020968963          294 
 1739000   0.54960225   -6.7089683    456.80312  0.021890124  0.020952537          513 
 1740000   0.56633806   -6.7170596    457.30174  0.021901424   0.02093612          370 
 1741000   0.54898964   -6.6984859    458.55366  0.021948768  0.020919733          433 
 1742000   0.54267277   -6.7149865    456.34605  0.021830561  0.020903343          472 
 1743000   0.55688588   -6.7083424     457.5216   0.02187424  0.020886926          413 
 1744000   0.56276895   -6.7198213    457.55608  0.021863345  0.020870584          280 
 1745000   0.54850228   -6.7173844    457.01737  0.021825089    0.0208542          302 
 1746000   0.56361755   -6.7297989    458.02485  0.021860674  0.020837832          480 
 1747000    0.5502494   -6.7212409    457.28289  0.021812769  0.020821527          283 
 1748000   0.54718952   -6.7127812    457.66194  0.021818361  0.020805212          397 
 1749000   0.55403657   -6.7213551    457.17071  0.021782481  0.020788946          356 
 1750000   0.56371162   -6.7205192    457.25909  0.021774242  0.020772641          452 
 1751000   0.56023738   -6.7031318    457.23472  0.021760647  0.020756364          410 
 1752000   0.55842723   -6.7348614    455.94268  0.021686771  0.020740091          369 
 1753000   0.55797783   -6.7349807    457.56147  0.021751354  0.020723805          495 
 1754000   0.55286762   -6.7201252    457.18219  0.021720933  0.020707528          492 
 1755000   0.56099415   -6.7300777    457.09098  0.021704225   0.02069123          270 
 1756000    0.5459462   -6.7312658    456.28705  0.021653714  0.020675002          440 
 1757000   0.54987561   -6.7293548    456.86312  0.021668712   0.02065873          502 
 1758000   0.55747599   -6.7460135    457.19164  0.021671959  0.020642491          507 
 1759000   0.54799871   -6.7285917    456.47681  0.021625773  0.020626243          446 
 1760000   0.54681219   -6.7470265    456.60534  0.021619571  0.020610035          331 
 1761000   0.53769836   -6.7562603    456.37057  0.021596185  0.020593794          305 
 1762000   0.54761498   -6.7454675    457.22391  0.021624286  0.020577564          468 
 1763000   0.54556378   -6.7516029    456.48253  0.021576977  0.020561359          628 
 1764000   0.54421114   -6.7321176    456.89012     0.021584   0.02054516          449 
 1765000   0.54292359   -6.7486855    456.51689   0.02155415  0.020528986          612 
 1766000   0.55134596   -6.7427591     456.7552   0.02155319  0.020512809          605 
 1767000   0.54673613   -6.7660128    456.60305  0.021533817  0.020496652          443 
 1768000   0.55908992   -6.7540067    456.46468  0.021515115  0.020480517          471 
 1769000   0.54322369    -6.744356    456.47375   0.02150338  0.020464411          328 
 1770000    0.5499319   -6.7630708    456.01409   0.02146959  0.020448315          489 
 1771000   0.55471137   -6.7566662    456.62085  0.021486018  0.020432211          618 
 1772000   0.54171715   -6.7572227    456.86884  0.021485555   0.02041614          489 
 1773000   0.54533148   -6.7438047    456.58335  0.021460018  0.020400052          579 
 1774000    0.5444247   -6.7307221    456.29107  0.021434192  0.020384028          440 
 1775000   0.55909469   -6.7423935    457.32585  0.021470697  0.020368038          456 
 1776000   0.55156613   -6.7445524    456.40712  0.021415499   0.02035207          393 
 1777000   0.54126836   -6.7547469    457.64137  0.021461329   0.02033609          606 
 1778000   0.53626711   -6.7495072     456.0834  0.021376237  0.020320132          327 
 1779000   0.54775249   -6.7591169    457.21573  0.021417263  0.020304194          441 
 1780000   0.54732438   -6.7543646    456.29126   0.02136195  0.020288258          491 
 1781000   0.54207492   -6.7688053    457.16829  0.021390993  0.020272321          403 
 1782000   0.54743582   -6.7507843    456.37788  0.021342026  0.020256398          503 
 1783000   0.54633492   -6.7523765    456.31546  0.021327139  0.020240479          412 
 1784000   0.53183733   -6.7464952    457.47088  0.021369156  0.020224618          271 
 1785000   0.54132844   -6.7705525    456.87005  0.021329134  0.020208783          394 
 1786000   0.54135756   -6.7661554    456.18329  0.021285148  0.020192908          403 
 1787000   0.54151711   -6.7663133    456.17343  0.021272777  0.020177049          354 
 1788000   0.53855166   -6.7733061    456.55171   0.02127851  0.020161225          271 
 1789000   0.52087602   -6.7670672    456.44081   0.02126145  0.020145413          225 
 1790000   0.53692232   -6.7760932    456.23172  0.021239838  0.020129645          430 
 1791000   0.53036134   -6.7581883    456.08376  0.021221094  0.020113862          472 
 1792000   0.54864834    -6.782799    456.20985  0.021215116  0.020098064          484 
 1793000   0.54114453   -6.7742572    456.12114  0.021199161  0.020082289          476 
 1794000   0.53140852   -6.7749085    456.80703  0.021219204  0.020066536          355 
 1795000   0.53007799    -6.771991    457.61103  0.021244709  0.020050799          392 
 1796000   0.53086906   -6.7918487    456.21442  0.021168078  0.020035079          563 
 1797000   0.53379398   -6.7792989    456.38659  0.021164283   0.02001933          559 
 1798000   0.52463529   -6.7788538    455.40802  0.021107157  0.020003609          354 
 1799000   0.53225006   -6.7619925     456.3645   0.02113973  0.019987929          327 
 1800000   0.53386466   -6.7795776    457.25374  0.021169155  0.019972237          518 
 1801000   0.51875902   -6.7576298    456.07664  0.021102935  0.019956561          465 
 1802000   0.53415065    -6.769982    456.32839  0.021102867  0.019940897          614 
 1803000   0.53292276   -6.7466794    456.76129  0.021111171  0.019925258          617 
 1804000   0.54081813   -6.7799902    455.93479  0.021061289  0.019909635          524 
 1805000   0.53222693   -6.7827101    456.69238  0.021084598   0.01989404          545 
 1806000   0.53819205    -6.761748    456.11698  0.021046372  0.019878458          348 
 1807000   0.54796467   -6.7745048    455.91595  0.021025454   0.01986289          363 
 1808000   0.53513929   -6.7900727    455.46855  0.020993204  0.019847332          560 
 1809000   0.52702051   -6.7682501    456.56932  0.021032307  0.019831778          412 
 1810000    0.5328466   -6.7743231    456.42386   0.02101399  0.019816226          559 
 1811000   0.53133611   -6.7778575    455.56357    0.0209628  0.019800697          255 
 1812000   0.52558413   -6.7752623    455.84874  0.020964346   0.01978518          514 
 1813000    0.5310186   -6.7642823    456.53791   0.02098446  0.019769706          299 
 1814000   0.52555128   -6.7875309    455.52632  0.020926421  0.019754256          276 
 1815000   0.52583094   -6.7625892    455.75204  0.020925254  0.019738834          599 
 1816000   0.53129246   -6.7560086    456.88393  0.020965672  0.019723452          415 
 1817000   0.51685204   -6.7620237     457.2247  0.020969762  0.019708077          246 
 1818000   0.52941044   -6.7838322    456.99703  0.020947792  0.019692711          519 
 1819000   0.52794856   -6.7996253    455.46764   0.02086621  0.019677348          255 
 1820000     0.522312   -6.7716181    456.34834  0.020895071  0.019661966          379 
 1821000   0.52521469    -6.779657    455.87755  0.020862052  0.019646622          437 
 1822000   0.52623637   -6.7742499    455.88229  0.020850818  0.019631307          377 
 1823000   0.51981369    -6.792172    455.55488  0.020824414  0.019615968          265 
 1824000   0.53157072   -6.7741808    456.35968  0.020849766  0.019600612          517 
 1825000   0.52540986   -6.7835609    456.18757  0.020830483  0.019585323          510 
 1826000   0.53107659   -6.7782659    456.45518  0.020831288  0.019570038          535 
 1827000   0.52011331   -6.8024833    455.68871  0.020784926  0.019554748          218 
 1828000   0.53212205   -6.7712774    456.88361  0.020828027  0.019539476          287 
 1829000    0.5189768   -6.7837489    455.77302  0.020766039  0.019524229          394 
 1830000   0.51929297   -6.7790435    456.86446  0.020804392  0.019508979          278 
 1831000   0.52115058   -6.7982792    456.04816  0.020755878  0.019493751          236 
 1832000   0.51474131   -6.7919445    455.68433  0.020727999  0.019478529          399 
 1833000   0.52290474   -6.7889019    455.61517  0.020713547  0.019463317          451 
 1834000    0.5208816   -6.8005903     455.5914  0.020701173  0.019448119          210 
 1835000   0.52184359   -6.7973895    455.15404  0.020670029   0.01943291          196 
 1836000   0.52077359   -6.8132119    456.84718   0.02073562  0.019417723          191 
 1837000   0.52950518   -6.7994458     456.0784  0.020689457   0.01940255          291 
 1838000   0.51581379   -6.7995069    454.88042  0.020623885  0.019387398          433 
 1839000   0.51513562   -6.8072841    455.52777  0.020642005  0.019372224          353 
 1840000   0.51878019   -6.8068189    456.33763  0.020667465  0.019357081          367 
 1841000    0.5185918   -6.8074316    456.13947  0.020647269  0.019341955          452 
 1842000   0.52125738   -6.8005298    455.65175  0.020613995  0.019326832          325 
 1843000   0.52772242   -6.8198343    455.70608  0.020605267  0.019311705          590 
 1844000   0.51689054   -6.8255688    456.99013  0.020652121  0.019296605          212 
 1845000   0.52472576   -6.7893199    455.83152  0.020588596  0.019281527          387 
 1846000   0.52600821   -6.8173582    455.52881  0.020563778  0.019266456          434 
 1847000   0.52404191   -6.8170443    455.53682  0.020553006  0.019251382          412 
 1848000   0.52020142   -6.8168225    456.20394  0.020571967  0.019236326          506 
 1849000   0.51719272   -6.8253105    455.75641  0.020540671  0.019221281          497 
 1850000   0.50278411   -6.8026393    455.02939  0.020496819  0.019206252          440 
 1851000   0.50877985   -6.8270313    455.12756  0.020490166  0.019191217          388 
 1852000   0.50599375   -6.8314659    455.15959  0.020480543   0.01917619          392 
 1853000   0.51766127   -6.7965155    455.16932  0.020469928  0.019161186          211 
 1854000   0.52698635   -6.8167247    454.66787  0.020436348  0.019146186          600 
 1855000   0.50630514   -6.8294537    455.71257  0.020472263  0.019131196          419 
 1856000   0.51896043   -6.8363872    455.42371  0.020448263  0.019116207          525 
 1857000   0.51550454    -6.834729    455.11336  0.020423324  0.019101246          603 
 1858000   0.50713986   -6.8174155     455.3477  0.020422842  0.019086304          514 
 1859000   0.51129088   -6.8002906    455.61287  0.020423744  0.019071375          299 
 1860000   0.50518735   -6.8172647    455.21819   0.02039508  0.019056461          577 
 1861000   0.50895962   -6.8197123    455.88908  0.020414163  0.019041554          430 
 1862000   0.50585395   -6.8165588    455.04224  0.020365299  0.019026675          428 
 1863000   0.52224364   -6.8349781    455.50526  0.020375079  0.019011811          357 
 1864000   0.50789264   -6.8291188    455.00561   0.02034181  0.018996928          603 
 1865000   0.51796353   -6.8466873    455.02685  0.020331852  0.018982074          554 
 1866000    0.5066095   -6.8269351    455.86777   0.02035851  0.018967229          539 
 1867000   0.52265966    -6.835249    455.14275  0.020315245  0.018952405          469 
 1868000   0.50590975   -6.8081369    454.89145  0.020293159  0.018937593          570 
 1869000   0.50840202   -6.8173895    454.37811  0.020259413  0.018922785          469 
 1870000   0.50123366   -6.8122168    455.45398  0.020296523  0.018907988          324 
 1871000   0.52192219   -6.8189149    455.14782  0.020272039  0.018893207          442 
 1872000   0.51286656   -6.8446574    454.92999  0.020251513  0.018878473          428 
 1873000   0.50755782   -6.8416051     454.5647  0.020224448  0.018863717          594 
 1874000   0.51499842   -6.8361686    454.62984  0.020216553  0.018848972          224 
 1875000   0.50630234   -6.8403289    455.47054  0.020243135  0.018834229          495 
 1876000   0.50603838   -6.8357762    455.50281  0.020233778  0.018819494          407 
 1877000   0.49915912   -6.8246088    455.39216  0.020218086  0.018804756          461 
 1878000   0.50191316    -6.836711    454.81194  0.020181574  0.018790056          522 
 1879000   0.50166525   -6.8246261    454.69489  0.020165642   0.01877535          454 
 1880000    0.4993796   -6.8227869    455.24472  0.020179287   0.01876068          454 
 1881000    0.5024082   -6.8331036    455.05868  0.020160317  0.018746018          485 
 1882000   0.50548647   -6.8346861    454.75068  0.020135967  0.018731359          541 
 1883000   0.51004442   -6.8491865    455.15373  0.020143111  0.018716698          300 
 1884000   0.48723479    -6.844863     455.9151  0.020166096   0.01870207          575 
 1885000   0.50134622   -6.8260651    454.35478  0.020086418  0.018687449          564 
 1886000   0.50634593   -6.8434793    454.53424  0.020083697  0.018672838          628 
 1887000   0.48803754   -6.8359246     455.0142   0.02009425  0.018658224          482 
 1888000    0.5043788   -6.8371816    454.87053  0.020077266  0.018643626          401 
 1889000   0.49526359   -6.8316988    455.34318  0.020087488  0.018629028          501 
 1890000   0.49916108   -6.8307159    454.50467  0.020039889  0.018614461          461 
 1891000   0.50007856   -6.8576143    454.70154  0.020037967  0.018599892          627 
 1892000   0.49777223   -6.8375288     454.9797  0.020039627  0.018585365          619 
 1893000   0.49474471   -6.8639944    453.52523  0.019965013  0.018570836          516 
 1894000   0.49939669   -6.8467323    454.53698  0.019998987  0.018556322          568 
 1895000   0.49567082   -6.8515045    454.49451  0.019986566  0.018541801          338 
 1896000   0.50822437    -6.849188    454.26745  0.019966045  0.018527298          552 
 1897000   0.49668162   -6.8334475    454.07758  0.019947179  0.018512802          397 
 1898000   0.49291813   -6.8646559    454.52118  0.019956146  0.018498336          353 
 1899000   0.49815526     -6.85681    454.42536  0.019941432  0.018483877          316 
 1900000   0.49173338   -6.8628939    454.06146  0.019914976  0.018469409          601 
 1901000   0.50058757   -6.8652928    454.27989  0.019914075  0.018454978          506 
 1902000   0.48627053   -6.8484175    454.61358  0.019918226  0.018440565          290 
 1903000   0.49197757    -6.841963    454.55512  0.019905199  0.018426156          399 
 1904000   0.49549999   -6.8441482    455.15114  0.019920831  0.018411764          404 
 1905000   0.49720646   -6.8583804    454.28408  0.019872444  0.018397383          525 
 1906000   0.47973444   -6.8684864     454.3372  0.019864341  0.018382996          447 
 1907000   0.48208968   -6.8677141    453.50312  0.019817476  0.018368625          515 
 1908000   0.47914974   -6.8563901    453.58029   0.01981046  0.018354257          463 
 1909000   0.48933234   -6.8534947    454.08557  0.019822139  0.018339901          534 
 1910000   0.48439626   -6.8694958    454.01251  0.019808574  0.018325572          628 
 1911000   0.49491916   -6.8585426    455.08797  0.019845106  0.018311241          524 
 1912000   0.48746391   -6.8624798    454.09651  0.019791515  0.018296933          370 
 1913000    0.4858757   -6.8764341    453.78698  0.019767685   0.01828261          520 
 1914000   0.49958542   -6.8798769    454.08402   0.01977029  0.018268331          236 
 1915000   0.48448327   -6.8540755    454.16358  0.019763428  0.018254062          491 
 1916000   0.48212758   -6.8636849    453.69294  0.019732643  0.018239797          295 
 1917000   0.48758237    -6.870126    454.80325  0.019770616   0.01822556          632 
 1918000   0.48299197   -6.8587961    454.75379  0.019758159  0.018211358          573 
 1919000   0.48881571   -6.8643262    454.04168  0.019716939  0.018197139          552 
 1920000   0.48695005   -6.8822027    453.82212  0.019697141  0.018182916          538 
 1921000   0.48925008   -6.8708607    453.55589  0.019675338  0.018168715          368 
 1922000    0.4839811   -6.8859177    453.33526  0.019655535  0.018154523          504 
 1923000   0.47436714   -6.8673173    454.05625  0.019676558  0.018140331          303 
 1924000   0.48654988   -6.8573475    453.98193  0.019663112  0.018126161          400 
 1925000    0.4820239    -6.883631    453.84649  0.019647034   0.01811203          467 
 1926000    0.4795222   -6.8863661    453.86654  0.019637701  0.018097883          432 
 1927000   0.49186717   -6.8703606    454.28113  0.019645439  0.018083762          509 
 1928000   0.49614074   -6.8743163    452.78716  0.019570676  0.018069645          547 
 1929000   0.47605813   -6.8718563    454.74387  0.019645061  0.018055544          283 
 1930000   0.49187324   -6.8737595    454.53802  0.019625994  0.018041451          520 
 1931000   0.48003929   -6.8877425    453.47167  0.019569811  0.018027367          310 
 1932000   0.48213739   -6.8837737    453.56155  0.019563559  0.018013296          532 
 1933000   0.47346615    -6.883967    453.32523   0.01954325  0.017999232          507 
 1934000   0.48579777   -6.8705311    453.60535  0.019545215  0.017985188          447 
 1935000   0.47306939   -6.8817545    453.67426  0.019538082  0.017971165          498 
 1936000   0.48073643   -6.8780687    453.45014  0.019518343  0.017957147          436 
 1937000   0.47613468   -6.8973321    453.16847  0.019496148  0.017943148          297 
 1938000   0.47649482   -6.8849405    453.82863  0.019514475  0.017929137          392 
 1939000   0.47722078   -6.8745063    453.98131  0.019510972  0.017915174          288 
 1940000   0.47424351     -6.88454     453.4822  0.019479476  0.017901195          295 
 1941000   0.47247972   -6.8878519    453.72625  0.019479918  0.017887244          221 
 1942000   0.48344192   -6.8849594    453.42468  0.019456946  0.017873302          259 
 1943000   0.47349875   -6.8823302     452.8414  0.019421916  0.017859367          565 
 1944000   0.47548996    -6.886537    453.28941  0.019431131  0.017845452          224 
 1945000   0.47262495   -6.8869355    453.90037  0.019447317  0.017831553          279 
 1946000   0.48489288   -6.8799321    453.45329  0.019418178  0.017817664          426 
 1947000    0.4866433   -6.8872376    453.76792  0.019421671  0.017803784          303 
 1948000   0.46497168   -6.8926726    454.07964  0.019425036  0.017789928          242 
 1949000   0.46808196   -6.8988458    452.84269  0.019362181  0.017776065          523 
 1950000   0.47676094   -6.8843746    453.45728  0.019378516  0.017762229          448 
 1951000   0.47681994   -6.8906421    453.84362  0.019385086  0.017748402          498 
 1952000   0.46414897   -6.8915905    453.77036  0.019372027  0.017734596          415 
 1953000   0.46234255   -6.8957694    452.78151  0.019319914  0.017720788          438 
 1954000     0.457386   -6.9076787    453.39959  0.019336386  0.017706985          507 
 1955000   0.46543569   -6.8994148    453.35604   0.01932464  0.017693196          269 
 1956000   0.47806132   -6.8978135    454.09028  0.019346041  0.017679435          518 
 1957000   0.46738567   -6.9022798    452.65194  0.019274908  0.017665683          552 
 1958000     0.481575   -6.9047443    453.36662  0.019295481  0.017651958          424 
 1959000   0.45911995   -6.8915911    452.70882  0.019257649  0.017638226          448 
 1960000   0.47259363   -6.8995913    453.86746  0.019297086  0.017624521          561 
 1961000   0.48403519   -6.9019247    453.23944  0.019260558  0.017610816          323 
 1962000   0.46156795   -6.8962876    453.94135  0.019280554  0.017597124          401 
 1963000   0.46695106   -6.8976355    453.19981  0.019239252  0.017583441          580 
 1964000   0.47015397   -6.9051873    453.19874   0.01922941  0.017569798          589 
 1965000   0.46333393   -6.8953898    453.14106  0.019217178  0.017556164          369 
 1966000   0.46079449   -6.9017142    452.95684  0.019199595   0.01754252          299 
 1967000   0.46164326   -6.8948589    453.39288  0.019208307    0.0175289          296 
 1968000   0.47828638   -6.9125752     453.3692  0.019197544  0.017515277          443 
 1969000   0.46891459   -6.9088239    453.22252  0.019181586  0.017501667          550 
 1970000   0.47365288   -6.9038654    453.86099  0.019198857  0.017488083          333 
 1971000   0.46804676   -6.9205307      452.894  0.019148233  0.017474497          396 
 1972000   0.46561301   -6.9083829    453.34923   0.01915776  0.017460914          295 
 1973000   0.46211594   -6.8977149    453.83959  0.019168761  0.017447335          214 
 1974000   0.45554011   -6.9129299    453.50335  0.019144856  0.017433775          285 
 1975000   0.45025363   -6.9115685     452.7393  0.019102924  0.017420213          254 
 1976000   0.47187124   -6.9207756    452.98994  0.019103827  0.017406679          535 
 1977000    0.4668879   -6.9036505    453.58673  0.019119319  0.017393156          547 
 1978000   0.46352879   -6.9091941    452.52319  0.019064846  0.017379628          311 
 1979000   0.46555564    -6.916921    452.15508  0.019039712  0.017366114          634 
 1980000   0.46553163   -6.9236155    453.01594  0.019066327  0.017352611          552 
 1981000   0.46544923   -6.9231949    452.87941   0.01905096   0.01733913          405 
 1982000   0.46142381   -6.9315911    452.40679  0.019021476  0.017325628          349 
 1983000   0.45778465   -6.9324617    452.83136  0.019029726   0.01731215          338 
 1984000   0.45772467   -6.9270904    451.84324  0.018978631   0.01729868          436 
 1985000   0.45168509   -6.9298231    452.15863   0.01898231  0.017285221          572 
 1986000   0.45179912    -6.912215    453.10074  0.019012284  0.017271789          571 
 1987000   0.45871901   -6.9175906    452.44924  0.018975392  0.017258377          443 
 1988000   0.44625523   -6.9367334    452.20207  0.018955486   0.01724496          559 
 1989000   0.45141625   -6.9081076    452.31999  0.018950896  0.017231573          555 
 1990000   0.45203169   -6.9159401    452.38898  0.018944262  0.017218196          303 
 1991000   0.46388983   -6.9326357    452.89265  0.018955828   0.01720484          620 
 1992000   0.45512344   -6.9094534    452.65662  0.018936438  0.017191482          688 
 1993000   0.45679939   -6.9292036    452.29162  0.018911675   0.01717814          556 
 1994000   0.46292146   -6.9255299    452.28145  0.018901766  0.017164808          652 
 1995000   0.46657077   -6.9056649    453.05924   0.01892478  0.017151511          296 
 1996000   0.46324496   -6.9230794     453.1699  0.018919919  0.017138202          627 
 1997000   0.46372614   -6.9238465    452.99815  0.018903278  0.017124899          701 
 1998000   0.45394223   -6.9157906    452.97635  0.018892908  0.017111609          652 
 1999000   0.44490637   -6.9362541    452.44037  0.018861113  0.017098327          538 
 2000000   0.45488661   -6.9432318    451.52838  0.018813682  0.017085061          666 
 2001000   0.45630871   -6.9327227    452.21095  0.018832706   0.01707181          423 
 2002000   0.45966891   -6.9364952    452.42094   0.01883204  0.017058567          478 
 2003000   0.45687528   -6.9350786    452.49125  0.018825564  0.017045323          329 
 2004000   0.44861452   -6.9340788    452.42926  0.018813592  0.017032095          665 
 2005000   0.45331415   -6.9492621    452.19053  0.018794287  0.017018875          650 
 2006000   0.45487194   -6.9301038    452.03601  0.018778498  0.017005685          539 
 2007000   0.44650246    -6.935728     452.2186  0.018776723  0.016992508          353 
 2008000   0.46272616   -6.9341885    452.35529  0.018773045  0.016979331          625 
 2009000   0.45783635   -6.9442792    452.32133  0.018762292  0.016966172          685 
 2010000   0.44890082   -6.9486701    452.27458  0.018751019  0.016953019          454 
 2011000   0.44805141   -6.9406623    451.97051  0.018729095  0.016939876          657 
 2012000   0.44770099    -6.945978    451.66907  0.018707301  0.016926739          615 
Loop time of 5185.57 on 48 procs for 2000000 steps with 4000 atoms

Performance: 66646.466 tau/day, 385.686 timesteps/s
99.4% CPU use with 48 MPI tasks x no OpenMP threads

MPI task timing breakdown:
Section |  min time  |  avg time  |  max time  |%varavg| %total
---------------------------------------------------------------
Pair    | 367.06     | 407.87     | 441.22     |  84.1 |  7.87
Neigh   | 35.572     | 36.904     | 38.396     |  12.1 |  0.71
Comm    | 331.52     | 361.84     | 403.09     |  87.2 |  6.98
Output  | 4.6344     | 4.6367     | 4.6865     |   0.3 |  0.09
Modify  | 4313.4     | 4325.8     | 4337.2     |   9.2 | 83.42
Other   |            | 48.51      |            |       |  0.94

Nlocal:        83.3333 ave          90 max          78 min
Histogram: 4 3 8 7 7 6 6 2 2 3
Nghost:        2395.94 ave        2410 max        2381 min
Histogram: 1 2 7 6 5 12 3 6 1 5
Neighs:        16576.2 ave       18833 max       14445 min
Histogram: 5 2 8 3 5 5 9 7 1 3
FullNghs:      33153.0 ave       36040 max       30787 min
Histogram: 1 5 8 11 6 3 6 4 1 3

Total # of neighbors = 1591343
Ave neighs/atom = 397.83575
Neighbor list builds = 107148
Dangerous builds = 0

#clear
#
#next RN
#
#jump SELF
Total wall time: 1:26:29
