
units lj                  # Use reduced LJ style units
atom_style atomic         # Uncharged point particles
atom_modify map hash      # Needed for indexing of clusters etc
                          # Used to be able to find where atoms are in relation to each other.

lattice fcc 1.0 spacing 1 1 1
Lattice spacing in x,y,z = 1.5874011 1.5874011 1.5874011
region box block 0 10 0 10 0 10 units lattice
create_box 2 box
Created orthogonal box = (0.0000000 0.0000000 0.0000000) to (15.874011 15.874011 15.874011)
  3 by 4 by 4 MPI processor grid
create_atoms 1 box
Created 4000 atoms
  using lattice units in orthogonal box = (0.0000000 0.0000000 0.0000000) to (15.874011 15.874011 15.874011)
  create_atoms CPU = 0.002 seconds
set type 1 type/fraction 2 0.85 78393
Setting atom values ...
  3394 settings made for type/fraction
mass 1 1.0
mass 2 1.0
pair_style lj/cut  3.5
pair_modify tail  yes
pair_coeff 1  1  1.0  1.0   # Intearaction between 1 and 1 set with epsilon = 1 and sigma = 1
pair_coeff 1  2  1.5  0.8
pair_coeff 2  2  0.5  0.88

write_data data.0
System init for write_data ...
Neighbor list info ...
  update every 1 steps, delay 10 steps, check yes
  max neighbors/atom: 2000, page size: 100000
  master list distance cutoff = 3.8
  ghost atom cutoff = 3.8
  binsize = 1.9, bins = 9 9 9
  1 neighbor lists, perpetual/occasional/extra = 1 0 0
  (1) pair lj/cut, perpetual
      attributes: half, newton on
      pair build: half/bin/atomonly/newton
      stencil: half/bin/3d
      bin: standard
WARNING: Not all mixed pair coeffs generated from mixing. Use write_data with 'pair ij' option to store all pair coeffs. (../write_data.cpp:312)


#############################
#   M E L T   S Y S T E M   #
#############################

velocity all create 2.4 6229865 mom yes dist gaussian # Assign velocities
                                                    # Temperature 2.4, random number seed, zero linear momentum
                                                                                # Gaussian distribution

timestep 0.002   # simulation timestep
thermo 1000       # output thermodynamic data every 1000 steps bf 100

# Define a fix  in this case with index 1 applied to all
# particles in the simulation. This fix is for simulations
# in the anisotropic NPT ensemble. Note that we use the MTK
# correction.
fix 1 all npt temp 2.4 2.4 0.1 iso 5.68 5.68 0.5 mtk yes tchain 5 pchain 5 # Use NPT ensemble
                                                                         # Set temperature and pressure and damping
                                                                         # Numbers of thermostats in chain and in barostat
run 10000          # run for 10000 steps
Per MPI rank memory allocation (min/avg/max) = 3.642 | 3.644 | 3.648 Mbytes
Step Temp E_pair E_mol TotEng Press Volume 
       0          2.4   -3.4381692            0   0.16093083   -2.9520202         4000 
    1000    2.3667486   -2.6293511            0    0.9198842    5.6914128    3901.2182 
    2000     2.435394   -2.5722318            0    1.0799459    5.8837451    3927.2756 
    3000    2.3834258   -2.6683161            0   0.90592887     5.590075    3871.6322 
    4000    2.4180865   -2.6108226            0    1.0154003    5.6284724    3914.5672 
    5000    2.3847133   -2.6167783            0   0.95939746    5.8192024    3881.4552 
    6000     2.402042   -2.6776168            0   0.92454549    5.6713603    3870.5791 
    7000    2.4026302   -2.6103723            0   0.99267209    5.8141118     3890.487 
    8000    2.4065965   -2.6266128            0   0.98237943    5.6874959    3909.9539 
    9000    2.3492428   -2.6517009            0   0.87128241     5.710282    3872.1381 
   10000    2.3629615   -2.6268355            0   0.91672058    5.8472151    3879.7202 
Loop time of 2.51109 on 48 procs for 10000 steps with 4000 atoms

Performance: 688148.655 tau/day, 3982.342 timesteps/s
99.6% CPU use with 48 MPI tasks x no OpenMP threads

MPI task timing breakdown:
Section |  min time  |  avg time  |  max time  |%varavg| %total
---------------------------------------------------------------
Pair    | 1.1241     | 1.182      | 1.2635     |   3.3 | 47.07
Neigh   | 0.20938    | 0.21525    | 0.22511    |   0.9 |  8.57
Comm    | 0.73594    | 0.83858    | 0.91019    |   4.2 | 33.40
Output  | 0.00023987 | 0.00024418 | 0.00030639 |   0.0 |  0.01
Modify  | 0.24037    | 0.25982    | 0.28002    |   2.3 | 10.35
Other   |            | 0.01521    |            |       |  0.61

Nlocal:        83.3333 ave          97 max          73 min
Histogram: 3 1 12 7 7 7 7 2 1 1
Nghost:        1677.00 ave        1709 max        1655 min
Histogram: 7 4 6 4 8 10 5 1 2 1
Neighs:        9849.44 ave       11686 max        8335 min
Histogram: 1 3 3 15 8 7 6 3 1 1

Total # of neighbors = 472773
Ave neighs/atom = 118.19325
Neighbor list builds = 903
Dangerous builds = 170

# Equilibrate just above the melting temperature to avoid step fn in T

fix 1 all npt temp 1.25 1.25 0.1 iso 5.68 5.68 0.5 mtk yes tchain 5 pchain 5
run 2000
Per MPI rank memory allocation (min/avg/max) = 3.643 | 3.645 | 3.649 Mbytes
Step Temp E_pair E_mol TotEng Press Volume 
   10000    2.3629615   -2.6268355            0   0.91672058    5.8472151    3879.7202 
   11000    1.2398444   -3.9007951            0   -2.0414934    5.8033161    2998.3233 
   12000    1.2501971   -3.9203593            0   -2.0455326    5.4880442    3010.5707 
Loop time of 0.607045 on 48 procs for 2000 steps with 4000 atoms

Performance: 569315.597 tau/day, 3294.650 timesteps/s
99.7% CPU use with 48 MPI tasks x no OpenMP threads

MPI task timing breakdown:
Section |  min time  |  avg time  |  max time  |%varavg| %total
---------------------------------------------------------------
Pair    | 0.27381    | 0.29874    | 0.32604    |   2.1 | 49.21
Neigh   | 0.039262   | 0.042091   | 0.046192   |   0.6 |  6.93
Comm    | 0.18944    | 0.21988    | 0.25091    |   2.8 | 36.22
Output  | 4.87e-05   | 4.9784e-05 | 6.3079e-05 |   0.0 |  0.01
Modify  | 0.038557   | 0.041727   | 0.044959   |   0.8 |  6.87
Other   |            | 0.004559   |            |       |  0.75

Nlocal:        83.3333 ave          92 max          75 min
Histogram: 2 2 3 3 17 10 4 4 2 1
Nghost:        1988.15 ave        2016 max        1970 min
Histogram: 2 7 8 8 11 6 1 3 1 1
Neighs:        12716.3 ave       14761 max       11194 min
Histogram: 2 4 8 8 9 10 3 1 2 1

Total # of neighbors = 610382
Ave neighs/atom = 152.59550
Neighbor list builds = 144
Dangerous builds = 13

#############################
# L I N E A R  Q U E N C H  #
#############################

# Define solid atoms. This closely follows ten Wolde  Ruiz-Montero and Frenkel  Faraday Discuss  1996  104  93-110
# Compute components of the per-atom q6 vector
compute q6 all orientorder/atom degrees 1 6 components 6 nnn NULL cutoff 1.3 # compute the Q6 parameter.
                                                                             # Use all neighbours within 1.3 unit cell.

# get number of connections
compute coord_number all coord/atom orientorder q6 0.5

# An atom is solid if it has 8 or more connections (of a possible 14)
variable is_solid atom c_coord_number>=8
group solid dynamic all var is_solid    # Must be dynamic to update
dynamic group solid defined

# do clustering
compute cluster solid cluster/atom 1.3 # Create a cluster where all atoms within are solid and max 1.3 units from another member

# define chunks one chunk per cluster
compute clus_chunks solid chunk/atom c_cluster nchunk every compress yes  # Says which atoms are in which chunk

# count the size of each chunk
compute size_chunks solid property/chunk clus_chunks count


# Find the maximum entry in the vector of chunk sizes
variable max_n equal max(c_size_chunks)


# Thermo style which includes this variable
# thermo_style custom step temp pe vol v_max_n

thermo ${N}  # Print the thermo information every 100 steps
thermo 1000  

# Reset the npt fix at a lower temperature (below freezing)
fix 1  all npt temp  ${temp} ${temp}  0.1  iso  5.68  5.68  0.5  mtk yes tchain  5  pchain  5
fix 1  all npt temp  0.45 ${temp}  0.1  iso  5.68  5.68  0.5  mtk yes tchain  5  pchain  5
fix 1  all npt temp  0.45 0.45  0.1  iso  5.68  5.68  0.5  mtk yes tchain  5  pchain  5

dump dmp2 all dcd ${N} traj.dcd
dump dmp2 all dcd 1000 traj.dcd


compute msd all msd com yes
variable twopoint equal c_msd[4]/6/(step*dt+1.0e-6)
fix 9 all vector 10 c_msd[4]
variable fit equal slope(f_9)/6/(10*dt)
thermo_style custom step temp pe c_msd[4] v_twopoint v_fit v_max_n

fix 1 all npt temp 1.25 ${temp} 0.1 iso 5.68 5.68 0.5 mtk yes tchain 5 pchain 5
fix 1 all npt temp 1.25 0.45 0.1 iso 5.68 5.68 0.5 mtk yes tchain 5 pchain 5
run 2000000 # 5000000  # Run for this many steps
Neighbor list info ...
  update every 1 steps, delay 10 steps, check yes
  max neighbors/atom: 2000, page size: 100000
  master list distance cutoff = 3.8
  ghost atom cutoff = 3.8
  binsize = 1.9, bins = 8 8 8
  4 neighbor lists, perpetual/occasional/extra = 1 3 0
  (1) pair lj/cut, perpetual
      attributes: half, newton on
      pair build: half/bin/atomonly/newton
      stencil: half/bin/3d
      bin: standard
  (2) compute orientorder/atom, occasional
      attributes: full, newton on
      pair build: full/bin/atomonly
      stencil: full/bin/3d
      bin: standard
  (3) compute coord/atom, occasional
      attributes: full, newton on
      pair build: full/bin/atomonly
      stencil: full/bin/3d
      bin: standard
  (4) compute cluster/atom, occasional
      attributes: full, newton on
      pair build: full/bin/atomonly
      stencil: full/bin/3d
      bin: standard
Per MPI rank memory allocation (min/avg/max) = 9.828 | 9.833 | 9.838 Mbytes
Step Temp PotEng c_msd[4] v_twopoint v_fit v_max_n 
   12000    1.2501971   -3.9203593 1.6820487e-30 1.1680893e-32 8.3333333e+20            2 
   13000    1.2317454   -3.9472716   0.91376157 0.0058574457  0.078542433            2 
   14000    1.2819113   -3.9614089    1.8076726  0.010759956  0.076587573            1 
   15000    1.2520176   -3.9272568    2.7121798  0.015067665  0.075558043            2 
   16000    1.2430071    -3.908903    3.6776226  0.019154284  0.075810903            1 
   17000    1.2586835   -3.8810778    4.6464881  0.022776902  0.076960487            1 
   18000     1.247907   -3.9038106    5.5226559  0.025567851  0.077346997            1 
   19000    1.2270943   -3.9543927     6.427028  0.028188719  0.076838918            1 
   20000    1.2292356   -3.9350778    7.3651101  0.030687958   0.07691553            2 
   21000    1.2349172   -3.9195363    8.3356995  0.033078172  0.077060177            3 
   22000    1.2461191   -3.8906296    9.2754783  0.035134387   0.07725529            2 
   23000    1.2632602   -3.9266467    10.109478  0.036628543  0.077390844            3 
   24000    1.2837147   -3.8911492    11.110896  0.038579501  0.077315165            1 
   25000    1.2381943   -3.9019778    12.098982   0.04032994  0.077505436            2 
   26000    1.2200925   -3.8991895     13.06329  0.041869519  0.077669374            2 
   27000    1.2241909   -3.9442453    13.872619  0.042816723  0.077625022            2 
   28000    1.2517304   -3.9158595    14.648428   0.04359651  0.077377908            2 
   29000    1.2378723    -3.939857    15.511494  0.044573258  0.077048635            6 
   30000    1.2332435   -3.9350441    16.495786  0.045821628  0.076795524            2 
   31000    1.2253053   -3.9252051    17.417246  0.046820552  0.076674195            2 
   32000    1.2634277    -3.928878    18.357817  0.047806815  0.076604919            1 
   33000    1.2753199   -3.9488025    19.328705   0.04880986  0.076615148            1 
   34000    1.2383349   -3.9057373    20.317157  0.049796954  0.076611637            2 
   35000    1.2389256   -3.8978653    21.220075  0.050523987  0.076670996            4 
   36000      1.24731   -3.9314571    22.107077  0.051173789  0.076710058            2 
   37000     1.240791   -3.9266424    23.165374  0.052174265  0.076777734            3 
   38000    1.2598893   -3.9184923    24.185394  0.053038145  0.076954697            1 
   39000    1.2412723   -3.9511254    25.210547   0.05386869  0.077132819            3 
   40000     1.253456   -3.9441452    26.043288   0.05425685  0.077297344            1 
   41000    1.2180253   -3.9093317    27.211741  0.055308416    0.0774469            5 
   42000    1.2310887   -3.9798963    28.001644  0.055558818  0.077556299            2 
   43000    1.2321875   -3.9394133    29.071223  0.056339578  0.077725796            3 
   44000     1.211199   -3.9537657    29.997247  0.056812968  0.077908272            2 
   45000    1.2168312   -3.9276594    31.052496  0.057504622  0.078022934            1 
   46000    1.2449649   -3.9464379    31.632374  0.057305025  0.078068287            4 
   47000    1.2530418   -3.9255964    32.589899  0.057783509  0.078089165            1 
   48000    1.2278429   -3.9632001    33.613458  0.058356697  0.078109268            1 
   49000    1.2158801   -3.9354712    34.371768  0.058455386  0.078108418            1 
   50000    1.2229592    -3.900288     35.33381  0.058889683  0.078068207            1 
   51000    1.2511908   -3.9053664    36.273732  0.059270804  0.077994982            2 
   52000    1.2066538   -3.9207725    36.987646  0.059275073  0.077901411            2 
   53000    1.2674078    -3.952619    38.179929  0.060031334   0.07783442            2 
   54000    1.2400466   -3.9230379    39.092552  0.060328012  0.077788404            3 
   55000    1.2034256   -3.9306288    39.901632  0.060457017   0.07774427            1 
   56000    1.2496253   -3.9338336    40.767562  0.060666014  0.077716488            3 
   57000    1.2251447   -3.9369924    41.434106  0.060576177  0.077670859            4 
   58000    1.2427989   -3.9350212    42.493688  0.061054149  0.077592186            1 
   59000    1.2152217   -3.9789463    43.165679  0.060968472  0.077523081            1 
   60000    1.2662109   -3.9765548    44.324791   0.06156221  0.077474186            1 
   61000    1.2315161   -3.9285247    45.448346  0.062087904  0.077454367            2 
   62000    1.2309989   -3.9327665    46.292929  0.062221679  0.077438374            2 
   63000    1.2423893   -3.9304392    47.528626  0.062868553  0.077420142            1 
   64000    1.2152215   -3.9669766    48.141914  0.062684783  0.077431226            2 
   65000    1.2250084   -3.9570735    48.821426  0.062591571  0.077396983            1 
   66000    1.2309101   -3.9342536    49.716909  0.062773874  0.077330453            3 
   67000    1.2381718   -3.9563205    50.845653  0.063240862  0.077293722            1 
   68000    1.2468772   -3.9351136    52.035391  0.063768861  0.077279349            3 
   69000    1.2332955   -3.9398829    52.921952    0.0639154  0.077316932            2 
   70000    1.2226317    -3.927456    54.207535  0.064532779   0.07734079            1 
   71000    1.2165749   -3.9214166     55.06008  0.064624506  0.077377587            4 
   72000    1.2355415   -3.9442228    55.984692  0.064797097   0.07741347            2 
   73000    1.2448346   -3.9370814    56.976662  0.065041851   0.07743309            2 
   74000     1.227559   -3.9382739    57.840776  0.065136009  0.077473024            2 
   75000    1.1823349   -3.9694105    58.828776  0.065365306  0.077513429            2 
   76000    1.2411129   -3.9667524    59.281348  0.065001477  0.077511074            4 
   77000    1.2284165   -3.9687027    59.684728  0.064593861  0.077490132            4 
   78000    1.2063581   -3.9589988    61.293628  0.065484645  0.077474811            2 
   79000    1.2297211    -3.930581    62.101995  0.065508433  0.077479946            2 
   80000    1.2165365   -3.9457898    63.191522  0.065824501  0.077481848            2 
   81000    1.2110179   -3.9386658    64.139564  0.065987205  0.077463856            2 
   82000    1.2065717   -4.0145046    64.810943  0.065864779  0.077465035            1 
   83000    1.2138725   -3.9497037    65.805886  0.066070166  0.077457866            1 
   84000    1.2017643   -3.9482573    66.832594  0.066302176  0.077449137            2 
   85000    1.2281938   -4.0083985    67.966119   0.06663345  0.077454587            2 
   86000    1.2123591   -3.9715199    68.480215  0.066356797  0.077453288            1 
   87000    1.2248895   -3.9621821    69.582756  0.066650149   0.07746358            1 
   88000    1.2295618   -3.9298399    70.872005   0.06711364  0.077477464            2 
   89000    1.2430272   -3.9593429      71.8857  0.067308707  0.077504556            2 
   90000    1.2335902   -3.9871822    72.760746  0.067371061  0.077537305            1 
   91000    1.1997127   -3.9820238    73.730633  0.067518894  0.077562066            2 
   92000    1.2227397   -3.9200018    74.803934  0.067757186  0.077604786            1 
   93000    1.2219495   -3.9507251    75.743066   0.06787013  0.077630162            2 
   94000    1.2019984    -3.970191    76.419498  0.067747782  0.077651228            2 
   95000     1.208941   -3.9821088    77.020001  0.067561404  0.077657198            2 
   96000    1.2415739   -3.9370694    78.592064  0.068222277  0.077658756            2 
   97000    1.2234482   -3.9404094    78.816859  0.067712078  0.077632808            2 
   98000     1.223144   -3.9816005    79.649354  0.067729042  0.077608694            1 
   99000    1.2347742   -3.9806796    80.658585  0.067894431  0.077585754            3 
  100000    1.2185804   -3.9420417     81.44085  0.067867375  0.077572698            2 
  101000    1.2058702   -3.9921628    82.441901   0.06802137  0.077565757            1 
  102000    1.2275116   -3.9835794    83.638206  0.068331867  0.077563384            1 
  103000    1.2220002   -3.9538749     85.09877  0.068850137  0.077573005            4 
  104000    1.2104228   -3.9984948    85.598983  0.068588928  0.077593674            3 
  105000    1.2037984   -3.9786811    86.595643    0.0687267  0.077593384            1 
  106000    1.1817789   -3.9835994    87.013136  0.068406553  0.077587138            3 
  107000    1.2318892   -3.9680368    88.338709  0.068799617  0.077582449            1 
  108000    1.1913519   -3.9622479    89.524653  0.069077664  0.077581272            2 
  109000    1.1981616   -3.9805293    90.080773  0.068869092  0.077571396            1 
  110000    1.2269197   -3.9752129    91.321722  0.069183123  0.077569993            2 
  111000    1.1796781   -3.9719161    91.754107  0.068884464  0.077570201            2 
  112000    1.2240138   -3.9605413    92.670153  0.068951006  0.077574263            3 
  113000    1.2312199   -4.0000613     93.92696  0.069267669  0.077574368            2 
  114000    1.1815984   -3.9709888    95.492997  0.069804822  0.077580835            4 
  115000    1.2023288   -3.9770482    95.787705   0.06941138  0.077601446            6 
  116000    1.2218224   -3.9837575    96.396599   0.06925043  0.077607824            1 
  117000    1.1837265   -3.9565772    97.827762  0.069677893  0.077616909            3 
  118000    1.2348644   -4.0196958      98.5115  0.069570268  0.077608198            3 
  119000    1.2089577   -3.9779083    99.200486  0.069468127  0.077597961            2 
  120000    1.2115305   -4.0005082    99.600037  0.069166692  0.077573501            2 
  121000    1.2085467   -3.9904372    100.91897   0.06950342  0.077544319            2 
  122000    1.1999109   -3.9801914    101.33547  0.069218219  0.077498442            1 
  123000    1.1905947   -3.9874151    102.38188  0.069364417  0.077456712            2 
  124000     1.210933   -3.9998366    102.61338  0.068960604  0.077414044            2 
  125000    1.1895501   -3.9842588    103.88146  0.069254309  0.077369292            1 
  126000    1.2211162   -4.0161348    104.77293  0.069294263   0.07733068            2 
  127000    1.1958594   -3.9842849    106.11748  0.069630894  0.077298031            2 
  128000    1.2156603   -3.9829672    106.03091   0.06903054  0.077261296            2 
  129000    1.2175159    -4.018609     106.9222  0.069071186  0.077213206            4 
  130000    1.2110641   -3.9818885    108.57904  0.069601948  0.077176349            2 
  131000    1.1619822   -3.9579752    110.14626  0.070067595  0.077146017            2 
  132000    1.2003294   -3.9566899     110.0251  0.069460292   0.07711606            2 
  133000    1.1815681   -3.9694894    110.50698  0.069239964    0.0770747            2 
  134000    1.1897776   -3.9819396    111.62365   0.06941769  0.077040013            1 
  135000    1.2154508    -3.977243    112.57942   0.06949347   0.07700517            8 
  136000    1.2087295   -4.0020033    113.44844  0.069514977  0.076958464            2 
  137000    1.1945395   -3.9780615    113.75632  0.069194841  0.076910468            2 
  138000    1.1900193   -3.9580423    114.75133  0.069294282  0.076860396            2 
  139000    1.2054146   -3.9632533    115.56071  0.069281003  0.076803425            3 
  140000    1.1917884   -3.9815052    115.95798  0.069022605  0.076743355            1 
  141000    1.2092311   -3.9755425    116.70162  0.068972587   0.07667761            3 
  142000    1.1980912     -4.03437    117.52014   0.06896722  0.076608598            3 
  143000    1.2043641   -3.9719295    118.60019  0.069114332   0.07653873            2 
  144000    1.1856006    -4.001173    119.87123  0.069369926  0.076480899            3 
  145000    1.1807408    -3.965415    120.34171  0.069161899  0.076418796            1 
  146000     1.195019   -4.0004655    120.84666  0.068976403  0.076346964            1 
  147000    1.1905952   -3.9961675    120.93011  0.068554483  0.076274785            2 
  148000    1.2087548   -3.9775645     122.3953  0.068916272  0.076204851            3 
  149000     1.215659   -3.9955007    123.50476  0.069074252  0.076137635            3 
  150000    1.1923369    -3.974391     124.5907  0.069217058   0.07608465            1 
  151000    1.2073304   -3.9576443     126.2002   0.06964691  0.076038211            3 
  152000    1.2172967   -3.9844234    126.99282  0.069623254  0.075992971            4 
  153000    1.2055512   -4.0033567    127.35653  0.069366301  0.075944403            2 
  154000    1.1742197   -4.0345106    128.57958  0.069577697  0.075896881            2 
  155000    1.1929984   -4.0120659    129.29807   0.06951509   0.07585908            2 
  156000    1.1740003   -4.0182281    129.87354   0.06937689  0.075823091            2 
  157000    1.2122828   -3.9684617    132.11686  0.070125721  0.075795649            2 
  158000    1.2023078   -4.0096023    132.78275  0.070033094   0.07577551            2 
  159000    1.1856488   -4.0099886    133.15755  0.069789072  0.075758141            1 
  160000    1.2001548   -4.0194258    134.86252  0.070240895  0.075743572            2 
  161000    1.1873338    -4.021854    135.27913  0.070020252  0.075724649            2 
  162000    1.2083555   -4.0268925    136.20256  0.070063043  0.075707904            4 
  163000    1.2200237    -3.999743    137.00621  0.070044076  0.075688345            2 
  164000    1.2019678   -3.9918853    137.18011   0.06970534  0.075661923            2 
  165000    1.1847048   -4.0250162    138.44707  0.069922761  0.075633344            1 
  166000    1.1960395   -4.0260586    139.30764  0.069933552  0.075610561            2 
  167000    1.2146539   -3.9825119    139.71993  0.069720525  0.075576124            1 
  168000    1.2068974   -4.0447375    140.23123  0.069559143  0.075539105            2 
  169000    1.2115633   -4.0290763    141.37496  0.069711518  0.075501435           10 
  170000    1.1927366   -4.0185331    142.30269  0.069756219  0.075462748            1 
  171000    1.1750887   -4.0552378    142.91092  0.069644698  0.075423709            1 
  172000    1.1980797   -4.0232767    144.06773  0.069800256  0.075387423            2 
  173000    1.1794585   -4.0232308    145.22342  0.069953478   0.07535038            1 
  174000    1.1849269   -4.0068376    145.47959  0.069674135  0.075313604            1 
  175000    1.1786592   -4.0219458    146.53638  0.069779228  0.075278843            3 
  176000    1.1832545   -4.0414661     147.2621  0.069726372  0.075253817            1 
  177000    1.2104873    -4.017316    148.36024  0.069849455  0.075230586            3 
  178000    1.1824955   -4.0420014    148.69191  0.069612316  0.075195098            1 
  179000    1.2039574    -4.002023    148.99672  0.069365326  0.075151683            1 
  180000    1.1643844     -4.02715    149.81719   0.06935981  0.075107845            4 
  181000    1.1962277   -3.9842561    151.36034  0.069687081  0.075064839            2 
  182000    1.1647107   -4.0093363    152.58913  0.069866819  0.075025243            3 
  183000    1.1653043   -3.9942424    152.61828  0.069498305   0.07498733            2 
  184000    1.1982438   -3.9915497    154.31601  0.069889496  0.074955665            1 
  185000     1.159025   -4.0101046     154.6934  0.069681711  0.074920247            3 
  186000    1.1698055   -4.0479626    155.36605  0.069608444  0.074882294            2 
  187000    1.1843134    -4.035618    155.72813  0.069397564  0.074840775            2 
  188000    1.1800894   -3.9979511    157.16049  0.069663336  0.074800358            3 
  189000    1.1639999   -4.0343521    157.71337  0.069538524  0.074758533            3 
  190000    1.1580395    -4.011341    158.55272  0.069540668  0.074719237            2 
  191000    1.1590624   -4.0488119    159.10394  0.069417079  0.074679859            2 
  192000    1.1696905   -4.0251915    159.83564  0.069373106  0.074635215            2 
  193000    1.1892337   -4.0087245    161.96113  0.069931403  0.074593586            2 
  194000    1.2004699   -4.0420161    162.22019  0.069682212  0.074558279            3 
  195000    1.1671253   -4.0408809    162.05142  0.069252744  0.074516278            2 
  196000    1.1577267   -4.0190702    164.36551  0.069883296  0.074482179            3 
  197000    1.1685459   -4.0392353    165.28084  0.069915751  0.074450757            2 
  198000    1.1983019   -4.0329856    166.45977  0.070058824  0.074423407            1 
  199000    1.1669236   -4.0601688    168.16943  0.070422708   0.07439853            4 
  200000    1.1663943   -4.0149659    168.04192  0.070017468  0.074372624            2 
  201000    1.1795156   -4.0138819    168.47169  0.069847302  0.074346944            3 
  202000    1.1668342   -4.0302097    168.74889  0.069615881  0.074318895            2 
  203000    1.1483918   -4.0429335    169.57198  0.069610831  0.074293346            3 
  204000    1.1456931   -3.9916865    171.50653  0.070059856  0.074269445            3 
  205000    1.1662431   -4.0361428    172.20169  0.070000685  0.074249823            2 
  206000    1.1645777   -4.0576082    173.52648  0.070196796  0.074230562            5 
  207000    1.1702792   -4.0470241    173.38944  0.069802511  0.074207549            1 
  208000    1.1637199   -4.0213939    175.43863  0.070287914  0.074188272            2 
  209000    1.1826304    -4.072706    175.54756  0.069995039  0.074169326            3 
  210000    1.1798306   -4.0509468    175.78236  0.069754906  0.074145583            4 
  211000    1.1760656   -4.0480879    176.59336  0.069744611  0.074121554            1 
  212000    1.1402477   -4.0167657    178.61858  0.070211706  0.074098687            1 
  213000     1.184695   -4.0439778    178.67555  0.069904364  0.074072444            2 
  214000    1.1603793   -4.0171828    178.56019  0.069532784  0.074044647            3 
  215000    1.1732275   -4.0515062    180.30149  0.069884298  0.074016946            3 
  216000    1.1650495   -4.0338349    180.03905  0.069459509  0.073985361            1 
  217000    1.1990354   -4.0360868    182.01749  0.069899189  0.073955831            6 
  218000    1.1997725   -4.0382319    182.45022  0.069743967  0.073924582            2 
  219000    1.1667275   -4.0479765    182.54558  0.069461789  0.073891958            2 
  220000    1.1619126   -4.0073867    184.06104  0.069720092  0.073856982            2 
  221000    1.1817493    -4.026011    184.87222   0.06971049  0.073824661            1 
  222000    1.1403857   -4.0396513    185.19717  0.069518457  0.073793305            1 
  223000    1.1743203    -3.992607    185.94969  0.069487925  0.073762699            3 
  224000    1.1725587   -4.0703275    186.76149  0.069479721  0.073733037            2 
  225000    1.1710833   -4.0667193    187.69069   0.06951507  0.073700489            1 
  226000    1.1669343    -4.018698    188.95729  0.069674518  0.073668801            2 
  227000    1.1722419   -4.0385179    189.23258   0.06946864  0.073638963            2 
  228000    1.1701288   -4.0355659    190.77052  0.069726066  0.073610322            2 
  229000    1.1843494   -4.0597063    191.04076  0.069519929  0.073584145            6 
  230000    1.1679155    -4.021642    193.09671  0.069962578  0.073556892            1 
  231000    1.1523811   -4.0626205    192.48364  0.069438541   0.07353003            2 
  232000    1.1536674   -4.0783318    193.19536  0.069394886  0.073500766            4 
  233000    1.1595708   -4.0677877    193.67425  0.069268329  0.073475654            2 
  234000    1.1442083   -4.0560712    194.63157  0.069313235  0.073444296            2 
  235000     1.155975   -4.0043401    196.05868  0.069524353  0.073412403            3 
  236000    1.1542819   -4.0543827    196.77323  0.069482073  0.073382156            4 
  237000    1.1838308   -4.0264879    197.56206  0.069466267  0.073352682            2 
  238000    1.1784737   -4.0959702    197.61271  0.069192125  0.073318739            1 
  239000    1.1417791   -4.0604001    198.99778  0.069385558  0.073287028            2 
  240000     1.162962   -4.0509092    199.62836  0.069315404  0.073258107            4 
  241000    1.1583763   -4.0456093    200.53981  0.069342951  0.073230866            5 
  242000    1.1303935   -4.0829693    202.08008  0.069586805    0.0732012            1 
  243000    1.1522085   -4.0378028    203.69666  0.069854821  0.073178055            3 
  244000    1.1578383   -4.0238116    203.49853  0.069500864  0.073154225            3 
  245000    1.1623058   -4.0666545    204.06434   0.06940964  0.073129004            2 
  246000    1.1809998   -4.0601074    205.01395  0.069449171  0.073103467            3 
  247000    1.1414115    -4.083296    205.59551  0.069364206   0.07307298            3 
  248000    1.1619369    -4.040111    206.24174  0.069301661  0.073044918            2 
  249000    1.1792797   -4.0817401    206.81455  0.069215043   0.07301271            1 
  250000    1.1895546   -4.0862632    207.29244   0.06909748  0.072981716            2 
  251000    1.1616887   -4.1164514    208.68514  0.069284576  0.072950224            2 
  252000    1.1664903   -4.0606044    210.97181   0.06976581  0.072925475            1 
  253000    1.1233067   -4.0448889    210.37603  0.069293819  0.072901341            2 
  254000    1.1399485   -4.0483514    211.00908    0.0692287  0.072874066            1 
  255000     1.147255   -4.0311531     212.6635  0.069497877  0.072846952            4 
  256000    1.1340905   -4.0909678    212.00735  0.069012808  0.072815397            2 
  257000    1.1634215   -4.0644404    212.94553  0.069048486  0.072783006            2 
  258000    1.1342716   -4.0650616      214.677  0.069340117  0.072753203            1 
  259000    1.1234734   -4.0590797    214.46558   0.06900437  0.072722775            4 
  260000    1.1556373   -4.0752923    214.94253  0.068891836  0.072689296            7 
  261000    1.1574408   -4.0456891    216.06709  0.068986939  0.072651294            1 
  262000    1.1654777   -4.0720179    216.18973  0.068762637  0.072613093            3 
  263000    1.1483515   -4.0780601    216.60792  0.068633689  0.072575098            2 
  264000    1.1442695   -4.0559529    218.85161  0.069081947  0.072537113            2 
  265000    1.1536252   -4.0859041    219.40052  0.068993874  0.072502153            1 
  266000    1.1422745   -4.0905961    218.81896  0.068552305  0.072466812            3 
  267000    1.1533331   -4.0433039    220.71136  0.068886191  0.072433375            4 
  268000    1.1290198   -4.0483765    221.48541   0.06886984  0.072401815            4 
  269000    1.1406253   -4.0583895    221.49832   0.06861782  0.072368594            1 
  270000    1.1491072   -4.0600094    223.17338  0.068880673  0.072331341            3 
  271000     1.144216   -4.0721834    223.88252  0.068844562  0.072296048            2 
  272000    1.1528079   -4.0627598     224.2017  0.068689247  0.072259845            2 
  273000     1.143784   -4.1032151     224.4557  0.068515172  0.072224376            1 
  274000     1.173391   -4.0929951    225.08653  0.068456973  0.072186779            3 
  275000    1.1553774   -4.0796658    226.75858  0.068714722  0.072153295            2 
  276000    1.1120699   -4.0661821    227.78348  0.068775206  0.072117415            2 
  277000    1.1457411   -4.0808079    228.67932  0.068796425   0.07208067            2 
  278000    1.1475447   -4.0784951    228.34871  0.068449852  0.072043093            3 
  279000    1.1672402   -4.0843147    229.16484   0.06844828  0.072005731            4 
  280000    1.1296685   -4.0554666    230.21129  0.068515264  0.071966682            2 
  281000    1.1364356   -4.0796145    230.82632  0.068453831  0.071926907            1 
  282000    1.1267762   -4.1130568     230.7597    0.0681914  0.071888151            3 
  283000    1.1654409   -4.0932913    231.25701  0.068096882  0.071849687            2 
  284000    1.1489679   -4.0802239    232.31686  0.068168091  0.071807244            2 
  285000    1.1602391    -4.069164      233.563  0.068293276  0.071766381            1 
  286000    1.1577283   -4.0605049    234.15625  0.068227344  0.071727219            6 
  287000    1.1186748   -4.0749244    235.37928   0.06834474  0.071686613            4 
  288000    1.1554969   -4.1052891    235.96522  0.068276973  0.071648072            3 
  289000    1.1391999   -4.0892785    236.39746  0.068165359  0.071608062            2 
  290000    1.1539941   -4.1029455    236.42326  0.067937717  0.071568776            2 
  291000    1.1506139   -4.0668696     237.4956  0.068011339  0.071529066            2 
  292000    1.1378184   -4.0756668     238.0463  0.067935588  0.071489551            3 
  293000    1.1317591    -4.056517    240.23192  0.068325346   0.07145085            5 
  294000    1.1646531    -4.101735    239.65793  0.067930252  0.071411862            2 
  295000    1.1509954   -4.1265149    240.74165  0.068006115  0.071373469            2 
  296000    1.1219122   -4.0886983    242.23559  0.068196957   0.07133399            3 
  297000    1.1407736   -4.0653258    241.70447  0.067818315  0.071293197            2 
  298000    1.1365131   -4.0713131    242.74422  0.067881493  0.071254219            3 
  299000    1.1050085   -4.1216518    242.94118   0.06770936  0.071212498            2 
  300000    1.1535022   -4.1148937    244.26171  0.067850474  0.071171823            5 
  301000    1.1299356   -4.0867033    244.93501  0.067811464  0.071128631            2 
  302000    1.1603282   -4.0855503     244.9094  0.067579855  0.071087685            3 
  303000    1.1461756   -4.0992772    245.76963  0.067593407   0.07104362            2 
  304000    1.1584564   -4.0715555    246.98239  0.067703506  0.070999238            4 
  305000    1.1308496   -4.1194858     245.9781  0.067207131  0.070953496            4 
  306000      1.13419   -4.0825999    247.83888  0.067494248  0.070911527            2 
  307000     1.128908   -4.0652884    248.35487  0.067414459  0.070868691            2 
  308000     1.141643   -4.0710438    249.61066  0.067535353  0.070825293            5 
  309000    1.1481127   -4.1417037    248.79087  0.067095705  0.070782174            3 
  310000    1.1311443   -4.1140773    250.94137  0.067457357  0.070738048            3 
  311000    1.1239062   -4.0635122    252.24016  0.067588468  0.070697563            4 
  312000    1.1324355   -4.1211905    253.51124  0.067711336  0.070656829            4 
  313000    1.1139289    -4.107934     253.2781  0.067432934  0.070614636            6 
  314000    1.0808308   -4.1175613    254.43179  0.067524361  0.070575849            2 
  315000    1.1389561   -4.1052879    254.54608  0.067340232  0.070534523            1 
  316000    1.1344612   -4.1103525    255.75182  0.067445101  0.070495154            2 
  317000    1.1329973   -4.0894492    256.01316  0.067301041  0.070457846            1 
  318000    1.1193872   -4.0693569    258.03637  0.067619594  0.070418403            2 
  319000    1.1705566   -4.1175944    257.78625  0.067342279  0.070380235            2 
  320000    1.1319308   -4.1142771    259.33051  0.067533987  0.070341678            2 
  321000     1.127392   -4.1266536    258.25248  0.067043738  0.070303318            2 
  322000     1.147164   -4.1236071    258.56851  0.066917317  0.070263303            2 
  323000    1.1171873   -4.0984646     260.8271  0.067292852  0.070223169            3 
  324000    1.1154616   -4.1375485    259.87441  0.066840127  0.070181328            4 
  325000    1.1233585   -4.1164238    261.93038  0.067161636   0.07014257            2 
  326000    1.1296681   -4.0965739     262.5323  0.067109483  0.070103277            2 
  327000    1.1611756   -4.0956009    263.63478  0.067185214  0.070064092            2 
  328000    1.1220419   -4.1036582    264.22315  0.067129866  0.070025776            2 
  329000    1.1123837   -4.0986607    265.24658   0.06718505   0.06998965            1 
  330000    1.1335659   -4.0802125    265.98455  0.067167815  0.069953421            2 
  331000     1.111147   -4.1265576    266.98247   0.06721613  0.069917958            6 
  332000    1.1172227   -4.1202761    267.03987   0.06702808  0.069881158            3 
  333000    1.1404864   -4.1113063    268.20727  0.067118937   0.06984605            6 
  334000    1.0929561   -4.1167369     268.7909  0.067063599  0.069810372            2 
  335000    1.1132021   -4.0825901     268.8893  0.066887886  0.069773866            2 
  336000    1.1230246   -4.0904809    269.29467  0.066789353  0.069735986            3 
  337000    1.1264573   -4.0931508     270.6131  0.066917186  0.069697998            1 
  338000    1.1268875   -4.1248458    270.64938  0.066728152   0.06966153            2 
  339000    1.1291995   -4.0918274    272.01068  0.066865949  0.069624544            2 
  340000    1.1341462   -4.1007705    273.08557  0.066932736  0.069588568            3 
  341000    1.1244528   -4.1117883    272.81575  0.066670515  0.069553655            5 
  342000    1.1254091   -4.1044363    275.62985   0.06716127  0.069518943            3 
  343000    1.1313926   -4.1387478    274.51612  0.066694879  0.069483594            4 
  344000    1.1232254   -4.1486294    275.30886  0.066693037  0.069449116            3 
  345000    1.1180934   -4.1295285    276.11754  0.066695058  0.069412337            3 
  346000    1.1141662    -4.103897    278.11595  0.066983609  0.069379136            2 
  347000    1.1328736   -4.1398218    278.33358  0.066842839  0.069345477            1 
  348000     1.135786   -4.1141311    279.06325   0.06682549  0.069310034            3 
  349000    1.1388993   -4.1171538    279.42019  0.066719243  0.069276212            4 
  350000    1.1444409   -4.1449732    279.99209  0.066664782  0.069244257            2 
  351000    1.1001575   -4.1083698    280.20617  0.066525681  0.069210638            2 
  352000    1.1155149   -4.1290522    281.94956  0.066749423  0.069177115            2 
  353000    1.1182828   -4.1345782    282.56882   0.06670652  0.069144271            2 
  354000    1.1122694   -4.0877642    284.53885  0.066981839  0.069112362           11 
  355000    1.1069506   -4.1324769    284.31568   0.06674077  0.069081866            2 
  356000    1.1098296   -4.1229157    284.96825  0.066706051  0.069052179            1 
  357000    1.1188739   -4.1013848    285.65634  0.066679817  0.069020818            3 
  358000    1.1098519   -4.1271647    287.16335  0.066844355  0.068991323            5 
  359000    1.1060033   -4.0897581    287.52671  0.066742505  0.068962306            2 
  360000    1.1143897   -4.1589105    288.17703  0.066707646    0.0689317            3 
  361000    1.1032166   -4.1074539    289.79835  0.066897126  0.068903161            1 
  362000    1.1042663   -4.1658973    289.73182  0.066697011  0.068872777            5 
  363000    1.1094904   -4.1495983    290.85578    0.0667713  0.068842354            2 
  364000    1.1041897   -4.1126814    292.26148   0.06690968  0.068813628            2 
  365000    1.1168539   -4.1037984    293.40627  0.066987733  0.068787254            2 
  366000    1.0921289   -4.1243045    292.77818  0.066661698   0.06875886            2 
  367000     1.095207   -4.1297657    293.55328  0.066656058  0.068730164            2 
  368000    1.1015057   -4.1659646    293.81817  0.066534912  0.068704195            3 
  369000    1.1075319   -4.1300827    297.22626  0.067124268  0.068678879            3 
  370000     1.105677   -4.1011895    297.39108  0.066979972  0.068655017            3 
  371000    1.1094199   -4.1631608    296.65246  0.066633527  0.068629855            3 
  372000    1.0985083   -4.2007703    297.53097  0.066651204  0.068605964            2 
  373000     1.096447    -4.126603    299.01691  0.066804492  0.068584374            5 
  374000    1.1084577   -4.1190032     300.5241  0.066961699  0.068561801            4 
  375000    1.0941028    -4.155696    300.98827  0.066886283  0.068539143            2 
  376000    1.1308068   -4.1265324    301.40854  0.066801538   0.06851744            1 
  377000    1.1118422   -4.1545122    302.27097  0.066814979  0.068494795            4 
  378000    1.0887365   -4.1597445    301.61363  0.066493304   0.06847048            2 
  379000    1.1272345   -4.1299303    304.02032  0.066847035  0.068445446            4 
  380000    1.0870973   -4.1575492    304.05728  0.066679227  0.068422888            1 
  381000    1.0879393   -4.1654048    304.67487  0.066639297  0.068399521            3 
  382000    1.0808594   -4.1609332    304.79017  0.066490002  0.068375805            1 
  383000    1.1329602   -4.1490207    307.57172  0.066921611  0.068352103            5 
  384000    1.1149154   -4.1889355    305.98694  0.066403415  0.068327041            4 
  385000    1.1091063   -4.1333101    307.90378   0.06664584  0.068302797            2 
  386000    1.1072977   -4.1642941    307.58285  0.066403897  0.068278321            3 
  387000    1.0782972   -4.1692019    309.13033  0.066565531  0.068253331            2 
  388000    1.0971811   -4.1484031    310.33297  0.066652271  0.068227661            2 
  389000    1.0824667   -4.1890721    308.16817  0.066017175  0.068199987            4 
  390000     1.077758   -4.1407178    309.96355  0.066231528  0.068173705            2 
  391000    1.0789136    -4.155098     310.1635  0.066104752   0.06814517            3 
  392000    1.0996021   -4.1735746    311.00086  0.066114129  0.068115516            3 
  393000    1.1127482   -4.1348268     311.1615  0.065979961  0.068085997            2 
  394000     1.108353   -4.1826904    311.36725  0.065856018  0.068055666            2 
  395000    1.1003737   -4.1416861    313.04085  0.066042373  0.068025285            2 
  396000    1.0989905   -4.1330125    313.94704  0.066066297  0.067996119            2 
  397000    1.0928465   -4.1484543    315.12156  0.066146424  0.067964873            2 
  398000    1.1089804   -4.1541186    315.61204  0.066082923  0.067935525            2 
  399000    1.1005799   -4.1810735    315.93823  0.065985428  0.067906289            2 
  400000    1.0660656   -4.1348034    316.37697  0.065911869  0.067876009            3 
  401000    1.0902054    -4.199287     316.5892  0.065791605  0.067846118            3 
  402000    1.0923179   -4.1746856    317.82223  0.065883547  0.067816998            4 
  403000    1.0930702   -4.1250976    317.93953   0.06574432  0.067786121            3 
  404000    1.0731051    -4.154658    317.95042  0.065583833   0.06775369            4 
  405000    1.0629091   -4.1732211    318.70964  0.065578114  0.067721786            3 
  406000    1.0929518   -4.1389976    320.20986  0.065724519  0.067688216            3 
  407000    1.0728339   -4.1639493     320.8218  0.065688329  0.067655147            3 
  408000    1.0759136   -4.1388679    321.03806  0.065571499  0.067623271            2 
  409000    1.0718211   -4.1654263    321.23138  0.065450567  0.067591939            1 
  410000    1.1022069   -4.1666216    321.81182  0.065408906  0.067559679            2 
  411000     1.102904   -4.1533975    322.80144  0.065450414  0.067528449            3 
  412000    1.1002774   -4.1853532    322.30451  0.065191042  0.067495929            6 
  413000    1.0890054   -4.1632523    324.64875  0.065506204  0.067464995            3 
  414000    1.0819822   -4.1440398    326.72688  0.065766279  0.067434901            2 
  415000    1.0996133   -4.1705168    327.00757  0.065664172   0.06740639            2 
  416000    1.0705562   -4.1509669    326.95735  0.065496263  0.067377858            2 
  417000    1.0880492   -4.1430165    327.24518  0.065396719  0.067346785            5 
  418000    1.1187346    -4.189418    326.86157   0.06516379   0.06731648            2 
  419000     1.082642   -4.1550773    328.98829  0.065431244  0.067286063            3 
  420000    1.1055966   -4.1571571    328.69588  0.065217436   0.06725405            4 
  421000    1.1127665   -4.1690355    330.02413  0.065325441   0.06722155            2 
  422000    1.0905001   -4.1931883    329.49185   0.06506553  0.067189201            2 
  423000      1.08327   -4.1943948    329.03084  0.064820891   0.06715528            3 
  424000    1.0854324   -4.1362765    331.51659  0.065156562  0.067120987            2 
  425000    1.0896973   -4.1765021    330.01378  0.064708585  0.067086157            3 
  426000    1.0950744   -4.1950886    330.93782  0.064737444  0.067051779            2 
  427000    1.0505288   -4.1550751      333.044  0.064996877   0.06701632            2 
  428000    1.0889372   -4.1574831    333.02061  0.064840461  0.066981375            2 
  429000    1.0776492   -4.1697866    334.08315  0.064895716  0.066946358            2 
  430000    1.0695982   -4.1602928    335.15944   0.06495338  0.066912298            2 
  431000    1.0565583   -4.1816382    335.18256  0.064807146  0.066877289            2 
  432000    1.1090091   -4.1665003     335.0282  0.064627354    0.0668421            1 
  433000    1.0634742   -4.1730433    336.07144  0.064678875  0.066807169            3 
  434000    1.1048869   -4.1777483    335.75801  0.064469664  0.066773695            1 
  435000    1.0587282    -4.166034    338.71629  0.064888178   0.06673877            1 
  436000    1.0769356   -4.1998482    338.55248  0.064708042  0.066704212            2 
  437000    1.0914018   -4.1813216     337.6867   0.06439487  0.066667595            3 
  438000    1.0860619    -4.202104    339.00906   0.06449944  0.066632401            2 
  439000    1.0788918   -4.1841498    339.75979  0.064495024  0.066595489            4 
  440000    1.0773897   -4.1769467    339.13781  0.064230646  0.066557912            2 
  441000    1.0930276   -4.1797794    340.43229  0.064329609  0.066522036            3 
  442000    1.0925002    -4.177997     340.7046  0.064235408  0.066484579            1 
  443000     1.088086   -4.1545757    342.27361  0.064385555  0.066447913            2 
  444000    1.0833431   -4.1923006    341.89535  0.064169548  0.066410019            9 
  445000    1.0806389   -4.1806977    342.89017  0.064211642  0.066372572            2 
  446000    1.0850365   -4.1734661    342.84682   0.06405957  0.066335399            2 
  447000    1.0729313   -4.1752074     343.5967  0.064056059  0.066297876            2 
  448000    1.1001521   -4.1975988    345.83961  0.064330284  0.066260705            3 
  449000    1.0887678   -4.2091221    346.23394  0.064260197  0.066224847            2 
  450000    1.0867765    -4.178998    346.03437  0.064080438  0.066188632            2 
  451000     1.070434    -4.170613    347.06795  0.064129333   0.06615333            2 
  452000    1.0840547   -4.1889047    345.65018  0.063726065  0.066117666            1 
  453000    1.0708341   -4.1961133    348.12843  0.064041286  0.066081129            5 
  454000    1.0680677     -4.20924    348.46881  0.063962704  0.066044788            3 
  455000     1.063191   -4.1901327    348.68482  0.063861688  0.066008369            3 
  456000    1.0606612      -4.2017    349.80969  0.063927209  0.065972291            3 
  457000    1.0453828   -4.2336428    350.06232  0.063833392  0.065936187            4 
  458000    1.0674699   -4.2041714    350.48637  0.063771174  0.065900524            3 
  459000    1.0813425   -4.1853603    351.06746  0.063737737  0.065864471            3 
  460000    1.0549869   -4.2252388    351.40222  0.063659823  0.065828295            2 
  461000    1.0781382   -4.2309625    351.45711  0.063531655  0.065793786            3 
  462000    1.0597456   -4.1909653    353.80211   0.06381712  0.065759206            2 
  463000     1.058396   -4.1950081    355.90576  0.064057913  0.065726294            2 
  464000     1.066032   -4.1798266     355.0044  0.063757974  0.065693682            3 
  465000    1.0650304    -4.219889    355.63418  0.063733723  0.065660893            5 
  466000    1.0809238   -4.1882802    356.32547  0.063720578  0.065627741            3 
  467000    1.0665355   -4.1667848    358.37052  0.063949057  0.065593915            4 
  468000    1.0792107   -4.1609812    356.87581  0.063546263  0.065560719            4 
  469000    1.0675319   -4.2222968    356.76385  0.063390876  0.065525675            2 
  470000    1.0492248   -4.1989009    359.49318  0.063739926  0.065490478            4 
  471000    1.0513171   -4.2226473    357.46507  0.063245767  0.065454819            3 
  472000    1.0601872   -4.2242733    358.69794  0.063329438  0.065419063            3 
  473000    1.0584876   -4.1993131    359.56932   0.06334907  0.065382408            2 
  474000    1.0641241   -4.2203066    361.64526  0.063580391  0.065346835            4 
  475000    1.0522715   -4.1786542    361.25803  0.063378601  0.065309876            2 
  476000    1.0730668   -4.2032424    360.78245  0.063162193  0.065273256            1 
  477000    1.0587373   -4.2156308    361.97429  0.063237997  0.065237562            3 
  478000    1.0497736   -4.1801643    364.69314  0.063579696  0.065203729            2 
  479000    1.0670118   -4.1995359     363.9991  0.063326218  0.065169556            5 
  480000    1.0601064   -4.1977481    363.67615  0.063138221  0.065132833            2 
  481000    1.0452345   -4.2159539    363.43261  0.062964763  0.065096988            3 
  482000    1.0604389   -4.2147141    363.54598   0.06285373  0.065060638            1 
  483000    1.0808409   -4.2133751    365.53469  0.063066717   0.06502354            3 
  484000    1.0640828   -4.1964814    366.85748  0.063164166    0.0649865            2 
  485000    1.0580873   -4.1946882    366.69863  0.063006637  0.064948872            4 
  486000    1.0822992   -4.2290796    367.09284  0.062944588  0.064911565            3 
  487000     1.066759   -4.2125246    367.63041  0.062907325  0.064874799            2 
  488000    1.0580365   -4.2191378    367.83305  0.062813021   0.06483813            2 
  489000    1.0638303   -4.2195099    369.97906  0.063050282  0.064801586            3 
  490000    1.0596518   -4.2200442    369.75812  0.062884035  0.064765955            2 
  491000    1.0645608   -4.1959585    368.22218  0.062495278  0.064729257            3 
  492000    1.0496284   -4.2467087    369.65558  0.062611039  0.064691677            2 
  493000    1.0424545   -4.2215859    371.89348   0.06286232  0.064655832            3 
  494000    1.0516466   -4.2171351    371.64558  0.062693249  0.064618597            2 
  495000    1.0674452   -4.2239755    372.03864  0.062632768  0.064580701            3 
  496000    1.0503776   -4.2239318    372.03659  0.062506148   0.06454207            3 
  497000    1.0595853   -4.2273295     373.2267   0.06257993     0.064504            2 
  498000    1.0615645   -4.2250243    373.72721   0.06253802  0.064465764            2 
  499000    1.0838841   -4.2207595    372.55009  0.062216115  0.064427101            5 
  500000    1.0684141   -4.2360668    372.85754  0.062142923  0.064387428            3 
  501000    1.0700191   -4.2387201    373.41243  0.062111183  0.064347641            2 
  502000    1.0420746   -4.2342665    373.36464  0.061979521  0.064307992            2 
  503000    1.0520961   -4.2361599    376.33784   0.06234888  0.064267985            2 
  504000    1.0284623   -4.1920292    375.36513  0.062064339  0.064227405            6 
  505000    1.0429467   -4.2199588    376.31694  0.062098505  0.064187099            2 
  506000    1.0310575   -4.2424862    376.87003  0.062066869  0.064146544            2 
  507000    1.0727542   -4.2389605    376.93439  0.061955027  0.064106798            2 
  508000    1.0558241   -4.2305284    378.14153   0.06203109  0.064067251            2 
  509000    1.0611061   -4.2175152    377.63212  0.061825822  0.064026619            3 
  510000    1.0748025    -4.207803    378.87098  0.061907022  0.063987037            2 
  511000    1.0757793     -4.26634    377.61076  0.061580359   0.06394678            2 
  512000     1.056034   -4.2300235    380.66563  0.061957297  0.063906311            3 
  513000     1.032114   -4.2133602    380.79969  0.061858299  0.063867601            1 
  514000    1.0612539    -4.216654    382.64166  0.062036585  0.063830193            3 
  515000    1.0434194   -4.2205663    383.18099  0.062003396  0.063791219            2 
  516000    1.0622689   -4.2615715    383.05931  0.061863583   0.06375387            2 
  517000    1.0550649   -4.2374097    383.35438  0.061791487  0.063715767            4 
  518000    1.0503472   -4.2126323    385.07752  0.061949408  0.063677126            5 
  519000    1.0340752   -4.2399374    385.10072   0.06183377  0.063638763            4 
  520000    1.0379092   -4.2588218    384.31935   0.06158964    0.0636001            3 
  521000    1.0205744   -4.2403067    386.86755  0.061879007  0.063562232            5 
  522000    1.0694175   -4.2358921    385.13969  0.061484625  0.063525798            3 
  523000    1.0532225   -4.2264318    387.25363  0.061703893  0.063488236            3 
  524000    1.0536075   -4.2484576    387.97527  0.061700902  0.063450474            6 
  525000    1.0356033   -4.2336842    387.86136  0.061565294  0.063412656            2 
  526000    1.0376484   -4.2466665    386.92953  0.061300623  0.063374204            4 
  527000    1.0420734   -4.2425118    390.05538  0.061678586  0.063336265            3 
  528000    1.0418608   -4.1878359    390.35782  0.061609505  0.063298835            3 
  529000    1.0477632   -4.2200761    390.84865  0.061570361  0.063261022            2 
  530000     1.019571    -4.243421    388.91027  0.061149413  0.063224036            2 
  531000    1.0340555   -4.2434666     390.3936  0.061267043  0.063186518            2 
  532000    1.0409934   -4.2336217    391.25717  0.061287151  0.063149117            5 
  533000    1.0299623   -4.2723682    391.44898  0.061202154  0.063110983            2 
  534000    1.0538656   -4.2489776    392.54592  0.061258726  0.063072224            3 
  535000    1.0353166   -4.2585682    393.89278  0.061354015  0.063034183            5 
  536000    1.0466247   -4.2492758     393.2978  0.061147046  0.062996382            3 
  537000    1.0349418   -4.2205536    393.60666  0.061081108  0.062959336            4 
  538000     1.015203   -4.2590577    394.24194  0.061065975  0.062923017            4 
  539000    1.0541753   -4.2661165    397.25023  0.061417784  0.062886435            3 
  540000    1.0520488   -4.2124435    398.36892  0.061476686  0.062850545            1 
  541000    1.0392873   -4.2702314    397.27873  0.061195121  0.062815095            1 
  542000    1.0410469   -4.2149284    399.18794   0.06137576  0.062778667            3 
  543000    1.0161554     -4.23964    399.57355  0.061321907  0.062743663            3 
  544000    1.0368874   -4.2660203    398.02631  0.060972167  0.062707011            2 
  545000     1.046483   -4.2728036    398.15803  0.060880433  0.062670748            4 
  546000    1.0174143   -4.2357097    398.99099   0.06089606  0.062633748            5 
  547000    1.0353659   -4.2636732    400.22565   0.06097283  0.062596418            3 
  548000    1.0256395   -4.2910497    399.58298  0.060763835  0.062558103            6 
  549000    1.0313727   -4.2644916    400.46934  0.060787695  0.062520578            3 
  550000    1.0502496   -4.2377488    401.79519  0.060878059  0.062482607            2 
  551000     1.030686   -4.2521039    400.73601  0.060607382  0.062445153            2 
  552000    1.0343286   -4.2707457    402.82169  0.060812453  0.062408039            3 
  553000    1.0064174   -4.2912455    401.48868  0.060501609  0.062370398            3 
  554000    1.0292955   -4.2637896    402.58587  0.060557442  0.062333229            4 
  555000    1.0395447   -4.2684319    403.49978  0.060585552  0.062296111            3 
  556000    1.0180571   -4.2492971    405.90297  0.060836776  0.062259128            4 
  557000    1.0318925   -4.2709162    403.47394  0.060364145  0.062222406            3 
  558000    1.0412541   -4.2697844     405.0524  0.060491697   0.06218528            4 
  559000    1.0402955   -4.2288821    405.73529  0.060485285  0.062147496            1 
  560000    1.0476584   -4.2649091    406.18061  0.060443543  0.062109749            2 
  561000    1.0258599   -4.2680041    405.86778  0.060289332  0.062071268            2 
  562000    1.0078316   -4.2581104    408.61109  0.060588833  0.062033384            4 
  563000    1.0270428   -4.2462473    407.65539  0.060339755   0.06199559            2 
  564000    1.0271121   -4.2534698    409.47643  0.060501837  0.061958184            1 
  565000    1.0195792   -4.2556113    408.83093  0.060299547  0.061921634            4 
  566000    1.0411566    -4.292921    407.80787  0.060042384  0.061883242            3 
  567000    1.0228499    -4.285227    410.33708  0.060308213  0.061846754            3 
  568000    1.0215366    -4.248033    410.76783  0.060265233  0.061809325            4 
  569000    1.0210302   -4.2730237    412.10495  0.060355148   0.06177394            4 
  570000    1.0183009   -4.2435641    413.56743  0.060463075    0.0617389            2 
  571000     1.012914   -4.2492784    413.20395  0.060304138  0.061703907            2 
  572000    1.0126663   -4.2875057    412.96373  0.060163714  0.061668421            4 
  573000    1.0037493   -4.2798542    413.38387  0.060119818  0.061633028            3 
  574000    1.0126263   -4.2768216    413.07122  0.059969689   0.06159629            2 
  575000    1.0338113   -4.2868282    415.12266  0.060162704  0.061560341            5 
  576000    1.0437348   -4.2457969    415.04181  0.060046558  0.061524142            2 
  577000    1.0282748   -4.2941808    414.61921  0.059881457  0.061488218            3 
  578000    1.0242195   -4.2631524     416.1729   0.06000186   0.06145244            5 
  579000   0.99747581   -4.2756488     417.3452  0.060066954  0.061416726            4 
  580000    1.0255315   -4.2520385    418.74293  0.060164214   0.06138173            3 
  581000    1.0242438   -4.2710634    419.37535   0.06015137  0.061346498            3 
  582000    1.0362801   -4.2692522    417.99316  0.059850108  0.061312111            3 
  583000    1.0255437   -4.2584592    419.17046  0.059915732  0.061277531            2 
  584000    1.0413595   -4.2582056    421.08419  0.060086214  0.061243781            3 
  585000    1.0128117   -4.2847328    420.22906   0.05986169  0.061209751            1 
  586000   0.99528008   -4.2738737    422.18467  0.060037638  0.061176197            2 
  587000    1.0344435   -4.2680317    422.24663  0.059944155  0.061143166            2 
  588000    1.0147785   -4.2865918    422.90152  0.059935022  0.061110634            4 
  589000    1.0228523   -4.2744791    422.53631  0.059781594  0.061077637            4 
  590000    1.0222757    -4.261122    423.93509  0.059877838  0.061044226            2 
  591000    1.0000128   -4.2801622    423.88608  0.059769611  0.061010359            3 
  592000    1.0390766    -4.332761    423.03507  0.059548855  0.060976197            2 
  593000    1.0289977   -4.2656066    424.86658  0.059705815  0.060942378            3 
  594000    1.0050573   -4.2966423    426.56919  0.059844162  0.060909012            1 
  595000     1.005383   -4.3064814    427.35011  0.059852957  0.060876399            5 
  596000    1.0047236   -4.2876287    426.80477  0.059676282  0.060843305            4 
  597000    1.0060684    -4.306645    427.17423  0.059627894  0.060810468            1 
  598000    1.0183207   -4.3106678    428.31153  0.059686669  0.060777658            3 
  599000    1.0214514   -4.2746636    429.68384  0.059777941  0.060744511            3 
  600000     1.001873   -4.3080943    428.27324  0.059482394  0.060711336            3 
  601000    1.0052766   -4.2666943    430.34824  0.059671137  0.060679577            3 
  602000     1.012927   -4.3029194    431.19584  0.059689347  0.060646985            1 
  603000   0.99255502   -4.2763005    431.82481  0.059677281  0.060615492            3 
  604000    1.0088044     -4.29761    430.31371  0.059369993  0.060583309            5 
  605000    1.0335797   -4.2868734    431.17664  0.059390722  0.060550996            1 
  606000    1.0090467   -4.3120977    433.69385  0.059638868  0.060519094            3 
  607000    1.0113758   -4.3011621    432.55285  0.059383972  0.060486817            7 
  608000    1.0174308   -4.2922446    434.75426  0.059588029  0.060454741            2 
  609000    1.0053837   -4.3136292    433.63911   0.05933759   0.06042402            5 
  610000    1.0008792   -4.3052027    435.89855  0.059548982  0.060392686            3 
  611000   0.98327465   -4.3000726    436.85106  0.059581433  0.060362889            2 
  612000    1.0117277   -4.3171895    435.61132  0.059315266  0.060332409            3 
  613000    1.0331488   -4.3218019    437.14051  0.059426388  0.060302208            3 
  614000    1.0397045     -4.28341    438.26448   0.05948215  0.060272995            7 
  615000    1.0162248   -4.3083709     439.6429  0.059572209  0.060243569            3 
  616000    1.0021528   -4.3194802     439.3834  0.059440396   0.06021532            2 
  617000    1.0390542   -4.3156585    440.71575  0.059524007  0.060186845            2 
  618000   0.98408559   -4.3212434    441.32384  0.059509687  0.060157785            2 
  619000    1.0284863   -4.3270535    439.75102  0.059201807  0.060129031            2 
  620000    1.0110859   -4.2964884    441.43799  0.059333063  0.060099189            4 
  621000   0.99950222    -4.309678    442.57972   0.05939073  0.060069675            2 
  622000    1.0161867   -4.3288122    442.32765  0.059261475  0.060040578            3 
  623000    1.0208279   -4.2955934    443.06565  0.059265068  0.060010972            3 
  624000    1.0025526   -4.3296531    441.59897  0.058974221   0.05998205            5 
  625000   0.99994363   -4.2935229    444.41618  0.059255491  0.059952625            2 
  626000    1.0046659   -4.3243601    443.80423  0.059079371  0.059923137            1 
  627000    1.0077174   -4.3137757    445.26832  0.059179734  0.059893412            4 
  628000   0.99738879   -4.3071574    444.86578  0.059032084  0.059863813            2 
  629000    1.0161632   -4.3232615    445.02684  0.058959571  0.059834268            5 
  630000    1.0201004   -4.3129384    446.50406  0.059061383  0.059804354            2 
  631000    1.0004003   -4.3532866    445.27287  0.058805186  0.059775036            7 
  632000    1.0176618   -4.3080142    447.85783  0.059052983  0.059745837            1 
  633000    1.0092241   -4.3317953    447.40634  0.058900255  0.059716346            3 
  634000    0.9937933   -4.2992445    448.13718  0.058903415   0.05968659            1 
  635000    1.0018708   -4.3356473     448.4181   0.05884752  0.059657173            5 
  636000   0.99219884   -4.3152245    449.97348  0.058958789  0.059627286            2 
  637000   0.99952329   -4.3135069     449.4542  0.058798299  0.059597324            4 
  638000   0.99595251   -4.3071739    452.58691  0.059115323  0.059567681            3 
  639000   0.99604117    -4.306746    450.15465  0.058705614  0.059538467            7 
  640000    1.0094428   -4.3076484    451.60358  0.058802549  0.059509528            3 
  641000   0.99617938   -4.3066752    452.02407   0.05876548  0.059481235            4 
  642000    1.0016583   -4.3198323    452.47214  0.058732106  0.059452312            2 
  643000   0.99871536   -4.3068652    452.27274  0.058614922  0.059423621            2 
  644000   0.99125631   -4.2993931    454.24894  0.058779624  0.059394408            5 
  645000   0.99592805   -4.2728131    456.03705  0.058919515  0.059365108            1 
  646000     1.001638   -4.3080224    453.87358  0.058549223  0.059336295            4 
  647000   0.97925613    -4.331989    452.77863  0.058317701  0.059306439            5 
  648000    1.0077994   -4.3288431    457.05608  0.058777788  0.059276847            5 
  649000    1.0115816   -4.2828858    457.74724  0.058775969  0.059248495            5 
  650000   0.99829738   -4.3194914    455.68677  0.058421381  0.059219097            2 
  651000   0.98445447   -4.3487694    457.64116  0.058581817  0.059190124            2 
  652000   0.98255579   -4.3575716    458.09639  0.058550152  0.059161297            4 
  653000   0.98275634   -4.3179599    458.99271  0.058574873  0.059133359            1 
  654000   0.99113592   -4.3311863    462.65265  0.058951663   0.05910626            3 
  655000   0.99763464   -4.3370042    460.45955   0.05858264  0.059078755            4 
  656000   0.97783838   -4.3363724    460.86804  0.058545229   0.05905101            4 
  657000   0.98541403   -4.3177875    462.26155  0.058632871  0.059023244            4 
  658000   0.98220495   -4.3086798    463.90314  0.058751665  0.058995888            1 
  659000   0.98527008   -4.3419261    462.09622  0.058434019  0.058968826            4 
  660000   0.98725043   -4.3342007    463.23833  0.058489688  0.058941722            4 
  661000   0.99169908   -4.3201708    463.22734  0.058399816  0.058914873            2 
  662000   0.99202165   -4.3022022    464.97872  0.058532064  0.058887239            3 
  663000   0.97852833   -4.3381465    465.03683  0.058451085   0.05886006            5 
  664000   0.98150591   -4.3303814    464.87997  0.058343369   0.05883275            3 
  665000    1.0070636   -4.3459116     465.1707  0.058292068  0.058805395            2 
  666000   0.99073046   -4.3371933    466.50534  0.058371539  0.058777432            4 
  667000   0.99463725   -4.3626757    465.72626   0.05818669   0.05874989            3 
  668000   0.98382658   -4.3291436    466.97924  0.058255893  0.058722791            3 
  669000   0.98275309   -4.3296348    467.92328  0.058286408  0.058694737            5 
  670000   0.97666561   -4.3684879    468.13113  0.058225265   0.05866658            3 
  671000   0.99319593   -4.3743335    467.44902  0.058053778  0.058637867            6 
  672000   0.98226752   -4.3355455    466.60985  0.057863324  0.058609217            2 
  673000    0.9836603   -4.3489564    469.38211  0.058120618  0.058581453            3 
  674000   0.99557244    -4.344214    469.76662  0.058081926  0.058553898            6 
  675000   0.98124139   -4.3307762    471.26352  0.058180681  0.058526923            3 
  676000   0.98928748   -4.3403189    471.46166  0.058119041  0.058498822            4 
  677000    1.0095958   -4.3312696    471.98886  0.058098087  0.058471217            2 
  678000     0.974034   -4.3316692    472.00078  0.058013862   0.05844348            5 
  679000   0.97869318   -4.3524312    472.32953  0.057968769  0.058414962            3 
  680000   0.96842615   -4.3436942    472.12251   0.05785815  0.058387073            7 
  681000   0.98291048   -4.3285324    472.69322  0.057843028   0.05835942            2 
  682000     0.994952   -4.3336394    473.26989  0.057828677  0.058331002            3 
  683000   0.98398283   -4.3626399    474.00289  0.057833442  0.058302708            2 
  684000   0.96234009   -4.3608218    473.18588  0.057649352  0.058274088            4 
  685000    0.9713161   -4.3741735    474.60951  0.057738383   0.05824652            3 
  686000   0.98083208   -4.3603283    475.73115   0.05779047  0.058218519            2 
  687000   0.97281823   -4.3565499     476.9063  0.057848896  0.058190375            2 
  688000   0.95814917   -4.3288517       476.33   0.05769501  0.058162723            1 
  689000    1.0032793   -4.3548939    475.53865   0.05751556  0.058135145            6 
  690000   0.95414636   -4.3725354    475.35784  0.057410367  0.058107995            4 
  691000   0.98384824   -4.3466343    477.70531  0.057610385  0.058080742            5 
  692000   0.97925849   -4.3856582    478.51747  0.057624936  0.058053487            3 
  693000   0.97074568   -4.3447735    478.58352  0.057549725  0.058025653            2 
  694000   0.97583812   -4.3501463    479.78052  0.057610533   0.05799828            2 
  695000   0.96827227   -4.3559516     479.4428  0.057487147  0.057970552            3 
  696000   0.98553863   -4.3765476    478.99324  0.057350723  0.057942886            3 
  697000    0.9595093   -4.3625318    479.53545  0.057333267  0.057915289            4 
  698000   0.99464486   -4.3459897    481.61655  0.057499588  0.057888296            3 
  699000   0.97433913   -4.3709794    481.68269  0.057425213  0.057861303            4 
  700000   0.99424772   -4.3292437    484.79587  0.057713794  0.057834812            2 
  701000   0.95683451   -4.3428966    483.88466  0.057523141  0.057808013            3 
  702000   0.98299688   -4.3530701    481.91866  0.057207818  0.057780714           11 
  703000   0.98163092   -4.3450682    485.98566  0.057608541  0.057753502            4 
  704000   0.96505966   -4.3562611     483.1066  0.057185913  0.057727241            2 
  705000   0.96096568   -4.3584646    486.57642  0.057514943  0.057700637            3 
  706000   0.98197871   -4.3456541    485.98634  0.057363826   0.05767435            3 
  707000    1.0050939   -4.3517858    487.34133  0.057442401  0.057648178            5 
  708000   0.95158463   -4.3711063    490.53129  0.057736733    0.0576222            3 
  709000   0.96630727   -4.3571387    488.30251  0.057393337   0.05759684            3 
  710000    1.0002806   -4.3542295    488.31292  0.057313723  0.057570868            2 
  711000   0.98310731   -4.3552787    489.38107  0.057358306  0.057545805            2 
  712000   0.98104416   -4.3708667    488.27267  0.057148018  0.057519607            3 
  713000   0.97609795   -4.3760331    489.08377  0.057162665  0.057492452            3 
  714000   0.95321638   -4.3788103    488.00739  0.056956978  0.057465326            3 
  715000   0.95742076   -4.3267327      491.667  0.057303846    0.0574385            2 
  716000   0.98503983   -4.3514932     490.4403  0.057081041  0.057411719            4 
  717000     0.993239   -4.3759282    489.50684  0.056892938  0.057384132            3 
  718000   0.96797631   -4.3717403    491.25318  0.057016386  0.057357088            8 
  719000   0.96841242   -4.3640186     492.4105  0.057071222  0.057329636            1 
  720000   0.98033517   -4.3698989    490.88418  0.056815298  0.057301869            2 
  721000   0.94286687   -4.3928375     491.3373   0.05678887   0.05727358            9 
  722000   0.94630697   -4.3868518    491.16608  0.056690452  0.057244995            5 
  723000   0.99049142   -4.3491411    493.03424  0.056827367  0.057216359            3 
  724000   0.98056917   -4.3416126    494.45312  0.056912192  0.057188106            7 
  725000   0.98284045   -4.4124467    492.16881  0.056571127  0.057159626            3 
  726000   0.97416911   -4.3750698    491.83398  0.056454772  0.057131768            4 
  727000   0.98638992    -4.379272    493.54448  0.056573186  0.057103726            3 
  728000   0.96315486   -4.3408905    494.24126  0.056575236  0.057076121            3 
  729000   0.96833233   -4.3974261    496.09232  0.056709227  0.057048694            2 
  730000   0.94867945   -4.3699772    495.75957  0.056593558  0.057021209            6 
  731000   0.96059751   -4.3813034    496.98337  0.056655651  0.056993542            4 
  732000   0.94379126   -4.3855927    496.55468  0.056529449   0.05696604            3 
  733000   0.96638418   -4.3510296    498.30977  0.056651861  0.056938352            2 
  734000   0.95425076   -4.4112702    494.28406  0.056117627  0.056910809            3 
  735000   0.93210266   -4.3886829     497.4365  0.056398696  0.056882205            3 
  736000     0.957988   -4.3382778    498.43358  0.056434962  0.056854071            3 
  737000   0.98408078   -4.3805099    497.30176  0.056230411   0.05682539            6 
  738000   0.93980966   -4.3687658    498.22097  0.056258014  0.056796754            3 
  739000   0.96537008   -4.3731824    500.69729  0.056461129  0.056768733            5 
  740000   0.95822779   -4.3419134    501.61193  0.056487829  0.056740847            2 
  741000   0.96372213   -4.3689204    500.56811  0.056294209  0.056712683            3 
  742000    0.9521296   -4.3710454    501.10849   0.05627903  0.056684643            2 
  743000    0.9775173   -4.3741501    500.45848  0.056130381  0.056656622            3 
  744000    0.9525094   -4.4141312    499.52975  0.055950912  0.056628357            3 
  745000   0.95635065   -4.4208209     500.0966  0.055939217  0.056599782            3 
  746000    0.9617205   -4.4141929    501.89066   0.05606464  0.056571572            6 
  747000   0.95809235   -4.4069781     500.6342  0.055849419  0.056542533            4 
  748000   0.95183367   -4.3983431    503.33324   0.05607545   0.05651347            6 
  749000   0.96452533   -4.3791122    503.02999  0.055966844  0.056484797            3 
  750000   0.95704506   -4.3990422    502.90281   0.05587809  0.056455204            4 
  751000     0.939668   -4.3930637    501.43116  0.055640386  0.056426089            2 
  752000   0.96854794   -4.4315658    502.23825  0.055655834  0.056396947            6 
  753000    0.9666634    -4.399335    504.96504  0.055883692  0.056368336            4 
  754000   0.98100649   -4.3722996    507.12814  0.056048645  0.056339993            2 
  755000   0.94674795   -4.4211381     503.7093  0.055597053   0.05631151            3 
  756000   0.96800817   -4.4053375     505.6769  0.055740399  0.056282954            5 
  757000   0.97197845   -4.3845198    505.90666  0.055692059  0.056254548            2 
  758000   0.95755099   -4.4105522    506.92407  0.055730439  0.056226586            2 
  759000   0.92320623   -4.3951091    509.56559  0.055947034  0.056198754            9 
  760000   0.96087848   -4.3666032    507.38796  0.055634644  0.056171023            5 
  761000   0.92957152   -4.4131716    507.94951   0.05562303  0.056142981            2 
  762000   0.94565052   -4.3993653     507.8402  0.055538079  0.056115091            3 
  763000   0.95661287   -4.4226963    508.60695  0.055549034  0.056087154            4 
  764000   0.96999158   -4.4225727    509.65534  0.055590678  0.056059397            3 
  765000   0.95583291   -4.4116286    509.73758  0.055526969  0.056032175            3 
  766000   0.95622716   -4.4235179    510.26111  0.055511435   0.05600424            8 
  767000   0.94418675   -4.3967033    511.96166  0.055623823  0.055976729            3 
  768000   0.96913033   -4.3921515    511.06443   0.05545404   0.05594902            3 
  769000   0.95492818   -4.4300475    512.85206  0.055575646  0.055921628            6 
  770000   0.96358181   -4.3762665    513.69758  0.055594977  0.055894344            5 
  771000   0.94868336   -4.3829648    513.41343  0.055492156  0.055867185            4 
  772000   0.92888365   -4.3978819    514.03152  0.055486994  0.055839786            3 
  773000   0.93709634   -4.3931332    516.44573  0.055675477  0.055812662            3 
  774000   0.92556215   -4.4316372    516.29845  0.055587688  0.055784951            3 
  775000   0.92965277   -4.4096717    518.93279  0.055799225  0.055757667            4 
  776000   0.97140096    -4.391308    516.24185  0.055438343  0.055730552            6 
  777000   0.96858146    -4.401869    517.34245  0.055485034  0.055703398            3 
  778000    0.9375862   -4.4219437    515.30076  0.055195026   0.05567607            2 
  779000    0.9459954   -4.4129195    516.02685  0.055201845   0.05564793            3 
  780000   0.94267329   -4.4229738    515.11666  0.055033831  0.055619034            4 
  781000   0.93417029    -4.410457    515.82842   0.05503931  0.055590766            4 
  782000   0.96101601   -4.3900444    517.31633  0.055127486  0.055562618            4 
  783000   0.93643238   -4.4142148    516.56353  0.054976962  0.055533692            3 
  784000   0.93088362   -4.4290894    517.14708  0.054968864  0.055505089            3 
  785000   0.95852853   -4.4376124     516.3257  0.054811646  0.055475968            2 
  786000   0.91511527   -4.4328917    517.44503  0.054860584  0.055447166            2 
  787000   0.95903355   -4.4241648    520.22288  0.055085015   0.05541908            7 
  788000    0.9351571   -4.4138282    519.06928  0.054893113  0.055390871            2 
  789000   0.93878653   -4.4044333    519.41668  0.054860232  0.055362762            9 
  790000   0.94146041   -4.4496945    519.15453  0.054763136  0.055334256           12 
  791000   0.92956399   -4.4168692    523.40069  0.055141245  0.055305927            3 
  792000   0.95681705   -4.4202081    519.54112  0.054665522  0.055277334            3 
  793000   0.93226277   -4.4121691    521.73019  0.054826628  0.055248471            4 
  794000   0.94317378   -4.4207475    521.73843  0.054758441  0.055219346            8 
  795000   0.94342858   -4.4637188    519.26815  0.054430624  0.055190422            4 
  796000   0.92400093   -4.4326592    520.77478  0.054519973  0.055161264            3 
  797000   0.92379263   -4.4367466    521.62351  0.054540308  0.055132734            3 
  798000    0.9040292   -4.4366687    522.78933  0.054593706  0.055103994            4 
  799000   0.94128649   -4.4268142    524.12832  0.054665032  0.055075825            3 
  800000   0.93104837    -4.397445    526.30762  0.054823711  0.055047836            2 
  801000   0.92804198   -4.4142892    524.39746   0.05455654   0.05501943            5 
  802000    0.9308439   -4.4067072    525.84935  0.054639376  0.054991984            5 
  803000   0.92787658   -4.4074106    524.14625  0.054394588  0.054964106            3 
  804000   0.94192574   -4.4153991    525.97078  0.054516042  0.054936674            5 
  805000   0.93852024   -4.4495921    526.53057   0.05450627  0.054909291            3 
  806000   0.94040804   -4.4292499    529.74307  0.054770789  0.054881969            3 
  807000    0.9213017   -4.4409411    529.16792  0.054643528  0.054855148            3 
  808000   0.93124466   -4.4301741    528.47458  0.054504391  0.054828332            2 
  809000   0.94602112   -4.4374711    528.85753  0.054476466  0.054801373            2 
  810000   0.90979362   -4.4207941    530.73273  0.054602133   0.05477435            3 
  811000   0.91765923   -4.4065835    533.21118  0.054789476  0.054747749            1 
  812000   0.94388329   -4.4354907    532.31665  0.054630198  0.054721374            3 
  813000    0.9371375   -4.4175995    532.18507  0.054549515  0.054695115            4 
  814000   0.93241654   -4.4657817    531.89353  0.054452655  0.054669077            4 
  815000   0.93771294   -4.4730896    531.13191  0.054307966  0.054643326            3 
  816000   0.93275488   -4.4387627    533.50124  0.054483378  0.054616738            2 
  817000    0.9347335   -4.4580423    532.91706  0.054357105  0.054590398            5 
  818000   0.94862753   -4.4349159      535.202  0.054523431  0.054564269            3 
  819000   0.91667312   -4.4275753    537.14761  0.054654824  0.054538396            1 
  820000   0.91165795     -4.43048     535.7546  0.054446606  0.054512498            5 
  821000   0.90451171   -4.4338572    535.16152  0.054320089  0.054485692            4 
  822000   0.95004669   -4.4364419    534.02258  0.054138542   0.05445876            4 
  823000   0.91623841   -4.4164011    537.64573  0.054439624  0.054432005            3 
  824000   0.90923776   -4.4127723     537.2715   0.05433571  0.054405371            2 
  825000   0.91816552   -4.4390586    536.61419  0.054203453  0.054378726            2 
  826000   0.90835324   -4.4357219    538.92176  0.054370638  0.054352056            2 
  827000   0.93888413   -4.4117377    538.63232  0.054275728  0.054325555            2 
  828000   0.91077673   -4.4285454    537.16786  0.054062788  0.054298237            3 
  829000     0.910211   -4.4374356    534.91513  0.053771123   0.05427071            3 
  830000   0.92085211   -4.4268081    536.48164  0.053863618  0.054242913            4 
  831000   0.91967802   -4.4435051    536.74424  0.053825135  0.054215355            5 
  832000   0.92785555   -4.4497311    537.01725  0.053787785  0.054187718            4 
  833000   0.92701712   -4.4482905    537.26827  0.053748327  0.054159775            4 
  834000   0.92888471    -4.477326    534.56142  0.053413412  0.054131416            5 
  835000   0.92609748   -4.4591459    537.45678  0.053638401  0.054103187            3 
  836000   0.90910808   -4.4248082    537.30921  0.053559531  0.054075017            2 
  837000   0.92470822    -4.452226    538.33945  0.053598113  0.054046252            3 
  838000   0.92611305   -4.4691835    537.95495  0.053495918  0.054017295            3 
  839000     0.915908   -4.4584403     539.2359  0.053559386  0.053988404            4 
  840000   0.91946689   -4.4469327    538.81859  0.053454225   0.05395964            3 
  841000   0.93118915   -4.5015162    538.68241  0.053377171   0.05393068            2 
  842000   0.90636661   -4.4548281    538.18743   0.05326479  0.053901939            4 
  843000   0.91280545   -4.4544209    538.98946  0.053280888  0.053873034            3 
  844000   0.93857379    -4.461874    539.89603  0.053307269  0.053844174            7 
  845000   0.90323979    -4.462904    540.97061  0.053350159  0.053815543           12 
  846000   0.91178699   -4.4844267    538.75009  0.053068369  0.053786832            4 
  847000   0.90065844    -4.443955    543.41929  0.053465102  0.053758023            3 
  848000   0.91639109    -4.459681    542.13586  0.053275929  0.053729397            3 
  849000    0.8913661   -4.4500669     541.9002  0.053190047  0.053700416            4 
  850000   0.91584022   -4.5011408    539.66249  0.052908087  0.053671042            4 
  851000   0.90887777   -4.4481831    544.44555  0.053314292  0.053641788            5 
  852000   0.89014777   -4.4344488    543.51211  0.053160418  0.053612796            6 
  853000   0.91134287   -4.4640883    546.44634  0.053384754  0.053584492            2 
  854000    0.9150619   -4.4427903    546.79499  0.053356264  0.053557242            3 
  855000    0.8752171   -4.4613244    545.93862  0.053210392  0.053529357            3 
  856000   0.91660603   -4.4389038    544.85559  0.053042795  0.053501367            7 
  857000   0.92226037   -4.4551456    547.24312  0.053213061  0.053473988            6 
  858000   0.89499151   -4.4516791    546.20956  0.053050657   0.05344611            2 
  859000   0.92109545    -4.446901    548.11512   0.05317376  0.053418146            2 
  860000   0.91003513   -4.4897219    546.65769  0.052970706  0.053390312            3 
  861000   0.91756023   -4.4857679    547.47485  0.052988275  0.053362742            4 
  862000    0.9050709   -4.4831352    547.16992  0.052897324  0.053334453            6 
  863000    0.9293952    -4.474189    549.96876  0.053106292  0.053306492            2 
  864000    0.9072084   -4.4768426    547.22204  0.052779903  0.053278542            4 
  865000   0.92002409   -4.4599641    549.07518  0.052897416  0.053250279            3 
  866000   0.90654988   -4.4787318    551.12329  0.053033419  0.053222974            2 
  867000   0.92372762   -4.4707295    550.92559  0.052953248  0.053195429            5 
  868000   0.90360314   -4.4603922     548.6266  0.052671525  0.053168076            7 
  869000    0.9193511   -4.4686696    549.84091   0.05272736  0.053140172            2 
  870000   0.91550386   -4.4761833    552.21341  0.052894005   0.05311236            4 
  871000    0.9161156   -4.4516612    551.36609  0.052752209  0.053084167            4 
  872000   0.90418688   -4.5066033    550.76251  0.052634031  0.053056013            5 
  873000   0.90548814   -4.4806102    551.21296  0.052616739  0.053027535            3 
  874000   0.91701874   -4.4630525    551.39446  0.052573843   0.05299908            3 
  875000   0.89891542   -4.4911721    551.70688  0.052543512  0.052970431            4 
  876000   0.90551996   -4.4955652     550.5593  0.052374363  0.052941846            4 
  877000   0.90653346   -4.4671507    552.67865  0.052516025  0.052913067            6 
  878000   0.89422086   -4.4754817    552.10825  0.052402073  0.052884797            5 
  879000    0.9064056   -4.4656208    552.90107  0.052417621  0.052856174            2 
  880000    0.9046156   -4.4848819    553.16183  0.052382749  0.052827788            3 
  881000   0.90326621   -4.4654258    554.35608  0.052436254  0.052799453            4 
  882000   0.89673176   -4.4974832    554.58535  0.052398464  0.052771162            7 
  883000   0.86754078   -4.4816332    554.86615  0.052365624  0.052742527            4 
  884000   0.87656292   -4.4750061    554.65616  0.052286591  0.052714131            3 
  885000   0.88846517   -4.4970197    554.95323  0.052255483  0.052685768            3 
  886000   0.88275878   -4.5173861    555.79176  0.052275373  0.052657666            5 
  887000   0.89315256   -4.4838477    555.33313   0.05217335  0.052629532            3 
  888000   0.89879935   -4.4777046    557.93874  0.052359116  0.052601511            2 
  889000   0.88582567    -4.511148    556.86908  0.052199951  0.052573585            4 
  890000   0.87391328   -4.4768039     557.7844  0.052227003  0.052545459            3 
  891000   0.91040706   -4.4741356    557.87401  0.052176768   0.05251724            7 
  892000   0.89272914   -4.4613312    558.30155  0.052158217  0.052488795            3 
  893000   0.89032944   -4.4920828    557.54952   0.05202963  0.052460782            4 
  894000   0.91198987   -4.4840249    555.96649  0.051823871  0.052432402            5 
  895000   0.89599929    -4.505667    556.45484  0.051811438  0.052403654            4 
  896000   0.89632457   -4.4785379     559.7679  0.052061747  0.052375245            2 
  897000   0.87680774   -4.4802223    560.30827  0.052053908  0.052346881            8 
  898000   0.90195415   -4.4918381     559.3901  0.051910736  0.052318183            7 
  899000   0.88971562   -4.4918334    561.40575  0.052039835  0.052289276            3 
  900000   0.89151682   -4.5305875    558.75803  0.051736855  0.052260775            5 
  901000   0.89902744   -4.4914301    559.62822  0.051759917  0.052231985            2 
  902000   0.88946902   -4.5119139    558.37611  0.051586854  0.052203183            9 
  903000   0.90786448   -4.5047706    560.89415  0.051762103  0.052174425            4 
  904000   0.90014275   -4.5055693    561.80878  0.051789157  0.052145908            3 
  905000   0.89057632    -4.517717    562.40233  0.051786586  0.052117904            6 
  906000   0.89915969   -4.4900302     564.1425  0.051889487  0.052090012            6 
  907000   0.88389236   -4.5037534    564.63827  0.051877827  0.052062146           11 
  908000   0.90605028   -4.4773964    566.42935  0.051985073   0.05203478            2 
  909000   0.88044003   -4.4716092    565.89435  0.051878837  0.052007326            4 
  910000   0.88207706   -4.5189822    564.84956   0.05172615  0.051980171            3 
  911000   0.87047987    -4.502478    564.70403  0.051656058  0.051952103            3 
  912000   0.88107161   -4.5155329     564.6613  0.051595514  0.051924319            5 
  913000   0.90476442   -4.4966291    565.01072  0.051570895  0.051896275            5 
  914000   0.89390532   -4.5262613    564.44313  0.051462721  0.051868354           10 
  915000   0.89783052   -4.5053989    563.38084  0.051309731  0.051840192            4 
  916000   0.88714619   -4.5324171    568.43501   0.05171352  0.051812518            5 
  917000   0.87603105   -4.5178389    565.77828  0.051415692  0.051784647            5 
  918000   0.87463254   -4.4969162    567.84227  0.051547047  0.051756578            7 
  919000   0.87498909   -4.5074428    566.31475  0.051352444  0.051728901            4 
  920000   0.89683052   -4.4956177    568.79965  0.051521708   0.05170097            3 
  921000   0.87150371   -4.5172898    567.59737  0.051356983  0.051673138            3 
  922000   0.88822619    -4.518785    570.45431    0.0515595  0.051645791            9 
  923000   0.88895709   -4.5095495    568.90432  0.051363698  0.051618451           12 
  924000   0.87853127   -4.5304591    568.44827   0.05126698  0.051590432            8 
  925000    0.8780696   -4.5499118     567.6574  0.051140306  0.051562416            4 
  926000   0.89430401   -4.5279392    571.44061  0.051425541  0.051534743            2 
  927000   0.87796677   -4.5123472    570.98352  0.051328975  0.051506824            2 
  928000    0.8778643   -4.5552427     568.0496  0.051010201  0.051479516            3 
  929000   0.88756352   -4.5115425    570.64116  0.051187761  0.051451903            6 
  930000   0.88719803   -4.5381443    571.56711  0.051215691  0.051424037            1 
  931000   0.88534684   -4.5447604    569.72339  0.050995649   0.05139665            4 
  932000   0.88687118   -4.5274028    572.06757  0.051150534  0.051368728            5 
  933000   0.88858562   -4.5009474    574.03804  0.051271708  0.051341267            2 
  934000   0.87739173    -4.517541    571.90187   0.05102622  0.051313892           10 
  935000   0.89151429   -4.5438356    571.66241  0.050950304  0.051286503            4 
  936000   0.86789073   -4.5348072    573.44937  0.051054965  0.051258937            2 
  937000   0.87357504   -4.5341459    572.87661  0.050949539  0.051231166            4 
  938000   0.89508396   -4.5555787    575.15533  0.051097666  0.051203997            6 
  939000   0.90091573   -4.5638487    574.42682  0.050978596  0.051176906            4 
  940000   0.87239744   -4.5149655    576.52979  0.051110797  0.051149977            3 
  941000   0.89605959   -4.5357456    574.52979  0.050879365  0.051123303            4 
  942000   0.89135396   -4.5052126    577.04094    0.0510475  0.051096345            3 
  943000   0.86727257   -4.5237637    576.02781  0.050903836  0.051069202           10 
  944000   0.86634296   -4.5083188     576.6004  0.050900459  0.051042154            4 
  945000   0.88392505   -4.5018748    578.28624  0.050995259  0.051015203            3 
  946000   0.88056538   -4.5337249    577.03042  0.050830728  0.050988375            3 
  947000   0.87348281   -4.5584631    577.70005  0.050835978  0.050961287            3 
  948000   0.86744067   -4.5505733    577.95636  0.050804884  0.050934365            4 
  949000   0.86045211   -4.5569934    576.68084  0.050639343  0.050907521            5 
  950000   0.84713859   -4.5358708    580.01922  0.050878879  0.050881226            2 
  951000   0.86588012   -4.5264859    580.20322  0.050841502  0.050854763            4 
  952000   0.85642459   -4.5482125    581.12714  0.050868972  0.050828358            7 
  953000   0.86099139   -4.5362782     579.7318  0.050693582  0.050801612            5 
  954000   0.85769519   -4.5375673    580.60758  0.050716944  0.050775243            4 
  955000   0.88526143   -4.5416468    582.18778  0.050801726  0.050749007            3 
  956000   0.86830946   -4.5305691    583.11108  0.050829069  0.050722888            7 
  957000    0.8598899   -4.5369696    583.10259  0.050775217  0.050696965            6 
  958000   0.85310347   -4.5261478    582.23586  0.050646822  0.050670663            2 
  959000   0.87838254   -4.5219387    584.45792  0.050787098  0.050644337            4 
  960000   0.86877373   -4.5403739    581.32254  0.050462026  0.050617967            2 
  961000    0.8648309   -4.5492617    581.51307  0.050426038  0.050591068            7 
  962000   0.85609847   -4.5215397    583.05334  0.050507046   0.05056473            3 
  963000   0.87433216   -4.5360515    586.41668  0.050745646  0.050538473            5 
  964000   0.87446409   -4.5465611    586.47294  0.050697868  0.050511976            4 
  965000   0.84876944   -4.5276282    587.26602  0.050713818  0.050485373            5 
  966000   0.84760144   -4.5636056    586.21619  0.050570755  0.050459171            6 
  967000   0.87793796   -4.5356759    585.22409  0.050432962  0.050432774            6 
  968000   0.86362254   -4.5494716     584.1614  0.050289376  0.050406234            7 
  969000   0.85512261   -4.5311916    585.14077  0.050321704  0.050379652            5 
  970000   0.87778855   -4.5450015    585.29853  0.050283378  0.050352976            4 
  971000   0.87128502   -4.5536884    586.97648  0.050375599  0.050326528            4 
  972000   0.86614758   -4.5247906    588.01148  0.050412507  0.050299976            4 
  973000   0.86038401   -4.5441666    586.08805  0.050195962  0.050273235            4 
  974000   0.86107563   -4.5734332    584.60011  0.050017121  0.050246526            5 
  975000    0.8581047   -4.5184618    586.06865  0.050091338  0.050219559            4 
  976000   0.88196898   -4.5407587    586.89972  0.050110974  0.050192462            7 
  977000   0.85847934   -4.5403043    588.25376  0.050175176   0.05016579            7 
  978000   0.87397788    -4.545543    586.49951  0.049974396  0.050139139            4 
  979000   0.86259058   -4.5513874    586.47555   0.04992131  0.050112072            3 
  980000   0.87893773   -4.5832241    586.91109  0.049907406   0.05008474            3 
  981000    0.8639958   -4.5301902    588.05285  0.049953521  0.050057664            4 
  982000   0.87020167   -4.5582649    588.42369  0.049934122  0.050030745            4 
  983000   0.86903756   -4.5719076    587.89543  0.049838541  0.050003315            6 
  984000   0.83014954   -4.5747798    588.14724  0.049809217  0.049976506            4 
  985000   0.85564647   -4.5731907    587.00623  0.049662118  0.049949786            4 
  986000   0.84709939   -4.5565858    589.93677  0.049859429  0.049923254            3 
  987000   0.86524799   -4.5275385    591.25316  0.049920058  0.049896577            4 
  988000   0.86050477   -4.5473019    589.93036  0.049757958  0.049870177           13 
  989000   0.85866172     -4.57337    591.69256  0.049856131  0.049843666            6 
  990000   0.85230544   -4.5632771     592.5332  0.049876532  0.049816823            4 
  991000   0.86167127   -4.5658859    592.30576  0.049807077  0.049790332            9 
  992000   0.85285976   -4.5845238    590.04114  0.049566628  0.049763646            4 
  993000   0.85275291   -4.5895116    591.77789  0.049662461  0.049736821            5 
  994000   0.85357573   -4.5689303    592.09219  0.049638849  0.049710036            4 
  995000   0.85121647   -4.5580442    592.28512  0.049605119  0.049683294            5 
  996000   0.83553327    -4.553028    591.74579   0.04951019  0.049656881            3 
  997000   0.83754065   -4.5423914    594.42819  0.049684737  0.049630564            3 
  998000   0.83997026   -4.5584049    591.95296   0.04942827  0.049604346            5 
  999000   0.85464186   -4.5627174    594.96741  0.049630247  0.049577726            5 
 1000000   0.86559363   -4.5568265    593.65221  0.049471018  0.049550918            6 
 1001000    0.8453238   -4.5895496    592.91258  0.049360022   0.04952394            4 
 1002000   0.85159223   -4.5661137    592.52824  0.049278796  0.049496942            5 
 1003000   0.84456522   -4.5973129    594.10922  0.049361019  0.049469853            6 
 1004000     0.854191   -4.5886959    593.26777  0.049242013  0.049442852            4 
 1005000   0.85392781   -4.5851125    592.51508  0.049130604  0.049415658            5 
 1006000   0.85306467   -4.5858904    592.69556  0.049096716  0.049388451            9 
 1007000   0.84441728   -4.5744759    594.67729  0.049211957  0.049361437            5 
 1008000    0.8519248   -4.5572504    594.27252  0.049129673  0.049334236           10 
 1009000   0.84509674   -4.6013926    596.24842   0.04924417  0.049306879            3 
 1010000   0.86068785   -4.5406164    596.89992  0.049249168  0.049280049            5 
 1011000   0.86863714   -4.5974003    595.52528  0.049087148  0.049253428           10 
 1012000   0.84031782   -4.5827019    596.21905  0.049095772  0.049226738            6 
 1013000   0.85994676   -4.5879863    597.67358  0.049166961  0.049199699            4 
 1014000   0.84438977   -4.5833809     598.2058  0.049162212  0.049172844            5 
 1015000   0.85153297   -4.6026925    597.91885  0.049090218  0.049146191            6 
 1016000   0.86066428    -4.611361     597.7513  0.049028158  0.049119509            7 
 1017000   0.85891361   -4.5827722    598.10122  0.049008622  0.049092471            3 
 1018000   0.85541813    -4.609279    596.78841  0.048853013  0.049065472            3 
 1019000   0.83075344   -4.5551902    599.69783  0.049043002  0.049038745            7 
 1020000   0.86078147   -4.5869675    599.57245  0.048984678  0.049012187            3 
 1021000   0.84071644   -4.5868111    597.54642  0.048771337  0.048984977            4 
 1022000   0.82963201   -4.5561947    599.62715  0.048893277  0.048957891            5 
 1023000   0.84548007   -4.5910954    599.45171  0.048831192  0.048930969            3 
 1024000   0.86051143   -4.5886275     599.5767  0.048793677  0.048904131            4 
 1025000   0.84243582   -4.5892481    597.25981  0.048557708  0.048876388            4 
 1026000   0.84122272   -4.5830181    599.64444  0.048704064  0.048848923            3 
 1027000   0.83503118   -4.6194415    596.35938  0.048390082  0.048821261            7 
 1028000   0.84207157   -4.6071885    600.16376  0.048651407  0.048793785            3 
 1029000   0.85197771   -4.5912617    601.59023  0.048719649  0.048766622            4 
 1030000   0.84384657   -4.5970895    600.38206    0.0485746  0.048739247           12 
 1031000   0.86200272   -4.5972717    601.32822  0.048603962  0.048711823            8 
 1032000   0.83032866   -4.6003599    600.93569  0.048525169  0.048684425            4 
 1033000   0.83698797   -4.6226423    600.45208   0.04843918  0.048657197            4 
 1034000   0.83653048   -4.5883107    603.88018  0.048668616  0.048629971            4 
 1035000   0.83387391    -4.559231    603.11441  0.048559937  0.048603224            6 
 1036000   0.85783529   -4.6211661    602.87865    0.0484941  0.048576128            9 
 1037000   0.85751566   -4.5867791    604.12409  0.048547419  0.048549191            9 
 1038000   0.84068089   -4.6154993    603.70417  0.048466937  0.048522398            6 
 1039000   0.82386334   -4.6117898    604.94828  0.048520074  0.048495753            7 
 1040000   0.83836649   -4.6177582    603.38112  0.048347846   0.04846858            6 
 1041000   0.83767102   -4.5741654    605.40744  0.048463612  0.048441872            9 
 1042000   0.83664026   -4.6102657      603.479  0.048262875   0.04841508            3 
 1043000   0.84703377   -4.6295141    606.21958  0.048435569  0.048388037            3 
 1044000   0.82230111   -4.5915734    604.73018  0.048270289  0.048361148            4 
 1045000   0.82048607   -4.6208489    603.82221  0.048151692  0.048334229            6 
 1046000    0.8310127   -4.6136504     605.3334  0.048226052  0.048307504            4 
 1047000   0.86100314   -4.6287803    605.82191  0.048218872  0.048280507            4 
 1048000   0.85600353   -4.6077994    605.81286  0.048172142  0.048253736           17 
 1049000    0.8222632   -4.6125368    606.35685  0.048169435  0.048226985            3 
 1050000   0.83457691   -4.5801043    606.12796  0.048105393  0.048199966            2 
 1051000   0.82190328   -4.6163196    604.80129  0.047954432  0.048173203            5 
 1052000    0.8422445   -4.6064207    605.45625   0.04796073   0.04814657           12 
 1053000   0.82620283   -4.6108591    607.11285  0.048046284  0.048119767            4 
 1054000   0.82090488   -4.5873857    606.93034   0.04798627  0.048092692            5 
 1055000   0.81720418   -4.6063696    606.51184  0.047907728  0.048065826            5 
 1056000   0.83829045   -4.6052424    607.48361  0.047939048   0.04803896            8 
 1057000   0.84586121    -4.605202    608.58014  0.047980143  0.048012126            4 
 1058000    0.8191595   -4.6087698    609.41959  0.048000913  0.047985151            6 
 1059000   0.84097549    -4.608007    608.88265  0.047913334   0.04795798            5 
 1060000   0.84457032   -4.6160926     607.3928  0.047751006  0.047931071           11 
 1061000   0.81992627   -4.6260999    609.04728  0.047835947  0.047904072            3 
 1062000   0.83708442   -4.6238852    608.27152  0.047730031  0.047876835            7 
 1063000   0.81575101   -4.6342415    608.35608  0.047691759  0.047849842            7 
 1064000   0.82408958   -4.6141288     607.9563  0.047615625  0.047822782            4 
 1065000   0.83510766   -4.6208884    609.53711   0.04769461  0.047795535            3 
 1066000   0.82879207   -4.6416674    608.99125  0.047607196  0.047768261            9 
 1067000   0.83350296   -4.6413677    608.32284  0.047510375  0.047740916            8 
 1068000   0.81723063    -4.642722    609.99159  0.047596098  0.047713637            5 
 1069000   0.83841213   -4.6273514    610.33398  0.047578265  0.047686658            7 
 1070000   0.83259399   -4.6243429    609.85275   0.04749632  0.047659447            7 
 1071000   0.82753461   -4.6443793    608.86222    0.0473749  0.047632403            3 
 1072000   0.82303285   -4.6012936    610.58175  0.047464377  0.047605326            4 
 1073000   0.82254632   -4.6420757    611.33588  0.047478711  0.047578161            5 
 1074000   0.81897176   -4.6194405    610.58467  0.047376216  0.047550936            4 
 1075000    0.8181584   -4.6447055    611.74665  0.047422221  0.047523876            4 
 1076000    0.8260284    -4.600184    614.48963  0.047590585  0.047496476            7 
 1077000   0.82868408   -4.6081479    614.45405  0.047543644  0.047469275            2 
 1078000   0.82606693    -4.618399     614.7874  0.047525309  0.047442536            5 
 1079000   0.81390093   -4.6267282    613.36874  0.047371698  0.047415822            4 
 1080000    0.8035525   -4.6218084    614.41281  0.047408396   0.04738893            7 
 1081000   0.82576341   -4.6212815    613.65498  0.047306119  0.047361867            8 
 1082000   0.82085964   -4.6415919    612.57824   0.04717947  0.047334753            8 
 1083000   0.81819257   -4.6232831    612.02683  0.047093477  0.047307475           12 
 1084000    0.8242176   -4.6268067      612.309  0.047071725   0.04728019            7 
 1085000    0.8183046   -4.6158386     613.3595  0.047109025  0.047252798            6 
 1086000   0.81915074   -4.6356053    613.08735  0.047044763  0.047225138            5 
 1087000   0.82298819   -4.6216896    614.26256  0.047091579   0.04719733            4 
 1088000    0.8368539   -4.6363209    613.57232  0.046995429  0.047169614            9 
 1089000   0.81532227   -4.6401193    613.99611  0.046984704  0.047142094           12 
 1090000   0.82174779   -4.6391833    615.90369  0.047087438  0.047114382            5 
 1091000    0.8033689   -4.6387547    614.92616  0.046969612  0.047087047            3 
 1092000   0.81537731   -4.6062321    615.01969  0.046933737  0.047059388            7 
 1093000   0.81190487    -4.649808    613.90617  0.046805899  0.047031609            4 
 1094000   0.79989865   -4.6455098    613.37782  0.046722869  0.047004102            4 
 1095000   0.81822497   -4.6639971    614.31402  0.046751447  0.046976521            4 
 1096000   0.82545129    -4.630318    617.46731  0.046948549  0.046948939            7 
 1097000   0.81404869   -4.6333834    613.72277  0.046621298  0.046921508            4 
 1098000   0.80888763   -4.6460917    614.79151   0.04665995  0.046893626            8 
 1099000     0.811769   -4.6653134    614.25353  0.046576701  0.046865719            5 
 1100000    0.8273837   -4.6804711    615.81637  0.046652755  0.046837748            5 
 1101000   0.78292248   -4.6355714    616.95168  0.046696313  0.046809627            6 
 1102000   0.82172485   -4.6524867    614.65537  0.046480291  0.046781874            5 
 1103000   0.81521741   -4.6539751    616.16873  0.046552488  0.046754185            8 
 1104000   0.81925486   -4.6660888    614.74228  0.046402648  0.046726156            4 
 1105000   0.83339587   -4.6296126    615.71424  0.046433955     0.046698            7 
 1106000   0.80953926   -4.6464627    614.34815  0.046289041  0.046669867            3 
 1107000   0.79549079   -4.6407785    617.74991  0.046503306  0.046641927            3 
 1108000   0.79781857   -4.6695151    616.52138  0.046368937  0.046613997            4 
 1109000   0.79437685    -4.652837    616.18603  0.046301926  0.046585935            3 
 1110000   0.81604077   -4.6135863    618.41286  0.046427392  0.046558339            3 
 1111000   0.81047412   -4.6732789    617.08954  0.046286344  0.046530706            2 
 1112000   0.80993205   -4.6621542    616.25759  0.046182373  0.046503045            4 
 1113000   0.80956672   -4.6552871    617.47066  0.046231705  0.046475351            6 
 1114000   0.79994181   -4.6605812    617.67526   0.04620551  0.046447761            4 
 1115000   0.79907016   -4.6286065    617.67564  0.046164098  0.046420112            8 
 1116000   0.81820821   -4.6844729    618.77559  0.046204868  0.046392312            9 
 1117000   0.81645213   -4.6601536    618.93717  0.046175557  0.046364559            5 
 1118000   0.80322389   -4.6669256    618.21594  0.046080496  0.046336916            3 
 1119000   0.79384802     -4.68723    618.90529  0.046090653  0.046309183            6 
 1120000   0.82068477   -4.6617454    619.78914  0.046115263  0.046281553            8 
 1121000   0.80506024   -4.6766637    619.59387   0.04605961  0.046253928            5 
 1122000   0.81158845   -4.6231361    619.68358  0.046025221  0.046226482            5 
 1123000   0.80174498   -4.6816326    620.95197   0.04607836  0.046199111            4 
 1124000   0.81940885   -4.6760932     620.8782  0.046031895   0.04617177            4 
 1125000   0.80677801    -4.646918    621.98439  0.046072918  0.046144246            4 
 1126000   0.79022979   -4.6562908    621.89511  0.046025393  0.046116984            5 
 1127000   0.81998112    -4.659969    622.35712  0.046018717  0.046090104            3 
 1128000   0.80245912   -4.6652712       623.73  0.046079344  0.046063124            4 
 1129000   0.79288807   -4.6919245    621.23438  0.045854324  0.046035991            5 
 1130000   0.79977167   -4.6345277    623.51915  0.045982238  0.046008791           10 
 1131000   0.78631638   -4.6829363    621.89358  0.045821808    0.0459817            3 
 1132000   0.80624701   -4.6617576     623.9375  0.045931795  0.045954325            4 
 1133000   0.81189972   -4.6947415    622.08138  0.045754735  0.045926876            5 
 1134000   0.79799808   -4.6842312    621.81134  0.045694543   0.04589936            3 
 1135000     0.803656   -4.7100505    622.30049  0.045690197  0.045871644            4 
 1136000   0.82079235   -4.6543725    622.46499  0.045662045  0.045843893            8 
 1137000   0.81543745   -4.6496367    623.01261   0.04566202  0.045816263            4 
 1138000   0.79511691   -4.6663579    624.15332  0.045705428  0.045788651            6 
 1139000   0.80074673   -4.6806533    621.92286  0.045502112  0.045761033           12 
 1140000   0.81010683   -4.6953206    623.12994  0.045550434  0.045733373            6 
 1141000   0.78181671   -4.6809534    624.24064  0.045591633  0.045705605            4 
 1142000   0.80573584   -4.6878351    624.05441  0.045538121  0.045678177            8 
 1143000   0.78463997    -4.705813    622.68159  0.045398191  0.045650537            6 
 1144000   0.79793906   -4.6553023    624.86009  0.045517197  0.045623201           12 
 1145000   0.78226609   -4.6662908    623.21049  0.045357387  0.045595839            3 
 1146000   0.78655538   -4.6923038     626.0079  0.045521226  0.045568532            4 
 1147000    0.8055472   -4.6887532    624.64159  0.045382272  0.045541066           10 
 1148000   0.79726855   -4.6920523    625.72204   0.04542117  0.045513848            3 
 1149000   0.77808395    -4.689836    625.31193  0.045351895  0.045486397            4 
 1150000    0.8011507   -4.6985279    625.64757  0.045336781  0.045458988            2 
 1151000   0.80200291    -4.683708    626.61405  0.045367365  0.045431863            4 
 1152000   0.78502406   -4.7071162    625.57454  0.045252788  0.045404601            7 
 1153000   0.78992665   -4.6885113    627.88312  0.045380393  0.045377281            6 
 1154000   0.79518451   -4.7051413    626.86846  0.045267798  0.045349882            9 
 1155000      0.78324   -4.6835952    628.02162  0.045311805  0.045322519            5 
 1156000   0.78486768    -4.652974    626.60615   0.04517057  0.045295183            7 
 1157000   0.78538238   -4.6673565    627.15755  0.045171244  0.045267972            8 
 1158000   0.80775147   -4.6744416    628.92627  0.045259519  0.045240651            7 
 1159000   0.79286035   -4.6870549    628.45146  0.045186328  0.045213501            5 
 1160000   0.77754675   -4.6803078    628.96677  0.045184394  0.045186274            7 
 1161000   0.79541372   -4.6828541    627.94238  0.045071948  0.045158968            6 
 1162000    0.7871987   -4.6881007    627.48784  0.045000562  0.045131696            6 
 1163000   0.79599273   -4.6662412    628.99915   0.04507016   0.04510473            4 
 1164000   0.79531179   -4.7047913    630.42031  0.045133183  0.045077955            2 
 1165000   0.78328978   -4.7013559    628.79372  0.044978092  0.045050909            6 
 1166000   0.79741726   -4.6934257    629.01335  0.044955214  0.045023989            4 
 1167000   0.79043981   -4.6862825     632.8598   0.04519136  0.044997128            3 
 1168000   0.78766471   -4.6764649    632.68694  0.045140336  0.044970608           13 
 1169000   0.77917882   -4.7175089     631.6298  0.045026361  0.044944267            9 
 1170000   0.79344505    -4.702734    632.40216  0.045042889  0.044917903           11 
 1171000   0.80535691    -4.707384    630.39563   0.04486163  0.044891458            8 
 1172000   0.78407831   -4.7202676    631.52598  0.044903724  0.044864995            8 
 1173000   0.78609751   -4.6878197    632.57072  0.044939664  0.044838782            6 
 1174000   0.78229905   -4.6965989    632.88907  0.044923983  0.044812182            4 
 1175000   0.77964276   -4.6793615    636.41717   0.04513597  0.044785926            7 
 1176000   0.77794358   -4.7179472    632.79684  0.044841046  0.044759859            7 
 1177000   0.80888065   -4.7115619     633.2751  0.044836809  0.044733329            5 
 1178000    0.7940859   -4.7213012    634.52068  0.044886862  0.044707202            4 
 1179000   0.78091429   -4.7022273    633.41367  0.044770545   0.04468108            5 
 1180000   0.77637597   -4.7230652    635.12177  0.044853232  0.044655212            9 
 1181000   0.78068731   -4.6958758    637.17086  0.044959841  0.044629374            4 
 1182000   0.79111835   -4.7274598    635.30701  0.044790398  0.044603547            6 
 1183000    0.7883375   -4.6968451    636.07534  0.044806659   0.04457755            4 
 1184000   0.78209939   -4.7257956    634.49764  0.044657773  0.044551531            4 
 1185000   0.79663106   -4.7011757    635.40439  0.044683853  0.044525318            3 
 1186000   0.78796569   -4.6836278    634.70055  0.044596722  0.044499293            5 
 1187000   0.79505171   -4.6860247    635.28032  0.044599854  0.044473041            8 
 1188000   0.79388595   -4.7093335    633.59003  0.044443745  0.044446787            5 
 1189000   0.79586559   -4.7268869    636.05228  0.044578938  0.044420467           10 
 1190000   0.77685738   -4.7247685    634.07281  0.044402858  0.044393986            4 
 1191000   0.78244009   -4.7283202     635.0479  0.044433802  0.044367704            4 
 1192000   0.78641288    -4.715988    633.15882  0.044264459  0.044341128            8 
 1193000   0.78203189   -4.7244973    637.92122  0.044560018  0.044314853            5 
 1194000   0.77453713   -4.7293215    635.95477  0.044385453  0.044288611            5 
 1195000   0.74432437   -4.7021532    636.81816  0.044408519  0.044262304           13 
 1196000   0.77937462   -4.7200998    636.85874  0.044374215  0.044236326            5 
 1197000   0.77178491   -4.7189044    638.37522  0.044442719  0.044210234            5 
 1198000   0.77404071    -4.717428    637.11014  0.044317622   0.04418449            7 
 1199000   0.76787032   -4.7023453    639.69793  0.044460518  0.044158769            6 
 1200000   0.78084762   -4.7348272    636.90632  0.044229606   0.04413316            6 
 1201000   0.77494238   -4.7185948    638.97183  0.044336097  0.044107296           11 
 1202000   0.78320373   -4.7301282    639.87913  0.044362114  0.044081527            4 
 1203000   0.78387458   -4.7149066    638.00311  0.044195283  0.044055859            5 
 1204000   0.78162844   -4.7518791    638.02413  0.044160031  0.044030077            5 
 1205000   0.77146915   -4.7452413    639.73624  0.044241787  0.044004038            7 
 1206000   0.79546684   -4.7449396    639.69762  0.044202433  0.043978126            8 
 1207000    0.7691822   -4.7553111    636.28053   0.04392989  0.043951826            5 
 1208000    0.7618344    -4.758696    637.40619  0.043971177  0.043925702            8 
 1209000   0.78386481   -4.7327999    639.99726  0.044113404  0.043899469            6 
 1210000    0.7612319   -4.7293671    637.03125  0.043872676  0.043873196            7 
 1211000   0.76874718   -4.7526146    640.23735   0.04405707  0.043846863            2 
 1212000   0.76465704   -4.7410016    637.77713  0.043851563  0.043820586            6 
 1213000   0.75986511   -4.7540471    636.80422  0.043748573  0.043794099            3 
 1214000   0.76930715   -4.7609735    636.62492  0.043700228  0.043767507            7 
 1215000   0.76833857   -4.7379052    639.84448  0.043885081  0.043741109            3 
 1216000    0.7591525   -4.7517221     638.1951  0.043735958  0.043714571           14 
 1217000   0.76292669   -4.7467879    639.24635  0.043772004  0.043687914            4 
 1218000   0.75283044   -4.7339459    639.13782  0.043728641  0.043661193            6 
 1219000   0.76189249   -4.7421971    640.01223  0.043752545   0.04363467            6 
 1220000   0.75102623    -4.755239     639.3794  0.043673456  0.043608331            6 
 1221000   0.78216703   -4.7372756    638.05288  0.043547153   0.04358197            8 
 1222000   0.76804643    -4.744302    641.84313   0.04376999  0.043555624            5 
 1223000    0.7597215   -4.7623964    639.92084  0.043603219  0.043529602            4 
 1224000   0.77764181   -4.7593153    640.18348  0.043585477  0.043503521            4 
 1225000   0.75787013   -4.7413446    642.25459  0.043690788  0.043477395            8 
 1226000   0.77673825   -4.7531085    640.29296  0.043521816  0.043451233            4 
 1227000   0.77047716   -4.7247016    643.55549  0.043707925   0.04342547            6 
 1228000   0.75800855    -4.736319    642.42713  0.043595761  0.043399786            4 
 1229000   0.78547367   -4.7683919    642.04222  0.043534189   0.04337393           16 
 1230000   0.75084196   -4.7573993     640.6109  0.043401823  0.043347831            6 
 1231000   0.74644223   -4.7723539     641.5171  0.043427911  0.043321845            8 
 1232000   0.76433261   -4.7446247    641.95664  0.043422392  0.043295636            4 
 1233000   0.77280635   -4.7206129    643.27019  0.043475953  0.043269419            5 
 1234000   0.75209705   -4.7627397    642.49312  0.043388244  0.043243391            3 
 1235000    0.7603487   -4.7652478    641.99697  0.043319633  0.043217367            8 
 1236000    0.7468456   -4.7746447    642.10998  0.043292204  0.043191327           10 
 1237000   0.77310313   -4.7703275    643.27479  0.043335677  0.043165325            9 
 1238000   0.76862497   -4.7642995    644.54873  0.043386425  0.043139652            4 
 1239000   0.74999676   -4.7846129     643.6769  0.043292769  0.043113907            8 
 1240000   0.74197851   -4.7626292    643.06914  0.043217012  0.043088032            4 
 1241000    0.7618622   -4.7413628    646.08314  0.043384578  0.043062494            8 
 1242000   0.74847816    -4.745757     644.3809  0.043235433  0.043037097            7 
 1243000   0.75935026   -4.7760246    644.42307  0.043203478  0.043011496            8 
 1244000   0.75941235   -4.7937514    644.47283  0.043172082  0.042985602            7 
 1245000   0.75195158   -4.7637162    645.36384  0.043197044  0.042959685            5 
 1246000   0.76191044   -4.7785232    643.56968  0.043042381   0.04293379           10 
 1247000   0.75421407   -4.7350241    647.02723  0.043238922  0.042908236            4 
 1248000   0.76102708   -4.7542569    646.97078  0.043200506  0.042882668            9 
 1249000   0.76064451    -4.767271    644.74229  0.043017233  0.042857198            5 
 1250000   0.75840319   -4.7720406    645.18125  0.043012083  0.042831408            7 
 1251000    0.7541316   -4.7737045    645.26849  0.042983512  0.042805597           11 
 1252000   0.74959633   -4.8129445    643.33814  0.042820696  0.042779698            5 
 1253000   0.75390372   -4.7504943     647.6986  0.043076523  0.042753946            8 
 1254000   0.74915764   -4.7984821    644.93122  0.042858268  0.042728316            5 
 1255000   0.74235043      -4.7683    646.35918  0.042918936  0.042702605            7 
 1256000   0.73604503   -4.7611734    647.17205  0.042938697  0.042676896            5 
 1257000   0.76657935   -4.7930204    647.64256  0.042935731   0.04265113            9 
 1258000   0.73040691   -4.7545925    647.24623  0.042875347   0.04262539            4 
 1259000   0.74617782   -4.7696611    646.66267  0.042802665  0.042599765            7 
 1260000   0.74656646   -4.7780955    647.49498  0.042823742  0.042574268            6 
 1261000   0.75278825   -4.7916756     647.5461   0.04279316  0.042548447            4 
 1262000   0.75568833   -4.7856831    645.95189  0.042653981  0.042522544           15 
 1263000   0.73215039   -4.7620152     648.5942   0.04279455  0.042496648            4 
 1264000   0.75346528    -4.774055    647.28497  0.042674378  0.042470884            4 
 1265000   0.74871254   -4.7728297    648.18516  0.042699944  0.042445027            5 
 1266000   0.74922018   -4.7817167    647.67649  0.042632734   0.04241929            6 
 1267000   0.75401147   -4.7906386    647.88695  0.042612927  0.042393685            6 
 1268000   0.74512676    -4.783139    649.68127  0.042697244  0.042368049            4 
 1269000   0.76112022   -4.7864668    648.26502  0.042570595  0.042342453            6 
 1270000   0.77359229   -4.7777374    648.87725  0.042577247  0.042316817            8 
 1271000   0.71619581   -4.7922263    647.61979  0.042461303   0.04229112            8 
 1272000   0.73664923   -4.7829354    648.50432   0.04248587  0.042265423            7 
 1273000    0.7591408   -4.8167314    647.78105  0.042405149  0.042239652            4 
 1274000   0.75419673   -4.7843429    650.10068  0.042523592   0.04221414            7 
 1275000   0.73437632   -4.7740317    651.08789  0.042554764  0.042188641            8 
 1276000   0.73508572   -4.7697991    649.27366   0.04240293  0.042163275            6 
 1277000   0.76411587   -4.8030622    649.26392  0.042369089  0.042137936           25 
 1278000   0.75923358   -4.7720906    651.57994  0.042486955   0.04211262            4 
 1279000    0.7291781   -4.8031657    651.52179  0.042449947  0.042087409           13 
 1280000   0.74345992   -4.7894042     652.0995  0.042454394  0.042062379            6 
 1281000    0.7534534   -4.7868037    648.68249  0.042198965  0.042037259            7 
 1282000   0.75793555   -4.7947368    650.71697  0.042298295  0.042012161            4 
 1283000   0.75395684   -4.7762575     653.1612  0.042424084  0.041987146            3 
 1284000   0.75753238   -4.7881643    652.24551  0.042331614  0.041962227           16 
 1285000   0.70946093   -4.7931262    653.27185   0.04236523  0.041937246            4 
 1286000   0.73776489   -4.7955096    651.87034  0.042241468  0.041912181           15 
 1287000   0.74913063   -4.7878173    652.04822  0.042220165  0.041887329            7 
 1288000   0.75386865   -4.7850842    651.94327  0.042180594  0.041862237            4 
 1289000   0.73701243   -4.8002481    652.97144  0.042214342  0.041837161            4 
 1290000   0.74860856   -4.7954627     653.3308  0.042204832  0.041812176            8 
 1291000    0.7295194   -4.7841025    653.19036  0.042163075  0.041786909           15 
 1292000   0.72954727    -4.807375    653.65413  0.042160354  0.041761687            9 
 1293000   0.73963259   -4.8326053    654.39254  0.042175337  0.041736724            9 
 1294000   0.74408256   -4.8024792    653.94132  0.042113686  0.041711795            6 
 1295000   0.73173783   -4.8234586    652.57438  0.041993203  0.041686892            7 
 1296000   0.73676926   -4.7659919    655.71256  0.042162588  0.041662024            9 
 1297000    0.7359743    -4.799184    654.64721   0.04206163  0.041637172            5 
 1298000   0.73178446   -4.8110234    654.63472  0.042028423  0.041612234            9 
 1299000   0.72637095   -4.8093308    654.96732  0.042017406  0.041587163           10 
 1300000   0.74558066   -4.7924749    654.40985   0.04194935  0.041562109            5 
 1301000   0.74657485   -4.8131366    655.44096  0.041983151  0.041537242            4 
 1302000   0.73272045   -4.8134701    652.80028  0.041781892  0.041512258            4 
 1303000    0.7308696   -4.8068473    655.17197  0.041901507  0.041487318            4 
 1304000   0.73440407   -4.8121092    651.45304  0.041631713  0.041462196            6 
 1305000   0.70971929   -4.8326988    652.38167  0.041659111  0.041437094            4 
 1306000   0.74709745   -4.8295055    655.45985  0.041823625  0.041411976           11 
 1307000   0.73003433   -4.8080445    656.10169  0.041832548  0.041386999            9 
 1308000   0.72339529   -4.8299734      654.509  0.041699095  0.041362033            8 
 1309000    0.7261008   -4.8211903    655.38591  0.041723065  0.041336988            5 
 1310000   0.73348006   -4.8192568    655.71472  0.041712132   0.04131224            4 
 1311000   0.71986786   -4.8124995    656.51148  0.041730961  0.041287572            9 
 1312000   0.75413484   -4.8365579    656.45078  0.041695298  0.041263026            5 
 1313000   0.72982158   -4.8005127    656.47416  0.041665026  0.041238194            9 
 1314000   0.72980612   -4.8097161    656.61485   0.04164224  0.041213435            9 
 1315000   0.71672164   -4.8162966    656.91899  0.041629847  0.041188873            7 
 1316000    0.7490101   -4.8279125     656.9907  0.041602755  0.041164222            9 
 1317000   0.73579056   -4.8015437    657.23567  0.041586666  0.041139683            9 
 1318000   0.71944133   -4.8168917    657.69515  0.041584165  0.041114957            7 
 1319000   0.72871382   -4.8413505    656.88396  0.041501387  0.041090331            9 
 1320000   0.71749298   -4.8252694    655.93406  0.041409978  0.041065674            7 
 1321000   0.73619881   -4.8210885     657.1752  0.041456927  0.041040949            3 
 1322000   0.71369104   -4.8362501    659.23314  0.041555291   0.04101633            4 
 1323000   0.71132196   -4.8098419    656.27479   0.04133754   0.04099152            6 
 1324000   0.73838569   -4.8165546    658.44828  0.041443119  0.040966636            5 
 1325000    0.7252687   -4.8209251    657.63301  0.041360567  0.040941749            8 
 1326000    0.7319368   -4.8210071    656.92101  0.041284629  0.040916885            6 
 1327000   0.72354008   -4.8581288    657.52059   0.04129117  0.040891865            8 
 1328000   0.72267891   -4.8118593    656.68466  0.041207622  0.040866904            9 
 1329000   0.72868005   -4.8299932    655.57955  0.041107321  0.040841878            8 
 1330000   0.71621497   -4.8271813    658.47688   0.04125795  0.040816651            8 
 1331000   0.71371776   -4.8520376    655.88697  0.041064799  0.040791463            3 
 1332000   0.73025074   -4.8208653     657.4504  0.041131782  0.040766337            5 
 1333000   0.73375942   -4.8302202    656.82695   0.04106195  0.040741171            8 
 1334000   0.72235473   -4.8448815    656.64758  0.041019964  0.040715992           16 
 1335000   0.70021089   -4.8327192    656.57705  0.040984835  0.040690547            7 
 1336000   0.72817339   -4.8273867    656.26836  0.040934903  0.040665216            5 
 1337000   0.72087955    -4.851584    656.68916  0.040930514  0.040639908            7 
 1338000   0.72579927   -4.8475596     657.0114  0.040919993  0.040614382            6 
 1339000   0.71664771   -4.8438749    657.81027   0.04093915  0.040588947            5 
 1340000   0.71174193   -4.8623295    655.58508  0.040770217  0.040563677            6 
 1341000   0.70952393   -4.8379647    656.71069  0.040809762  0.040538096            8 
 1342000   0.71257261   -4.8319804    658.83794  0.040911447  0.040512811           10 
 1343000   0.72449555   -4.8430969    657.76716  0.040814542  0.040487463            5 
 1344000   0.71583779   -4.8338768    656.37948  0.040698133   0.04046202            6 
 1345000   0.71934394   -4.8499583    658.26678  0.040784807  0.040436693            4 
 1346000   0.71417812   -4.8328138    658.51742  0.040770023  0.040411195            6 
 1347000   0.72361992   -4.8598474    659.41701   0.04079541  0.040385757            6 
 1348000   0.70801286   -4.8368876    658.42569  0.040703863  0.040360281            6 
 1349000   0.70899267   -4.8316632    657.32329   0.04060559  0.040334903            9 
 1350000   0.71979543   -4.8422063    658.26607  0.040633708  0.040309429            7 
 1351000   0.70914418   -4.8355965    658.69661  0.040630188   0.04028402           11 
 1352000   0.71330031   -4.8512488    657.59688  0.040532352   0.04025872            5 
 1353000   0.72646918   -4.8433345    658.16152  0.040537171  0.040233418            6 
 1354000   0.69764386   -4.8554965    658.61324  0.040535034  0.040208115           20 
 1355000   0.71934802   -4.8269333    659.72916  0.040573749  0.040183011            8 
 1356000   0.70741694   -4.8362464    659.20035  0.040511329  0.040157964            6 
 1357000    0.7093363   -4.8524041    659.02961  0.040470991  0.040132828            5 
 1358000   0.71694816   -4.8427361    660.05185  0.040503918  0.040107596            8 
 1359000   0.71039226   -4.8525917    658.56302  0.040382819  0.040082218           24 
 1360000     0.719818   -4.8412453    659.11094    0.0403867  0.040057073            6 
 1361000   0.70381318   -4.8640607    658.74788  0.040334795  0.040031892            9 
 1362000   0.70289238   -4.8244846    659.50913  0.040351758  0.040006932            4 
 1363000   0.72223809   -4.8545419    659.09237  0.040296672  0.039981903           14 
 1364000   0.71183831   -4.8461628    660.27962  0.040339664  0.039956746            5 
 1365000   0.69860631   -4.8531337    660.27463  0.040309806  0.039931757            9 
 1366000   0.70681845   -4.8763808    661.57745  0.040359776  0.039906814            6 
 1367000   0.70208889   -4.8367821    659.80692  0.040222319  0.039881952            6 
 1368000   0.68183681   -4.8565934    659.97343   0.04020306  0.039857109           11 
 1369000   0.70712639   -4.8741043    659.57394  0.040149376  0.039832117           17 
 1370000   0.69937998   -4.8657349    660.70094  0.040188622  0.039807165            9 
 1371000   0.70967046    -4.860144    662.55922   0.04027226  0.039782233           11 
 1372000   0.71320072   -4.8732768    659.07141  0.040031062  0.039757045           13 
 1373000   0.71942643   -4.8579613    661.63435  0.040157462  0.039731958            9 
 1374000    0.7186062   -4.8863193    658.81157  0.039957034  0.039706929            9 
 1375000   0.70792416   -4.8599024    661.19333  0.040072323  0.039681898            8 
 1376000   0.71183295   -4.8632392    660.93582  0.040027605  0.039656836            4 
 1377000   0.71435235   -4.8610553    662.55013  0.040096231  0.039632023            6 
 1378000   0.70827242   -4.8615303    660.36805  0.039935175  0.039607087            9 
 1379000   0.70089995   -4.8436584    662.79793  0.040053054  0.039582194            8 
 1380000   0.68064006     -4.86892    660.29349  0.039872795  0.039557343            7 
 1381000   0.70725456   -4.8696369     662.7179  0.039990219  0.039532475            5 
 1382000   0.70261046   -4.8871926    663.64405  0.040017128  0.039507439           14 
 1383000   0.71443653   -4.8889892     658.8947  0.039702018    0.0394825           11 
 1384000   0.70516222   -4.8932159    662.51268  0.039891178  0.039457447           15 
 1385000   0.70674087   -4.8735167    661.37101  0.039793683  0.039432478            6 
 1386000   0.70405809   -4.8954613    660.99762  0.039742522  0.039407629           10 
 1387000   0.69024419   -4.8588491    663.35298  0.039855382  0.039382877            3 
 1388000   0.68173946   -4.8837179    661.82891  0.039735165  0.039358026           13 
 1389000   0.70958601   -4.8962589    661.58353  0.039691837  0.039333174           10 
 1390000    0.7051702   -4.8875149    661.62074  0.039665512  0.039308201            9 
 1391000   0.69342928   -4.8981083    661.98741  0.039658963   0.03928322            7 
 1392000   0.68998396   -4.8934205    662.18611  0.039642367  0.039258402            4 
 1393000   0.70916386   -4.8577785    662.78626  0.039649812  0.039233569           15 
 1394000   0.70584192   -4.8655786    662.36685  0.039596296   0.03920887            5 
 1395000   0.69415172   -4.8781532    662.93198  0.039601672  0.039184026           11 
 1396000   0.70372034   -4.8915763    663.10997  0.039583929  0.039159087            6 
 1397000   0.69001909   -4.8785309    664.51959   0.03963968  0.039134415           11 
 1398000   0.71870268   -4.8867387    661.90522  0.039455485  0.039109599            6 
 1399000   0.70175976   -4.8826327    662.90552  0.039486867  0.039084731            5 
 1400000   0.71287928   -4.9086016    663.45744  0.039491514  0.039060053            8 
 1401000   0.69522771   -4.8602093    662.85388  0.039427426  0.039035485            9 
 1402000   0.68991838   -4.8719592    665.13631  0.039534969  0.039010833           12 
 1403000   0.69656769    -4.891843    663.58134   0.03941443  0.038986163            6 
 1404000   0.68321335   -4.8626739    664.99986  0.039470552  0.038961499            8 
 1405000   0.68520417   -4.8631806    664.83076   0.03943243  0.038937027            2 
 1406000   0.69810817   -4.8760873    666.02882  0.039475392  0.038912545            6 
 1407000    0.6979008   -4.8748872    663.87735   0.03931991  0.038888014            6 
 1408000   0.69984989   -4.8934382    665.51378  0.039388837   0.03886335           17 
 1409000   0.68448449   -4.9041566    663.76619  0.039257523   0.03883869           17 
 1410000   0.69928204   -4.8796381    663.67847  0.039224496  0.038814203            8 
 1411000   0.68469124   -4.8797121    665.84238  0.039324497  0.038789679           10 
 1412000   0.69656815   -4.8726595    663.94839  0.039184867  0.038764992            8 
 1413000    0.6979393   -4.8974266    663.61874  0.039137694  0.038740278            3 
 1414000   0.68192959   -4.8918264    664.51399  0.039162777  0.038715702            4 
 1415000   0.67472345    -4.902942    663.51088  0.039076024  0.038691023            3 
 1416000   0.69159054   -4.9210382     665.1091  0.039142485  0.038666298           12 
 1417000   0.69423968   -4.8966885    664.31244   0.03906801  0.038641649            8 
 1418000   0.68103482   -4.8986308    666.32006  0.039158442  0.038617009            5 
 1419000   0.70101715   -4.8934605    664.95595  0.039050737   0.03859235            9 
 1420000   0.66809483   -4.9408952    664.63309  0.039004289  0.038567735            9 
 1421000   0.68808525   -4.9000823    664.84205  0.038989095  0.038543246            8 
 1422000   0.68057365   -4.8934103    667.51669  0.039118418  0.038518807            5 
 1423000   0.70199557   -4.9277629    664.77222  0.038930207  0.038494189            5 
 1424000   0.69263034   -4.9102555    665.06643  0.038920086  0.038469521            6 
 1425000   0.66784557   -4.9117816    664.88549  0.038882192  0.038444976           10 
 1426000   0.68242997   -4.9081962    664.87588  0.038854364   0.03842041           18 
 1427000   0.69205325   -4.9320396    664.62713   0.03881261  0.038395657            7 
 1428000   0.68229595   -4.9044616    667.08934  0.038929116  0.038371023            4 
 1429000   0.69275592     -4.87607     665.7519   0.03882388  0.038346661            6 
 1430000   0.68803001   -4.8867766    666.97196   0.03886783  0.038322381            5 
 1431000     0.702072    -4.922452     668.2666  0.038916061  0.038298145            7 
 1432000   0.69341908   -4.9181619    667.72046  0.038857103   0.03827379            5 
 1433000   0.67541402   -4.9038246    666.77425  0.038774962  0.038249521           22 
 1434000   0.68169003    -4.911019    665.11701  0.038651616  0.038225245           11 
 1435000   0.67299263   -4.9267881     665.8882  0.038669466  0.038200902           10 
 1436000   0.67535866    -4.894646    667.66275  0.038745517  0.038176573            3 
 1437000    0.6799747   -4.9117808    667.33716  0.038699673  0.038152329           10 
 1438000   0.68331711   -4.8998676    665.85311  0.038586759  0.038128115           11 
 1439000   0.68374301   -4.9110042    667.11873  0.038633237  0.038103877            5 
 1440000   0.66998338    -4.919541    669.32983  0.038734365  0.038079704            6 
 1441000   0.69096809   -4.8816487    667.14022  0.038580859  0.038055502            5 
 1442000   0.67732426   -4.9216261    667.62435  0.038582082  0.038031478            7 
 1443000   0.67508484   -4.9270785    666.08496  0.038466445  0.038007202           11 
 1444000   0.66492336   -4.9361264    667.49881  0.038521399  0.037983012            5 
 1445000   0.67162285   -4.9376238    666.87665  0.038458861  0.037958666            9 
 1446000   0.67153369   -4.9156805    667.10803  0.038445599  0.037934483           10 
 1447000   0.67532803    -4.917812    667.98053  0.038469277   0.03791024            8 
 1448000   0.65552302   -4.9114595    669.26452  0.038516605  0.037886273            7 
 1449000    0.6833126   -4.9105368    667.33059  0.038378801  0.037862082            9 
 1450000   0.67890449    -4.948324    666.86587  0.038325625  0.037837919            9 
 1451000   0.67545073   -4.9319507    668.39488  0.038387025  0.037813708            6 
 1452000   0.67612625   -4.9337192     668.5647  0.038370334  0.037789506            7 
 1453000   0.68202309   -4.9118674    668.57487   0.03834451  0.037765337            8 
 1454000   0.67161332   -4.9148065    669.29987   0.03835969  0.037741308            8 
 1455000   0.67475246   -4.9296989    668.45533  0.038284956  0.037717281           10 
 1456000   0.67133173   -4.9324662    666.95777  0.038172949  0.037693301            8 
 1457000   0.67495505   -4.9271098    670.60595  0.038355408  0.037669467           23 
 1458000   0.67077603   -4.9525368    667.79892  0.038168663  0.037645623           14 
 1459000   0.65647985    -4.955365    667.69182  0.038136385  0.037621688           13 
 1460000   0.66985275   -4.9495586    668.54048  0.038158703  0.037597796           11 
 1461000   0.65733675   -4.9352014    670.04435  0.038218363  0.037573962            6 
 1462000   0.66899752   -4.9476447    671.59486  0.038280601  0.037550082           11 
 1463000   0.67649739   -4.9503052    667.82544  0.038039726   0.03752619           13 
 1464000   0.66880161   -4.9566523    670.18694  0.038148164  0.037502189           10 
 1465000   0.66798895   -4.9517887    670.05149  0.038114419  0.037478287           12 
 1466000   0.67566682   -4.9215589    669.66031  0.038066184  0.037454479           11 
 1467000   0.67531056   -4.9587962     668.5502  0.037977176  0.037430562            9 
 1468000   0.67217741   -4.9354679    670.54109  0.038064322  0.037406635           11 
 1469000   0.67567536   -4.9532494    668.24003  0.037907876  0.037382672            8 
 1470000   0.66954113   -4.9614881    667.51759  0.037841133  0.037358552           15 
 1471000   0.67292589   -4.9831358    669.34325  0.037918833  0.037334434           12 
 1472000   0.66945485    -4.980913    669.17867  0.037883756  0.037310499           10 
 1473000   0.65690497   -4.9487056    669.20691  0.037859635  0.037286678           19 
 1474000   0.66212873   -4.9621626    669.41106  0.037845492   0.03726274            6 
 1475000   0.67805539   -4.9754334    668.29447   0.03775675  0.037238665            8 
 1476000   0.66690532   -4.9676851    667.20217  0.037669499  0.037214511            6 
 1477000   0.66424116   -4.9496687    669.71328  0.037785674  0.037190413            8 
 1478000   0.64544622   -4.9467078    669.36466  0.037740452  0.037166435           13 
 1479000   0.64871728   -4.9584435    669.09881  0.037699955  0.037142425           11 
 1480000   0.65865694   -4.9689245    669.40995  0.037692001  0.037118379           15 
 1481000   0.65761085   -4.9591059    670.29736  0.037716484  0.037094395           37 
 1482000   0.65357828    -4.974684    669.91875  0.037669745  0.037070463            6 
 1483000   0.64863117    -4.949468    669.15284  0.037601306  0.037046578            7 
 1484000   0.65235851    -4.959386    670.04797  0.037626234  0.037022749           12 
 1485000   0.64918877   -4.9713629    670.58147  0.037630834  0.036998892           15 
 1486000   0.65733985   -4.9503372    670.83044  0.037619473  0.036975044            7 
 1487000   0.65119637   -4.9616989    671.07983   0.03760815  0.036951138           14 
 1488000   0.65267185   -4.9631475    670.34403  0.037541668  0.036927337           15 
 1489000   0.66838677   -4.9891862    667.38137  0.037350647  0.036903251           12 
 1490000   0.66366241   -4.9602225    671.38524   0.03754951  0.036879153           14 
 1491000   0.65529977   -4.9619202    669.44324  0.037415786  0.036855143           11 
 1492000   0.65237441   -4.9914755    669.47322  0.037392383  0.036831167            9 
 1493000    0.6473372   -4.9603821    668.74131  0.037326485   0.03680722            8 
 1494000   0.65411365   -4.9631621    668.30258  0.037277029  0.036783384           10 
 1495000   0.65880974   -4.9750029     669.9377  0.037343239  0.036759513            5 
 1496000   0.65795128   -4.9581235    669.80601  0.037310941  0.036735637            8 
 1497000   0.65813435    -4.977151    671.57459  0.037384468  0.036711852            9 
 1498000   0.66294757   -4.9947945    671.53435  0.037357274  0.036688003           24 
 1499000   0.66470539   -4.9632281    671.89607  0.037352461  0.036664188           12 
 1500000   0.65125198   -4.9727755    668.30524  0.037128069  0.036640249           14 
 1501000    0.6668951   -4.9905784    670.69695  0.037236117  0.036616233            7 
 1502000   0.64083575   -4.9570073    672.20974  0.037295259  0.036592378            5 
 1503000   0.64223243   -4.9635511    669.57508  0.037124367  0.036568535           15 
 1504000   0.64486445   -4.9786756    670.21618  0.037135205  0.036544758           12 
 1505000   0.65559425   -4.9708803     669.0103   0.03704376  0.036520967           11 
 1506000   0.65342736   -4.9868845    671.95496  0.037182103   0.03649706           10 
 1507000   0.66132309   -4.9482536    671.57937  0.037136661  0.036473314            6 
 1508000   0.64584411   -4.9760443    669.40525   0.03699189  0.036449556           13 
 1509000   0.65370553   -4.9943739    671.21093  0.037067093  0.036425762           10 
 1510000    0.6347086   -4.9907932    669.16754  0.036929776  0.036401835           15 
 1511000   0.65810721   -4.9896842    672.92796  0.037112727  0.036377906           20 
 1512000   0.65855711   -4.9784293    670.06406  0.036930338  0.036353934           10 
 1513000    0.6585257   -4.9858078    668.98313  0.036846394  0.036330133            8 
 1514000   0.65461915   -4.9990189     671.4176  0.036956055  0.036306223            8 
 1515000   0.65216062   -5.0038136    670.92645  0.036904645  0.036282502           14 
 1516000   0.65897858   -4.9997018    670.65446  0.036865351  0.036258812            8 
 1517000   0.65387818   -4.9786434    672.49853   0.03694235  0.036235086            6 
 1518000   0.64275871   -4.9927385    670.42942  0.036804426  0.036211431            9 
 1519000   0.65118984   -4.9913927    671.82662  0.036856848  0.036187855            7 
 1520000   0.64959217   -5.0094498    672.04371  0.036844502  0.036164248           15 
 1521000   0.63978934   -4.9949722     670.6222  0.036742395  0.036140553           26 
 1522000   0.62939311   -4.9957888    672.53632  0.036823057  0.036116792            7 
 1523000   0.66261053   -4.9887158     671.3267  0.036732693  0.036093214           19 
 1524000   0.63060533   -5.0094808    671.24367   0.03670405  0.036069664           15 
 1525000   0.64256532   -5.0271429    672.30304  0.036737871  0.036045992           14 
 1526000   0.64401111   -5.0014841      672.314  0.036714395  0.036022393            7 
 1527000    0.6635255   -5.0123534    671.62656  0.036652836   0.03599886           10 
 1528000   0.63072791   -5.0006327     671.9797  0.036648108  0.035975369            4 
 1529000   0.62110403   -4.9740714    673.28888  0.036695491  0.035951909            8 
 1530000   0.64835622   -4.9997206    670.27715   0.03650747   0.03592837            7 
 1531000   0.64756852   -4.9996743    671.94597  0.036574459  0.035904695           16 
 1532000   0.65011292   -4.9889044    670.97955  0.036498017  0.035880997           19 
 1533000   0.64148256   -5.0044642     671.4684  0.036500783  0.035857328            9 
 1534000   0.64064506   -5.0058428    672.92612  0.036556178   0.03583376            6 
 1535000   0.63621766   -5.0116107    670.52401  0.036401955  0.035810142           15 
 1536000   0.64700205    -5.022144    672.47815  0.036484274  0.035786444            6 
 1537000   0.64873981   -4.9729093    672.94135  0.036485651  0.035762922            8 
 1538000   0.63110141   -4.9880424    673.54425  0.036494595    0.0357396           18 
 1539000   0.64595975   -4.9661292    673.44696  0.036465614  0.035716433            7 
 1540000   0.63931967    -5.014812    671.91867  0.036359236  0.035693052            8 
 1541000   0.64734017   -4.9870328    671.41861  0.036308599  0.035669699           14 
 1542000   0.63704459   -5.0192474    673.44941  0.036394802  0.035646291            6 
 1543000    0.6420983   -5.0006724    673.92077  0.036396672  0.035622899           17 
 1544000     0.640596   -5.0208482    672.48798  0.036295767  0.035599641           11 
 1545000    0.6306638   -5.0074857    674.34901  0.036372654  0.035576277           15 
 1546000   0.62679892   -5.0242611     673.5397  0.036305503  0.035553018           17 
 1547000   0.63922125   -4.9908783    674.69918  0.036344494  0.035529844           11 
 1548000   0.63559073   -4.9979843    676.06439  0.036394508   0.03550676           13 
 1549000   0.63497233   -4.9994932     674.3264  0.036277512  0.035483653           12 
 1550000   0.63159094   -4.9941425    673.35246  0.036201745  0.035460587            6 
 1551000    0.6371454   -5.0131114     674.2948  0.036229035  0.035437555            8 
 1552000   0.63926466   -4.9989146      676.126  0.036304017  0.035414666           10 
 1553000   0.63627529   -5.0224275    675.12421  0.036226884  0.035391651            8 
 1554000   0.64436255    -5.004902    673.54664  0.036118975  0.035368527            8 
 1555000   0.64282822   -5.0164055    675.50988  0.036200958  0.035345433           10 
 1556000   0.62444071   -5.0269528    674.52782  0.036125097  0.035322241            8 
 1557000   0.63337516   -5.0267313    674.40424  0.036095281  0.035299139           15 
 1558000    0.6221909   -5.0455185    672.97576  0.035995708  0.035276064            5 
 1559000   0.63029751   -5.0378169    672.38912  0.035941262  0.035252912            5 
 1560000    0.6127811   -5.0126579     674.8531  0.036049845  0.035229915            7 
 1561000   0.64560103   -5.0023341    673.87071  0.035974306   0.03520685            7 
 1562000   0.62728243   -5.0148457    676.01464  0.036065655  0.035183799            7 
 1563000   0.62623934   -5.0243292    676.12359  0.036048389  0.035160898           11 
 1564000   0.63197457   -4.9949777    676.68317  0.036055156  0.035137907            7 
 1565000   0.62468024   -4.9915999     676.8532  0.036041172  0.035115091            7 
 1566000   0.61405117   -5.0578184     674.4471  0.035890118  0.035092218           10 
 1567000   0.62073364   -5.0190137    674.55214  0.035872801  0.035069317            9 
 1568000   0.62472896   -5.0306875    674.15038  0.035828571   0.03504646           11 
 1569000   0.62424666    -5.037887    675.36769  0.035870389  0.035023571            7 
 1570000   0.62656524   -5.0262998    676.35911  0.035900165  0.035000756            7 
 1571000    0.6209331   -5.0539123    674.62088  0.035785109  0.034977864            9 
 1572000   0.62986021   -5.0494475    673.88353  0.035723258  0.034954791            6 
 1573000   0.62416601   -5.0336718    675.72527  0.035798118   0.03493192            7 
 1574000     0.633878   -5.0450296    673.45151  0.035654993  0.034908954            4 
 1575000   0.61338715   -5.0230461    676.34303  0.035785345  0.034886064           16 
 1576000   0.62639638    -5.015986    674.44415  0.035662233  0.034863126           26 
 1577000   0.63128241   -5.0244702    674.66546  0.035651314  0.034840205           19 
 1578000   0.61367173   -5.0361474    675.28105   0.03566123  0.034817216           11 
 1579000   0.62937331   -5.0647915    675.35037  0.035642304  0.034794347           16 
 1580000   0.62805748   -5.0461474    674.03918  0.035550589  0.034771519           24 
 1581000   0.61321749   -5.0323661    674.16982  0.035534989  0.034748556           11 
 1582000   0.61961926   -5.0307485    674.99986  0.035556251  0.034725602           10 
 1583000    0.6328549   -5.0247853    676.25674  0.035599955  0.034702738           20 
 1584000   0.62188603   -5.0390364    673.40683  0.035427548    0.0346798            8 
 1585000   0.61326877   -5.0601591    674.51926  0.035463684  0.034656935           15 
 1586000   0.62279412   -5.0605096    675.90653  0.035514215   0.03463404            7 
 1587000   0.60453016   -5.0318169    674.86026  0.035436897  0.034611211           11 
 1588000   0.59917741   -5.0611305    675.27289  0.035436235  0.034588323           15 
 1589000   0.62967648   -5.0209267    675.81477  0.035442352  0.034565537           12 
 1590000    0.6217811   -5.0259678    677.69456  0.035518583  0.034542871            8 
 1591000   0.62886905   -5.0552537    677.22024  0.035471414  0.034520315           11 
 1592000   0.60704602   -5.0742559    677.27704  0.035452107  0.034497637           21 
 1593000   0.61702382   -5.0537654    676.16144  0.035371492  0.034475009           19 
 1594000   0.61734512   -5.0510666    677.35593  0.035411749  0.034452454           12 
 1595000   0.60698083   -5.0518101    676.39397  0.035339288  0.034429884            9 
 1596000    0.6164787   -5.0717509     674.1688  0.035200961   0.03440718           20 
 1597000   0.60546224   -5.0721527    676.60286  0.035305931  0.034384504           14 
 1598000   0.59797164   -5.0560199    677.21204  0.035315605  0.034361937           12 
 1599000   0.62653107   -5.0419498    676.43755  0.035253156  0.034339316           10 
 1600000   0.61378645   -5.0509441    676.86632  0.035253454  0.034316902            7 
 1601000    0.6144089   -5.0474167    678.88084  0.035336292  0.034294541            5 
 1602000   0.62262191   -5.0421506    677.55693  0.035245367  0.034272229            8 
 1603000   0.61388701    -5.046632    678.48744  0.035271753  0.034249918            7 
 1604000   0.61514659   -5.0528174    677.83272  0.035215748   0.03422753            9 
 1605000    0.6247439   -5.0727052     679.0457  0.035256786  0.034205301           11 
 1606000   0.60273639   -5.0568716    677.42572  0.035150774  0.034182996           12 
 1607000   0.60764821   -5.0450027    677.65695  0.035140891  0.034160671           21 
 1608000   0.60046651    -5.064202    678.65357  0.035170687  0.034138391           25 
 1609000   0.61628138   -5.0604452    677.07057  0.035066841  0.034116008           10 
 1610000   0.62243531    -5.074402    676.45486  0.035013191  0.034093664            6 
 1611000   0.61189921   -5.0709243    675.77694   0.03495639   0.03407127           14 
 1612000   0.61107682   -5.0600045    678.10877  0.035055251  0.034048935            9 
 1613000   0.61688473   -5.0545039    677.30519  0.034992002   0.03402679           10 
 1614000   0.63048808   -5.0552729    678.99582  0.035057612  0.034004708            7 
 1615000    0.6089889   -5.0627881    677.56315  0.034961979  0.033982493           19 
 1616000   0.57923332   -5.0662977    680.35363  0.035084242  0.033960418            6 
 1617000   0.61683543   -5.0621437    678.58183  0.034971234  0.033938321           12 
 1618000   0.61693416   -5.0643947    676.89092  0.034862532  0.033916236           16 
 1619000   0.59340712   -5.1001765     678.7306  0.034935691  0.033894085           33 
 1620000   0.60147961   -5.0840459    677.80205  0.034866361  0.033871898           12 
 1621000   0.60707715   -5.0930349    677.27675  0.034817846  0.033849657           15 
 1622000   0.59716655   -5.0780034    677.96905  0.034831949  0.033827464           11 
 1623000   0.62804533   -5.0681563     678.0835  0.034816364   0.03380522           13 
 1624000   0.60122769   -5.0866265    677.40921  0.034760325  0.033783064           28 
 1625000    0.5917944   -5.0661066    678.66113  0.034803135  0.033760867           12 
 1626000   0.59907413   -5.0876504     676.9585   0.03469447  0.033738778            9 
 1627000   0.61011064   -5.0857105    677.08904  0.034679832  0.033716723            9 
 1628000   0.60454452   -5.0749307    678.63912  0.034737875  0.033694563           21 
 1629000   0.60681152   -5.0776569    678.84759  0.034727215  0.033672491            8 
 1630000   0.61250187    -5.093219    678.24185  0.034674941  0.033650372            9 
 1631000   0.60560312   -5.0940915    677.55931  0.034618808  0.033628271            5 
 1632000   0.59902701   -5.0631625    679.30504  0.034686736  0.033606313           14 
 1633000   0.59772835   -5.0956057    679.42451  0.034671591  0.033584323           18 
 1634000   0.60715352    -5.079347    677.94659  0.034574999  0.033562367           17 
 1635000   0.58014194   -5.0896375    678.48786   0.03458144  0.033540295           10 
 1636000   0.60404013   -5.0850135    678.07266  0.034539154  0.033518328            7 
 1637000   0.60283299   -5.0695671    679.51729  0.034591595  0.033496466            5 
 1638000   0.60169863    -5.110202    677.96173  0.034491337  0.033474483            7 
 1639000   0.58602383   -5.1149448    675.64209  0.034352353  0.033452334           12 
 1640000   0.60128894    -5.103083    678.09333  0.034455962  0.033430214            7 
 1641000    0.6100795   -5.1020043    677.58968  0.034409388  0.033408209           20 
 1642000   0.59741993   -5.1036115    678.20216  0.034419517  0.033386314            8 
 1643000   0.59844776   -5.1134132    678.71361  0.034424509  0.033364403           16 
 1644000    0.5868159   -5.1016641    679.53372   0.03444514  0.033342533           13 
 1645000   0.60669022   -5.1017221    679.43849  0.034419377  0.033320735           13 
 1646000   0.58220395   -5.0941503    679.99366  0.034426572  0.033298863            7 
 1647000   0.59066387   -5.1003331    679.16919  0.034363954  0.033276998           11 
 1648000   0.59037417   -5.1073862    678.91778  0.034330389  0.033255193           13 
 1649000   0.57882321   -5.0980833     679.4828  0.034338124  0.033233385           12 
 1650000   0.57660201   -5.0938425     679.3896  0.034312606  0.033211605           20 
 1651000   0.58263012   -5.0916396    679.51431  0.034298118  0.033189812           17 
 1652000   0.59110122   -5.1120071    677.82709  0.034192246  0.033168079            7 
 1653000   0.59041909   -5.1088123    678.80411  0.034220816  0.033146411           15 
 1654000   0.57713648   -5.1182042    679.27408  0.034223805  0.033124775           11 
 1655000   0.59961339   -5.0938058    681.05296  0.034292697  0.033103143            9 
 1656000   0.59332617   -5.0946009    679.84264  0.034211083  0.033081591           36 
 1657000   0.59631512    -5.081963    681.39117  0.034268315  0.033060109           15 
 1658000   0.59035685   -5.0998165    679.50429  0.034152809  0.033038625           30 
 1659000   0.60722325   -5.1096565    680.41767  0.034178103  0.033017106           26 
 1660000   0.59290379   -5.1069522    679.76235  0.034124616  0.032995571           11 
 1661000   0.59179361   -5.0963311    678.13154  0.034022253  0.032973961           10 
 1662000   0.59329393   -5.1104807    680.33351   0.03411219  0.032952412            9 
 1663000   0.59052134   -5.1289244    679.87697    0.0340688  0.032930897           13 
 1664000   0.59273328   -5.0821675    682.22787  0.034166059  0.032909437           14 
 1665000   0.59595444   -5.1077754    680.85195  0.034076674   0.03288803           15 
 1666000   0.59274357   -5.1307104    679.40831  0.033984009  0.032866593           10 
 1667000   0.59872342   -5.1127996    681.35665   0.03406102  0.032845209           13 
 1668000   0.59122111   -5.1209114    682.18894  0.034082181  0.032823865           19 
 1669000   0.58921431   -5.1168334     682.1137  0.034058004  0.032802558           11 
 1670000   0.58048929   -5.1175978     681.8237  0.034023139  0.032781219            7 
 1671000   0.58526355   -5.1217533    681.09761  0.033966568  0.032759884           11 
 1672000   0.59102781   -5.1177934    680.95687  0.033939238  0.032738674           13 
 1673000   0.59892555    -5.120204    682.41291  0.033991478  0.032717421           14 
 1674000   0.58587228   -5.1274343     683.2546  0.034013073  0.032696164           19 
 1675000   0.59988944   -5.1298581    681.69855  0.033915351  0.032675041           13 
 1676000   0.57115398   -5.1223898    681.72119   0.03389624  0.032653897           18 
 1677000   0.58936496   -5.1557223    682.04183  0.033891962  0.032632711           53 
 1678000   0.58027743   -5.1571395    681.30857  0.033835348  0.032611456           73 
 1679000   0.57100299   -5.1401504    681.31188  0.033815361  0.032590243           40 
 1680000   0.57540479   -5.1514094    680.44108  0.033752038   0.03256893           75 
 1681000   0.59609983   -5.1494851    680.37389  0.033728628  0.032547604           27 
 1682000   0.57712398    -5.136452    681.82396  0.033780418  0.032526396           33 
 1683000   0.57568092   -5.1179407    682.21457  0.033779687  0.032505308            9 
 1684000   0.58212935   -5.1355857    681.89591  0.033743859   0.03248414            9 
 1685000   0.58672235   -5.1472624    680.70158  0.033664767  0.032463037           17 
 1686000   0.57911302   -5.1370287     683.1414  0.033765391  0.032441831            8 
 1687000   0.56206026   -5.1338175    681.28015  0.033653436  0.032420726           18 
 1688000   0.58483854   -5.1395722    682.17641  0.033677745  0.032399649           29 
 1689000   0.58332428   -5.1364939    681.64551  0.033631612  0.032378544           12 
 1690000   0.58221496   -5.1397712    683.38571   0.03369752   0.03235746           13 
 1691000   0.56394385   -5.1265937    682.37222  0.033627647  0.032336389           11 
 1692000   0.57696994   -5.1487584    680.79546  0.033530115  0.032315341           10 
 1693000   0.58058448   -5.1470807    682.16496   0.03357772  0.032294289           16 
 1694000   0.55942566   -5.1325595    681.75162  0.033537565  0.032273302           25 
 1695000   0.58012079   -5.1395711     682.5006  0.033554602  0.032252333           24 
 1696000   0.57092239   -5.1431262    682.74601  0.033546876  0.032231309           26 
 1697000   0.57276259   -5.1408429    682.51238  0.033515635  0.032210301           20 
 1698000   0.58004627   -5.1488003    681.17593  0.033430307  0.032189313            6 
 1699000   0.56400123   -5.1328584    682.47267  0.033474233  0.032168297            9 
 1700000   0.57159863   -5.1429531    680.71495   0.03336838  0.032147311            7 
 1701000   0.57582442   -5.1726413     682.2122  0.033422114  0.032126263           18 
 1702000   0.58335528   -5.1698962    680.76489  0.033331614   0.03210523           24 
 1703000     0.565402   -5.1675092    681.72242  0.033358897  0.032084132           29 
 1704000   0.56194717   -5.1509912    683.17164  0.033410194  0.032063089           22 
 1705000   0.57557691   -5.1502638    681.74148  0.033320698  0.032042037            7 
 1706000   0.57207622   -5.1563815    683.66028  0.033394894  0.032021007           13 
 1707000   0.58698937   -5.1552593     681.6043  0.033274961  0.032000059           14 
 1708000   0.56867238    -5.157943    680.52708  0.033202921  0.031979119           19 
 1709000   0.56976954   -5.1578058    681.08205  0.033210555  0.031958124           17 
 1710000   0.56665955    -5.156442    681.76152  0.033224245  0.031937082           36 
 1711000   0.57411875   -5.1507117    682.16072  0.033224271   0.03191598           17 
 1712000   0.57269373   -5.1616981     680.9181  0.033144378  0.031894941           13 
 1713000   0.56883839    -5.156169    679.27758  0.033045222  0.031873911           14 
 1714000   0.56901565    -5.163891    680.42795  0.033081872  0.031852738           24 
 1715000   0.56769864   -5.1637403    680.75249  0.033078352  0.031831545           17 
 1716000   0.56719965   -5.1825655    680.85577  0.033064091  0.031810346           27 
 1717000   0.57180124   -5.1731703    680.20417   0.03301321  0.031789177           10 
 1718000   0.57039166   -5.1571447    680.52139   0.03300938  0.031768093           28 
 1719000   0.57448558   -5.1610792    679.94951  0.032962454   0.03174703           46 
 1720000   0.56788324   -5.1625017    680.44654  0.032967371   0.03172595           15 
 1721000   0.56745965   -5.1569031    680.73933  0.032962392  0.031704821           30 
 1722000   0.56276894    -5.164839    681.18426  0.032964782  0.031683733           11 
 1723000   0.56709753   -5.1399833    679.76313  0.032876917   0.03166264           15 
 1724000   0.58410246   -5.1637938    681.27724  0.032931035  0.031641626           20 
 1725000   0.55329085   -5.1781341    680.08103  0.032854156  0.031620657           10 
 1726000   0.56586553   -5.1593435    681.03074  0.032880974  0.031599712           14 
 1727000   0.55966698   -5.1711112    680.09058  0.032816569   0.03157873           11 
 1728000   0.55112033   -5.1720549    681.97717  0.032888559  0.031557837           15 
 1729000   0.56401031   -5.1732106     680.7205  0.032808969  0.031536974           12 
 1730000   0.55299843   -5.1774347    680.88449  0.032797904  0.031516049           10 
 1731000   0.57234802   -5.1605642    681.61258  0.032814009  0.031495245           12 
 1732000   0.55497328   -5.1663806    681.50143  0.032789715  0.031474453           10 
 1733000   0.55794452   -5.1551716    680.79122  0.032736642  0.031453665           13 
 1734000   0.55986854   -5.1506068    682.59599  0.032804498   0.03143297           14 
 1735000   0.56233061   -5.1816595    682.05738   0.03275972  0.031412211           18 
 1736000   0.57178695   -5.1814634    681.71504  0.032724416  0.031391468           18 
 1737000   0.55380187   -5.1690193    682.34519  0.032735808  0.031370805           10 
 1738000   0.55829254   -5.1812561    682.78812   0.03273821  0.031350212           41 
 1739000   0.55183797   -5.1840642    682.23378   0.03269282  0.031329489           17 
 1740000   0.55962125   -5.1886277    682.20724  0.032672761  0.031308767           10 
 1741000   0.56123963   -5.1673003     682.5974  0.032672669   0.03128817           13 
 1742000   0.56210622    -5.183901    682.88123  0.032667491  0.031267583            9 
 1743000    0.5605462    -5.200468    682.17391  0.032614932  0.031246963           22 
 1744000    0.5640555   -5.1769632    680.93792  0.032537171  0.031226273           14 
 1745000   0.55992974   -5.1760132    681.94149  0.032566451  0.031205574           16 
 1746000   0.55684918   -5.1757434    682.87141  0.032592182  0.031184929           35 
 1747000    0.5498819   -5.1799315     680.8225  0.032475792  0.031164284           41 
 1748000   0.54018391   -5.1773674    682.47152  0.032535828  0.031143619           14 
 1749000   0.55727442   -5.1734891    682.11431  0.032500206  0.031123069           24 
 1750000   0.56326418   -5.1973148    681.00001  0.032428572  0.031102495           29 
 1751000   0.55032682   -5.1918752    682.61667  0.032486992   0.03108195           36 
 1752000   0.56957723   -5.2027928    682.64104  0.032469608  0.031061363           19 
 1753000   0.53343953   -5.2118283    681.62568  0.032402818  0.031040715           13 
 1754000   0.56096389   -5.1868274    680.50022  0.032330873  0.031020127           27 
 1755000   0.56471768   -5.1735342    682.24803  0.032395443    0.0309996           17 
 1756000   0.54900028    -5.208294    681.35425  0.032334579  0.030979127           18 
 1757000   0.55423609   -5.1739671    681.03744  0.032301149  0.030958626           10 
 1758000   0.55523264   -5.2020385     682.6417  0.032358822  0.030938212           11 
 1759000   0.55064346   -5.1857137     680.8219  0.032254212  0.030917696           28 
 1760000   0.55102019   -5.1971795    682.03129  0.032293148  0.030897244           16 
 1761000   0.54307048   -5.2175339    681.76442  0.032262182  0.030876735           11 
 1762000   0.56439975   -5.2022751    681.32128  0.032222913  0.030856283           12 
 1763000   0.53866018   -5.1978416    682.16914  0.032244713  0.030835832           31 
 1764000   0.54528976   -5.1891686    682.63599  0.032248488  0.030815448           14 
 1765000   0.55048428   -5.1962052    682.98237  0.032246571  0.030795098           12 
 1766000   0.55225202   -5.2137916     682.1093  0.032187113  0.030774688           14 
 1767000   0.55512147   -5.1976966    683.22643  0.032221582  0.030754268           15 
 1768000   0.54099261   -5.2105518    683.29291  0.032206491  0.030733903           15 
 1769000   0.54559298    -5.207501      681.745  0.032115366  0.030713543           30 
 1770000    0.5420279   -5.1947937    682.79085  0.032146462  0.030693198           28 
 1771000   0.55080345   -5.1884871    682.17692  0.032099422  0.030672867           35 
 1772000   0.54211952   -5.2338381    683.39063  0.032138386  0.030652499           27 
 1773000    0.5427091   -5.2184349    681.73657  0.032042516  0.030632165           50 
 1774000   0.54951953   -5.1986496    683.85984  0.032124194  0.030611862           11 
 1775000    0.5409301   -5.2166455    683.07321  0.032069165  0.030591581           32 
 1776000   0.55304039   -5.2306856    680.78822  0.031943892  0.030571289           15 
 1777000   0.55152641    -5.225465     682.3664  0.031999925  0.030551044           32 
 1778000   0.55286299   -5.2077934    682.90173  0.032007018  0.030530865           20 
 1779000   0.53428684   -5.2046844    683.47195  0.032015737  0.030510718           20 
 1780000   0.53821648   -5.2348143    683.29245  0.031989347  0.030490536           23 
 1781000   0.53414917   -5.2334658    682.67941  0.031942701  0.030470423            9 
 1782000   0.54839747   -5.2342951    682.64764   0.03192329  0.030450252           38 
 1783000   0.53230625   -5.2348744    681.40693  0.031847398  0.030430087           23 
 1784000   0.53960089   -5.2262186    682.58563  0.031884605  0.030409955           11 
 1785000   0.55392802   -5.2091058    683.14129  0.031892684  0.030389917           10 
 1786000   0.53896181    -5.231582    683.29565  0.031882029  0.030369846           23 
 1787000    0.5538387   -5.2119523    683.94845   0.03189463  0.030349879           10 
 1788000    0.5402729   -5.2356822     681.9552  0.031783893   0.03032984           21 
 1789000   0.53734574   -5.2159554    683.09696   0.03181931   0.03030986           35 
 1790000   0.53274189   -5.2179478    684.50941  0.031867291  0.030289926           15 
 1791000   0.52456067   -5.2174299    682.15427  0.031739916   0.03027001           30 
 1792000   0.55356216    -5.237537    683.09656  0.031766023  0.030250039           18 
 1793000   0.53414542   -5.2347917    682.82737  0.031735795  0.030230081           23 
 1794000   0.54410844   -5.2376582    683.51886  0.031750226  0.030210153           19 
 1795000   0.54567607   -5.2207951    682.21059  0.031671801  0.030190254           21 
 1796000   0.52427879   -5.2278997    683.92296  0.031733619  0.030170359           18 
 1797000   0.52340731   -5.2220354    683.68619   0.03170498  0.030150448           19 
 1798000   0.53119921   -5.2370571     683.9834  0.031701122  0.030130556           37 
 1799000   0.52454014    -5.228611    682.69756  0.031623937  0.030110665           26 
 1800000   0.53886764   -5.2497467    682.97479  0.031619203   0.03009078           18 
 1801000   0.54417815   -5.2412101    682.44827  0.031577284  0.030070913           53 
 1802000    0.5397525   -5.2451542    681.70285  0.031525289  0.030050993           56 
 1803000   0.52900573   -5.2483725    684.69196  0.031645958  0.030031152           62 
 1804000   0.52767867   -5.2392622    683.22698  0.031560744   0.03001141           56 
 1805000   0.52238604    -5.249576    684.16414  0.031586525  0.029991592           36 
 1806000   0.52676917   -5.2349583    683.49418  0.031538122  0.029971813           82 
 1807000   0.53597545   -5.2380331    684.12564  0.031549789  0.029951995           65 
 1808000   0.52909821   -5.2295816    683.46274  0.031501786  0.029932263           36 
 1809000   0.52992995    -5.244382    683.03329  0.031464589  0.029912475           59 
 1810000   0.53059303   -5.2735063    682.42877  0.031419372  0.029892629           34 
 1811000   0.53189464   -5.2267519    684.72576   0.03150772   0.02987283           36 
 1812000   0.51821885   -5.2433213    682.97535   0.03140983  0.029853082           14 
 1813000   0.53563958   -5.2486624    683.54073  0.031418493  0.029833308           29 
 1814000   0.52709222   -5.2519309    683.46885  0.031397871  0.029813589           29 
 1815000   0.51605969   -5.2638475     683.1075  0.031363981  0.029793893           19 
 1816000    0.5368821   -5.2588933    682.92921  0.031338528  0.029774129           32 
 1817000    0.5383766   -5.2514163    683.48833  0.031346924  0.029754401           51 
 1818000   0.53652867   -5.2608485    681.61131  0.031243643  0.029734633           71 
 1819000   0.51159769   -5.2656179    683.12701  0.031295905   0.02971488           60 
 1820000   0.54307087   -5.2775817    683.05054  0.031275208  0.029695124           56 
 1821000   0.51781105   -5.2628614    683.23136  0.031266308  0.029675351           43 
 1822000   0.53280852   -5.2651545    683.02598  0.031239754  0.029655604           63 
 1823000   0.52838899   -5.2599736    681.82109  0.031167539  0.029635865           54 
 1824000   0.51140297   -5.2599913     683.9838   0.03124926  0.029616127           48 
 1825000   0.52314459   -5.2813219      683.896  0.031228128  0.029596461           38 
 1826000   0.50968703   -5.2774801    683.25176  0.031181625  0.029576827           14 
 1827000   0.53077483   -5.2784636    681.75348  0.031096218  0.029557171           36 
 1828000   0.52936139   -5.2744408    683.88431  0.031176345  0.029537537           28 
 1829000    0.5339619   -5.2831221    683.08339  0.031122808  0.029517849           38 
 1830000   0.51985566   -5.2719387    682.78552  0.031092237  0.029498225           17 
 1831000   0.51862438   -5.2472539    683.11551  0.031090275  0.029478762           23 
 1832000   0.51762702    -5.275123    684.71513  0.031146067  0.029459323           18 
 1833000   0.51158093   -5.2638906    684.81405  0.031133572  0.029439902           21 
 1834000   0.52585361   -5.2565387    685.53625  0.031149412  0.029420494           14 
 1835000   0.51445232   -5.2701876    684.19407  0.031071483  0.029401068           18 
 1836000   0.52807584   -5.2654559    684.31821  0.031060195  0.029381673           19 
 1837000   0.52338823   -5.2534851    683.20736  0.030992894  0.029362385           19 
 1838000   0.50392188   -5.2626304    683.78447  0.031002197  0.029343064           19 
 1839000   0.51092007   -5.2614717     684.8367  0.031033021  0.029323727           54 
 1840000   0.51944197    -5.278492    684.32731  0.030993085  0.029304516           29 
 1841000   0.51271601   -5.2572109     685.1201  0.031012136   0.02928527            9 
 1842000   0.51524801   -5.2564442    684.21884  0.030954526  0.029266053           32 
 1843000   0.51767424   -5.2695798    683.65384  0.030912183  0.029246791           21 
 1844000   0.51340849   -5.2752654    684.49163  0.030933281  0.029227521           39 
 1845000    0.5187494   -5.2810984    684.51669  0.030917646  0.029208264           23 
 1846000   0.52486577   -5.2798516    684.89393  0.030917928  0.029188989           24 
 1847000   0.52521768   -5.2601346    682.40228  0.030788769  0.029169651           17 
 1848000   0.51358367   -5.2767548    684.50403  0.030866885  0.029150399           21 
 1849000   0.52135978   -5.2559418    683.26162  0.030794196  0.029131166           24 
 1850000   0.51367385   -5.2854507    685.11089  0.030860851  0.029111982           27 
 1851000   0.51620218   -5.2691293    685.06681  0.030842194  0.029092758           26 
 1852000   0.50511562   -5.2675919    684.21744  0.030787322  0.029073582           44 
 1853000   0.51050125   -5.2708985    683.63872   0.03074468  0.029054427           38 
 1854000   0.51770406   -5.2712256    683.28603  0.030712245  0.029035261           35 
 1855000   0.50608008   -5.2926598    682.18517  0.030646234  0.029016028           33 
 1856000   0.50665672   -5.2871047    683.79178  0.030701858  0.028996781           47 
 1857000   0.52990115   -5.2804979    683.87858   0.03068922   0.02897757           46 
 1858000   0.51576523   -5.2997517     685.0331  0.030724484  0.028958396           27 
 1859000   0.50960478   -5.3006243    685.25432  0.030717873  0.028939202           27 
 1860000   0.51725992   -5.2869256    683.23443  0.030610861  0.028919999           10 
 1861000   0.51053573   -5.2894841    682.78913  0.030574473  0.028900846           34 
 1862000   0.50882792   -5.2959117    685.22186  0.030666929  0.028881693           11 
 1863000    0.4998965   -5.2965268    684.11113  0.030600784  0.028862578            9 
 1864000   0.51210317   -5.2821794    683.95845  0.030577542  0.028843441           25 
 1865000   0.51233057   -5.2877527    683.20844  0.030527634  0.028824262           34 
 1866000   0.50547784   -5.3053855    682.09362  0.030461487  0.028805128           28 
 1867000   0.50831838   -5.2887025    682.59678   0.03046763  0.028785967           17 
 1868000   0.49783473   -5.3117651    683.12353  0.030474818  0.028766789            8 
 1869000   0.51025793   -5.2910174    683.11611  0.030458182  0.028747659           27 
 1870000   0.50435036   -5.2900527    682.43941  0.030411739  0.028728499           35 
 1871000   0.51163167   -5.2988085     683.1577  0.030427476  0.028709406           36 
 1872000   0.49716669   -5.3000769     683.1225  0.030409655  0.028690347           23 
 1873000   0.49785509   -5.2964869    683.12558  0.030393557  0.028671265           26 
 1874000   0.49677114   -5.3201419    683.55278  0.030396335  0.028652225           26 
 1875000   0.49733743   -5.3028426     683.1468   0.03036208  0.028633125           22 
 1876000   0.51218687   -5.3041579    683.35254  0.030355035  0.028614086           36 
 1877000   0.49969385   -5.2969933    682.67973  0.030308992  0.028595079           52 
 1878000    0.5011866   -5.3039486    682.62622  0.030290478  0.028576053           25 
 1879000   0.50636537   -5.2965366    683.49963  0.030313093  0.028557061           20 
 1880000   0.50637094   -5.3064639    684.24682   0.03033009  0.028538071           26 
 1881000   0.50463585   -5.3237953    683.09298  0.030262847  0.028519043           57 
 1882000   0.48652381   -5.3198496    683.57788  0.030268238  0.028500011           55 
 1883000   0.49922815   -5.3078767    681.93707  0.030179548  0.028480939           85 
 1884000    0.5073562    -5.316424    681.87177  0.030160641   0.02846188           75 
 1885000   0.50341322   -5.2899801    683.83054  0.030231235  0.028442968           45 
 1886000   0.49968223   -5.2998862    682.84717  0.030171755  0.028424045           37 
 1887000   0.48912539   -5.3120135    683.93912  0.030203989  0.028405154           20 
 1888000    0.4940516   -5.3055767    683.18527  0.030154717  0.028386264           33 
 1889000   0.49179621   -5.3080548    683.45803  0.030150787  0.028367357           33 
 1890000   0.48656249   -5.3016089    682.33091  0.030085137   0.02834842           28 
 1891000   0.49662618   -5.3037122    683.51081  0.030121224   0.02832953           21 
 1892000   0.48789954   -5.3089577    682.23185  0.030048972  0.028310664           29 
 1893000   0.50079732   -5.3243189    683.48308  0.030088179  0.028291825           16 
 1894000   0.49314771   -5.3184583    682.97193  0.030049803  0.028272905           21 
 1895000   0.49537859   -5.3251622     682.7035  0.030022141  0.028253966           14 
 1896000   0.49275156   -5.3186311     682.8817  0.030014139   0.02823509           24 
 1897000   0.49560753   -5.3226472    683.15947   0.03001052  0.028216211           14 
 1898000   0.49585337   -5.3177975     683.9534  0.030029566  0.028197357           26 
 1899000   0.49152424   -5.3117894    682.62146  0.029955303  0.028178531           27 
 1900000   0.50589646   -5.3386411     681.4371  0.029887592  0.028159713           26 
 1901000    0.4915893   -5.3139683     684.7246  0.030015983  0.028140896           16 
 1902000    0.4940663   -5.3052605    681.64074  0.029865087   0.02812212           22 
 1903000   0.49507072   -5.3273855    682.32951  0.029879555  0.028103307           28 
 1904000   0.50016257    -5.332222    683.26134  0.029904646  0.028084527           20 
 1905000   0.48651694   -5.3199503    682.57196  0.029858791  0.028065734           46 
 1906000   0.48465146   -5.3237411    682.14779   0.02982458  0.028046944           34 
 1907000   0.49229705   -5.3223584    683.03474  0.029847699  0.028028164           18 
 1908000   0.48780543   -5.3380176    681.55547  0.029767447  0.028009391           44 
 1909000   0.48250962   -5.3281437     682.5406  0.029794858  0.027990637           54 
 1910000    0.4935974   -5.3182862    683.11545  0.029804339  0.027971876           36 
 1911000   0.47855752   -5.3384966    682.47138  0.029760657  0.027953103           73 
 1912000   0.49930295   -5.3295334    682.70057  0.029755081  0.027934319           41 
 1913000   0.48964296    -5.331025     682.4579  0.029728955  0.027915538           45 
 1914000   0.48170088   -5.3397046    680.90454  0.029645792  0.027896766           58 
 1915000   0.48282925   -5.3416604    680.89509    0.0296299  0.027877928           71 
 1916000   0.48843432    -5.317116    681.66535  0.029647936  0.027859101           14 
 1917000    0.4909544   -5.3342808    681.21704  0.029612982  0.027840338           27 
 1918000   0.49024885   -5.3471926    681.90863  0.029627591  0.027821576           71 
 1919000   0.48203969   -5.3490313    681.48858  0.029593911  0.027802723           58 
 1920000   0.48706587   -5.3525208    680.11498  0.029518879   0.02778391           64 
 1921000    0.4834102   -5.3334931    681.52697  0.029564765  0.027765082           92 
 1922000   0.48846625   -5.3349713    679.44082  0.029458933  0.027746299           67 
 1923000   0.48419385   -5.3377368    681.45404  0.029530856  0.027727529           39 
 1924000   0.48966505   -5.3554421    681.63474  0.029523334  0.027708786           70 
 1925000   0.47623667   -5.3376499    680.10624  0.029441829  0.027690037          130 
 1926000   0.47492707   -5.3579446    682.55277  0.029532397  0.027671327           92 
 1927000   0.48720139   -5.3383282       681.39  0.029466788  0.027652647           71 
 1928000   0.49213297   -5.3275413    679.97433  0.029390315  0.027633969           56 
 1929000   0.49231647   -5.3657886    680.21657  0.029385544  0.027615264           67 
 1930000    0.4842094   -5.3372009    680.38148  0.029377439  0.027596606           66 
 1931000   0.47423903   -5.3294855    681.58084  0.029413984  0.027577896           76 
 1932000   0.48937783   -5.3538117    680.54573  0.029354112  0.027559208           55 
 1933000   0.47566621    -5.363633    680.83135   0.02935124  0.027540498           52 
 1934000   0.48852864   -5.3551261    681.63781  0.029370812  0.027521867           82 
 1935000   0.47964365   -5.3498845    680.99051  0.029327757  0.027503234           89 
 1936000    0.4807562   -5.3338039    680.97911  0.029312117   0.02748465           47 
 1937000   0.47352903   -5.3558143     680.6944  0.029284736  0.027466025           66 
 1938000    0.4740311   -5.3575257    680.62168  0.029266498  0.027447388           41 
 1939000   0.47157106   -5.3457873    680.19261  0.029232964  0.027428803           83 
 1940000   0.47709299   -5.3470193    681.69719  0.029282525  0.027410199           44 
 1941000   0.48660304   -5.3610067     680.3703  0.029210471  0.027391611           67 
 1942000   0.48375772   -5.3570301    681.81038  0.029257226   0.02737298          180 
 1943000   0.48078656   -5.3524549    677.78236   0.02906941  0.027354359           59 
 1944000    0.4825239   -5.3617491    680.32083  0.029163273  0.027335747          100 
 1945000   0.48087961   -5.3655438    680.22387  0.029144125  0.027317182           59 
 1946000   0.46920456   -5.3589637     680.5064  0.029141247   0.02729864           74 
 1947000   0.47201264   -5.3789148    680.22438  0.029114209  0.027280083           31 
 1948000   0.47339625   -5.3655994    680.44541  0.029108719  0.027261509           48 
 1949000   0.48035655   -5.3599316    679.62763  0.029058818   0.02724295           42 
 1950000   0.48325269   -5.3626826    680.72216  0.029090691   0.02722443           68 
 1951000   0.47006061   -5.3526281    679.66364  0.029030567  0.027205863           38 
 1952000   0.47115082   -5.3654202    679.40144  0.029004502  0.027187285           92 
 1953000   0.47609577   -5.3704207     680.8424  0.029051135  0.027168738           33 
 1954000   0.47065561    -5.376811    679.78948  0.028991363  0.027150201           49 
 1955000   0.48061303   -5.3824709     679.7051  0.028972937  0.027131681           68 
 1956000   0.47104456   -5.3621479    679.91459   0.02896705  0.027113205           52 
 1957000   0.48041273   -5.3439226    679.67366  0.028941988  0.027094782           52 
 1958000   0.46943239   -5.3632406    680.02486  0.028942154  0.027076422          113 
 1959000    0.4734575   -5.3762287    680.90992   0.02896503  0.027058036           57 
 1960000   0.47029301   -5.3662432    680.78618  0.028944991  0.027039687          130 
 1961000   0.45757525   -5.3844462    678.68353  0.028840877  0.027021287          108 
 1962000   0.46763751   -5.3800348    680.07683  0.028885356  0.027002894           64 
 1963000   0.46062102   -5.3788084    679.31871  0.028838458  0.026984514          103 
 1964000   0.46744519   -5.3634184    678.94339  0.028807849  0.026966161           68 
 1965000   0.46607135   -5.3762715    679.25605  0.028806448  0.026947804          114 
 1966000   0.46716081   -5.3950377    679.49645  0.028801986  0.026929451          100 
 1967000   0.47251765    -5.388409    679.10732  0.028770857  0.026911099           44 
 1968000   0.47257438    -5.391543    679.09671  0.028755789  0.026892807          120 
 1969000   0.47797075   -5.4082507    679.57488  0.028761422  0.026874474           74 
 1970000   0.46076269   -5.3916257    679.39644  0.028739274   0.02685614           39 
 1971000    0.4677844   -5.3892381    679.91847  0.028746764  0.026837815           50 
 1972000   0.47417181    -5.388088    679.36516  0.028708805  0.026819499          100 
 1973000   0.47034882   -5.3793819    680.30193   0.02873382  0.026801242           65 
 1974000   0.46416819   -5.4025276    680.87702  0.028743542  0.026783023           79 
 1975000   0.45415311   -5.3880826    679.09791   0.02865392  0.026764834           84 
 1976000    0.4752095   -5.3926772    680.47818  0.028697629  0.026746616          184 
 1977000   0.46109366   -5.4089185     679.8013  0.028654582  0.026728443          142 
 1978000   0.46006139   -5.3986003    679.27973  0.028618122   0.02671024          115 
 1979000   0.47029973    -5.392578    679.97768   0.02863305  0.026692066           81 
 1980000   0.45997549   -5.3798771    680.68603  0.028648402  0.026673899           81 
 1981000   0.46395373   -5.3964443    678.79294  0.028554305  0.026655728           70 
 1982000   0.45650455   -5.3901678    679.21004  0.028557435  0.026637598          113 
 1983000   0.45151654     -5.39752    680.91137  0.028614531  0.026619449          112 
 1984000   0.46087303   -5.4071654    680.11146   0.02856651  0.026601337          102 
 1985000   0.46183399   -5.3918146    678.43764  0.028481849  0.026583186          109 
 1986000   0.45588363   -5.4094873    678.40379  0.028466087  0.026565037           93 
 1987000   0.46252512   -5.4131077    678.54589   0.02845772  0.026546925          202 
 1988000   0.45642555   -5.3991816    680.24478   0.02851462  0.026528798          105 
 1989000   0.46096304   -5.4103519    678.79708   0.02843963  0.026510676           68 
 1990000   0.45614551   -5.4158464    680.31868  0.028489057  0.026492593           57 
 1991000   0.45651335   -5.4162752    677.75812  0.028367576  0.026474473          120 
 1992000   0.45716865   -5.4122273    678.66446  0.028391251  0.026456353          127 
 1993000   0.44742724   -5.4062318    678.73234  0.028379844  0.026438247          134 
 1994000   0.44722934   -5.4263915    678.96341  0.028375268  0.026420151          138 
 1995000   0.45224583    -5.413037    678.70793  0.028350373  0.026402045          146 
 1996000   0.45311474   -5.4217846    678.16973  0.028313699  0.026383986          133 
 1997000   0.44251104   -5.4419911    678.49096  0.028312926   0.02636589          105 
 1998000   0.45946166   -5.4367643    678.08973  0.028282021  0.026347793          192 
 1999000   0.46771022   -5.4264332     677.9152  0.028260597   0.02632974          135 
 2000000    0.4548833   -5.4276802    678.98973  0.028291239  0.026311693          142 
 2001000    0.4614789    -5.417355    677.20358  0.028202715  0.026293643          125 
 2002000   0.45353147   -5.4315595     678.3281  0.028235436  0.026275605          117 
 2003000   0.44225476    -5.421623    680.41292  0.028308076  0.026257588          113 
 2004000   0.45406314   -5.4475473    678.17699  0.028200973  0.026239609          159 
 2005000   0.45831319   -5.4312806    677.60142  0.028162985  0.026221627          174 
 2006000   0.45940876   -5.4271298    678.01994  0.028166332  0.026203665          138 
 2007000    0.4558231   -5.4397512    679.34839  0.028207457  0.026185726           96 
 2008000   0.45507705   -5.4195353    677.89329  0.028133022    0.0261678           74 
 2009000   0.43575613   -5.4255631     677.5146   0.02810331  0.026149895           72 
 2010000   0.45175078   -5.4345989    678.43758  0.028127595  0.026131944          169 
 2011000   0.45805168   -5.4487628    678.12215  0.028100537  0.026114002          164 
 2012000   0.45519955   -5.4411685    677.28839  0.028052037   0.02609604           87 
Loop time of 5047.18 on 48 procs for 2000000 steps with 4000 atoms

Performance: 68473.869 tau/day, 396.261 timesteps/s
99.4% CPU use with 48 MPI tasks x no OpenMP threads

MPI task timing breakdown:
Section |  min time  |  avg time  |  max time  |%varavg| %total
---------------------------------------------------------------
Pair    | 343.99     | 375.68     | 405.55     |  69.2 |  7.44
Neigh   | 33.755     | 35.259     | 36.448     |  10.8 |  0.70
Comm    | 323.75     | 352.55     | 388.65     |  72.2 |  6.99
Output  | 4.2368     | 4.2384     | 4.2712     |   0.2 |  0.08
Modify  | 4224.2     | 4232.2     | 4242.7     |   6.7 | 83.85
Other   |            | 47.26      |            |       |  0.94

Nlocal:        83.3333 ave          90 max          77 min
Histogram: 3 0 3 13 7 8 9 2 1 2
Nghost:        2314.77 ave        2337 max        2294 min
Histogram: 3 2 4 6 12 7 6 4 2 2
Neighs:        15694.4 ave       17246 max       13910 min
Histogram: 3 1 3 6 6 7 10 8 2 2
FullNghs:      31390.3 ave       33916 max       28913 min
Histogram: 3 1 3 10 9 6 8 4 2 2

Total # of neighbors = 1506735
Ave neighs/atom = 376.68375
Neighbor list builds = 107747
Dangerous builds = 0

#clear
#
#next RN
#
#jump SELF
Total wall time: 1:24:10
