
units lj                  # Use reduced LJ style units
atom_style atomic         # Uncharged point particles
atom_modify map hash      # Needed for indexing of clusters etc
                          # Used to be able to find where atoms are in relation to each other.

lattice fcc 1.0 spacing 1 1 1
Lattice spacing in x,y,z = 1.5874011 1.5874011 1.5874011
region box block 0 10 0 10 0 10 units lattice
create_box 2 box
Created orthogonal box = (0.0000000 0.0000000 0.0000000) to (15.874011 15.874011 15.874011)
  3 by 4 by 4 MPI processor grid
create_atoms 1 box
Created 4000 atoms
  using lattice units in orthogonal box = (0.0000000 0.0000000 0.0000000) to (15.874011 15.874011 15.874011)
  create_atoms CPU = 0.016 seconds
set type 1 type/fraction 2 0.47 78393
Setting atom values ...
  1873 settings made for type/fraction
mass 1 1.0
mass 2 1.0
pair_style lj/cut  3.5
pair_modify tail  yes
pair_coeff 1  1  1.0  1.0   # Intearaction between 1 and 1 set with epsilon = 1 and sigma = 1
pair_coeff 1  2  1.5  0.8
pair_coeff 2  2  0.5  0.88

write_data data.0
System init for write_data ...
Neighbor list info ...
  update every 1 steps, delay 10 steps, check yes
  max neighbors/atom: 2000, page size: 100000
  master list distance cutoff = 3.8
  ghost atom cutoff = 3.8
  binsize = 1.9, bins = 9 9 9
  1 neighbor lists, perpetual/occasional/extra = 1 0 0
  (1) pair lj/cut, perpetual
      attributes: half, newton on
      pair build: half/bin/atomonly/newton
      stencil: half/bin/3d
      bin: standard
WARNING: Not all mixed pair coeffs generated from mixing. Use write_data with 'pair ij' option to store all pair coeffs. (../write_data.cpp:312)


#############################
#   M E L T   S Y S T E M   #
#############################

velocity all create 2.4 6583654 mom yes dist gaussian # Assign velocities
                                                    # Temperature 2.4, random number seed, zero linear momentum
                                                                                # Gaussian distribution

timestep 0.002   # simulation timestep
thermo 1000       # output thermodynamic data every 1000 steps bf 100

# Define a fix  in this case with index 1 applied to all
# particles in the simulation. This fix is for simulations
# in the anisotropic NPT ensemble. Note that we use the MTK
# correction.
fix 1 all npt temp 2.4 2.4 0.1 iso 5.68 5.68 0.5 mtk yes tchain 5 pchain 5 # Use NPT ensemble
                                                                         # Set temperature and pressure and damping
                                                                         # Numbers of thermostats in chain and in barostat
run 10000          # run for 10000 steps
Per MPI rank memory allocation (min/avg/max) = 3.642 | 3.644 | 3.648 Mbytes
Step Temp E_pair E_mol TotEng Press Volume 
       0          2.4   -5.4815223            0   -1.8824223   -4.2035566         4000 
    1000    2.3825714   -4.9000335            0   -1.3270699    6.0867597    3743.2408 
    2000     2.341829   -4.9464291            0   -1.4345638    5.7161379    3759.2991 
    3000    2.4465248   -4.9365746            0   -1.2677049    6.0341126    3744.7321 
    4000    2.3776019   -4.9217814            0   -1.3562701    5.8041622    3750.2731 
    5000    2.3988275   -4.9416998            0   -1.3443581    5.9230044     3737.689 
    6000    2.3432074   -4.9695336            0   -1.4556012    5.7288901     3746.994 
    7000    2.3758388   -4.9474017            0   -1.3845345    6.1175773    3719.3713 
    8000    2.3921739   -4.9085847            0    -1.321221    5.7006138    3778.3341 
    9000    2.3886403   -4.9002674            0   -1.3182027    5.5493631     3790.386 
   10000    2.3911118   -4.9900636            0   -1.4042926    5.5946995    3741.7745 
Loop time of 2.56231 on 48 procs for 10000 steps with 4000 atoms

Performance: 674390.192 tau/day, 3902.721 timesteps/s
99.6% CPU use with 48 MPI tasks x no OpenMP threads

MPI task timing breakdown:
Section |  min time  |  avg time  |  max time  |%varavg| %total
---------------------------------------------------------------
Pair    | 1.1326     | 1.2218     | 1.2759     |   3.0 | 47.68
Neigh   | 0.21005    | 0.21915    | 0.22822    |   0.9 |  8.55
Comm    | 0.80059    | 0.86608    | 0.96157    |   3.9 | 33.80
Output  | 0.00023573 | 0.00024169 | 0.00032359 |   0.0 |  0.01
Modify  | 0.2223     | 0.23974    | 0.25334    |   1.5 |  9.36
Other   |            | 0.01527    |            |       |  0.60

Nlocal:        83.3333 ave          95 max          71 min
Histogram: 1 0 4 3 13 14 7 3 2 1
Nghost:        1711.23 ave        1747 max        1673 min
Histogram: 1 2 5 3 8 13 7 4 4 1
Neighs:        10211.6 ave       12092 max        8588 min
Histogram: 1 2 6 7 14 9 4 2 2 1

Total # of neighbors = 490159
Ave neighs/atom = 122.53975
Neighbor list builds = 904
Dangerous builds = 190

# Equilibrate just above the melting temperature to avoid step fn in T

fix 1 all npt temp 1.25 1.25 0.1 iso 5.68 5.68 0.5 mtk yes tchain 5 pchain 5
run 2000
Per MPI rank memory allocation (min/avg/max) = 3.644 | 3.646 | 3.649 Mbytes
Step Temp E_pair E_mol TotEng Press Volume 
   10000    2.3911118   -4.9900636            0   -1.4042926    5.5946995    3741.7745 
   11000    1.2385614   -7.0241653            0   -5.1667877     5.844191    2939.1109 
   12000    1.2807906   -7.1045828            0   -5.1838772    6.0007255    2918.2779 
Loop time of 0.637064 on 48 procs for 2000 steps with 4000 atoms

Performance: 542488.683 tau/day, 3139.402 timesteps/s
99.7% CPU use with 48 MPI tasks x no OpenMP threads

MPI task timing breakdown:
Section |  min time  |  avg time  |  max time  |%varavg| %total
---------------------------------------------------------------
Pair    | 0.28349    | 0.30662    | 0.36455    |   2.9 | 48.13
Neigh   | 0.039664   | 0.042267   | 0.050089   |   0.9 |  6.63
Comm    | 0.17563    | 0.24139    | 0.26565    |   3.6 | 37.89
Output  | 5.6556e-05 | 5.7889e-05 | 7.3341e-05 |   0.0 |  0.01
Modify  | 0.039538   | 0.04208    | 0.045568   |   0.8 |  6.61
Other   |            | 0.004642   |            |       |  0.73

Nlocal:        83.3333 ave          91 max          76 min
Histogram: 1 2 6 5 14 3 10 1 4 2
Nghost:        2033.54 ave        2054 max        2009 min
Histogram: 4 1 4 4 7 6 8 6 4 4
Neighs:        13126.2 ave       14938 max       11782 min
Histogram: 5 4 5 9 7 8 3 3 3 1

Total # of neighbors = 630057
Ave neighs/atom = 157.51425
Neighbor list builds = 142
Dangerous builds = 8

#############################
# L I N E A R  Q U E N C H  #
#############################

# Define solid atoms. This closely follows ten Wolde  Ruiz-Montero and Frenkel  Faraday Discuss  1996  104  93-110
# Compute components of the per-atom q6 vector
compute q6 all orientorder/atom degrees 1 6 components 6 nnn NULL cutoff 1.3 # compute the Q6 parameter.
                                                                             # Use all neighbours within 1.3 unit cell.

# get number of connections
compute coord_number all coord/atom orientorder q6 0.5

# An atom is solid if it has 8 or more connections (of a possible 14)
variable is_solid atom c_coord_number>=8
group solid dynamic all var is_solid    # Must be dynamic to update
dynamic group solid defined

# do clustering
compute cluster solid cluster/atom 1.3 # Create a cluster where all atoms within are solid and max 1.3 units from another member

# define chunks one chunk per cluster
compute clus_chunks solid chunk/atom c_cluster nchunk every compress yes  # Says which atoms are in which chunk

# count the size of each chunk
compute size_chunks solid property/chunk clus_chunks count


# Find the maximum entry in the vector of chunk sizes
variable max_n equal max(c_size_chunks)


# Thermo style which includes this variable
# thermo_style custom step temp pe vol v_max_n

thermo ${N}  # Print the thermo information every 100 steps
thermo 1000  

# Reset the npt fix at a lower temperature (below freezing)
fix 1  all npt temp  ${temp} ${temp}  0.1  iso  5.68  5.68  0.5  mtk yes tchain  5  pchain  5
fix 1  all npt temp  0.45 ${temp}  0.1  iso  5.68  5.68  0.5  mtk yes tchain  5  pchain  5
fix 1  all npt temp  0.45 0.45  0.1  iso  5.68  5.68  0.5  mtk yes tchain  5  pchain  5

dump dmp2 all dcd ${N} traj.dcd
dump dmp2 all dcd 1000 traj.dcd


compute msd all msd com yes
variable twopoint equal c_msd[4]/6/(step*dt+1.0e-6)
fix 9 all vector 10 c_msd[4]
variable fit equal slope(f_9)/6/(10*dt)
thermo_style custom step temp pe c_msd[4] v_twopoint v_fit v_max_n

fix 1 all npt temp 1.25 ${temp} 0.1 iso 5.68 5.68 0.5 mtk yes tchain 5 pchain 5
fix 1 all npt temp 1.25 0.45 0.1 iso 5.68 5.68 0.5 mtk yes tchain 5 pchain 5
run 500000 # 5000000  # Run for this many steps
Neighbor list info ...
  update every 1 steps, delay 10 steps, check yes
  max neighbors/atom: 2000, page size: 100000
  master list distance cutoff = 3.8
  ghost atom cutoff = 3.8
  binsize = 1.9, bins = 8 8 8
  4 neighbor lists, perpetual/occasional/extra = 1 3 0
  (1) pair lj/cut, perpetual
      attributes: half, newton on
      pair build: half/bin/atomonly/newton
      stencil: half/bin/3d
      bin: standard
  (2) compute orientorder/atom, occasional
      attributes: full, newton on
      pair build: full/bin/atomonly
      stencil: full/bin/3d
      bin: standard
  (3) compute coord/atom, occasional
      attributes: full, newton on
      pair build: full/bin/atomonly
      stencil: full/bin/3d
      bin: standard
  (4) compute cluster/atom, occasional
      attributes: full, newton on
      pair build: full/bin/atomonly
      stencil: full/bin/3d
      bin: standard
Per MPI rank memory allocation (min/avg/max) = 9.835 | 9.840 | 9.844 Mbytes
Step Temp PotEng c_msd[4] v_twopoint v_fit v_max_n 
   12000    1.2807906   -7.1045828 7.6006748e-31 5.2782462e-33 8.3333333e+20            1 
   13000    1.2343516   -7.1599355   0.44367715 0.0028440842  0.035587876            1 
   14000    1.2384905   -7.1600347   0.84402896 0.0050239817  0.034537014            1 
   15000    1.2443239   -7.1402799    1.2512677  0.006951487  0.034298005            3 
   16000     1.262719   -7.1558193    1.6661013 0.0086776108  0.034029332            1 
   17000    1.2165678   -7.1320952    2.0953676   0.01027141  0.034163923            2 
   18000     1.263185   -7.1555708    2.4944743  0.011548492   0.03433083            2 
   19000    1.2093918   -7.1509449    2.8693693  0.012584953  0.034130405            2 
   20000     1.232562   -7.1699179    3.2058009  0.013357503  0.033597093            2 
   21000    1.2390342   -7.2017646    3.5389919  0.014043618  0.033026352            1 
   22000    1.2612299   -7.1441977     3.890505  0.014736761   0.03249246            2 
   23000    1.2416687   -7.2075097     4.305896  0.015601072   0.03212419            3 
   24000    1.2338017   -7.2002827    4.6640885  0.016194751  0.031957956            2 
   25000    1.2230652   -7.2164841    5.0984897  0.016994965  0.031877123            1 
   26000      1.21293   -7.2052152    5.4931501   0.01760625  0.031923536            2 
   27000    1.2349063   -7.2191256    5.8279912  0.017987627  0.031943238            2 
   28000    1.2389614    -7.218035    6.2702983  0.018661602  0.031961879            2 
   29000    1.2220242   -7.1818066    6.7081188  0.019276203  0.032066962            3 
   30000    1.2128884   -7.2366178    7.0267023  0.019518617  0.032100964            1 
   31000    1.2165331   -7.2100838     7.458212  0.020048957  0.032124544            2 
   32000    1.2269553    -7.226715    7.8234661  0.020373609  0.032147106            3 
   33000    1.2085601   -7.2105927    8.0833815  0.020412579  0.032073373            1 
   34000     1.223587   -7.2599441    8.3320406  0.020421668  0.031908822            2 
   35000    1.1889487   -7.2606889    8.6885814  0.020687098  0.031740558            3 
   36000    1.1869137   -7.2097001    9.0699653   0.02099529  0.031573307            4 
   37000    1.2054029    -7.223187    9.5008139  0.021398229  0.031481355            1 
   38000    1.2042212   -7.2655881    9.8972685  0.021704536  0.031431581            3 
   39000    1.1993941   -7.2309022    10.328101  0.022068591  0.031404991            2 
   40000    1.1824866   -7.2665306    10.682199  0.022254581  0.031402577            2 
   41000    1.2252988   -7.2729296    11.121633  0.022604945  0.031402551            3 
   42000    1.1735164   -7.2443987    11.510506  0.022838305  0.031404925           10 
   43000    1.1985275    -7.293976    11.778254  0.022826073  0.031394949            2 
   44000    1.2365628   -7.2792342    12.002736  0.022732455  0.031334759            3 
   45000    1.1990575   -7.3182823      12.3181  0.022811297  0.031248766            2 
   46000     1.202581    -7.298422    12.641109   0.02290056  0.031138844            1 
   47000    1.2146253   -7.2488076    12.972898  0.023001592  0.031007397            3 
   48000    1.1646769    -7.194636    13.267327  0.023033553   0.03088883            1 
   49000    1.2044365   -7.2421665    13.680447  0.023266066  0.030788379            2 
   50000    1.1849606   -7.2609118     13.93138  0.023218966  0.030688771            1 
   51000    1.2101407   -7.2740286      14.3112  0.023384313  0.030587251            1 
   52000    1.2031029   -7.2677379    14.744451  0.023628927  0.030496795            3 
   53000    1.1986212   -7.2866542    15.112396  0.023761628  0.030433701            1 
   54000    1.1734119    -7.259466    15.469624  0.023872876  0.030380978            3 
   55000    1.1849269   -7.3263598    15.735052  0.023840988  0.030330964            4 
   56000    1.1861645    -7.338183    16.132837  0.024007197  0.030289487            2 
   57000    1.1638208   -7.2812405    16.324002  0.023865499  0.030213323            3 
   58000    1.1662018   -7.2944117    16.675406  0.023958916  0.030134233            2 
   59000    1.1693261   -7.3540289    16.963303  0.023959468  0.030055499            5 
   60000    1.1539873   -7.2940552    17.436374  0.024217186  0.029992221            2 
   61000    1.1636237   -7.3355917    17.707019  0.024189916  0.029940344            3 
   62000    1.1423189   -7.3060515    17.948962  0.024124948  0.029873824            2 
   63000    1.1651239   -7.3248537    18.343117  0.024263383  0.029799324            2 
   64000    1.1613602   -7.3459294    18.815681  0.024499585   0.02975549            3 
   65000    1.1772705   -7.3923052    19.021058  0.024385972  0.029706014            1 
   66000    1.1630827   -7.4045263    19.261422  0.024319977  0.029644801            2 
   67000    1.1828208   -7.3602562    19.575342   0.02434744  0.029580524            1 
   68000    1.1369946   -7.3803533    19.996684   0.02450574  0.029523459            3 
   69000    1.1559016   -7.3452857    20.207061  0.024404663  0.029460936            2 
   70000    1.1520736   -7.3872981    20.518594  0.024426897  0.029395182            3 
   71000    1.1392867   -7.3490758    20.824386  0.024441767  0.029326707            1 
   72000    1.1474055   -7.3388811    21.212423  0.024551416  0.029262973            4 
   73000    1.1641833   -7.3856418    21.286097  0.024299197  0.029193285            3 
   74000    1.1441866   -7.3904797    21.575122  0.024296308  0.029108941            2 
   75000    1.1423676   -7.3570927    21.969781  0.024410867  0.029029245            3 
   76000    1.1392844   -7.3935946    22.204576  0.024347123  0.028946945            2 
   77000    1.1563548   -7.4321157    22.508166  0.024359487  0.028860758            1 
   78000    1.1418369   -7.4386553    22.743417  0.024298522  0.028780189            1 
   79000    1.1532516   -7.3788552     23.05075  0.024315137  0.028700525            2 
   80000    1.1546599   -7.3670214    23.311189  0.024282489  0.028624664            3 
   81000    1.1212653   -7.4249431    23.488745  0.024165376  0.028532229            3 
   82000    1.1193787   -7.4291571    23.721509  0.024107224  0.028440588            3 
   83000    1.1623963   -7.4285489    23.922199  0.024018272  0.028343348            4 
   84000    1.1390155   -7.3988194    24.321003  0.024127979  0.028247991            1 
   85000    1.1355578   -7.3967081    24.523833  0.024042974  0.028153937            3 
   86000    1.1629277   -7.4162887    24.767449  0.023999466   0.02806007            3 
   87000    1.1557224   -7.4530668    25.291208  0.024225295  0.027982121            1 
   88000    1.1455374   -7.4527461    25.456908   0.02410692  0.027911991            1 
   89000    1.1452464   -7.4512834    25.782956  0.024141344   0.02784003            3 
   90000     1.127387    -7.459173     25.92219  0.024002027  0.027760028            4 
   91000    1.1168534   -7.4059378    26.207014  0.023999096  0.027679227            4 
   92000    1.1158988    -7.479941    26.544098  0.024043567  0.027603685            4 
   93000    1.1031865   -7.4687399    26.875668  0.024082139  0.027530308            4 
   94000    1.1099818     -7.47152    27.229329  0.024139476  0.027460721            3 
   95000    1.1317155   -7.4748221    27.573664  0.024187424  0.027398294            1 
   96000    1.1119376   -7.4602616    27.809028  0.024139781  0.027336241            3 
   97000     1.114511    -7.521943    27.987284  0.024044058  0.027273832            3 
   98000    1.1032902   -7.4477676    28.517978  0.024249982  0.027216073            2 
   99000    1.0855906   -7.4954073    28.605408  0.024078626  0.027161725            5 
  100000    1.1210719   -7.4973865    28.697808   0.02391484  0.027100073            1 
  101000    1.1087099   -7.5138769     29.03034  0.023952426  0.027037088            1 
  102000    1.1224736   -7.5117895    29.447456  0.024058379  0.026972796            3 
  103000    1.0856848   -7.4519574    29.739986  0.024061477  0.026915223            2 
  104000    1.1213477   -7.5175878    29.863906  0.023929412  0.026855916            1 
  105000    1.1127799   -7.4994258    30.165185  0.023940623  0.026795719            1 
  106000    1.0976539   -7.5027594    30.443612  0.023933657  0.026740529            2 
  107000    1.1069522   -7.5151717    30.556382  0.023797805  0.026677913            3 
  108000    1.0922866   -7.5346521    30.922391   0.02385987  0.026615776            4 
  109000    1.1016717   -7.5056203    31.244906  0.023887543  0.026554226            2 
  110000     1.104407   -7.5391518    31.370645   0.02376564  0.026492259            5 
  111000    1.0929965   -7.5219278    31.538556  0.023677595  0.026428814            5 
  112000    1.1034237   -7.5762162    31.732373  0.023610397  0.026361931            1 
  113000    1.0496448   -7.5999651    31.703733  0.023380334  0.026289573            3 
  114000    1.0800164    -7.544118    32.063531  0.023438253  0.026215173            2 
  115000      1.07675   -7.5726399    32.160013  0.023304357  0.026138977            3 
  116000    1.0933522   -7.5080573     32.43935  0.023304131  0.026061123            2 
  117000    1.1002942   -7.5383382    32.768144  0.023339134  0.025989121            2 
  118000    1.0727732   -7.5849834    32.827065  0.023182955   0.02591062            4 
  119000     1.089173   -7.5559612    33.169928  0.023228241  0.025834231            2 
  120000    1.0590955   -7.5538765    33.558301  0.023304375   0.02576256            2 
  121000    1.0677449   -7.5799753    33.643013  0.023170119  0.025693518            2 
  122000    1.0820593   -7.5658393    33.807014  0.023092223   0.02562214            4 
  123000    1.0791501    -7.618226    34.206048  0.023174829  0.025551604            3 
  124000    1.0768195   -7.5896249    34.543593   0.02321478  0.025485029            4 
  125000    1.0704695   -7.6105157    34.745307  0.023163538  0.025422284            3 
  126000    1.0587595   -7.6083749    34.915608  0.023092333  0.025362037            2 
  127000    1.0401181   -7.6009593    35.286293  0.023153736  0.025303887            2 
  128000    1.0601232   -7.5938457    35.611503  0.023184572  0.025248129            1 
  129000    1.0405812   -7.6231709     35.74507  0.023091131  0.025191749            5 
  130000    1.0570253    -7.602587    35.824224  0.022964246  0.025132572            3 
  131000    1.0500884   -7.6290062    35.995674  0.022898012  0.025070737            2 
  132000    1.0693611     -7.61938      36.1502  0.022822096  0.025006008            2 
  133000    1.0514777   -7.6462584    36.249982  0.022713021  0.024937607            3 
  134000    1.0777379   -7.6235666    36.564884  0.022739356  0.024869179            3 
  135000    1.0902865   -7.6114307    36.774073  0.022700045  0.024803426            2 
  136000    1.0641639   -7.6466274    37.200423  0.022794376  0.024740966            2 
  137000    1.0655053   -7.6571627    37.410542  0.022755804  0.024680434            4 
  138000    1.0580033   -7.6555665     37.57096  0.022687778  0.024622054            1 
  139000    1.0389711    -7.653758    37.757808  0.022636575  0.024561898            1 
  140000    1.0269233   -7.6653082    38.018232    0.0226299  0.024503623            2 
  141000    1.0409419    -7.686332    37.984325  0.022449365  0.024441618            2 
  142000     1.049226   -7.6715974    38.339523   0.02249972  0.024377974            3 
  143000    1.0620524   -7.6407611    38.292051  0.022314715  0.024311847            2 
  144000    1.0268388   -7.6806045     38.67073  0.022378894  0.024244793            2 
  145000    1.0430049   -7.6999149    38.728345  0.022257669  0.024179889            2 
  146000    1.0493061   -7.6787458    38.964109  0.022239788  0.024116063            3 
  147000    1.0190396   -7.6619591     39.12901  0.022181978  0.024052284            2 
  148000    1.0522742   -7.6867505    39.460528  0.022218766   0.02399096            2 
  149000    1.0413931   -7.7311676    39.572923  0.022132507  0.023930351            1 
  150000    1.0521046   -7.6723919    39.923126  0.022179514  0.023869954            4 
  151000    1.0284916   -7.6682295    40.030018  0.022091621  0.023808289            2 
  152000    1.0240699   -7.7162978    40.121395  0.021996379  0.023746401            3 
  153000    1.0193372   -7.7028789    40.252731  0.021924145  0.023682369            1 
  154000    1.0319684   -7.6882607    40.458741  0.021893258  0.023618088            2 
  155000    1.0250466   -7.7565377    40.443812  0.021743985  0.023552845            2 
  156000    1.0226294   -7.7323087    40.568769  0.021671351  0.023484943            3 
  157000    1.0351899   -7.7205905    40.802845  0.021657561  0.023416927            3 
  158000    1.0219024   -7.7565634    41.030027   0.02164031  0.023350432            3 
  159000    1.0217818   -7.7368422     41.13366  0.021558522  0.023283356            2 
  160000   0.99580656   -7.8012932    41.160754  0.021437893  0.023215278            1 
  161000    1.0225301   -7.7457345    41.536982  0.021499473  0.023147445            4 
  162000    1.0152109   -7.7651891      41.8461  0.021525772   0.02308324            3 
  163000    1.0212103   -7.7747047    42.015626  0.021480381  0.023020112            1 
  164000   0.99291476   -7.7910936    41.792587  0.021236071  0.022954055            3 
  165000   0.98611805   -7.7445022    42.125776  0.021275644  0.022885743            1 
  166000    1.0112589    -7.767768    42.050498  0.021109688  0.022815477            2 
  167000    1.0093042   -7.7619958    42.181312  0.021048559  0.022742716            4 
  168000    1.0181996   -7.7403366    42.328065  0.020996064  0.022670344            2 
  169000    1.0015041   -7.7906546    42.370752  0.020892876  0.022598107            2 
  170000   0.98482708   -7.8017512    42.551803  0.020858727  0.022524133            9 
  171000   0.99171719   -7.7986145    42.691154  0.020804656  0.022453207            4 
  172000   0.99294385    -7.792381    42.867125  0.020768956   0.02238262            3 
  173000    1.0189522   -7.7804726    43.168263  0.020793961  0.022313491            1 
  174000   0.96212701   -7.7705494    43.170837  0.020675688  0.022244963            4 
  175000    0.9788346   -7.8376901    43.229376  0.020585417  0.022176281            4 
  176000   0.99244046   -7.8306899    43.576813  0.020632961  0.022108218            3 
  177000   0.99156886   -7.8327044    43.666595  0.020558661   0.02203941            6 
  178000   0.98219389   -7.8420896     43.84521  0.020526783  0.021971511            5 
  179000   0.99034785   -7.8343729    43.921559  0.020447653  0.021902794            3 
  180000   0.97554977   -7.8481904    43.795325  0.020275613  0.021833183            3 
  181000   0.96951643   -7.8572414    44.086376  0.020297595  0.021763524            2 
  182000   0.97884507   -7.8423352    44.155203  0.020217584   0.02169332            6 
  183000    0.9863666   -7.8368473    44.200091  0.020127546  0.021621761            2 
  184000   0.97836178    -7.842266    44.472167   0.02014138  0.021551577            1 
  185000    0.9832759   -7.8765291    44.383701  0.019992658  0.021480858            7 
  186000    0.9672736   -7.8545652    44.597386  0.019980908  0.021410028            2 
  187000   0.97855172   -7.8769342    44.576728  0.019864852  0.021338277            6 
  188000   0.96058535   -7.8888621    44.524322  0.019735958  0.021264905            2 
  189000   0.96809112   -7.8985213    44.784552  0.019746275  0.021192419            4 
  190000    0.9803447   -7.9107848    44.992028  0.019733346  0.021120578            3 
  191000   0.95502291   -7.9030787    45.225515    0.0197319  0.021050241            4 
  192000   0.94452115    -7.946403    45.193639  0.019615295  0.020980051            3 
  193000   0.94971163    -7.907564    45.276114  0.019549272  0.020908912            3 
  194000   0.94257337   -7.8605601    45.396072  0.019500031  0.020838116            2 
  195000   0.95441366   -7.8679551    45.714764  0.019536224  0.020767378            2 
  196000    0.9501141   -7.8726799    45.896344  0.019513752  0.020698357            3 
  197000   0.96233504   -7.9132432    45.930619  0.019429196  0.020628848            3 
  198000   0.94521739   -7.8804858    45.932691  0.019331941  0.020561574            6 
  199000    0.9476568   -7.8939616    46.203683  0.019348276  0.020494132            6 
  200000     0.973691   -7.9084981    46.244737  0.019268641  0.020426284           12 
  201000   0.94503149   -7.9162681    46.306273  0.019198289  0.020358357            8 
  202000   0.95157069   -7.9135801    46.451699  0.019163242  0.020291235            1 
  203000   0.92985952    -7.957909    46.545232  0.019107238  0.020223673            6 
  204000   0.93673746   -7.9538752    46.562066  0.019020452  0.020156489            5 
  205000   0.95592848   -7.9246904    46.700364  0.018983888  0.020090369            6 
  206000   0.95004892   -7.9587663    46.866955  0.018959124  0.020024116            3 
  207000   0.94261174   -7.9551624    47.049081  0.018940854  0.019958564            3 
  208000   0.95308681   -7.9625967    47.016648  0.018836798  0.019893796            2 
  209000   0.93459226   -7.9586067    47.227076  0.018830572   0.01982938            7 
  210000   0.93637991   -7.9809431    47.271651  0.018758592  0.019765428            1 
  211000   0.92185372   -7.9569467    47.474592  0.018749839  0.019702466            1 
  212000   0.92129281   -7.9805474    47.569344  0.018698642  0.019639119            6 
  213000   0.92137652   -7.9828475     47.49905  0.018583353  0.019575435           18 
  214000   0.92102259   -7.9801578    47.706741  0.018577391  0.019511395            5 
  215000   0.93529975   -7.9939201    47.825014  0.018536827  0.019447889            2 
  216000   0.94378597   -7.9644324    47.840144  0.018456846  0.019384388           10 
  217000   0.92138935   -7.9857559    47.958563  0.018417267   0.01932058            6 
  218000   0.93109148   -7.9446343    48.085383  0.018381263  0.019256939            1 
  219000   0.93647301   -7.9788129     48.13146  0.018314863  0.019193236            3 
  220000    0.9146756   -7.9701908    48.273653  0.018285475  0.019130282            3 
  221000   0.90734797   -8.0004751    48.319536  0.018220036  0.019067499           10 
  222000   0.90175402   -8.0325484    48.107409  0.018058337  0.019004315            3 
  223000   0.91010287   -7.9916085    48.388073   0.01808224  0.018939964            4 
  224000   0.94050423   -8.0256683    48.420393  0.018013539  0.018875744            2 
  225000   0.89183128   -8.0011637    48.503745   0.01796435  0.018811826            5 
  226000   0.91834101   -8.0327078    48.483021   0.01787722  0.018748009            3 
  227000   0.88064054   -8.0698841    48.463455  0.017791283  0.018683822            4 
  228000   0.90593509    -8.042298     48.56219  0.017749338  0.018619089            5 
  229000   0.88920405   -8.0503133    48.730445  0.017733059  0.018555325            4 
  230000   0.90024305    -8.045264    48.821325  0.017688886  0.018491564            6 
  231000   0.89364387   -8.0959614    48.813112  0.017609348  0.018428085            3 
  232000   0.90954376   -8.0901152    48.806253  0.017530981   0.01836341            7 
  233000   0.88884789   -8.0579293     48.87124  0.017478984   0.01829898            1 
  234000   0.91454519   -8.0924621    48.980152  0.017443074  0.018234792            3 
  235000   0.88875627   -8.0800869    49.015524  0.017381392  0.018170741            2 
  236000   0.89643139   -8.0933086    48.997397  0.017301341  0.018106926            4 
  237000   0.87553307   -8.0858828    49.177908   0.01729181  0.018043907            2 
  238000   0.88713752     -8.09372    49.144138  0.017207331  0.017980807            3 
  239000   0.89795649   -8.0923418    49.290424   0.01718634  0.017917638            5 
  240000   0.88880839   -8.0755897    49.323128  0.017126086  0.017855347            5 
  241000   0.89157421   -8.0969057    49.615469   0.01715611  0.017793988            3 
  242000    0.8851389   -8.1048827    49.629757  0.017090137  0.017733283            3 
  243000   0.87383367   -8.0882487    49.749964   0.01706103  0.017672765            5 
  244000   0.87428896   -8.1638245     49.65394  0.016958313  0.017611878            4 
  245000   0.87642997   -8.1151828    49.779403   0.01693177  0.017551214            4 
  246000   0.88214753   -8.1409184    49.893332  0.016901535  0.017491376            2 
  247000   0.88062589   -8.1621063    49.763868  0.016789429   0.01743036            5 
  248000   0.87626172   -8.1655926     49.83092  0.016744261  0.017369583            3 
  249000   0.86815542   -8.1354365    49.885382  0.016695242  0.017308856            2 
  250000   0.86165735   -8.1451836    50.089421  0.016696474  0.017248366            4 
  251000   0.84771451   -8.1304413    50.098886  0.016633096   0.01718856            5 
  252000   0.84798157   -8.1464716    50.151375   0.01658445  0.017128404            9 
  253000   0.87081713   -8.1427817    50.141103  0.016515515  0.017067831            3 
  254000   0.86775739   -8.1611498    50.264825  0.016491084  0.017007925            3 
  255000   0.86554527   -8.1198046    50.317335  0.016443573  0.016948318            5 
  256000   0.86623715   -8.1674284    50.190245   0.01633797  0.016888311            2 
  257000   0.86827797   -8.1545139    50.501699  0.016375389  0.016829173            4 
  258000   0.87682542    -8.166046    50.272366  0.016237844  0.016770151            4 
  259000   0.84488863    -8.202183    50.272008  0.016175035  0.016710648            3 
  260000   0.85020193   -8.1962849      50.2633  0.016110032  0.016651728            9 
  261000   0.83887624   -8.1807619    50.440573  0.016104908  0.016592743            9 
  262000   0.83438593   -8.1815228    50.603179  0.016095159  0.016533932            2 
  263000   0.86190863   -8.2446488    50.494064  0.015999387  0.016475049            3 
  264000   0.85466361   -8.1711339    50.695746  0.016002445  0.016415668           14 
  265000   0.84398778   -8.2192429    50.704801  0.015944906  0.016357399            4 
  266000   0.83102343    -8.248817    50.589484  0.015848836  0.016298729            4 
  267000     0.833532   -8.2234566    50.679807  0.015817667  0.016240747           12 
  268000    0.8633503   -8.2187136    50.727414   0.01577345  0.016182545            2 
  269000   0.81769599    -8.214911    50.826641  0.015745552  0.016124609            3 
  270000   0.85036116   -8.2336214    50.702801  0.015649013  0.016066599            6 
  271000   0.82767109   -8.2272366    50.846763  0.015635536  0.016009233            4 
  272000   0.82665197   -8.2594568    50.823459  0.015570913  0.015952135            4 
  273000   0.84348088   -8.2546976    50.813427  0.015510814  0.015894515            1 
  274000   0.82287294   -8.2509338    51.001906  0.015511529  0.015837003            3 
  275000   0.84213637   -8.2425764    50.920087  0.015430329  0.015779575            5 
  276000   0.82843946    -8.274074    50.904512   0.01536972  0.015721648            7 
  277000   0.81471057   -8.2608083    50.923354  0.015319902  0.015663713            3 
  278000   0.83159961   -8.2588495    51.033658  0.015297859   0.01560654            8 
  279000   0.85202593   -8.2295918    51.048057  0.015247329   0.01554977            4 
  280000   0.81664758   -8.2666578    51.023151  0.015185461  0.015493178            9 
  281000   0.81431911   -8.2912571    51.070819  0.015145557  0.015436613           13 
  282000   0.82530641   -8.3006872    51.159178   0.01511796  0.015380378            7 
  283000   0.81380604    -8.312995    51.030686  0.015026704  0.015324275            4 
  284000   0.81408728    -8.295651    51.192291  0.015021212  0.015268268            4 
  285000   0.80747334    -8.306965    51.301701  0.015000497  0.015212861            9 
  286000   0.82134794   -8.3369485     51.22916  0.014926911    0.0151573            5 
  287000   0.81725274    -8.276788    51.367452  0.014915056  0.015102366            3 
  288000   0.80926998   -8.3193285    51.375143  0.014865493  0.015047748            4 
  289000   0.79652065   -8.2891643    51.429737  0.014829797  0.014993225            4 
  290000   0.81859034   -8.3171504    51.418374  0.014775395  0.014938519            2 
  291000   0.79864361   -8.3240756    51.287001  0.014686999   0.01488427            6 
  292000   0.80683676   -8.3332985     51.28844  0.014637112  0.014829564            2 
  293000   0.81961279   -8.3418282     51.32896   0.01459868  0.014774859            4 
  294000    0.7961719   -8.3743343    51.279392  0.014534975  0.014720748            5 
  295000   0.79404428   -8.3467662       51.413  0.014523446  0.014666956           11 
  296000   0.78501476   -8.3535516    51.448642  0.014484415   0.01461315            6 
  297000   0.79258608   -8.3455699    51.510309  0.014452949  0.014559323            5 
  298000   0.78000987   -8.3482348    51.435893  0.014383639  0.014505851            8 
  299000   0.79194403   -8.3579745    51.546936  0.014366481  0.014452263           20 
  300000   0.78890486   -8.3403836    51.537261  0.014315906  0.014399065           10 
  301000    0.7820123     -8.38976    51.489795  0.014255204  0.014345941           15 
  302000   0.78513495    -8.370306    51.666664  0.014256806  0.014293429           13 
  303000   0.77606925   -8.4045302    51.599071  0.014191164  0.014240848            9 
  304000   0.79815534   -8.4140217     51.55074  0.014131234   0.01418841            8 
  305000   0.77752145   -8.4210126    51.709237  0.014128207  0.014136199            7 
  306000   0.79853256   -8.4050891    51.580734  0.014047041  0.014084218           12 
  307000   0.77410316   -8.4201184     51.82554  0.014067736  0.014032473           10 
  308000   0.77611927   -8.4262341    51.515523  0.013938183  0.013980502            8 
  309000   0.77896277   -8.3869449    51.767509  0.013961033  0.013929221           10 
  310000   0.78780909   -8.4240111    51.733678  0.013906903  0.013878242           12 
  311000   0.77039705   -8.4369968    51.966734  0.013924634  0.013827293           13 
  312000   0.76758243   -8.4093869    51.778148  0.013829634  0.013776671           19 
  313000   0.76976737   -8.4441577     51.69275  0.013762713  0.013726043           18 
  314000    0.7581638   -8.4365543    51.929873  0.013781813  0.013675822           15 
  315000   0.76363917   -8.4383007    51.975414   0.01375011  0.013625755            7 
  316000   0.74593869   -8.4627324    51.970195   0.01370522  0.013576055           12 
  317000   0.76109629   -8.4562266    52.040065  0.013680354  0.013526762            4 
  318000   0.77264107   -8.4250513    51.991184  0.013624524  0.013477986            5 
  319000   0.77043533     -8.45278    51.972661  0.013576975  0.013429319           11 
  320000   0.75368152   -8.4843563    51.991539  0.013539463  0.013380465           21 
  321000   0.74160261   -8.4572256     52.07685  0.013519432  0.013332016            8 
  322000   0.75523287   -8.4689728    52.056643  0.013472216  0.013283797            9 
  323000   0.76295838   -8.4709099    52.015759  0.013419958   0.01323567            8 
  324000   0.75613154   -8.4806123    52.080943  0.013395304  0.013187459            9 
  325000   0.75067632   -8.5112995    52.063218  0.013349543  0.013139298           10 
  326000   0.74030429   -8.4930752    52.047417  0.013304554  0.013091233           19 
  327000    0.7372237    -8.514046    52.052133   0.01326507  0.013043388           19 
  328000   0.73048352   -8.4966964    52.092226  0.013234813  0.012995733           23 
  329000   0.74609258    -8.506899    52.100491   0.01319668  0.012948511           12 
  330000   0.74513228   -8.5309946    51.977098   0.01312553  0.012900997           24 
  331000   0.74049117   -8.5131025    51.994746  0.013090319  0.012853601           16 
  332000   0.74100863   -8.5389726    52.023316  0.013058061  0.012806266           24 
  333000   0.75000239   -8.5482801    51.838178  0.012972517  0.012759126           12 
  334000   0.71043854   -8.5353385     51.91503  0.012952852  0.012711997           11 
  335000   0.72907068   -8.5327666    52.065338  0.012951577   0.01266513           32 
  336000   0.74316211   -8.5481546    51.991612  0.012894745  0.012618582           26 
  337000   0.73646867   -8.5677732     52.00277  0.012859241  0.012572241           13 
  338000   0.70914052   -8.5690692    52.003548  0.012821388  0.012526102           20 
  339000    0.7140266   -8.5386182    52.120025  0.012812199  0.012479852           15 
  340000   0.70336647   -8.5536471    52.077487   0.01276409  0.012433916           25 
  341000   0.72602341   -8.5624869    52.060548  0.012722519  0.012388009           22 
  342000   0.71534589   -8.5580253    52.016197  0.012674512  0.012342371           24 
  343000   0.71985013    -8.560203    52.084226  0.012654088  0.012296827           24 
  344000   0.72046519    -8.552754     52.15049  0.012633355  0.012251498           24 
  345000   0.72335897   -8.5571567    52.074325  0.012578339  0.012206369           19 
  346000   0.72258204   -8.5923084    52.099773  0.012548115  0.012161204            9 
  347000   0.72400682   -8.5944835    51.950109  0.012476011  0.012116203           15 
  348000   0.70701623   -8.5990754    52.010062  0.012454517  0.012071102           25 
  349000   0.70456058   -8.5956281    52.088652  0.012437596  0.012026493           23 
  350000   0.70064279   -8.5786717    52.040825  0.012390673  0.011982026           23 
  351000   0.70947382   -8.6056648    52.074819  0.012363442  0.011937576           30 
  352000    0.7047535   -8.5996143     51.95041  0.012298866  0.011893449           34 
  353000   0.70774834   -8.5995548    52.051008  0.012287773  0.011849568           20 
  354000   0.70667807     -8.61795      52.0394   0.01225033  0.011805671           30 
  355000   0.69766148   -8.6107937    51.995995  0.012205633  0.011761974           20 
  356000   0.70737697   -8.6214803    52.160283  0.012209804  0.011718511           14 
  357000   0.70086933   -8.6157502    52.081589  0.012157234  0.011675281           20 
  358000   0.69041886   -8.6218427    51.966428  0.012096468  0.011632176           22 
  359000   0.70624515   -8.6485897     51.98112  0.012066184   0.01158898           20 
  360000   0.67533566   -8.6151168    51.993077  0.012035434  0.011545952           15 
  361000   0.70173658   -8.6311017    52.049683  0.012015162  0.011502998            4 
  362000   0.68722608   -8.6436164     52.04719  0.011981397  0.011460411           18 
  363000   0.69059068   -8.6589451    51.871659  0.011908094  0.011417808           19 
  364000   0.69112167   -8.6435109    51.990938  0.011902687  0.011375452           22 
  365000   0.68255951    -8.638635    51.978428  0.011867221  0.011333327           15 
  366000   0.69604361   -8.6513253    51.908664  0.011818913  0.011291277           14 
  367000   0.68536827   -8.6674746    51.982724  0.011803525  0.011249237           34 
  368000   0.68285322   -8.6370396    52.134151  0.011805741  0.011207585           12 
  369000   0.67399838   -8.6689808    52.118694  0.011770256  0.011166273           12 
  370000   0.67516761    -8.642589    52.039937  0.011720707  0.011125011           18 
  371000   0.67844439    -8.675467    51.990938  0.011678108  0.011083863            7 
  372000   0.67652809   -8.6808308    52.024052  0.011654134   0.01104291           27 
  373000   0.66261704    -8.678793    51.976538  0.011612274  0.011002202           24 
  374000   0.67814608   -8.6460557    51.936052  0.011572204  0.010961539           13 
  375000   0.68087189   -8.6803657    51.870503  0.011526778  0.010920976           17 
  376000   0.66251247   -8.6890268    51.890211   0.01150049  0.010880544           19 
  377000   0.66695128   -8.6925353    51.940707  0.011481147  0.010840249           14 
  378000   0.66488357   -8.7010532    51.982899  0.011460075  0.010800323           15 
  379000   0.65511181   -8.6944765    51.900072  0.011411625  0.010760461           20 
  380000   0.66150468   -8.7136154    51.992716  0.011401911  0.010720758           33 
  381000   0.64715678     -8.71396    52.112273  0.011398135  0.010681176           21 
  382000   0.64478128   -8.7166309     52.00621  0.011345159  0.010641847           37 
  383000   0.64511653   -8.7081083    51.894258  0.011291179  0.010602616           43 
  384000   0.65302511   -8.7190468    51.964446  0.011277006  0.010563452           18 
  385000   0.65347682   -8.7145701     51.94948  0.011244476  0.010524382           21 
  386000   0.64401077    -8.709385    51.940999  0.011213514  0.010485383           15 
  387000   0.65699127   -8.7135905    51.972272  0.011191273  0.010446628           31 
  388000   0.63978123   -8.7267558    52.015142  0.011171637  0.010407997           41 
  389000   0.65857565   -8.7361508    51.787772   0.01109421  0.010369488           31 
  390000   0.62917559   -8.7470749    51.921494  0.011094336  0.010331149           16 
  391000   0.63864837    -8.732938    51.923346  0.011066357  0.010293052           14 
  392000   0.64649354   -8.7475898    51.918094   0.01103701  0.010255055           21 
  393000   0.62433607   -8.7452115    51.937426  0.011013025  0.010217221           43 
  394000   0.63792708    -8.754166    51.907304  0.010978702  0.010179574           30 
  395000   0.64614457   -8.7604068    51.895703  0.010948461  0.010142058           22 
  396000   0.63131736   -8.7708436    51.695103  0.010878599  0.010104556           24 
  397000   0.64246919   -8.7587942     51.83441  0.010880439  0.010067268           28 
  398000   0.62668078   -8.7638175    51.884268   0.01086354  0.010030171           18 
  399000   0.64022084   -8.7788508    51.808968  0.010820587 0.0099931902           33 
  400000   0.63637153   -8.7852074    51.804408  0.010792585 0.0099563055           18 
  401000   0.61685928   -8.7939266    51.807955  0.010766408 0.0099195745           25 
  402000   0.61266206   -8.7900393    51.713558  0.010720058 0.0098829712           22 
  403000   0.61602927   -8.8044841    51.777925  0.010706767 0.0098465162           27 
  404000    0.6254434   -8.7876771    51.829016  0.010690804 0.0098102122           25 
  405000   0.61606183   -8.7782897    51.745104  0.010647141  0.009774113           33 
  406000   0.61559085   -8.8045566    51.738451  0.010619551 0.0097380887           25 
  407000   0.60987043   -8.7884389    51.854885  0.010617298  0.009702271           33 
  408000   0.61464827   -8.8005016    51.774193  0.010574794 0.0096665393           24 
  409000    0.6176238   -8.7948918    51.735874  0.010541132 0.0096309288           43 
  410000   0.62913634   -8.8116854    51.677103  0.010503476 0.0095954993           27 
  411000   0.61383232   -8.8013958    51.674962  0.010477486 0.0095602413           43 
  412000   0.61125066   -8.8246918    51.649521   0.01044691 0.0095249823           31 
  413000    0.6059884   -8.7947565    51.773504  0.010446631  0.009489928           28 
  414000   0.60827168   -8.8162906    51.745717  0.010415805  0.009455001           25 
  415000   0.59779273   -8.8133034    51.574189  0.010356263 0.0094202369           31 
  416000   0.60717428   -8.8361071    51.744826   0.01036555 0.0093856756           20 
  417000   0.59229939   -8.8233679    51.647445  0.010321232 0.0093512461           17 
  418000   0.60305055   -8.8193589    51.624694  0.010292004 0.0093170038           18 
  419000   0.59460963   -8.8163273      51.6497  0.010272414 0.0092828738           30 
  420000   0.59639269    -8.803265    51.689522  0.010255858 0.0092489381            9 
  421000   0.59965081   -8.8490878    51.647018  0.010223083 0.0092151487           26 
  422000   0.58697066    -8.859066    51.477962  0.010165474  0.009181296           18 
  423000   0.59279037   -8.8682128    51.551662  0.010155962 0.0091475876           20 
  424000   0.59727181    -8.856043    51.648169  0.010150977 0.0091141217           17 
  425000   0.58906121    -8.853787    51.538288  0.010105547 0.0090807977           31 
  426000   0.58942289   -8.8538865    51.633312  0.010100413    0.0090476           23 
  427000   0.59568586   -8.8687534    51.531721  0.010056932 0.0090145234           20 
  428000   0.58753555   -8.8478255    51.551601  0.010037305 0.0089816424           26 
  429000   0.57435172   -8.8659894    51.514842  0.010006768 0.0089489037           21 
  430000   0.58444348   -8.8660072    51.583748 0.0099968504 0.0089162738           25 
  431000   0.57635411   -8.8588421    51.566146 0.0099702526 0.0088837165           16 
  432000   0.57386264   -8.8726179    51.609352 0.0099555077 0.0088513012           26 
  433000   0.57420989   -8.8909789    51.535061  0.009918218  0.008819101           20 
  434000   0.58249196   -8.8907764    51.530004 0.0098943941 0.0087870136           20 
  435000   0.55658764    -8.880796    51.508821 0.0098675902 0.0087551149           26 
  436000    0.5708057   -8.8927071    51.482896 0.0098400031 0.0087232986           21 
  437000   0.56162778   -8.8839338    51.426958 0.0098068187 0.0086916514           18 
  438000   0.56528284   -8.8899544     51.46842 0.0097923174 0.0086601568           25 
  439000   0.55386195   -8.9021323    51.519884 0.0097797805 0.0086289106           28 
  440000   0.56638212   -8.8821184    51.514603 0.0097565535 0.0085977364           20 
  441000   0.56670655   -8.9053506    51.556601 0.0097423661  0.008566706           19 
  442000   0.56503296   -8.9139296    51.493756 0.0097084759 0.0085357478           24 
  443000    0.5533663   -8.9105836    51.467665 0.0096816525 0.0085048482           21 
  444000    0.5470331   -8.9076104    51.404803 0.0096480486 0.0084740897           21 
  445000    0.5621128   -8.9010948    51.336753 0.0096136241 0.0084435214            6 
  446000   0.56761886   -8.9071794    51.397082 0.0096033411 0.0084131088            6 
  447000   0.55366742   -8.9135427     51.50845 0.0096026193 0.0083828732           16 
  448000    0.5411236   -8.9131906    51.411817 0.0095632099 0.0083527373           18 
  449000   0.55573554   -8.9144383    51.431487 0.0095455617 0.0083227714           23 
  450000    0.5385925   -8.9014073    51.423389 0.0095228498 0.0082929092           28 
  451000    0.5532736   -8.9216284     51.47416  0.009511116 0.0082632745           22 
  452000   0.55862385   -8.9544493    51.410164  0.009478275 0.0082337247           12 
  453000   0.54627503   -8.9589601    51.327485 0.0094421422 0.0082042867           20 
  454000   0.55530311   -8.9328387     51.41701 0.0094377772  0.008174957           14 
  455000   0.54234609   -8.9216634    51.436652 0.0094206323 0.0081458165           15 
  456000   0.53515001   -8.9317133    51.353447 0.0093847674 0.0081168523           26 
  457000   0.54325403   -8.9502393    51.313507 0.0093569487   0.00808795           20 
  458000   0.53750674   -8.9635327    51.406533 0.0093534449 0.0080592264            8 
  459000   0.51077695   -8.9380261    51.372504 0.0093268889 0.0080306367           16 
  460000   0.52869961   -8.9634427    51.393365 0.0093103921 0.0080021769           25 
  461000   0.53750344   -8.9586041    51.473107 0.0093046108 0.0079737909           17 
  462000   0.53146914   -8.9524242     51.35157 0.0092625486 0.0079455335           15 
  463000   0.53325553   -8.9620011    51.392133 0.0092498439 0.0079174046           28 
  464000   0.52254657   -8.9769878    51.282539 0.0092102262 0.0078894113           19 
  465000   0.53249808   -8.9520517    51.350338 0.0092025694 0.0078615181           12 
  466000   0.53471546    -8.955408    51.325214 0.0091783287 0.0078337241           18 
  467000   0.51492471   -8.9779017    51.318731 0.0091575179 0.0078060583           20 
  468000   0.51663119   -8.9827009    51.337253 0.0091412487 0.0077785146           19 
  469000   0.51121806   -8.9794232    51.234369  0.009103477 0.0077511338           39 
  470000   0.51452491   -9.0005915    51.338375 0.0091025488 0.0077239311           15 
  471000   0.51477233   -8.9988272    51.369613 0.0090887496 0.0076967945           28 
  472000   0.51992817   -8.9813927    51.346548 0.0090654216 0.0076697769           15 
  473000   0.51187788   -8.9865428    51.230797 0.0090258628 0.0076428235           21 
  474000   0.51456182   -8.9820588    51.339757  0.009025977 0.0076159992           17 
  475000   0.51390679   -8.9924364    51.245516 0.0089904414 0.0075893221           26 
  476000   0.51171115   -9.0080052    51.270241 0.0089758825 0.0075627711           19 
  477000   0.50551967   -9.0022582    51.245906 0.0089528138 0.0075363357           25 
  478000   0.50271646   -8.9829048    51.226989 0.0089307861 0.0075100138           31 
  479000   0.49154343   -9.0126506    51.167999 0.0089018787 0.0074837712            7 
  480000    0.5015454    -9.010103    51.374842 0.0089192434 0.0074575727           23 
  481000   0.49357737   -9.0125487     51.22903 0.0088754384 0.0074315519            8 
  482000   0.49537181   -9.0254407    51.224991 0.0088563263 0.0074056555           24 
  483000   0.49568874   -9.0308304    51.229904 0.0088388378 0.0073798898           26 
  484000   0.49850358   -9.0291954    51.202892 0.0088159249 0.0073542396           25 
  485000   0.49299011   -9.0242068    51.241061 0.0088043061 0.0073286877           27 
  486000   0.49110074    -9.018538    51.239826 0.0087859784 0.0073032418           14 
  487000   0.49295347    -9.018991     51.22817 0.0087659428  0.007277885            6 
  488000   0.47468196   -9.0182712    51.231035 0.0087484691 0.0072526947           20 
  489000    0.4862099   -9.0292889    51.257426  0.008735076 0.0072275784           23 
  490000   0.48810015   -9.0293493    51.167398 0.0087019384 0.0072026196           32 
  491000   0.49536717   -9.0398278    51.259313 0.0086998155 0.0071777413           26 
  492000   0.49718607   -9.0260644    51.187643 0.0086699938 0.0071529803           26 
  493000   0.48084039   -9.0347954    51.194073 0.0086534944 0.0071283301           29 
  494000   0.47025101   -9.0342954    51.206655 0.0086380996 0.0071038211           25 
  495000   0.47216683   -9.0581035    51.224577 0.0086236661  0.007079423           14 
  496000   0.47769435   -9.0452884    51.088359 0.0085833936 0.0070550862           32 
  497000   0.47791713   -9.0473646    51.131613 0.0085733757 0.0070309004           19 
  498000   0.47942447   -9.0549026    51.104743 0.0085516638 0.0070067868           22 
  499000   0.46620332   -9.0637226    51.150317 0.0085421371 0.0069827708           28 
  500000   0.47394417   -9.0415143    51.098332 0.0085163887 0.0069588415           12 
  501000   0.47353657   -9.0634458    51.107991 0.0085009965 0.0069350456           33 
  502000   0.47625112    -9.064996    51.171141 0.0084945453 0.0069113713           19 
  503000   0.46814988    -9.060147    51.082362 0.0084629494 0.0068877907           28 
  504000   0.46231179   -9.0622518    51.097694 0.0084486928 0.0068642835           26 
  505000   0.46105171   -9.0706047    51.042573 0.0084228669 0.0068408663           25 
  506000   0.46071914   -9.0759827     51.05702 0.0084086001 0.0068175631           27 
  507000   0.45266807   -9.0745263    51.123883  0.008403005 0.0067943655           20 
  508000   0.44809705   -9.0691703     51.09837 0.0083822785 0.0067712677           31 
  509000   0.45303975   -9.0802935    51.027899 0.0083542729 0.0067483257           17 
  510000   0.45104328   -9.0735142    50.993923 0.0083323403 0.0067254245           22 
  511000   0.45188992   -9.0846993    51.114238 0.0083356552 0.0067026501           26 
  512000   0.45377668    -9.094883    51.075121 0.0083130079 0.0066799637           35 
Loop time of 1264.33 on 48 procs for 500000 steps with 4000 atoms

Performance: 68336.839 tau/day, 395.468 timesteps/s
99.4% CPU use with 48 MPI tasks x no OpenMP threads

MPI task timing breakdown:
Section |  min time  |  avg time  |  max time  |%varavg| %total
---------------------------------------------------------------
Pair    | 89.026     | 93.136     | 97.958     |  23.7 |  7.37
Neigh   | 8.4956     | 8.8062     | 9.5062     |   6.8 |  0.70
Comm    | 78.78      | 84.982     | 89.951     |  30.3 |  6.72
Output  | 0.86573    | 0.86663    | 0.89545    |   0.5 |  0.07
Modify  | 1060.2     | 1064.6     | 1068.8     |   7.2 | 84.20
Other   |            | 11.93      |            |       |  0.94

Nlocal:        83.3333 ave          89 max          77 min
Histogram: 1 2 7 3 5 14 5 5 3 3
Nghost:        2273.90 ave        2293 max        2249 min
Histogram: 1 2 8 2 2 9 7 8 3 6
Neighs:        15348.4 ave       17046 max       13448 min
Histogram: 1 0 4 7 10 13 6 2 3 2
FullNghs:      30696.4 ave       32821 max       28368 min
Histogram: 2 1 7 5 7 9 6 6 2 3

Total # of neighbors = 1473429
Ave neighs/atom = 368.35725
Neighbor list builds = 26660
Dangerous builds = 0

#clear
#
#next RN
#
#jump SELF
Total wall time: 0:21:07
