
units lj                  # Use reduced LJ style units
atom_style atomic         # Uncharged point particles
atom_modify map hash      # Needed for indexing of clusters etc
                          # Used to be able to find where atoms are in relation to each other.

lattice fcc 1.0 spacing 1 1 1
Lattice spacing in x,y,z = 1.5874011 1.5874011 1.5874011
region box block 0 10 0 10 0 10 units lattice
create_box 2 box
Created orthogonal box = (0.0000000 0.0000000 0.0000000) to (15.874011 15.874011 15.874011)
  3 by 4 by 4 MPI processor grid
create_atoms 1 box
Created 4000 atoms
  using lattice units in orthogonal box = (0.0000000 0.0000000 0.0000000) to (15.874011 15.874011 15.874011)
  create_atoms CPU = 0.002 seconds
set type 1 type/fraction 2 0.13 78393
Setting atom values ...
  541 settings made for type/fraction
mass 1 1.0
mass 2 1.0
pair_style lj/cut  3.5
pair_modify tail  yes
pair_coeff 1  1  1.0  1.0   # Intearaction between 1 and 1 set with epsilon = 1 and sigma = 1
pair_coeff 1  2  1.5  0.8
pair_coeff 2  2  0.5  0.88

write_data data.0
System init for write_data ...
Neighbor list info ...
  update every 1 steps, delay 10 steps, check yes
  max neighbors/atom: 2000, page size: 100000
  master list distance cutoff = 3.8
  ghost atom cutoff = 3.8
  binsize = 1.9, bins = 9 9 9
  1 neighbor lists, perpetual/occasional/extra = 1 0 0
  (1) pair lj/cut, perpetual
      attributes: half, newton on
      pair build: half/bin/atomonly/newton
      stencil: half/bin/3d
      bin: standard
WARNING: Not all mixed pair coeffs generated from mixing. Use write_data with 'pair ij' option to store all pair coeffs. (../write_data.cpp:312)


#############################
#   M E L T   S Y S T E M   #
#############################

velocity all create 2.4 5833274 mom yes dist gaussian # Assign velocities
                                                    # Temperature 2.4, random number seed, zero linear momentum
                                                                                # Gaussian distribution

timestep 0.002   # simulation timestep
thermo 1000       # output thermodynamic data every 1000 steps bf 100

# Define a fix  in this case with index 1 applied to all
# particles in the simulation. This fix is for simulations
# in the anisotropic NPT ensemble. Note that we use the MTK
# correction.
fix 1 all npt temp 2.4 2.4 0.1 iso 5.68 5.68 0.5 mtk yes tchain 5 pchain 5 # Use NPT ensemble
                                                                         # Set temperature and pressure and damping
                                                                         # Numbers of thermostats in chain and in barostat
run 10000          # run for 10000 steps
Per MPI rank memory allocation (min/avg/max) = 3.642 | 3.644 | 3.648 Mbytes
Step Temp E_pair E_mol TotEng Press Volume 
       0          2.4     -7.50335            0     -3.90425   -3.2182506         4000 
    1000     2.409823   -4.6523996            0   -1.0385687    5.6042879    4751.7053 
    2000    2.3651473   -4.6434927            0   -1.0966588    5.7603404    4734.6126 
    3000    2.3856309   -4.6692077            0   -1.0916559    5.6757015    4728.2961 
    4000    2.3673047   -4.6792864            0   -1.1292171    5.9086794     4700.451 
    5000    2.3666061   -4.6962349            0   -1.1472132     5.547988    4730.8164 
    6000    2.3889996   -4.7068714            0   -1.1242679    5.4745709    4735.6277 
    7000    2.4180024   -4.6361968            0   -1.0100999    6.2133913    4693.8609 
    8000    2.3535427   -4.6779507            0   -1.1485192    5.6824269     4729.834 
    9000    2.4144296   -4.6734858            0   -1.0527468    5.6311569     4747.689 
   10000    2.3884666   -4.6757225            0   -1.0939182    5.5035549    4759.9897 
Loop time of 2.1914 on 48 procs for 10000 steps with 4000 atoms

Performance: 788535.367 tau/day, 4563.283 timesteps/s
99.6% CPU use with 48 MPI tasks x no OpenMP threads

MPI task timing breakdown:
Section |  min time  |  avg time  |  max time  |%varavg| %total
---------------------------------------------------------------
Pair    | 0.91898    | 0.97768    | 1.0234     |   2.6 | 44.61
Neigh   | 0.19193    | 0.19939    | 0.20753    |   0.8 |  9.10
Comm    | 0.69408    | 0.75479    | 0.8354     |   3.6 | 34.44
Output  | 0.00024845 | 0.00025482 | 0.00042149 |   0.0 |  0.01
Modify  | 0.21618    | 0.24431    | 0.26811    |   3.0 | 11.15
Other   |            | 0.01498    |            |       |  0.68

Nlocal:        83.3333 ave          97 max          74 min
Histogram: 2 6 5 13 5 10 3 3 0 1
Nghost:        1458.00 ave        1492 max        1418 min
Histogram: 1 0 4 6 4 16 11 2 2 2
Neighs:        8008.81 ave        9714 max        7092 min
Histogram: 5 6 12 10 4 6 4 0 0 1

Total # of neighbors = 384423
Ave neighs/atom = 96.105750
Neighbor list builds = 903
Dangerous builds = 183

# Equilibrate just above the melting temperature to avoid step fn in T

fix 1 all npt temp 1.25 1.25 0.1 iso 5.68 5.68 0.5 mtk yes tchain 5 pchain 5
run 2000
Per MPI rank memory allocation (min/avg/max) = 3.642 | 3.644 | 3.648 Mbytes
Step Temp E_pair E_mol TotEng Press Volume 
   10000    2.3884666   -4.6757225            0   -1.0939182    5.5035549    4759.9897 
   11000     1.247551   -6.2947811            0   -4.4239225    5.6304818    3894.2596 
   12000    1.2418535   -6.3477856            0    -4.485471    5.4245108    3887.8779 
Loop time of 0.528962 on 48 procs for 2000 steps with 4000 atoms

Performance: 653355.647 tau/day, 3780.993 timesteps/s
99.5% CPU use with 48 MPI tasks x no OpenMP threads

MPI task timing breakdown:
Section |  min time  |  avg time  |  max time  |%varavg| %total
---------------------------------------------------------------
Pair    | 0.20584    | 0.2318     | 0.26211    |   2.1 | 43.82
Neigh   | 0.031412   | 0.033591   | 0.037239   |   0.6 |  6.35
Comm    | 0.14125    | 0.17485    | 0.22071    |   4.3 | 33.06
Output  | 5.3338e-05 | 5.49e-05   | 6.9338e-05 |   0.0 |  0.01
Modify  | 0.043251   | 0.084043   | 0.098288   |   4.9 | 15.89
Other   |            | 0.004619   |            |       |  0.87

Nlocal:        83.3333 ave          90 max          76 min
Histogram: 3 3 6 4 7 6 5 5 2 7
Nghost:        1669.17 ave        1695 max        1648 min
Histogram: 1 9 7 3 8 8 5 1 4 2
Neighs:        9822.17 ave       10807 max        8858 min
Histogram: 3 5 4 7 8 4 3 7 3 4

Total # of neighbors = 471464
Ave neighs/atom = 117.86600
Neighbor list builds = 141
Dangerous builds = 7

#############################
# L I N E A R  Q U E N C H  #
#############################

# Define solid atoms. This closely follows ten Wolde  Ruiz-Montero and Frenkel  Faraday Discuss  1996  104  93-110
# Compute components of the per-atom q6 vector
compute q6 all orientorder/atom degrees 1 6 components 6 nnn NULL cutoff 1.3 # compute the Q6 parameter.
                                                                             # Use all neighbours within 1.3 unit cell.

# get number of connections
compute coord_number all coord/atom orientorder q6 0.5

# An atom is solid if it has 8 or more connections (of a possible 14)
variable is_solid atom c_coord_number>=8
group solid dynamic all var is_solid    # Must be dynamic to update
dynamic group solid defined

# do clustering
compute cluster solid cluster/atom 1.3 # Create a cluster where all atoms within are solid and max 1.3 units from another member

# define chunks one chunk per cluster
compute clus_chunks solid chunk/atom c_cluster nchunk every compress yes  # Says which atoms are in which chunk

# count the size of each chunk
compute size_chunks solid property/chunk clus_chunks count


# Find the maximum entry in the vector of chunk sizes
variable max_n equal max(c_size_chunks)


# Thermo style which includes this variable
# thermo_style custom step temp pe vol v_max_n

thermo ${N}  # Print the thermo information every 100 steps
thermo 1000  

# Reset the npt fix at a lower temperature (below freezing)
fix 1  all npt temp  ${temp} ${temp}  0.1  iso  5.68  5.68  0.5  mtk yes tchain  5  pchain  5
fix 1  all npt temp  0.45 ${temp}  0.1  iso  5.68  5.68  0.5  mtk yes tchain  5  pchain  5
fix 1  all npt temp  0.45 0.45  0.1  iso  5.68  5.68  0.5  mtk yes tchain  5  pchain  5

dump dmp2 all dcd ${N} traj.dcd
dump dmp2 all dcd 1000 traj.dcd


compute msd all msd com yes
variable twopoint equal c_msd[4]/6/(step*dt+1.0e-6)
fix 9 all vector 10 c_msd[4]
variable fit equal slope(f_9)/6/(10*dt)
thermo_style custom step temp pe c_msd[4] v_twopoint v_fit v_max_n

fix 1 all npt temp 1.25 ${temp} 0.1 iso 5.68 5.68 0.5 mtk yes tchain 5 pchain 5
fix 1 all npt temp 1.25 0.45 0.1 iso 5.68 5.68 0.5 mtk yes tchain 5 pchain 5
run 500000 # 5000000  # Run for this many steps
Neighbor list info ...
  update every 1 steps, delay 10 steps, check yes
  max neighbors/atom: 2000, page size: 100000
  master list distance cutoff = 3.8
  ghost atom cutoff = 3.8
  binsize = 1.9, bins = 9 9 9
  4 neighbor lists, perpetual/occasional/extra = 1 3 0
  (1) pair lj/cut, perpetual
      attributes: half, newton on
      pair build: half/bin/atomonly/newton
      stencil: half/bin/3d
      bin: standard
  (2) compute orientorder/atom, occasional
      attributes: full, newton on
      pair build: full/bin/atomonly
      stencil: full/bin/3d
      bin: standard
  (3) compute coord/atom, occasional
      attributes: full, newton on
      pair build: full/bin/atomonly
      stencil: full/bin/3d
      bin: standard
  (4) compute cluster/atom, occasional
      attributes: full, newton on
      pair build: full/bin/atomonly
      stencil: full/bin/3d
      bin: standard
Per MPI rank memory allocation (min/avg/max) = 9.755 | 9.760 | 9.767 Mbytes
Step Temp PotEng c_msd[4] v_twopoint v_fit v_max_n 
   12000    1.2418535   -6.3477856 1.9721523e-34 1.3695501e-36 8.3333333e+20            2 
   13000    1.2577058   -6.2585632   0.54714439 0.0035073357  0.045537606            2 
   14000    1.2401551   -6.2874172    1.0905787 0.0064915395  0.044993573            4 
   15000    1.2613706   -6.3115824    1.5596603 0.0086647792  0.043603081            2 
   16000     1.223385   -6.3292911     2.081765  0.010842526   0.04300657            1 
   17000    1.2401089   -6.2906225    2.6023935  0.012756831  0.042873486            2 
   18000    1.2613242   -6.3205046    3.1121538  0.014408119  0.042869058            2 
   19000    1.2642563   -6.3748198    3.6228556  0.015889717  0.042476494            3 
   20000    1.2588865   -6.3114263    4.1058265   0.01710761  0.042592586            1 
   21000    1.2487007   -6.3450921    4.5759848  0.018158669  0.042369131            3 
   22000    1.2540388   -6.3348525    5.1478342  0.019499372  0.042299228            3 
   23000    1.2399311   -6.3680481    5.5705038  0.020182984  0.042265931            3 
   24000     1.219316   -6.3744431    6.0658724  0.021062056  0.042065828            3 
   25000     1.210112   -6.3569256    6.6203595  0.022067865  0.041972168            4 
   26000    1.2591387   -6.3752507     7.170698  0.022983006  0.042052567            2 
   27000    1.2262391   -6.3537386    7.6637311  0.023653491  0.042097375            3 
   28000    1.2454861    -6.342285     8.185723   0.02436227  0.042161174            2 
   29000    1.2156948   -6.3319483    8.7500337  0.025143775   0.04225902            1 
   30000    1.2563132   -6.4032603    9.1263913  0.025351087  0.042266606            2 
   31000    1.2074243   -6.3477359    9.5824908  0.025759384  0.042117529            2 
   32000    1.2316285   -6.3760476    10.052414  0.026178161  0.041964033            2 
   33000    1.2387933   -6.4187792    10.556025  0.026656628  0.041859495            4 
   34000    1.2120711   -6.3655568    11.187282  0.027419808  0.041831128            2 
   35000    1.2413857   -6.3641905     11.74568  0.027965903  0.041875988            4 
   36000    1.1965848   -6.3698564    12.057638  0.027911199  0.041833046            2 
   37000    1.2171484   -6.3708169    12.588555    0.0283526  0.041804691            5 
   38000    1.2341981   -6.3725068    13.012255  0.028535647  0.041754501            2 
   39000    1.1680001   -6.3866767    13.437624  0.028712872  0.041631427            2 
   40000    1.2045324    -6.430394    13.985021   0.02913546  0.041572485            3 
   41000    1.2089541   -6.3992958    14.563079  0.029599755  0.041525154            2 
   42000    1.2090025   -6.3846151      15.0007  0.029763293  0.041503502            2 
   43000    1.1936065   -6.4308791    15.556233  0.030147737  0.041494144            3 
   44000    1.2032184   -6.3549722    16.010254  0.030322451  0.041467375            2 
   45000    1.2020721   -6.3575393    16.489634  0.030536358  0.041451549            3 
   46000    1.1981971   -6.4412564    16.930851   0.03067183  0.041424627            4 
   47000    1.1599956   -6.4310843    17.347966  0.030758804  0.041368331            1 
   48000    1.1701769   -6.4559399    17.850371  0.030990227  0.041324342            2 
   49000    1.1996813   -6.4149862     18.51353  0.031485596   0.04130799            2 
   50000    1.1470167   -6.3839905    19.050663  0.031751105  0.041323769            3 
   51000    1.1648326   -6.4593274    19.467107  0.031808998  0.041334138            2 
   52000    1.1851022   -6.4133109    19.949257  0.031969963  0.041328914            2 
   53000    1.1912462   -6.4163678    20.359658  0.032012041  0.041310165            1 
   54000    1.1683813   -6.4391306    20.908006   0.03226544  0.041312088            4 
   55000    1.1965771   -6.4228875    21.337842  0.032330063  0.041298172            2 
   56000    1.1872988   -6.3938841    21.697947  0.032288612  0.041248319            4 
   57000    1.1746053   -6.4342855    22.185004  0.032434216  0.041185991            3 
   58000    1.1834726   -6.4555586    22.544208  0.032391103  0.041106479            3 
   59000    1.1547961   -6.4441482      22.8007  0.032204379  0.041009148            3 
   60000    1.1867541   -6.4542321    23.126986  0.032120814  0.040874481            2 
   61000    1.1776595   -6.4597295    23.588085   0.03222416  0.040749564            3 
   62000    1.1855469   -6.4429481    24.203255  0.032531257  0.040637386            1 
   63000    1.1814045   -6.4512669    24.723572  0.032703137  0.040560815            4 
   64000    1.1753871     -6.46926    25.018592  0.032576291  0.040476637            4 
   65000    1.1792769   -6.4642537    25.365642  0.032520054    0.0403618            2 
   66000    1.1658415   -6.4514113    25.930004  0.032739903  0.040255319            2 
   67000    1.1685115   -6.5008943    26.249379  0.032648481  0.040165936            2 
   68000    1.1761348   -6.4616021    26.976182  0.033059047  0.040083795            3 
   69000    1.1523478   -6.4612573    27.471364  0.033177976  0.040026372            3 
   70000    1.1757808   -6.4922053    27.508918  0.032748711  0.039943183            4 
   71000    1.1705464   -6.5199598    27.888298  0.032732744  0.039841659            2 
   72000    1.1563554   -6.4880468    28.377713  0.032844576   0.03974033            3 
   73000    1.1719298   -6.4847741     28.53875  0.032578481  0.039624862            4 
   74000    1.1374311   -6.4939351    28.929066  0.032577777  0.039493788            3 
   75000    1.1529387   -6.4942586    29.262012  0.032513346  0.039356936            2 
   76000    1.1599474   -6.5125597    29.731644  0.032600487  0.039237603            4 
   77000    1.1292873   -6.4796923    30.463411   0.03296906  0.039127483            8 
   78000    1.1626721   -6.5334785    30.688076  0.032786405  0.039029597            3 
   79000    1.1486332   -6.5034318    31.092387  0.032797877   0.03893047            2 
   80000    1.1362241   -6.5083985    31.530706  0.032844486  0.038837203            2 
   81000    1.1219138   -6.5235345     31.90467  0.032823734  0.038741255            3 
   82000     1.147227   -6.4881687    32.240337   0.03276457  0.038646004            2 
   83000     1.134723   -6.5581992    32.457233  0.032587584  0.038536993            4 
   84000    1.1189417   -6.5310364    32.903703  0.032642563  0.038430386            2 
   85000    1.1380157   -6.5023881    33.373497  0.032719114  0.038326043            2 
   86000    1.1234339   -6.5183096    33.623936  0.032581333  0.038222525            2 
   87000      1.12961   -6.5151925    34.164292  0.032724418  0.038124431            4 
   88000    1.1294439   -6.5672417    34.461495  0.032633992  0.038019954            4 
   89000    1.1122214   -6.5402083    34.907079  0.032684531  0.037926391            4 
   90000     1.101467   -6.5219671    35.450516  0.032824551  0.037836249            2 
   91000    1.1171615   -6.5395199    35.634419  0.032632252  0.037745751            3 
   92000    1.1331271   -6.5644376    35.998057  0.032606936  0.037654485            4 
   93000    1.0998466   -6.5712162     36.46508  0.032674803   0.03756188            5 
   94000    1.0916175   -6.5850272    36.688931  0.032525648  0.037476025            7 
   95000    1.1120184   -6.5917023     37.02296  0.032476281  0.037383598            2 
   96000    1.1241661   -6.5339611    37.546178  0.032592168  0.037291708            3 
   97000    1.1085294    -6.550295    37.838073  0.032506936  0.037203352            5 
   98000    1.0907739   -6.4746265    38.352994   0.03261309  0.037119935            2 
   99000    1.0961966   -6.5044677    38.495644  0.032403741  0.037032489            3 
  100000    1.1117337   -6.5587379    38.925202  0.032437668  0.036941653            4 
  101000    1.0983708   -6.5812226    39.276701  0.032406518  0.036858472            2 
  102000    1.1091477   -6.5944742    39.817276  0.032530454  0.036781181            3 
  103000    1.1146846   -6.5623373    40.206504  0.032529534  0.036704701            4 
  104000    1.1112262   -6.5933702     40.43794  0.032402195  0.036623331            2 
  105000    1.0961174   -6.5754468    40.645966  0.032258703  0.036531015            2 
  106000    1.1059688   -6.6031443    40.876469  0.032135589  0.036436168            3 
  107000     1.073018   -6.6172826    41.113375  0.032019762   0.03634322            8 
  108000    1.1193979   -6.6048529    41.528095  0.032043283  0.036246739            2 
  109000      1.11728   -6.6173443    42.024908  0.032129135   0.03615519            8 
  110000    1.0930754   -6.6095764    42.179856  0.031954436  0.036061885            4 
  111000    1.0924447   -6.6191907    42.670969  0.032035262  0.035966726            2 
  112000    1.0950676   -6.5993342    43.119816  0.032083197   0.03588071            2 
  113000    1.0859589   -6.6173595    43.416132  0.032017796  0.035798362            2 
  114000    1.0908776   -6.5920584    43.709846  0.031951642  0.035715906            3 
  115000    1.0925199   -6.6315381    44.089824  0.031949148  0.035635517            6 
  116000    1.0631726   -6.6088807    44.315596  0.031835916  0.035553104            4 
  117000    1.0829016     -6.58894    44.708561  0.031843704  0.035468144            4 
  118000    1.0935863   -6.6421998    45.035856  0.031804983  0.035386765            1 
  119000    1.0581864   -6.6376414    45.528292  0.031882557  0.035309076            2 
  120000    1.0450669   -6.6464286    45.654736  0.031704677  0.035231411           11 
  121000    1.0590264   -6.6385291    45.830885   0.03156397  0.035145517            2 
  122000    1.0857149   -6.6003091    46.269831  0.031605076  0.035056045            2 
  123000     1.070569   -6.6524088    46.551827  0.031539178  0.034971674            4 
  124000    1.0710161   -6.6241588    46.904366  0.031521751  0.034886261            7 
  125000    1.0886692   -6.6683127    47.095349  0.031396899  0.034800033            5 
  126000    1.0983655   -6.6390002    47.454785   0.03138544  0.034711859            2 
  127000    1.0548609   -6.6572087    47.592528  0.031228693  0.034624357            2 
  128000    1.0743973   -6.6555776    48.102771  0.031316908  0.034534795            1 
  129000    1.0490611   -6.6801037    48.290105  0.031195158  0.034448923            3 
  130000    1.0807017   -6.6609334     48.50322  0.031091808  0.034362538            2 
  131000    1.0585786   -6.6865747    48.917503  0.031118004  0.034273551            2 
  132000    1.0504808   -6.6658771     49.08176  0.030985959  0.034187675            2 
  133000    1.0729629   -6.6844667    49.471051  0.030996899  0.034102545            3 
  134000    1.0574403   -6.6791183    49.622924  0.030860027  0.034017779            3 
  135000    1.0403994   -6.6883496    50.185793  0.030978885    0.0339342            3 
  136000    1.0270146   -6.6831881    50.522715  0.030957546  0.033852186            4 
  137000    1.0297624   -6.6935242    50.843325  0.030926597  0.033773734            2 
  138000    1.0659475   -6.7146449    51.269335  0.030959743   0.03369879            4 
  139000    1.0529693   -6.7279376     51.36843  0.030796421  0.033625111            6 
  140000     1.001723   -6.6948165    51.909885  0.030898741  0.033552142            2 
  141000    1.0459761   -6.6735415    52.406255  0.030972964  0.033480668            3 
  142000    1.0496287   -6.7307524    52.215706   0.03064302  0.033409234            3 
  143000    1.0491027    -6.693899    52.628459  0.030669265  0.033333546            3 
  144000    1.0214957    -6.680806    52.929781   0.03063066   0.03325685            1 
  145000     1.046877     -6.71175    53.171459  0.030558309  0.033182843            2 
  146000    1.0294561   -6.7356911    53.467123  0.030517764  0.033107405            3 
  147000    1.0412531   -6.7175291    54.058566  0.030645445  0.033034177            2 
  148000    1.0374296   -6.6995763    54.220524  0.030529574   0.03296244            3 
  149000    1.0259588   -6.7014571    54.294192  0.030365879  0.032885621            2 
  150000    1.0187136   -6.7529731    54.363712  0.030202062  0.032807065            5 
  151000    1.0361119    -6.724341    54.691409  0.030182896  0.032727728            2 
  152000    1.0272933   -6.7049584    55.356178  0.030348782  0.032653176            6 
  153000    1.0186868   -6.7605702      55.5669  0.030265196  0.032584104            3 
  154000     1.043776   -6.7048092    56.004199  0.030305302  0.032514789            2 
  155000    1.0252671   -6.7572454    56.103352  0.030163093  0.032442907            3 
  156000    1.0281947   -6.7418622    56.191901  0.030017041  0.032370373            9 
  157000    1.0068485   -6.7345694    56.562352   0.03002248  0.032295839            4 
  158000    1.0013997   -6.7448044     56.60226  0.029853513  0.032222089            5 
  159000    1.0191925   -6.7637403    56.683689  0.029708433  0.032143138            4 
  160000    1.0283874   -6.7401316     57.14945  0.029765338  0.032063774            6 
  161000    1.0130908   -6.7528879    57.473122  0.029747993  0.031986505            6 
  162000   0.99572386   -6.7546127    57.851394  0.029758947  0.031914309            8 
  163000    1.0034099   -6.7669757    57.955923  0.029629817  0.031842477            3 
  164000    1.0025478   -6.7756834    58.469934  0.029710332   0.03177059            3 
  165000    1.0027119   -6.7954958    58.781351  0.029687551  0.031702704            4 
  166000    1.0053879   -6.7965976    59.262719  0.029750361  0.031637346            5 
  167000    1.0091867    -6.752977    59.599772  0.029740405  0.031571517            3 
  168000    1.0111865   -6.8000879    59.831777  0.029678461   0.03150785            5 
  169000   0.97977911   -6.7823563    59.978442  0.029575168  0.031444635            3 
  170000    1.0078017   -6.7910164    60.198604   0.02950912  0.031381049            3 
  171000     1.004621   -6.7615044    60.684268   0.02957323  0.031316817            6 
  172000   0.98601726   -6.8051237    60.785377  0.029450279  0.031254241            5 
  173000    1.0052377   -6.7853068    61.336966  0.029545745   0.03119401            2 
  174000   0.97788529   -6.8088809    61.450794  0.029430457  0.031132508            3 
  175000   0.98666404   -6.8104599    61.455643  0.029264592  0.031069623            6 
  176000   0.96964152   -6.8257306    61.513196  0.029125566  0.031003344            9 
  177000   0.98751693   -6.8178246     61.68436  0.029041601  0.030934935            2 
  178000   0.97485001   -6.8146733    61.975883  0.029014927   0.03086368            3 
  179000   0.97063416   -6.7874508    62.151255  0.028934476   0.03079137            5 
  180000   0.99672691   -6.7979124    62.143918  0.028770332  0.030717884            5 
  181000   0.97593813   -6.7901215    62.842083  0.028932819  0.030644573            4 
  182000   0.96542578   -6.7914332    62.827187  0.028767027  0.030574285            4 
  183000   0.96613576   -6.7795782    62.982921  0.028680747   0.03050453            6 
  184000   0.96563221   -6.8398036    63.516517  0.028766538  0.030434883            5 
  185000   0.95375776   -6.8598688    63.434609  0.028574148  0.030365953            2 
  186000   0.97825427     -6.82751    63.692432  0.028536036  0.030298333            7 
  187000   0.97488865   -6.8157702    64.049077  0.028542369  0.030230308            5 
  188000   0.98246197   -6.8584588    64.199111  0.028457053  0.030161546            2 
  189000   0.95792701   -6.8629796     64.32882  0.028363677  0.030090164            7 
  190000   0.96151641   -6.8041666     64.57213   0.02832111  0.030019868            2 
  191000   0.96401735   -6.8747697    64.577733  0.028175276  0.029949451            4 
  192000   0.94375429    -6.865774    64.727593  0.028093573  0.029876692            4 
  193000   0.96017663   -6.8765672     64.94741  0.028042923   0.02980294            3 
  194000   0.94870345   -6.8324591     65.52728  0.028147457  0.029731955            2 
  195000   0.93251526   -6.9064307    65.581096  0.028026109  0.029662155            5 
  196000    0.9557597   -6.8568513    65.988364  0.028056277  0.029594492            4 
  197000   0.95951483   -6.8803998    66.177648  0.027993929  0.029527069            5 
  198000    0.9538857   -6.8613122    66.617956   0.02803786  0.029461035            4 
  199000   0.94521234   -6.8531838    66.759852  0.027956387  0.029395691            7 
  200000   0.95875127   -6.8581741    67.000197  0.027916749  0.029331143            4 
  201000   0.95490136   -6.8850881    67.205507   0.02786298  0.029265807            2 
  202000   0.93317863   -6.9168721    67.178666  0.027713971  0.029199429            5 
  203000   0.92781573   -6.8980016    67.459277  0.027692642  0.029133236            3 
  204000   0.93634537   -6.8743226    67.599798  0.027614297  0.029066422            2 
  205000   0.95335554   -6.8657908    67.987953  0.027637379  0.029000117            3 
  206000   0.91958998    -6.874777    68.148766  0.027568271  0.028935455            3 
  207000   0.93281817   -6.9075852     68.28973   0.02749184   0.02886976            3 
  208000   0.94816236   -6.9137569    68.506438   0.02744649  0.028803948            3 
  209000    0.9211629    -6.891469    68.715662  0.027398589  0.028737294            4 
  210000   0.91638969   -6.9118082    69.032706  0.027393931  0.028671722            8 
  211000   0.94078227   -6.8880608    69.222416  0.027339027  0.028607491            5 
  212000   0.91627219    -6.920971    69.302958  0.027241729  0.028541879            5 
  213000   0.91197659   -6.8987035     69.53128  0.027203161  0.028475689            4 
  214000   0.92311801   -6.9589423    69.465141  0.027050288  0.028409798            4 
  215000    0.9191833   -6.9160007    69.772948  0.027043778  0.028343633            6 
  216000   0.93208914   -6.9017275    70.132478  0.027057283  0.028277846            5 
  217000    0.9197105   -6.9509923    70.099028   0.02691975  0.028212955            3 
  218000   0.92594037    -6.942892    70.277401   0.02686445  0.028147342            4 
  219000   0.91230993   -6.9097478    70.520345  0.026834225   0.02808065            3 
  220000   0.91676301   -6.9185208    70.671897  0.026769658  0.028014005            5 
  221000    0.9187602   -6.9382893    70.640225  0.026636585  0.027946632            4 
  222000   0.90418616   -6.9139555     70.60221  0.026502331  0.027877012            7 
  223000   0.89998486   -6.9278711    70.785239  0.026451883  0.027807393            4 
  224000   0.89583841   -6.9722851    71.034507  0.026426528  0.027737764            4 
  225000   0.91036489   -6.9311055    71.191793  0.026367331  0.027668624            2 
  226000   0.91251597   -6.9628988    71.428593  0.026337977  0.027599333            3 
  227000   0.91901491   -6.9602032    71.448879  0.026229398   0.02752943            7 
  228000   0.89846526   -7.0010815    71.437826  0.026110317  0.027459685            8 
  229000   0.89272246   -7.0092514    71.803882  0.026129506   0.02739041            4 
  230000   0.90347514   -6.9904533    71.907228  0.026053343  0.027320537            3 
  231000   0.91630797   -6.9900811    71.917368  0.025944217  0.027250939            3 
  232000   0.89975189   -6.9899579    72.402974  0.026006815  0.027182117            4 
  233000   0.89236309   -6.9985036    72.480045  0.025922763  0.027114211            4 
  234000   0.88789105   -6.9986584    72.755193  0.025909969  0.027046501            9 
  235000   0.88853671   -6.9685229    72.917075  0.025857119  0.026979466            5 
  236000   0.89955337   -7.0213516    72.691831  0.025668019  0.026910627            3 
  237000    0.8917716   -7.0233177    72.742634  0.025577579  0.026840462           12 
  238000    0.8823765   -7.0209338    73.009108  0.025563413  0.026770894            8 
  239000   0.89860271   -7.0046495    72.976839  0.025445202  0.026700528            3 
  240000   0.89041496   -6.9873155    73.097331  0.025381018  0.026629999            8 
  241000   0.88754935   -7.0170561     73.31327   0.02535037  0.026558641            4 
  242000   0.86098688   -7.0182237    73.450316  0.025292808  0.026488068            3 
  243000   0.88031174   -7.0270882    73.617793  0.025246157   0.02641828            6 
  244000   0.87889012   -7.0276288    74.078503  0.025300035  0.026348864            5 
  245000   0.85493812   -7.0215822    73.983657  0.025164509  0.026279858            3 
  246000   0.87862584    -7.030711    74.018338  0.025073963  0.026210749            4 
  247000   0.87197199   -7.0288728    74.000338  0.024966376  0.026141136            4 
  248000   0.87294209   -7.0179139    74.156795  0.024918278   0.02607098            4 
  249000   0.86392118   -7.0698113    74.341514  0.024880025  0.026002073            7 
  250000   0.85761291   -7.0769241    74.517348  0.024839116  0.025933362            5 
  251000   0.86160581   -7.0444864    74.349729  0.024684505  0.025863616            3 
  252000   0.86488926   -7.0265033    74.782284  0.024729591  0.025794339            7 
  253000   0.89326767    -7.036154    74.851324  0.024654586  0.025726098            7 
  254000   0.83800844   -7.0556883    75.141049  0.024652575   0.02565798            3 
  255000   0.85252329   -7.0578802     75.20802  0.024577784  0.025589748            9 
  256000   0.85545515   -7.0807242    74.891573  0.024378767  0.025520801            3 
  257000   0.85466156   -7.0776245    75.195736  0.024382534  0.025451539            4 
  258000   0.85049457   -7.1003034     75.27574   0.02431387  0.025381488           10 
  259000    0.8314341    -7.092826    75.320383  0.024234357  0.025311392            6 
  260000   0.84670063   -7.0679475    75.668971  0.024252875  0.025241055            4 
  261000   0.84754925   -7.0702275    75.725999  0.024178161  0.025171779            9 
  262000   0.86529274   -7.0821243    75.702101  0.024078276  0.025102079            4 
  263000   0.84920305   -7.0947328    75.846703  0.024032542  0.025032234            5 
  264000   0.85895831   -7.0945744    75.967473  0.023979632  0.024962909            5 
  265000   0.85208239   -7.0917993    76.083594  0.023925658  0.024894131           10 
  266000   0.86192349   -7.1123062    76.007661  0.023811924  0.024825585            5 
  267000   0.84491036   -7.1196909    76.175616  0.023775161  0.024756387            4 
  268000   0.83845698   -7.1063337    76.110254  0.023666124  0.024686412            6 
  269000    0.8448218   -7.1227277    76.320621  0.023643315  0.024616308            4 
  270000   0.84179903   -7.1351422    76.325749   0.02355733  0.024546411            4 
  271000   0.83825408   -7.1039757    76.559701  0.023542343  0.024476747            7 
  272000   0.82625159   -7.1227728    76.712342  0.023502556  0.024407694            6 
  273000   0.82363976   -7.1358107    76.806775  0.023445291   0.02433848            7 
  274000   0.80575633   -7.1395824    76.693597  0.023325303   0.02426932            2 
  275000    0.8294831   -7.1302419    76.808528  0.023275311   0.02419985           11 
  276000   0.84334637   -7.0889878    76.964421   0.02323805  0.024131029            5 
  277000    0.8256329   -7.1404011    76.925168  0.023142349  0.024061818            4 
  278000   0.81929054   -7.1479179     77.06673  0.023101538  0.023992322            6 
  279000   0.83143553   -7.1178067    77.115087   0.02303318  0.023922936           12 
  280000   0.82314787   -7.1606633    77.215898  0.022980922  0.023854033            6 
  281000   0.82254697    -7.130498     77.35342  0.022939923  0.023785608            7 
  282000   0.80230548   -7.1389465    77.526263  0.022909652  0.023717288            8 
  283000   0.82712696   -7.1700164     77.57621  0.022843407  0.023648908            4 
  284000   0.79318087   -7.1541482    77.596165  0.022768828   0.02358064           10 
  285000   0.80663965   -7.1447481    77.613333  0.022693957  0.023512509            4 
  286000   0.80628545    -7.152028    77.832984  0.022678608  0.023444368            7 
  287000    0.8028556    -7.156765    77.809593  0.022592797  0.023376768            6 
  288000   0.81188968   -7.1761089    77.928028  0.022548619  0.023309527            5 
  289000   0.82210545   -7.1765912    77.950272   0.02247701  0.023242532            6 
  290000   0.80892306   -7.1762155    78.212867  0.022474962  0.023175881           13 
  291000   0.78429519   -7.1890038    78.269169  0.022413851  0.023109539            7 
  292000   0.79194386   -7.1900888    78.311146  0.022349071  0.023043479            5 
  293000   0.79376408    -7.214472    78.448606   0.02231189  0.022977852            8 
  294000   0.80242927   -7.1708914    78.711096  0.022310401  0.022911693            9 
  295000   0.78391438   -7.1684588    78.562706  0.022192855  0.022846292           10 
  296000    0.7742494   -7.1971713    78.614693  0.022132515  0.022780371           11 
  297000   0.77929333   -7.2004647    78.676809  0.022075423  0.022714613            6 
  298000   0.79976147   -7.1981384    78.576201   0.02197321   0.02264898           11 
  299000   0.79717652   -7.2362695    78.629695  0.021914631  0.022582983            8 
  300000    0.7908008   -7.2292458    78.900421  0.021916784  0.022517059            3 
  301000   0.77592037   -7.2158867    78.974808  0.021864565  0.022451242            6 
  302000   0.78604263   -7.2143982    79.092253  0.021824573  0.022386155           12 
  303000   0.79712053   -7.2021942    79.140451    0.0217658  0.022321292            6 
  304000   0.78361715    -7.241538    79.163955  0.021700646  0.022256785            9 
  305000    0.7675394   -7.2438553      79.5015  0.021721721  0.022192708            9 
  306000   0.77212513   -7.2548781    79.454892  0.021638043  0.022129505            6 
  307000   0.78230123   -7.2208921    79.545236  0.021592084  0.022066421           17 
  308000   0.77210279   -7.2619103    79.555617  0.021524788  0.022003068           20 
  309000   0.78096061   -7.2519534    79.494605  0.021438674  0.021939621           15 
  310000   0.75795004   -7.2334174    79.712812  0.021428175  0.021876559            7 
  311000   0.78013583   -7.2367299    79.616731  0.021333529  0.021813875            6 
  312000   0.77360535   -7.2499999    79.907127  0.021342716  0.021751218           14 
  313000   0.77117947   -7.2862114    79.772222  0.021238611  0.021688702           16 
  314000   0.77252044   -7.2591184    79.911944  0.021208053  0.021626242            4 
  315000   0.75292621   -7.2804157    79.886502  0.021133995    0.0215639           17 
  316000   0.75065385   -7.2885973    79.977661  0.021091155  0.021501363            5 
  317000   0.77247196   -7.2614458    80.037925  0.021040464  0.021439006            6 
  318000   0.75934024   -7.2545607    80.173555  0.021009842  0.021377107            5 
  319000   0.74084633   -7.2806179    80.119909  0.020929966  0.021314792           12 
  320000    0.7763203   -7.2880737    80.132677  0.020867885  0.021252481            7 
  321000   0.75062904   -7.2937777    80.109954  0.020796977  0.021190072            8 
  322000   0.74604857   -7.2847236    80.088341  0.020726796  0.021127684            7 
  323000   0.73519358   -7.2813946    80.232879  0.020699917  0.021065002            6 
  324000   0.75178527   -7.3131994    80.297383  0.020652619  0.021002659           25 
  325000   0.74938387   -7.2948259    80.250024  0.020576929  0.020940426            9 
  326000   0.74416683   -7.3248365    80.195897  0.020499974  0.020878296           16 
  327000    0.7482096   -7.3131462    80.332854  0.020472185  0.020816178           11 
  328000    0.7417874   -7.3449181    80.320222   0.02040656  0.020754103           10 
  329000   0.72702929   -7.2980199    80.367637  0.020356544  0.020692277           14 
  330000   0.73291161    -7.313527     80.62264  0.020359252  0.020630963            9 
  331000   0.72638488   -7.3183593    80.484825  0.020263048  0.020569518            8 
  332000   0.72416312   -7.3601908    80.479164  0.020200593   0.02050767            9 
  333000   0.72897838   -7.3534256     80.46374  0.020136071  0.020446426            7 
  334000   0.74292149   -7.3509793    80.362542  0.020050534  0.020385193            9 
  335000   0.73012642   -7.3385331    80.811993  0.020102486  0.020324408            8 
  336000   0.71715302    -7.339855    80.823674  0.020045554  0.020263787            5 
  337000   0.73007813    -7.351917    80.736251  0.019964454   0.02020349            7 
  338000   0.71281261    -7.328221    80.907896  0.019947706  0.020143495            8 
  339000   0.73197478   -7.3566966    80.931487  0.019894662  0.020083577            6 
  340000   0.71286522   -7.3369004    80.943081   0.01983899  0.020023939           13 
  341000   0.73200484   -7.3877792    80.773726  0.019739425  0.019964157            9 
  342000   0.71956263   -7.3589501    80.856433   0.01970186    0.0199041            4 
  343000   0.72286474   -7.3942999    80.950588  0.019667295  0.019844375            8 
  344000   0.72763526   -7.3791767    80.935127  0.019606378  0.019784622           14 
  345000   0.72073156    -7.395761     80.93251  0.019548915  0.019724987            8 
  346000   0.71657295   -7.4110247    81.042454  0.019518895  0.019665349           22 
  347000   0.69640697   -7.3856451    80.964807  0.019443998  0.019605779           11 
  348000   0.71734088   -7.4066142    81.109451  0.019422761  0.019546605           12 
  349000   0.70488095   -7.3965592    81.067595  0.019357114  0.019487204           10 
  350000   0.71834302   -7.4054421    81.265506   0.01934893  0.019428277           11 
  351000   0.69861489   -7.4243139    81.176071  0.019272571  0.019369364           12 
  352000   0.71356875    -7.398632    81.039803  0.019185559  0.019310269           11 
  353000   0.70259758   -7.4126251    81.090168  0.019143099   0.01925118            9 
  354000   0.69756675   -7.4322201     80.79364  0.019019218  0.019192086           10 
  355000   0.71769519   -7.3940676    81.011447  0.019016772  0.019133024           28 
  356000   0.69344886   -7.4077951    80.934631  0.018945373  0.019073969            9 
  357000   0.69323347   -7.4160711    81.105945  0.018932294  0.019015342           10 
  358000   0.72608422   -7.4245574    81.390952  0.018945752  0.018956917            6 
  359000   0.67741826   -7.3998731    81.290779  0.018869726  0.018898912           18 
  360000    0.6951429   -7.4528688    81.367661  0.018835107  0.018841021           17 
  361000   0.69992847   -7.4329515    81.248953  0.018755529   0.01878321           18 
  362000   0.67983369   -7.4516233    81.369302  0.018731423  0.018725631           15 
  363000    0.6808543   -7.4310254    81.151091  0.018629727  0.018668352           17 
  364000   0.69119166   -7.4548896    81.251234  0.018601473  0.018611065           24 
  365000   0.67930164   -7.4423542    81.368782  0.018577347   0.01855373           22 
  366000   0.67024615   -7.4247824    81.473424  0.018550415  0.018496581           16 
  367000     0.687574   -7.4465046    81.441713  0.018492669    0.0184398           24 
  368000   0.67918361   -7.4475683    81.335092  0.018418273   0.01838307           17 
  369000   0.66795772   -7.4555964    81.270927  0.018353868  0.018326616           23 
  370000   0.65821551   -7.4722309    81.369127   0.01832638  0.018269969           23 
  371000   0.66568177   -7.4621426     81.29054  0.018259331  0.018213366           16 
  372000   0.66879475   -7.4686006    81.427394  0.018240904  0.018157038           24 
  373000   0.66725021   -7.4680927    81.514371  0.018211432   0.01810103           24 
  374000   0.66127427   -7.4854937     81.53136  0.018166524  0.018045287           24 
  375000   0.66633672   -7.4674226     81.41775  0.018092833  0.017989569           23 
  376000   0.66786105   -7.4612619    81.517719   0.01806687  0.017934025           19 
  377000   0.66265996   -7.5000804    81.451545   0.01800432  0.017878504           18 
  378000   0.66663827   -7.5076696    81.478338  0.017962597  0.017823125           28 
  379000   0.69600488   -7.4957287    81.404583  0.017898985     0.017768           15 
  380000   0.66399368    -7.491509    81.588159   0.01789214  0.017713091           11 
  381000   0.66422401    -7.503725    81.559706  0.017838956  0.017658158           12 
  382000   0.65376323   -7.5006166    81.595638  0.017800095  0.017603496           14 
  383000   0.65232274    -7.517182    81.626044  0.017760236  0.017549067           13 
  384000   0.64760782   -7.4978438    81.764639  0.017744062  0.017494866           15 
  385000   0.63465058   -7.5241043    81.691227  0.017682084  0.017440802           19 
  386000   0.65659504    -7.510215    81.705456  0.017639347  0.017386797           27 
  387000   0.63971182   -7.5310816       81.439  0.017536391   0.01733291           16 
  388000   0.64690676   -7.5235198    81.563198  0.017517869  0.017279111           26 
  389000   0.63131783   -7.5132752    81.547675  0.017469511  0.017225385           51 
  390000   0.65571084    -7.530608    81.521179  0.017419055  0.017171867           29 
  391000   0.64536335   -7.5100179    81.473705  0.017364387  0.017118285           28 
  392000   0.62990976   -7.5230874    81.567435  0.017340016  0.017065043           14 
  393000   0.63447167   -7.5482989    81.453884  0.017271816  0.017011961           19 
  394000   0.64076045   -7.5527051    81.644109  0.017268213  0.016958985           19 
  395000   0.64118694   -7.5413852    81.650392  0.017225821  0.016906154           19 
  396000   0.63523709   -7.5289975    81.632819  0.017178623  0.016853412           20 
  397000   0.64441825   -7.5480182     81.81143  0.017172844  0.016800758           12 
  398000   0.63919434   -7.5578087    81.514729  0.017067573  0.016748364           14 
  399000    0.6435106   -7.5858568    81.631422  0.017049169  0.016696215           15 
  400000   0.62983039   -7.5476173    81.750171  0.017031286  0.016644155           11 
  401000    0.6240435   -7.5658694    81.364935  0.016908756  0.016592245            9 
  402000   0.63896963   -7.5661359    81.574072  0.016910048  0.016540392            7 
  403000   0.63112502   -7.5920173    81.597528  0.016872938  0.016488943           10 
  404000   0.62463209    -7.567428    81.598536  0.016831381  0.016437352           16 
  405000   0.63288252   -7.5787288    81.540153  0.016777809  0.016385962           15 
  406000   0.62304443   -7.5772465    81.559533  0.016740462  0.016334671            8 
  407000     0.614692   -7.5854357    81.637944  0.016715386  0.016283623           13 
  408000   0.60390079   -7.5879281    81.545361  0.016655507  0.016232806           11 
  409000   0.61324688   -7.6015655    81.749159  0.016656308  0.016181996            7 
  410000   0.61665823   -7.6009548    81.663437   0.01659826  0.016131232           11 
  411000     0.592038   -7.6088483    81.545312  0.016533924  0.016080803           14 
  412000   0.60714912   -7.5970256    81.725114  0.016530161  0.016030594           24 
  413000   0.60361256   -7.6254758    81.754105  0.016495986  0.015980418           26 
  414000   0.60505019   -7.6347007     81.54004  0.016413052  0.015930324           21 
  415000   0.60052097   -7.6237687    81.463813  0.016358195   0.01588033           21 
  416000   0.60036067   -7.6188418    81.488709   0.01632386  0.015830394           14 
  417000   0.59707149   -7.6502363    81.634208  0.016313791  0.015780584           17 
  418000   0.60937126   -7.5992024    81.629846  0.016273893  0.015731043           14 
  419000   0.58191242   -7.6246814    81.466792  0.016202624   0.01568174           11 
  420000   0.58688656    -7.624744    81.591768  0.016188843  0.015632634           18 
  421000   0.58007505   -7.6223402    81.761617   0.01618401   0.01558373           21 
  422000    0.5996162   -7.6162662    81.651689  0.016123951   0.01553515           14 
  423000   0.60536967   -7.6228238    81.599897   0.01607563  0.015486526           15 
  424000    0.5902797   -7.6469935    81.689108  0.016055249  0.015438109           14 
  425000   0.58633471   -7.6478623    81.609609  0.016001884  0.015389816           11 
  426000   0.57706538    -7.664404      81.6963  0.015981279  0.015341831           10 
  427000   0.57652124   -7.6428552    81.704067  0.015945368  0.015293972           12 
  428000    0.5848741   -7.6319277    81.652164  0.015898007  0.015246323           15 
  429000   0.57516432   -7.6438875    81.751574  0.015880259  0.015198731           42 
  430000   0.58209793   -7.6556954     81.61484  0.015816829  0.015151353           24 
  431000   0.57487791   -7.6581831    81.683752  0.015793456  0.015103956           59 
  432000    0.5730638   -7.6687529    81.546932  0.015730504   0.01505667           31 
  433000   0.57697128   -7.6664467    81.628085  0.015709793  0.015009506           20 
  434000   0.56913313   -7.6770494    81.674031  0.015682418  0.014962687           48 
  435000   0.57764417   -7.6733036    81.572078  0.015626835  0.014915985           19 
  436000   0.58143336   -7.6830319    81.626079  0.015601315  0.014869481           33 
  437000   0.56464726   -7.6798379    81.565371  0.015554037   0.01482309           31 
  438000    0.5710876   -7.6680285    81.512017  0.015508375   0.01477689           23 
  439000   0.55969215   -7.6708851    81.552723  0.015480775  0.014730822           40 
  440000   0.57534472   -7.6728446    81.482265  0.015432247  0.014684881           24 
  441000   0.56289756   -7.7040272    81.701379  0.015438658  0.014639179           37 
  442000   0.56033193   -7.6854752    81.723019  0.015407809   0.01459363           35 
  443000   0.56496737   -7.6769402     81.68234  0.015365376   0.01454822           30 
  444000   0.55911055   -7.7008628    81.556908  0.015307227  0.014502974           32 
  445000    0.5600679   -7.7227817    81.615764  0.015283851  0.014457766           28 
  446000   0.55411416   -7.7138964    81.475089  0.015223298  0.014412711           37 
  447000   0.54992064   -7.6917776    81.640477  0.015220074  0.014367662           31 
  448000    0.5602611   -7.6948019    81.510508  0.015161925  0.014322743           28 
  449000   0.54724223   -7.7038334    81.471079  0.015120839  0.014278034           26 
  450000   0.55906641   -7.7248163    81.497158  0.015092066  0.014233438           24 
  451000   0.54398651   -7.7264199    81.471445  0.015053852  0.014189055           40 
  452000   0.55383879   -7.7210003    81.539592  0.015033111  0.014144781           37 
  453000   0.55075789   -7.7186706    81.587933  0.015008818  0.014100841           27 
  454000   0.54526776   -7.7399169    81.526841  0.014964545  0.014056919           26 
  455000   0.53680835   -7.7282352    81.505335  0.014927717   0.01401315           27 
  456000   0.53116925   -7.7330168    81.621648  0.014916237  0.013969681           28 
  457000   0.54645219   -7.7392243    81.491214  0.014859813  0.013926298           21 
  458000   0.52953575   -7.7373389    81.513928  0.014831501  0.013883029           34 
  459000   0.51579439   -7.7472423    81.521208   0.01480051  0.013839849           25 
  460000   0.53027775   -7.7571205    81.375765  0.014741986  0.013796779           33 
  461000   0.52710119   -7.7515088    81.378122  0.014710434  0.013753824           31 
  462000   0.53405155   -7.7630261    81.451061   0.01469175  0.013710893           36 
  463000   0.52477005   -7.7522331    81.460865  0.014661783   0.01366817           42 
  464000     0.517616    -7.784362    81.437454   0.01462598  0.013625537           34 
  465000   0.51431053   -7.7784097    81.263882   0.01456342  0.013583096           23 
  466000   0.52879091   -7.7749267    81.315898   0.01454147  0.013540789           27 
  467000   0.52606891    -7.771542     81.41695  0.014528364  0.013498697           25 
  468000   0.51408603   -7.7559277    81.408383  0.014495795  0.013456729           49 
  469000   0.51063465   -7.7948051     81.59004  0.014497164  0.013415024           31 
  470000   0.52032056   -7.7668371    81.325505  0.014419416  0.013373487           33 
  471000   0.50717642   -7.7746012    81.348382  0.014392849  0.013332066           36 
  472000   0.51260804   -7.7858621    81.438423  0.014378253  0.013290818           21 
  473000   0.51230799   -7.7860672    81.394324  0.014340085  0.013249693           22 
  474000   0.50510114   -7.7861432    81.399407  0.014310726  0.013208749           25 
  475000    0.5103899   -7.7896508    81.466629  0.014292391  0.013167946           36 
  476000   0.50433837   -7.7893887     81.32901  0.014238272  0.013127327           38 
  477000   0.52078077   -7.8044263     81.48208  0.014235164  0.013086816           28 
  478000   0.49859487    -7.821643    81.237458  0.014162737  0.013046471           43 
  479000   0.49553276   -7.8087563    81.514228   0.01418132  0.013006183           37 
  480000   0.50582653   -7.8163991    81.341949  0.014121866  0.012966063           48 
  481000   0.50518103   -7.8011627    81.357774  0.014095248  0.012926057           45 
  482000   0.49276285   -7.8251265    81.279831   0.01405253  0.012886176           31 
  483000   0.49648689     -7.79716    81.153191  0.014001586  0.012846375           39 
  484000   0.49689518   -7.8237802    81.327544  0.014002676  0.012806682           31 
  485000   0.48464582   -7.7955624    81.377798  0.013982439  0.012767167           27 
  486000   0.49800583   -7.8245602    81.232578  0.013928768  0.012727838           28 
  487000   0.48821989   -7.8061598    81.227614  0.013899318  0.012688638           43 
  488000   0.49012759   -7.8119877    81.220633  0.013869644  0.012649562           30 
  489000   0.49776506   -7.8092861    81.320434  0.013858288   0.01261063           45 
  490000   0.48922096   -7.8217501    81.143849  0.013799974  0.012571846           24 
  491000   0.48896657   -7.8165864    81.162613  0.013775053   0.01253317           40 
  492000   0.48017951   -7.8392011    81.204205    0.0137541  0.012494615           45 
  493000   0.47657133   -7.8322748    81.298092  0.013742071  0.012456258           45 
  494000   0.47093862   -7.8340241    81.307873  0.013715903  0.012418104           40 
  495000   0.47756688   -7.8217089    81.147497  0.013661195  0.012380055           22 
  496000   0.47408598   -7.8288181    81.247979  0.013650534  0.012342142           50 
  497000   0.48385168   -7.8383663    81.276776  0.013627897  0.012304406           31 
  498000   0.47257841   -7.8491143    81.164852  0.013581802  0.012266759           32 
  499000   0.47065292   -7.8482746    81.255689  0.013569754  0.012229263           34 
  500000   0.47371018   -7.8467905    81.098556  0.013516426  0.012191907           50 
  501000   0.47001556   -7.8351181    81.256026   0.01351564  0.012154724           42 
  502000   0.46163009   -7.8577311    81.099156  0.013462675  0.012117619           43 
  503000   0.46196729   -7.8634502      81.0653  0.013430302  0.012080552           51 
  504000    0.4667303    -7.865245    81.155828  0.013418622  0.012043689           53 
  505000    0.4652262   -7.8533046    81.065345   0.01337712  0.012006961           40 
  506000   0.45944237   -7.8519546    81.045959   0.01334749  0.011970365           34 
  507000   0.46476671   -7.8509364     81.04749  0.013321415  0.011933892           38 
  508000   0.46307179   -7.8782025    81.085509  0.013301429  0.011897573           35 
  509000   0.44600061   -7.8762344    81.075331   0.01327363  0.011861442           41 
  510000    0.4544794   -7.8799385    81.030842  0.013240334  0.011825422           34 
  511000   0.46085754   -7.8808173    81.244857  0.013249324  0.011789569           49 
  512000   0.45922691   -7.8741896    81.010201  0.013185254  0.011753835           70 
Loop time of 1099.51 on 48 procs for 500000 steps with 4000 atoms

Performance: 78580.401 tau/day, 454.748 timesteps/s
99.4% CPU use with 48 MPI tasks x no OpenMP threads

MPI task timing breakdown:
Section |  min time  |  avg time  |  max time  |%varavg| %total
---------------------------------------------------------------
Pair    | 68.807     | 71.65      | 75.018     |  19.0 |  6.52
Neigh   | 6.9507     | 7.1195     | 7.2928     |   3.2 |  0.65
Comm    | 62.185     | 66.853     | 70.798     |  27.5 |  6.08
Output  | 0.80152    | 0.8021     | 0.81342    |   0.2 |  0.07
Modify  | 937.34     | 941.16     | 944.86     |   6.1 | 85.60
Other   |            | 11.92      |            |       |  1.08

Nlocal:        83.3333 ave          89 max          77 min
Histogram: 4 2 4 3 7 8 8 6 2 4
Nghost:        1851.44 ave        1880 max        1825 min
Histogram: 3 4 4 5 10 5 10 4 2 1
Neighs:        11440.1 ave       12721 max       10001 min
Histogram: 2 2 5 5 5 9 9 6 3 2
FullNghs:      22879.9 ave       24724 max       20703 min
Histogram: 1 4 1 8 6 7 7 8 3 3

Total # of neighbors = 1098233
Ave neighs/atom = 274.55825
Neighbor list builds = 26891
Dangerous builds = 0

#clear
#
#next RN
#
#jump SELF
Total wall time: 0:18:22
