
units lj                  # Use reduced LJ style units
atom_style atomic         # Uncharged point particles
atom_modify map hash      # Needed for indexing of clusters etc
                          # Used to be able to find where atoms are in relation to each other.

lattice fcc 1.0 spacing 1 1 1
Lattice spacing in x,y,z = 1.5874011 1.5874011 1.5874011
region box block 0 10 0 10 0 10 units lattice
create_box 2 box
Created orthogonal box = (0.0000000 0.0000000 0.0000000) to (15.874011 15.874011 15.874011)
  3 by 4 by 4 MPI processor grid
create_atoms 1 box
Created 4000 atoms
  using lattice units in orthogonal box = (0.0000000 0.0000000 0.0000000) to (15.874011 15.874011 15.874011)
  create_atoms CPU = 0.003 seconds
set type 1 type/fraction 2 0.69 78393
Setting atom values ...
  2781 settings made for type/fraction
mass 1 1.0
mass 2 1.0
pair_style lj/cut  3.5
pair_modify tail  yes
pair_coeff 1  1  1.0  1.0   # Intearaction between 1 and 1 set with epsilon = 1 and sigma = 1
pair_coeff 1  2  1.5  0.8
pair_coeff 2  2  0.5  0.88

write_data data.0
System init for write_data ...
Neighbor list info ...
  update every 1 steps, delay 10 steps, check yes
  max neighbors/atom: 2000, page size: 100000
  master list distance cutoff = 3.8
  ghost atom cutoff = 3.8
  binsize = 1.9, bins = 9 9 9
  1 neighbor lists, perpetual/occasional/extra = 1 0 0
  (1) pair lj/cut, perpetual
      attributes: half, newton on
      pair build: half/bin/atomonly/newton
      stencil: half/bin/3d
      bin: standard
WARNING: Not all mixed pair coeffs generated from mixing. Use write_data with 'pair ij' option to store all pair coeffs. (../write_data.cpp:312)


#############################
#   M E L T   S Y S T E M   #
#############################

velocity all create 2.4 5833274 mom yes dist gaussian # Assign velocities
                                                    # Temperature 2.4, random number seed, zero linear momentum
                                                                                # Gaussian distribution

timestep 0.002   # simulation timestep
thermo 1000       # output thermodynamic data every 1000 steps bf 100

# Define a fix  in this case with index 1 applied to all
# particles in the simulation. This fix is for simulations
# in the anisotropic NPT ensemble. Note that we use the MTK
# correction.
fix 1 all npt temp 2.4 2.4 0.1 iso 5.68 5.68 0.5 mtk yes tchain 5 pchain 5 # Use NPT ensemble
                                                                         # Set temperature and pressure and damping
                                                                         # Numbers of thermostats in chain and in barostat
run 10000          # run for 10000 steps
Per MPI rank memory allocation (min/avg/max) = 3.642 | 3.644 | 3.648 Mbytes
Step Temp E_pair E_mol TotEng Press Volume 
       0          2.4    -4.227286            0  -0.62818599   -3.7882121         4000 
    1000    2.3825215     -3.90586            0  -0.33297123    5.8710516     3612.449 
    2000    2.4174351   -3.8992962            0  -0.27405001    5.4204175    3660.9083 
    3000     2.372609    -3.874445            0   -0.3164212    5.3473175    3670.9798 
    4000     2.403224   -3.8132868            0  -0.20935198     5.446694     3699.844 
    5000    2.3788455   -3.8820423            0   -0.3146661    5.5413261    3652.0729 
    6000    2.4113444   -3.8549947            0  -0.23888234    5.9373911    3636.3799 
    7000    2.3938949   -3.8792788            0  -0.28933417     5.421483    3666.3707 
    8000    2.3844635   -3.8952545            0  -0.31945337    5.4523436    3655.8982 
    9000    2.3526352   -3.8385708            0   -0.3105003    5.7909579    3658.2512 
   10000    2.4206396   -3.8678743            0  -0.23782257    5.4937416    3679.7423 
Loop time of 2.65911 on 48 procs for 10000 steps with 4000 atoms

Performance: 649842.327 tau/day, 3760.662 timesteps/s
99.6% CPU use with 48 MPI tasks x no OpenMP threads

MPI task timing breakdown:
Section |  min time  |  avg time  |  max time  |%varavg| %total
---------------------------------------------------------------
Pair    | 1.1956     | 1.2597     | 1.3684     |   2.7 | 47.37
Neigh   | 0.21557    | 0.22307    | 0.2415     |   0.9 |  8.39
Comm    | 0.7869     | 0.9013     | 0.96966    |   3.4 | 33.89
Output  | 0.0002452  | 0.00025051 | 0.00031272 |   0.0 |  0.01
Modify  | 0.2257     | 0.25943    | 0.32378    |   5.0 |  9.76
Other   |            | 0.0154     |            |       |  0.58

Nlocal:        83.3333 ave          93 max          76 min
Histogram: 6 8 7 3 2 7 0 9 5 1
Nghost:        1739.25 ave        1772 max        1689 min
Histogram: 1 0 0 3 10 11 8 9 3 3
Neighs:        10375.9 ave       11904 max        8998 min
Histogram: 3 7 5 6 6 5 4 4 6 2

Total # of neighbors = 498042
Ave neighs/atom = 124.51050
Neighbor list builds = 909
Dangerous builds = 201

# Equilibrate just above the melting temperature to avoid step fn in T

fix 1 all npt temp 1.25 1.25 0.1 iso 5.68 5.68 0.5 mtk yes tchain 5 pchain 5
run 2000
Per MPI rank memory allocation (min/avg/max) = 3.644 | 3.646 | 3.649 Mbytes
Step Temp E_pair E_mol TotEng Press Volume 
   10000    2.4206396   -3.8678743            0  -0.23782257    5.4937416    3679.7423 
   11000    1.2639097   -5.7153788            0   -3.8199882    5.7409065    2776.9796 
   12000    1.2137785   -5.7222706            0   -3.9020581     5.521046    2780.0489 
Loop time of 0.650153 on 48 procs for 2000 steps with 4000 atoms

Performance: 531567.310 tau/day, 3076.200 timesteps/s
99.7% CPU use with 48 MPI tasks x no OpenMP threads

MPI task timing breakdown:
Section |  min time  |  avg time  |  max time  |%varavg| %total
---------------------------------------------------------------
Pair    | 0.27853    | 0.32076    | 0.34696    |   2.3 | 49.34
Neigh   | 0.040087   | 0.043884   | 0.047224   |   0.7 |  6.75
Comm    | 0.20941    | 0.23709    | 0.28592    |   3.1 | 36.47
Output  | 5.0391e-05 | 5.1799e-05 | 6.7194e-05 |   0.0 |  0.01
Modify  | 0.040547   | 0.043586   | 0.047127   |   1.0 |  6.70
Other   |            | 0.004774   |            |       |  0.73

Nlocal:        83.3333 ave          92 max          78 min
Histogram: 5 5 10 5 6 10 2 2 1 2
Nghost:        2105.56 ave        2127 max        2083 min
Histogram: 2 1 5 2 11 11 9 4 1 2
Neighs:        13725.9 ave       15481 max       12383 min
Histogram: 6 7 2 6 5 7 7 5 2 1

Total # of neighbors = 658841
Ave neighs/atom = 164.71025
Neighbor list builds = 145
Dangerous builds = 20

#############################
# L I N E A R  Q U E N C H  #
#############################

# Define solid atoms. This closely follows ten Wolde  Ruiz-Montero and Frenkel  Faraday Discuss  1996  104  93-110
# Compute components of the per-atom q6 vector
compute q6 all orientorder/atom degrees 1 6 components 6 nnn NULL cutoff 1.3 # compute the Q6 parameter.
                                                                             # Use all neighbours within 1.3 unit cell.

# get number of connections
compute coord_number all coord/atom orientorder q6 0.5

# An atom is solid if it has 8 or more connections (of a possible 14)
variable is_solid atom c_coord_number>=8
group solid dynamic all var is_solid    # Must be dynamic to update
dynamic group solid defined

# do clustering
compute cluster solid cluster/atom 1.3 # Create a cluster where all atoms within are solid and max 1.3 units from another member

# define chunks one chunk per cluster
compute clus_chunks solid chunk/atom c_cluster nchunk every compress yes  # Says which atoms are in which chunk

# count the size of each chunk
compute size_chunks solid property/chunk clus_chunks count


# Find the maximum entry in the vector of chunk sizes
variable max_n equal max(c_size_chunks)


# Thermo style which includes this variable
# thermo_style custom step temp pe vol v_max_n

thermo ${N}  # Print the thermo information every 100 steps
thermo 1000  

# Reset the npt fix at a lower temperature (below freezing)
fix 1  all npt temp  ${temp} ${temp}  0.1  iso  5.68  5.68  0.5  mtk yes tchain  5  pchain  5
fix 1  all npt temp  0.45 ${temp}  0.1  iso  5.68  5.68  0.5  mtk yes tchain  5  pchain  5
fix 1  all npt temp  0.45 0.45  0.1  iso  5.68  5.68  0.5  mtk yes tchain  5  pchain  5

dump dmp2 all dcd ${N} traj.dcd
dump dmp2 all dcd 1000 traj.dcd


compute msd all msd com yes
variable twopoint equal c_msd[4]/6/(step*dt+1.0e-6)
fix 9 all vector 10 c_msd[4]
variable fit equal slope(f_9)/6/(10*dt)
thermo_style custom step temp pe c_msd[4] v_twopoint v_fit v_max_n

fix 1 all npt temp 1.25 ${temp} 0.1 iso 5.68 5.68 0.5 mtk yes tchain 5 pchain 5
fix 1 all npt temp 1.25 0.45 0.1 iso 5.68 5.68 0.5 mtk yes tchain 5 pchain 5
run 500000 # 5000000  # Run for this many steps
Neighbor list info ...
  update every 1 steps, delay 10 steps, check yes
  max neighbors/atom: 2000, page size: 100000
  master list distance cutoff = 3.8
  ghost atom cutoff = 3.8
  binsize = 1.9, bins = 8 8 8
  4 neighbor lists, perpetual/occasional/extra = 1 3 0
  (1) pair lj/cut, perpetual
      attributes: half, newton on
      pair build: half/bin/atomonly/newton
      stencil: half/bin/3d
      bin: standard
  (2) compute orientorder/atom, occasional
      attributes: full, newton on
      pair build: full/bin/atomonly
      stencil: full/bin/3d
      bin: standard
  (3) compute coord/atom, occasional
      attributes: full, newton on
      pair build: full/bin/atomonly
      stencil: full/bin/3d
      bin: standard
  (4) compute cluster/atom, occasional
      attributes: full, newton on
      pair build: full/bin/atomonly
      stencil: full/bin/3d
      bin: standard
Per MPI rank memory allocation (min/avg/max) = 9.845 | 9.850 | 9.853 Mbytes
Step Temp PotEng c_msd[4] v_twopoint v_fit v_max_n 
   12000    1.2137785   -5.7222706 1.9721523e-34 1.3695501e-36 8.3333333e+20            3 
   13000    1.2282107   -5.6955725   0.63484675 0.0040695303  0.052363918            1 
   14000    1.2468369   -5.7058395    1.2641881 0.0075249286   0.05276186            2 
   15000    1.2456768   -5.7672879    1.8195591  0.010108661  0.051852353            8 
   16000     1.232954   -5.7448542    2.3333738  0.012152988  0.049413401            5 
   17000      1.25628    -5.752508    2.8824869  0.014129837  0.047568831            2 
   18000    1.2713341   -5.7474057      3.41821  0.015825046   0.04680978            1 
   19000    1.2142229   -5.7929247    3.9276315  0.017226453  0.046340133            2 
   20000    1.2353746   -5.7541839     4.498572   0.01874405  0.045944389            1 
   21000    1.2606503   -5.7883436    5.0872629  0.020187551  0.045927867            3 
   22000    1.2067451   -5.7901648    5.6930598   0.02156462   0.04620327            2 
   23000    1.2586117   -5.7976107    6.3355608   0.02295493  0.046547992            3 
   24000    1.2264885    -5.804808    6.8239535  0.023694283  0.046802958            2 
   25000    1.2129075   -5.7897572    7.4787746  0.024929248  0.047002259            3 
   26000    1.2179513   -5.7409517     8.005413  0.025658374  0.047100509            2 
   27000    1.2339838   -5.7538789    8.4687881  0.026138234  0.046982963            2 
   28000    1.2274585   -5.7697253    8.9403335  0.026608135  0.046789858            2 
   29000    1.2186701   -5.8462813    9.4159614   0.02705736  0.046509214            2 
   30000    1.2062183   -5.8209871    10.001658  0.027782384  0.046309074            4 
   31000    1.2290848   -5.8010878    10.513297  0.028261551  0.046152199            2 
   32000    1.2260003    -5.851286    10.996667  0.028637153  0.045982406            2 
   33000    1.2067618   -5.7842802    11.487688  0.029009313  0.045751036            5 
   34000     1.214543   -5.8182019    12.159704  0.029803196  0.045645485            2 
   35000    1.1999907   -5.8617185    12.647999  0.030114282   0.04557032            1 
   36000    1.2174498   -5.7920957     13.22949  0.030623818  0.045495927            2 
   37000    1.2364858   -5.8694878    13.753949  0.030977362  0.045444415            5 
   38000    1.2217059    -5.815367    14.452946  0.031695057  0.045447824            3 
   39000    1.1932504   -5.8069052      15.0261   0.03210705  0.045509801            2 
   40000    1.2108773   -5.8274127    15.476644  0.032243009  0.045543933            3 
   41000    1.2287975   -5.8264531    15.955282  0.032429436   0.04551376            2 
   42000    1.2002752   -5.8777321    16.413589  0.032566645  0.045464133            3 
   43000    1.2002591     -5.82195    17.098543  0.033136711  0.045414285            4 
   44000    1.1746636   -5.8397965    17.619394  0.033370064   0.04538171            2 
   45000     1.191616   -5.8790495    18.089178  0.033498478   0.04537432            2 
   46000    1.2031379   -5.8665778    18.547303  0.033600186  0.045324699            2 
   47000    1.1982536   -5.8539559    19.113685  0.033889512  0.045275052            4 
   48000    1.1966869   -5.8938173    19.611782  0.034048232    0.0452217            1 
   49000    1.1893315   -5.8908763    19.988693  0.033994375  0.045153605            2 
   50000    1.2011036   -5.8568649    20.529386  0.034215644  0.045059245            2 
   51000    1.1697441   -5.8566048    21.064002  0.034418304  0.044957069            2 
   52000    1.1583089   -5.8946107    21.447381  0.034370803  0.044843285            3 
   53000    1.1688817   -5.8947703    21.900176  0.034434239  0.044717611            2 
   54000    1.1700038   -5.8954833    22.479286  0.034690255  0.044606732            2 
   55000    1.1644019    -5.890408    22.845077  0.034613753  0.044507716            4 
   56000    1.1777431   -5.8707514     23.20596  0.034532678  0.044380707            2 
   57000    1.1811777   -5.9137044    23.651964  0.034578895  0.044217388            3 
   58000    1.1719395    -5.952117     24.02667  0.034521077  0.044065847            2 
   59000     1.204545   -5.9560566    24.409969  0.034477356  0.043906573            3 
   60000    1.1790665   -5.8997269    25.084265  0.034839256  0.043762794            2 
   61000    1.1737434   -5.9254272      25.6214  0.035001912  0.043650148            3 
   62000    1.1360544   -5.9302226    26.152817  0.035151635  0.043539436            6 
   63000    1.1560334   -5.9085628    26.765975  0.035404729  0.043450608            2 
   64000    1.1788702   -5.9302685    27.033143  0.035199404  0.043364481            2 
   65000    1.1821787   -5.9242858    27.659022  0.035460285  0.043277302            3 
   66000    1.1564062   -5.9436159    28.178691  0.035579155  0.043195181            3 
   67000    1.1605866   -5.9625354    28.647673  0.035631433  0.043127172            2 
   68000    1.1616734   -5.9377856    29.297264   0.03590351  0.043071786            3 
   69000     1.153282   -5.9419208    29.820263   0.03601481  0.043022687            2 
   70000    1.1391689     -5.98168    30.344804  0.036124767  0.042978489            5 
   71000    1.1547565    -5.940314    30.629906  0.035950593  0.042934051            2 
   72000    1.1540207   -5.9539938     31.19434  0.036104559  0.042889303            3 
   73000    1.1350573   -5.9704189    31.629468  0.036106699  0.042838513            3 
   74000     1.132976   -5.9873987    31.812787   0.03582521  0.042771363            3 
   75000    1.1373281   -5.9739476     32.25069    0.0358341  0.042686133            4 
   76000    1.1226031   -5.9603601    32.761698  0.035922915  0.042604593            1 
   77000    1.1544904   -5.9750399    33.388178  0.036134392  0.042528245            4 
   78000    1.1489072   -5.9675089    33.864407  0.036179921   0.04246798            2 
   79000    1.1249022   -5.9939282    34.231655  0.036109341  0.042409396            3 
   80000    1.1164551   -5.9829515    34.800642  0.036250669  0.042344941            3 
   81000    1.1207445   -5.9873981    35.399921  0.036419672  0.042290003            2 
   82000    1.1425088   -5.9836445    35.632843  0.036212239  0.042228953            2 
   83000    1.1065165   -6.0062236    35.938062  0.036082391  0.042162032            2 
   84000    1.1336682   -6.0159504    36.514767  0.036224967  0.042096809            2 
   85000     1.130096   -6.0328817    37.068717  0.036341879  0.042039784            5 
   86000    1.1329361    -5.992562    37.454182  0.036292811  0.041972179            5 
   87000    1.1282815   -5.9861476    37.607264  0.036022283  0.041893763            2 
   88000    1.1200752   -6.0578288    38.111465  0.036090402  0.041809921            7 
   89000    1.1486855   -6.0184246    38.692528  0.036228958  0.041728869            4 
   90000    1.0956621    -5.990249    39.094067   0.03619821  0.041656818            1 
   91000     1.133856   -6.0407088    39.231192     0.035926  0.041567761            2 
   92000     1.109297   -6.0247917    39.489348  0.035769337  0.041469948            4 
   93000    1.1195456   -6.0375869    39.952423  0.035799662  0.041367205            2 
   94000    1.1188543   -6.0556544    40.232994  0.035667547  0.041263226            5 
   95000    1.1217496   -6.0662369    40.789168  0.035779972   0.04115765            5 
   96000    1.1199699   -6.0436038    41.284834  0.035837529  0.041058554            2 
   97000    1.1154429   -6.0774877    41.581791  0.035723188  0.040962537            4 
   98000    1.1014977   -6.0770341    42.104893   0.03580348  0.040870942            3 
   99000    1.0964729   -6.0347158    42.373101  0.035667593  0.040781258            3 
  100000    1.1019132   -6.0275266     42.78092  0.035650767  0.040685165            3 
  101000    1.1194417   -6.0987645    43.112082  0.035571025   0.04058769            1 
  102000    1.1040818   -6.0652211    43.681681  0.035687648  0.040496117            2 
  103000    1.1117537   -6.0767601    44.108238  0.035686277  0.040405205            4 
  104000    1.1168262   -6.0734301    44.528001  0.035679488  0.040315505            5 
  105000      1.10659   -6.0788593    45.046587   0.03575126  0.040236503            3 
  106000    1.0701819   -6.1176769    45.261064  0.035582597  0.040151637            4 
  107000    1.1010713   -6.0640088    45.705638  0.035596291  0.040069828            2 
  108000    1.0704964    -6.085817    46.177136  0.035630506   0.03998457            3 
  109000    1.0985863   -6.0830575    46.578484  0.035610462  0.039905718            2 
  110000    1.1117772   -6.1320746    46.810117   0.03546221  0.039821786            3 
  111000    1.0850579   -6.1194197    47.060262  0.035330527  0.039735999            9 
  112000    1.0963134   -6.1556753    47.519171  0.035356526  0.039651694            3 
  113000    1.0850756     -6.08765    48.183969    0.0355339  0.039569878            3 
  114000    1.0914974   -6.1175086    48.496978  0.035451007  0.039496143            4 
  115000    1.0907063   -6.1573787    48.769013  0.035339864  0.039420388            2 
  116000    1.0670337   -6.1281856    49.387732  0.035479692  0.039346354            2 
  117000    1.0704168   -6.1486679    49.491933  0.035250664  0.039272063            3 
  118000    1.0639727   -6.1562125     50.04819  0.035344767  0.039197536            5 
  119000    1.0709016   -6.1505843    50.479029   0.03534946  0.039126149            2 
  120000    1.0760245   -6.1061167     50.98025  0.035402951  0.039057792            3 
  121000    1.0615639   -6.1355005    51.470869  0.035448256  0.038990004            2 
  122000    1.0900522   -6.1048823    51.831057  0.035403727  0.038922316            4 
  123000    1.0853782   -6.1407908    52.160662  0.035339202  0.038853564            3 
  124000    1.0619706   -6.1104302    52.541577  0.035310199  0.038785245            3 
  125000    1.0771873   -6.1536368    52.921332  0.035280888  0.038716638            2 
  126000    1.0502706   -6.1839472    53.144682  0.035148599  0.038647678            8 
  127000     1.067439   -6.1863559    53.381716  0.035027373  0.038573946            5 
  128000    1.0559862   -6.1680742    54.074138  0.035204517  0.038503365            4 
  129000    1.0841954   -6.1658664    54.395392  0.035139142  0.038430883            5 
  130000    1.0556105   -6.1611186    54.535165  0.034958439  0.038361541            2 
  131000    1.0574458   -6.1651018    54.930995  0.034943381  0.038287782            4 
  132000    1.0464907   -6.1920739    55.251248  0.034880838  0.038215678            4 
  133000    1.0577015   -6.1706944    55.841906  0.034988663  0.038146671            3 
  134000    1.0564551   -6.1899633     55.98637  0.034817394  0.038081234            3 
  135000    1.0564688   -6.1976962    56.400642  0.034815211  0.038010086            4 
  136000    1.0411283   -6.2062643    56.519414  0.034631993  0.037933349            6 
  137000    1.0495787   -6.2128876    56.633587  0.034448654  0.037853177            2 
  138000    1.0541843   -6.2291219    56.773647  0.034283603  0.037766824            2 
  139000    1.0545145   -6.2038424     57.03033  0.034190845  0.037673691            4 
  140000    1.0402325   -6.2097836    57.242306  0.034072801  0.037579447            5 
  141000    1.0438049   -6.1954669    57.852189  0.034191601  0.037490782            4 
  142000    1.0680138   -6.2459402    58.216619  0.034164682  0.037404029            3 
  143000    1.0430374   -6.2626928    58.452865  0.034063441   0.03731645            4 
  144000    1.0416846   -6.2301596    58.716234  0.033979302  0.037230916            8 
  145000    1.0325077   -6.2396199     59.09401  0.033962075  0.037144978            4 
  146000    1.0460967   -6.2138441    59.590162  0.034012649  0.037063243            3 
  147000    1.0206937   -6.2291707    59.990384  0.034008154  0.036977907            5 
  148000    1.0539178   -6.2218259    59.900402  0.033727704  0.036892396            6 
  149000    1.0168698   -6.2482306    60.322339  0.033737326  0.036803016            3 
  150000    1.0403994   -6.2577187    60.521438  0.033623021  0.036708833            3 
  151000    1.0131893   -6.2740199    60.463967  0.033368635  0.036611501            4 
  152000    1.0231179   -6.2597534    60.742505  0.033301812  0.036517367            3 
  153000    1.0225002   -6.2708509    61.039406  0.033245864  0.036420671            2 
  154000    1.0206342   -6.2669366    61.597096  0.033331762  0.036324043            3 
  155000    1.0149304   -6.2752947    61.674181  0.033158162  0.036228161            3 
  156000     1.022351   -6.2287355     62.00927   0.03312461  0.036132444            4 
  157000    1.0091136   -6.3271589    62.006668  0.032912244   0.03603645            4 
  158000    1.0245038   -6.2650783    62.180784  0.032795772  0.035935745            3 
  159000    1.0061477   -6.2859285    62.369156  0.032688237  0.035833187            2 
  160000    1.0135743    -6.291115    62.803196  0.032709998  0.035730584            2 
  161000    1.0005455    -6.308359    62.975006  0.032595758  0.035628642            5 
  162000   0.99934606   -6.2877557    63.094061  0.032455793  0.035523126            5 
  163000    1.0131999   -6.3568032    62.875716  0.032145049  0.035415792            4 
  164000    1.0045738   -6.3032033    63.620887  0.032327686  0.035311268            2 
  165000    1.0055361    -6.319097    63.816294  0.032230452  0.035208606            3 
  166000    1.0022097   -6.3526908    64.018701  0.032137902  0.035103692            4 
  167000    1.0127466   -6.3152729     64.34934  0.032110449  0.035000986            3 
  168000    1.0011603   -6.3473195    64.679536  0.032083103  0.034900805            3 
  169000    1.0042607   -6.3679134    64.455258  0.031782671  0.034802443            3 
  170000    1.0071529   -6.3518619    65.131363  0.031927138  0.034703397            4 
  171000   0.98518428   -6.3075772    65.462534   0.03190182  0.034601708            4 
  172000   0.98220184   -6.3700926    65.489582  0.031729449  0.034500877            6 
  173000   0.97362729   -6.3391019    66.063825  0.031822652  0.034403134            4 
  174000   0.97195847   -6.3247962    66.165966  0.031688681  0.034305805            2 
  175000    1.0015497   -6.3636062    66.452011  0.031643815  0.034207609            4 
  176000   0.99519951   -6.3549656     66.48525  0.031479759  0.034109281            4 
  177000   0.98001418   -6.3890806    66.874795  0.031485308  0.034010863            6 
  178000    1.0099446   -6.3757318     66.86938  0.031305889  0.033914275            2 
  179000   0.98971728   -6.3897705    67.005074  0.031194169  0.033816233            4 
  180000   0.97230255   -6.3841288    67.259788  0.031138791  0.033717223            3 
  181000   0.97812351   -6.3876431    67.489251  0.031072399  0.033617642            4 
  182000   0.97017791   -6.3989799    67.745376  0.031018945  0.033517427            7 
  183000    0.9696848   -6.3630243    68.329427  0.031115404   0.03341889            3 
  184000   0.96089619   -6.4482789    68.382983  0.030970554  0.033322132            3 
  185000   0.99834237   -6.3802261    68.684328  0.030938886    0.0332252            4 
  186000   0.95814229   -6.4090129    68.805494  0.030826834  0.033130076            5 
  187000   0.97031811   -6.3979492    69.016577   0.03075605  0.033035266            5 
  188000   0.97881316   -6.4317446    69.322576  0.030728092   0.03294186            6 
  189000    0.9584936   -6.4099267    69.456015  0.030624345  0.032847982            5 
  190000   0.98206328   -6.4251628    69.811856  0.030619235  0.032755098            6 
  191000     0.972759   -6.4401679    69.829729  0.030466723  0.032661298            2 
  192000   0.96336945   -6.4608542    69.851546  0.030317511  0.032567509            2 
  193000   0.94846848   -6.3896268    70.328144  0.030366211  0.032474982            5 
  194000   0.95424965   -6.4392337    70.447315  0.030260874  0.032380659            7 
  195000   0.95721597   -6.4466555    70.627558  0.030182717  0.032287416            6 
  196000   0.94745439   -6.4475519     70.70707   0.03006253  0.032193085            3 
  197000   0.95668943   -6.4230863    71.194355  0.030116055  0.032100505            4 
  198000   0.97106419   -6.4445401    71.077948  0.029914961  0.032008237            4 
  199000   0.97477085   -6.4509966    71.239729  0.029832382  0.031914965            4 
  200000   0.95266739   -6.4802334    71.464769  0.029776987  0.031821107            5 
  201000   0.96264304   -6.4739358    71.826498  0.029778813   0.03172895            5 
  202000   0.94066084   -6.5064115    71.840605  0.029637213  0.031635828            4 
  203000   0.93568631   -6.4439035    71.879332  0.029507115  0.031542456            8 
  204000   0.96733787   -6.4702276    72.036421  0.029426642   0.03144782            3 
  205000   0.92251719   -6.4970875    71.995752  0.029266566  0.031351493            6 
  206000   0.93195506   -6.4517713    72.296776  0.029246269  0.031254351            7 
  207000   0.92936267    -6.496815    72.781327  0.029300051  0.031160442            3 
  208000   0.91579393   -6.5122563    72.874935  0.029196689  0.031068684            3 
  209000   0.91787238   -6.4482407    73.420747   0.02927462  0.030976328            4 
  210000   0.93009236   -6.5427799    73.039485  0.028983923  0.030884929            3 
  211000   0.93807787   -6.5534281    73.051065  0.028851131  0.030792959           12 
  212000   0.94534288   -6.4802655    73.967352  0.029075217  0.030701811            6 
  213000   0.92061673   -6.4877451     73.95496  0.028933865  0.030612606            5 
  214000   0.92848031   -6.5069185    73.827517  0.028749033  0.030522215            2 
  215000   0.91468303   -6.5099571    74.090428   0.02871722   0.03043232            8 
  216000   0.93510396   -6.5300527    74.372227  0.028692989  0.030341752            3 
  217000   0.90936473   -6.5125143    74.440895  0.028587133  0.030251063            3 
  218000   0.92141817   -6.5345864    74.709313  0.028558606  0.030161353            3 
  219000    0.8994305   -6.5741026    74.459895  0.028333293  0.030072551            6 
  220000   0.89586238   -6.5486293    74.756781  0.028316962  0.029983816            8 
  221000   0.89904221   -6.5108498    75.012277  0.028285172  0.029894571            5 
  222000   0.91617683   -6.5288894    75.249075   0.02824665  0.029806034            5 
  223000    0.8993729   -6.5761268    75.250645   0.02812057  0.029717445            7 
  224000   0.92115463   -6.5453995    75.308843  0.028016683  0.029627827            5 
  225000    0.8964273   -6.5486816    75.747544  0.028054646  0.029538805            6 
  226000   0.90694774   -6.5561394    75.551109  0.027858078  0.029450946            4 
  227000    0.8989007   -6.5474537    75.723358  0.027798589  0.029361653            4 
  228000   0.90871777   -6.5748047    75.966993  0.027765714  0.029271716            6 
  229000   0.91126122   -6.5881655    76.069572  0.027681795  0.029183017            8 
  230000   0.89320682   -6.5737909    76.230678  0.027619811  0.029092594            4 
  231000   0.89723254   -6.5734714    76.280076  0.027518065  0.029003314            9 
  232000   0.91096897   -6.5748372    76.615401    0.0275199  0.028916542           10 
  233000   0.89326869   -6.5774066    76.926473  0.027513045  0.028830878            6 
  234000   0.91167765   -6.5582104    77.305062  0.027530293  0.028746831            6 
  235000   0.86669217   -6.6186772    77.031552  0.027316153  0.028663258            9 
  236000   0.89547701   -6.5763102    77.411274  0.027334489   0.02857925            8 
  237000   0.87633117   -6.6293341    77.562723  0.027272406  0.028496151            5 
  238000   0.88768942   -6.6351203    77.600014  0.027170873  0.028412464           12 
  239000   0.86302148    -6.651612    77.686605  0.027087379  0.028329811            5 
  240000   0.87168785   -6.6606554    77.762489  0.027000864  0.028247249            4 
  241000   0.88355387   -6.6583082    78.107756  0.027008214    0.0281643            5 
  242000   0.87910274   -6.6301655    78.159524  0.026914436  0.028081591            6 
  243000   0.86847648   -6.6161759     78.46409  0.026908124  0.027997685            8 
  244000    0.8599646   -6.6321629    78.603459  0.026845443   0.02791503            9 
  245000   0.87625767   -6.6645353    78.657621  0.026754293  0.027833592           10 
  246000    0.8743085   -6.6246052     79.03957  0.026774922   0.02775331           18 
  247000   0.86340689   -6.6786232    79.076954  0.026679134  0.027673407            7 
  248000   0.86607204   -6.6934593    78.841498  0.026492439  0.027592882            7 
  249000    0.8975081   -6.6717272    79.292094  0.026536845  0.027511895            5 
  250000   0.87807472   -6.6584622    79.220917  0.026406972  0.027431735            4 
  251000   0.86875263   -6.6706612    79.420753  0.026368112  0.027352662            4 
  252000   0.85688505   -6.6446208    79.923334  0.026429674   0.02727466            6 
  253000   0.88642315   -6.6704359    79.862981   0.02630533  0.027196933            5 
  254000   0.85330422   -6.7271376    79.626536  0.026124192  0.027118188           10 
  255000   0.87426779   -6.7219686    79.850188  0.026094833  0.027038735            4 
  256000   0.85830399   -6.6940476    80.030792   0.02605169  0.026959616            4 
  257000   0.87683077   -6.6848061    80.179295  0.025998474  0.026881015            3 
  258000   0.83824101    -6.719167    80.275691  0.025928841  0.026801633            6 
  259000    0.8669818   -6.7189123    80.195074  0.025802791  0.026722272            4 
  260000    0.8539094   -6.7280756    80.352613  0.025754043  0.026643714            4 
  261000    0.8601014   -6.7123929    80.468222   0.02569228  0.026564339            8 
  262000   0.84904113   -6.7218261    80.700718  0.025668167  0.026484866            4 
  263000   0.84724333   -6.7320766    80.866749  0.025623178  0.026407186            8 
  264000   0.83201254    -6.749761    80.874697  0.025528629  0.026329452            8 
  265000    0.8387698   -6.7048415     81.15603  0.025520764  0.026252608            3 
  266000   0.84619701   -6.7377978    81.047843  0.025390928  0.026176355            8 
  267000   0.82206887   -6.7382048    81.422844  0.025412873   0.02609952           11 
  268000    0.8333103   -6.7798715    81.041084  0.025199342  0.026022262            7 
  269000   0.84436061   -6.7255017    81.397093  0.025215952   0.02594552           13 
  270000   0.84519209   -6.7591337    81.663051  0.025204645  0.025869251            6 
  271000   0.82876443   -6.7798589    81.382447  0.025025353  0.025793106            7 
  272000   0.84747472    -6.787515    81.686741  0.025026575  0.025716623            8 
  273000   0.83832618   -6.7909777     81.82742  0.024977845   0.02564049            6 
  274000   0.84029636   -6.7690958    81.807775   0.02488071  0.025565358           10 
  275000   0.82350969   -6.7894832    82.014277  0.024852811  0.025489644            7 
  276000   0.82161986   -6.7635361    82.001578   0.02475893   0.02541447           14 
  277000   0.81199629   -6.7947407     82.14674  0.024713219  0.025338608            7 
  278000   0.81947897   -6.8023758     82.09027  0.024607395  0.025263768            8 
  279000   0.81396398   -6.7952357    82.307819  0.024584175  0.025188869            9 
  280000    0.8102931   -6.8056772    82.636229  0.024594116  0.025114087           10 
  281000   0.82241349   -6.8046146    82.765326  0.024544877  0.025040036            6 
  282000   0.81247887   -6.8418045    82.602563  0.024409741   0.02496476            7 
  283000   0.81733224   -6.8534834    82.480948  0.024287676  0.024889408           15 
  284000   0.82135193   -6.8388372    82.547238  0.024221607   0.02481435           10 
  285000   0.81366018    -6.787111    82.753724  0.024196995  0.024740043            7 
  286000   0.81752628   -6.8288129    82.833704  0.024135695  0.024665971            6 
  287000   0.81071321   -6.8515109    82.891457  0.024068367  0.024591951           17 
  288000   0.80943674   -6.8361006    82.886009   0.02398322   0.02451809            6 
  289000   0.80724226   -6.8349725    82.993519  0.023931234  0.024444315           16 
  290000   0.81129033   -6.8772407    82.978526  0.023844404  0.024370847            8 
  291000    0.7985501   -6.8158999    83.343721  0.023867045   0.02429751            9 
  292000   0.81118958   -6.8484455    83.305481  0.023774395  0.024224929            5 
  293000   0.80511266   -6.8916961    83.349757  0.023705847  0.024151964            8 
  294000   0.78094577   -6.8405731    83.684685  0.023720149  0.024078643           13 
  295000   0.80838982   -6.8141558     83.57343  0.023608314  0.024006675           20 
  296000   0.79650654   -6.8482093    83.711107  0.023567316  0.023934637           13 
  297000    0.7916848   -6.8454063    83.906483  0.023542784  0.023862977           13 
  298000    0.7851334   -6.8562057    84.126382  0.023525275   0.02379283            8 
  299000   0.78824004   -6.8699194    84.187009  0.023463492   0.02372369           22 
  300000   0.80464712   -6.8539261    84.557345  0.023488151  0.023655652            4 
  301000   0.81371526   -6.8792249     84.48637  0.023390468  0.023587831            7 
  302000   0.78208295   -6.9068195    84.518705  0.023321938  0.023519858            6 
  303000   0.80022895   -6.8731625    84.759694  0.023311247  0.023451662           12 
  304000   0.77814214    -6.918337    84.569387  0.023182398  0.023383663           18 
  305000   0.77207587   -6.8840147    84.704293  0.023143249  0.023316417           14 
  306000    0.7862077   -6.9024579    84.941834  0.023132308  0.023249272           11 
  307000   0.78100896   -6.9193857    85.035297  0.023082328  0.023182882           11 
  308000   0.76878886   -6.9009301    85.153353  0.023039327   0.02311666            8 
  309000   0.77715576   -6.9234953    85.163792  0.022967582  0.023050076            6 
  310000   0.78027432   -6.9223087    85.254823  0.022917963  0.022984191           10 
  311000   0.75807809   -6.9822001    84.987544  0.022772654  0.022917361            7 
  312000   0.76893008   -6.9515525    85.264487  0.022773634  0.022851056           15 
  313000   0.77272208   -6.9488588    85.405518  0.022738423  0.022785016           16 
  314000    0.7631937   -6.9543901    85.421377  0.022670217  0.022719022           10 
  315000   0.76795326   -6.9606519    85.424519  0.022599079  0.022653187           13 
  316000   0.75930426   -6.9732414    85.245007  0.022480223  0.022587539           17 
  317000   0.76924112   -6.9857866    85.279614  0.022418405  0.022521293            9 
  318000   0.75430599   -6.9730011    85.618191  0.022436633  0.022455596           11 
  319000   0.75531693   -6.9421213    85.725866  0.022394427  0.022390151            8 
  320000    0.7582264   -6.9694888    85.807295   0.02234565  0.022324595            7 
  321000      0.75711   -6.9762668    85.679751  0.022242926  0.022258833           14 
  322000   0.73921387   -6.9859795    85.513981  0.022130947  0.022192965            9 
  323000   0.74319145   -6.9853225    85.558107  0.022073815  0.022126915           19 
  324000   0.74904467   -6.9841419    85.631035  0.022024443  0.022060037           10 
  325000   0.75688781   -6.9509434    85.749751  0.021987116  0.021994161           11 
  326000   0.75506321   -6.9905073    85.679817  0.021901794  0.021927962           28 
  327000   0.74381844   -6.9959353    85.762845  0.021855975   0.02186137           14 
  328000   0.74514487   -7.0372427    85.464289  0.021713488  0.021795152           22 
  329000   0.74657402   -7.0233689    85.487296  0.021653317  0.021728405           28 
  330000   0.72417448   -7.0218583    85.380616  0.021560761  0.021661831           19 
  331000   0.73255844   -7.0417062    85.430901  0.021508283   0.02159497            7 
  332000   0.71731259   -7.0098396    85.833614  0.021544582  0.021528764            5 
  333000   0.72425078   -7.0286682     85.75731  0.021460788  0.021462582            9 
  334000   0.74096052   -7.0159897    85.945344  0.021443449  0.021396385           19 
  335000   0.72926254   -7.0762545     85.48484  0.021264886  0.021330137           11 
  336000   0.72959535   -7.0577807    85.741955  0.021265366  0.021264062           10 
  337000   0.72912101   -7.1050832    85.633999  0.021175568  0.021198334           26 
  338000    0.7213976   -7.0820504    85.860518  0.021168767  0.021132309           22 
  339000   0.72546938    -7.074207    85.847706  0.021103173  0.021066858           14 
  340000   0.71688757   -7.0910763    85.775637   0.02102344  0.021001519           14 
  341000   0.72754537   -7.1095783    85.721616  0.020948586  0.020935954           14 
  342000   0.72187775   -7.0783438    85.713816  0.020885433  0.020870308           17 
  343000   0.71285837   -7.0754523    85.672546  0.020814515  0.020804701           24 
  344000   0.72685483   -7.1050238    85.898568  0.020808762  0.020739209           36 
  345000   0.72955749   -7.1127703    86.002271  0.020773495  0.020674276           34 
  346000   0.71775747   -7.0960089    86.036278  0.020721647  0.020609661           17 
  347000   0.72312016   -7.1086488    85.685444  0.020577676  0.020544706           16 
  348000   0.71429497   -7.1065126    86.006893   0.02059552  0.020479874           21 
  349000   0.71325813   -7.1270079    85.670051  0.020456077  0.020414982           37 
  350000   0.72474671   -7.1290791    85.960675  0.020466827  0.020350175           37 
  351000   0.69514456   -7.1451112    85.764686  0.020361986  0.020285811           50 
  352000   0.69670648   -7.1216008    86.076495  0.020377958  0.020221432           21 
  353000   0.70475413   -7.1483025    85.909475  0.020280802  0.020157662           24 
  354000   0.69352989   -7.1404286    86.151552  0.020280497  0.020093735           26 
  355000   0.70552932   -7.1272394    86.173633  0.020228552  0.020030379           30 
  356000   0.71133357   -7.1483267    86.097149  0.020153827  0.019966846           40 
  357000   0.69640211   -7.1480997    86.191428  0.020119381  0.019903539           56 
  358000    0.7032471   -7.1720956    86.118487  0.020046203  0.019840325           54 
  359000   0.69164279   -7.1802012    86.082875  0.019982097  0.019777087           65 
  360000   0.69694212   -7.1816865    85.956424   0.01989732  0.019713808           49 
  361000   0.69775063   -7.1781834    85.967496  0.019844759  0.019650796           59 
  362000    0.6813408   -7.1863416    86.064141  0.019812187  0.019587609           48 
  363000   0.69146108   -7.1993682    86.049308  0.019754203  0.019524633           37 
  364000   0.68736987   -7.2156177    86.028229  0.019695107  0.019461886           34 
  365000    0.6778256   -7.1784923    86.204157  0.019681314   0.01939945           31 
  366000   0.68815406   -7.2106066    86.184101  0.019622974  0.019337174           42 
  367000   0.66628914    -7.208322    86.179062  0.019568361  0.019274977           25 
  368000   0.68485537   -7.2010511    85.876947  0.019446772  0.019212596           54 
  369000   0.70123634   -7.2009894    86.240886  0.019476262  0.019150706           56 
  370000   0.66766101     -7.19361     85.95421  0.019359056  0.019088654           52 
  371000   0.69092856    -7.217416    85.959685  0.019308105  0.019026767           46 
  372000   0.66755616   -7.2239647    85.768159  0.019213297  0.018964969           38 
  373000   0.68149559   -7.2310952    85.964766  0.019205712  0.018903005           29 
  374000   0.67366446   -7.2070535    85.942127  0.019149315  0.018841365           53 
  375000   0.66046565   -7.2328933    85.869634  0.019082141  0.018779669           36 
  376000   0.65918153   -7.2533842    85.792323  0.019014256  0.018718213           51 
  377000   0.66274225   -7.2356524    85.935487  0.018995466  0.018656945           78 
  378000   0.67689061   -7.2290341    86.113532  0.018984465  0.018595967           66 
  379000   0.66642116   -7.2514273    85.987144  0.018906584  0.018535263           24 
  380000   0.67192351   -7.2583769    85.877896  0.018832872  0.018474694           62 
  381000   0.64733857   -7.2931498      85.7969  0.018765726  0.018414125           44 
  382000   0.66260176    -7.257738    86.031172  0.018767708  0.018353543           71 
  383000   0.65273388   -7.2735531    85.752463  0.018658064  0.018293366           94 
  384000   0.65511985   -7.2814843    85.847673  0.018630137  0.018233196           33 
  385000    0.6338968   -7.2637188     85.81553   0.01857479  0.018173142           63 
  386000   0.65894851   -7.3058612    85.855105  0.018535213   0.01811312           20 
  387000   0.65079989   -7.2988024    85.993101  0.018517033  0.018053437           45 
  388000   0.65193823   -7.2793109    85.779144  0.018423356  0.017993735           54 
  389000    0.6484649    -7.306429    85.850888  0.018391364  0.017934251           70 
  390000    0.6446966   -7.2790552      85.6489  0.018301047  0.017875013           53 
  391000   0.64172951   -7.3149071    85.830441  0.018292933  0.017815796           33 
  392000    0.6286263   -7.3147388    85.920654  0.018265445  0.017756914           79 
  393000   0.64360692   -7.3252194    85.880957  0.018210551  0.017698156           43 
  394000   0.63466349   -7.3486912    85.681234  0.018122088  0.017639457           35 
  395000    0.6350321   -7.3249673    85.768615  0.018094644  0.017580724           44 
  396000   0.64977485   -7.3285486    85.843801  0.018064773   0.01752241           67 
  397000   0.62393628   -7.3285104    85.773231  0.018004457  0.017464129           86 
  398000   0.62437781   -7.3332299     85.64531  0.017932435   0.01740584           70 
  399000   0.63238586   -7.3453439    85.703521  0.017899649  0.017347946           83 
  400000   0.60954555   -7.3594138    85.843097  0.017883978  0.017290363           66 
  401000   0.64310659   -7.3437922     85.61011  0.017790962  0.017232903           79 
  402000   0.62719018   -7.3380238    85.639921  0.017752886  0.017175623          159 
  403000    0.6194077   -7.3594919    85.756316  0.017732902  0.017118279          148 
  404000   0.62473654   -7.3735093    85.593352  0.017655394  0.017061284           82 
  405000   0.62398472   -7.3811612    85.741873  0.017642361  0.017004212          179 
  406000   0.62329911   -7.3808617    85.561504  0.017561885  0.016947329          138 
  407000   0.62325363   -7.4175759    85.487382  0.017503559  0.016890575          319 
  408000   0.63052705   -7.3960181    85.426196  0.017448161  0.016833764          171 
  409000   0.61781431   -7.3975359    85.358857   0.01739178  0.016776976          155 
  410000   0.62319394   -7.3957343    85.557169  0.017389668  0.016720488          216 
  411000   0.61710996   -7.4100637    85.368052  0.017309013   0.01666399           98 
  412000   0.61052206   -7.4076282    85.243437  0.017241796  0.016607823          225 
  413000   0.61208814   -7.4245911    85.273103  0.017206034  0.016551779          384 
  414000   0.60686616   -7.4078267    85.434226  0.017196905  0.016495688          405 
  415000   0.60157657   -7.4176759    85.184751  0.017105372  0.016439918          185 
  416000   0.59657511   -7.4208924    85.169364  0.017061171  0.016384313          147 
  417000   0.59952772   -7.4207269     85.21373  0.017029123  0.016328896          161 
  418000   0.60858167     -7.43843    85.385857  0.017022699  0.016273899          323 
  419000    0.5978106   -7.4367521    85.365782  0.016978079  0.016218797          367 
  420000    0.6021349   -7.4456363    85.291481  0.016922913  0.016163918          243 
  421000   0.59431369   -7.4468349    85.286656  0.016881761  0.016109251          246 
  422000   0.59887213   -7.4228507    85.192519  0.016823167  0.016054774          255 
  423000   0.59982258   -7.4575622    85.286904   0.01680199   0.01600041          346 
  424000   0.60528382    -7.442693    85.253119  0.016755723   0.01594635          128 
  425000   0.60608313   -7.4641449      85.0021  0.016667078  0.015892311          326 
  426000   0.58123511   -7.4519745    85.096071  0.016646336  0.015838503          385 
  427000   0.58740275   -7.4749119    84.939593  0.016576814  0.015784875          230 
  428000   0.57992968   -7.4857683    84.978023  0.016545565  0.015731363          283 
  429000   0.58252596   -7.4664034    85.080231  0.016526851  0.015677929          350 
  430000   0.57656922   -7.4791328    84.997754  0.016472433  0.015624868          173 
  431000   0.56561744   -7.4995462     85.10853  0.016455632  0.015571788          359 
  432000    0.5963742   -7.4773835     84.93259  0.016383602  0.015518901          388 
  433000   0.56457644   -7.4972608    85.053721  0.016369076  0.015466149           99 
  434000   0.56748524    -7.503923    84.928097  0.016307238  0.015413539          195 
  435000    0.5569636   -7.4954413    84.978298  0.016279367  0.015361107          331 
  436000   0.57544856   -7.4985777     85.00445  0.016247028  0.015308901          168 
  437000   0.57392767   -7.5024142    85.010441  0.016210992  0.015256949          491 
  438000    0.5659175   -7.5053458    84.993605  0.016170777  0.015205259          443 
  439000    0.5659537   -7.4664962    84.953447  0.016126319  0.015153673          219 
  440000   0.55211711   -7.5150804    84.921491  0.016083616  0.015102317          398 
  441000   0.57746446   -7.5161229    84.935931  0.016049874  0.015051173          332 
  442000   0.56111976   -7.5008604    84.933853   0.01601317  0.015000258          213 
  443000   0.55816511   -7.5009467    84.985855  0.015986805   0.01494958          440 
  444000    0.5595075   -7.5172057    84.850605  0.015925414  0.014899107          500 
  445000    0.5657514   -7.5249934     84.76754  0.015874071  0.014848827          380 
  446000   0.54834624   -7.5371667    84.788877  0.015842466  0.014798703          208 
  447000   0.56152585   -7.5281572    84.856365  0.015819606   0.01474878          455 
  448000     0.553051   -7.5201569    84.754909  0.015765422  0.014698906          203 
  449000   0.54884713   -7.5272551    84.844136   0.01574687  0.014649228          428 
  450000   0.55180796   -7.5256457    84.841104  0.015711316  0.014599771          331 
  451000   0.55158964   -7.5411206    84.598786  0.015631705  0.014550509          529 
  452000    0.5399426   -7.5527348    84.753193  0.015625589  0.014501482          151 
  453000   0.54472629    -7.555994    84.673024  0.015576347   0.01445273          470 
  454000   0.53682954   -7.5565499    84.720536  0.015550759  0.014404059          165 
  455000   0.53464765   -7.5351816    84.690432  0.015511068  0.014355545          215 
  456000   0.54367529   -7.5480871    84.839891  0.015504366  0.014307237          462 
  457000   0.52440701   -7.5511806    84.591745   0.01542519  0.014259009          338 
  458000   0.53211072   -7.5646176    84.545433  0.015383085  0.014210941          460 
  459000   0.52717032   -7.5863129    84.566994  0.015353485  0.014163129          401 
  460000   0.51790291   -7.5718864    84.505488  0.015308965   0.01411539          525 
  461000   0.53319658   -7.5841482    84.651258  0.015302107  0.014067848          328 
  462000   0.52091976   -7.5793433    84.635173  0.015266085  0.014020547          326 
  463000   0.53060883   -7.5668606    84.546116  0.015217084  0.013973494          494 
  464000   0.53379824   -7.5881498    84.588575  0.015191914  0.013926627          601 
  465000   0.52609781   -7.5833928    84.649243  0.015170115   0.01387991          493 
  466000   0.52207951   -7.5872465    84.543018  0.015118565  0.013833357          557 
  467000   0.53792941   -7.5820868    84.512017   0.01508066  0.013786933          475 
  468000   0.52345988   -7.6094206    84.560532  0.015057075  0.013740723          630 
  469000    0.5205938   -7.5800763    84.679556  0.015046119  0.013694806          513 
  470000   0.51912702    -7.583663    84.543466  0.014989976  0.013648947          391 
  471000   0.50815788   -7.5787712    84.431342  0.014938312   0.01360332          465 
  472000   0.51708413   -7.5973861    84.503513  0.014919406  0.013557885          535 
  473000   0.51031395   -7.6105569    84.521516  0.014891035  0.013512625          431 
  474000   0.51275185   -7.6062102    84.505032  0.014856722  0.013467438          544 
  475000   0.51536811   -7.6165271     84.35658    0.0147994  0.013422492          521 
  476000    0.5174025   -7.6081054    84.520069  0.014796931  0.013377744          595 
  477000   0.51586598   -7.6099823    84.299402  0.014727359  0.013333047          570 
  478000    0.5025843   -7.6364591    84.401087  0.014714276  0.013288608          550 
  479000   0.50725154   -7.6114864    84.517766  0.014703856  0.013244421          480 
  480000   0.50354004   -7.6196683    84.299947  0.014635407  0.013200447          544 
  481000   0.50161189   -7.6291638    84.489265   0.01463778  0.013156553          523 
  482000   0.49646316   -7.6356738    84.320348  0.014578207  0.013112878          572 
  483000   0.49497341   -7.6370924    84.394214  0.014560768  0.013069439          434 
  484000   0.49992313   -7.6171075    84.418503  0.014534866  0.013026154          581 
  485000   0.49589523   -7.6366453     84.45604  0.014511347   0.01298301          531 
  486000   0.49930769   -7.6325149    84.181804  0.014434466  0.012940013          593 
  487000   0.49958591   -7.6345836    84.295933  0.014424355  0.012897234          608 
  488000   0.48485253   -7.6583722    84.292879  0.014394276  0.012854607          650 
  489000   0.48735572   -7.6425783    84.426658  0.014387638   0.01281216          590 
  490000   0.48326485   -7.6375873     84.38472  0.014351143  0.012769808          599 
  491000   0.48753283   -7.6395367    84.275312  0.014303346  0.012727666          663 
  492000   0.48106882   -7.6777925    84.312079  0.014280501  0.012685689          677 
  493000   0.48565964   -7.6580419     84.13412  0.014221454  0.012643902          518 
  494000   0.47985519   -7.6590086    84.301957  0.014220978  0.012602286          673 
  495000   0.47142122   -7.6532745    84.340823  0.014198792  0.012560953          637 
  496000   0.47502874   -7.6596871    84.235229  0.014152424  0.012519742          705 
  497000   0.47023844    -7.666209    84.120568  0.014104723  0.012478697          676 
  498000   0.46577143   -7.6740612    84.158312  0.014082716  0.012437751          631 
  499000   0.47650969   -7.6613967    84.146946  0.014052596  0.012396984          648 
  500000   0.47760607   -7.6709253    84.283787  0.014047298  0.012356413          483 
  501000   0.46635197    -7.678997    84.141387  0.013995573  0.012315959          585 
  502000   0.46838703   -7.6756299    84.121244   0.01396435  0.012275701          548 
  503000   0.46263525    -7.672218    84.141035  0.013939867  0.012235567          583 
  504000   0.46956444   -7.6848413    84.128896  0.013910201  0.012195622          501 
  505000   0.46763692   -7.6773668    84.252344  0.013903027  0.012155761          645 
  506000    0.4635933   -7.6802872    84.155037  0.013859525  0.012116122          535 
  507000   0.45924537   -7.6861012    84.120708  0.013826546  0.012076676          681 
  508000   0.45396254    -7.693989    84.203844  0.013812967  0.012037363          506 
  509000   0.46242482   -7.7058253    84.091654  0.013767461  0.011998206          451 
  510000   0.45375841   -7.7038855    84.065289  0.013736158  0.011959184          596 
  511000   0.45299644   -7.6993483    84.130578  0.013719925  0.011920328          673 
  512000   0.45027321   -7.7004032    84.075737  0.013684202  0.011881528          579 
Loop time of 1302.39 on 48 procs for 500000 steps with 4000 atoms

Performance: 66339.497 tau/day, 383.909 timesteps/s
99.4% CPU use with 48 MPI tasks x no OpenMP threads

MPI task timing breakdown:
Section |  min time  |  avg time  |  max time  |%varavg| %total
---------------------------------------------------------------
Pair    | 94.368     | 99.938     | 106.34     |  30.8 |  7.67
Neigh   | 9.1156     | 9.4612     | 9.7504     |   5.4 |  0.73
Comm    | 83.361     | 89.287     | 95.488     |  31.7 |  6.86
Output  | 1.0267     | 1.0274     | 1.048      |   0.3 |  0.08
Modify  | 1085.4     | 1090.2     | 1094.5     |   6.3 | 83.71
Other   |            | 12.44      |            |       |  0.96

Nlocal:        83.3333 ave          90 max          75 min
Histogram: 1 1 1 2 14 6 12 5 3 3
Nghost:        2417.88 ave        2436 max        2401 min
Histogram: 4 4 6 4 9 7 5 1 2 6
Neighs:        16760.3 ave       18938 max       13338 min
Histogram: 1 0 0 7 8 5 7 14 1 5
FullNghs:      33519.7 ave       36029 max       30031 min
Histogram: 1 2 0 2 12 8 10 8 2 3

Total # of neighbors = 1608946
Ave neighs/atom = 402.23650
Neighbor list builds = 26706
Dangerous builds = 0

#clear
#
#next RN
#
#jump SELF
Total wall time: 0:21:46
