
units lj                  # Use reduced LJ style units
atom_style atomic         # Uncharged point particles
atom_modify map hash      # Needed for indexing of clusters etc
                          # Used to be able to find where atoms are in relation to each other.

lattice fcc 1.0 spacing 1 1 1
Lattice spacing in x,y,z = 1.5874011 1.5874011 1.5874011
region box block 0 10 0 10 0 10 units lattice
create_box 2 box
Created orthogonal box = (0.0000000 0.0000000 0.0000000) to (15.874011 15.874011 15.874011)
  3 by 4 by 4 MPI processor grid
create_atoms 1 box
Created 4000 atoms
  using lattice units in orthogonal box = (0.0000000 0.0000000 0.0000000) to (15.874011 15.874011 15.874011)
  create_atoms CPU = 0.014 seconds
set type 1 type/fraction 2 0.9 78393
Setting atom values ...
  3586 settings made for type/fraction
mass 1 1.0
mass 2 1.0
pair_style lj/cut  3.5
pair_modify tail  yes
pair_coeff 1  1  1.0  1.0   # Intearaction between 1 and 1 set with epsilon = 1 and sigma = 1
pair_coeff 1  2  1.5  0.8
pair_coeff 2  2  0.5  0.88

write_data data.0
System init for write_data ...
Neighbor list info ...
  update every 1 steps, delay 10 steps, check yes
  max neighbors/atom: 2000, page size: 100000
  master list distance cutoff = 3.8
  ghost atom cutoff = 3.8
  binsize = 1.9, bins = 9 9 9
  1 neighbor lists, perpetual/occasional/extra = 1 0 0
  (1) pair lj/cut, perpetual
      attributes: half, newton on
      pair build: half/bin/atomonly/newton
      stencil: half/bin/3d
      bin: standard
WARNING: Not all mixed pair coeffs generated from mixing. Use write_data with 'pair ij' option to store all pair coeffs. (../write_data.cpp:312)


#############################
#   M E L T   S Y S T E M   #
#############################

velocity all create 2.4 9580093 mom yes dist gaussian # Assign velocities
                                                    # Temperature 2.4, random number seed, zero linear momentum
                                                                                # Gaussian distribution

timestep 0.002   # simulation timestep
thermo 1000       # output thermodynamic data every 1000 steps bf 100

# Define a fix  in this case with index 1 applied to all
# particles in the simulation. This fix is for simulations
# in the anisotropic NPT ensemble. Note that we use the MTK
# correction.
fix 1 all npt temp 2.4 2.4 0.1 iso 5.68 5.68 0.5 mtk yes tchain 5 pchain 5 # Use NPT ensemble
                                                                         # Set temperature and pressure and damping
                                                                         # Numbers of thermostats in chain and in barostat
run 10000          # run for 10000 steps
Per MPI rank memory allocation (min/avg/max) = 3.642 | 3.644 | 3.648 Mbytes
Step Temp E_pair E_mol TotEng Press Volume 
       0          2.4   -3.1995671            0   0.39953293    -2.596694         4000 
    1000    2.3972941   -2.2323713            0     1.362671     5.640862    4017.7843 
    2000    2.3884305   -2.2446895            0    1.3370606    5.8694791     3965.368 
    3000    2.4149435   -2.2779158            0    1.3435939    5.7806908    3957.7177 
    4000    2.3833757    -2.234218            0    1.3399517    5.6667813    4012.8527 
    5000    2.4085099   -2.2145259            0    1.3973358     5.907094    3987.1331 
    6000    2.4029906   -2.2737527            0     1.329832     5.819465    3958.5743 
    7000    2.4643796   -2.2962516            0    1.3993937    5.5093669    3999.2567 
    8000    2.3736904   -2.2440479            0    1.3155976    5.5519714    4018.4984 
    9000    2.3925376   -2.2061136            0    1.3817956    5.7407405    4032.8302 
   10000    2.4133027   -2.2233855            0    1.3956635    5.8592117    3989.0442 
Loop time of 2.5071 on 48 procs for 10000 steps with 4000 atoms

Performance: 689241.725 tau/day, 3988.667 timesteps/s
99.6% CPU use with 48 MPI tasks x no OpenMP threads

MPI task timing breakdown:
Section |  min time  |  avg time  |  max time  |%varavg| %total
---------------------------------------------------------------
Pair    | 1.0723     | 1.1556     | 1.2669     |   3.3 | 46.09
Neigh   | 0.2102     | 0.21688    | 0.23491    |   1.0 |  8.65
Comm    | 0.77452    | 0.86738    | 0.96728    |   4.5 | 34.60
Output  | 0.00024772 | 0.00025149 | 0.00031806 |   0.0 |  0.01
Modify  | 0.20374    | 0.25176    | 0.29306    |   4.6 | 10.04
Other   |            | 0.01526    |            |       |  0.61

Nlocal:        83.3333 ave          93 max          73 min
Histogram: 1 4 3 1 10 10 8 6 3 2
Nghost:        1648.35 ave        1679 max        1618 min
Histogram: 2 6 4 8 3 5 7 6 6 1
Neighs:        9566.42 ave       10827 max        8265 min
Histogram: 2 4 3 10 2 5 10 9 1 2

Total # of neighbors = 459188
Ave neighs/atom = 114.79700
Neighbor list builds = 910
Dangerous builds = 227

# Equilibrate just above the melting temperature to avoid step fn in T

fix 1 all npt temp 1.25 1.25 0.1 iso 5.68 5.68 0.5 mtk yes tchain 5 pchain 5
run 2000
Per MPI rank memory allocation (min/avg/max) = 3.643 | 3.645 | 3.649 Mbytes
Step Temp E_pair E_mol TotEng Press Volume 
   10000    2.4133027   -2.2233855            0    1.3956635    5.8592117    3989.0442 
   11000    1.2173137   -3.3576308            0   -1.5321167    5.6050295    3099.9561 
   12000    1.2529772   -3.3520905            0   -1.4730946    5.6521787    3106.5353 
Loop time of 0.611482 on 48 procs for 2000 steps with 4000 atoms

Performance: 565184.039 tau/day, 3270.741 timesteps/s
99.6% CPU use with 48 MPI tasks x no OpenMP threads

MPI task timing breakdown:
Section |  min time  |  avg time  |  max time  |%varavg| %total
---------------------------------------------------------------
Pair    | 0.27106    | 0.29473    | 0.32389    |   2.4 | 48.20
Neigh   | 0.039554   | 0.041914   | 0.0454     |   0.6 |  6.85
Comm    | 0.19172    | 0.22445    | 0.2519     |   3.0 | 36.71
Output  | 5.2175e-05 | 5.3897e-05 | 6.9988e-05 |   0.0 |  0.01
Modify  | 0.042095   | 0.045391   | 0.048229   |   0.8 |  7.42
Other   |            | 0.004948   |            |       |  0.81

Nlocal:        83.3333 ave          92 max          75 min
Histogram: 1 2 10 5 8 9 3 4 4 2
Nghost:        1948.62 ave        1977 max        1929 min
Histogram: 2 6 6 14 5 7 4 0 3 1
Neighs:        12308.6 ave       14550 max       10624 min
Histogram: 1 9 3 11 7 6 5 5 0 1

Total # of neighbors = 590811
Ave neighs/atom = 147.70275
Neighbor list builds = 143
Dangerous builds = 18

#############################
# L I N E A R  Q U E N C H  #
#############################

# Define solid atoms. This closely follows ten Wolde  Ruiz-Montero and Frenkel  Faraday Discuss  1996  104  93-110
# Compute components of the per-atom q6 vector
compute q6 all orientorder/atom degrees 1 6 components 6 nnn NULL cutoff 1.3 # compute the Q6 parameter.
                                                                             # Use all neighbours within 1.3 unit cell.

# get number of connections
compute coord_number all coord/atom orientorder q6 0.5

# An atom is solid if it has 8 or more connections (of a possible 14)
variable is_solid atom c_coord_number>=8
group solid dynamic all var is_solid    # Must be dynamic to update
dynamic group solid defined

# do clustering
compute cluster solid cluster/atom 1.3 # Create a cluster where all atoms within are solid and max 1.3 units from another member

# define chunks one chunk per cluster
compute clus_chunks solid chunk/atom c_cluster nchunk every compress yes  # Says which atoms are in which chunk

# count the size of each chunk
compute size_chunks solid property/chunk clus_chunks count


# Find the maximum entry in the vector of chunk sizes
variable max_n equal max(c_size_chunks)


# Thermo style which includes this variable
# thermo_style custom step temp pe vol v_max_n

thermo ${N}  # Print the thermo information every 100 steps
thermo 1000  

# Reset the npt fix at a lower temperature (below freezing)
fix 1  all npt temp  ${temp} ${temp}  0.1  iso  5.68  5.68  0.5  mtk yes tchain  5  pchain  5
fix 1  all npt temp  0.45 ${temp}  0.1  iso  5.68  5.68  0.5  mtk yes tchain  5  pchain  5
fix 1  all npt temp  0.45 0.45  0.1  iso  5.68  5.68  0.5  mtk yes tchain  5  pchain  5

dump dmp2 all dcd ${N} traj.dcd
dump dmp2 all dcd 1000 traj.dcd


compute msd all msd com yes
variable twopoint equal c_msd[4]/6/(step*dt+1.0e-6)
fix 9 all vector 10 c_msd[4]
variable fit equal slope(f_9)/6/(10*dt)
thermo_style custom step temp pe c_msd[4] v_twopoint v_fit v_max_n

fix 1 all npt temp 1.25 ${temp} 0.1 iso 5.68 5.68 0.5 mtk yes tchain 5 pchain 5
fix 1 all npt temp 1.25 0.45 0.1 iso 5.68 5.68 0.5 mtk yes tchain 5 pchain 5
run 2000000 # 5000000  # Run for this many steps
Neighbor list info ...
  update every 1 steps, delay 10 steps, check yes
  max neighbors/atom: 2000, page size: 100000
  master list distance cutoff = 3.8
  ghost atom cutoff = 3.8
  binsize = 1.9, bins = 8 8 8
  4 neighbor lists, perpetual/occasional/extra = 1 3 0
  (1) pair lj/cut, perpetual
      attributes: half, newton on
      pair build: half/bin/atomonly/newton
      stencil: half/bin/3d
      bin: standard
  (2) compute orientorder/atom, occasional
      attributes: full, newton on
      pair build: full/bin/atomonly
      stencil: full/bin/3d
      bin: standard
  (3) compute coord/atom, occasional
      attributes: full, newton on
      pair build: full/bin/atomonly
      stencil: full/bin/3d
      bin: standard
  (4) compute cluster/atom, occasional
      attributes: full, newton on
      pair build: full/bin/atomonly
      stencil: full/bin/3d
      bin: standard
Per MPI rank memory allocation (min/avg/max) = 9.821 | 9.828 | 9.834 Mbytes
Step Temp PotEng c_msd[4] v_twopoint v_fit v_max_n 
   12000    1.2529772   -3.3520905 1.6617355e-30 1.1539829e-32 8.3333333e+20            1 
   13000    1.2471105   -3.3452304    0.9798048 0.0062807997  0.082057593            1 
   14000    1.2498084   -3.3602817     2.061164  0.012268833  0.087761611            1 
   15000    1.2403378   -3.3615565    3.1619229  0.017566238  0.089560366            3 
   16000    1.2549976   -3.3517908    4.1206499  0.021461718  0.088216963            1 
   17000    1.2287726   -3.3762802    5.1819643  0.025401785  0.087271675            1 
   18000    1.2363784   -3.3604671    6.3728965   0.02950415  0.087793765            1 
   19000    1.2521765   -3.3552958    7.5869619  0.033276148  0.089312742            2 
   20000    1.2288781    -3.328223    8.7908461  0.036628524  0.090659663            1 
   21000    1.2465685   -3.3544447    9.7420642  0.038658984  0.091460845            1 
   22000    1.2600843   -3.3748047    10.772472  0.040804819  0.091309699            1 
   23000    1.2427777     -3.39602    11.901282  0.043120586  0.091281262            3 
   24000    1.2256329   -3.3809438    13.084526  0.045432382  0.091528818            1 
   25000    1.2472096    -3.348052    14.247384  0.047491279  0.091852427            2 
   26000    1.2621367   -3.3648732    15.186219  0.048673778  0.091878491            3 
   27000    1.2343249   -3.3813823    16.073132  0.049608432  0.091488203            1 
   28000    1.2224248   -3.3606133    17.040273  0.050715098  0.090983698            3 
   29000     1.258088   -3.3681071    18.009494   0.05175142  0.090482186            1 
   30000    1.2161231   -3.3535493    19.243465  0.053454069  0.090149278            2 
   31000    1.2585748   -3.3617712    20.364802   0.05474409  0.089984049            2 
   32000     1.247906   -3.3322316     21.61411  0.056286744  0.089925043            1 
   33000    1.2671999   -3.3887348    22.472009  0.056747497   0.08994945            2 
   34000    1.2127319   -3.3371717    23.525698  0.057661023  0.089824832            1 
   35000    1.2518874   -3.3763895    24.649459  0.058689186  0.089691737            2 
   36000    1.2220506   -3.3721818    25.600124  0.059259546  0.089497542            1 
   37000     1.221156   -3.3869185    26.422301  0.059509685  0.089148628            2 
   38000    1.2434205   -3.3957011    27.421342  0.060134522  0.088863734            1 
   39000    1.2310725    -3.350261    28.531024  0.060963725  0.088691888            2 
   40000    1.2278433   -3.3855064    29.679909  0.061833144  0.088540299            1 
   41000    1.2303054   -3.3847674    30.763792  0.062528031  0.088472466            2 
   42000    1.2228268   -3.3318749    32.214442  0.063917543  0.088483959            1 
   43000    1.2258677   -3.4104078    32.920799  0.063799997  0.088520554            1 
   44000    1.2615066   -3.3891242    33.773757  0.063965447  0.088466544            1 
   45000    1.2382106   -3.3816466    34.924795  0.064675545  0.088386603            1 
   46000    1.2218493   -3.3638371    36.065212  0.065335529  0.088295066            2 
   47000    1.2263756   -3.3838997     37.02674  0.065650248  0.088266389            2 
   48000     1.237254   -3.3588211    38.010371  0.065990226  0.088164441            1 
   49000    1.2722507   -3.3567836     39.08782  0.066475884  0.088062828            2 
   50000     1.215771    -3.364288    40.080717  0.066801195  0.087981527            2 
   51000    1.2150963    -3.376941    41.172539   0.06727539  0.087951821            3 
   52000    1.2210307   -3.3542178    42.180243  0.067596543  0.087915694            1 
   53000    1.2267581   -3.3616992    43.241355  0.067989552   0.08783996            1 
   54000    1.2296592   -3.3653183    44.359399  0.068455863  0.087805293            2 
   55000    1.2275168   -3.3766067    45.319028  0.068665193  0.087769271            1 
   56000    1.2333067   -3.3623914    46.588091  0.069327516  0.087732781            3 
   57000    1.2457466   -3.3960814    47.504833   0.06945151  0.087741844            1 
   58000     1.211351   -3.3903049    48.865302  0.070208767  0.087755871            1 
   59000    1.2315378   -3.3840641     49.77185  0.070299222  0.087746641            3 
   60000    1.2350727   -3.4029974    50.307955   0.06987216  0.087722631            1 
   61000    1.2568734   -3.3836592    51.692001  0.070617488  0.087690437            4 
   62000    1.2217802   -3.3967403    52.912246  0.071118609   0.08771069            1 
   63000    1.2489293   -3.3527939    54.153651  0.071631813   0.08773495            1 
   64000      1.23874   -3.3927609    54.916236  0.071505515  0.087768816            2 
   65000    1.2187917   -3.3964109    56.112334  0.071938889  0.087792056            3 
   66000     1.221345   -3.4144752    57.343199  0.072403028  0.087822447            1 
   67000    1.2110308   -3.3361374    58.168406  0.072348764  0.087838149            1 
   68000    1.2005994   -3.3905532    59.293912  0.072664107  0.087849749            2 
   69000    1.2383105   -3.3862308     59.89383  0.072335543  0.087836001            2 
   70000    1.2269522   -3.4044454    61.170537  0.072822067  0.087809556            1 
   71000    1.2289049   -3.4007881     61.66043  0.072371396  0.087761768            3 
   72000    1.2498369   -3.3629231    63.084873  0.073014898   0.08770398            2 
   73000    1.2170512    -3.378611    64.310436  0.073413739  0.087662162            1 
   74000    1.2384166   -3.3795452    65.579949  0.073851293  0.087659697            3 
   75000    1.2360754   -3.4333578     66.25589  0.073617655  0.087660002            2 
   76000     1.224854   -3.4148132    67.495753  0.074008501   0.08765855            2 
   77000    1.1895695   -3.3342935    68.555896  0.074194692  0.087666698            2 
   78000    1.2250949   -3.3634949    69.332234  0.074072899  0.087651664            4 
   79000    1.2161289   -3.3971208    70.643265  0.074518212  0.087639189            3 
   80000    1.2365344    -3.370767    71.705861  0.074693604  0.087637723            2 
   81000    1.2265649   -3.3894547    72.916627  0.075017105  0.087628576            4 
   82000    1.2296294   -3.4095577    73.737457   0.07493644   0.08763357            2 
   83000    1.2387964   -3.4188102    74.748388  0.075048582  0.087641005            5 
   84000    1.2132918   -3.3871285    75.595084  0.074995122  0.087629091            2 
   85000    1.1976595   -3.4216713    76.545157  0.075044272  0.087601227            1 
   86000    1.2393925   -3.3941716    77.678415  0.075269781  0.087570303            1 
   87000    1.1941386   -3.3697005    79.092748  0.075759336  0.087539076            3 
   88000    1.2358988   -3.3614082    80.006334  0.075763573  0.087507837            2 
   89000    1.2120241   -3.3681654    81.505018  0.076315559  0.087495501            2 
   90000    1.2257369   -3.3785827    82.104891  0.076023047  0.087499877            1 
   91000    1.2194927   -3.3755207    83.443096  0.076413092  0.087508078            3 
   92000    1.1965593   -3.4200681    84.099986  0.076177523  0.087521104            2 
   93000    1.1663792   -3.4066199    84.909378  0.076083671  0.087527799            3 
   94000    1.2010851   -3.3591438    86.909607  0.077047523  0.087542374            1 
   95000    1.2290308     -3.40573     87.57694  0.076821877  0.087560525            2 
   96000    1.1841371   -3.4176832    88.002696  0.076391229  0.087560069            2 
   97000    1.2050976   -3.3864913    89.386981  0.076792939  0.087539175            2 
   98000    1.2222682   -3.4311353     90.28065  0.076769259  0.087509957            3 
   99000    1.2286309   -3.4204476    90.998669  0.076598205  0.087496254            2 
  100000    1.1924523   -3.4120486    92.349951  0.076958292  0.087474909            2 
  101000    1.2036252    -3.402334    93.405165  0.077066967  0.087453038            1 
  102000    1.1987637   -3.3857406    94.767471  0.077424404  0.087439025            5 
  103000    1.2165629    -3.397837    96.025549  0.077690573  0.087443754            2 
  104000    1.2414175   -3.4335281    96.307268  0.077169285  0.087444915            4 
  105000    1.2177929   -3.4528829    97.838853  0.077649883  0.087441113            2 
  106000    1.2128457   -3.4212362    98.926105  0.077772095  0.087439502            4 
  107000    1.2481436   -3.3616142    100.15177  0.077999821  0.087428506            1 
  108000    1.2282125   -3.4221628    100.62535  0.077643018  0.087409656            3 
  109000    1.1970672   -3.4477652     101.3908  0.077515904   0.08739531            2 
  110000    1.2038612    -3.400711    102.27094  0.077477984  0.087364066            2 
  111000     1.217456   -3.3849151    103.85222  0.077967128   0.08732499            2 
  112000    1.2048211   -3.4288187    104.57651  0.077809906  0.087291628            1 
  113000    1.2293784   -3.3866997    105.26088   0.07762602  0.087255167            3 
  114000    1.2060144   -3.4006001    106.48182  0.077837586  0.087213285            1 
  115000    1.2141041   -3.4052182    107.31846  0.077766997  0.087176954            1 
  116000    1.1872593   -3.4059562    107.92033  0.077528971  0.087134187            2 
  117000     1.228415   -3.4310504    109.74887  0.078168708  0.087095918            1 
  118000    1.2305926   -3.4216918    109.91053  0.077620431  0.087057809            2 
  119000    1.2138729   -3.4107277    110.62538  0.077468754   0.08701224            1 
  120000    1.2255095   -3.4486145    112.37347  0.078037135  0.086967892            2 
  121000    1.2225099   -3.4306883    112.82774  0.077705052  0.086920335            4 
  122000    1.2064672   -3.4220207     113.9041  0.077803345  0.086864967            4 
  123000    1.2028984   -3.4467427    115.05948  0.077953576  0.086819652            4 
  124000    1.2302413   -3.4025063     116.6009  0.078360819  0.086782983            2 
  125000     1.194541   -3.4324229    117.84312  0.078562081  0.086769943            2 
  126000    1.1965898   -3.3853451    119.62296  0.079115714  0.086748548            4 
  127000    1.2088474   -3.4395794    120.17747  0.078856607  0.086740429            1 
  128000    1.1950842   -3.4282126     119.9634  0.078101171  0.086713947            2 
  129000    1.2003155   -3.4210667    120.49721  0.077840572  0.086681839            1 
  130000    1.2194389   -3.4030669    122.97747  0.078831709  0.086651952            1 
  131000    1.1976908   -3.4138671    123.65984  0.078664022  0.086619362            2 
  132000    1.2284094   -3.4162392    125.00897  0.078919807  0.086595871            1 
  133000    1.2264279   -3.4101909    126.38727  0.079190019  0.086580312            3 
  134000    1.2090942   -3.4213631    126.58715  0.078723349  0.086569206            2 
  135000    1.1996407   -3.4118832    128.11676  0.079084419  0.086549924            2 
  136000    1.1881992   -3.4270428    128.60014  0.078799107    0.0865366            2 
  137000    1.1858391   -3.4524805    128.61494  0.078232931  0.086507603            6 
  138000     1.178894   -3.4008278    130.26207  0.078660673  0.086460304            1 
  139000    1.1826251   -3.4281259    131.46701  0.078817152  0.086422147            2 
  140000    1.1779774   -3.4221604    132.67675  0.078974257  0.086382472            1 
  141000    1.1924329    -3.413347    133.54724  0.078928629  0.086353118            2 
  142000    1.1907418    -3.423749    134.80399  0.079110322  0.086322404            1 
  143000      1.20379   -3.3950972    135.53058  0.078980525  0.086292792            1 
  144000    1.2060853    -3.403181    136.52406  0.079006981  0.086273403            1 
  145000     1.195123   -3.4121253    136.85461  0.078652077  0.086234394            1 
  146000    1.1884743    -3.436451    137.43419  0.078444174  0.086180407            2 
  147000     1.179056   -3.4135391    138.67056  0.078611428  0.086131014            1 
  148000    1.2092563   -3.4276994    139.57036  0.078586912  0.086079643            1 
  149000    1.1898955   -3.4375662    140.37783   0.07851109  0.086031109            2 
  150000    1.2081045   -3.4405507    141.75214  0.078751187  0.085990001            2 
  151000    1.2217904   -3.4359017     142.2426  0.078500332  0.085947892            4 
  152000    1.2049789   -3.4224454    143.47868  0.078661555  0.085905305            2 
  153000    1.1972734   -3.4448904    143.88466   0.07836855   0.08585684            2 
  154000    1.2203253   -3.4150907    146.43587  0.079240192  0.085809145            2 
  155000     1.204769   -3.4089884    147.23994  0.079161256  0.085772997            3 
  156000    1.1987218   -3.4378104    147.31705  0.078695004  0.085735285            2 
  157000     1.166498   -3.4558861     149.2056  0.079196178  0.085702918            2 
  158000    1.1882535   -3.3868028    149.96111   0.07909341   0.08567438            1 
  159000    1.2211136   -3.4110108    151.28855  0.079291693  0.085652841            2 
  160000    1.1919064   -3.4133819    152.18878   0.07926499  0.085624491            3 
  161000    1.1790903    -3.463692    153.06561  0.079226506  0.085596902            2 
  162000    1.1753866    -3.451208    153.50088  0.078961358  0.085554683            2 
  163000    1.1999302   -3.4080413    155.27906  0.079386023  0.085525548            2 
  164000    1.1824901   -3.4243312     155.5987  0.079064377  0.085495243            1 
  165000    1.1782231   -3.4085352    156.13068  0.078853877  0.085463094            1 
  166000    1.1682522   -3.3856579    158.04666  0.079340692  0.085423547            1 
  167000    1.2057892   -3.4547888    158.28357  0.078983817  0.085382711            1 
  168000    1.1856075   -3.4065579    159.45151  0.079093011  0.085335768            1 
  169000    1.1668096   -3.4527522    159.89043  0.078841436  0.085284774            6 
  170000    1.1909254   -3.4367989    160.55966  0.078705715  0.085235866            2 
  171000    1.1770685   -3.4567839     160.3978  0.078166571   0.08517983            3 
  172000    1.1917533   -3.4629057    161.13568  0.078069614   0.08512239            3 
  173000    1.2025449   -3.4439397    162.67902  0.078361761  0.085066177            2 
  174000    1.1804105   -3.4380734     163.7806  0.078438986  0.085006508            1 
  175000    1.1677807   -3.4533669    165.32496  0.078726173  0.084950261            2 
  176000    1.1566197   -3.4758888    165.51612  0.078369373  0.084892565            3 
  177000    1.1614806   -3.4472105     165.8893  0.078102308  0.084825565            2 
  178000    1.1603974   -3.4883016    166.77617  0.078078729  0.084763029            2 
  179000     1.165792   -3.4177209    168.92012  0.078640649  0.084704996            3 
  180000    1.1850823    -3.415396    168.95627  0.078220497  0.084643911            3 
  181000    1.1609914   -3.4724922    169.04158  0.077827613   0.08458176            4 
  182000    1.1840521   -3.3791466    171.50431  0.078527613  0.084520523            1 
  183000    1.1935196   -3.4723554    172.53537   0.07856802  0.084464824            2 
  184000    1.1700883   -3.4379464    173.76623  0.078698473  0.084415647            2 
  185000    1.1772923   -3.4424612    174.23164  0.078482722   0.08436498            2 
  186000    1.1829746   -3.4392958    174.99035  0.078400694  0.084307527            2 
  187000    1.1390805    -3.442941    175.69789  0.078296743  0.084260159            2 
  188000     1.195867   -3.4940694    177.19753  0.078545004   0.08421335            2 
  189000    1.1884713   -3.4472978    177.80571  0.078397578  0.084162354            2 
  190000    1.1922048   -3.4420234    179.59707  0.078770646  0.084115046            3 
  191000     1.174132   -3.4463255     180.8806  0.078918238  0.084077442            2 
  192000    1.1837523   -3.4219916    180.75379  0.078452164  0.084041105            2 
  193000    1.1782087   -3.4316415     182.0786  0.078617704  0.083999383            1 
  194000    1.1542823     -3.44295    182.25277  0.078287272  0.083952155            1 
  195000    1.1626929   -3.4313077    182.69603  0.078075225   0.08389671            7 
  196000    1.1755086   -3.4582721    183.27617  0.077923543  0.083839825            1 
  197000    1.1765242   -3.4195093    185.05552  0.078280678   0.08377798            3 
  198000    1.1513483   -3.4530701    186.01528  0.078289258  0.083720541            2 
  199000     1.159858   -3.4619813    186.22853  0.077985148  0.083672443            2 
  200000    1.1778375   -3.4686581    187.98404  0.078326684  0.083624969            1 
  201000    1.1971033   -3.4855805    188.77727  0.078265865  0.083582888            2 
  202000    1.1956958   -3.4271653    189.45242  0.078156938  0.083535612            2 
  203000    1.1829911   -3.5020934    190.19876  0.078078309  0.083493192            2 
  204000    1.1825028   -3.4377453    191.04799   0.07804248  0.083446791            2 
  205000    1.1894036   -3.4958076     191.6204  0.077894471  0.083401982            2 
  206000    1.1613412   -3.4678494    193.11948  0.078122766  0.083349912            1 
  207000    1.1651752   -3.4611555    195.37946  0.078655178  0.083304929            2 
  208000    1.1490472   -3.4569223    195.63419  0.078379084  0.083260194            3 
  209000    1.1811891   -3.4639492     196.7682   0.07845622   0.08321756            2 
  210000     1.164486    -3.486982    196.24174  0.077873707  0.083181559            2 
  211000     1.179466   -3.4508605    199.46734  0.078778569  0.083141839            2 
  212000    1.1713229   -3.4711272    200.61532  0.078858224  0.083107861            1 
  213000    1.1587126   -3.4447013    201.33265  0.078768641  0.083078901            1 
  214000    1.1443545   -3.4653718    201.97933  0.078652386  0.083051461            1 
  215000    1.1809095    -3.476648    203.09617  0.078719446  0.083026215            3 
  216000    1.1766604    -3.467222    204.37436  0.078848131  0.083002932            1 
  217000     1.146175   -3.4756128    205.44854   0.07889729   0.08298602            3 
  218000    1.1914363   -3.4815009     205.7731  0.078659443   0.08296811            3 
  219000    1.1490562    -3.438749    207.62919  0.079006541   0.08294707            1 
  220000    1.1600101   -3.4710933    208.05563   0.07880895  0.082929112            1 
  221000    1.1720884    -3.443832    209.61638  0.079040867   0.08290479            1 
  222000    1.1606167   -3.4879952    210.39636  0.078977614  0.082885616            2 
  223000    1.1730949   -3.4488648    210.61385  0.078704726  0.082861742            3 
  224000    1.1794873   -3.4774174    210.90987  0.078463494  0.082831936            1 
  225000     1.177836   -3.4120656    213.21494  0.078968495  0.082802172            2 
  226000    1.1795443   -3.4917141    212.31926  0.078288814  0.082769591            1 
  227000    1.1911116   -3.4575839    215.15751  0.078985871  0.082740794            7 
  228000    1.1746154   -3.4512102    214.45009  0.078380881  0.082710241            3 
  229000    1.1528497   -3.4607685    215.32465   0.07835686  0.082681649            1 
  230000    1.1411724   -3.4984193    216.54066  0.078456762  0.082654418            2 
  231000    1.1432884   -3.4672776     217.8067  0.078573844  0.082623937            1 
  232000     1.173635   -3.4705411    218.40259  0.078449206  0.082595722            2 
  233000    1.1561178   -3.4728483     219.7563  0.078596675  0.082565202            2 
  234000    1.1912442   -3.4882715    220.05732   0.07836799  0.082529959            1 
  235000    1.1645624   -3.4719991     221.9139  0.078692874  0.082493432            1 
  236000     1.136904   -3.4806104    221.52358  0.078221602  0.082455717            2 
  237000    1.1713114    -3.430834    222.61888   0.07827668  0.082422249            3 
  238000    1.1263469   -3.4728792    223.39039  0.078217924  0.082386504            2 
  239000     1.152913   -3.4827685    223.28408  0.077853583  0.082348745            2 
  240000     1.157536   -3.4847023    224.31866  0.077888422  0.082308939            2 
  241000    1.1506548   -3.5180527    224.50614  0.077630062  0.082265313            2 
  242000    1.1596632   -3.4602484    225.94522  0.077804829  0.082223533            2 
  243000    1.1689673   -3.5214946    226.43101  0.077651239   0.08218347            2 
  244000    1.1639495   -3.5025743    228.10959   0.07790628  0.082144729            4 
  245000    1.1772433     -3.48771    229.74925  0.078146004  0.082106346            3 
  246000    1.1435017   -3.4760321     230.7572  0.078169783  0.082067147            2 
  247000    1.1656885   -3.4954671    230.45751  0.077752195  0.082025012            3 
  248000    1.1718065    -3.459917    232.75509  0.078210717  0.081985633            2 
  249000    1.1630837   -3.4880923    234.04441  0.078328116  0.081949925            3 
  250000     1.118494   -3.4655382    234.54595  0.078181983  0.081911153            2 
  251000    1.1343225   -3.4811441    234.23755   0.07776811   0.08187189            3 
  252000    1.1410957   -3.5203782    235.00046  0.077711793  0.081830853            1 
  253000    1.1649457   -3.4890709    235.48678  0.077564816  0.081788683            3 
  254000    1.1343414    -3.495379    236.30075  0.077526491  0.081749714            3 
  255000    1.1563042   -3.4797293    238.01788  0.077783622  0.081713743            2 
  256000    1.1482559   -3.4828763    237.82359  0.077416533  0.081676265            2 
  257000    1.1715041   -3.4928128    240.06831  0.077843161  0.081634155            1 
  258000    1.1463982    -3.477064    241.31641  0.077944578  0.081596894            2 
  259000    1.1452662   -3.4906026    241.74553  0.077781703  0.081558034            2 
  260000    1.1707638   -3.4881781    242.52699   0.07773301  0.081520747            4 
  261000    1.1463393   -3.4923889    243.05796  0.077604713  0.081479866            4 
  262000    1.1607052   -3.4888724    242.71146    0.0771983  0.081439972            2 
  263000    1.1632448   -3.4708186    245.28309   0.07771961  0.081399897            5 
  264000    1.1464624   -3.4933033    245.09652  0.077366324   0.08136311            2 
  265000    1.1382027   -3.5072732    245.95463  0.077344222  0.081323871            2 
  266000    1.1504489   -3.4879918    247.02478  0.077388716  0.081283312            2 
  267000    1.1388105   -3.5048602    247.20983  0.077156627   0.08124007            1 
  268000    1.1387915   -3.4931008    247.87904  0.077076816  0.081194304            2 
  269000    1.1459727    -3.490111    249.53131  0.077302142  0.081148837            2 
  270000    1.1741267   -3.5017704    251.08512  0.077495408  0.081106483            3 
  271000    1.1529611    -3.480701    251.31413  0.077279869   0.08106222            1 
  272000    1.1447873   -3.4623331    252.75984  0.077438676  0.081019251            1 
  273000    1.1752309   -3.5117011    253.30246  0.077320654   0.08097891            2 
  274000     1.139159   -3.4631861    254.33561  0.077352678  0.080943332            2 
  275000    1.1381687   -3.5002165    254.15755  0.077017438  0.080907629            3 
  276000    1.1774267   -3.5085392    255.27478  0.077075718  0.080871957            4 
  277000    1.1521412   -3.5300197     256.5002  0.077166125  0.080835044            3 
  278000    1.1238234   -3.4961331     260.0341   0.07794787  0.080803882            2 
  279000    1.1243547   -3.4888339    260.43239  0.077787454  0.080776324            1 
  280000    1.1297499   -3.4834828    261.10935  0.077711116  0.080747903            1 
  281000    1.1329088   -3.5149653    263.10474  0.078026315  0.080720131            3 
  282000    1.1352511   -3.5171698    262.49705   0.07757005  0.080697006            4 
  283000    1.1554673    -3.505165    263.73758  0.077661243  0.080674554            2 
  284000    1.1515978   -3.5386081    265.13953  0.077799158  0.080652796            4 
  285000    1.1366917   -3.4813049    265.61339  0.077664735  0.080632408            2 
  286000    1.1245089   -3.5050589    266.57553  0.077673524  0.080610109            2 
  287000    1.1376277   -3.5042662    267.91591  0.077792077  0.080590713            3 
  288000    1.1252492    -3.496257    269.06424  0.077854236  0.080571494            3 
  289000    1.1422684   -3.5370816    269.27605  0.077645921   0.08055065            1 
  290000    1.1608033   -3.5306487    270.24666  0.077657087  0.080529027            2 
  291000    1.1463356    -3.505552    272.75601  0.078108823   0.08051012            2 
  292000    1.1545931    -3.508652    273.58276  0.078077272  0.080490468            2 
  293000    1.1548122   -3.5057642    273.68403  0.077839599  0.080469568            3 
  294000    1.1399749   -3.4921265    274.28823  0.077746096  0.080450795            1 
  295000    1.1066058   -3.4935381    275.52007  0.077830528  0.080429743            3 
  296000    1.1792601   -3.5095977     275.7032  0.077619144  0.080409044            2 
  297000    1.1139989   -3.5071124    276.43502  0.077563137  0.080386439            2 
  298000    1.1045816   -3.4927964    278.58633  0.077904455  0.080364092            3 
  299000    1.1423653   -3.5439414    277.27689  0.077278955  0.080342917            6 
  300000    1.1330621   -3.5307388    278.64475   0.07740132  0.080317406            2 
  301000    1.1443638   -3.5187224    279.92984  0.077499957  0.080291985            2 
  302000    1.1361738   -3.5249096    281.19259  0.077591773  0.080266782            1 
  303000     1.107948   -3.5159785    280.88161  0.077250168   0.08024361            3 
  304000    1.1377315   -3.5126668    282.43255  0.077421202  0.080219821            2 
  305000    1.1500805   -3.5068301    282.99205  0.077320232  0.080197485            2 
  306000    1.0990398   -3.4931547    285.43919  0.077733984  0.080173272            2 
  307000    1.1275198   -3.5560375    285.86341  0.077595932  0.080150996            3 
  308000    1.1028455   -3.5312762    286.36939  0.077480895  0.080127766            2 
  309000     1.123199   -3.5357184    286.60452   0.07729356  0.080102626            3 
  310000    1.1453961   -3.5283271    288.52176  0.077559613  0.080076808            4 
  311000    1.1242893   -3.5008367    288.88832  0.077408445  0.080052036            2 
  312000    1.1158891   -3.5027772    289.66608  0.077368075    0.0800273            2 
  313000     1.131413    -3.533904    290.20881   0.07726539   0.07999966            2 
  314000    1.1287101   -3.5045578    292.16061  0.077537316  0.079974504            1 
  315000    1.1334545   -3.5142272    291.61983  0.077148103  0.079950954            2 
  316000    1.1183201   -3.5352151    292.74714  0.077201249   0.07992195            2 
  317000    1.1426511   -3.5218427    293.18108  0.077071788   0.07989281            2 
  318000    1.1203021   -3.5348579    292.99999  0.076781967  0.079867373            5 
  319000    1.1543209   -3.5228505    294.30232  0.076881484  0.079839184            4 
  320000    1.1212829   -3.5162451    296.31799  0.077166143  0.079813199            2 
  321000    1.1522179    -3.535792    296.40739   0.07694896  0.079784682            4 
  322000    1.1316646    -3.549192    297.33199  0.076949274    0.0797551            2 
  323000    1.1228806   -3.5253405    297.66498  0.076796951  0.079725285            4 
  324000    1.1375208   -3.5589399    298.49353  0.076773027  0.079693927            2 
  325000    1.1329003   -3.5436332    299.90522  0.076898774  0.079660828            1 
  326000    1.1267246   -3.5200489     301.3307  0.077027275  0.079632122            3 
  327000    1.1379926   -3.5190057    301.86529  0.076927954  0.079601402            1 
  328000    1.1219285     -3.50211    304.03075  0.077243584   0.07957137            3 
  329000    1.0974675   -3.5110699    303.72147  0.076930462  0.079543208            2 
  330000    1.1342856   -3.5179305    304.49043  0.076891521  0.079511213            1 
  331000    1.1282869   -3.5140527    303.38212   0.07638019  0.079479178            1 
  332000    1.1242688   -3.5500978    304.65251  0.076469003  0.079448082            2 
  333000    1.1311478   -3.5415033    303.24565    0.0758873  0.079413657            4 
  334000    1.1052326   -3.5572359    306.03899  0.076357033  0.079378031            3 
  335000    1.1523222   -3.5040735    307.22426  0.076423945  0.079343214            1 
  336000     1.120958   -3.5329796    307.25081  0.076203078  0.079307307            1 
  337000    1.1031672   -3.5254791    308.19649  0.076210804  0.079271759            3 
  338000     1.118169   -3.5583556    309.30886   0.07625958  0.079233075            8 
  339000    1.1140699   -3.5240845    309.49305  0.076079905  0.079195614            4 
  340000    1.1280981    -3.554372    311.00141  0.076225835  0.079158414            4 
  341000    1.1332564   -3.5219269    311.76032   0.07618776  0.079120083            2 
  342000    1.1072834   -3.5272779    312.51393  0.076148618  0.079085165            2 
  343000     1.087592   -3.5451028    313.42778  0.076148634  0.079050516            3 
  344000    1.1154508   -3.5728905    313.78285  0.076013287  0.079014351            5 
  345000    1.1237076   -3.5395315    315.24751  0.076146741  0.078979614            2 
  346000      1.11888   -3.5076749    315.63677  0.076020416  0.078945506            2 
  347000     1.112062   -3.5354761    317.54957  0.076260702  0.078911446            3 
  348000    1.0990116   -3.5500286    317.52331  0.076035274  0.078878862            1 
  349000    1.1324773   -3.5531781    318.06056  0.075945692  0.078846276            2 
  350000    1.1067154   -3.5268247    319.74433  0.076129602  0.078815375            2 
  351000    1.1108271   -3.5530847    320.90343  0.076187898  0.078784773            2 
  352000      1.11329   -3.5379086    320.93072  0.075977917  0.078750066            3 
  353000    1.1344487   -3.5356766    320.97201  0.075772428  0.078718032            2 
  354000     1.124501   -3.5276849    324.58015  0.076407756  0.078685954            2 
  355000    1.0827843    -3.570895    322.84602  0.075785451  0.078652937            1 
  356000    1.0996461   -3.5447061    324.71368  0.076009756  0.078617053            1 
  357000    1.1008988   -3.5322861    324.95219  0.075852519  0.078581596            1 
  358000    1.1132333   -3.5495307    324.89731  0.075627865  0.078545677            2 
  359000    1.1020144   -3.5487289    326.43499  0.075774139  0.078509211            2 
  360000    1.1209174   -3.5594792    326.58103  0.075597461  0.078468829            2 
  361000    1.1097663   -3.5639548    328.02877  0.075722245  0.078431467            3 
  362000    1.0943962    -3.523582    329.93309  0.075951449  0.078395366            1 
  363000    1.1339873   -3.5487833    331.58607  0.076121687   0.07835959            1 
  364000    1.1124223   -3.5128671    330.45296   0.07565315  0.078326523            3 
  365000    1.1149306   -3.5519327    332.36854  0.075883229    0.0782924            1 
  366000    1.1151527   -3.5393385    331.72072  0.075528396  0.078257879            2 
  367000     1.138679    -3.564601    332.47673  0.075494262  0.078222971            2 
  368000    1.1024948   -3.5708318    330.52083  0.074846202  0.078185874            4 
  369000     1.126505   -3.5318973    334.72584  0.075593008   0.07814883            2 
  370000    1.0944089   -3.5321105    334.64906   0.07537141  0.078112373            2 
  371000    1.1014621   -3.5271052    334.91891  0.075228865  0.078075503            2 
  372000    1.1070693   -3.5355688    336.20576   0.07531491  0.078040681            3 
  373000    1.1004019   -3.5515896    337.03511  0.075298283  0.078004133            1 
  374000    1.1109026   -3.5329243    336.47055  0.074971157  0.077966176            2 
  375000     1.098567   -3.5542205    338.41509  0.075203353  0.077928788            1 
  376000    1.1195607   -3.5544045    338.70717  0.075068079  0.077890627            2 
  377000     1.104826   -3.5384206    339.62193  0.075071159  0.077852227            2 
  378000    1.1004847    -3.545532    340.87766  0.075149397  0.077813724            7 
  379000    1.1041398   -3.5743242    338.75308  0.074483968   0.07777532            3 
  380000    1.1096171   -3.5291214     341.0184  0.074784737  0.077733591            4 
  381000    1.1294444   -3.5332136    342.96957  0.075015217  0.077695459            2 
  382000    1.1010623   -3.5728913    342.69249  0.074758396  0.077656991            2 
  383000    1.0985947   -3.5441331    343.21965  0.074677904  0.077617434            2 
  384000    1.1170502   -3.5781596    344.66053  0.074796122  0.077577717            7 
  385000    1.0984456   -3.5699959    345.83678  0.074856445  0.077538616            1 
  386000    1.0713597   -3.5428696    347.83309  0.075093499  0.077501497            2 
  387000    1.0788675    -3.587985    346.18885  0.074545403  0.077462053            1 
  388000    1.1150892   -3.5697862    347.85131  0.074710332  0.077423194            2 
  389000    1.1024986   -3.5368168    349.28352  0.074825089  0.077383487            3 
  390000    1.1059576   -3.5585354    348.85576  0.074541829  0.077343824            3 
  391000    1.0832617   -3.5512961    348.91967  0.074364806  0.077303791            3 
  392000    1.1028603   -3.5645931    349.91672  0.074387057  0.077263046            5 
  393000    1.0897285   -3.5557434    352.13496  0.074668143  0.077221687            1 
  394000    1.1022271   -3.5770597    352.72106  0.074602593  0.077182612            1 
  395000    1.0925889   -3.5434105    353.03027   0.07447896  0.077145346            2 
  396000    1.0939715   -3.5686896    353.67171  0.074425865  0.077105649            5 
  397000    1.0956473    -3.567254    353.60819   0.07422506  0.077065167            1 
  398000    1.0813599   -3.5747679      355.633  0.074462521  0.077026107            2 
  399000    1.1115127   -3.5456195    357.03658  0.074569044  0.076985882            2 
  400000    1.0872939   -3.5751057    356.44022  0.074258378  0.076946835            3 
  401000    1.0730438   -3.5601718    358.33672  0.074467315  0.076907484            1 
  402000    1.0905225   -3.5549269    357.91408   0.07419446  0.076868072            1 
  403000    1.0961236   -3.5696981       359.45  0.074327957   0.07683025            2 
  404000    1.0986842   -3.5553967    361.02105  0.074468038  0.076790764            2 
  405000    1.0870717   -3.5571161    361.08925    0.0742982  0.076753447            2 
  406000    1.1207331   -3.5771777    361.65957  0.074232259  0.076714695            2 
  407000    1.0633518   -3.5947858    362.16494  0.074153346  0.076676006            2 
  408000    1.1039584   -3.5749813    362.56214  0.074052724  0.076637101            1 
  409000    1.1023616    -3.572494    364.09627  0.074184243  0.076596793            1 
  410000    1.0565332   -3.5978501      361.962  0.073569511  0.076555878            2 
  411000    1.1026219   -3.5446408    365.65807  0.074139917  0.076517105            1 
  412000    1.0809351   -3.5842932    366.68395  0.074167465  0.076477972            3 
  413000    1.1213046   -3.5406399    367.30145   0.07411248  0.076442026            1 
  414000    1.0783097   -3.5783859    368.53734  0.074182235  0.076405836            3 
  415000    1.0770677   -3.5742917    369.38577  0.074173848  0.076368977            1 
  416000    1.0645059   -3.5573252    371.03054  0.074325029  0.076333196            1 
  417000    1.0613133   -3.5604531    371.50974  0.074242553  0.076296689            3 
  418000    1.0845385   -3.5422648    372.24921  0.074212363  0.076261539            5 
  419000    1.0858593   -3.6105994    369.96852  0.073581646  0.076224815            2 
  420000    1.1066744   -3.5848123    371.99327  0.073808188  0.076190221            6 
  421000    1.0686337   -3.6037149     372.9459  0.073821438  0.076155278            1 
  422000    1.0746494   -3.6203217    373.89767  0.073834454  0.076120126            4 
  423000    1.0722506   -3.5640804    375.92019  0.074058352  0.076085332            2 
  424000    1.0797267   -3.5679654    376.85324  0.074067068  0.076052303            1 
  425000    1.0733697   -3.5810035    376.76713  0.073875907  0.076017613            4 
  426000    1.0821213   -3.5631753    377.91622  0.073927272  0.075983289            2 
  427000    1.1036035   -3.5831152    379.96133  0.074153266  0.075950724            5 
  428000    1.0705786   -3.5731754    379.05595  0.073803728  0.075919512            3 
  429000    1.0844178   -3.6059666    380.49471   0.07391117  0.075887894            3 
  430000    1.1030917   -3.5881874    380.94088  0.073825751  0.075854741            3 
  431000    1.0786523   -3.6052852    382.74384  0.074003062  0.075822298            5 
  432000    1.0696911    -3.582766     383.0672  0.073894136  0.075789906            4 
  433000    1.0947555   -3.5784849    383.90359  0.073884448  0.075758783            3 
  434000    1.0708884    -3.577475    385.02511  0.073929552  0.075730096            1 
  435000    1.0609357   -3.5898248    385.84397  0.073916468  0.075701199            3 
  436000    1.1037348   -3.5687789    387.17338  0.074001029  0.075673296            1 
  437000    1.1020237   -3.5762347    387.79932  0.073951053  0.075643363            2 
  438000    1.0638361   -3.6127921    389.14715  0.074038652  0.075616215            2 
  439000    1.0659276   -3.5911371    389.16641  0.073873654  0.075587359            1 
  440000    1.0739735   -3.6156547     390.7642  0.074008371  0.075559335            4 
  441000    1.0573482   -3.6059193    391.76878  0.074030381   0.07553077            4 
  442000     1.089836    -3.581081    393.73206  0.074233043  0.075504577            4 
  443000    1.0978869   -3.5898991    392.01263   0.07374203  0.075477649            1 
  444000     1.063064   -3.5871402    394.91374  0.074120448  0.075449202            4 
  445000    1.0733071   -3.5942948    395.69437  0.074100068  0.075421613            3 
  446000    1.0645621   -3.5924973    393.93865  0.073605876  0.075393338            1 
  447000    1.0562665   -3.6003059    396.88883  0.073991207  0.075365828            2 
  448000    1.0856124    -3.602272    395.86237  0.073635114  0.075336512            2 
  449000    1.0758204   -3.5986033    397.71267  0.073814528  0.075307466            2 
  450000    1.0747584     -3.57798    399.73039  0.074024147  0.075277882            3 
  451000    1.0878677   -3.6045675    396.02787  0.073175881  0.075247902            2 
  452000     1.097885   -3.5663866    398.42202  0.073455388   0.07521605            1 
  453000     1.103297   -3.6027543    398.69767  0.073343942   0.07518715            3 
  454000    1.0689402   -3.5922459    401.09254  0.073621978  0.075155831            2 
  455000     1.102371   -3.5693945    400.45688  0.073343752  0.075124739            1 
  456000    1.1019793    -3.583387    401.97661  0.073460638  0.075093658            4 
  457000    1.0827483   -3.5939235    403.07576   0.07350032  0.075064603            2 
  458000    1.0939924   -3.6068212    404.36406  0.073574246  0.075036607            1 
  459000    1.0748246   -3.5851194    406.25029  0.073756406   0.07500898            3 
  460000    1.0957487   -3.5925472    405.15572  0.073397776  0.074980261            2 
  461000    1.0735081   -3.6234178    407.57357  0.073675627  0.074952288            4 
  462000    1.0828676   -3.6119655    406.78562  0.073374029  0.074924036            1 
  463000     1.085347   -3.5987829    407.83541  0.073404502  0.074895116            5 
  464000    1.0558899    -3.612603    408.57553  0.073379226  0.074865958            2 
  465000    1.0790069   -3.5837623    407.99005  0.073116496   0.07483572            1 
  466000    1.0859524   -3.6132013    410.23525  0.073361095  0.074807671            3 
  467000    1.0771766   -3.6255408    408.60929  0.072913863  0.074780164            6 
  468000     1.086527   -3.5784516    412.42576  0.073437636  0.074752049            3 
  469000    1.0938273   -3.5990571     413.4908  0.073470291   0.07472463            2 
  470000    1.0551157   -3.6149002    414.02272  0.073408284  0.074697569            3 
  471000    1.0721099   -3.6201686    413.04319  0.073079121  0.074669756            5 
  472000    1.0587664   -3.6271111    413.63034  0.073027955  0.074643663            4 
  473000    1.0630603   -3.6123748    415.42149  0.073189127  0.074614732            1 
  474000    1.0448422   -3.5935859    415.87811  0.073114998  0.074586954            2 
  475000    1.0647506   -3.5988415    417.48421  0.073242845  0.074561641            2 
  476000    1.0753936   -3.5986931    416.91257  0.072988896  0.074535584            3 
  477000    1.0755502   -3.5987831    418.08164  0.073040119  0.074508637            1 
  478000    1.0394891    -3.601456    419.45425  0.073126612   0.07448209            2 
  479000    1.0491087   -3.5958402    420.34516  0.073128943  0.074456621            1 
  480000    1.0546462   -3.6110666    421.92062  0.073250107  0.074429593            1 
  481000    1.0535884   -3.6749048    419.32395  0.072647947  0.074402694            1 
  482000    1.0543023   -3.5961452    424.05326   0.07331488  0.074375022            2 
  483000    1.0528723   -3.6200146    422.10954  0.072827733    0.0743489            2 
  484000    1.0586593   -3.5931038    423.76873  0.072962936  0.074323048            2 
  485000    1.0560307    -3.603332    422.96016  0.072673567  0.074295798            2 
  486000    1.0606899   -3.6079948    424.37005  0.072765783  0.074269213            7 
  487000    1.0523343   -3.6228563    424.45416   0.07263076  0.074242017            4 
  488000    1.0727291   -3.6133588    425.56702  0.072671963  0.074213358            7 
  489000    1.0595596   -3.6332803    425.98926  0.072595307  0.074184973            2 
  490000    1.0465515   -3.6040431     427.2115  0.072655017  0.074156129            2 
  491000     1.062693   -3.6142106    427.98608  0.072638506  0.074127395            1 
  492000    1.0389848   -3.6281054    429.46689  0.072741683  0.074097744            1 
  493000    1.0588791   -3.6135944     428.1544  0.072372278  0.074066883            2 
  494000    1.0550439   -3.6489657     429.7618  0.072496929  0.074035524            4 
  495000    1.0813144   -3.6069239    429.51022  0.072308118  0.074005168            2 
  496000    1.0527208   -3.6231422    429.87809  0.072224141  0.073975732            2 
  497000    1.0316512   -3.6102918    431.57426  0.072363222  0.073945607            3 
  498000    1.0446544    -3.601698    431.84545  0.072263295  0.073914742            3 
  499000    1.0539424   -3.6335313     432.8857  0.072292201  0.073884755            1 
  500000    1.0613953   -3.6623234    431.57125  0.071928542  0.073852293            4 
  501000    1.0447611   -3.6130415    433.71302   0.07214122  0.073819243            4 
  502000    1.0780124   -3.6132215    435.49987  0.072294136   0.07378623            1 
  503000    1.0463957   -3.5988978    433.38709   0.07180038  0.073753112            2 
  504000    1.0630476   -3.6296526     434.4775  0.071838211  0.073720905            2 
  505000    1.0584925   -3.6195028     435.2223  0.071818861  0.073689076            5 
  506000    1.0574835   -3.6134644    436.39068  0.071869348    0.0736573            2 
  507000    1.0331359   -3.6408365    437.59809   0.07192605  0.073624386            1 
  508000    1.0450886   -3.6434753     435.5373  0.071446408  0.073590062            2 
  509000    1.0465125   -3.6298391    436.67491   0.07149229  0.073555338            2 
  510000     1.055151   -3.6188042    440.14998  0.071919931  0.073520362            2 
  511000    1.0475373   -3.5888236    440.62886  0.071857282  0.073486341            1 
  512000     1.047504    -3.627187    439.18577  0.071482059  0.073451293            6 
  513000     1.057605     -3.64606    441.60303  0.071735384  0.073417973            4 
  514000    1.0372459   -3.6532965    442.45406  0.071733797  0.073384631            3 
  515000    1.0229902   -3.6184774    442.56881  0.071613076   0.07335113            8 
  516000     1.034867   -3.6331839    442.05387  0.071391129  0.073317839            3 
  517000    1.0512973   -3.6261725    441.81709  0.071214875  0.073284971            2 
  518000    1.0491819   -3.6231254    444.72219  0.071544754  0.073251971            2 
  519000    1.0519611   -3.6218012    445.53291  0.071537076  0.073218203            2 
  520000      1.04884   -3.6382659    445.00714  0.071315247  0.073183459            2 
  521000    1.0576134   -3.6248257    445.81508  0.071307594  0.073148571            3 
  522000    1.0671008   -3.6478769     445.2975  0.071088362  0.073114173            3 
  523000    1.0635793   -3.6202323    447.41362  0.071289614  0.073078629            2 
  524000    1.0445008   -3.6329725    447.63413  0.071188634  0.073043587            4 
  525000    1.0428939   -3.6209065    448.89415   0.07125304  0.073008614            1 
  526000    1.0401304   -3.6245701    447.76732  0.070939055   0.07297332            2 
  527000    1.0573992   -3.6631836    447.91043  0.070827076  0.072937882            1 
  528000    1.0360904    -3.633343    450.41032  0.071087487  0.072901767            3 
  529000    1.0606154   -3.6354147    451.29437  0.071092371  0.072867209            2 
  530000    1.0593568   -3.6375776     450.1311   0.07077533  0.072831337            5 
  531000    1.0229749   -3.6511247    450.73503  0.070736821  0.072793323            3 
  532000    1.0750485   -3.6276659    450.94968  0.070637481  0.072756086            3 
  533000    1.0586436   -3.6607551    452.78398  0.070791741  0.072719021            4 
  534000    1.0567212   -3.6588219    452.09957  0.070552367  0.072681774            3 
  535000    1.0409635   -3.6541969    455.17075  0.070898871  0.072644627            2 
  536000    1.0214986   -3.6485469    453.93077  0.070573814  0.072608702            1 
  537000    1.0429356   -3.6396413    453.97305  0.070448953  0.072571883            2 
  538000    1.0118495   -3.6348527     457.3377  0.070839173  0.072533909            2 
  539000    1.0297548   -3.6184429    456.35931  0.070556479  0.072497542            2 
  540000    1.0433131   -3.6478946    457.39671  0.070585913  0.072460418            2 
  541000    1.0099084   -3.6565087    457.28167  0.070437718  0.072423364            3 
  542000    1.0507004   -3.6569861     457.9155  0.070405212  0.072386734            2 
  543000    1.0484113   -3.6458146    458.67012  0.070391362  0.072349843            1 
  544000    1.0226351   -3.6381197    460.06278  0.070475303  0.072312244            2 
  545000    1.0427959   -3.6533638    460.62556  0.070432043   0.07227548            1 
  546000     1.071846   -3.6239889    461.50995  0.070438027   0.07223849            1 
  547000    1.0212241   -3.6488017    460.84521  0.070207984  0.072202229            2 
  548000    1.0436891   -3.6678278    462.70689   0.07036297  0.072166521            2 
  549000    1.0056146   -3.6651121    461.76508  0.070091845  0.072131427            5 
  550000    1.0408122   -3.6508012    465.77887  0.070572556  0.072095706            1 
  551000    1.0367175   -3.6407868    463.90679  0.070161341  0.072061431            3 
  552000    1.0377061   -3.6602643     464.4887  0.070122086  0.072025724            5 
  553000    1.0335327   -3.6624129    467.31829  0.070421683  0.071990898            3 
  554000    1.0187725   -3.6471752    467.75099  0.070359655  0.071957284            3 
  555000    1.0137839   -3.6783607    466.42965  0.070034482  0.071923017            2 
  556000    1.0360222   -3.6573816    468.77547  0.070260112  0.071887907            2 
  557000    1.0544049   -3.6296032    472.28828  0.070659527  0.071854585            3 
  558000    1.0283223   -3.6359643     469.6966  0.070145849  0.071820345            2 
  559000    1.0363205    -3.668866    471.32566  0.070263216  0.071786191            3 
  560000    1.0315543   -3.6587362    470.40407  0.070000605  0.071752167            3 
  561000    1.0201516   -3.6494683    472.05846  0.070121577  0.071716705            2 
  562000      1.02512    -3.654142    471.46723  0.069909139  0.071680922            7 
  563000    1.0340901   -3.6672338    471.84511  0.069840899  0.071645187            3 
  564000    1.0307556   -3.6429178    473.31271   0.06993391    0.0716103            1 
  565000    1.0190094   -3.6870508     473.5244  0.069841357  0.071574746            2 
  566000     1.006391   -3.6486103    473.21651  0.069672631  0.071538784            2 
  567000    1.0008385   -3.6654492     474.7559  0.069775999  0.071503374            2 
  568000    1.0513461   -3.6606172    476.52622  0.069912884   0.07146764            2 
  569000    1.0204306   -3.6540531    475.14235  0.069587339  0.071432397            5 
  570000    1.0460714   -3.6427597    478.51408  0.069958199  0.071398443            7 
  571000    1.0282306   -3.6504193    478.04293  0.069766919    0.0713621            3 
  572000    1.0362451   -3.6671063    477.24128  0.069528158  0.071327702            3 
  573000    1.0210524   -3.6430943    479.00507  0.069663332  0.071292909            3 
  574000    1.0085913   -3.6894086    478.70892  0.069498972  0.071258297            2 
  575000    1.0331882   -3.6652836    478.25222  0.069311915  0.071222764            4 
  576000     1.028571   -3.6585208    479.86141  0.069424394   0.07118675            4 
  577000    1.0160685   -3.6514388     482.6311  0.069704087  0.071151681            3 
  578000    1.0181039   -3.6844619    482.89129  0.069621004  0.071117519            4 
  579000    1.0139509   -3.6655095     481.2585   0.06926576  0.071082772            2 
  580000    1.0204996   -3.6563956    483.68238  0.069494595  0.071047734            3 
  581000    1.0250476   -3.6536054    483.63517  0.069368211  0.071012854            1 
  582000    1.0100396   -3.6558809    483.62815  0.069248016  0.070975868            3 
  583000    1.0193764   -3.6761477    484.50848  0.069255071  0.070940272            2 
  584000    1.0129569   -3.6761719    485.31915  0.069252162  0.070905628            5 
  585000    1.0196324   -3.7030458    485.12422  0.069106014  0.070871862            3 
  586000   0.99834838   -3.6636972    489.34084  0.069587719  0.070837189            2 
  587000    1.0180661   -3.6446254    489.90582  0.069549377  0.070803823            2 
  588000    1.0387709   -3.6628202    488.35999  0.069212016  0.070771369            3 
  589000    1.0084084   -3.6597769     490.2934  0.069368053  0.070737523            3 
  590000    1.0273993   -3.6880496     489.4454  0.069130707  0.070702651            2 
  591000    1.0106817   -3.6849966    490.03082  0.069096281   0.07066873            1 
  592000     1.025437    -3.701544    491.99366  0.069255864  0.070635716            3 
  593000    1.0089148   -3.6400892    492.59708  0.069223874  0.070602378            2 
  594000      1.00667   -3.6854102    494.49691  0.069373865  0.070568299            2 
  595000    1.0168999   -3.6816725    491.65147  0.068858749  0.070534171            2 
  596000    1.0065746   -3.6842647    492.61727  0.068878254  0.070499781            8 
  597000   0.98604118   -3.7024303    494.61852  0.069042228  0.070465643            3 
  598000    1.0075137   -3.6576484    496.81936  0.069233467  0.070431638            3 
  599000       1.0254   -3.6756841    495.96029  0.068998371  0.070399747            3 
  600000    1.0134137   -3.7285839    496.77701  0.068996806  0.070367572            1 
  601000    1.0083364   -3.6761281    498.00016  0.069051602  0.070334508            2 
  602000    1.0125239   -3.7024188    499.29831  0.069116599  0.070301927            5 
  603000   0.99822324    -3.700795    498.36624  0.068873167  0.070268799            2 
  604000    1.0286191   -3.6590033    498.76625  0.068814328  0.070236147            3 
  605000    1.0332843    -3.689291    499.91624  0.068858987  0.070202526            2 
  606000    1.0111659   -3.6681153    500.70983  0.068854487   0.07016897            1 
  607000    1.0243915   -3.6803661    501.51055  0.068850981  0.070136743            3 
  608000    1.0012618   -3.6837405    502.91259  0.068929905  0.070104673            1 
  609000    1.0156576   -3.7037796    501.34797  0.068602623  0.070072297            2 
  610000   0.99764921    -3.679155    503.26687  0.068752304  0.070039546            3 
  611000    1.0172737   -3.6886067    502.96472  0.068598571  0.070006761            4 
  612000     1.033597   -3.6911782     503.8759  0.068610553  0.069974137            2 
  613000    1.0014145   -3.7028356    506.75549  0.068890088  0.069942139            4 
  614000    1.0111445   -3.6969783     506.3417  0.068721729  0.069910522            3 
  615000    1.0173595   -3.7023625    507.54356  0.068772839  0.069878756            2 
  616000   0.98785441    -3.690768    508.78097  0.068828594  0.069848145            4 
  617000    1.0088845   -3.6772229    508.63749  0.068697662  0.069816622            2 
  618000    1.0090719   -3.6908313    507.13129  0.068383399   0.06978552            8 
  619000    1.0201702   -3.7042677    510.41209  0.068714606  0.069754032            7 
  620000     1.021805    -3.697539    509.45987  0.068475789  0.069723213            3 
  621000    1.0136206   -3.6638571    512.90784  0.068828213  0.069692232            2 
  622000    1.0103478   -3.7034097     512.6904  0.068688424  0.069661176            1 
  623000   0.99723412   -3.6680799    512.46781  0.068548396  0.069629913            6 
  624000    1.0018083   -3.6989237    511.21815  0.068271654  0.069599475            1 
  625000   0.98377215   -3.6900131    514.28783   0.06857171   0.06956749            4 
  626000    1.0039857   -3.7177596    513.82492  0.068400549   0.06953628            3 
  627000    1.0241346   -3.6889652    515.58205  0.068524993   0.06950453            2 
  628000    1.0121784   -3.6632165    516.10168   0.06848483  0.069473176            1 
  629000     1.002668   -3.7009854    514.70391  0.068190767  0.069442324            3 
  630000    1.0111807    -3.710793    515.15888  0.068142709  0.069410675            4 
  631000    1.0011347   -3.6943615      516.384  0.068196513  0.069378712            2 
  632000     1.013715   -3.7001198    514.79562   0.06787917  0.069347382            3 
  633000   0.99032417   -3.7173634    519.32621   0.06836838  0.069316053            2 
  634000   0.99768885   -3.7011146    516.13141  0.067840616  0.069284692            4 
  635000   0.99099023   -3.6924516    518.05577  0.067986321   0.06925285            5 
  636000      0.98766    -3.711777    519.84109  0.068113351  0.069220128            3 
  637000   0.99703929   -3.7348141    519.88587  0.068012281  0.069188213            5 
  638000   0.99814321    -3.671977    521.69008  0.068141337  0.069156526            3 
  639000    1.0299544   -3.6957317    521.06199  0.067952789  0.069125584            3 
  640000   0.98320595   -3.7078666     522.4989  0.068033711  0.069094622            3 
  641000   0.99208241   -3.7002873    522.74254  0.067959249  0.069063375            4 
  642000   0.97549987   -3.6949262    525.96893  0.068272187  0.069032231            3 
  643000    1.0156579   -3.7403827    524.07086  0.067920018  0.069001277            2 
  644000    1.0109392   -3.7038447    527.15438  0.068213559  0.068970801            3 
  645000   0.99115333   -3.7038216    527.82805  0.068194838  0.068941896            2 
  646000   0.99817358   -3.7121342    526.86996  0.067965681  0.068911953            3 
  647000    0.9949638   -3.6955726     527.1221  0.067893109  0.068883736            4 
  648000    1.0026088   -3.6800162    528.02892  0.067904954  0.068854296            3 
  649000    1.0073851     -3.71848     531.8827   0.06829516  0.068825415            3 
  650000   0.97623278   -3.7073284    530.95072  0.068070604  0.068796929            2 
  651000   0.99470329   -3.7036924    531.70682  0.068062829  0.068769146            3 
  652000     0.979129   -3.7235349    532.61605  0.068074649  0.068740484            3 
  653000   0.98376001   -3.7430618    530.98188  0.067761852  0.068711781            3 
  654000    1.0008797   -3.7136774    532.82669  0.067893309  0.068682967            4 
  655000    1.0454979    -3.732923    534.18997    0.0679631  0.068654759            2 
  656000   0.99281371    -3.739616    533.01073  0.067709696  0.068625814            2 
  657000   0.99118192   -3.7088648    533.97874  0.067729419  0.068595923            2 
  658000   0.99448132   -3.7055063    535.48136  0.067816789  0.068567428            4 
  659000   0.99235573   -3.7366685    536.83472  0.067885018  0.068538609            4 
  660000   0.99072086   -3.7278182    534.41456  0.067476586  0.068509684            2 
  661000    1.0125403   -3.7177583    537.51383  0.067765234  0.068480152            3 
  662000    1.0049291   -3.7377186      537.174  0.067620091  0.068451342            3 
  663000    1.0011156   -3.7227344    538.76703   0.06771833  0.068423032            2 
  664000     1.001894    -3.722855    537.91407  0.067509296   0.06839376            2 
  665000   0.99826332    -3.706815     538.4445  0.067474248  0.068365116            3 
  666000   0.97750261   -3.7368373    537.84895  0.067298418  0.068335682            2 
  667000   0.96707958   -3.7043095    539.73057  0.067432605  0.068307336            2 
  668000   0.99990898   -3.7036819    540.89475  0.067476889   0.06827859            2 
  669000   0.99724118    -3.699284    541.06341  0.067397036  0.068250476            1 
  670000   0.98643018   -3.6995346    543.64639   0.06761771  0.068222831            3 
  671000   0.96858256   -3.7086308     543.3876  0.067484799  0.068194219            3 
  672000   0.98424355   -3.7412706    544.43917  0.067514778    0.0681666            2 
  673000   0.98454998   -3.7496862    545.60993  0.067559427    0.0681385            1 
  674000   0.99753669   -3.6852499    547.82017  0.067732464  0.068110546            2 
  675000   0.98650645   -3.7194168    543.89981  0.067148124  0.068083179            2 
  676000   0.99494275   -3.7006033    546.66984  0.067390266  0.068055021            2 
  677000   0.99456411   -3.7182571    545.49505  0.067146116  0.068026831            4 
  678000   0.97267523   -3.7146484    547.52202  0.067296216  0.067997796            3 
  679000   0.98478316   -3.7731634    545.83466  0.066990017  0.067969592            4 
  680000    1.0125748   -3.7541099     546.1098  0.066925221  0.067940451            5 
  681000   0.96725734   -3.7119099    547.47159  0.066993586  0.067911302            4 
  682000   0.99396858   -3.7099147    549.39712  0.067130635  0.067881874            8 
  683000   0.99566175   -3.7154596    549.16283  0.067003762  0.067852316            4 
  684000   0.98023036   -3.7305727    550.10878  0.067021051  0.067822055            2 
  685000     1.007476   -3.7103662    547.91095  0.066655833  0.067792636            2 
  686000   0.96904858   -3.7201287    549.71199  0.066777452  0.067763267            2 
  687000   0.96906023   -3.7161939    550.57338  0.066784738  0.067732602            3 
  688000    0.9758368   -3.7433643    552.60072  0.066933227  0.067702497            8 
  689000   0.97330938   -3.7575804    553.01445  0.066886121  0.067672695            3 
  690000   0.99260937   -3.7393668    553.28765   0.06682218  0.067643519            5 
  691000   0.96372142   -3.7442454    554.16053  0.066830743  0.067614733            3 
  692000   0.97504726   -3.7806349    552.88081  0.066580058  0.067585875            6 
  693000    0.9824588   -3.7425852    554.94942  0.066732734  0.067556354            4 
  694000   0.95354318   -3.7541058    554.78502  0.066616837   0.06752747            3 
  695000   0.99776426   -3.7144753    557.54563  0.066851994  0.067498327            3 
  696000   0.97308258    -3.739646     557.0411  0.066695534  0.067468867            4 
  697000   0.96962561   -3.7822584    556.20741  0.066500169  0.067439604            3 
  698000   0.96686352   -3.7542465    556.89534  0.066487027  0.067409293            4 
  699000   0.98934358   -3.7604665    557.04272   0.06640948  0.067379528            4 
  700000   0.98145265   -3.7193417    559.02096  0.066550114  0.067349937            1 
  701000   0.99127578    -3.727947    559.95735  0.066566495  0.067320889            5 
  702000   0.97311427   -3.7264426    561.42991  0.066646476  0.067292499            2 
  703000   0.96655229   -3.7316721    560.74627  0.066470634  0.067263109            2 
  704000   0.95487014   -3.7330898    561.54436  0.066470687  0.067233884            8 
  705000   0.95966443   -3.7594073    559.23709  0.066103675  0.067204434            3 
  706000   0.98453594   -3.7375237    562.15608  0.066354589  0.067174666            3 
  707000   0.93988245   -3.7572614    563.17479  0.066380809  0.067144726            3 
  708000   0.97671333    -3.776488    559.58428  0.065864439  0.067114419            3 
  709000   0.98290169   -3.7251273    564.69754  0.066372536  0.067085349            3 
  710000   0.94741843   -3.7398196    564.69731  0.066279027  0.067056301            1 
  711000   0.96006286   -3.7264471    566.38624  0.066383759  0.067026828            5 
  712000   0.97564148   -3.7598351    564.82142  0.066107376  0.066997042            4 
  713000   0.94891774   -3.7501452    563.93531  0.065911093  0.066966271            6 
  714000   0.97580006   -3.7316924    566.68528  0.066139739  0.066936481            3 
  715000   0.96406414   -3.7636103    567.96398  0.066196268  0.066906168            2 
  716000   0.94777538   -3.7850691    565.25795  0.065788867  0.066875311            9 
  717000   0.96655598   -3.7346455    568.21435   0.06604072  0.066843682            4 
  718000    0.9612594   -3.7330828    567.97818   0.06592133  0.066812654           10 
  719000   0.97323315   -3.7294657    568.07805   0.06584122  0.066781466            3 
  720000   0.95825075   -3.7231871    566.74282  0.065595233  0.066749588            4 
  721000   0.96005987   -3.7541832    567.57765  0.065600746  0.066717404            2 
  722000   0.95491396   -3.7423181    568.41431  0.065606453   0.06668564            3 
  723000   0.96834688   -3.7486481    570.74063  0.065783843  0.066654785            2 
  724000    0.9640199   -3.7761081    571.21828   0.06574796  0.066623468            2 
  725000   0.97591055   -3.7670151    570.77345  0.065606144  0.066592187            3 
  726000   0.94622065   -3.7709476    571.94824  0.065650625  0.066560932            2 
  727000   0.97303974   -3.7321641    570.62677  0.065408846  0.066529909            1 
  728000   0.98086967   -3.7301204    574.29895  0.065739348  0.066498863            3 
  729000   0.95844559   -3.7640431    573.28455  0.065533213  0.066468314            5 
  730000   0.97537347   -3.7632635    574.96198  0.065634929  0.066437774            7 
  731000   0.98587714   -3.7671338    575.86302  0.065647859  0.066407114            2 
  732000    0.9651766   -3.7978938    574.52588  0.065405952  0.066376867            3 
  733000   0.97178977   -3.7319979    577.80533  0.065689556  0.066347459            4 
  734000   0.93609457   -3.7659632    576.71743  0.065476547  0.066317672            2 
  735000   0.94325569   -3.7729917    577.12138  0.065433264  0.066287368            7 
  736000   0.95141401   -3.7504257    577.92425  0.065435264  0.066257235            4 
  737000   0.96398927   -3.7974903    576.67208  0.065204893  0.066226543            3 
  738000   0.96664255   -3.7494767    580.82191   0.06558513  0.066196406            2 
  739000   0.94028448   -3.7627643    580.05771  0.065410206   0.06616628            2 
  740000   0.94345854   -3.7420997    580.32973  0.065352447  0.066136289            6 
  741000   0.94507032   -3.7832149    580.30363  0.065261317   0.06610627            3 
  742000   0.96048647   -3.7772126    580.97478   0.06524874  0.066075888            6 
  743000   0.96788015   -3.7904681    580.26104  0.065080871  0.066046078            3 
  744000   0.94919085   -3.8078464    581.03937  0.065080574   0.06601551            3 
  745000   0.96045883   -3.7653187    583.91441  0.065314811  0.065985145            3 
  746000    0.9448444   -3.7696957    584.28458  0.065268608  0.065955652            2 
  747000    0.9539058   -3.7843193    585.99906  0.065372497  0.065926526            1 
  748000   0.96293754   -3.7756543    583.63049  0.065021222  0.065896611            7 
  749000   0.96039269   -3.7670936    585.83972  0.065180209  0.065867322            8 
  750000   0.95712053   -3.8031949    586.09946  0.065122162   0.06583845            4 
  751000   0.95669802   -3.7839282    586.66333  0.065098017  0.065809193            2 
  752000   0.92944885   -3.7730872    587.63387  0.065119001  0.065780499            2 
  753000   0.95084006   -3.7955001    589.82124  0.065274595  0.065751713            7 
  754000   0.95879575   -3.7829652    588.33081  0.065023299  0.065722045            6 
  755000   0.95446543   -3.8173993    586.74025  0.064761616  0.065693462            3 
  756000   0.94761929   -3.8004439    588.06919  0.064822441  0.065663876            2 
  757000   0.97851434    -3.745181    589.84126  0.064931887  0.065634097            3 
  758000   0.94163367   -3.7895966    586.96182  0.064529664  0.065604251            2 
  759000    0.9201713   -3.8008095    590.71827  0.064857078  0.065574371            8 
  760000   0.93512227   -3.7829289    588.94158  0.064576928  0.065543626            1 
  761000   0.96481401   -3.7777355    589.58889  0.064562953  0.065513153            3 
  762000   0.96576113   -3.7992215    591.45036  0.064681798    0.0654829            5 
  763000    0.9544079   -3.7696275    590.97154  0.064544729  0.065450566            4 
  764000   0.94041218   -3.7894259    593.06925  0.064689055  0.065419566            4 
  765000   0.92610205   -3.7923154     593.0179    0.0645989  0.065388917            4 
  766000   0.95842527   -3.7841223    591.72477  0.064373886   0.06535753            3 
  767000    0.9342439   -3.8004357    593.43261  0.064475512  0.065326429            4 
  768000    0.9631418   -3.7735786    594.24543  0.064479756  0.065295714            2 
  769000   0.94055204   -3.7962647    592.46219  0.064202665  0.065264506            2 
  770000   0.95595898    -3.781012    593.20792  0.064199991  0.065233123            2 
  771000   0.94934436   -3.7913676    595.76828  0.064393459  0.065201354            7 
  772000   0.94289232    -3.788822    594.69112  0.064193774  0.065170933            3 
  773000   0.93199274   -3.7709686    596.06031  0.064258335  0.065140246            7 
  774000   0.93524987    -3.800563    594.11524  0.063965896  0.065108795            4 
  775000   0.95671148   -3.8166318    596.85709  0.064178182  0.065077326            2 
  776000    0.9602676   -3.7992555    597.30706    0.0641438  0.065046689            2 
  777000   0.94479994   -3.7531358    598.24211  0.064161531  0.065015227            4 
  778000   0.90965593    -3.807331    597.78059  0.064029627  0.064984567            4 
  779000   0.95422152   -3.7962677    600.28081  0.064214892  0.064954121            5 
  780000   0.91700246   -3.7594292    600.60235  0.064166918  0.064923573            2 
  781000   0.95386932    -3.780178    601.12391  0.064140409  0.064893496            8 
  782000   0.93925616    -3.800174     599.6883  0.063905403  0.064862665            2 
  783000   0.96283268   -3.7933603    601.49971  0.064016572  0.064832111            3 
  784000   0.93825535   -3.8179669    600.72031  0.063852073  0.064801702            3 
  785000   0.93884755   -3.7782231    603.36417  0.064051399  0.064771321            6 
  786000   0.93608687   -3.7892037     601.7521  0.063798992  0.064741999            2 
  787000   0.91427322   -3.7886298    607.25586  0.064300705  0.064711988            1 
  788000   0.94597566   -3.7792834    604.07153  0.063882353  0.064682034            5 
  789000    0.9496869   -3.7871862    607.99492  0.064215771  0.064652891            3 
  790000   0.93661349   -3.7938618    608.12331  0.064148029  0.064623911            3 
  791000   0.94687104   -3.7750037    608.79093  0.064137266  0.064595619            2 
  792000   0.92474566   -3.7911578    607.07948  0.063876208  0.064566773            2 
  793000   0.90877795    -3.796151    608.08907  0.063901752   0.06453721            2 
  794000   0.92869544   -3.8185272    607.22823  0.063730923  0.064507707            7 
  795000   0.92500087   -3.8163952    607.23966  0.063651955  0.064478017            4 
  796000   0.93044725   -3.8274789    608.59162  0.063713528  0.064448561            4 
  797000   0.95853905   -3.7757492    612.43856  0.064035817    0.0644193            2 
  798000   0.90142809    -3.775986    610.42289   0.06374508  0.064389315            2 
  799000   0.94417701   -3.8350926    608.82895  0.063499056  0.064358857            5 
  800000   0.93934535   -3.8358108    611.54332  0.063702429  0.064329183            2 
  801000   0.95243797   -3.7804546    612.78989   0.06375259  0.064299591            5 
  802000   0.94298555   -3.8131079    612.70734   0.06366452  0.064269975            4 
  803000   0.93961245    -3.831816    610.67848  0.063374686  0.064240253            4 
  804000    0.9378443   -3.7842583    617.00388   0.06395148  0.064210448            4 
  805000   0.92157606   -3.8313232    611.10132  0.063261006  0.064180715            5 
  806000    0.9442866   -3.8129258    611.26485  0.063199426  0.064150527            3 
  807000   0.92999752   -3.8033429    614.66477  0.063472199  0.064121187            2 
  808000   0.91501004   -3.8406239     613.1762  0.063240119  0.064092554            4 
  809000   0.95075994   -3.7921079     618.0474  0.063663721  0.064063413            4 
  810000   0.91648606   -3.8224272    616.48115  0.063423987  0.064034108            3 
  811000   0.93509462   -3.8010566    617.20186  0.063419837  0.064005125            7 
  812000   0.94129889   -3.8078132    618.01737  0.063425428  0.063976781            2 
  813000    0.9196015   -3.8020542    622.09642  0.063765521  0.063948053            4 
  814000   0.90003372   -3.7990046    619.95556  0.063468013  0.063919086            5 
  815000   0.92787978   -3.8299184    618.86534  0.063278664   0.06389076            3 
  816000   0.92974332   -3.8114946    620.27201  0.063344772  0.063862118            3 
  817000   0.93235165    -3.830525     621.8981  0.063433098  0.063833938            3 
  818000   0.94762219   -3.8245564    621.65606  0.063330894  0.063805213            4 
  819000   0.91960584   -3.8257309    621.12253   0.06319928   0.06377675            2 
  820000   0.92254264   -3.8166556    623.02286  0.063315331   0.06374837            3 
  821000    0.9194539   -3.8363689     623.9704  0.063334389  0.063719769            4 
  822000   0.92671207   -3.8287944    623.57923  0.063217683  0.063691162            3 
  823000   0.93522825   -3.8328752    624.94728  0.063279393  0.063662858            2 
  824000   0.93051857   -3.8149798    623.82336  0.063088932  0.063634272            2 
  825000   0.92092417   -3.8158514    626.45353  0.063278134  0.063606147            2 
  826000   0.93341382   -3.7939746    623.44438   0.06289794  0.063577492            5 
  827000   0.91319514   -3.8272027    626.80254  0.063160272  0.063548971            3 
  828000   0.91139507   -3.8084614    628.62273  0.063267183  0.063520667            3 
  829000   0.93276315   -3.8480355    626.63291  0.062990844   0.06349231            4 
  830000   0.92304103   -3.8410586    626.66051  0.062917721  0.063463449            3 
  831000   0.91053026    -3.820887    628.16123  0.062992502  0.063435565            3 
  832000   0.92348199   -3.8334668    629.64874  0.063065779   0.06340794            4 
  833000   0.90288199   -3.8274952    628.88934  0.062914099  0.063379551            6 
  834000   0.90265978   -3.7997495    629.36641  0.062886332  0.063351537            2 
  835000   0.91500328   -3.8189247    632.52373   0.06312612  0.063324309            3 
  836000    0.9310164   -3.8252652    631.29844  0.062928472  0.063297134            2 
  837000   0.93335509   -3.8333274     631.7868  0.062901912  0.063269421            3 
  838000   0.90912906   -3.8296462    635.56492  0.063202558  0.063242801            6 
  839000   0.92710409   -3.8210989    634.01368  0.062973151  0.063215922            3 
  840000   0.92665724    -3.861284    634.68783  0.062965063  0.063189359            5 
  841000   0.92428291   -3.8563505    635.16714  0.062937687   0.06316213            3 
  842000   0.91508085   -3.8300236    634.59045  0.062805864  0.063134939            4 
  843000   0.91165994   -3.8306071    634.39051  0.062711597  0.063107763            3 
  844000    0.9460268   -3.8589016    634.38983  0.062637227   0.06307981            3 
  845000   0.91727954    -3.847274    635.27563  0.062650457  0.063052439            2 
  846000   0.92363289   -3.8264826     637.5878  0.062804157  0.063024691            4 
  847000   0.90760909   -3.8441714    635.64517  0.062538879  0.062997121            2 
  848000   0.89890637   -3.8154284    638.87422  0.062782451  0.062968895            5 
  849000   0.91983077    -3.837853     636.1652  0.062442599  0.062941729            4 
  850000   0.89246959   -3.8132598     640.7977  0.062823304  0.062914013            3 
  851000    0.9183502   -3.8115423    639.54162  0.062626481  0.062886963            2 
  852000   0.89098563   -3.8320154    639.87575  0.062585657  0.062860176            2 
  853000   0.91828992   -3.8636983    640.18822  0.062542811   0.06283301            4 
  854000   0.93132643   -3.8371379    641.22943  0.062571178  0.062806414            6 
  855000    0.9222793    -3.831653    641.39769  0.062514395  0.062779488            4 
  856000     0.902208    -3.830842    641.59643  0.062460711  0.062752369            2 
  857000   0.90940369   -3.8639592    640.68409  0.062299114  0.062725337            2 
  858000   0.90988319   -3.8283284    644.31996  0.062579638  0.062698295            5 
  859000    0.9142887    -3.873655    640.88796  0.062173841  0.062670992            2 
  860000   0.90746468   -3.8481029    641.12605  0.062124617  0.062643043            3 
  861000   0.92581835   -3.8308891    644.58866  0.062387598  0.062615112            3 
  862000   0.89902702   -3.8133857    643.82804   0.06224169  0.062587792            5 
  863000   0.90412617   -3.8484924    644.61928  0.062245972  0.062560176            3 
  864000   0.89401519   -3.8536169    644.26926  0.062140168   0.06253219            5 
  865000   0.90640756    -3.867044    645.59441  0.062195993  0.062504091            2 
  866000   0.90283552   -3.8422948    646.88123  0.062248001  0.062476548            2 
  867000   0.89922069   -3.8627784    646.40522  0.062130452  0.062448621            2 
  868000    0.9180621   -3.8378443    647.77103  0.062189999   0.06242059            3 
  869000   0.92399731   -3.8570739    648.50582  0.062188898  0.062392961            3 
  870000   0.90727234   -3.8630899    644.23734  0.061708558  0.062364931            5 
  871000   0.92165437    -3.837913    646.92668  0.061895013  0.062336496            4 
  872000   0.90567952   -3.8278791    651.07578  0.062220545  0.062308665            6 
  873000   0.90632628   -3.8483459    645.57605  0.061624289  0.062280294            7 
  874000   0.90081952   -3.8373841    649.95156  0.061970973   0.06225242            4 
  875000   0.90516253   -3.8590043    648.66996  0.061778091  0.062223969            5 
  876000   0.89350666   -3.8432243    648.91313  0.061730701   0.06219549            4 
  877000   0.90913218   -3.8704515    649.81138  0.061745665  0.062166882            4 
  878000   0.88518397   -3.8335359    651.51401  0.061836941  0.062138788            2 
  879000   0.89269833    -3.866659    649.87344  0.061611058  0.062110037            3 
  880000   0.88732787   -3.8546673    650.06813  0.061559482  0.062081596            2 
  881000   0.89033366   -3.8956737    650.92758  0.061570903  0.062053263            4 
  882000   0.90592217   -3.8638084    654.00473   0.06179183  0.062025213            3 
  883000    0.8938697   -3.8821776    652.58593  0.061587951  0.061997594            3 
  884000   0.90649057   -3.8663808    653.19713  0.061575899  0.061969959            5 
  885000   0.89648202   -3.8779543    652.69961  0.061459474  0.061942145            3 
  886000    0.8916193   -3.8739962    654.04529  0.061516675  0.061914049            2 
  887000   0.89785651   -3.8771484    653.48119  0.061394325  0.061886099            3 
  888000   0.89233663    -3.867091    653.28488  0.061306765  0.061858579            4 
  889000   0.92139491   -3.8627794    656.72025  0.061559828  0.061831394            4 
  890000   0.89097211    -3.895506    655.81076  0.061405501  0.061803756            2 
  891000   0.89616716   -3.8605098     658.5732  0.061594949  0.061776124            5 
  892000   0.89709921   -3.8578685     660.0386  0.061662799  0.061748349            8 
  893000   0.88847583   -3.8403854    658.56466  0.061456202  0.061720723            4 
  894000   0.90191287   -3.8870356    655.58704  0.061109903  0.061692939            6 
  895000   0.87237176   -3.8565346    659.73743  0.061428066  0.061665411            8 
  896000   0.90759401   -3.8796089    659.09512  0.061299769  0.061637855            4 
  897000   0.89009325   -3.8588022    659.67811  0.061285592  0.061610017            3 
  898000   0.88548166   -3.8699486    659.02608  0.061156838  0.061582058            2 
  899000   0.90407854   -3.8789938    659.15601  0.061100854  0.061553829            4 
  900000   0.86303065     -3.84935    659.64328  0.061078081  0.061525455            6 
  901000   0.89088129   -3.8442035    661.21613  0.061155765  0.061497501            5 
  902000   0.90136232   -3.9014612    660.33389  0.061006457  0.061469534            5 
  903000   0.87677075    -3.855355    661.86271  0.061079984  0.061441253            7 
  904000   0.89757084   -3.8816531    660.78661   0.06091322  0.061412803            3 
  905000   0.88623915   -3.8749936    660.93955  0.060859995  0.061384252            1 
  906000   0.89811539   -3.8822177    661.97658  0.060888206  0.061356074            4 
  907000   0.90251013   -3.8566208    661.64251  0.060790381  0.061327492            3 
  908000   0.88530609   -3.8828225    663.53956  0.060897537  0.061299214            4 
  909000   0.88914751   -3.8698378    663.67766  0.060843203  0.061271605            4 
  910000   0.90504811   -3.8650725    664.10211  0.060815212   0.06124334            3 
  911000   0.90904667   -3.8791974    664.17888  0.060755478  0.061215174            9 
  912000   0.87665618   -3.8961036    665.11324  0.060774236  0.061186717            3 
  913000   0.88531132   -3.8977118    666.48693  0.060833053  0.061158634            4 
  914000   0.89121972    -3.887078    664.42978  0.060578937  0.061130667            7 
  915000   0.89624332   -3.8589484    663.61717  0.060438722  0.061102604            3 
  916000   0.88054251   -3.8658213    667.83244  0.060756226  0.061075001            7 
  917000   0.88584851   -3.8951243    668.21792  0.060725002  0.061046577            4 
  918000   0.86242779   -3.8526423    668.10108  0.060648246  0.061018323            7 
  919000   0.88502132   -3.8713756    669.28457  0.060689569  0.060990295            2 
  920000   0.87654576   -3.8672149    668.93305  0.060591762  0.060962709            3 
  921000   0.87811493   -3.8731739    667.32649  0.060380609  0.060934892            2 
  922000   0.87408761   -3.9109833    667.62953   0.06034251   0.06090665            3 
  923000   0.87922109   -3.9128485    669.11639  0.060411375  0.060878445            3 
  924000   0.86132176   -3.8751444    672.30634  0.060633689  0.060850597            4 
  925000   0.91949624   -3.8817281     672.5925  0.060593919  0.060823349           11 
  926000    0.8471204   -3.9058253    674.78056  0.060725393  0.060795995            4 
  927000   0.88893106   -3.9090083     673.6428  0.060557605  0.060768419            8 
  928000   0.87173891    -3.907553    672.08445  0.060352411  0.060741449            5 
  929000   0.88345092   -3.9040313    675.08302  0.060556425  0.060714291            3 
  930000   0.90826323   -3.8942731    673.96407  0.060391046  0.060687513            6 
  931000    0.8817777   -3.8739576    676.84915  0.060584421  0.060660122            3 
  932000   0.90516494   -3.8949861     677.0357  0.060536096  0.060632925            4 
  933000   0.87254457   -3.8830881    677.04825  0.060472334  0.060605817            9 
  934000   0.89171585   -3.8790165    677.39966  0.060438942  0.060578668            2 
  935000   0.87664552    -3.891741    678.54416  0.060476306  0.060551673            5 
  936000   0.87317757   -3.9042446    677.44337   0.06031369  0.060524336            3 
  937000    0.8955972   -3.8886011    680.09657  0.060485287  0.060497445            4 
  938000   0.88127432     -3.91302    677.26234  0.060169006  0.060469715            2 
  939000   0.88808841   -3.9044026    679.08268  0.060266478  0.060442738            5 
  940000   0.90357201   -3.8798646    678.52293  0.060152742  0.060416038            3 
  941000   0.87251823   -3.8493425    679.28116  0.060155965   0.06038903            4 
  942000   0.87295742   -3.8856597    679.76656  0.060135046  0.060361345            2 
  943000   0.88958325   -3.8733448    680.60049   0.06014497  0.060333645            3 
  944000   0.87593962   -3.8951314    680.09111  0.060036291   0.06030638            1 
  945000   0.86240551   -3.8922424    678.80791  0.059859604  0.060278856            3 
  946000    0.8922279   -3.9058013    678.44453  0.059764318  0.060250969            3 
  947000    0.9028596   -3.8867968    680.19966  0.059855654  0.060222778            2 
  948000   0.90010813   -3.9189879    680.13839  0.059787129  0.060195041            3 
  949000   0.86668937   -3.8905904     681.1711  0.059814813  0.060167591            3 
  950000   0.88161478    -3.904496    681.11756  0.059747154  0.060140419            6 
  951000   0.89088023   -3.8944699     682.9572  0.059845531  0.060113081            5 
  952000   0.87566572    -3.918867    683.07043  0.059792579  0.060085581            2 
  953000   0.87538771   -3.9051902    686.29024  0.060011389  0.060058198            3 
  954000   0.85855304    -3.910507    684.70613  0.059810109  0.060031562            7 
  955000    0.8633292    -3.877407    687.60439  0.060000383  0.060004927            5 
  956000   0.87222636   -3.9056073    688.72941  0.060035688  0.059978532            2 
  957000    0.8654769   -3.8901538    686.80495  0.059805377  0.059952464            3 
  958000   0.87395606   -3.8890423     688.4074  0.059882342  0.059926257            5 
  959000   0.87439446   -3.9130194    686.07278  0.059617029  0.059899609            5 
  960000   0.86434684   -3.9215643    686.40784  0.059584014  0.059872958            4 
  961000   0.88913517   -3.8976399    690.52282  0.059878843  0.059846866            3 
  962000   0.85704758   -3.9029949    691.10275  0.059866835  0.059820644            2 
  963000   0.85563612   -3.9145862    691.98942  0.059881397   0.05979482            3 
  964000   0.87602379   -3.8968336    691.55717  0.059781913   0.05976904            2 
  965000   0.87561999   -3.9414833    692.51154  0.059802378  0.059742491            5 
  966000   0.87593781    -3.917595    691.95707  0.059692638  0.059716476            7 
  967000   0.86797812    -3.911427    693.30539  0.059747104  0.059690147            4 
  968000   0.89807957   -3.9077184    692.20189  0.059590383  0.059664514            4 
  969000    0.8587514   -3.9124005    694.01696  0.059684981  0.059639121            4 
  970000   0.81842601    -3.940674    694.77984   0.05968899  0.059613645            6 
  971000   0.86815431   -3.8933501    694.67278   0.05961833  0.059587859            7 
  972000   0.85972637   -3.9207812    694.91351  0.059577633   0.05956263            3 
  973000   0.87842497   -3.9110242    696.97877  0.059693283  0.059536992            2 
  974000   0.84674904   -3.9091821    695.31042  0.059489256   0.05951088            3 
  975000   0.86747684    -3.919064    695.48518  0.059443177  0.059484762            4 
  976000   0.85698751    -3.878507    697.02014  0.059513331  0.059458853            1 
  977000   0.86989472   -3.9125756      698.476  0.059576595  0.059433348            5 
  978000   0.86380025   -3.9276721    696.71232  0.059365399  0.059407401            8 
  979000   0.88471601   -3.9235804    697.47743  0.059369887  0.059381787            4 
  980000   0.87216847   -3.9068836    698.41077   0.05938867  0.059355798            4 
  981000   0.85638271   -3.9149094    699.02293  0.059380134  0.059330077            9 
  982000   0.85502928    -3.902975    697.76229  0.059212686  0.059304177            3 
  983000   0.85684203   -3.9379076     698.3513  0.059202382   0.05927844            3 
  984000   0.84834669   -3.8995868    702.40585   0.05948559  0.059252225            2 
  985000   0.88652985   -3.9330577    699.68727    0.0591952  0.059226148            6 
  986000   0.85697588   -3.8955946    702.56388  0.059378286  0.059199942            3 
  987000     0.857601   -3.8987378    702.97468   0.05935281  0.059173903            5 
  988000   0.85645229   -3.8906482     702.9978  0.059294687  0.059147406            3 
  989000   0.86031118   -3.9318533    702.42154  0.059186176  0.059120918            5 
  990000   0.86175915    -3.917984     703.0962  0.059183182  0.059094504            3 
  991000   0.87104399    -3.942105      703.453  0.059153464  0.059068301            4 
  992000    0.8700034   -3.9330501    706.31016  0.059333851  0.059041975            4 
  993000   0.85294086   -3.9146533    705.59885  0.059214405  0.059016208            4 
  994000    0.8503365   -3.9236245    705.13234  0.059115723  0.058990805            2 
  995000   0.84031594   -3.8966053    705.84002   0.05911558   0.05896534            3 
  996000   0.85125549   -3.9375043     703.4049  0.058852485  0.058939572            5 
  997000   0.85051229   -3.9458287    702.79108   0.05874215  0.058913656            4 
  998000   0.85120131    -3.908069    706.40932  0.058985414   0.05888766            3 
  999000   0.85204064   -3.9341588    706.93415  0.058970149  0.058862036            3 
 1000000   0.84140219   -3.9263841    706.37338  0.058864449  0.058836352            7 
 1001000    0.8618411   -3.9321092    705.71692  0.058750993  0.058810357            4 
 1002000   0.85120472   -3.9745313     705.7861  0.058698112  0.058784806            3 
 1003000   0.87068658   -3.9669458    708.10681  0.058832403  0.058759063            4 
 1004000     0.834721   -3.9391075    710.41592  0.058965465   0.05873333            4 
 1005000   0.85198556   -3.9122349    711.01681  0.058956618  0.058707992            5 
 1006000   0.84367539   -3.9356866    711.34199   0.05892495  0.058682212            5 
 1007000   0.83342398   -3.9429385      709.617  0.058723684  0.058656468            5 
 1008000   0.85521376   -3.9273462    709.46352  0.058652738  0.058630925            3 
 1009000   0.85504197   -3.9458148    712.55306  0.058849773  0.058605875            5 
 1010000   0.84487948   -3.9262745    712.02158  0.058747655  0.058580797            3 
 1011000   0.85651272   -3.9691726    711.33978  0.058633348  0.058555464            3 
 1012000   0.85415614   -3.9764805    711.53923  0.058591834  0.058530005            4 
 1013000   0.84470907   -3.9328028    712.79069  0.058636944   0.05850452            4 
 1014000   0.83932193   -3.9599526    711.42124  0.058466571  0.058479491            3 
 1015000   0.84698692   -3.9510845    712.38886  0.058488412  0.058454176            3 
 1016000   0.84676458   -3.9347784    714.43565  0.058598724  0.058428627            3 
 1017000   0.85538021    -3.949584    712.72961  0.058401312  0.058403442            6 
 1018000   0.84976486   -3.9626542    715.19315  0.058545608  0.058378092            6 
 1019000   0.84628877   -3.9694214    714.85717  0.058460678  0.058352747            5 
 1020000   0.84255156   -3.9636685     715.0762  0.058421258  0.058327246            5 
 1021000   0.86233645   -3.9619366    717.57656  0.058568116  0.058301806            2 
 1022000   0.85165714   -3.9476143      716.725  0.058441373  0.058276455            4 
 1023000   0.84857535   -3.9277094     713.8624  0.058151059   0.05825088            8 
 1024000   0.84838935   -3.9454305    715.45713   0.05822405  0.058225509            8 
 1025000   0.84102535   -3.9720321     714.3745  0.058079228  0.058199698            3 
 1026000   0.85970867   -3.9491276    714.52952  0.058035211  0.058173713            3 
 1027000   0.84184911   -3.9669624    714.25621  0.057956524  0.058147705            4 
 1028000   0.82539329   -3.9442833    715.56849  0.058006525   0.05812133            6 
 1029000   0.85043929   -3.9488002     717.9456  0.058142663  0.058094935            6 
 1030000   0.85080304   -3.9478141    718.52608  0.058133178   0.05806913           10 
 1031000   0.83951721   -3.9250659    721.72795  0.058335593   0.05804371            4 
 1032000   0.84068677   -3.9286081    720.16788  0.058153091  0.058017827            5 
 1033000   0.84315706   -3.9439032     718.5181  0.057963706  0.057991784            3 
 1034000   0.84349407   -3.9534937    719.25769  0.057967254  0.057965966            2 
 1035000   0.83142001   -3.9599777    719.74962  0.057950855  0.057939484            4 
 1036000   0.84850461   -3.9622294    718.04557  0.057757848  0.057913235            3 
 1037000   0.84212898   -3.9742526    716.72169  0.057595764  0.057886457            6 
 1038000   0.82350776   -3.9526248    723.38816  0.058075479   0.05785989            5 
 1039000   0.82217264   -3.9630521      719.883  0.057738451  0.057833454            3 
 1040000    0.8552214   -3.9508723    718.01253  0.057533055  0.057806646            5 
 1041000    0.8065706   -3.9448731    722.72984  0.057855415  0.057780215            3 
 1042000   0.83910943   -3.9720228    720.25347  0.057601845  0.057753542            3 
 1043000   0.84492174   -3.9653622    721.42596  0.057640297  0.057727128            5 
 1044000   0.84098145   -3.9552654     720.9027  0.057543319  0.057700582            7 
 1045000   0.83658929   -3.9630624    722.22749  0.057593898  0.057674316            2 
 1046000   0.82662526   -3.9599742    724.26349  0.057701043  0.057647551            5 
 1047000    0.8368065   -3.9640678    724.19134   0.05764019  0.057621005            8 
 1048000      0.83769   -3.9601063    722.43424  0.057445471  0.057594264            6 
 1049000    0.8390718   -3.9814443    724.45383  0.057551146  0.057567432            9 
 1050000   0.83222919   -3.9542024      726.806  0.057683016   0.05754096            6 
 1051000   0.81678874   -3.9476941    722.18277  0.057261558  0.057514322            3 
 1052000   0.83511301   -3.9472832      725.047  0.057434014  0.057487755            3 
 1053000   0.83185724   -3.9742304    725.75772  0.057435717  0.057460962            6 
 1054000   0.84792533   -3.9709845    724.80092  0.057305575  0.057434463            4 
 1055000   0.85096094   -3.9758426    728.00242  0.057504141  0.057407446            2 
 1056000   0.82823426   -3.9770465    726.04039  0.057294854  0.057380861            4 
 1057000   0.82045857   -3.9985037    725.64194  0.057209236   0.05735468            2 
 1058000    0.8143218   -3.9822839    727.75044  0.057321238  0.057328259            4 
 1059000   0.83701691   -3.9732334    728.88215  0.057356166  0.057302568            6 
 1060000   0.82478603   -3.9575219    730.42966  0.057423715  0.057276429            5 
 1061000   0.82899122   -3.9923794    728.17366  0.057192402  0.057250638            2 
 1062000   0.83377887   -3.9623073    729.68032  0.057256774  0.057224383            4 
 1063000   0.83792221   -4.0071278    727.92023  0.057064929   0.05719812           13 
 1064000   0.81587027   -3.9710934    728.63158  0.057067009  0.057171456            3 
 1065000   0.82579049   -3.9663022     728.1955  0.056979303  0.057144946            3 
 1066000   0.83839635   -3.9776421     728.5533  0.056953823  0.057118544            4 
 1067000   0.82554806    -3.964464    731.78218  0.057152623  0.057091287            5 
 1068000   0.82757442   -3.9926788    728.87788  0.056872493  0.057064803            9 
 1069000   0.81783583   -3.9592711     730.1917   0.05692171  0.057038164            4 
 1070000   0.82750158   -3.9589088    730.29922  0.056876887  0.057011126            3 
 1071000   0.81680539   -3.9972505    730.29157  0.056823185  0.056984353            3 
 1072000   0.82341014   -3.9855848    730.32738  0.056772962  0.056957445            6 
 1073000   0.82670928   -3.9838586    730.43348  0.056728291   0.05693033            6 
 1074000   0.84484243    -3.981182    732.81441  0.056860212  0.056903498            2 
 1075000   0.84441076   -3.9599352    730.32566  0.056614392  0.056876441            2 
 1076000   0.83483412   -3.9645208    731.98317  0.056690146   0.05684967            9 
 1077000   0.82337135   -3.9882458    731.23527   0.05657964  0.056822787            5 
 1078000   0.84465797   -3.9784088    732.93423   0.05665849  0.056795708            4 
 1079000    0.8149564   -3.9871593    730.98041  0.056455082  0.056768875            3 
 1080000   0.80216916     -4.00892    735.78913  0.056773852  0.056742217            3 
 1081000   0.83586396   -3.9905425    736.49326  0.056775614  0.056715501            3 
 1082000   0.82279279   -3.9825055    733.74964  0.056511833  0.056688985            3 
 1083000   0.82151182   -3.9778523    734.71986  0.056534308  0.056662428            5 
 1084000   0.82062877   -3.9983352    735.50115  0.056542216  0.056635732            6 
 1085000   0.79213799   -3.9851571    735.28876  0.056473791  0.056608778            4 
 1086000   0.82961303    -3.987112    737.19858  0.056568338  0.056581907            6 
 1087000   0.81983459   -3.9629013    736.40045  0.056455109  0.056554846            5 
 1088000   0.80591075   -3.9929467    737.68002  0.056501227  0.056527431            4 
 1089000   0.81314338   -4.0117717    736.00868  0.056321448  0.056500591            6 
 1090000   0.82403279   -4.0068069    737.80118  0.056406818  0.056473619            5 
 1091000   0.83009449   -4.0016936    734.09529  0.056072051  0.056446466            4 
 1092000   0.82407671   -3.9763716     736.1014  0.056173795  0.056419396            8 
 1093000   0.83537051   -3.9949177     737.1414  0.056201692  0.056392418            7 
 1094000   0.81491805   -3.9983227    736.91167  0.056132821  0.056364943            7 
 1095000   0.79928503   -4.0071299    738.49467   0.05620203  0.056337514            4 
 1096000   0.81428565   -4.0076254    737.86624  0.056102969  0.056309989            4 
 1097000   0.81835623   -3.9990356    738.92437  0.056132207  0.056283063            6 
 1098000   0.81788533   -3.9896073    740.77441  0.056221494  0.056255623            4 
 1099000   0.82125419   -4.0114302     741.0515  0.056191348  0.056228529            2 
 1100000   0.80655205   -4.0213771    736.02746  0.055759656   0.05620093            8 
 1101000   0.80588563   -4.0035979    737.80099  0.055843248  0.056173597            8 
 1102000   0.82361867   -3.9929594    738.26819  0.055827903  0.056146106            9 
 1103000   0.79866255   -4.0285499    738.32892  0.055781876  0.056118488            7 
 1104000   0.81025239   -4.0019637    738.31788  0.055730516  0.056091226            6 
 1105000   0.80773935   -4.0104715    741.47358  0.055918068  0.056064125           14 
 1106000   0.79763046   -4.0090469    740.47285  0.055792107  0.056037299            3 
 1107000   0.81774965   -4.0179334    739.01321  0.055631829  0.056009771            6 
 1108000   0.82572733   -3.9999869    741.10632  0.055739043  0.055982211            5 
 1109000   0.80751165   -4.0272761    740.29555  0.055627859  0.055954463            5 
 1110000    0.8118961    -3.992009    743.01301  0.055781757  0.055927164            3 
 1111000   0.79507558   -4.0039366    743.49443  0.055767659  0.055899875            2 
 1112000   0.81749969   -4.0383138    740.92695  0.055525101  0.055872347            8 
 1113000   0.81524947   -4.0097743       741.56  0.055522612  0.055844926            3 
 1114000   0.80457314   -4.0186844    742.94671  0.055576504  0.055817532            7 
 1115000   0.80025518   -4.0128563    743.09648  0.055537854  0.055789955            3 
 1116000    0.7944538   -4.0110472    744.41029  0.055586193  0.055762301           10 
 1117000   0.81855598   -3.9929597    744.66919  0.055555743   0.05573461            6 
 1118000   0.80728434   -4.0080693    743.98994  0.055455422  0.055707372            7 
 1119000   0.79213149   -3.9983518     745.2406  0.055499002  0.055679921            5 
 1120000   0.81038451   -4.0037561    742.79087  0.055267178  0.055652349            2 
 1121000   0.81157604   -4.0012766    747.31359  0.055554088  0.055624428            2 
 1122000   0.79218126   -4.0415941    744.66388  0.055307775  0.055596687            3 
 1123000    0.8122676   -4.0353471    747.43226  0.055463955   0.05556888            4 
 1124000   0.80073078   -4.0145471    746.76609   0.05536522   0.05554104            9 
 1125000    0.8205427   -4.0161647    745.29248  0.055206851  0.055513323            8 
 1126000    0.8182432   -4.0404206    747.31365  0.055307405     0.055485            6 
 1127000   0.79912218    -4.024275    746.70601  0.055213399   0.05545696            8 
 1128000   0.80001909   -4.0075421    746.62358  0.055158361  0.055429304            4 
 1129000    0.7931682   -3.9974063    748.66078  0.055259874  0.055401384            8 
 1130000   0.80766082   -4.0243749     745.1554  0.054952463  0.055373058            6 
 1131000   0.78243409   -4.0076581    746.26761  0.054985824  0.055344498            6 
 1132000   0.78469529   -4.0358829    746.66694  0.054966647  0.055315856            5 
 1133000   0.80225485   -4.0151751    749.50532  0.055126899  0.055287246            6 
 1134000   0.82031677   -4.0400878    746.32522  0.054844593  0.055258433            3 
 1135000   0.79798666   -4.0129777    747.19258  0.054859955  0.055229876            9 
 1136000   0.80331289   -4.0287287    747.07988  0.054803395  0.055201039            5 
 1137000   0.80481581   -4.0057465    748.24461  0.054840561  0.055172446            6 
 1138000   0.78682349   -4.0237135    746.98743   0.05470031  0.055144047            7 
 1139000   0.79144398   -4.0515838     747.3561  0.054679258  0.055115381            6 
 1140000   0.80181784   -4.0371518     747.4839  0.054640636  0.055086916            3 
 1141000   0.81447416   -4.0253514    747.79243  0.054615281  0.055058289            6 
 1142000    0.7987751   -4.0247636    747.03105  0.054511898  0.055029464            3 
 1143000   0.79242278    -4.022152    751.03505  0.054756128  0.055000609            7 
 1144000   0.75071982   -4.0110812    749.42112  0.054590699  0.054971713            3 
 1145000    0.8042736   -4.0345957     747.7854  0.054423974  0.054942817            3 
 1146000   0.79460523   -4.0119726    751.09203  0.054616931  0.054913764            3 
 1147000   0.79647522   -4.0388823    749.94932  0.054486291   0.05488497            4 
 1148000   0.82035881   -4.0458502    746.20196  0.054166809  0.054856066            4 
 1149000   0.78834651   -4.0157152     750.4737  0.054429482  0.054827146            4 
 1150000   0.80655646     -4.04033    752.09031  0.054499298  0.054798229            2 
 1151000   0.78427419   -4.0480432    749.84133   0.05428912  0.054769435            4 
 1152000   0.79147278   -4.0593794    748.38711  0.054136799  0.054740702            4 
 1153000     0.797554    -4.030986    751.00881   0.05427933  0.054711887            2 
 1154000   0.80243629   -4.0477564    752.35317  0.054329374   0.05468332            5 
 1155000    0.7675124   -4.0259257    753.46392  0.054362476  0.054655065            5 
 1156000   0.78957104   -4.0654322    751.67701  0.054186636  0.054626212           12 
 1157000   0.79898352   -4.0291214    753.22376  0.054251207  0.054597558            4 
 1158000    0.7804217   -4.0360295    754.05093  0.054263884  0.054569091            5 
 1159000   0.79460373   -4.0450091    755.33697  0.054309532    0.0545404            7 
 1160000   0.77761846   -4.0280146    753.74574  0.054148401  0.054512284            5 
 1161000   0.79735391   -4.0195392    755.58089  0.054233483  0.054483947            7 
 1162000   0.79086789   -4.0318925    755.12633  0.054154212  0.054455565            6 
 1163000   0.77741023   -4.0648295    753.86343  0.054017156  0.054427367            3 
 1164000   0.78522239   -4.0468327    757.08023  0.054201047  0.054398892            4 
 1165000   0.78540679   -4.0388886    756.52122  0.054114537  0.054370854            6 
 1166000   0.79418704   -4.0648511    754.45625  0.053920544  0.054342515            3 
 1167000   0.78519185    -4.056901    755.33526  0.053937108  0.054314258            4 
 1168000    0.7737759   -4.0402659    756.42856  0.053968933  0.054286212           10 
 1169000   0.79258631   -4.0469272    756.49277  0.053927343  0.054258143           10 
 1170000   0.79177009   -4.0703459     757.7787  0.053972842  0.054230361            3 
 1171000   0.79474694   -4.0663716    756.66888  0.053847771  0.054202272            7 
 1172000   0.77990099   -4.0359609    759.05654  0.053971597  0.054174375            4 
 1173000   0.79523242   -4.0613535    758.85493  0.053911262  0.054146428            6 
 1174000   0.76675069   -4.0436902    759.47063  0.053909046  0.054118632            3 
 1175000   0.77180808   -4.0517802    757.97021  0.053756753   0.05409085            5 
 1176000   0.77447234   -4.0503288    761.99135  0.053995985  0.054063185            3 
 1177000    0.7951598    -4.060127    758.78893  0.053723373  0.054035422            7 
 1178000   0.78281063   -4.0515605     759.8283  0.053751294  0.054007833            4 
 1179000   0.76410231    -4.057417    762.08337  0.053865096   0.05398015            3 
 1180000   0.79261723   -4.0582032    761.73577  0.053794899  0.053952551            9 
 1181000   0.79426591   -4.0458946    759.59942  0.053598604  0.053924852            8 
 1182000   0.80414782   -4.0870782    761.10698  0.053659544  0.053896804            6 
 1183000   0.78972371   -4.0541464    761.55529  0.053645766  0.053868862            5 
 1184000   0.79178295   -4.0764764    758.64993  0.053395969  0.053841081            7 
 1185000   0.78539391   -4.0896337    759.67125  0.053422732  0.053813122            3 
 1186000    0.7724141    -4.059568    759.54617  0.053368899  0.053785013            6 
 1187000   0.80296167   -4.0767969    762.34706  0.053520574  0.053756883            5 
 1188000   0.78472453   -4.0680053    762.40029  0.053479257  0.053728797            4 
 1189000   0.80230665    -4.090953    758.90426  0.053189253  0.053700599            3 
 1190000   0.76773694   -4.0449328    763.41714  0.053460584   0.05367236            7 
 1191000   0.76658019   -4.0575224    760.17647   0.05318895  0.053643744            5 
 1192000   0.77754833   -4.0753664     763.4948  0.053376314  0.053615109            9 
 1193000    0.7707917   -4.0763256    764.38547  0.053393788  0.053587059            4 
 1194000   0.78419787   -4.0698109    760.54357   0.05308093  0.053558719            6 
 1195000   0.77323082   -4.0421957    763.70675  0.053257096  0.053530242            3 
 1196000   0.78596912   -4.0865902    763.50982  0.053198845  0.053501831            6 
 1197000   0.76078298   -4.0551276    764.42675  0.053218236  0.053473982            4 
 1198000   0.78119205   -4.0690606    765.69446  0.053261996  0.053446051            7 
 1199000   0.78519653   -4.0549361    767.59965   0.05334999  0.053418264            8 
 1200000   0.76936839   -4.0540708    766.19566  0.053208032  0.053390505            3 
 1201000   0.76635565   -4.0754475    764.56472  0.053050563  0.053362545            3 
 1202000   0.76935695   -4.0748163    765.55278  0.053074929  0.053334647            5 
 1203000   0.76328081   -4.0820438    767.09274  0.053137486  0.053306461            4 
 1204000   0.79039647   -4.0674353    767.06022    0.0530911   0.05327824           10 
 1205000   0.78079655   -4.1022146    764.33825    0.0528588  0.053250318            4 
 1206000   0.77491232   -4.0656396    763.97199  0.052789662  0.053222225            6 
 1207000   0.77726796   -4.0551214    768.44201  0.053054544  0.053194453            5 
 1208000   0.76143748   -4.0620889    765.58291   0.05281339  0.053166358           10 
 1209000   0.75329412   -4.0928967    766.51016   0.05283362  0.053137727            8 
 1210000   0.77015529   -4.0823452    765.29217  0.052706072  0.053109045            9 
 1211000   0.76802294   -4.1024003    765.26785  0.052660876  0.053080481            4 
 1212000    0.7671396   -4.0938066     767.2075  0.052750791   0.05305206            4 
 1213000   0.78488012   -4.0971093    765.31808  0.052577499  0.053023573            3 
 1214000   0.77303395    -4.088364    765.14568  0.052522356  0.052994877            6 
 1215000   0.74822643    -4.089635    767.83324   0.05266346  0.052966173           11 
 1216000   0.76190654   -4.0957006    768.95416  0.052696968  0.052937503            3 
 1217000   0.76792179   -4.0720168    768.76037  0.052640398  0.052908971            7 
 1218000   0.76794886   -4.1104081    767.29842  0.052497155  0.052880281            5 
 1219000   0.75059334   -4.1177794    766.22596  0.052380774  0.052851419           13 
 1220000   0.77031673     -4.06953     769.1727  0.052539119  0.052822636            3 
 1221000   0.75945585   -4.0494826    771.47263   0.05265306  0.052794242            4 
 1222000   0.75996631   -4.0961097    768.61805  0.052415306  0.052765494           10 
 1223000   0.75169309   -4.0759309    768.70745   0.05237854  0.052736846            4 
 1224000   0.76543916   -4.0772293    766.77569  0.052204227  0.052708254            6 
 1225000   0.76305547   -4.1078801    766.71079  0.052157196  0.052679468            7 
 1226000   0.76700134   -4.0718288    770.43484  0.052367784   0.05265071            3 
 1227000   0.76608087   -4.1016699    770.82826  0.052351825    0.0526222            6 
 1228000   0.74995267   -4.1070843    767.30682  0.052070224  0.052593404            4 
 1229000    0.7623454   -4.0850979    767.06219  0.052011269  0.052564714            3 
 1230000   0.75411454   -4.0949348    768.65997  0.052077233  0.052535935            3 
 1231000    0.7714588   -4.1074331    768.61295  0.052031746  0.052507113            9 
 1232000   0.76340384    -4.099896    768.35264  0.051971905  0.052478717            3 
 1233000   0.74875418   -4.0857335    771.21054  0.052122907  0.052449922            7 
 1234000   0.77055407   -4.1228416    769.04841  0.051934658  0.052421218            8 
 1235000   0.76836391   -4.1191075    769.39765  0.051916171  0.052392224            4 
 1236000   0.75068851   -4.0860141    770.13605  0.051923952  0.052363399            3 
 1237000   0.76314231   -4.0966848    771.34605   0.05196349  0.052334499           11 
 1238000   0.75290082   -4.1227205    770.63457  0.051873625  0.052305525            7 
 1239000   0.76282056   -4.0921394    772.04982  0.051926945  0.052276932            4 
 1240000   0.77393007    -4.106584    771.21136  0.051828721  0.052248196            6 
 1241000   0.75827262   -4.0797745    773.11439  0.051914745  0.052219213            6 
 1242000   0.77041877   -4.1089654    771.69643  0.051777807  0.052190728            7 
 1243000   0.72546156   -4.0755952    773.78654  0.051876277  0.052162404            7 
 1244000   0.76733358    -4.099164    773.82609  0.051837224  0.052133942            5 
 1245000   0.75873837   -4.1025323    776.43771  0.051970396  0.052105446            4 
 1246000   0.75183115   -4.1025651    773.44094   0.05172826   0.05207688            4 
 1247000   0.74971407   -4.0921034    772.22296  0.051605384  0.052048365            7 
 1248000   0.75414678   -4.0987621    772.51012  0.051583208  0.052019955           21 
 1249000   0.74241389   -4.1211772    774.68092  0.051686744  0.051991411            6 
 1250000   0.74968838   -4.1123212    774.71076  0.051647384   0.05196263            6 
 1251000   0.75479336   -4.1158907     774.2571  0.051575879  0.051933854            3 
 1252000   0.76602731   -4.1007748    774.91185  0.051578265  0.051905379            2 
 1253000   0.72991013   -4.1157604    773.53012  0.051445206  0.051876738            4 
 1254000   0.75356876   -4.1125715     773.5951    0.0514085  0.051848184            9 
 1255000   0.76165413    -4.115563    774.15758  0.051404886  0.051819219            6 
 1256000   0.75513512   -4.1294323    773.97321  0.051351726  0.051790289            4 
 1257000   0.75197514   -4.1278728    775.02664  0.051380711  0.051761306           15 
 1258000   0.73273173   -4.1328788    773.15394  0.051215815  0.051732226           10 
 1259000   0.75026613   -4.1184406    775.56468  0.051334702  0.051703206           15 
 1260000   0.75234395   -4.1027248    772.98372  0.051123262  0.051674098            5 
 1261000   0.74944025   -4.1065773    776.10051  0.051288694  0.051645048            3 
 1262000   0.73874178   -4.1065579    773.76148    0.0510936  0.051616001           20 
 1263000   0.73216435   -4.1261672    775.61245  0.051175274  0.051587207            9 
 1264000   0.74889254   -4.1224448    778.04659  0.051295265  0.051558444            3 
 1265000   0.74157502   -4.0977648    778.35806  0.051275235  0.051530041            8 
 1266000     0.747975   -4.1108496    779.04957  0.051280251  0.051501381            4 
 1267000   0.74714734   -4.0868732    779.21332  0.051250547   0.05147306            2 
 1268000   0.73975882   -4.1251115    777.45991  0.051094894  0.051444608           10 
 1269000   0.75585923   -4.1189718    777.13044  0.051032994  0.051416323            7 
 1270000   0.73981869   -4.1345569    776.92638  0.050979421  0.051388003            7 
 1271000   0.73596404   -4.1182377    776.96065  0.050941558  0.051359437            4 
 1272000   0.73375264   -4.1219386    778.54115  0.051005054  0.051330952            3 
 1273000   0.73929094   -4.1114275    781.43396  0.051154357  0.051302832            4 
 1274000   0.75196029   -4.1037264    781.52039  0.051119858  0.051274577            3 
 1275000    0.7474798   -4.1238536    780.65693  0.051023329  0.051246612            9 
 1276000   0.74267532   -4.1355815    779.92574  0.050935589  0.051218273            4 
 1277000   0.74067427    -4.141523    777.25846  0.050721643  0.051189794            7 
 1278000    0.7419219    -4.109716    779.70958  0.050841782  0.051161472            7 
 1279000   0.74903707    -4.143432    777.33302  0.050647187  0.051132896            8 
 1280000   0.75231216   -4.1303806    782.84905  0.050966735  0.051104804            3 
 1281000   0.74009458   -4.1292662     783.7816  0.050987614  0.051076742           11 
 1282000   0.75062399   -4.1367833    782.01856   0.05083324  0.051048775            8 
 1283000   0.74019082   -4.1283204    782.36194  0.050815923  0.051020647            3 
 1284000   0.73627333   -4.1426446    781.74024  0.050735997  0.050992687            8 
 1285000   0.74159714   -4.1370726     782.8226  0.050766706  0.050964562           12 
 1286000   0.75835328   -4.1423683    783.44343  0.050767459  0.050936887            8 
 1287000   0.75317567   -4.1449367    782.34463  0.050656866  0.050908727            5 
 1288000   0.74414146   -4.1354169    783.48642  0.050691409  0.050880447            4 
 1289000   0.76227465   -4.1103674    786.32143  0.050835365   0.05085256            5 
 1290000   0.74468966   -4.1199641    784.07011  0.050650524  0.050824504            2 
 1291000   0.74398291   -4.1377191    783.95922  0.050604132  0.050796533            4 
 1292000   0.73028963    -4.161036    784.27642  0.050585424  0.050768424            5 
 1293000   0.75711637   -4.1455748    781.80601  0.050387085  0.050740544            6 
 1294000   0.72083155   -4.1431579    783.30768  0.050444853  0.050712576            4 
 1295000   0.74825735   -4.1135686     784.6022  0.050489202  0.050684556            3 
 1296000   0.74530519   -4.1189106    785.00779  0.050476324  0.050656982            7 
 1297000   0.71826422    -4.142969    785.84104  0.050490943  0.050629115            3 
 1298000   0.72420915   -4.0957295    787.71836   0.05057257  0.050601676            3 
 1299000   0.74255467   -4.1529673    786.77549  0.050473152  0.050574149            5 
 1300000   0.70866789   -4.1417055    785.53718  0.050354947  0.050546185            9 
 1301000   0.72085159   -4.1381116      789.243  0.050553613  0.050518448            8 
 1302000   0.73883801    -4.153384    788.07276  0.050439884  0.050490929            5 
 1303000   0.74043176   -4.1161726    788.10764  0.050403405  0.050463798            3 
 1304000   0.74556708   -4.1456773    786.62231   0.05026983  0.050436458            4 
 1305000   0.72663105   -4.1460171    788.12743  0.050327422   0.05040943            6 
 1306000   0.74271162   -4.1608086    790.66444  0.050450768  0.050382161            4 
 1307000   0.72540635   -4.1458264    790.25703  0.050386192  0.050354644            7 
 1308000   0.74550805   -4.1363974    792.31353  0.050478691  0.050327658            4 
 1309000   0.72613731   -4.1456701    789.79505  0.050279797   0.05030046            4 
 1310000   0.72629392   -4.1535893    791.78014  0.050367693  0.050273532            7 
 1311000    0.7184595   -4.1227734    792.62035  0.050382682  0.050246537            4 
 1312000   0.72142207   -4.1604377    789.59568  0.050152164  0.050219505            3 
 1313000   0.72934419   -4.1394118    790.90499  0.050197067  0.050192438            3 
 1314000   0.74060889   -4.1548564    791.01053  0.050165559  0.050165458            7 
 1315000   0.73849909   -4.1482708    790.25141  0.050079304  0.050138055            9 
 1316000   0.72377663   -4.1394673    791.51704  0.050121393  0.050110939            5 
 1317000   0.71105037   -4.1668877    788.85635  0.049914981  0.050083656            5 
 1318000   0.73843475   -4.1587458    791.27226   0.05002986  0.050056432            7 
 1319000   0.72453093   -4.1506284    791.17098   0.04998553  0.050029243            4 
 1320000   0.71296485   -4.1636768    790.45558  0.049902499  0.050001785            7 
 1321000   0.73093257   -4.1362667    791.97251  0.049960415  0.049974672            6 
 1322000   0.72830404   -4.1759422     792.4207  0.049950876  0.049947591           12 
 1323000   0.72145725   -4.1607246    793.34297  0.049971212  0.049920519            4 
 1324000   0.72648502   -4.1345195    793.05693  0.049915466   0.04989348            5 
 1325000   0.71675075   -4.1712889    792.46894  0.049840814  0.049866378            8 
 1326000   0.71583273   -4.1655224    793.84464  0.049889683  0.049839285            5 
 1327000   0.72338681   -4.1502904    795.24874  0.049940262  0.049812212            5 
 1328000   0.72570619   -4.1487792    791.39844  0.049661046  0.049785436            7 
 1329000   0.72261985    -4.135888    794.74265  0.049833374   0.04975837            4 
 1330000   0.72009478   -4.1678431    796.98721  0.049936542  0.049731511            5 
 1331000    0.7195182   -4.1501308    796.42312  0.049863707  0.049704799            3 
 1332000    0.7226344   -4.1755805    791.80826  0.049537554  0.049677746            6 
 1333000   0.74193892   -4.1866581    793.02933  0.049576727  0.049650829            7 
 1334000    0.7179895    -4.162234    795.25729  0.049678741   0.04962371            4 
 1335000    0.7343973   -4.1728968    794.21029  0.049576173  0.049596402            4 
 1336000   0.71583246   -4.1596254     793.1571  0.049473372  0.049569034            7 
 1337000   0.74055897   -4.2012494    794.32568  0.049509204  0.049541503            5 
 1338000   0.72045581   -4.1773306    794.24953  0.049467459   0.04951406            5 
 1339000   0.71425622   -4.1856045    792.78118  0.049339133  0.049486659            6 
 1340000   0.71550689   -4.1898975    792.38285   0.04927754  0.049459299            7 
 1341000   0.71656348   -4.1729597    794.23824  0.049356092  0.049431815            9 
 1342000   0.74079078   -4.1882845    794.46432  0.049333353  0.049404423            8 
 1343000   0.70344286   -4.1857561    794.35534  0.049289857  0.049376814            6 
 1344000   0.71955889   -4.1756483    794.40935  0.049256532  0.049349394           11 
 1345000    0.7153537   -4.1878594    792.98914  0.049131917  0.049321923            8 
 1346000   0.71291406   -4.1793956    794.82113  0.049208837  0.049294629            3 
 1347000    0.7121299   -4.1908005    794.81101  0.049171678  0.049267357           18 
 1348000   0.70430666   -4.2016908    796.28809  0.049226514  0.049239923            9 
 1349000   0.71128534   -4.1832459    794.64564  0.049088562  0.049212585           11 
 1350000   0.70633683   -4.1970045    797.04167  0.049200103   0.04918512            4 
 1351000   0.71505248   -4.1975143    795.73955  0.049083367  0.049157934            7 
 1352000   0.71741605   -4.1780291    797.26355  0.049140998  0.049130543            4 
 1353000   0.72495608   -4.1623432    797.01026  0.049089077  0.049103086            5 
 1354000     0.731206   -4.1628509    797.00048  0.049052221  0.049075847            3 
 1355000   0.72613139   -4.2053044    796.09103  0.048960088  0.049048502            7 
 1356000   0.71179466   -4.1659817    796.08045  0.048923331  0.049021135            9 
 1357000   0.70307796   -4.1887519    797.77633  0.048991423  0.048993838           11 
 1358000   0.69472302   -4.1874655    796.83314  0.048897468  0.048966444            6 
 1359000   0.70161818   -4.1645311    798.50567  0.048964046  0.048938888            8 
 1360000    0.7164174   -4.1858094    796.06817  0.048778687  0.048911762            7 
 1361000   0.72629704   -4.2017418    795.58705  0.048713388  0.048884452            5 
 1362000   0.70174906    -4.202233    795.03719  0.048643979  0.048856926            7 
 1363000   0.72443217   -4.1794955    799.12086  0.048857964  0.048829564            4 
 1364000   0.72343008   -4.1621925    799.05115  0.048817885  0.048802305            5 
 1365000    0.6925509   -4.1624315    800.24092  0.048854757  0.048775143            5 
 1366000   0.71070651   -4.1788801    799.30464  0.048761874  0.048748008           10 
 1367000    0.7120502   -4.2052802    797.73653   0.04863061  0.048720663            5 
 1368000   0.70703165   -4.1853673    799.68318  0.048713644  0.048693224            4 
 1369000   0.70988438   -4.1779076    799.51484  0.048667813  0.048665881           10 
 1370000    0.7223915   -4.1958667    797.53895  0.048512102   0.04863835            6 
 1371000   0.70637913   -4.1849928    799.52114    0.0485972  0.048610775            9 
 1372000   0.72144102   -4.1818748    797.80877  0.048457772  0.048583252            7 
 1373000   0.71693625   -4.1820078    798.80867  0.048483168   0.04855571            4 
 1374000   0.71434584   -4.1981048     798.1245  0.048406386  0.048528257           11 
 1375000   0.70857243   -4.2066462    798.61394  0.048400845  0.048500561            6 
 1376000   0.70232792   -4.2148074    797.48698  0.048297419  0.048472822            5 
 1377000   0.70130819   -4.1992879    799.76383  0.048400135  0.048445373            6 
 1378000   0.69255772    -4.192943    797.40401  0.048222303  0.048417801            4 
 1379000   0.68845656   -4.1936846    800.08919    0.0483496  0.048390079            5 
 1380000   0.70510065   -4.2218005    800.10262  0.048315376  0.048362512           12 
 1381000   0.69574726   -4.1875772    799.98716  0.048273423  0.048334917            9 
 1382000    0.7003368   -4.2003695    799.53525  0.048211243   0.04830727            6 
 1383000   0.70642918   -4.2093501    801.95408  0.048322131  0.048279885           10 
 1384000   0.69984633   -4.2158781    801.32877  0.048249565  0.048252226            9 
 1385000   0.70528325   -4.2138774    802.18698  0.048266365  0.048224655            4 
 1386000   0.71086032    -4.238133     797.9158  0.047974735  0.048196786            5 
 1387000   0.70425304   -4.2028984    799.39916  0.048029269   0.04816892            5 
 1388000    0.6916734   -4.1927611    803.46432  0.048238732  0.048141353            5 
 1389000   0.71612857   -4.2167391    801.65637  0.048095534  0.048114004            8 
 1390000   0.68979867   -4.1986654    800.19471  0.047973304  0.048086436            9 
 1391000   0.69397624   -4.2054271    800.08039  0.047931967  0.048059023            6 
 1392000   0.69678635   -4.2175303    799.72511  0.047876263  0.048031425            6 
 1393000   0.71340675   -4.2115627     801.1772  0.047928763    0.0480039            4 
 1394000   0.68983601   -4.2213712    801.64014  0.047922055  0.047976452            4 
 1395000   0.69418388   -4.2074377    805.09142  0.048093872  0.047948936            5 
 1396000   0.70527938   -4.2078123    803.81155   0.04798302  0.047921836            6 
 1397000   0.68604442   -4.2180697    802.37141  0.047862766  0.047894629            6 
 1398000   0.68933048   -4.2029963    804.18846  0.047936842  0.047867368            5 
 1399000   0.68339187   -4.2322885    799.94123  0.047649585  0.047840059           20 
 1400000   0.68528834   -4.2019424    802.04201  0.047740596  0.047812411            6 
 1401000    0.6800354   -4.2325812    801.99655  0.047703816  0.047784962            3 
 1402000   0.69395061   -4.2319383    800.89137  0.047604099  0.047757349            6 
 1403000   0.69998763   -4.2090236    804.26416  0.047770501    0.0477296            9 
 1404000   0.67056869   -4.1954189    802.84185  0.047652057  0.047702053            4 
 1405000   0.70288423   -4.2305048    801.08469   0.04751392  0.047674496            6 
 1406000   0.69385374    -4.222141    802.00261  0.047534531  0.047646879            5 
 1407000   0.68728831   -4.2397506    803.13392  0.047567752  0.047619194            7 
 1408000   0.69178321   -4.2199101    804.45696  0.047612273  0.047591488            6 
 1409000   0.68092478   -4.2235167     802.9005  0.047486426  0.047563965            8 
 1410000   0.67108634   -4.2060447    805.32647  0.047596127  0.047536646            6 
 1411000   0.69436929   -4.2294124    804.63002  0.047521263  0.047509251            4 
 1412000   0.69776022   -4.1896061    803.17567  0.047401775  0.047481642            4 
 1413000   0.69399626   -4.2239855    803.41976  0.047382623  0.047454214            7 
 1414000   0.70425062   -4.2292522    803.34126  0.047344487  0.047426487            7 
 1415000   0.69220866   -4.2306011    806.10483  0.047473783   0.04739908            9 
 1416000   0.68886606   -4.2398995    804.14787  0.047325086  0.047371655            6 
 1417000   0.68459443   -4.2496611    803.98704   0.04728223  0.047344365           10 
 1418000   0.69437888   -4.2583082    803.19905  0.047202577  0.047316978            7 
 1419000   0.68455254   -4.2350519    805.94826  0.047330765  0.047289755           12 
 1420000   0.68449197    -4.240901    804.09108  0.047188444  0.047262547            4 
 1421000   0.67834008   -4.2353731    804.63628  0.047187208  0.047235395            6 
 1422000   0.69485294   -4.2297472     804.5873  0.047151155  0.047208282            4 
 1423000   0.68195449   -4.2426459    804.84721   0.04713324  0.047180921            5 
 1424000    0.6848646   -4.2267715    804.33402  0.047070109  0.047153678            2 
 1425000   0.68739561   -4.2467206    805.32296   0.04709491  0.047126493            8 
 1426000   0.67667303    -4.223409    805.21078  0.047055329  0.047099289           25 
 1427000   0.68579643   -4.2103912    807.98449  0.047184331  0.047072119            5 
 1428000   0.67576392   -4.2157051    808.48152  0.047180294  0.047045154            6 
 1429000   0.69321706   -4.2477438     805.6863  0.046984272  0.047018024            6 
 1430000   0.68197195   -4.2307402    809.07377  0.047148821  0.046990805            5 
 1431000   0.67774743   -4.2032522    807.85132  0.047044684  0.046963823            4 
 1432000   0.69598827   -4.2370142    805.91454  0.046899124  0.046936803            8 
 1433000   0.68898032   -4.2299576    807.55972  0.046962068  0.046909722            5 
 1434000   0.68504125   -4.2626389     807.0689  0.046900796  0.046882367            6 
 1435000   0.67379487   -4.2778659    805.32865  0.046767053  0.046855126           11 
 1436000   0.68441167   -4.2612691     808.9749  0.046946083  0.046827819           13 
 1437000   0.66658686   -4.2263003    806.85763   0.04679063  0.046800662            5 
 1438000   0.68723967   -4.2586884    806.13481  0.046716204  0.046773668           12 
 1439000   0.69124652   -4.2771329    810.00725  0.046907994  0.046746454            9 
 1440000   0.69328389   -4.2693491    807.40675  0.046724928  0.046719402           10 
 1441000   0.68144042   -4.2435027    806.80357   0.04665762  0.046692286           10 
 1442000   0.68287064   -4.2471783     808.0542  0.046697538  0.046665114            8 
 1443000   0.66664953   -4.2428564      809.835  0.046768018  0.046638128           10 
 1444000   0.67417098   -4.2508522    806.99261  0.046571595  0.046611104            6 
 1445000   0.67554062   -4.2578082    806.54918  0.046513793  0.046584048           16 
 1446000   0.67942792   -4.2427195    809.61358  0.046658229  0.046557035           12 
 1447000   0.67003661   -4.2388004    808.60466  0.046567879  0.046529958            9 
 1448000   0.67747783   -4.2609701    808.00339  0.046501116  0.046502781           10 
 1449000   0.68270532   -4.2571644    806.48579  0.046381745  0.046475599           12 
 1450000   0.67558539   -4.2379986    809.72823  0.046536105  0.046448292            4 
 1451000   0.68004713   -4.2256714    810.05205  0.046522631  0.046421236            7 
 1452000   0.66740004   -4.2507146    810.53939   0.04651856  0.046394279            8 
 1453000   0.68259178   -4.2715643    808.87755  0.046391233  0.046367118            9 
 1454000   0.68097021   -4.2510642     808.7525  0.046352161  0.046339868           16 
 1455000   0.68049571   -4.2681329    807.42164   0.04624408  0.046312701           11 
 1456000   0.67262076   -4.2706792    808.43183  0.046270137  0.046285333            9 
 1457000   0.65796771   -4.2679063    807.36727  0.046177492  0.046258087            9 
 1458000   0.67690431   -4.2522945    808.85894  0.046231078  0.046230789            6 
 1459000   0.67501986   -4.2620746    806.99769  0.046093083  0.046203198            6 
 1460000   0.68007766   -4.2714894    809.73394   0.04621769  0.046175829           12 
 1461000    0.6774322    -4.289829    807.58526  0.046063499  0.046148514           10 
 1462000   0.66054417   -4.2910714    807.86462  0.046047915  0.046121117           10 
 1463000    0.6706872   -4.2744643    808.44995  0.046049781  0.046093612            4 
 1464000   0.66937615    -4.264336    809.00022  0.046049648  0.046066404           10 
 1465000   0.67444379   -4.2710585    808.58551  0.045994625  0.046039117            6 
 1466000   0.65447638   -4.2612068    810.80764  0.046089566  0.046011881            9 
 1467000    0.6654101   -4.2609751     811.4061  0.046092144  0.045984693            9 
 1468000   0.66270364   -4.2521338    809.07493  0.045928413  0.045957526            6 
 1469000   0.67053666   -4.2658472    811.24602   0.04602031  0.045930639            7 
 1470000   0.66840509   -4.2584288    811.39354  0.045997366  0.045903757            8 
 1471000   0.66441273   -4.2535895    811.72376  0.045984804  0.045876963           12 
 1472000   0.66845013    -4.298711    812.25428  0.045983599  0.045850278           23 
 1473000   0.67108791   -4.2658694    813.05678  0.045997781  0.045823345            5 
 1474000   0.65669496   -4.2818539     808.6008  0.045714654  0.045796416            7 
 1475000    0.6737726    -4.277179    812.87375  0.045925071  0.045769513            9 
 1476000   0.66973077   -4.2851345     811.8896  0.045838392  0.045742627            7 
 1477000   0.65273365   -4.2818371    812.76777  0.045856904  0.045715759            7 
 1478000   0.67478632   -4.2709169    811.79835   0.04577122  0.045688973            7 
 1479000   0.68296632   -4.2777389    812.31878  0.045769595  0.045662235            8 
 1480000   0.65585673   -4.2836656    815.30118  0.045906598  0.045635509            6 
 1481000    0.6496293   -4.2744642    812.60336  0.045723799  0.045608611            7 
 1482000   0.66349992   -4.2777641    811.78143  0.045646729  0.045581663            4 
 1483000   0.66279497   -4.2746344    810.53813  0.045546085  0.045554732            6 
 1484000   0.66439079   -4.2686316    812.32747  0.045615873   0.04552771            6 
 1485000   0.66971862    -4.262802    814.07782  0.045683379  0.045501074           11 
 1486000   0.66269116   -4.2841774    813.73709  0.045633529  0.045474499            8 
 1487000   0.66736932   -4.2977189     811.8404  0.045496548  0.045447651           13 
 1488000   0.66301638   -4.2902349    814.99855   0.04564284   0.04542085            6 
 1489000   0.66304774   -4.3004869    815.20686  0.045623845   0.04539422            5 
 1490000   0.66242117   -4.2694419    814.33221  0.045544307  0.045367573           18 
 1491000   0.66132953   -4.2840287     812.7947  0.045427828  0.045340908           15 
 1492000   0.66339763   -4.2902141    817.06571  0.045635931  0.045314225            5 
 1493000   0.65791476   -4.2869617    812.59177  0.045355647  0.045287673           11 
 1494000   0.66296529   -4.3064718    814.19338  0.045414624  0.045261031            8 
 1495000   0.65426813   -4.3085501     813.7445  0.045359225  0.045234368            8 
 1496000   0.64612382    -4.314396    814.68429  0.045381255  0.045207681            5 
 1497000   0.65343121   -4.2743086    816.68371  0.045462242  0.045181142            6 
 1498000   0.65907605    -4.267531    815.41802  0.045361483  0.045154913            6 
 1499000   0.63726654   -4.2896584    815.68476   0.04534605  0.045128446           13 
 1500000    0.6557987   -4.2907169    816.07417  0.045337454  0.045101969            3 
 1501000   0.65984958   -4.2931002    816.28976  0.045319218   0.04507547           10 
 1502000    0.6485379   -4.2887011    818.31706  0.045401523  0.045049094           15 
 1503000   0.64393679   -4.2988079    817.07536  0.045302471  0.045022849            9 
 1504000   0.65185218   -4.2689386    817.46793  0.045294101  0.044996532            6 
 1505000   0.65628371   -4.3076256     814.8554  0.045119347  0.044970189            5 
 1506000   0.64783814   -4.2852108    815.64143  0.045132881  0.044943965            5 
 1507000    0.6556215   -4.2983265    818.23009  0.045246079  0.044917967           11 
 1508000   0.64921305   -4.3090093    818.33521  0.045221884  0.044891989            7 
 1509000   0.66254633   -4.3077026    818.08956   0.04517835  0.044865945            8 
 1510000   0.65552059   -4.3149144     817.3532  0.045107792   0.04483977           15 
 1511000   0.64842802    -4.313141    816.66632  0.045040057  0.044813718            4 
 1512000   0.65234857   -4.2988912    818.39425  0.045105503  0.044787621           13 
 1513000   0.64945544   -4.2867585    819.96136  0.045162005  0.044761613            6 
 1514000   0.65220408   -4.2870747    820.48911  0.045161224  0.044735765            6 
 1515000   0.65404588   -4.2982601    818.15439  0.045002992  0.044709916            9 
 1516000   0.64114033   -4.3151334    820.07036  0.045078626    0.0446841           12 
 1517000    0.6370617   -4.3012366    817.31096  0.044897328  0.044658145           10 
 1518000   0.66319869   -4.3164573    818.74137  0.044946276  0.044632219           19 
 1519000   0.64258191   -4.2984442     818.4579  0.044901136  0.044606012            6 
 1520000    0.6550522   -4.2950926    820.72696  0.044995996  0.044579759            7 
 1521000   0.63784919    -4.280838    818.23461   0.04482986  0.044553821            7 
 1522000   0.64671322   -4.3075293    817.47576  0.044758856  0.044527874           12 
 1523000   0.64443082   -4.2946677     819.4272  0.044836244  0.044501744            8 
 1524000    0.6577506   -4.3429296    817.77542  0.044716504  0.044475536            7 
 1525000   0.64399411   -4.3111698    819.63366  0.044788725  0.044449292           10 
 1526000   0.65102518   -4.2977754    818.96194  0.044722692  0.044423141           13 
 1527000   0.63958933   -4.3359005    819.73795  0.044735754   0.04439692            6 
 1528000   0.64647468   -4.3168359    818.07615  0.044615846   0.04437061            8 
 1529000   0.64982337   -4.3301211    816.51714  0.044501697  0.044344296            7 
 1530000   0.63302586   -4.3131923    820.18837  0.044672569  0.044318251            7 
 1531000   0.65742325    -4.287654    820.49821  0.044660255   0.04429222           13 
 1532000   0.63646868   -4.3018775    820.20896   0.04461537  0.044266332            7 
 1533000   0.63493288   -4.3226328    819.88793  0.044568816  0.044240221           16 
 1534000   0.64627418   -4.3188245    818.20112  0.044448127  0.044214002           10 
 1535000   0.65838102   -4.3118047    816.62583   0.04433365  0.044187765            7 
 1536000   0.63823773   -4.3176789    820.24971  0.044501395  0.044161734            6 
 1537000   0.63183391   -4.3329838    817.93751  0.044347078  0.044135539           13 
 1538000   0.64003786   -4.3154816    821.47183  0.044509743  0.044109442            7 
 1539000   0.65634851   -4.3305791    820.46852  0.044426496  0.044083567           12 
 1540000   0.65036059   -4.3104028     820.4002   0.04439395  0.044057643           10 
 1541000   0.62225079   -4.3451671    817.91712  0.044230863  0.044031536           16 
 1542000   0.64341106   -4.3307727    819.73263  0.044300294  0.044005484            9 
 1543000   0.62786795   -4.3397407    820.49514  0.044312764  0.043979537            6 
 1544000   0.64453429   -4.3228745    820.08731  0.044262052  0.043953646           12 
 1545000   0.63608254   -4.3282792    820.65521  0.044264035  0.043927888            5 
 1546000   0.63013625   -4.3134164      821.542  0.044283204  0.043902115           15 
 1547000   0.65278994    -4.320879    821.88631  0.044273126  0.043876404           12 
 1548000   0.63451842   -4.3379045     820.9593  0.044194622  0.043850646            6 
 1549000   0.63464897   -4.3258916    820.98997  0.044167741  0.043824767            9 
 1550000   0.63680975   -4.3303661    821.29291  0.044155533  0.043798916            6 
 1551000   0.63929251   -4.3294247    820.27053  0.044072133  0.043773074            6 
 1552000   0.64813284   -4.3454007    822.76914  0.044177896  0.043747301            8 
 1553000   0.62110844   -4.3328766     820.1461  0.044008698  0.043721578            9 
 1554000    0.6317964   -4.3339384     822.3908  0.044100751  0.043695922            5 
 1555000    0.6309111   -4.3460198    819.92242  0.043940108  0.043670148            6 
 1556000    0.6369098   -4.3319985     822.8397  0.044068107  0.043644432            8 
 1557000   0.63490307   -4.3356541    821.07741  0.043945483  0.043618698            6 
 1558000    0.6346902   -4.3336949    824.12265  0.044080159  0.043593009            4 
 1559000   0.61122478   -4.3241804    823.35048  0.044010609   0.04356745           16 
 1560000     0.633966   -4.3331344    822.35611  0.043929279  0.043541849            9 
 1561000   0.62283526   -4.3320504    823.44259  0.043959139  0.043516139            5 
 1562000   0.63255069   -4.3567259    821.20067  0.043811388  0.043490378           14 
 1563000   0.62817868   -4.3486629    823.98737  0.043931935  0.043464715            4 
 1564000   0.63253964   -4.3506512    822.86893  0.043844252  0.043439178            8 
 1565000   0.63196333   -4.3536801    822.43208  0.043792976  0.043413418            7 
 1566000   0.63665825   -4.3287834    822.47451  0.043767269  0.043387837            9 
 1567000   0.62711015   -4.3386128    822.81758  0.043757582  0.043362206            9 
 1568000   0.63390602   -4.3478753     823.0889  0.043744095  0.043336774            6 
 1569000   0.62713637   -4.3284968    824.91831  0.043813379  0.043311203            7 
 1570000   0.63023714   -4.3433815    824.19023  0.043746827  0.043285806           11 
 1571000   0.61947576   -4.3472864    824.38503  0.043729314  0.043260293            9 
 1572000   0.63902043   -4.3501325    823.16354  0.043636744  0.043234774            8 
 1573000   0.62430703   -4.3408759    822.23723  0.043559929  0.043209264           10 
 1574000   0.63075547   -4.3611645    822.73303  0.043558504  0.043183758            7 
 1575000   0.62343087   -4.3459656    825.11922  0.043657101  0.043158107            6 
 1576000   0.61966589   -4.3676851    823.02209  0.043518512  0.043132473           10 
 1577000     0.619754    -4.339426    825.25996  0.043609171  0.043106853            8 
 1578000   0.62553607   -4.3374452    822.80529  0.043451906  0.043081239            5 
 1579000   0.62737475   -4.3551889      824.678  0.043523222  0.043055774            8 
 1580000   0.63337381   -4.3669913    824.28653  0.043475028  0.043030314           13 
 1581000   0.60636104    -4.340393    822.65233  0.043361392  0.043005074            8 
 1582000   0.61210982   -4.3710421    824.34807  0.043423308  0.042979786            5 
 1583000   0.62748425    -4.348047    826.34263  0.043500876  0.042954476            8 
 1584000    0.6349856   -4.3415481    826.16503   0.04346407  0.042929581            6 
 1585000   0.61847647    -4.369681    823.99517  0.043322564  0.042904512            8 
 1586000   0.62103519   -4.3647155    824.07123  0.043299245  0.042879305           12 
 1587000   0.62895606   -4.3640724    827.33134  0.043443149  0.042854134            8 
 1588000    0.6233149   -4.3735942    826.46226  0.043370186  0.042828961            5 
 1589000   0.61791855   -4.3521218    823.81461  0.043204039  0.042803691            6 
 1590000   0.60556117   -4.3455582    825.85637  0.043283877  0.042778533           13 
 1591000   0.62159439   -4.3572981    827.24076  0.043329183  0.042753538            6 
 1592000   0.60907416   -4.3738288    826.65216  0.043271156  0.042728482            5 
 1593000   0.61447479   -4.3322367     827.2359  0.043274529  0.042703573            6 
 1594000   0.60726571   -4.3468881    829.63141  0.043372616  0.042678824           22 
 1595000   0.60584861   -4.3570324    828.36557  0.043279288  0.042653967            7 
 1596000   0.61852839   -4.3852564    827.68004  0.043216376   0.04262901           11 
 1597000   0.62958238   -4.3592292    829.55297  0.043287047  0.042604262            6 
 1598000   0.60179935   -4.3782848     829.1197  0.043237365  0.042579449           13 
 1599000   0.61142145   -4.4063435    828.25686  0.043165356  0.042554545            9 
 1600000   0.61848339   -4.3735559    828.42671  0.043147224  0.042529665            6 
 1601000    0.6032447   -4.3613809    828.03052  0.043099652  0.042504791            5 
 1602000   0.61204406    -4.380487    825.71165  0.042952125  0.042479802           16 
 1603000   0.59031404   -4.3881198    827.21608  0.043003539  0.042454799           16 
 1604000   0.62464598   -4.3595809    829.89361  0.043115836  0.042429971            7 
 1605000   0.62063232   -4.3930514     826.9422  0.042935732  0.042405122           11 
 1606000   0.62085284   -4.3850174    830.08461  0.043072053  0.042380117            9 
 1607000   0.60682682    -4.362208    827.91514  0.042932749  0.042355087           15 
 1608000   0.61336841   -4.3904448    826.60309  0.042838054  0.042330065            9 
 1609000    0.6189087   -4.3672645    829.95377  0.042984968  0.042305034           16 
 1610000   0.61376502   -4.3754192    826.16977   0.04276241   0.04228009           13 
 1611000   0.60750324   -4.3906432    828.29454  0.042845776  0.042255198            5 
 1612000   0.59539334   -4.3911268    826.95756  0.042750081   0.04223014            9 
 1613000   0.61623579   -4.3695253    826.43898  0.042696785  0.042205091            9 
 1614000   0.59925603   -4.3679085    827.62588  0.042731613  0.042180089           18 
 1615000   0.61198306   -4.3782215    827.79952  0.042714114  0.042155148           15 
 1616000   0.62439361   -4.3881013    828.30963  0.042713987  0.042130138           15 
 1617000   0.60076447   -4.3760678    827.55819  0.042648845  0.042105047            7 
 1618000   0.60323575   -4.3916164    829.91205  0.042743719  0.042080035           14 
 1619000   0.59203605   -4.3918543    828.16883  0.042627591  0.042055209           12 
 1620000   0.60972675   -4.3723263    827.67403  0.042575825  0.042030167            5 
 1621000   0.62746319   -4.3798095     827.8394  0.042558061  0.042005088           14 
 1622000   0.61488163   -4.3867759    827.86832  0.042533309  0.041979978            4 
 1623000    0.6068531   -4.3934049    828.46009  0.042537487  0.041954897            5 
 1624000   0.60141063    -4.399784    827.49664  0.042461855  0.041929742            4 
 1625000   0.60778741   -4.3865786    825.56835  0.042336838  0.041904563           12 
 1626000   0.61068078   -4.3722814    829.44872  0.042509672  0.041879442           10 
 1627000    0.6082458   -4.3671575    829.68504  0.042495648  0.041854444           11 
 1628000   0.59713248   -4.4066308    827.95432  0.042380954  0.041829404           13 
 1629000   0.60942383   -4.3840229    828.15402  0.042365153  0.041804514           12 
 1630000   0.60744165   -4.3826253    827.68188  0.042315024  0.041779412            8 
 1631000   0.60933358   -4.3841861    827.48225   0.04227888  0.041754443           16 
 1632000   0.59897952   -4.3908584    827.71473  0.042264846   0.04172953            8 
 1633000   0.61129814   -4.3840979    826.93026  0.042198931  0.041704546           15 
 1634000   0.60148223    -4.396798     828.6082   0.04225868  0.041679561           10 
 1635000   0.60105869   -4.3930806    831.09792  0.042359731  0.041654735           12 
 1636000   0.60227739    -4.391256    828.29478  0.042191054  0.041629823            8 
 1637000   0.61652013   -4.4054138     829.2733  0.042215094  0.041604989           16 
 1638000   0.59553036   -4.4007759    828.51366  0.042150675  0.041580028            9 
 1639000   0.59873885   -4.4084899     828.1009  0.042103971  0.041554933            9 
 1640000    0.5870161   -4.4136869    829.44786  0.042146741  0.041529944           10 
 1641000   0.60423701   -4.3794978    831.25527  0.042212841  0.041505148            9 
 1642000   0.60860965   -4.3683157    828.90527  0.042067868  0.041480301            9 
 1643000    0.5985325   -4.3876856    829.18255  0.042056327  0.041455448            9 
 1644000   0.59714923   -4.3898776      831.579   0.04215222  0.041430622           27 
 1645000   0.58684312   -4.4015447    831.13954  0.042104333  0.041405767            8 
 1646000    0.6026353   -4.3887877    830.06456   0.04202433  0.041381069            9 
 1647000   0.60078134   -4.4062222    828.55557  0.041922464  0.041356272           13 
 1648000   0.59584703   -4.4251673    829.85844  0.041962906  0.041331326            6 
 1649000    0.5844911   -4.4175539    830.62026  0.041975958  0.041306354           11 
 1650000   0.59624907   -4.4094474    831.68597  0.042004342  0.041281506            7 
 1651000   0.58881283   -4.4110986    829.76443  0.041881911   0.04125668           11 
 1652000   0.59962078   -4.4061441    830.11796  0.041874393  0.041231966           15 
 1653000   0.60485948    -4.396683    830.45182  0.041865891  0.041207358           18 
 1654000   0.59632016   -4.4103948    830.90449  0.041863386  0.041182662           19 
 1655000   0.58319505   -4.3867611    830.84986   0.04183534  0.041158003            8 
 1656000    0.5967757   -4.4274837    829.00228  0.041717103  0.041133325           11 
 1657000   0.60268092   -4.4251727    829.51509  0.041717717  0.041108608            7 
 1658000   0.59425726   -4.4066925    832.29762   0.04183241  0.041083984           12 
 1659000   0.57895287   -4.4100394    830.13011  0.041698318  0.041059381           10 
 1660000   0.58587449   -4.4055438     831.2024  0.041727028  0.041034761           19 
 1661000   0.60264425   -4.4079201    830.22036  0.041652637  0.041010209            9 
 1662000    0.5946978   -4.4148302    831.44753  0.041689106  0.040985656            8 
 1663000   0.57725132   -4.4473194    831.60267  0.041671812  0.040961188            9 
 1664000    0.5860086   -4.4445847    829.18133  0.041525507  0.040936592           13 
 1665000    0.5938793   -4.4139868    831.40593  0.041611908  0.040912002           10 
 1666000   0.58075343   -4.4400319    830.83104  0.041558175  0.040887449           13 
 1667000   0.57473818   -4.4218079    830.01225  0.041492314  0.040863003           10 
 1668000    0.5700684   -4.4188406    830.80407  0.041506998  0.040838408           11 
 1669000   0.58594641   -4.4159121    831.04183     0.041494  0.040813956            7 
 1670000   0.57940983   -4.4324696    832.64024  0.041548914  0.040789351           13 
 1671000   0.59723822   -4.4558245    831.17167  0.041450811  0.040764938           15 
 1672000   0.58282524   -4.4103046    833.86411  0.041560213  0.040740517           12 
 1673000   0.59126591    -4.438603    831.30917  0.041408108  0.040716197           13 
 1674000    0.5989953   -4.4210633    834.27515  0.041531021   0.04069197           19 
 1675000   0.58534868   -4.4316381    832.35915  0.041410903  0.040667702           20 
 1676000   0.57082267   -4.4451369    832.35653  0.041386064  0.040643474            8 
 1677000   0.58029194   -4.4463409    831.92525  0.041339955  0.040619029           13 
 1678000   0.59476334   -4.4261083    831.47984  0.041293198   0.04059453           14 
 1679000   0.59436876   -4.4229084    832.27375  0.041308008  0.040570015           11 
 1680000   0.58930439    -4.432465    831.22414  0.041231356  0.040545685           13 
 1681000   0.58085095   -4.4365304    829.44841  0.041118799  0.040521358           17 
 1682000   0.58380786   -4.4293957    832.90737  0.041265724  0.040497073           12 
 1683000   0.57385087   -4.4446858    831.50901  0.041171965  0.040472857           11 
 1684000   0.56454299   -4.4249278     832.1571  0.041179587  0.040448672            8 
 1685000   0.57587795    -4.427455    832.19432  0.041156989  0.040424553           12 
 1686000   0.59313805     -4.43921    832.48847  0.041147117  0.040400423            6 
 1687000    0.5902616   -4.4286994    832.40401  0.041118554  0.040376161           15 
 1688000   0.57723608   -4.4595216    830.88571  0.041019239  0.040351911           12 
 1689000   0.57665604   -4.4523612     832.9695  0.041097765  0.040327616            7 
 1690000   0.57934468   -4.4477855     833.4955  0.041099384  0.040303455           47 
 1691000   0.58078939   -4.4591695    834.90954  0.041144763  0.040279332           14 
 1692000   0.58090314   -4.4357546    832.35527  0.040994645  0.040255233           16 
 1693000   0.56438998    -4.422824    833.17241  0.041010652  0.040231203            5 
 1694000   0.57385641   -4.4244535    834.68158  0.041060684  0.040207149           14 
 1695000   0.56719758   -4.4781866    834.43244   0.04102421   0.04018305           18 
 1696000   0.56931027   -4.4466572    833.72643  0.040965331  0.040159012           12 
 1697000   0.57409815   -4.4321493    833.01433  0.040906223  0.040134939           21 
 1698000   0.57707363   -4.4511123    831.22328  0.040794232  0.040110837           18 
 1699000   0.57165969   -4.4435879    832.91278  0.040853089  0.040086739           16 
 1700000   0.58588351   -4.4256972    834.77031  0.040920113  0.040062732           13 
 1701000   0.57308864   -4.4450029    833.32627  0.040825312  0.040038726           17 
 1702000   0.57842772   -4.4616037    832.32013  0.040752063  0.040014805            8 
 1703000   0.57690981   -4.4541804    834.15979  0.040818154  0.039990705           12 
 1704000   0.56965301   -4.4494728     835.4143  0.040855551  0.039966673           12 
 1705000   0.57245644   -4.4407046    834.84427  0.040803728  0.039942737            6 
 1706000   0.57391352   -4.4673583    834.24291  0.040750435  0.039918737            9 
 1707000   0.57265633   -4.4631454    833.56675  0.040693553  0.039894806           11 
 1708000   0.57548108   -4.4657627    835.95101  0.040786056  0.039870836            8 
 1709000   0.56227671    -4.457323    832.77014  0.040607087   0.03984684           13 
 1710000    0.5627961   -4.4486312    835.03463  0.040693695  0.039822845           14 
 1711000   0.57221424   -4.4550119    834.91864  0.040664262  0.039798847            8 
 1712000   0.56990383   -4.4680421    832.12654  0.040504602  0.039774843           18 
 1713000   0.57845682   -4.4890683       832.82  0.040514692  0.039750668           10 
 1714000   0.56350942    -4.484699    835.65236  0.040628761   0.03972654           10 
 1715000   0.57158232   -4.4593576    833.38773  0.040495031  0.039702391           14 
 1716000    0.5681383   -4.4633965    835.80447  0.040588795  0.039678359            8 
 1717000   0.56680828   -4.4720432    833.63133  0.040459684  0.039654358            9 
 1718000   0.56896945   -4.4770905    832.57964   0.04038512  0.039630215            5 
 1719000   0.57157525   -4.4723298    833.59706  0.040410949  0.039606151           27 
 1720000   0.56060325   -4.4596998    832.87453  0.040352448  0.039582111            8 
 1721000   0.56682427   -4.4580421    833.94723  0.040380943   0.03955819            9 
 1722000   0.57744783   -4.4574556    834.00014  0.040360053   0.03953431           13 
 1723000   0.55569859   -4.4546004    834.53515  0.040362505  0.039510432           22 
 1724000   0.55751274   -4.4570088    835.32446  0.040377246  0.039486554           12 
 1725000   0.56823073   -4.4516365    835.74665  0.040374234  0.039462773            9 
 1726000   0.54949535   -4.4879585    834.68341  0.040299508  0.039439002           19 
 1727000   0.56051968   -4.4682585    835.42386  0.040311902  0.039415256            4 
 1728000   0.55469808   -4.4650748    832.56818  0.040150857  0.039391523           12 
 1729000    0.5552905   -4.4664874    835.01699  0.040245662  0.039367749           13 
 1730000   0.56260468   -4.4715606    835.92628  0.040266198  0.039343914            9 
 1731000   0.55058287   -4.4869587    831.82414  0.040045452  0.039319873            9 
 1732000    0.5590629   -4.4796672    834.68383  0.040159922  0.039295867           16 
 1733000   0.56844947   -4.4891387       834.48  0.040126947   0.03927186           12 
 1734000   0.57466483   -4.4807345    834.24743  0.040092629  0.039247763           11 
 1735000   0.55829473   -4.4847617     834.5023  0.040081763   0.03922385            9 
 1736000   0.55757652   -4.4787722     836.7197  0.040165116  0.039199982            8 
 1737000   0.57443612   -4.4752145    833.33593  0.039979655  0.039176107           11 
 1738000   0.56758121   -4.4720515    832.98821  0.039939979   0.03915226           16 
 1739000   0.54990295    -4.484891    834.82536  0.040005049  0.039128364           25 
 1740000   0.55892996   -4.4837797    832.45383  0.039868479  0.039104489           11 
 1741000   0.56403538   -4.4806758    836.29041  0.040029217  0.039080726           21 
 1742000   0.55959995   -4.4783115     835.8699  0.039986122  0.039056897            7 
 1743000   0.54654549   -4.4894115    832.96565  0.039824328  0.039033095            8 
 1744000   0.54781679   -4.4972494    835.33312  0.039914618  0.039009256            9 
 1745000   0.56145548   -4.4808632    835.07407  0.039879373  0.038985478           13 
 1746000   0.56452806   -4.4722055    835.20847  0.039862947  0.038961768           14 
 1747000   0.54561789   -4.4745202    833.68077  0.039767257  0.038938046           10 
 1748000   0.56516262   -4.4842294    835.93185  0.039851823  0.038914287           10 
 1749000   0.55336609   -4.4731995    833.30975  0.039704105   0.03889059           18 
 1750000   0.54389787   -4.4931359    833.30038   0.03968097  0.038866813           11 
 1751000     0.553577   -4.4857549    833.93983  0.039688741  0.038842977           26 
 1752000    0.5541396   -4.4993571    835.85793  0.039757321  0.038819207           11 
 1753000    0.5509761   -4.4902704    834.36129  0.039663496  0.038795501           18 
 1754000   0.54980915   -4.4991773    833.03542   0.03957789  0.038771721            6 
 1755000   0.55551378   -4.5089331    834.91744  0.039644703  0.038747969           15 
 1756000   0.56168178   -4.5160872    835.42206  0.039646073  0.038724214           14 
 1757000   0.54776675   -4.5023026    834.74117  0.039591215  0.038700541           20 
 1758000   0.55465974    -4.480561    836.35929  0.039645397  0.038676935           50 
 1759000   0.55816056   -4.5044065    833.79866  0.039501547   0.03865336           22 
 1760000   0.55645915   -4.4950978    835.14694  0.039542942  0.038629783           10 
 1761000   0.54464804   -4.5109541    836.94072  0.039605372  0.038606225            9 
 1762000   0.53752419   -4.5010465    836.42623  0.039558562  0.038582705           13 
 1763000   0.54704279   -4.5035093     835.4171  0.039488424  0.038559147            8 
 1764000   0.53542234   -4.4867018    835.31811  0.039461362  0.038535656            9 
 1765000    0.5396097    -4.495473    835.75056  0.039459422  0.038512173           13 
 1766000   0.54849734    -4.496094    836.28562  0.039462326  0.038488682           17 
 1767000    0.5534334   -4.5127471    835.12638  0.039385323   0.03846507           18 
 1768000   0.55502096   -4.4979976    833.52558  0.039287593  0.038441473            8 
 1769000   0.53775493   -4.4901386    835.66423  0.039366131  0.038417916           48 
 1770000   0.55084141   -4.4988167    835.15286  0.039319815  0.038394313           28 
 1771000   0.53502409   -4.4753596    835.37637   0.03930813  0.038370734           54 
 1772000   0.53971371   -4.4902164      834.988  0.039267682  0.038347188           25 
 1773000   0.54059446   -4.4894487    835.08469  0.039250079  0.038323594           61 
 1774000   0.56150195   -4.5226903    833.31651  0.039144894  0.038300021           41 
 1775000   0.54460848   -4.4911776     835.6484  0.039232319  0.038276491           22 
 1776000   0.53060854   -4.5028105    836.16034   0.03923425  0.038253049           16 
 1777000   0.54675079   -4.5027518    834.26293  0.039123191  0.038229586           23 
 1778000   0.54459448   -4.4826691    834.35806  0.039105646   0.03820607           42 
 1779000     0.547886   -4.5152448    835.74085  0.039148438  0.038182546           70 
 1780000   0.54574276   -4.5058692    836.38203  0.039156462  0.038159009           32 
 1781000   0.54048638   -4.4950026    837.51214  0.039187354  0.038135448           32 
 1782000   0.53964405   -4.5145162    835.39653   0.03906643    0.0381118           19 
 1783000   0.54966167   -4.5314592     833.6305  0.038961979  0.038088148           22 
 1784000   0.53879042   -4.5154681    833.54945  0.038936353    0.0380645           19 
 1785000    0.5455384   -4.5254645    835.91987  0.039025204  0.038040898            9 
 1786000   0.54334793   -4.5067771    834.35478  0.038930328  0.038017288            8 
 1787000   0.53289604   -4.5110326     834.8818  0.038933119  0.037993759           15 
 1788000   0.53905141    -4.536528     832.7184  0.038810515  0.037970155           19 
 1789000   0.54980187   -4.5193878     836.0305  0.038943101  0.037946646           23 
 1790000   0.54290391   -4.5011987    835.03488  0.038874994  0.037923258           13 
 1791000    0.5480682   -4.5276037    835.22473  0.038862122  0.037899846            9 
 1792000   0.53361737   -4.5327363    833.99929  0.038783449  0.037876334           18 
 1793000   0.53164429   -4.5117967    835.01409  0.038808984  0.037852855           14 
 1794000   0.54621607   -4.5173292    836.58698  0.038860413  0.037829481            8 
 1795000    0.5397796   -4.5112749    835.94461  0.038808942  0.037806108           22 
 1796000   0.53711384    -4.535787    834.31871  0.038711893  0.037782656           38 
 1797000   0.53819342   -4.5203265    836.10527  0.038773199  0.037759232           18 
 1798000   0.53428259   -4.5248712    831.90736  0.038557071  0.037735815           36 
 1799000   0.53365691   -4.5334914    834.06393  0.038635535  0.037712361           36 
 1800000   0.54199924   -4.5267288    834.93212  0.038654265  0.037688945           20 
 1801000   0.53291366   -4.5142688    834.18332  0.038598155  0.037665569           13 
 1802000   0.53013197   -4.5381095     834.7708  0.038603903  0.037642072           20 
 1803000   0.54392146   -4.5364087    833.64149  0.038530296  0.037618608           15 
 1804000   0.52724287   -4.5258474    833.99775  0.038525395  0.037595135           31 
 1805000   0.53061468   -4.5537982    832.16058  0.038419233  0.037571606           22 
 1806000   0.53559824   -4.5237885    834.00884  0.038483243  0.037548085           39 
 1807000   0.53807666   -4.5476855     832.7343  0.038403168  0.037524503           42 
 1808000   0.54205634   -4.5225856    832.59355   0.03837544  0.037500942           53 
 1809000   0.52667529   -4.5485664    831.59135  0.038308059  0.037477323           28 
 1810000   0.52849646   -4.5229434    832.15955  0.038313055  0.037453716           13 
 1811000   0.52911287   -4.5419317    834.02757  0.038377856  0.037430151           13 
 1812000   0.52823788   -4.5477391    832.68265  0.038294824  0.037406632           24 
 1813000   0.53276644   -4.5443467    837.04745  0.038474327  0.037383066           13 
 1814000   0.52314305   -4.5415363    832.42405  0.038240722  0.037359573           14 
 1815000   0.53870981   -4.5358403    834.45589  0.038312943  0.037336093           12 
 1816000   0.53654708   -4.5581151     833.0551  0.038227565  0.037312598           17 
 1817000   0.53679153   -4.5424552     835.1691  0.038303481  0.037289149           15 
 1818000   0.53535554   -4.5311063     834.5045  0.038251948  0.037265821           17 
 1819000   0.52583164   -4.5304904     833.3354  0.038177359  0.037242517           16 
 1820000   0.55095007   -4.5339306    834.97926  0.038231651  0.037219166            6 
 1821000   0.53307487   -4.5301927    832.29399  0.038087772  0.037195836           22 
 1822000   0.51599183   -4.5333053    833.38881  0.038116941  0.037172461           14 
 1823000   0.52812414   -4.5330732    834.10126  0.038128601  0.037149134           11 
 1824000    0.5328222   -4.5428226    833.68974  0.038088895  0.037125751           11 
 1825000   0.52161425   -4.5427602    834.78287  0.038117939  0.037102403           12 
 1826000   0.52010365   -4.5387489    834.03393  0.038062885  0.037079009            8 
 1827000   0.52118798   -4.5718142    833.81985  0.038032287  0.037055644           17 
 1828000   0.50907754   -4.5618405    833.13271  0.037980156  0.037032166           34 
 1829000   0.53580799   -4.5466421    834.24504  0.038010071  0.037008848           11 
 1830000   0.53079228     -4.55253    835.96243  0.038067506  0.036985608           10 
 1831000   0.53330863   -4.5619949    833.51032  0.037935114    0.0369624           21 
 1832000   0.51376245   -4.5502039     835.4824  0.038004112  0.036939155           11 
 1833000   0.51254872   -4.5612561    833.78792  0.037906343  0.036915954           14 
 1834000   0.53002347   -4.5520666    833.23091  0.037860365  0.036892719           26 
 1835000   0.51462741    -4.574731    833.63297  0.037857991  0.036869447           32 
 1836000   0.51835376    -4.548923    835.97115  0.037943498  0.036846284           19 
 1837000     0.520395   -4.5360854    837.17167  0.037977303  0.036823266           20 
 1838000   0.52729161   -4.5592054    834.85607  0.037851653  0.036800188           22 
 1839000   0.49962044   -4.5727954    833.44013  0.037766908  0.036776992           26 
 1840000   0.51973262   -4.5735799    833.00575   0.03772671  0.036753868            5 
 1841000   0.51540222   -4.5581126    833.08726  0.037709907  0.036730695           33 
 1842000   0.50913312   -4.5613452    834.56666  0.037756364  0.036707546           16 
 1843000   0.52179868   -4.5729932    835.08473  0.037759302  0.036684377           14 
 1844000   0.51705816   -4.5579152    833.41514  0.037663374  0.036661255           19 
 1845000   0.51278584      -4.5598       835.18  0.037722674  0.036638136           11 
 1846000   0.51001279   -4.5799347    833.68957  0.037634957  0.036615032           26 
 1847000   0.50493399   -4.5893085    833.94864   0.03762627  0.036591954           25 
 1848000   0.50820195   -4.5731499    832.41104  0.037536573  0.036568823           17 
 1849000   0.51359168   -4.5677953    833.90916  0.037583791  0.036545721           37 
 1850000   0.52083406   -4.5818279    833.61554  0.037550249  0.036522604           15 
 1851000   0.51415739   -4.5742349    833.53205  0.037526204  0.036499491           13 
 1852000   0.50861263   -4.5685473    834.64575  0.037556054  0.036476408           22 
 1853000   0.50484771   -4.5533195     832.2517  0.037428121  0.036453306           17 
 1854000   0.50409513   -4.5614871    834.07283  0.037489789  0.036430214           27 
 1855000   0.50132417   -4.5746174    832.75472  0.037410365  0.036407084           23 
 1856000   0.50757863   -4.5754978    832.59092  0.037382854  0.036384014           17 
 1857000   0.50697168   -4.5833676    834.46508  0.037446826  0.036360904           11 
 1858000   0.51802206   -4.5682737    834.21918  0.037415643  0.036337837           13 
 1859000    0.5083613   -4.5640011    832.51654  0.037319192  0.036314781           17 
 1860000   0.51462009   -4.5669132     834.1665  0.037373051  0.036291764           12 
 1861000   0.50832396    -4.562242    835.16763  0.037397798  0.036268821           34 
 1862000   0.51903666   -4.5612059    835.31192  0.037384171  0.036245864           44 
 1863000   0.50037036   -4.5606402    835.02405  0.037351228  0.036222951           35 
 1864000   0.50420911   -4.5828124    831.89945  0.037191499  0.036199937           16 
 1865000   0.51120753   -4.5855679    832.54325  0.037200324  0.036176902           31 
 1866000   0.50005659   -4.5875907    833.56514  0.037226024  0.036153948           13 
 1867000    0.5163929   -4.5530286    833.11599  0.037186038  0.036131046            7 
 1868000   0.51033802   -4.5703484    834.33201  0.037220379  0.036108215           11 
 1869000   0.51115525   -4.5739429    832.92278  0.037137631  0.036085326           10 
 1870000   0.50968695   -4.5584754    833.81018  0.037157317  0.036062445           26 
 1871000   0.50407988   -4.5586448    833.46705  0.037122174  0.036039579           12 
 1872000   0.50080395   -4.5606572    834.15087  0.037132784  0.036016646           29 
 1873000   0.49932194   -4.5831195    832.81962  0.037053729   0.03599378           22 
 1874000   0.50328018   -4.5971857    831.14557  0.036959515   0.03597077           14 
 1875000   0.49608613   -4.5946022     832.2779  0.036990129  0.035947732           36 
 1876000   0.50919841   -4.5915098    833.87691  0.037041441  0.035924692           16 
 1877000   0.50509845   -4.5957481    834.20344  0.037036203  0.035901707           19 
 1878000   0.50078971   -4.5903564    832.07343  0.036921966  0.035878756           21 
 1879000   0.50028735   -4.5843292     833.6729  0.036973253  0.035855804           21 
 1880000   0.50656979   -4.5898361    832.19353  0.036888011  0.035832846           21 
 1881000   0.50091825   -4.6085296    831.80502  0.036851188  0.035809928           16 
 1882000   0.50346674   -4.5997091    834.71724  0.036960558  0.035786995           20 
 1883000   0.49308385   -4.6016603    833.04545  0.036866943  0.035764111            7 
 1884000   0.51104709   -4.5989376    833.04542  0.036847374   0.03574127           21 
 1885000   0.49575903   -4.5920784    832.89281  0.036821079  0.035718494           11 
 1886000   0.50059292   -4.5937909    832.20693   0.03677125  0.035695734           19 
 1887000   0.50460096   -4.5953226    832.12034   0.03674794   0.03567297           11 
 1888000   0.49971408   -4.5916653    832.24898  0.036734153  0.035650207           13 
 1889000   0.50270558   -4.5911866    832.66213  0.036732933   0.03562746           31 
 1890000   0.49299712   -4.6013698    832.35346  0.036699888  0.035604706           30 
 1891000   0.49247341   -4.6122361     832.8727  0.036703362  0.035582019           17 
 1892000    0.5027007   -4.6088186    833.75629  0.036722881  0.035559258           26 
 1893000   0.50512645   -4.6032232    833.59367  0.036696323  0.035536492           39 
 1894000   0.49381463   -4.6194845    832.07675  0.036610206   0.03551374           49 
 1895000   0.49129943   -4.6071796     832.7082  0.036618654  0.035490994           69 
 1896000   0.48753305   -4.6113128    833.25575  0.036623407  0.035468277           48 
 1897000   0.49446118   -4.6085344    832.08764  0.036552787   0.03544559           44 
 1898000   0.50580192   -4.6290544    834.63411  0.036645333  0.035422936           41 
 1899000   0.49389579   -4.5988762    833.63933  0.036582382  0.035400328           26 
 1900000   0.49723381    -4.594029    833.92507  0.036575661  0.035377787           21 
 1901000   0.49263416   -4.6197888    834.27604  0.036571806  0.035355212           65 
 1902000   0.49465217   -4.6142367    832.73453  0.036485039  0.035332635           30 
 1903000   0.49571494   -4.6155318    832.51238  0.036456138  0.035309997           22 
 1904000   0.48501715   -4.6193447    832.90817  0.036454314  0.035287447           42 
 1905000   0.49601515    -4.630811    833.11736  0.036444329  0.035264973           22 
 1906000   0.49456866    -4.616217    832.95752   0.03641822  0.035242403           24 
 1907000   0.49098577   -4.6217155    833.18001  0.036408845  0.035219829           20 
 1908000   0.49978537   -4.6204548    833.79865  0.036416783  0.035197294           24 
 1909000   0.49602594   -4.6202011    831.92726  0.036316014  0.035174776           18 
 1910000   0.49869072   -4.6150837    834.22861  0.036397409  0.035152307           17 
 1911000    0.4971954   -4.6194122    832.49308  0.036302681  0.035129786           20 
 1912000   0.48614135   -4.6119563    833.16957  0.036313178  0.035107275           40 
 1913000   0.48731256   -4.6178441    835.13971  0.036380019  0.035084857           26 
 1914000   0.49157989   -4.6005571     832.1242   0.03622972  0.035062397           33 
 1915000   0.48391943    -4.616742    833.07992   0.03625239  0.035039927           16 
 1916000   0.49518414     -4.62979    832.19221   0.03619486  0.035017487           50 
 1917000   0.49239775   -4.6397421    831.77902  0.036158017  0.034994981           11 
 1918000   0.48235768   -4.6464535    832.82475    0.0361846  0.034972537           47 
 1919000   0.50065284    -4.638781    833.19072  0.036181636  0.034950049           37 
 1920000   0.48440795   -4.6282545    833.75479  0.036187274  0.034927673           54 
 1921000   0.48307283   -4.6438235    831.81034  0.036084085  0.034905192           24 
 1922000   0.49230104   -4.6218821    831.84525  0.036066825  0.034882718           26 
 1923000   0.48267339   -4.6255958    832.45761  0.036074606  0.034860363           24 
 1924000   0.48728885   -4.6188031    832.36209  0.036051719   0.03483799           22 
 1925000   0.47495122   -4.6321146    832.27806  0.036029353  0.034815563           21 
 1926000   0.48530017   -4.6315929    831.41005   0.03597309  0.034793202           35 
 1927000   0.47552208   -4.6311545    831.39592  0.035953811  0.034770803           37 
 1928000    0.4796075   -4.6159469    835.15531  0.036097654  0.034748487           20 
 1929000   0.47159469   -4.6432827    832.60183  0.035968629  0.034726197           14 
 1930000   0.48313165   -4.6352514    830.58365  0.035862852  0.034703796           17 
 1931000   0.47753206   -4.6261218     832.5931  0.035930999  0.034681538           20 
 1932000   0.48763563   -4.6315172    832.72644  0.035918152  0.034659229           23 
 1933000   0.48201431     -4.62756    830.85065  0.035818704  0.034636919           16 
 1934000   0.48554099   -4.6616249    831.24435  0.035817147  0.034614511           15 
 1935000   0.48024963   -4.6412077    831.47686   0.03580865  0.034592128           17 
 1936000   0.48162004   -4.6338559     831.9598  0.035810942  0.034569718           20 
 1937000    0.4744216   -4.6415837    831.28414  0.035763386  0.034547353           18 
 1938000   0.48131095   -4.6584542    832.97261  0.035817536  0.034525063           47 
 1939000   0.47636801   -4.6540821    831.73302  0.035745789  0.034502759           15 
 1940000   0.48450037   -4.6545792     831.3477  0.035710812  0.034480476           41 
 1941000   0.47330224   -4.6642151    831.76361   0.03571027  0.034458158           12 
 1942000   0.47435935     -4.64511    831.80226   0.03569354  0.034435907            9 
 1943000   0.47255183   -4.6467552    830.55742   0.03562178  0.034413694           31 
 1944000   0.48459753    -4.648495    830.69581  0.035609388  0.034391426           15 
 1945000   0.47197622   -4.6628789     830.5379  0.035584314  0.034369166           25 
 1946000   0.46644203   -4.6408241    831.99772  0.035628542  0.034346951           31 
 1947000   0.46889848   -4.6505445    830.34375  0.035539452   0.03432474           31 
 1948000   0.47269208   -4.6496535    832.00302  0.035592189  0.034302555           31 
 1949000   0.47937165   -4.6435196    830.66272  0.035516621  0.034280393           41 
 1950000   0.47400598   -4.6759832     831.8041  0.035547184  0.034258156           40 
 1951000   0.46739971   -4.6470411    832.03479  0.035538817  0.034235977           33 
 1952000   0.46957141   -4.6701765    831.19193  0.035484628  0.034213818           33 
 1953000   0.47305649   -4.6664847    830.52828  0.035438141  0.034191615           19 
 1954000   0.47541528   -4.6662196    828.69882  0.035341983  0.034169381           16 
 1955000   0.46901102   -4.6536798    831.06058  0.035424577  0.034147175           13 
 1956000   0.45794446   -4.6446328    832.04347  0.035448342  0.034125049           16 
 1957000   0.47896803   -4.6646629    831.99239  0.035428053   0.03410293           21 
 1958000   0.47929892   -4.6625035    831.43997  0.035386447   0.03408087           17 
 1959000   0.47001025   -4.6612629    831.15976  0.035356464  0.034058718           16 
 1960000   0.46763914   -4.6626902    831.71829  0.035362172  0.034036597           23 
 1961000   0.47659064   -4.6594568    829.58911  0.035253659  0.034014471           15 
 1962000   0.46260702   -4.6623112    832.58866  0.035363093  0.033992419           31 
 1963000   0.47345206   -4.6637832    832.25015  0.035330708  0.033970361           22 
 1964000   0.46709184   -4.6553136    829.95168  0.035215194  0.033948304           21 
 1965000    0.4742498   -4.6594152    830.36259  0.035214699  0.033926215           23 
 1966000   0.46894136    -4.673308    830.82595  0.035216427  0.033904201           13 
 1967000   0.47006846   -4.6615436    829.89843  0.035159229  0.033882133           15 
 1968000   0.46973179   -4.6491983     831.5856  0.035212805  0.033860148           30 
 1969000   0.47258266   -4.6614699     829.0948  0.035089504  0.033838207           27 
 1970000   0.47201153   -4.6635114    831.70145  0.035181957  0.033816308           25 
 1971000   0.47171492   -4.6546104    830.52614  0.035114415  0.033794425           10 
 1972000   0.46971173   -4.6659197    832.19399  0.035167089  0.033772543           38 
 1973000   0.46730325   -4.6740912    831.53973  0.035121631  0.033750629           41 
 1974000   0.46890012   -4.6723447     830.1674  0.035045905   0.03372872           35 
 1975000   0.46455168   -4.6791788    830.68554  0.035050023   0.03370682           31 
 1976000    0.4688356   -4.6726027    829.67514  0.034989674  0.033684918           29 
 1977000   0.46036908   -4.6845883     830.3614  0.035000902  0.033662996           32 
 1978000   0.46617716   -4.6745082    828.62902  0.034910222  0.033641109           21 
 1979000   0.46429537   -4.6816062    831.16415  0.034999333  0.033619206           15 
 1980000   0.46502005   -4.6761744    830.75061  0.034964251  0.033597306           36 
 1981000   0.45924907   -4.6948225    829.92677  0.034911945  0.033575489           22 
 1982000   0.45190964   -4.6853976    830.50462  0.034918627  0.033553658           40 
 1983000   0.46557436   -4.6811997    832.99042  0.035005481  0.033531864           26 
 1984000   0.46296727   -4.6704529    830.99196  0.034903896  0.033510072           37 
 1985000   0.45533686    -4.666912    829.65372  0.034830131  0.033488314           51 
 1986000   0.45794511   -4.6760075    831.83505  0.034904123  0.033466631           27 
 1987000   0.45694275   -4.6802049    830.42515  0.034827426  0.033444927           36 
 1988000   0.46549313   -4.6844207    832.56619  0.034899656   0.03342324           69 
 1989000   0.45825083   -4.6896856    830.53444  0.034796985  0.033401524           38 
 1990000   0.46147227   -4.6781403     831.7292  0.034829531   0.03337982           42 
 1991000   0.45751415   -4.6856415     830.8584   0.03477559  0.033358117           54 
 1992000   0.45845244   -4.6944046    830.30191  0.034734852  0.033336417           21 
 1993000   0.45744375   -4.6910383    830.39475  0.034721306  0.033314791           34 
 1994000   0.45658468   -4.6898957    830.94912  0.034727061  0.033293167           14 
 1995000   0.45973105   -4.6898452    830.30906  0.034682918  0.033271507           16 
 1996000    0.4534868   -4.6845373    830.84559  0.034687942  0.033249946           27 
 1997000   0.45672517    -4.687338    831.49157  0.034697528  0.033228459           24 
 1998000   0.46315876   -4.6903238    829.91524  0.034614416  0.033206921           30 
 1999000   0.45525818   -4.6973898     830.9589  0.034640608  0.033185411           17 
 2000000    0.4698935   -4.6876157    831.58341  0.034649309  0.033163916           35 
 2001000   0.45303754   -4.7025054    829.35434  0.034539161  0.033142427           62 
 2002000   0.45278748    -4.683986    829.16547  0.034514047  0.033120881           96 
 2003000   0.45222953   -4.6835025    829.57061  0.034513671  0.033099363           27 
 2004000   0.44909198   -4.6972691     828.9151  0.034469191  0.033077875           80 
 2005000   0.45249033   -4.6994655    831.15148  0.034544949  0.033056371           88 
 2006000   0.45573025   -4.6942408       829.63  0.034464523  0.033034942           45 
 2007000   0.45145734   -4.7054591     831.3537  0.034518921  0.033013478           26 
 2008000    0.4561838   -4.6942586    830.13166  0.034451015  0.032991979           42 
 2009000   0.45324101   -4.7086083    829.78656  0.034419552  0.032970458           78 
 2010000   0.45075673   -4.6960513    830.00151   0.03441134   0.03294894           97 
 2011000   0.44854222   -4.7047419    831.18056  0.034443086  0.032927463           57 
 2012000   0.44959362    -4.696173      832.297  0.034472208  0.032906002           29 
Loop time of 5084.43 on 48 procs for 2000000 steps with 4000 atoms

Performance: 67972.217 tau/day, 393.358 timesteps/s
99.4% CPU use with 48 MPI tasks x no OpenMP threads

MPI task timing breakdown:
Section |  min time  |  avg time  |  max time  |%varavg| %total
---------------------------------------------------------------
Pair    | 347.38     | 366.2      | 392.05     |  64.9 |  7.20
Neigh   | 33.548     | 35.148     | 38.062     |  18.6 |  0.69
Comm    | 308.52     | 341.31     | 358.92     |  71.7 |  6.71
Output  | 4.2226     | 4.2243     | 4.2555     |   0.2 |  0.08
Modify  | 4276.9     | 4291.3     | 4306.5     |  12.4 | 84.40
Other   |            | 46.26      |            |       |  0.91

Nlocal:        83.3333 ave          92 max          76 min
Histogram: 2 3 3 11 8 9 5 6 0 1
Nghost:        2255.02 ave        2280 max        2235 min
Histogram: 4 7 8 3 8 1 5 4 5 3
Neighs:        15146.3 ave       17124 max       13342 min
Histogram: 2 3 4 5 10 12 6 5 0 1
FullNghs:      30292.3 ave       34065 max       27281 min
Histogram: 2 2 5 14 7 8 4 5 0 1

Total # of neighbors = 1454032
Ave neighs/atom = 363.50800
Neighbor list builds = 108092
Dangerous builds = 0

#clear
#
#next RN
#
#jump SELF
Total wall time: 1:24:47
