
units lj                  # Use reduced LJ style units
atom_style atomic         # Uncharged point particles
atom_modify map hash      # Needed for indexing of clusters etc
                          # Used to be able to find where atoms are in relation to each other.

lattice fcc 1.0 spacing 1 1 1
Lattice spacing in x,y,z = 1.5874011 1.5874011 1.5874011
region box block 0 10 0 10 0 10 units lattice
create_box 2 box
Created orthogonal box = (0.0000000 0.0000000 0.0000000) to (15.874011 15.874011 15.874011)
  3 by 4 by 4 MPI processor grid
create_atoms 1 box
Created 4000 atoms
  using lattice units in orthogonal box = (0.0000000 0.0000000 0.0000000) to (15.874011 15.874011 15.874011)
  create_atoms CPU = 0.002 seconds
set type 1 type/fraction 2 1.0 78393
Setting atom values ...
  4000 settings made for type/fraction
mass 1 1.0
mass 2 1.0
pair_style lj/cut  3.5
pair_modify tail  yes
pair_coeff 1  1  1.0  1.0   # Intearaction between 1 and 1 set with epsilon = 1 and sigma = 1
pair_coeff 1  2  1.5  0.8
pair_coeff 2  2  0.5  0.88

write_data data.0
System init for write_data ...
Neighbor list info ...
  update every 1 steps, delay 10 steps, check yes
  max neighbors/atom: 2000, page size: 100000
  master list distance cutoff = 3.8
  ghost atom cutoff = 3.8
  binsize = 1.9, bins = 9 9 9
  1 neighbor lists, perpetual/occasional/extra = 1 0 0
  (1) pair lj/cut, perpetual
      attributes: half, newton on
      pair build: half/bin/atomonly/newton
      stencil: half/bin/3d
      bin: standard
WARNING: Not all mixed pair coeffs generated from mixing. Use write_data with 'pair ij' option to store all pair coeffs. (../write_data.cpp:312)


#############################
#   M E L T   S Y S T E M   #
#############################

velocity all create 2.4 6229865 mom yes dist gaussian # Assign velocities
                                                    # Temperature 2.4, random number seed, zero linear momentum
                                                                                # Gaussian distribution

timestep 0.002   # simulation timestep
thermo 1000       # output thermodynamic data every 1000 steps bf 100

# Define a fix  in this case with index 1 applied to all
# particles in the simulation. This fix is for simulations
# in the anisotropic NPT ensemble. Note that we use the MTK
# correction.
fix 1 all npt temp 2.4 2.4 0.1 iso 5.68 5.68 0.5 mtk yes tchain 5 pchain 5 # Use NPT ensemble
                                                                         # Set temperature and pressure and damping
                                                                         # Numbers of thermostats in chain and in barostat
run 10000          # run for 10000 steps
Per MPI rank memory allocation (min/avg/max) = 3.642 | 3.644 | 3.648 Mbytes
Step Temp E_pair E_mol TotEng Press Volume 
       0          2.4   -2.7016284            0   0.89747158   -1.6956087         4000 
    1000    2.4023229   -1.4048613            0    2.1977222    5.7756978    4268.7914 
    2000    2.3823766   -1.4403394            0    2.1323321    5.6257608    4261.7355 
    3000    2.4440216   -1.4797156            0    2.1854004    5.4864262    4261.4242 
    4000    2.3711931   -1.4305978            0    2.1253026    5.7024142    4256.3987 
    5000    2.3845191   -1.4308771            0    2.1450073    5.6894967    4256.9012 
    6000    2.3683934   -1.4704551            0    2.0812468    5.7197837    4205.6622 
    7000    2.3903319   -1.4351149            0    2.1494866    5.5623511    4293.0656 
    8000    2.3891029   -1.4268796            0    2.1558789    5.7695825    4243.5849 
    9000    2.4033275   -1.4538629            0    2.1502272    5.5647319    4266.7232 
   10000    2.4543456   -1.4260738            0    2.2545242    5.7862071    4260.1081 
Loop time of 2.41194 on 48 procs for 10000 steps with 4000 atoms

Performance: 716434.980 tau/day, 4146.036 timesteps/s
99.6% CPU use with 48 MPI tasks x no OpenMP threads

MPI task timing breakdown:
Section |  min time  |  avg time  |  max time  |%varavg| %total
---------------------------------------------------------------
Pair    | 1.0155     | 1.0826     | 1.2384     |   3.6 | 44.89
Neigh   | 0.20423    | 0.20974    | 0.24566    |   1.6 |  8.70
Comm    | 0.67441    | 0.84941    | 0.92999    |   5.2 | 35.22
Output  | 0.00024764 | 0.00025198 | 0.00030711 |   0.0 |  0.01
Modify  | 0.19569    | 0.25516    | 0.33514    |   7.3 | 10.58
Other   |            | 0.01473    |            |       |  0.61

Nlocal:        83.3333 ave          94 max          74 min
Histogram: 2 3 7 7 2 11 6 6 2 2
Nghost:        1569.75 ave        1593 max        1543 min
Histogram: 1 1 7 4 7 7 11 4 4 2
Neighs:        8961.42 ave       10681 max        7723 min
Histogram: 3 6 5 9 8 8 6 0 2 1

Total # of neighbors = 430148
Ave neighs/atom = 107.53700
Neighbor list builds = 907
Dangerous builds = 219

# Equilibrate just above the melting temperature to avoid step fn in T

fix 1 all npt temp 1.25 1.25 0.1 iso 5.68 5.68 0.5 mtk yes tchain 5 pchain 5
run 2000
Per MPI rank memory allocation (min/avg/max) = 3.643 | 3.645 | 3.649 Mbytes
Step Temp E_pair E_mol TotEng Press Volume 
   10000    2.4543456   -1.4260738            0    2.2545242    5.7862071    4260.1081 
   11000      1.24279   -2.2154203            0  -0.35170125    5.7240727     3341.554 
   12000     1.244018   -2.2479157            0  -0.38235512    5.7191496    3322.1263 
Loop time of 0.560794 on 48 procs for 2000 steps with 4000 atoms

Performance: 616268.855 tau/day, 3566.371 timesteps/s
99.6% CPU use with 48 MPI tasks x no OpenMP threads

MPI task timing breakdown:
Section |  min time  |  avg time  |  max time  |%varavg| %total
---------------------------------------------------------------
Pair    | 0.2431     | 0.27014    | 0.29223    |   1.9 | 48.17
Neigh   | 0.036845   | 0.038951   | 0.041057   |   0.5 |  6.95
Comm    | 0.17739    | 0.2028     | 0.23212    |   2.5 | 36.16
Output  | 5.3288e-05 | 5.4459e-05 | 6.843e-05  |   0.0 |  0.01
Modify  | 0.040501   | 0.044146   | 0.047483   |   1.0 |  7.87
Other   |            | 0.0047     |            |       |  0.84

Nlocal:        83.3333 ave          91 max          75 min
Histogram: 1 4 2 6 8 9 7 6 4 1
Nghost:        1858.67 ave        1875 max        1836 min
Histogram: 1 0 4 5 5 7 12 7 5 2
Neighs:        11501.2 ave       12854 max       10244 min
Histogram: 3 3 4 10 5 8 5 6 3 1

Total # of neighbors = 552057
Ave neighs/atom = 138.01425
Neighbor list builds = 141
Dangerous builds = 9

#############################
# L I N E A R  Q U E N C H  #
#############################

# Define solid atoms. This closely follows ten Wolde  Ruiz-Montero and Frenkel  Faraday Discuss  1996  104  93-110
# Compute components of the per-atom q6 vector
compute q6 all orientorder/atom degrees 1 6 components 6 nnn NULL cutoff 1.3 # compute the Q6 parameter.
                                                                             # Use all neighbours within 1.3 unit cell.

# get number of connections
compute coord_number all coord/atom orientorder q6 0.5

# An atom is solid if it has 8 or more connections (of a possible 14)
variable is_solid atom c_coord_number>=8
group solid dynamic all var is_solid    # Must be dynamic to update
dynamic group solid defined

# do clustering
compute cluster solid cluster/atom 1.3 # Create a cluster where all atoms within are solid and max 1.3 units from another member

# define chunks one chunk per cluster
compute clus_chunks solid chunk/atom c_cluster nchunk every compress yes  # Says which atoms are in which chunk

# count the size of each chunk
compute size_chunks solid property/chunk clus_chunks count


# Find the maximum entry in the vector of chunk sizes
variable max_n equal max(c_size_chunks)


# Thermo style which includes this variable
# thermo_style custom step temp pe vol v_max_n

thermo ${N}  # Print the thermo information every 100 steps
thermo 1000  

# Reset the npt fix at a lower temperature (below freezing)
fix 1  all npt temp  ${temp} ${temp}  0.1  iso  5.68  5.68  0.5  mtk yes tchain  5  pchain  5
fix 1  all npt temp  0.45 ${temp}  0.1  iso  5.68  5.68  0.5  mtk yes tchain  5  pchain  5
fix 1  all npt temp  0.45 0.45  0.1  iso  5.68  5.68  0.5  mtk yes tchain  5  pchain  5

dump dmp2 all dcd ${N} traj.dcd
dump dmp2 all dcd 1000 traj.dcd


compute msd all msd com yes
variable twopoint equal c_msd[4]/6/(step*dt+1.0e-6)
fix 9 all vector 10 c_msd[4]
variable fit equal slope(f_9)/6/(10*dt)
thermo_style custom step temp pe c_msd[4] v_twopoint v_fit v_max_n

fix 1 all npt temp 1.25 ${temp} 0.1 iso 5.68 5.68 0.5 mtk yes tchain 5 pchain 5
fix 1 all npt temp 1.25 0.45 0.1 iso 5.68 5.68 0.5 mtk yes tchain 5 pchain 5
run 2000000 # 5000000  # Run for this many steps
Neighbor list info ...
  update every 1 steps, delay 10 steps, check yes
  max neighbors/atom: 2000, page size: 100000
  master list distance cutoff = 3.8
  ghost atom cutoff = 3.8
  binsize = 1.9, bins = 8 8 8
  4 neighbor lists, perpetual/occasional/extra = 1 3 0
  (1) pair lj/cut, perpetual
      attributes: half, newton on
      pair build: half/bin/atomonly/newton
      stencil: half/bin/3d
      bin: standard
  (2) compute orientorder/atom, occasional
      attributes: full, newton on
      pair build: full/bin/atomonly
      stencil: full/bin/3d
      bin: standard
  (3) compute coord/atom, occasional
      attributes: full, newton on
      pair build: full/bin/atomonly
      stencil: full/bin/3d
      bin: standard
  (4) compute cluster/atom, occasional
      attributes: full, newton on
      pair build: full/bin/atomonly
      stencil: full/bin/3d
      bin: standard
Per MPI rank memory allocation (min/avg/max) = 9.808 | 9.816 | 9.819 Mbytes
Step Temp PotEng c_msd[4] v_twopoint v_fit v_max_n 
   12000     1.244018   -2.2479157 2.1198665e-30 1.4721294e-32 8.3333333e+20            1 
   13000    1.2476063   -2.2385653     1.237092 0.0079300763   0.10548232            2 
   14000    1.2441765   -2.2394699    2.5435624  0.015140252   0.10829475            2 
   15000    1.2439299   -2.2360854    3.8591894   0.02143994    0.1086341            1 
   16000    1.2460853   -2.2481998    5.2331794  0.027256142    0.1098671            1 
   17000    1.2721478   -2.2301922    6.6218679  0.032460136   0.11101748            1 
   18000    1.2563447    -2.216559     7.954053  0.036824318   0.11184515            1 
   19000    1.2574428   -2.2212814    9.2545031  0.040589925   0.11208846            1 
   20000    1.2321045   -2.2354409    10.732156  0.044717314   0.11239923            3 
   21000    1.2425475   -2.2226993    12.080105  0.047936925   0.11270476            1 
   22000     1.255796   -2.2341199    13.385146  0.050701311   0.11273092            1 
   23000    1.2265734   -2.2111615    14.790338  0.053588181   0.11286973            3 
   24000    1.2138244   -2.2219186    16.080743  0.055835911   0.11295916            3 
   25000    1.2395909   -2.2371219    17.272412  0.057574704   0.11278141            1 
   26000    1.2648624   -2.2130928    18.644364  0.059757576   0.11249881            1 
   27000    1.2209047   -2.2418896     19.81226  0.061148951   0.11205894            1 
   28000    1.2480658   -2.2358073    21.430141  0.063780181   0.11185298            2 
   29000    1.2366379   -2.2502462    22.800162  0.065517707   0.11200743            1 
   30000    1.2142871      -2.2392    24.034055  0.066761264   0.11203626            1 
   31000    1.2352721   -2.2299013    25.417333  0.068326164   0.11198278            1 
   32000     1.235855   -2.2319008    27.102992  0.070580708   0.11215489            1 
   33000    1.2289731   -2.2532062    28.432304  0.071798747   0.11246816            1 
   34000    1.2420984   -2.2287005    29.984699  0.073491907    0.1128716            1 
   35000    1.2200292   -2.2105613    31.150245  0.074167249   0.11309708            1 
   36000    1.2370655   -2.2539374     32.36177  0.074911504   0.11314248            2 
   37000    1.2277039   -2.2333872    33.532005  0.075522532   0.11303237            1 
   38000    1.2258826   -2.2258075    34.631359  0.075945962   0.11276042            1 
   39000    1.2250755   -2.2355197    35.804268  0.076504845   0.11241914            1 
   40000    1.2380582    -2.227452    36.948575  0.076976196   0.11206034            1 
   41000    1.2455353   -2.2415137    38.358962  0.077965368   0.11173812            2 
   42000    1.2351677   -2.2317283      39.7801  0.078928769   0.11150533            2 
   43000    1.2147662   -2.2193482    41.259293  0.079959869   0.11140425            1 
   44000    1.2429295   -2.2445954    42.673223  0.080820498   0.11132106       -1e+20 
   45000    1.2222291   -2.2111104    44.329198  0.082091107   0.11133096            3 
   46000    1.2443536   -2.2473807    45.107095  0.081715751   0.11133217            2 
   47000    1.2317639   -2.1967952     46.83082  0.083033367   0.11129877            1 
   48000    1.2156944    -2.239307    48.269878  0.083801871   0.11130258            1 
   49000    1.2473414   -2.2363131    49.685657  0.084499415   0.11139293            2 
   50000    1.2181792   -2.2236777    51.224489  0.085374148   0.11147682            1 
   51000    1.2383253   -2.2271608    52.023687  0.085006023   0.11151282            1 
   52000    1.2263293   -2.2558334      53.7098  0.086073396   0.11154615            2 
   53000    1.2280019   -2.2223784    55.073844  0.086594094   0.11162403            1 
   54000    1.2571635   -2.2501672    56.588194  0.087327458    0.1116886            1 
   55000    1.2216576    -2.228832    58.045438  0.087947633   0.11181052            2 
   56000    1.2292566   -2.2500592    59.320112  0.088273976    0.1119087            2 
   57000    1.2352505   -2.2239047    60.592207  0.088585097   0.11203874            1 
   58000    1.2324907   -2.2407924    61.896721   0.08893207   0.11211521            4 
   59000    1.2606264   -2.2467747    63.185885    0.0892456   0.11213769            4 
   60000    1.2188566   -2.2343191       64.659  0.089804166   0.11216176            1 
   61000    1.2458686   -2.2226346    65.859133  0.089971492   0.11218012            2 
   62000    1.2272324   -2.2181283    67.814524  0.091148553   0.11223104            2 
   63000    1.2248521   -2.2612345    69.272645  0.091630482   0.11236939            1 
   64000     1.233567   -2.2380049    70.579181  0.091899975   0.11253811            1 
   65000    1.1934359   -2.2537681    72.650979  0.093142281   0.11269457            1 
   66000    1.2175991   -2.2711299    73.802287  0.093184705   0.11289536            2 
   67000    1.2287511   -2.2477594    75.655941  0.094099428   0.11309427            1 
   68000    1.2499175    -2.246517    76.968886  0.094324614   0.11330932            1 
   69000    1.2165594   -2.2589379    78.225319  0.094475022   0.11352345            2 
   70000    1.2297716   -2.2469082    80.645203  0.096006193   0.11378014            1 
   71000    1.2181808   -2.2517674     82.09612  0.096356948    0.1140735            2 
   72000    1.2453923   -2.2472017    83.630712  0.096794805   0.11434731            1 
   73000    1.2095845   -2.2229522    84.839639  0.096848903   0.11461775            1 
   74000    1.2032222   -2.2315475     85.84125  0.096668073   0.11483391            1 
   75000     1.207344    -2.263724    88.153222  0.097948024   0.11502683            3 
   76000    1.2290621   -2.2545576    89.539819  0.098179625   0.11523592            1 
   77000    1.2283421   -2.2287895    90.726707  0.098189076    0.1154402            1 
   78000    1.2275616   -2.2650782    92.267357  0.098576235   0.11563726            4 
   79000    1.2574895   -2.2399839     93.16579   0.09827615   0.11577122            1 
   80000    1.2447514   -2.2767247    94.029239  0.097947123   0.11587004            1 
   81000     1.210753   -2.2840545    95.469668  0.098219823   0.11595412            2 
   82000    1.1790204   -2.2698635    97.020303  0.098597869   0.11601462            2 
   83000    1.2047878    -2.274793     98.39805  0.098793223   0.11607854            3 
   84000    1.2245947   -2.2844257    99.662734   0.09887176   0.11612012            1 
   85000    1.2237685    -2.249496    101.28976  0.099303686   0.11617854            2 
   86000    1.2228764   -2.2376801    101.64412  0.098492363    0.1161986            2 
   87000    1.2282049   -2.2701599    103.61146  0.099244691    0.1162014            3 
   88000    1.2086862   -2.2521582    105.49899  0.099904349    0.1162118            2 
   89000    1.2144658   -2.2648234    105.80125  0.099064844   0.11622369            1 
   90000    1.1952625   -2.2366429    107.69052  0.099713447   0.11622438            1 
   91000    1.2412689   -2.2596304    108.70624  0.099547838   0.11620304            2 
   92000     1.203739   -2.2547719    110.24025    0.0998553   0.11618451            1 
   93000    1.2100702   -2.2457265     112.0581   0.10041049   0.11617484            1 
   94000    1.2212683   -2.2764572    112.75061  0.099956213   0.11616074            2 
   95000    1.2399292   -2.2826605    113.54792  0.099603434   0.11611444            1 
   96000    1.2142731   -2.2517191    115.05399  0.099873255    0.1160522            4 
   97000    1.1981629   -2.2719045    115.76522  0.099454659   0.11597778            1 
   98000     1.198128   -2.2462074    117.32211  0.099763695   0.11588663            1 
   99000    1.1987265   -2.2471174    118.70749  0.099922131   0.11578712            1 
  100000    1.2043271   -2.2616083    119.87883  0.099899021   0.11570841            2 
  101000    1.1990446   -2.2737457    121.01119  0.099844214   0.11563572            1 
  102000    1.2206327   -2.2424789    123.03757   0.10052089   0.11557136            2 
  103000    1.2238515   -2.2649789    124.10356   0.10040741   0.11551504            1 
  104000    1.2349498   -2.2483072     125.6487   0.10068005   0.11544838            2 
  105000    1.2067886   -2.2530966    127.01199   0.10080316   0.11536698            3 
  106000    1.2439822   -2.2677406     127.6194   0.10032972   0.11528959            1 
  107000    1.2134393   -2.2420471    129.84127   0.10112249   0.11522175            1 
  108000      1.21653   -2.2477176    131.05703   0.10112425   0.11515746            3 
  109000    1.2033158   -2.2379072    132.36584   0.10119713    0.1150977            2 
  110000    1.2040122   -2.2356908    134.27104   0.10172048   0.11503908            3 
  111000    1.1887704   -2.2506833    134.77824   0.10118487   0.11497098            2 
  112000    1.2160053   -2.2839238    135.79846   0.10104052    0.1148926            1 
  113000    1.2228235   -2.2574567    137.15367   0.10114577   0.11481759            2 
  114000    1.2074267   -2.2894978    137.80515   0.10073476   0.11473373            2 
  115000    1.1989585   -2.2724036    139.16062   0.10084103   0.11464254            5 
  116000     1.193595   -2.2749578     140.6362   0.10103175   0.11454301            2 
  117000    1.2312263   -2.2416339    141.84631   0.10103013    0.1144703            3 
  118000    1.1816777   -2.2585302    144.06753   0.10174261   0.11440446            1 
  119000    1.1922536   -2.2904714    144.36615   0.10109675    0.1143247            1 
  120000    1.2161006    -2.263874    146.01483   0.10139919   0.11425602            2 
  121000    1.1917368   -2.2716455    147.41603   0.10152619   0.11419071            1 
  122000    1.2206484   -2.2841632    149.16696      0.10189   0.11413872            2 
  123000    1.1928347   -2.2750617    149.70217   0.10142424   0.11408145            1 
  124000    1.2027974   -2.2911279    151.16481   0.10158925   0.11400664            2 
  125000     1.176623   -2.2827191    152.27528   0.10151685   0.11392536            2 
  126000    1.2206717   -2.2525079    153.43974   0.10148131   0.11382823            2 
  127000    1.1970188    -2.272275    154.61757    0.1014551   0.11372805            2 
  128000    1.1939681   -2.2628913    155.80131   0.10143314   0.11363487            1 
  129000    1.2074151    -2.256182    157.52255   0.10175876   0.11355971            1 
  130000    1.1929304   -2.2821426     158.5965   0.10166442   0.11348394            1 
  131000    1.1742477   -2.2539231    159.94698   0.10174744   0.11341796            1 
  132000    1.2421405   -2.2585053    161.24186   0.10179411   0.11336208            3 
  133000     1.193401   -2.2561362    163.56848   0.10248652   0.11332652            1 
  134000    1.2015706   -2.2866853    164.70284   0.10242714   0.11328211            1 
  135000    1.1703451   -2.2606726    166.97875    0.1030733    0.1132528            2 
  136000    1.2023262   -2.2594163    168.19926   0.10306327   0.11323898            2 
  137000    1.1982693   -2.2746132    169.27949   0.10296806   0.11320316            1 
  138000    1.2074444   -2.2891256    169.28241   0.10222368   0.11316844            2 
  139000    1.2035382   -2.2743817      171.143   0.10260372   0.11311705            2 
  140000    1.1862576    -2.294002     172.0752   0.10242572   0.11307971            1 
  141000      1.20584   -2.2780984    173.61998   0.10261228   0.11302811            1 
  142000    1.2015306   -2.2541648    174.64664   0.10249216   0.11298561            1 
  143000    1.1938674   -2.2806783      175.992   0.10255944   0.11294063            1 
  144000    1.1716692   -2.2870621      178.148   0.10309491   0.11288067            1 
  145000    1.1641516   -2.2748165    178.71445   0.10270946    0.1128294            1 
  146000    1.1995289   -2.2915122     179.3997   0.10239709   0.11278178            1 
  147000    1.1669355    -2.286661    181.36006   0.10281183   0.11273262            2 
  148000    1.1784653   -2.2737475    182.26527   0.10262684   0.11269034            1 
  149000    1.1791206   -2.2483103     183.7931   0.10279256   0.11264402            3 
  150000    1.1965017   -2.3147779    185.34532   0.10296962   0.11260188            1 
  151000    1.1901651   -2.2645849     187.6196   0.10354283   0.11256544            1 
  152000    1.1969569   -2.2823306    188.22421    0.1031931   0.11253924            4 
  153000    1.2238448   -2.2712425    189.72185   0.10333434   0.11250953            2 
  154000     1.208073   -2.3023555    189.75567   0.10268164   0.11246839            2 
  155000    1.2095243   -2.2677724    192.12209   0.10329145   0.11241698            2 
  156000    1.2057067   -2.2882005    193.79353   0.10352218   0.11236828            2 
  157000    1.1866197   -2.2811798    193.10902   0.10249948   0.11232463            1 
  158000    1.2046276   -2.2664834     195.1324   0.10291793   0.11228041            2 
  159000    1.2264224   -2.3204861    196.18094    0.1028202   0.11223251            1 
  160000    1.2042022   -2.2916507    196.62585    0.1024093   0.11218888            3 
  161000    1.2030648   -2.2797807    200.69773   0.10388081   0.11215228            1 
  162000     1.169278   -2.2417865    200.98333   0.10338649    0.1121198            3 
  163000    1.1628731   -2.2592387    203.21126   0.10389124   0.11208274            1 
  164000     1.201124   -2.2739866    203.64803   0.10347969   0.11204991            2 
  165000    1.1825762     -2.30088     204.9282   0.10349909   0.11202379            2 
  166000    1.1855731    -2.266667     205.5707   0.10319814   0.11199643            1 
  167000    1.2124414   -2.2939581    207.43819   0.10351207   0.11194992       -1e+20 
  168000    1.1712369   -2.2833895    208.52134   0.10343321   0.11191472            1 
  169000    1.1822134   -2.2842946    209.91885   0.10351028   0.11188977            2 
  170000    1.1794469   -2.2876801    211.69853   0.10377379   0.11185187            1 
  171000    1.1531305   -2.2743101    212.86289   0.10373435    0.1118168            1 
  172000    1.1833866   -2.3017149    213.42246   0.10340235    0.1117752            1 
  173000    1.1758744   -2.2828981    214.82866   0.10348202   0.11174111            1 
  174000    1.2079529   -2.2499661    217.20368   0.10402475   0.11171927       -1e+20 
  175000    1.2189975   -2.2867038    217.74022   0.10368582   0.11169664            3 
  176000    1.1798529   -2.2797584    219.23057   0.10380235   0.11167631            1 
  177000    1.1759397   -2.2891241    220.61321   0.10386686   0.11164687            1 
  178000    1.1736359   -2.2941291     220.8577    0.1033978   0.11160903            2 
  179000     1.173239   -2.3210206    222.67441   0.10366592   0.11157453            2 
  180000    1.1563245   -2.2821063    223.55486   0.10349762   0.11153435       -1e+20 
  181000    1.1996686   -2.2826373    225.19611   0.10368145   0.11149656       -1e+20 
  182000    1.1978239   -2.2753236    226.09511    0.1035234   0.11146978            1 
  183000    1.1908248   -2.3255599    227.02035   0.10337903   0.11143086            2 
  184000    1.2137154   -2.2858091    229.42422   0.10390589   0.11139286            2 
  185000    1.2098051   -2.2824841    230.84439   0.10398396    0.1113584            2 
  186000    1.1727063   -2.2909361    232.15306   0.10401123   0.11132442            1 
  187000    1.1845895   -2.2899578    233.38257   0.10400293   0.11128761            2 
  188000    1.1450573   -2.2590193     233.1361   0.10334047   0.11124892            2 
  189000    1.1911003   -2.2822836     234.1547   0.10324281   0.11120679            1 
  190000    1.1799279   -2.2990426    236.44141   0.10370237   0.11115745            2 
  191000    1.1889193   -2.2931264    236.53677   0.10320103   0.11111404            1 
  192000    1.1883278   -2.3133384    238.77201   0.10363369   0.11107916            2 
  193000    1.1616601   -2.2972695    239.32613   0.10333598   0.11104056            2 
  194000    1.1775546   -2.3187656    240.58422   0.10334374   0.11099986            1 
  195000    1.1821423    -2.300205    242.49306   0.10362951   0.11095526            1 
  196000     1.168682   -2.2943344    242.95673   0.10329793   0.11091037            3 
  197000    1.1799833   -2.2947113    244.73326   0.10352507   0.11085848            1 
  198000    1.1841819   -2.2949108    245.47088   0.10331266   0.11080321            4 
  199000    1.1778342   -2.3125959    245.68786   0.10288436    0.1107479            2 
  200000     1.184777   -2.2934507    247.43149   0.10309645   0.11068789            1 
  201000    1.1693117   -2.3077177    248.27691   0.10293404   0.11062372            1 
  202000    1.1680883    -2.328768    248.63539   0.10257236   0.11055772            1 
  203000    1.1665058   -2.3090853    250.57452    0.1028631   0.11049583            2 
  204000    1.1969217   -2.2970118    252.59042   0.10318236   0.11043271            1 
  205000    1.1722948   -2.2980787    252.84733   0.10278347   0.11036646            1 
  206000    1.1501968   -2.3029246    252.30296    0.1020643   0.11030159            2 
  207000    1.1654276   -2.3095275    254.09022   0.10229075   0.11023285            2 
  208000    1.1404004   -2.2952369    255.68696   0.10243869     0.110166            1 
  209000    1.1724187   -2.3099303    257.41062   0.10263581   0.11009532            2 
  210000    1.1748332   -2.2955315    257.23201   0.10207619   0.11002037            1 
  211000    1.2103399   -2.3232805    260.25233   0.10278528   0.10994828            4 
  212000     1.173011   -2.3050017    260.11834   0.10224777   0.10987903            1 
  213000    1.1481318   -2.2969097    261.97145   0.10249274   0.10980278            1 
  214000    1.1571435   -2.3276984     262.0761   0.10205456   0.10972831            1 
  215000    1.1522781   -2.3032288    263.52596   0.10214184   0.10965364            1 
  216000    1.1742045   -2.2859438    264.91759   0.10220586   0.10958369            1 
  217000    1.1600318   -2.3165595      264.569     0.101601   0.10951064            1 
  218000    1.1423801   -2.2999868    265.14219   0.10135405   0.10942882            2 
  219000     1.170552   -2.3050671    267.59455   0.10182441    0.1093455            2 
  220000    1.1670657   -2.3169499    268.05712   0.10153679   0.10925819            2 
  221000    1.1808697   -2.3098972    270.91563   0.10215522   0.10917946            6 
  222000    1.1609895   -2.3189818    269.92643   0.10132373   0.10909598            1 
  223000    1.1870133   -2.3101348    271.51506   0.10146303    0.1090125            2 
  224000    1.1665202   -2.3242395       272.71   0.10145461   0.10893052            2 
  225000     1.150659   -2.2959184    274.47449   0.10165722   0.10884109            1 
  226000    1.1540042   -2.3080397    274.45949   0.10120188   0.10875673            1 
  227000     1.162204   -2.3189089    276.49543   0.10150346   0.10867365            3 
  228000    1.1869715    -2.295148    276.70369   0.10113439    0.1085867            1 
  229000    1.1566362   -2.3209769    279.65791    0.1017678    0.1085038            2 
  230000    1.1714509    -2.321105    278.47195   0.10089563   0.10842143            1 
  231000    1.1717348   -2.3248864    279.16344   0.10070831   0.10833623            2 
  232000    1.1596508   -2.3237173    281.52472   0.10112238   0.10825351            2 
  233000    1.1459628   -2.3153371    283.00757   0.10121873   0.10817268            3 
  234000    1.1316194   -2.3217725    284.25169   0.10122923   0.10809515            1 
  235000    1.1650395   -2.3318844    285.45858   0.10122645   0.10801459            1 
  236000     1.171073   -2.2973074    286.32621   0.10110389   0.10794044            1 
  237000    1.1302551   -2.3175154    288.31182   0.10137546   0.10786779            1 
  238000    1.1723362   -2.2988495     288.7547   0.10110459   0.10779394            2 
  239000    1.1549457   -2.2747096    289.35371   0.10089042   0.10771851            3 
  240000    1.1526293   -2.3018507    291.33514   0.10115803   0.10764762            1 
  241000     1.142323   -2.3342568    292.05374   0.10098677   0.10757282            2 
  242000    1.1605995   -2.3066093    292.26878   0.10064352   0.10749323            2 
  243000    1.1751526   -2.3041178    295.24893   0.10125135   0.10742149            2 
  244000    1.1748293   -2.3099057    294.56349   0.10060229   0.10735131            2 
  245000    1.1651601   -2.3100793    297.08687   0.10104995   0.10728251            2 
  246000    1.1634799   -2.2960797    299.83511   0.10157016   0.10721737            2 
  247000    1.1606516   -2.3228321    299.48266   0.10104003   0.10714934            1 
  248000    1.1676017   -2.3076007     301.6501   0.10136092   0.10708466            1 
  249000    1.1616718   -2.3356297    303.90973   0.10171008   0.10702722            2 
  250000    1.1427994   -2.3181514    303.16555   0.10105518   0.10696412            1 
  251000    1.1286249   -2.3212399    305.02588   0.10127021   0.10690356            2 
  252000    1.1813377   -2.3176286    306.90545    0.1014899   0.10684303            2 
  253000    1.1437788   -2.3211352    306.90089   0.10108725   0.10678565            3 
  254000    1.1538638   -2.3032296    308.27154   0.10113896   0.10672982            1 
  255000    1.1561381   -2.3246945    310.15806   0.10135884   0.10667135            1 
  256000    1.1449496   -2.3222466    309.74149   0.10082731   0.10661082            2 
  257000    1.1421838   -2.3053484    311.75161   0.10108677   0.10655013            2 
  258000    1.1533649   -2.3102656    311.18415   0.10051167   0.10648217            1 
  259000    1.1627781   -2.3000031    312.35333   0.10049978   0.10641789            3 
  260000    1.1622213   -2.3302622    312.99313   0.10031831   0.10634861            2 
  261000    1.1156485   -2.3168187    314.97808   0.10056771   0.10628068            2 
  262000    1.1632269   -2.3173201    314.82316   0.10013459   0.10620948            1 
  263000    1.1503211   -2.3289136     316.0998   0.10015837   0.10613321            3 
  264000    1.1552329   -2.2969982    319.59122   0.10088107   0.10606423            2 
  265000    1.1459936   -2.3229244    320.03254   0.10063916   0.10599628            1 
  266000    1.1566539   -2.2927206    320.36171   0.10036394   0.10593001            1 
  267000    1.1446572   -2.3145592    319.17344  0.099617179   0.10585897            3 
  268000    1.1470067   -2.3534265     322.4601   0.10026744   0.10579099            1 
  269000    1.1397138   -2.3133751    322.89675   0.10002997   0.10572111            1 
  270000    1.1509796   -2.2979028    324.14164   0.10004372   0.10565843            1 
  271000     1.158253   -2.3217649    325.23443   0.10001059   0.10559234            1 
  272000    1.1534833    -2.333761    327.73232   0.10040819   0.10552288            2 
  273000    1.1485099   -2.3498283    327.37498  0.099931311   0.10545781            1 
  274000     1.158991   -2.3345787    329.14547   0.10010507    0.1053919            1 
  275000    1.1712802   -2.3264762    332.35373   0.10071325   0.10532424            4 
  276000    1.1075066   -2.3045183    332.08859   0.10026829   0.10525933       -1e+20 
  277000    1.1569946   -2.3376864    332.80404   0.10012155   0.10519222            1 
  278000    1.1654614   -2.3167853    333.30978  0.099913004   0.10512639            1 
  279000    1.1376664   -2.3588569     333.7321  0.099681033   0.10505918            2 
  280000    1.1390092   -2.3127065    334.42107  0.099530079   0.10499304            2 
  281000    1.1453011   -2.3372154    338.04081   0.10024935   0.10492965            1 
  282000    1.1230433   -2.3131599    337.88942   0.09984912   0.10486288            2 
  283000    1.1296345   -2.3216508    336.92687  0.099212859   0.10479696            1 
  284000    1.1177613   -2.3521537    337.58952  0.099057958   0.10472504            1 
  285000    1.1505203   -2.3149215    338.73862   0.09904638   0.10465055            1 
  286000    1.1394924    -2.348586    339.01078  0.098779365   0.10457809            1 
  287000    1.1425441   -2.3308444    343.58142  0.099762318   0.10450891            1 
  288000    1.1406465   -2.3387256    343.97703  0.099530392   0.10444281            2 
  289000    1.1583653   -2.3291607    343.51259  0.099052072   0.10437474            1 
  290000    1.1064943   -2.3403915    344.19562  0.098906787   0.10430446            2 
  291000    1.1305271   -2.3553379    347.13228  0.099407869   0.10423459            3 
  292000    1.1459614    -2.344183    345.38131  0.098567727   0.10416194            3 
  293000    1.1290657   -2.3657005     347.4369  0.098815956   0.10409222            2 
  294000    1.1419904   -2.3485243    349.19477   0.09897811    0.1040261            1 
  295000    1.1298615   -2.3445336    352.31045  0.099522725   0.10396184            1 
  296000    1.1430414    -2.351818    352.44342  0.099223935   0.10389868            1 
  297000    1.1438692   -2.3398371    353.73498   0.09925224   0.10383204            1 
  298000    1.1385698   -2.3403741    353.18745  0.098766066   0.10376566            3 
  299000    1.1518788   -2.3581567    355.91457  0.099195811   0.10369958            2 
  300000    1.1084105    -2.341804    354.65337  0.098514826   0.10363455            1 
  301000    1.1254082   -2.3402439    357.59963   0.09900322   0.10356979            2 
  302000    1.1250814   -2.3189577    359.19681  0.099116116   0.10350722            2 
  303000    1.1365882   -2.3281626    359.82159  0.098960834   0.10344809            2 
  304000     1.130031   -2.3263216    361.79274  0.099175641   0.10339274            4 
  305000    1.1436656   -2.3478332    365.21986  0.099786847   0.10333926            1 
  306000    1.1170444   -2.3356507    365.08541  0.099424132   0.10329143            1 
  307000    1.1290923   -2.3357481    365.90024  0.099321455   0.10324094            7 
  308000    1.1232164   -2.3616076    367.49619  0.099430786   0.10319509            1 
  309000    1.1156658   -2.3553907    368.21597   0.09930312   0.10314913            2 
  310000    1.1182515   -2.3336743    369.90701  0.099437368   0.10310305            3 
  311000    1.1429282   -2.3307388     369.6083  0.099037595   0.10305729            1 
  312000    1.1591608   -2.3572499    370.48509   0.09895435    0.1030106            1 
  313000    1.1021673   -2.3471805    372.92816  0.099288648     0.102964            1 
  314000    1.1423806   -2.3383426    373.38649  0.099094079   0.10291922            1 
  315000    1.1098879   -2.3418593    374.94532  0.099191884   0.10287008            2 
  316000    1.1141427   -2.3292058    375.59712  0.099049874   0.10282054            1 
  317000    1.1191255   -2.3452301    375.78105  0.098785764   0.10276879            2 
  318000    1.1236209   -2.3537041    376.00619  0.098534117   0.10271727            2 
  319000    1.0952572   -2.3608945    377.38755  0.098586088   0.10266458            3 
  320000    1.1192695   -2.3371879    381.77988  0.099421843   0.10261766            1 
  321000    1.1502135   -2.3326771    381.03677  0.098919204   0.10257243            1 
  322000    1.1160033    -2.347851    381.73669  0.098793138   0.10252552            2 
  323000    1.1379279   -2.3592254    383.88874  0.099042503   0.10247803            1 
  324000    1.1407574   -2.3461637    385.11328  0.099051769   0.10243222            2 
  325000    1.1288591   -2.3394509    385.68863  0.098894519   0.10238643            1 
  326000    1.1285552   -2.3546983    386.95858  0.098915792   0.10234188            2 
  327000    1.1519332    -2.346469    386.96007  0.098613678   0.10229596            1 
  328000    1.1221971   -2.3203386    386.92561   0.09830427   0.10224679            3 
  329000    1.1287156    -2.373044    388.42754  0.098385903   0.10219718            1 
  330000    1.1196316   -2.3323366    391.25449  0.098801639   0.10214557            1 
  331000    1.1309788    -2.369251    391.76778  0.098632371    0.1020953            2 
  332000    1.1379398   -2.3653052    390.66888  0.098059457   0.10204796            2 
  333000    1.0975336   -2.3672381    392.24606  0.098159675    0.1019969            4 
  334000    1.1019349   -2.3369631    395.01329   0.09855621    0.1019453            1 
  335000    1.1250161   -2.3208287    397.59799  0.098904974   0.10189802            3 
  336000    1.1062719   -2.3597323    398.15415  0.098748549    0.1018506            2 
  337000    1.1181133   -2.3399965    400.02673  0.098918578    0.1018049            1 
  338000    1.1077552   -2.3661114    398.86604  0.098339752   0.10176087            3 
  339000    1.1172368   -2.3437203    398.45347  0.097948248   0.10171185            1 
  340000    1.0812213   -2.3698646    402.07187  0.098547026   0.10166549            2 
  341000    1.0913272   -2.3753624    400.94362  0.097982312   0.10161777            3 
  342000    1.1252542   -2.3650764    404.88429  0.098656015   0.10157059            1 
  343000    1.1446456   -2.3763787     404.0231  0.098159158   0.10152491            2 
  344000    1.1206399   -2.3348295    407.04827  0.098606655   0.10148202            3 
  345000    1.1274635   -2.3505452    406.46923  0.098180974   0.10144282            1 
  346000    1.1342349   -2.3936301     407.5078  0.098147351   0.10139948            2 
  347000    1.1000889   -2.3670333    410.36358  0.098550332   0.10135464            2 
  348000    1.1145047    -2.395367    408.85914  0.097906881   0.10131108            1 
  349000    1.1245152   -2.3373136    411.11691  0.098165451   0.10126781            1 
  350000    1.0843681    -2.375037    412.40553  0.098191792   0.10122378            3 
  351000    1.1379214    -2.390894    411.83356  0.097776249   0.10117907            3 
  352000    1.1242993   -2.3527114    415.91207  0.098464032     0.101139            1 
  353000    1.1305586   -2.3742038     415.9642  0.098197403   0.10109862            1 
  354000    1.1157343   -2.3328934    416.96205  0.098154908   0.10105645            1 
  355000    1.1015147   -2.3651108    415.38021  0.097507092   0.10101515            2 
  356000    1.1191469   -2.3332733    418.49265  0.097961763   0.10097349            2 
  357000    1.1235431   -2.3845874    417.80988  0.097527983    0.1009319            2 
  358000    1.1076892   -2.3881421     421.1912  0.098042644   0.10089071            2 
  359000    1.1139052   -2.3572629    421.85097  0.097922695   0.10084801            1 
  360000    1.1102325   -2.3606907    423.74473  0.098089057   0.10080748            2 
  361000    1.1074297   -2.3558153    423.76906  0.097822959   0.10076396            1 
  362000    1.0935883   -2.3825796    423.95262  0.097594986   0.10072082            3 
  363000    1.1255859   -2.3752142    425.61622  0.097708039   0.10067306            2 
  364000    1.1171247   -2.3790253    425.34996  0.097378654   0.10062803            3 
  365000    1.0925465   -2.3568823    426.25925  0.097319463   0.10058197            1 
  366000    1.0866888   -2.3637115     428.8229  0.097637271   0.10053923            2 
  367000     1.108619   -2.3597472    432.16756  0.098130691   0.10049659            1 
  368000    1.1106872   -2.3777805    432.04335  0.097835903   0.10045779            1 
  369000     1.099778     -2.35717    431.12941  0.097364364   0.10041476            1 
  370000    1.1071215   -2.3641105    431.99512  0.097296198   0.10037224            2 
  371000    1.1074319   -2.3479564    435.68036  0.097861715   0.10033204            2 
  372000    1.1207097   -2.3412856    438.09843  0.098140328   0.10029491            1 
  373000    1.1192023   -2.3810448    438.49052  0.097964816   0.10026067            1 
  374000    1.1048344   -2.3528718    439.09051  0.097836567   0.10022215            1 
  375000    1.1086217   -2.3805477    440.73223  0.097940496   0.10018493            1 
  376000    1.1184712   -2.3737102    439.63806  0.097437512   0.10014879            1 
  377000    1.0963596    -2.376339    443.32744  0.097994571   0.10011497            1 
  378000    1.1080792   -2.3560875    445.86673  0.098295135   0.10008062            1 
  379000    1.1022921   -2.3539091    445.38534  0.097929934    0.1000499            3 
  380000    1.1109627   -2.3702462    446.28998  0.097870608   0.10002025            2 
  381000    1.0991283   -2.3812152     447.3026  0.097835214  0.099989518            2 
  382000    1.0947669   -2.3832945    446.92713  0.097497192  0.099959918            2 
  383000    1.1162505   -2.3765445    448.57826  0.097601885  0.099930632            2 
  384000    1.1046319   -2.3588452    450.81577  0.097833283  0.099901562            2 
  385000    1.0965861   -2.3684208    450.45099  0.097500214  0.099867589            2 
  386000    1.1165779   -2.3638715    452.77817  0.097750036  0.099836298            1 
  387000    1.0855021   -2.4013362     453.9867  0.097757687  0.099806773            2 
  388000    1.1071789   -2.3998714     454.4491  0.097605047  0.099775274            1 
  389000    1.1080331   -2.3720504    454.16413  0.097293086  0.099742759            1 
  390000    1.1104211   -2.3991582    455.79561  0.097392224  0.099712386            3 
  391000     1.095814   -2.3615191    459.03319  0.097833161  0.099679379            2 
  392000    1.0712525   -2.3750972     458.1343  0.097392496  0.099645646            3 
  393000    1.1172544   -2.3718523    458.90213  0.097307492  0.099615327            1 
  394000    1.0997238   -2.3883586    461.20093  0.097546728  0.099585658            2 
  395000    1.1075004     -2.38529    461.70658  0.097406452  0.099552513            3 
  396000     1.075516   -2.3750982    463.24457  0.097484128  0.099522567            2 
  397000    1.0792965   -2.3852176    464.82673  0.097570682   0.09949395            2 
  398000    1.0799432   -2.3686909    466.94413  0.097768871  0.099466546            2 
  399000    1.1091342   -2.4143221    466.45361  0.097421389  0.099437572            2 
  400000    1.1203948   -2.3680578    469.25126  0.097760679  0.099407143            1 
  401000    1.0927034   -2.3514153    469.28664  0.097524239  0.099378095            1 
  402000    1.0892761   -2.3649881    471.93735  0.097831125  0.099348568            1 
  403000    1.0875573   -2.3747372    469.94977  0.097177372  0.099317615            3 
  404000    1.0823078   -2.3813893    471.78047  0.097314453  0.099284803            2 
  405000    1.0783439   -2.3855647     471.2969   0.09697467  0.099253522            1 
  406000    1.0766386   -2.3699771    473.97648  0.097285813  0.099221665            1 
  407000    1.0702765   -2.3899662    475.67918  0.097395409  0.099191357            4 
  408000    1.1046232   -2.3863725    476.52102  0.097328639  0.099160461            1 
  409000    1.0771836   -2.3891128    476.81527  0.097150626  0.099129243            2 
  410000    1.0988426   -2.4023914     478.6394  0.097284431  0.099097984            4 
  411000    1.0903965   -2.3852895    476.82192  0.096679221  0.099064219            4 
  412000    1.1030483   -2.3936218     481.3086  0.097352063  0.099031004            3 
  413000    1.0803741   -2.3742401    479.23288  0.096697514  0.098995644            2 
  414000    1.1007185   -2.3320997    479.77469  0.096573005  0.098960481            1 
  415000    1.0827782   -2.3767219    480.47264   0.09648045  0.098922643            2 
  416000    1.1018006   -2.4134279    482.74979  0.096704686  0.098884416            3 
  417000    1.0967253    -2.385256    480.79983  0.096083099  0.098846825            4 
  418000    1.0803277   -2.3882111    482.09112  0.096110669  0.098805784            4 
  419000    1.0911666   -2.3830013     485.0558  0.096470923  0.098766656            3 
  420000    1.0758031   -2.3967145    485.26593  0.096282923  0.098728133            5 
  421000    1.0975204   -2.3687431    485.06219  0.096013894  0.098689224            1 
  422000     1.078342   -2.3621223    486.84564  0.096138554  0.098651576            1 
  423000    1.0629322   -2.3692881    491.31006  0.096790791  0.098613731            2 
  424000    1.0779239   -2.3953455    491.69078  0.096637339  0.098577971            1 
  425000     1.078774   -2.3746195     492.3961  0.096548254  0.098542066            5 
  426000    1.0779187   -2.4042617    491.12602  0.096073166  0.098506774            1 
  427000    1.0853259   -2.4113251    492.25464  0.096068431  0.098470721            1 
  428000    1.0846188   -2.4056355    495.36722  0.096450003  0.098437231            3 
  429000    1.0645949   -2.4028569    496.00611  0.096349284  0.098404543            2 
  430000    1.0860687   -2.4111241    498.74964  0.096656906  0.098372724            2 
  431000    1.0701703   -2.3866416    499.71196  0.096618707  0.098339562            2 
  432000    1.0904213   -2.3905794    497.68433  0.096003921  0.098306517            1 
  433000    1.0773739   -2.3969274     500.6542  0.096353772  0.098273761            1 
  434000    1.0711013   -2.3632026     502.6134   0.09650795  0.098240359            3 
  435000    1.0642276   -2.3965923    504.37354  0.096623283  0.098209723            2 
  436000     1.072339   -2.4122973    503.54142  0.096242627  0.098178004            2 
  437000    1.0900307   -2.3908746    506.55098  0.096596297   0.09814694            1 
  438000    1.0816261   -2.4244457    506.49913  0.096365893   0.09811795            1 
  439000    1.0678988   -2.3823436     510.1519  0.096839769  0.098091852            2 
  440000    1.0791579   -2.3959048    510.66444   0.09671675  0.098066384            2 
  441000     1.100577   -2.3687823    512.76169  0.096893743  0.098042734            1 
  442000    1.0441818   -2.4048359    512.20999  0.096570511  0.098018326            2 
  443000    1.0849256   -2.4411288    512.21489  0.096353441   0.09799082            2 
  444000    1.0855511   -2.3816451    513.08055  0.096298902  0.097964186            2 
  445000    1.0820269   -2.3878266     515.0376  0.096448989  0.097938133            2 
  446000    1.0895156   -2.4086145    515.66247   0.09634949  0.097911581            1 
  447000    1.0958423   -2.4099939    520.12977  0.096966772  0.097886612            1 
  448000    1.0475486   -2.4113941    518.05734  0.096364833  0.097860623            2 
  449000    1.0815438   -2.4029788    517.60598  0.096066439  0.097833791            1 
  450000    1.0540372   -2.4108577    520.38927  0.096368383  0.097808342            3 
  451000    1.0662878   -2.4007414     524.4632  0.096907465  0.097783347            2 
  452000    1.0840024   -2.3982184    522.27095  0.096288892  0.097758417            2 
  453000    1.0639023   -2.4273007    519.58805   0.09558279  0.097729484            1 
  454000    1.0610418   -2.3851169     525.5882  0.096473605  0.097699459            1 
  455000    1.0954822   -2.4118979    524.00239  0.095971134   0.09766825            2 
  456000    1.0713111   -2.4243248    525.62953  0.096058028  0.097634294            3 
  457000    1.0944252   -2.4162305     524.8325  0.095702498  0.097602537            3 
  458000    1.0544257   -2.4168095    525.27525  0.095574099  0.097571918            2 
  459000     1.056371   -2.3972842    529.08859  0.096058204  0.097538411            3 
  460000    1.1000152    -2.417521     527.2152      0.09551  0.097504149            1 
  461000    1.0764165   -2.3857771    531.48698  0.096075014  0.097472505            3 
  462000    1.0459834   -2.3763575    530.58499  0.095704363  0.097438777            2 
  463000    1.0611079   -2.4175376     529.7957  0.095355597  0.097403765            1 
  464000    1.0755604   -2.4355014     528.9847  0.095004435  0.097367778            2 
  465000     1.074247   -2.3985745    529.47107  0.094887289  0.097331833            2 
  466000    1.0691894   -2.3939261    529.01227  0.094601622  0.097294935            1 
  467000    1.0706035    -2.399908     533.2169  0.095149339  0.097255728            3 
  468000    1.0661669   -2.3901289    534.34197  0.095146363  0.097219167            1 
  469000    1.0654263   -2.4171585    534.69911  0.095006948  0.097181961            1 
  470000    1.0805139    -2.421564    536.23511  0.095077148  0.097147538            1 
  471000    1.0492003   -2.4188317    535.08345  0.094671524  0.097112283            2 
  472000    1.0415144   -2.4046207    538.95659  0.095154765  0.097075628            2 
  473000    1.0736684   -2.4220988    539.64739  0.095075298   0.09703828            1 
  474000    1.0661738   -2.4141657    542.11607  0.095308733  0.097002205            1 
  475000    1.0632117   -2.3903286    541.92535  0.095074622  0.096968167            3 
  476000    1.0817007   -2.4233926    541.85415  0.094862422  0.096932272            3 
  477000     1.066736   -2.4031232    542.39349  0.094757772  0.096894653            2 
  478000    1.0639236   -2.4171587    544.43748  0.094915878  0.096857053            3 
  479000    1.0640374   -2.4182347    544.00959  0.094643283   0.09681911            4 
  480000     1.071193   -2.4115607    546.07844  0.094805285  0.096783175            2 
  481000    1.0607953   -2.4313543    547.63429  0.094877735  0.096746055            3 
  482000     1.053279   -2.4218796    548.88901  0.094897823  0.096710662            2 
  483000    1.0324021   -2.4214959    546.59539  0.094305623  0.096673976            2 
  484000    1.0568476   -2.4186401    550.73146  0.094822909   0.09663743            5 
  485000    1.0596234   -2.4284374    553.62337   0.09512429  0.096601984            2 
  486000    1.0498253   -2.4206882    552.45436  0.094728113  0.096566036            1 
  487000    1.0972616   -2.4072918    553.67576  0.094742601  0.096529667            1 
  488000    1.0666781   -2.4256437    556.81259  0.095084117  0.096495534            1 
  489000    1.0417991   -2.4226638    553.13818  0.094263494  0.096461976            2 
  490000    1.0517173   -2.4210009    557.16239  0.094755508  0.096427777            2 
  491000     1.046099    -2.412494    559.77657  0.095006207  0.096395395            3 
  492000    1.0833885   -2.4185784    559.10632   0.09469958  0.096363584            1 
  493000    1.0779174   -2.4102487    559.79332  0.094623618   0.09633164            2 
  494000    1.0738322   -2.4152616    562.50305  0.094889178  0.096298412            1 
  495000    1.0366796   -2.4254952    563.02172  0.094784802  0.096268203            1 
  496000    1.0958419     -2.40211    565.07028  0.094937882  0.096236674            1 
  497000    1.0420008   -2.4260169    564.27909  0.094614201  0.096206177            4 
  498000     1.055067      -2.4625    566.97846  0.094875914  0.096174667            2 
  499000    1.0660608   -2.4226958    567.91027  0.094841395  0.096145422            2 
  500000     1.053238   -2.4371259     569.2206    0.0948701  0.096114229            2 
  501000    1.0618239   -2.4022208    568.12263  0.094498108  0.096082389            4 
  502000    1.0677574   -2.4274619    567.56792  0.094217781  0.096052488            3 
  503000    1.0519101    -2.421686    571.59485  0.094697622  0.096021665            2 
  504000    1.0661113   -2.4398627    571.04782  0.094419283  0.095989297            1 
  505000    1.0597035   -2.3978412    572.63022  0.094493436  0.095957983            2 
  506000    1.0678673   -2.4213526     572.0664  0.094213834  0.095927288            4 
  507000    1.0476654    -2.433904    576.60574  0.094774119  0.095896053            1 
  508000    1.0457553   -2.4316964      572.554  0.093922899  0.095864447            3 
  509000    1.0479623   -2.4311714    575.96982  0.094297612  0.095833036            2 
  510000    1.0834748   -2.4042321    578.25612  0.094486294  0.095802355            3 
  511000    1.0597223   -2.4206976      577.368  0.094156556  0.095772085            3 
  512000    1.0564296   -2.4510984    579.78363  0.094365825  0.095742046            5 
  513000     1.035912   -2.4262694    579.82895  0.094189238   0.09571036            1 
  514000    1.0715559    -2.422372     580.1466  0.094057491  0.095679107            2 
  515000    1.0419532   -2.4384102     582.3596  0.094232944  0.095647973            1 
  516000    1.0380632    -2.452108    582.48148  0.094070007  0.095614829            2 
  517000    1.0457946   -2.4143281     582.7837  0.093936766  0.095581767            4 
  518000    1.0468309   -2.4482889    584.37293  0.094011088  0.095548097            2 
  519000    1.0427165   -2.4507742    582.57286  0.093540922  0.095514829            2 
  520000    1.0374467    -2.417901    588.09568  0.094246103  0.095480837            1 
  521000     1.062345   -2.4268597    589.94212  0.094360543  0.095447648            1 
  522000    1.0411955    -2.422899    590.72719  0.094305107  0.095417564            2 
  523000      1.05691   -2.4481624    590.11729  0.094027612  0.095386586            2 
  524000    1.0374671   -2.4361198    590.39981  0.093893099  0.095356372            3 
  525000    1.0502033   -2.4479076    593.31391   0.09417681   0.09532494            3 
  526000    1.0585844   -2.4258499    591.56122  0.093720092  0.095292946            1 
  527000    1.0200732   -2.4284823    592.46405  0.093685018  0.095262299            4 
  528000    1.0631957   -2.4223581    596.48396  0.094142039  0.095231168            3 
  529000    1.0572452   -2.4158467    595.40627  0.093794308  0.095200308            4 
  530000    1.0399759    -2.429837    595.90418  0.093695625  0.095170186            2 
  531000    1.0380354   -2.4140459    598.97502  0.094001101  0.095139036            2 
  532000    1.0204961   -2.4347569    599.93625  0.093974977   0.09510992            3 
  533000    1.0515874   -2.4359164     597.9975  0.093495544  0.095079725            3 
  534000    1.0558066   -2.4478742    599.68631  0.093584005  0.095049289            5 
  535000    1.0332116   -2.4256575    601.75016  0.093730554  0.095020336            2 
  536000    1.0214304   -2.4593196    603.32667  0.093800788  0.094992068            1 
  537000     1.056456   -2.4300003    603.09133  0.093589591  0.094961584            1 
  538000    1.0448912   -2.4571719     604.4959  0.093633194  0.094934604            4 
  539000    1.0432502   -2.4520646    609.63701  0.094254331  0.094907025            1 
  540000    1.0299133   -2.4480409    610.40708  0.094198624  0.094879952            1 
  541000    1.0278088   -2.4433676    607.78451  0.093620534  0.094852579            1 
  542000    1.0330679   -2.4549598    607.37474  0.093384799   0.09482507            1 
  543000    1.0727072   -2.4330183    611.37426   0.09382662  0.094799133            4 
  544000    1.0188603   -2.4232836    612.36372  0.093805717  0.094773452            2 
  545000    1.0311539    -2.438862    613.79508  0.093852458  0.094747038            5 
  546000    1.0288183   -2.4592202    614.72595  0.093822643  0.094723028            3 
  547000    1.0243424   -2.4513935    617.98705  0.094147936  0.094698163            4 
  548000    1.0356323   -2.4458193    616.74754  0.093787642  0.094672688            3 
  549000    1.0407848   -2.4763228    620.23825  0.094146668  0.094648786            2 
  550000    1.0172275   -2.4574752     616.0553  0.093341712  0.094624419            2 
  551000    1.0166869    -2.455358    621.83938  0.094047092  0.094600068            2 
  552000    1.0300562   -2.4662365    619.33951  0.093499323  0.094576007            3 
  553000    1.0211711    -2.425213    621.14631  0.093602519  0.094549882            7 
  554000     1.043628   -2.4540431    624.39303  0.093921936  0.094525463            1 
  555000    1.0487307     -2.44567    624.85249  0.093821695  0.094500214            1 
  556000    1.0231923   -2.4442151    623.89781  0.093509863  0.094476147            3 
  557000    1.0316513   -2.4453311     627.1407  0.093827154  0.094452467            3 
  558000     1.029232   -2.4663104    628.74727  0.093898935  0.094428242            5 
  559000    1.0170705     -2.44095    629.87465  0.093899024  0.094404546            1 
  560000    1.0202616   -2.4763406    626.57483  0.093240303  0.094380288            3 
  561000    1.0573644   -2.4772274    628.14212  0.093306911  0.094356823            4 
  562000    1.0347047   -2.4465653    630.45715  0.093484156  0.094332541            2 
  563000    1.0308665   -2.4685132    633.37964  0.093750687  0.094307663            3 
  564000    1.0217797   -2.4644334    631.24923  0.093269685  0.094282281            1 
  565000    1.0390868   -2.4548295       632.61   0.09330531  0.094255817            2 
  566000    1.0628011   -2.4626376     632.9749  0.093194184  0.094228365            2 
  567000    1.0189195   -2.4463384    634.03071  0.093184996  0.094199648            3 
  568000    1.0346918   -2.4458333    636.19323  0.093338209  0.094172058            2 
  569000    1.0321576   -2.4499897    635.53181  0.093077301  0.094143404            2 
  570000    1.0005799   -2.4278016    638.51063  0.093349507  0.094114542            3 
  571000     1.022201   -2.4422918    636.20621   0.09284971  0.094085392            2 
  572000    1.0398471   -2.4794958    638.07523  0.092959678  0.094055008            2 
  573000    1.0385391   -2.4390948    639.47529   0.09300106  0.094025519            3 
  574000    1.0318817   -2.4580182    639.28599  0.092811555  0.093996883            4 
  575000    1.0315482   -2.4562093    640.35621  0.092805248  0.093967521            3 
  576000    1.0103448   -2.4807516    640.15365  0.092614822   0.09393856            1 
  577000    1.0157711   -2.4441342    640.88837  0.092560423  0.093909221            1 
  578000    1.0200724   -2.4612337    644.72686    0.0929537  0.093880087            2 
  579000    1.0479234   -2.4247569    640.45518   0.09217835  0.093850293            5 
  580000    1.0210326   -2.4656892    645.93066  0.092806129  0.093819192            2 
  581000    1.0387874   -2.4523296    647.03048  0.092804142  0.093789498            2 
  582000    1.0360927   -2.4426156    647.20563  0.092669764  0.093759452            2 
  583000      1.02409   -2.4811685    647.10903  0.092497003  0.093727853            1 
  584000    1.0226672   -2.4476988    647.71696  0.092425365  0.093697087            2 
  585000    1.0133721   -2.4304326    648.50404  0.092379493  0.093664245            3 
  586000    1.0297489   -2.4598309    648.47886  0.092218268  0.093632436            2 
  587000    1.0042383   -2.4861173    651.27156  0.092457632  0.093601301            3 
  588000    1.0233713   -2.4660181    650.39323  0.092175911  0.093568979            2 
  589000    1.0285111   -2.4497954    649.74008  0.091927006  0.093536817            1 
  590000    1.0212442   -2.4534928    652.88064  0.092214779  0.093503484            2 
  591000    1.0120752   -2.4310031    654.49213  0.092285975  0.093472567            3 
  592000    1.0348027   -2.4597011    654.39076  0.092115817  0.093440808            6 
  593000    1.0056022   -2.4368091    655.21079  0.092075715   0.09340905            2 
  594000    1.0390084   -2.4811914    652.74457  0.091574715  0.093375203            1 
  595000    1.0039549   -2.4498832     654.9369  0.091727857  0.093341709            1 
  596000    1.0084252   -2.4797389    657.22669  0.091894113  0.093307245            2 
  597000    1.0177829   -2.4504602    658.09443   0.09186131  0.093274908            2 
  598000    1.0216439   -2.4814095    657.53191  0.091629308  0.093241908            3 
  599000    1.0114419   -2.4719239    660.50602  0.091890097  0.093208777            1 
  600000    0.9981498   -2.4614707    658.01981   0.09139164  0.093173955            3 
  601000   0.99627274   -2.4755017    661.14875  0.091673427  0.093138659            3 
  602000    1.0049157   -2.4798611     661.6897  0.091596028   0.09310338            1 
  603000     1.036487   -2.4673777    662.04078  0.091492645  0.093068272            2 
  604000    1.0117107   -2.4640424    663.60411  0.091556858  0.093034803            2 
  605000    1.0090046     -2.47226     663.1366  0.091341129  0.093000358            1 
  606000   0.99966152   -2.4528934    663.67412  0.091264318  0.092964867            4 
  607000    1.0250827    -2.474659    667.59952  0.091652873  0.092928944            2 
  608000     1.008831   -2.4501242    667.20729  0.091448368  0.092894816            1 
  609000    1.0069425   -2.4731939    668.00315  0.091407109  0.092861432            2 
  610000   0.99567388   -2.4826947    669.63139  0.091479698  0.092827007            2 
  611000    1.0184476   -2.4550278    667.79753  0.091079859  0.092791678            3 
  612000     1.023276   -2.4618109    668.40781  0.091014136  0.092755413            2 
  613000    1.0339104   -2.4744879    671.54787  0.091292532  0.092720598            1 
  614000    1.0124362    -2.480615    671.64367  0.091156849  0.092684273            2 
  615000    1.0235848   -2.4751624    670.76272  0.090889257  0.092648766            3 
  616000    1.0100062   -2.4884182    673.42822  0.091102303  0.092615139            2 
  617000    1.0247398   -2.4679087    674.25526   0.09106635  0.092579341            3 
  618000     1.033182   -2.4764904    672.58362  0.090693584  0.092542379            2 
  619000    1.0048071   -2.4747101    673.90034  0.090724332  0.092505694            3 
  620000    1.0096172   -2.4682214    677.03827  0.090999767  0.092468432            2 
  621000    1.0113164   -2.5067556    678.02138  0.090985156  0.092431369            3 
  622000     1.002354    -2.460803    676.45626  0.090629188  0.092393907            3 
  623000    1.0033356   -2.4984055     675.8924  0.090408293  0.092355929            2 
  624000   0.99747495   -2.4585127    674.93972  0.090136181  0.092317381            3 
  625000   0.98662359   -2.4620298    680.07768  0.090677024  0.092279244            1 
  626000    1.0035402   -2.4641907    680.03856  0.090526964  0.092240769            1 
  627000    1.0072452   -2.4801414    677.88714  0.090096642  0.092201425            2 
  628000    1.0139285   -2.4880346    678.61708  0.090050037   0.09216143            2 
  629000    1.0039406   -2.4769288    680.60262  0.090169928  0.092122738            3 
  630000   0.99525318   -2.4914947    682.48781  0.090276165  0.092084221            1 
  631000   0.98453956   -2.4845493    682.36495  0.090116872  0.092044875            2 
  632000    1.0041509   -2.4916118     682.2614  0.089960627  0.092006478            2 
  633000   0.99668693   -2.4538779    683.84477  0.090026957   0.09196671            2 
  634000    1.0049388   -2.4822017    685.78668  0.090140204  0.091929103            2 
  635000    0.9949974   -2.4743125    687.50284  0.090223469   0.09189109            3 
  636000   0.99389458   -2.4978326     686.8309  0.089993566  0.091852905            3 
  637000   0.99553333   -2.5112174    685.33115  0.089656089  0.091813401            6 
  638000   0.97639902   -2.4917314    689.10953  0.090009081  0.091773278            2 
  639000    1.0080619   -2.4842988    686.20954  0.089490028   0.09173258            2 
  640000   0.99183911   -2.5212132    690.68775    0.0899333  0.091691341            2 
  641000    1.0183075    -2.487413    690.86367   0.08981587  0.091650752            2 
  642000   0.98719065   -2.4788783    694.96694  0.090208586  0.091612106            2 
  643000    1.0171394   -2.4587219    691.79144  0.089656744  0.091572834            1 
  644000    1.0212232   -2.4993806    691.00991  0.089416396  0.091533962            3 
  645000   0.97944529   -2.4866821    691.95975  0.089400485  0.091494176            1 
  646000    1.0015931   -2.5081524    692.61489  0.089346606  0.091454277            2 
  647000   0.97553375   -2.4795558    697.13014  0.089790075  0.091414482            2 
  648000    1.0049742   -2.4862617    695.58726  0.089453094  0.091375121            1 
  649000   0.98426734   -2.4887784    695.42046  0.089293845  0.091335005            1 
  650000   0.98426241   -2.5237307    693.60088   0.08892319  0.091293889            2 
  651000    1.0148178   -2.4909039    696.07105  0.089102797  0.091253187            2 
  652000   0.97919037   -2.5176792    701.20739  0.089622622  0.091212415            2 
  653000   0.98692122   -2.4839858    698.12964  0.089092603  0.091170606            1 
  654000   0.98833026   -2.4759494    701.28926  0.089358978   0.09113056            3 
  655000   0.99711726   -2.5042609    701.71208  0.089276346  0.091091023            2 
  656000    0.9973818   -2.4967166    699.60501  0.088872588  0.091050356            2 
  657000   0.98771597    -2.478962    701.22598  0.088942919  0.091010936            1 
  658000   0.97972277   -2.4878873    702.72349  0.088997402  0.090970305            3 
  659000   0.98458838   -2.4929747    702.32071  0.088811421  0.090930224            2 
  660000    1.0129777   -2.5012866    704.51488  0.088953899  0.090889938            4 
  661000   0.98025322    -2.471164    704.70176  0.088842885  0.090849849            2 
  662000    1.0050333   -2.4905626    708.21326  0.089150713  0.090809607            7 
  663000    1.0045673   -2.4934104    709.32199  0.089155605  0.090769849            2 
  664000   0.98389063   -2.5006359    710.32753  0.089147532  0.090730709            1 
  665000   0.97406762   -2.4839627    711.50827  0.089161438  0.090692612            4 
  666000   0.99529185   -2.4939751    710.53439  0.088905705  0.090654188            3 
  667000   0.99523369    -2.512436    709.28309  0.088616079    0.0906149            3 
  668000   0.99505231   -2.4985117      711.012  0.088699102  0.090575201            2 
  669000   0.98504108   -2.4748694    715.01028  0.089064559  0.090535754            3 
  670000   0.96884209   -2.5070989    713.87784  0.088790776  0.090497106            1 
  671000   0.98100005   -2.4920818    713.41958  0.088601538  0.090457999            4 
  672000   0.95628197   -2.4951549    715.14748  0.088683963  0.090419967            1 
  673000   0.99490363   -2.4885416    719.81703   0.08913039  0.090382208            1 
  674000   0.97733702   -2.5137601    716.92285  0.088640313  0.090344127            2 
  675000   0.96654496   -2.5113675    715.89204  0.088381733  0.090305985            2 
  676000   0.97263508   -2.4891964    721.63818  0.088959342   0.09026754            2 
  677000   0.97546555   -2.5171138    719.39626  0.088551977   0.09022901            2 
  678000   0.99220061   -2.4947884    724.69271  0.089072359  0.090192187            1 
  679000   0.99245186   -2.5002973    721.62287  0.088564417  0.090154802            2 
  680000   0.97792061   -2.4791511    723.86879   0.08870941  0.090118325            2 
  681000   0.98713365   -2.4793274    724.68893  0.088679507  0.090083023            2 
  682000   0.96921805    -2.516087    725.57667  0.088657951  0.090046024            2 
  683000   0.99841502   -2.4857434    726.49516   0.08864021  0.090010169            2 
  684000   0.98541102   -2.4839095    728.65465  0.088773715  0.089974906            2 
  685000   0.96158139   -2.4988124     729.7394  0.088776083  0.089940597            2 
  686000   0.97464455   -2.5272822     728.0797  0.088445055  0.089905286            3 
  687000   0.98278491   -2.4816545    729.58437  0.088498831   0.08987004            4 
  688000   0.98504096   -2.5273625    728.60887  0.088252044  0.089832776            5 
  689000    0.9817142   -2.5346435     730.9802  0.088410765   0.08979516            2 
  690000    0.9912659   -2.4940181    730.57668  0.088233899   0.08975876            3 
  691000   0.99825291    -2.489536    733.50894  0.088459834  0.089723001            2 
  692000   0.96669967   -2.5203554    735.94039  0.088624806  0.089685613            2 
  693000   0.96922364   -2.5336196    731.60439  0.087975516  0.089648399            3 
  694000   0.97225403   -2.4877861     735.5563  0.088323283  0.089612102            2 
  695000   0.96430964   -2.5053939    735.41834  0.088179657  0.089574438            2 
  696000   0.96335493    -2.522168     733.8081  0.087860166  0.089537767            2 
  697000   0.98570498   -2.4969502     735.3824  0.087922334  0.089501751            2 
  698000   0.99856922   -2.5001075    739.26172  0.088259517  0.089464553            2 
  699000   0.95664208   -2.5180121    739.18971  0.088124668  0.089426582            3 
  700000   0.96295102   -2.5144033    737.05357  0.087744473  0.089388509            3 
  701000   0.99088781   -2.5356887    734.40018  0.087303873  0.089349738            2 
  702000   0.95255466   -2.5195925    741.39562  0.088009927  0.089309816            2 
  703000    0.9760233    -2.515799    736.83277  0.087343856  0.089270236            5 
  704000    0.9793483   -2.5211176     738.1492  0.087375616  0.089230135            3 
  705000   0.96705598   -2.5123187    740.52616  0.087532643  0.089189876            3 
  706000   0.96393546   -2.5310473    741.63302  0.087539309  0.089149808            2 
  707000   0.98044443   -2.4984637    741.99129  0.087457719  0.089110817            2 
  708000   0.96136148   -2.5028159     745.0459  0.087693726  0.089071804            2 
  709000    0.9651786   -2.5050515    744.08244  0.087456799  0.089033794            3 
  710000    0.9273156   -2.5132757    744.04264  0.087328948   0.08899533            2 
  711000   0.98189693   -2.5237031    748.65388  0.087746587    0.0889577            2 
  712000   0.97275809   -2.5181731    746.37973  0.087357178  0.088918919            2 
  713000   0.96014419   -2.5137422    750.83784  0.087755708  0.088881151            2 
  714000   0.97227064   -2.5232107    744.07248  0.086843194  0.088842459            3 
  715000   0.96089017   -2.5416682    750.31723   0.08744956  0.088803488            3 
  716000   0.96582944   -2.5286162    746.58158  0.086892642  0.088765208            2 
  717000   0.99139221   -2.5097238    753.24697  0.087546137  0.088726979            2 
  718000   0.96772945   -2.4797511    754.15215  0.087529265  0.088689162            2 
  719000    0.9801352   -2.5320849    754.08217  0.087399416  0.088651483            1 
  720000   0.96739857    -2.502695    752.69214  0.087117146  0.088612404            3 
  721000    0.9414378   -2.5362537    751.91516  0.086906515  0.088574187            3 
  722000   0.96311917   -2.5008879     755.1113  0.087155044  0.088536216            2 
  723000   0.96725603   -2.5236298    753.95588  0.086901324  0.088497276            3 
  724000   0.96587671   -2.5074867      754.144  0.086802946  0.088458111            1 
  725000   0.96383658   -2.4996098    756.90125  0.087000143  0.088420619            1 
  726000   0.96635238   -2.5013655    759.74663  0.087206914  0.088382362            3 
  727000   0.97048756   -2.5181045     756.0322  0.086661188  0.088344671            3 
  728000   0.94911344   -2.5358957     756.2299  0.086564778  0.088304714            2 
  729000   0.95323386   -2.5455774     757.1729   0.08655383  0.088265335            2 
  730000   0.98074993   -2.4942278    756.49331  0.086357684  0.088225794            6 
  731000   0.94733382   -2.5061558    758.22997  0.086437525  0.088186487            1 
  732000   0.95286488   -2.5390732    761.42553  0.086683234  0.088147804            4 
  733000   0.97000361    -2.542227    763.46829  0.086797213  0.088108047            2 
  734000   0.94419566   -2.5238326     763.1832  0.086646594  0.088068924            2 
  735000   0.96497386   -2.5321081    762.89223  0.086495717  0.088030094            2 
  736000   0.94426398   -2.5075219    762.57345  0.086342102  0.087991997            3 
  737000   0.96707835   -2.5344345    763.75031  0.086358018  0.087954077            4 
  738000   0.93925579   -2.5018611    767.96748  0.086717195  0.087916892            4 
  739000   0.97348095    -2.517255    765.36296  0.086306152  0.087879455            2 
  740000   0.93217617   -2.5238166    771.65659  0.086898265  0.087840548            4 
  741000   0.95584484   -2.5293679    766.12094   0.08615845    0.0878025            2 
  742000   0.95678732   -2.5485579    768.10228  0.086264856   0.08776439            4 
  743000   0.96715954   -2.5391777    767.80571   0.08611549   0.08772536            2 
  744000   0.95825349   -2.5246881    773.27913  0.086612805  0.087687513            6 
  745000    0.9580728   -2.5340445    772.32499   0.08638982  0.087650312            6 
  746000   0.94770656   -2.5456883    771.79755  0.086215097  0.087612812            2 
  747000   0.94650019   -2.5367709    775.66419  0.086531034  0.087576213            9 
  748000   0.94005188   -2.5560219    770.26902  0.085814285  0.087539062            1 
  749000   0.94967896    -2.551874    771.29502  0.085813865  0.087500805            2 
  750000   0.96706936   -2.5457792    774.72396   0.08608044  0.087462925            6 
  751000   0.95543193   -2.5471869    776.18398  0.086127828  0.087425346            1 
  752000   0.96017601   -2.5424789    774.97431  0.085879246  0.087387263            1 
  753000   0.94114742   -2.5465571     773.9662   0.08565363  0.087349006            4 
  754000    0.9469394   -2.5323845    779.03827  0.086100605  0.087311137            3 
  755000   0.94859168   -2.5275869    775.69839  0.085617924  0.087273628            1 
  756000   0.93706885   -2.5059915    779.48433  0.085921994  0.087235963            3 
  757000    0.9409061   -2.5262392    779.30456  0.085788701  0.087198651            2 
  758000   0.96413475   -2.5259652    778.80842  0.085620978  0.087160709            3 
  759000   0.96350566   -2.5546585    781.18817  0.085769452  0.087122205            3 
  760000   0.95400452   -2.5521719    782.66156  0.085818153   0.08708356            2 
  761000   0.95203433   -2.5545636    782.09165  0.085642976  0.087044321            2 
  762000   0.95263736   -2.5403862    779.72202  0.085271436  0.087005393            3 
  763000   0.94587699    -2.545323    782.32427  0.085443891   0.08696656            4 
  764000   0.93412277   -2.5254225    782.60919  0.085363131  0.086927228            7 
  765000    0.9484923   -2.5614418    782.04136  0.085189691  0.086887916            2 
  766000   0.93873805   -2.5593096    785.81803  0.085489342   0.08684839            2 
  767000   0.96423358   -2.5456243    787.14641  0.085522209   0.08681008            2 
  768000   0.95492065   -2.5456077    784.02944  0.085072639   0.08677135            2 
  769000   0.94240227   -2.5182777    787.82558  0.085373383  0.086731085            3 
  770000    0.9468358   -2.5391762    786.70485  0.085141218  0.086691682            1 
  771000   0.94310655   -2.5736378    782.91836  0.084621527  0.086651272            3 
  772000    0.9487155   -2.5632358     787.7725  0.085035892  0.086610515            2 
  773000    0.9436565   -2.5256361    787.12585  0.084856172  0.086570171            5 
  774000   0.92641826   -2.5512519    788.15991  0.084857871   0.08652997            3 
  775000   0.97014345   -2.5559195    792.11598  0.085173762  0.086490127            7 
  776000   0.95461123   -2.5371158    791.60975  0.085009639  0.086451438            3 
  777000    0.9358839   -2.5517257    792.83202  0.085031319  0.086412993            2 
  778000   0.94435554    -2.556301    796.16017  0.085278511  0.086375253            2 
  779000   0.93145356   -2.5311901    797.66618  0.085330143   0.08633755            1 
  780000    0.9503188   -2.5826299    793.74662  0.084801989  0.086299224            6 
  781000   0.92599543   -2.5610551    794.48985  0.084772712   0.08626135            4 
  782000   0.94233769   -2.5416227    796.94644  0.084926091  0.086223567            2 
  783000    0.9431452   -2.5399183    801.42568  0.085294347  0.086185669            3 
  784000    0.9427285   -2.5359125    800.79297  0.085118301  0.086148411            2 
  785000   0.91919836   -2.5382118    794.93702  0.084388218  0.086110954            3 
  786000   0.96124328   -2.5424117    798.09073  0.084615218  0.086072838            2 
  787000   0.95183257   -2.5454439    801.46179  0.084864654  0.086035154            4 
  788000   0.94453677   -2.5511973    802.35167  0.084851065  0.085996648            1 
  789000   0.96003369    -2.542465    805.01701  0.085025032  0.085959329            2 
  790000   0.93654042   -2.5653715    801.91503  0.084590193   0.08592169            5 
  791000    0.9457953   -2.5608477    801.90282  0.084481965   0.08588303            2 
  792000   0.92695657    -2.535737    805.65144  0.084769722  0.085844135            1 
  793000   0.91836189   -2.5657957    805.11146   0.08460608  0.085805751            2 
  794000   0.93570994   -2.5448982    803.80652  0.084362565  0.085767227            2 
  795000   0.91903024   -2.5605617     805.9028  0.084476185  0.085728287            3 
  796000   0.91623599   -2.5662592    805.02702  0.084278373  0.085690238            2 
  797000   0.94025424   -2.5487896    806.90355  0.084368836   0.08565218            4 
  798000   0.95511946   -2.5472654    804.56311  0.084018704  0.085612731            2 
  799000   0.92488747   -2.5444669     806.9475  0.084162234  0.085574435            2 
  800000   0.93662881   -2.5676502    811.32375   0.08451289  0.085536265            3 
  801000   0.93160792   -2.5795414    806.28144  0.083882796  0.085498216            5 
  802000   0.93262561   -2.5672773     809.7564  0.084139277   0.08546045            2 
  803000   0.93183234   -2.5741147    810.35592  0.084096712  0.085422735            9 
  804000    0.9259495   -2.5562262    810.52568   0.08400971  0.085384699            5 
  805000   0.92402646   -2.5621022    810.35809  0.083888001  0.085347282            4 
  806000   0.91550734    -2.568576    810.25923  0.083773701  0.085309283            3 
  807000   0.92807402    -2.560463    814.77456  0.084136159  0.085270974            7 
  808000   0.93480274   -2.5814998    814.57341  0.084011284  0.085233016            5 
  809000   0.91722755   -2.5559923    815.55197  0.084008238    0.0851947            5 
  810000   0.93934522   -2.5619379    816.56579  0.084008827  0.085158048            3 
  811000   0.94324963   -2.5957034    812.39959  0.083477147  0.085120013            3 
  812000   0.92946428    -2.550484    818.84984  0.084036314  0.085081923            3 
  813000   0.93851833   -2.5583163    816.82969  0.083725881  0.085043969            1 
  814000   0.90066598   -2.5756048    818.92329  0.083837356  0.085005943            2 
  815000   0.93080462   -2.5542224    817.72757  0.083612226  0.084967554            2 
  816000   0.95195855   -2.5474004    822.64749  0.084012203   0.08493139            3 
  817000   0.93892781   -2.5681137    819.81008  0.083619959  0.084894511            3 
  818000   0.91392058   -2.5739909    824.58744  0.084004426  0.084858672            1 
  819000   0.94613634   -2.5901325    822.91043   0.08373122  0.084821798            4 
  820000   0.93424305   -2.5415352     821.8004  0.083516301  0.084785113            3 
  821000   0.90635046   -2.5774412     822.7663  0.083512617  0.084749291            3 
  822000   0.90880124   -2.5657755    825.54747  0.083692971  0.084713661            2 
  823000   0.91994583   -2.5572528    828.52291  0.083892558  0.084678433            3 
  824000   0.93778954   -2.5918821    828.72281  0.083810963  0.084642895            2 
  825000   0.94835839   -2.5822131    828.42436  0.083679229  0.084606361            3 
  826000   0.92603155   -2.5595434    828.84806  0.083620668  0.084570179            3 
  827000   0.94032037   -2.5746133    831.69691  0.083806622  0.084534921            3 
  828000   0.90303899   -2.5677896    830.06255  0.083540916   0.08449816            1 
  829000   0.90520133   -2.5885127    829.67238  0.083400922  0.084462707            4 
  830000   0.94443871   -2.5948781    830.85739  0.083419417  0.084426264            3 
  831000   0.93204037   -2.5919197     830.2842  0.083261552  0.084390523            3 
  832000   0.91875223   -2.5743218    829.57683  0.083090628  0.084353708            5 
  833000   0.93575868   -2.6056673    834.95989    0.0835294  0.084318233            1 
  834000   0.92078287   -2.5713262    834.80598  0.083413867  0.084284145            3 
  835000   0.92308082   -2.5722692    837.32332  0.083565202  0.084250203            2 
  836000   0.92085575   -2.5801917    836.86796  0.083419852  0.084215557            3 
  837000   0.91167872   -2.5811827    837.74373  0.083407381  0.084181258            4 
  838000   0.91204105   -2.5840866    839.97648   0.08352988  0.084147426            6 
  839000   0.93706822   -2.5778601    840.98175  0.083530169  0.084114147            2 
  840000   0.92198255   -2.5677103    842.33971  0.083565447  0.084080584            2 
  841000   0.91838552   -2.5963228    842.64738  0.083496569  0.084047215            2 
  842000   0.89789411   -2.5663888    840.43254  0.083178201  0.084014177            4 
  843000   0.93191243    -2.591779    842.09904   0.08324427   0.08398124            2 
  844000   0.90922995   -2.5659693    847.38723  0.083667775  0.083948865            3 
  845000   0.91738073   -2.5640077    844.58064  0.083291977  0.083916065            3 
  846000   0.93080979    -2.583379    843.02441  0.083040229  0.083883107            3 
  847000      0.90587   -2.5764101    848.01154  0.083432855   0.08385066            3 
  848000   0.89390645   -2.5822772    847.71302  0.083305132    0.0838183            5 
  849000   0.92210969    -2.592377    845.95445  0.083034398  0.083785363            3 
  850000   0.91716387    -2.575073    848.73702  0.083209512  0.083752159            3 
  851000   0.90370076   -2.5793751    846.04811  0.082848424  0.083718659            2 
  852000   0.93009779   -2.5720938    850.88608  0.083224382  0.083684706            1 
  853000   0.89564673   -2.5955714    847.46061  0.082792166   0.08365049            2 
  854000   0.92011246   -2.5893088    849.36251  0.082880807  0.083616906            3 
  855000   0.89095089    -2.613273    850.40061   0.08288505  0.083583444            3 
  856000   0.89969669   -2.5835612     854.2465  0.083162626  0.083550195            2 
  857000   0.91166706   -2.5894871    853.65853  0.083008414  0.083517856            1 
  858000   0.90032655   -2.5843381    854.72064  0.083014825   0.08348479            3 
  859000    0.9043084   -2.5837279    853.35296  0.082785503  0.083451361            6 
  860000   0.91397732   -2.5758913    855.37854  0.082885517  0.083417948            2 
  861000   0.91100365   -2.5776661    854.92736  0.082745583  0.083384207            3 
  862000   0.89870007   -2.5956942    858.80208  0.083024177  0.083350549            2 
  863000   0.88774704   -2.5785783    855.39653  0.082599124  0.083317337            2 
  864000   0.91360615   -2.5778363    860.08116  0.082955359  0.083284214            4 
  865000   0.92414697   -2.6015379    857.20096  0.082581981  0.083251115            4 
  866000   0.91393754   -2.6072654    857.41645  0.082507357  0.083217487            2 
  867000   0.89021985   -2.5918806    859.48435  0.082610952  0.083183774            4 
  868000   0.91505583   -2.5812215    860.89715  0.082651416  0.083150304            3 
  869000   0.91208692   -2.5686147    862.89921  0.082748294  0.083117239            2 
  870000   0.92535791   -2.5754534    860.43833  0.082417464  0.083084008            1 
  871000   0.90608879   -2.6085215    861.58269  0.082432327  0.083051259            1 
  872000   0.91097931   -2.5874695    862.55348   0.08243057   0.08301803            2 
  873000   0.89062061   -2.6048507    861.80121  0.082264338  0.082984739            5 
  874000   0.91443552    -2.586854    863.38788  0.082321499  0.082951624            2 
  875000   0.90929725    -2.615811    866.04371  0.082480353   0.08291824            4 
  876000   0.90966985   -2.5828445    864.44267  0.082233892  0.082884302            2 
  877000   0.90470173   -2.6102597    865.29734  0.082221336  0.082850733            2 
  878000   0.88501981   -2.5838084    864.82233  0.082082605  0.082816761            2 
  879000    0.9110864    -2.602686    866.06203  0.082106753  0.082782131            1 
  880000   0.88503475   -2.6067646    870.73967  0.082456408  0.082748079            2 
  881000   0.89854127   -2.6004696    869.10612  0.082208297  0.082714803            5 
  882000   0.89913529   -2.5925336    870.20123  0.082218559  0.082681313            3 
  883000   0.90413435   -2.6274351    865.36765  0.081669276  0.082647682            2 
  884000   0.90604015   -2.6100566    870.54626   0.08206507   0.08261315            4 
  885000   0.89381641   -2.5928883    872.74907  0.082179762  0.082579418            4 
  886000   0.89740806   -2.6099374    871.82629  0.082000215  0.082545318            2 
  887000   0.89812405   -2.6083338    870.92994  0.081823557  0.082511457            1 
  888000   0.89333667   -2.6293282    874.39811   0.08205688  0.082477726            2 
  889000   0.91583866   -2.6119901    873.81552  0.081909967  0.082443755            3 
  890000   0.89324849   -2.5731959    872.41658  0.081686946  0.082410313            5 
  891000   0.91437803   -2.6073659    876.20272  0.081949375  0.082376402            2 
  892000   0.89465419   -2.6207443    874.83503   0.08172973  0.082343109            4 
  893000   0.90249812   -2.6131608    873.08097  0.081474521  0.082309758            2 
  894000   0.89140103   -2.6153964    877.35271  0.081781572   0.08227544            3 
  895000   0.90171817   -2.5931003    876.53502  0.081614061  0.082241762            7 
  896000   0.93831714   -2.6182402    875.27585  0.081405864  0.082208061            5 
  897000   0.89066541   -2.5955173    879.02285  0.081663215  0.082173969            2 
  898000   0.88873222   -2.5945937    879.11161  0.081580513  0.082140913            2 
  899000   0.90171536   -2.6335544    876.20163  0.081220025  0.082107418            7 
  900000   0.89369983   -2.6252366     879.5657  0.081441269  0.082073091            5 
  901000   0.91538089   -2.6090457    877.89506  0.081196361  0.082038782            5 
  902000   0.91673104   -2.6349067    883.17383  0.081594034  0.082005127            2 
  903000   0.88075633   -2.6116321     882.2853  0.081421678  0.081971209            2 
  904000   0.89224818   -2.6009899    881.33667  0.081244162    0.0819372            2 
  905000   0.89048995   -2.6135375    882.48804  0.081260409  0.081902676            2 
  906000   0.89504102   -2.6163891    881.39779  0.081070437  0.081868637            4 
  907000   0.90081514   -2.6122316    880.03704   0.08085603  0.081833959            4 
  908000   0.87227162   -2.6201993    882.04873  0.080951609  0.081798668            6 
  909000   0.86399942    -2.631357    880.08734  0.080682741  0.081763189            2 
  910000   0.90737005   -2.6284366    881.79284   0.08075026  0.081727055            5 
  911000   0.89786926   -2.6235865    882.40926  0.080718008  0.081690548            4 
  912000   0.89037788   -2.6182117    883.23354  0.080704819  0.081655296            3 
  913000   0.87784585   -2.6295919    882.73274  0.080570714  0.081619654            4 
  914000    0.8798546   -2.6166123    883.09341  0.080515446   0.08158323            3 
  915000   0.88729701   -2.6524597    885.25469  0.080624289   0.08154765            2 
  916000   0.86556409   -2.5934897    885.16554   0.08052816  0.081512073            4 
  917000   0.88563547   -2.6067986    885.53051  0.080473511  0.081475857            4 
  918000   0.87877215   -2.6358552    887.94122  0.080604686  0.081439836            2 
  919000   0.89071791   -2.6004851    887.81854  0.080505853  0.081403449            1 
  920000   0.88283984   -2.6057904    889.79744  0.080597594  0.081366867            2 
  921000   0.87389376   -2.6032893    890.30823  0.080556301  0.081330756            1 
  922000   0.87419984   -2.6246492     886.6501  0.080138296  0.081294093            3 
  923000   0.88804926    -2.628252    889.98736  0.080352777  0.081257621            2 
  924000    0.8732759   -2.6275837    891.10818    0.0803669  0.081221867            6 
  925000    0.8806852    -2.630637    894.76602  0.080609551  0.081185782            1 
  926000   0.91152239   -2.6296702    891.05054  0.080188133  0.081150248            2 
  927000   0.87298792   -2.6241329      889.436   0.07995649    0.0811144            2 
  928000   0.86626613   -2.6063326    894.34732  0.080311361  0.081078831            2 
  929000   0.91158506   -2.6056431    895.45598  0.080324362  0.081043666            5 
  930000   0.89298662   -2.6162606    898.76938   0.08053489  0.081008679            1 
  931000   0.87155749   -2.6112419    897.44585  0.080329919  0.080973786            3 
  932000   0.89300104   -2.6130957    897.01425  0.080205137  0.080938583            3 
  933000    0.8837352   -2.5911624    900.15014  0.080399262  0.080904213            3 
  934000   0.87909606   -2.6471042    895.15122  0.079867168  0.080870129            2 
  935000   0.88013209    -2.600926    900.58102  0.080265688  0.080835786            2 
  936000   0.86903343   -2.6348717    901.47377  0.080259417  0.080801379            1 
  937000   0.87138879   -2.6137798    902.51135   0.08026604  0.080766578            3 
  938000   0.86763725   -2.6179145    900.96647  0.080043219  0.080732256            3 
  939000   0.88498135   -2.6130125    898.52522  0.079741322  0.080696888            3 
  940000   0.87390266   -2.6233598    900.66673  0.079846341  0.080661406            5 
  941000   0.87100046   -2.6170445    901.62439  0.079846297  0.080626444            2 
  942000   0.86702838    -2.626049    899.56572  0.079579416  0.080590659            3 
  943000   0.90163234   -2.6229042      905.053   0.07997994  0.080556296            3 
  944000   0.89171282   -2.6210363    902.36198   0.07965766  0.080521685            3 
  945000   0.87490373   -2.6366651    905.21311  0.079824789  0.080486696            3 
  946000   0.89645594   -2.6665534    902.90154  0.079536781  0.080450633            1 
  947000   0.86500904   -2.6512609    907.99873  0.079901331  0.080414948            6 
  948000   0.88396945   -2.6400969    902.62332  0.079344526  0.080379467            2 
  949000   0.87430287   -2.6247594    908.07061  0.079739253  0.080343822            3 
  950000   0.87799924   -2.6342147    908.02046  0.079650918  0.080308468            2 
  951000   0.87678734   -2.6323798    908.75332  0.079631381  0.080273229            4 
  952000   0.88160302   -2.5922004    910.71183  0.079719173  0.080238221            6 
  953000   0.86800315   -2.6528602     909.2933  0.079511482  0.080203286            5 
  954000    0.8551809   -2.6040044    913.42147  0.079788738  0.080169169            3 
  955000   0.86335793   -2.6369193    913.21645  0.079687299   0.08013497            2 
  956000   0.85891375   -2.6295347    911.73878  0.079475137  0.080100125            2 
  957000   0.86258015   -2.6505767    912.29141  0.079440214  0.080065753            4 
  958000   0.87895641   -2.6392064    911.65436  0.079301875  0.080030913            2 
  959000   0.88004604    -2.648638    912.61489  0.079302649  0.079996349            5 
  960000   0.85272607   -2.6400996    913.10221  0.079262345  0.079962073            3 
  961000   0.86272093   -2.6253951    915.34951  0.079374741  0.079927996            3 
  962000     0.860975   -2.6471709    916.03303   0.07935144  0.079893677            4 
  963000    0.8576586   -2.6180266    916.92993  0.079346654  0.079859293            2 
  964000   0.85053865    -2.651669    920.06429  0.079535295  0.079824958            2 
  965000   0.87485676   -2.6291506    915.85066  0.079089003  0.079790498            3 
  966000   0.86347091   -2.6284155       917.93  0.079186508  0.079756482            5 
  967000   0.87506734   -2.6384894    916.32872  0.078966626  0.079721817            3 
  968000   0.87511785   -2.6330279    921.04642  0.079291187  0.079688166            3 
  969000   0.88958645   -2.6310425    921.31691  0.079232621  0.079654184            2 
  970000   0.85374185   -2.6582743    919.98442  0.079036462  0.079619338            3 
  971000     0.870988   -2.6384743    917.78046  0.078765916  0.079584605            2 
  972000   0.88465015   -2.6504666    923.66653  0.079189517  0.079550476            2 
  973000    0.8767708   -2.6511178    921.71407   0.07894091  0.079515852            7 
  974000   0.86449938   -2.6634287     922.9126  0.078962406  0.079482597            3 
  975000   0.86502059   -2.6240479     924.1075  0.078983547  0.079448754            3 
  976000   0.87479939   -2.6468432    925.12686  0.078989656  0.079415112            2 
  977000   0.86381633   -2.6323986    925.10016   0.07890653  0.079381458            2 
  978000   0.86802951   -2.6375839    926.63889   0.07895696  0.079348327            3 
  979000   0.85405205    -2.658706    926.22747   0.07884129  0.079314439            2 
  980000   0.85802919   -2.6452302    923.87969  0.078561198  0.079280662            7 
  981000    0.8553267   -2.6532419    927.44114  0.078783651  0.079245968            5 
  982000   0.84824334   -2.6416116    926.37165  0.078612665  0.079211689            2 
  983000   0.87595918   -2.6511774    929.19864   0.07877235  0.079177478            2 
  984000   0.85031359   -2.6431966    924.07518    0.0782584  0.079143189            4 
  985000   0.86119739   -2.6452484     929.4701  0.078635372   0.07910844            4 
  986000   0.86555299   -2.6619795    926.90132  0.078338516  0.079073765            3 
  987000    0.8704592    -2.647717    928.72189  0.078412858  0.079039596            1 
  988000   0.86189858   -2.6429498    929.14294  0.078369006  0.079005154            4 
  989000   0.85617785   -2.6703928    931.03319  0.078449039  0.078970793            3 
  990000   0.85934215   -2.6457613    928.63983  0.078168335  0.078935986            4 
  991000   0.86370548   -2.6450995     931.8527  0.078359628  0.078901303            4 
  992000   0.85543519   -2.6647004    932.77977  0.078358515  0.078866662            2 
  993000   0.86005944   -2.6758607    929.35392  0.077992104   0.07883223            5 
  994000   0.85320573   -2.6554209    932.37887  0.078167243  0.078797595            5 
  995000    0.8845735   -2.6741542    935.00722  0.078308812  0.078763195            4 
  996000   0.85722233   -2.6295099    936.41174  0.078347703   0.07872955            2 
  997000    0.8436892   -2.6348381    935.20426  0.078168193  0.078694943            3 
  998000   0.85423611   -2.6495079    932.86127  0.077894228   0.07866049            3 
  999000   0.86705749   -2.6509778    938.47238  0.078284316  0.078625996            2 
 1000000   0.85969441   -2.6719356     935.2147  0.077934558  0.078590765            3 
 1001000   0.86527674   -2.6518446    933.23538  0.077691923  0.078555885            4 
 1002000   0.86100597   -2.6606685    937.06679  0.077933033  0.078521023            3 
 1003000   0.85798483   -2.6495645    939.11542  0.078025542  0.078486365            7 
 1004000   0.83920339   -2.6473978    935.04108  0.077609651  0.078452141            3 
 1005000   0.86045253   -2.6423377    938.02472  0.077779828  0.078417808            7 
 1006000   0.85288489   -2.6603954    937.62756  0.077669612  0.078382763            4 
 1007000   0.85438813   -2.6415977    942.92079  0.078030518  0.078347907            4 
 1008000   0.85287839   -2.6687535    939.11674  0.077638619  0.078312787            5 
 1009000   0.85106309   -2.6492373    939.79687  0.077617845  0.078278454            2 
 1010000   0.84568689   -2.6613411     941.8642  0.077711567  0.078243823            6 
 1011000   0.86452925   -2.6556074    947.86014  0.078128927  0.078210062            3 
 1012000   0.85645085   -2.6549809    945.22879  0.077835045  0.078176128            5 
 1013000   0.88817533   -2.6658718    944.98494  0.077738149  0.078142344            2 
 1014000    0.8627865   -2.6559619    944.91418  0.077655669  0.078109192            3 
 1015000   0.84855266     -2.67138    946.40007  0.077701155  0.078075589            3 
 1016000   0.85666144   -2.6793618    949.60656  0.077887677  0.078041578            3 
 1017000   0.84433054   -2.6849737    945.75774  0.077495718  0.078008508            2 
 1018000   0.85547438   -2.6783177    947.12964  0.077531896  0.077974955            4 
 1019000   0.82201379   -2.6783686    946.04423  0.077367045  0.077941338            3 
 1020000   0.83276398   -2.6673208    945.41416  0.077239719   0.07790744            2 
 1021000   0.84454211   -2.6969304    950.06803  0.077543914  0.077874498            1 
 1022000   0.84813402   -2.6462333     952.6884  0.077681702  0.077841526            7 
 1023000    0.8438474   -2.6546095    948.44208  0.077259863  0.077808472            3 
 1024000   0.85095926   -2.6554286    953.70174  0.077612446  0.077775233            5 
 1025000   0.82948051   -2.6636727    947.69828  0.077048641  0.077741611            6 
 1026000   0.84618826   -2.6942006     950.7116  0.077218291  0.077707595            6 
 1027000   0.83247605   -2.6521771    950.59583  0.077133709  0.077672891            6 
 1028000    0.8396529   -2.6988997    951.50915  0.077132713  0.077639165            4 
 1029000   0.82988946   -2.6670355    956.38801  0.077452867   0.07760568            1 
 1030000    0.8338553   -2.6715676    953.74857  0.077164124  0.077572404            4 
 1031000   0.85266211   -2.6657355     954.9808  0.077188878  0.077538874            4 
 1032000   0.83330805   -2.6801605    952.56101  0.076918686  0.077505081            2 
 1033000   0.85269842   -2.6684667    953.26931  0.076901364  0.077471199            3 
 1034000   0.83668224   -2.6614316     958.8819  0.077279328  0.077438099            1 
 1035000   0.84201631   -2.6436065    957.50396  0.077093716  0.077405187            3 
 1036000   0.85473216   -2.6841835    955.95349  0.076894586  0.077371102            2 
 1037000   0.84236593   -2.6669281    958.12215  0.076994708  0.077337094            4 
 1038000    0.8182077   -2.6758003    955.95411  0.076746477  0.077303611            3 
 1039000   0.85258192    -2.668582     957.8461  0.076824359  0.077270336            3 
 1040000   0.84072735   -2.6874349    958.43541  0.076797709  0.077236508            3 
 1041000   0.84110798   -2.6672596    955.92745  0.076523171  0.077202703            3 
 1042000   0.84822231   -2.6701768    960.97594  0.076853482  0.077168658            7 
 1043000   0.83511616   -2.6721451    958.90151  0.076614055   0.07713453            4 
 1044000   0.82531437   -2.7120448    960.28702  0.076651262  0.077099639            3 
 1045000   0.85435701   -2.6937361    961.71622  0.076691884  0.077065074            3 
 1046000   0.84301824   -2.6649526    960.16639  0.076495092  0.077030782            4 
 1047000   0.82321147   -2.6787373    961.33049  0.076514684   0.07699666            4 
 1048000   0.81992334    -2.676749    962.05317  0.076499139  0.076962325            4 
 1049000   0.82736315   -2.6697833    961.25597  0.076362883   0.07692829            3 
 1050000   0.84130067    -2.695451    960.91956  0.076263457  0.076893779            3 
 1051000   0.85456931   -2.6843596    963.40591  0.076388036  0.076858962            4 
 1052000   0.83299904   -2.6733796    961.58487  0.076171171  0.076824363            2 
 1053000   0.83618374   -2.6547481     966.6152   0.07649693   0.07678975            3 
 1054000   0.82469764   -2.6722455    962.58487  0.076105698  0.076755026            3 
 1055000   0.83323515   -2.6936869    961.40546    0.0759404  0.076719636            2 
 1056000   0.84670679    -2.691565    964.50418  0.076113019  0.076684476            4 
 1057000   0.82035207   -2.6896963    959.31445  0.075631855  0.076649033            4 
 1058000   0.82750903   -2.6942814    964.82749  0.075994603  0.076613385            2 
 1059000   0.82309299   -2.6686598    965.60329  0.075983891  0.076578267            2 
 1060000   0.83130414   -2.6955153    967.50509  0.076061721  0.076542813            3 
 1061000   0.82422046   -2.6999296    964.49615  0.075753704  0.076507739            2 
 1062000   0.82548123   -2.6960181    964.87199  0.075711863  0.076472283            2 
 1063000   0.82190705   -2.6724746    963.49296   0.07553253   0.07643686            2 
 1064000    0.8350115   -2.7163539    965.37881  0.075609243  0.076401294            2 
 1065000   0.85006601   -2.6970167    966.95419  0.075661517  0.076365953            4 
 1066000   0.82734576   -2.6815589    967.40943  0.075626128   0.07633092            5 
 1067000   0.81960596   -2.7035705    968.06858  0.075606731  0.076295809            2 
 1068000   0.81280782   -2.7064013    970.09008   0.07569367  0.076260367            7 
 1069000   0.81030382   -2.7061746    966.73159  0.075361053  0.076225077            5 
 1070000   0.84150953   -2.6980912    971.75119  0.075681557  0.076189795            4 
 1071000   0.82318728   -2.7128488    968.90451  0.075389395  0.076154983            3 
 1072000   0.82492736   -2.6935186    972.54639  0.075602176   0.07611972            4 
 1073000   0.81530204   -2.6884803    972.07238  0.075494904  0.076084497            2 
 1074000   0.80786905   -2.6975361    968.80305  0.075170938  0.076048972            3 
 1075000   0.83645257   -2.6833788    974.10554  0.075512057  0.076013573            3 
 1076000   0.81549567   -2.7037165    971.39168  0.075231698   0.07597812            3 
 1077000   0.83722919   -2.6936193    971.91956   0.07520269  0.075942436            5 
 1078000   0.81372949   -2.6822376    973.97779  0.075292037  0.075907107            4 
 1079000    0.8261729   -2.6992796    971.87141  0.075059577  0.075871226            4 
 1080000    0.8165095   -2.6978143    974.82003  0.075217595  0.075835891            4 
 1081000   0.81824126   -2.7045205    971.72828  0.074909673  0.075800288            5 
 1082000   0.82091071   -2.6906204    973.99201  0.075014788  0.075764747            3 
 1083000   0.82805593   -2.6894503    975.38304  0.075052558  0.075729384            5 
 1084000   0.83257309   -2.6995093    977.61467   0.07515488  0.075693807           19 
 1085000   0.81890627   -2.7002062    975.40173  0.074915647  0.075659016            3 
 1086000   0.81661801   -2.6759601    978.24126  0.075064553  0.075623762            3 
 1087000   0.82825536   -2.7149428    978.23679  0.074995154  0.075588602            7 
 1088000   0.81940647   -2.7060266    977.14224   0.07484239  0.075553538            3 
 1089000   0.82395195   -2.7078537     978.1305  0.074849289     0.075518            5 
 1090000   0.82702327   -2.7100726    975.74509  0.074598249  0.075482466            4 
 1091000   0.81741282   -2.6963877    980.18688  0.074869147  0.075446892            5 
 1092000   0.82948965   -2.7012824     977.6105  0.074603976  0.075411438            6 
 1093000    0.8155445   -2.7016634    983.74887  0.075003726  0.075376237            3 
 1094000    0.8292837   -2.7058679    982.35815  0.074829231  0.075341079            7 
 1095000   0.80692434   -2.7068272       982.13  0.074743531  0.075305267            4 
 1096000   0.79998194   -2.6792965    981.42739  0.074621912  0.075270085            5 
 1097000    0.8025941   -2.7021986    982.44689  0.074631334   0.07523463            4 
 1098000   0.82063332   -2.6924276    983.69467  0.074658065  0.075199264            3 
 1099000   0.81788135   -2.6906995    984.05551  0.074617494  0.075163515            3 
 1100000   0.82673877   -2.7140755    984.82132  0.074607676  0.075128028            4 
 1101000   0.79770275   -2.7257869    980.25695   0.07419444  0.075092413            3 
 1102000   0.81461819   -2.7044127    983.67737  0.074385766  0.075057157            2 
 1103000   0.81691467   -2.7192115    983.65104  0.074316337  0.075021819            2 
 1104000   0.81544861    -2.714319    986.14043  0.074436929  0.074987129            4 
 1105000   0.81034411   -2.7018468    985.03374  0.074286104   0.07495237            4 
 1106000   0.80550943   -2.7073457    988.92344  0.074512013   0.07491655            7 
 1107000   0.80664798   -2.7169902    987.36316  0.074327248  0.074881684            7 
 1108000   0.79302554   -2.6925825    986.28571  0.074179129  0.074847053            8 
 1109000   0.81154473   -2.6878867     989.0184  0.074317583  0.074811819            3 
 1110000   0.81849179   -2.7161765    990.25273  0.074343298  0.074777341            6 
 1111000   0.82015946   -2.7149357    989.86556  0.074247342  0.074742317            4 
 1112000   0.80039402    -2.711146    990.27245  0.074211065  0.074707836            4 
 1113000   0.80865314   -2.7335921    990.56413  0.074166227  0.074672993            2 
 1114000   0.80922524   -2.6837574    992.90755  0.074274951  0.074638697            1 
 1115000   0.80230879   -2.7141353    991.36739  0.074093228  0.074604196            3 
 1116000   0.81952072   -2.6753584    990.43658  0.073957331  0.074569329            5 
 1117000     0.813623   -2.7191185    995.61336  0.074277332  0.074534793            6 
 1118000   0.81503919   -2.7373216    993.66227  0.074065464  0.074500265            4 
 1119000   0.80855126   -2.7101149    991.67569  0.073851332  0.074465894            7 
 1120000   0.79189288   -2.7308361     993.1491  0.073895023  0.074431509            4 
 1121000   0.80626478   -2.7132343    994.39054   0.07392139  0.074396984            4 
 1122000   0.81591345   -2.7172156    995.52305  0.073939621  0.074362738            2 
 1123000   0.80867958   -2.7392555    994.87672  0.073825818  0.074328279            2 
 1124000   0.80978931   -2.7194961    996.09384  0.073850373   0.07429348            5 
 1125000   0.82076455   -2.6968294    999.44868  0.074033235  0.074259119            2 
 1126000   0.80783347   -2.7437385    994.87635  0.073629097  0.074224587            4 
 1127000   0.79256609   -2.7337966    994.80013  0.073558128  0.074190457            5 
 1128000   0.82456456   -2.7209705    996.99846  0.073655324  0.074156445            3 
 1129000   0.79977199   -2.7444183    997.96909  0.073661728  0.074122191            5 
 1130000   0.80853401   -2.7475942     993.2213  0.073246409  0.074087943            4 
 1131000   0.79381926   -2.7370754    1000.7105  0.073733458  0.074053279            5 
 1132000   0.81234597   -2.7109217    1002.2658  0.073782819    0.0740191            5 
 1133000   0.82249908   -2.7182081    998.83867  0.073465628  0.073984955            3 
 1134000   0.77723521   -2.7479253    996.27802  0.073212671  0.073950443            4 
 1135000    0.7929604   -2.7340607    999.71766  0.073400709  0.073915736            2 
 1136000   0.80496377   -2.7434292    998.83016  0.073270992  0.073880999            9 
 1137000    0.7907081   -2.7409871    999.22728  0.073235655  0.073846698            3 
 1138000   0.80651507   -2.7133796    1001.3936  0.073329933  0.073812189            4 
 1139000   0.77782504   -2.7541618    1000.5407   0.07320315  0.073777841            4 
 1140000   0.79090918   -2.7371322      1001.87  0.073236113  0.073743539           11 
 1141000   0.80216076    -2.725938    999.57645  0.073004415  0.073708973            4 
 1142000   0.78462685   -2.7242745    1003.2826  0.073210929  0.073674245            3 
 1143000   0.78611239    -2.717228    1003.2297   0.07314302  0.073640303            2 
 1144000   0.79025492   -2.7262683    1008.3645  0.073453124  0.073605662            3 
 1145000   0.78556953   -2.7310427    1003.2472  0.073016538  0.073570993            5 
 1146000   0.79313479   -2.7059782    1005.4688  0.073114369   0.07353623            4 
 1147000   0.80066751   -2.7450293    1005.1359  0.073026437  0.073501486            8 
 1148000   0.78982264   -2.7284088     1007.456  0.073131246  0.073466962            2 
 1149000   0.80073428    -2.729865    1005.3125  0.072912135  0.073432901            8 
 1150000    0.7956441   -2.7303951     1005.459  0.072859349  0.073398506            2 
 1151000   0.78339698   -2.7451845    1007.4674  0.072941454   0.07336463            2 
 1152000    0.7805269   -2.7472777    1008.7029  0.072967515  0.073330469            4 
 1153000   0.80050577   -2.7555317    1009.9192  0.072992133  0.073296092            2 
 1154000   0.79512137   -2.7284548    1007.4904  0.072753491  0.073261605            5 
 1155000   0.78042958   -2.7356664    1010.9328  0.072938873  0.073227088            8 
 1156000   0.79794784   -2.7334865    1010.0152  0.072809631  0.073192595            3 
 1157000   0.79192233   -2.7418598     1010.392  0.072773837  0.073157903            4 
 1158000   0.80840763   -2.7311444    1009.2166   0.07262641  0.073123556            3 
 1159000   0.79644342   -2.7484489      1008.21  0.072491375  0.073089119            2 
 1160000   0.79701911   -2.7493199    1010.2733  0.072577104  0.073055118            9 
 1161000    0.7977845   -2.7384069    1010.1313  0.072504402  0.073020429            9 
 1162000   0.77634384   -2.7493224    1011.2377  0.072521352   0.07298629            4 
 1163000   0.78690407   -2.7442318     1014.029  0.072658997   0.07295093            4 
 1164000   0.79925074   -2.7209811    1012.7621  0.072505879  0.072916224            2 
 1165000   0.80078225   -2.7589902    1013.0681  0.072465532  0.072881281            3 
 1166000   0.77650449   -2.7363689    1013.9016  0.072462953  0.072846659            4 
 1167000   0.77121442   -2.7277309    1011.8058    0.0722512  0.072812129            3 
 1168000   0.77820173   -2.7409896     1010.945  0.072127926  0.072777317            3 
 1169000   0.78519536   -2.7349834    1014.8752  0.072346393  0.072742156            2 
 1170000   0.79461297   -2.7397011    1009.8352  0.071925582  0.072706921            3 
 1171000   0.77598003   -2.7769073    1011.8459  0.072007249  0.072671177            3 
 1172000   0.78362705     -2.71216    1015.4286  0.072200556  0.072635837            2 
 1173000   0.77971183   -2.7675881    1013.3067  0.071988256  0.072600855            3 
 1174000    0.7882545   -2.7488266    1015.3848  0.072074445  0.072565939            3 
 1175000    0.7605064   -2.7513668    1012.3546  0.071798198  0.072530312            5 
 1176000   0.79820486   -2.7609839    1010.6629  0.071617272  0.072494632            8 
 1177000   0.77061474   -2.7520593    1012.2314  0.071667474  0.072459114            5 
 1178000   0.77800573   -2.7513443    1015.0729  0.071807648  0.072423912            3 
 1179000   0.78098645   -2.7586725    1019.3952  0.072052247  0.072388974            4 
 1180000   0.78651293   -2.7276115     1018.513  0.071928883  0.072353687            3 
 1181000   0.77118002   -2.7579125    1019.0606  0.071906618  0.072318837            2 
 1182000   0.77677844   -2.7443362     1018.855  0.071831286  0.072284166            4 
 1183000   0.77657627   -2.7505251    1019.0228  0.071782387  0.072249126            4 
 1184000   0.79305044   -2.7685083    1019.9432  0.071786546  0.072214256            4 
 1185000   0.77017911   -2.7576214    1017.5172  0.071555362  0.072179512            5 
 1186000   0.76029421   -2.7651288     1020.708  0.071719226   0.07214445            4 
 1187000   0.78824073   -2.7584434    1018.7117  0.071518654  0.072109752            4 
 1188000    0.7860014   -2.7692359      1024.36  0.071854655  0.072074648            5 
 1189000   0.79056062   -2.7514104    1016.1539  0.071219082  0.072039854            4 
 1190000   0.77509146   -2.7701189    1021.5017  0.071533735  0.072004972            2 
 1191000    0.7732401   -2.7554838    1022.4516  0.071540137  0.071970539            4 
 1192000   0.77496002   -2.7581791    1021.7587  0.071431678  0.071936098            2 
 1193000   0.76976915   -2.7600905    1024.3261  0.071551141  0.071901959            5 
 1194000   0.79316079   -2.7559663    1023.1291  0.071407671  0.071867643            4 
 1195000   0.77994058   -2.7778334    1024.6617  0.071454789  0.071833302            5 
 1196000    0.7835033   -2.7545554    1028.3628  0.071652924  0.071799118            4 
 1197000   0.78169869   -2.7601145    1024.7065  0.071338522  0.071765193            3 
 1198000   0.79024053   -2.7486159     1024.643  0.071274553  0.071731457            2 
 1199000   0.76058758   -2.7548856    1028.4134  0.071477164  0.071697568            2 
 1200000   0.76688976   -2.7601572    1026.9725  0.071317536  0.071663468            4 
 1201000   0.76913212   -2.7655789    1027.8866   0.07132158  0.071629256            5 
 1202000   0.76827308   -2.7500906    1028.5757  0.071310019   0.07159537            2 
 1203000   0.76937649   -2.7710636    1027.6203  0.071184563  0.071561083            4 
 1204000   0.76542981   -2.7619074    1027.6664  0.071128624  0.071526948            8 
 1205000    0.7710128   -2.7728517    1030.5231  0.071267159  0.071493058            3 
 1206000   0.77657001   -2.7795806    1028.5193  0.071069604  0.071458847            5 
 1207000   0.76655889   -2.7782234    1029.0337  0.071046236  0.071424701            4 
 1208000    0.7878369   -2.7540849    1031.1471  0.071133218  0.071390662            4 
 1209000   0.77599498   -2.7434616    1032.6909  0.071180792  0.071356375            6 
 1210000   0.75697287   -2.7683994    1033.6326  0.071186816  0.071322494            2 
 1211000   0.76382135    -2.775475    1029.5263  0.070845463  0.071288705            3 
 1212000   0.77817813   -2.7749326    1030.6059  0.070861239  0.071254428            6 
 1213000   0.76560415   -2.7646295    1033.0573  0.070971236  0.071220578            4 
 1214000    0.7507156   -2.7753291    1032.9168  0.070903132  0.071186607            3 
 1215000   0.78427471   -2.7760987    1031.5361  0.070750076  0.071152503            2 
 1216000   0.75509447    -2.775058    1036.5262   0.07103387  0.071118852            2 
 1217000   0.78208199   -2.7702499    1032.9492  0.070730568  0.071084996            7 
 1218000   0.76971578   -2.7635244    1033.5674  0.070714792  0.071051516            5 
 1219000   0.75967648   -2.7893663    1036.1468  0.070833113  0.071017658            4 
 1220000   0.76582354   -2.7721573    1036.0626  0.070769302  0.070983986            5 
 1221000   0.75694668   -2.7721359     1037.075  0.070780437  0.070950563            7 
 1222000    0.7652056   -2.7897206    1037.3074  0.070738365  0.070917058            5 
 1223000   0.76030707   -2.7547747    1040.3218  0.070885923  0.070883869            4 
 1224000   0.77101499   -2.7597638    1039.4184  0.070766503  0.070850513            7 
 1225000   0.76524955    -2.780004    1038.4416  0.070642288  0.070817003            7 
 1226000   0.75231058    -2.765832    1033.3788   0.07024054  0.070783449            5 
 1227000    0.7383096   -2.7719113    1037.6664   0.07047449  0.070749643            4 
 1228000   0.76448506   -2.7784369    1036.6378    0.0703473  0.070715502            4 
 1229000   0.75646533   -2.7977931    1040.6655  0.070563159  0.070681662            8 
 1230000   0.77167869   -2.7711426    1041.3512  0.070552246  0.070647714            3 
 1231000    0.7476433   -2.7859368    1036.6384  0.070175901  0.070613503            4 
 1232000   0.76127369    -2.779583    1038.2225  0.070226091  0.070579505            2 
 1233000   0.76270037   -2.7994828    1043.4336  0.070521327  0.070545802            3 
 1234000    0.7571988   -2.7666425    1038.4666  0.070128752  0.070512643            4 
 1235000   0.75621751   -2.7625466    1042.5063  0.070344554  0.070478941            6 
 1236000   0.76788019   -2.7762803    1043.0053  0.070321285  0.070445535            2 
 1237000    0.7360325   -2.7998171    1042.3541  0.070220564  0.070411672            3 
 1238000   0.76140549   -2.7639809    1042.6182  0.070181626  0.070377798            2 
 1239000   0.75252553   -2.7913368    1043.8394  0.070207115  0.070343952            4 
 1240000   0.77153352   -2.7585095    1041.4151  0.069987571  0.070310136            5 
 1241000   0.74997916   -2.7613251    1045.5413  0.070208254  0.070276429            6 
 1242000   0.74683934   -2.7809753    1044.9385  0.070111279  0.070242451            4 
 1243000   0.74668669   -2.7667877    1040.7872  0.069776564  0.070208439            3 
 1244000   0.76820429   -2.7683657    1044.5752  0.069974225  0.070174487            6 
 1245000   0.75017568   -2.7827919    1045.3311  0.069968614  0.070140855            3 
 1246000   0.75231125   -2.7851781    1045.1619  0.069901145  0.070107084            3 
 1247000   0.74828239   -2.7847666    1043.1386   0.06970988   0.07007346            5 
 1248000   0.75761288   -2.7797087    1042.9281  0.069639962  0.070039538            4 
 1249000   0.74326348   -2.7891296    1047.5834  0.069894812  0.070006281            3 
 1250000   0.74883028   -2.7924376    1044.1311  0.069608741  0.069972497            7 
 1251000   0.75892565   -2.7841212    1049.0414  0.069880189  0.069938771            3 
 1252000   0.76373137   -2.7973658    1046.9945  0.069688133  0.069905034            9 
 1253000   0.74247525   -2.7778124    1048.5528  0.069736152  0.069871195            3 
 1254000   0.74186543   -2.7804295    1046.8312  0.069566133  0.069837923            4 
 1255000   0.76311533   -2.7862616    1050.9105  0.069781572  0.069804329            3 
 1256000    0.7549585   -2.7984212    1047.3719  0.069491235  0.069770989            3 
 1257000    0.7688117   -2.7876211    1051.5491  0.069712884  0.069737726            4 
 1258000    0.7432498   -2.8095923    1048.4906  0.069454865  0.069704322            3 
 1259000   0.73073529   -2.7650908    1050.7159  0.069546986  0.069670953            6 
 1260000   0.74739802   -2.7899081    1052.3323  0.069598698  0.069637873            5 
 1261000   0.74551218   -2.7831888    1053.9733  0.069651948  0.069604636            4 
 1262000   0.76122837   -2.7839411    1051.2264   0.06941537  0.069571467            5 
 1263000   0.74939881    -2.789298     1053.844  0.069533122  0.069538478            4 
 1264000   0.74122969   -2.8029399    1052.8155  0.069410304  0.069505316            4 
 1265000   0.74854625   -2.7955396    1053.4319  0.069396044  0.069472565            3 
 1266000    0.7591518   -2.7907914     1051.941  0.069243089   0.06943966            9 
 1267000   0.74519992   -2.7895328     1054.248  0.069340173  0.069407146            5 
 1268000   0.75820618   -2.8138372    1052.7275  0.069185564  0.069374575            4 
 1269000   0.73332107   -2.7788391    1055.7181  0.069327429  0.069341909            3 
 1270000   0.74364348   -2.8033186    1056.9847  0.069355954  0.069309181            5 
 1271000   0.73578476   -2.7801836    1052.8489  0.069030219  0.069275956            6 
 1272000    0.7252855    -2.800959    1058.8879  0.069371584  0.069242759            2 
 1273000   0.75627309   -2.8032462    1052.5307  0.068900935   0.06920973            3 
 1274000    0.7386904   -2.8063214    1057.2427  0.069155067   0.06917663            4 
 1275000   0.76161174   -2.8044449     1055.089  0.068960066  0.069143691            3 
 1276000   0.73657351   -2.7990082    1055.1375  0.068909189  0.069110297            7 
 1277000   0.73494318   -2.7888864    1056.0476   0.06891462  0.069077403            5 
 1278000   0.75714693   -2.7899042    1057.4492   0.06895209  0.069044276            5 
 1279000   0.73562488   -2.8092815    1060.9942  0.069129149  0.069011475           11 
 1280000   0.73039545   -2.8021365    1059.7791  0.068996034  0.068978095            8 
 1281000   0.73899746   -2.7970402    1056.9282  0.068756713  0.068944638            5 
 1282000   0.76439266   -2.7847263     1054.914  0.068572153  0.068911236            3 
 1283000   0.73826062   -2.7941369    1058.6872  0.068763784  0.068877748            3 
 1284000   0.74432773   -2.7963516    1056.9175  0.068595372  0.068844766            3 
 1285000   0.75042459   -2.7958237    1059.2484  0.068693149  0.068811552            7 
 1286000   0.73229009   -2.8052779    1060.1853  0.068700447  0.068777941            4 
 1287000   0.74470476   -2.7990357    1059.0227  0.068571787  0.068744688            4 
 1288000   0.72609065   -2.8040056    1060.4556  0.068611257  0.068710803            6 
 1289000   0.74139657   -2.8145305    1055.9368   0.06826589  0.068677365            4 
 1290000   0.75175323   -2.7988226    1058.5907   0.06838441  0.068643897            1 
 1291000   0.73924995    -2.811208    1060.6624   0.06846517  0.068610094            3 
 1292000   0.73790535   -2.8291613    1058.1784   0.06825196  0.068576627            5 
 1293000   0.73687402   -2.8270577    1058.1887  0.068199836   0.06854285            4 
 1294000   0.73765603   -2.8000516    1062.5302  0.068426729  0.068509281            3 
 1295000   0.72200685   -2.8270408    1062.8705  0.068395787  0.068476117            3 
 1296000   0.74611713   -2.8318796    1061.7061  0.068268137   0.06844238            5 
 1297000   0.72357088   -2.8097075    1061.2042  0.068183256  0.068408864            6 
 1298000   0.74756986   -2.8141173    1064.3961  0.068335654  0.068375118            2 
 1299000    0.7309486   -2.7961468    1061.4005  0.068090869  0.068341802            6 
 1300000   0.73638225   -2.7998361     1065.737  0.068316476  0.068308089            3 
 1301000   0.73147177   -2.8165468    1065.3036  0.068236202  0.068274858            5 
 1302000   0.72953637   -2.8173435    1063.7513  0.068084444  0.068241367            6 
 1303000   0.74858105   -2.8048992    1065.2758  0.068129686  0.068208161            3 
 1304000   0.72298647   -2.8155511    1062.7536  0.067916258  0.068174429            2 
 1305000   0.73557259    -2.820921    1063.4691  0.067909902  0.068141016            2 
 1306000   0.71953321   -2.8172528    1067.5461  0.068118051  0.068107517            3 
 1307000   0.72958882   -2.8087897    1067.8305  0.068084065  0.068074308            3 
 1308000   0.74082326   -2.8218975    1064.5578   0.06782351  0.068040867            3 
 1309000   0.73694835   -2.8055542     1063.759  0.067720841  0.068007504            3 
 1310000   0.72030781   -2.8232937    1063.8013  0.067671839  0.067974211            6 
 1311000   0.71266463   -2.8362638     1069.297  0.067969554  0.067940937            6 
 1312000   0.72417051   -2.8256683     1068.134  0.067843878   0.06790768            4 
 1313000   0.73676735   -2.8175073      1068.54  0.067817976  0.067874738            3 
 1314000   0.74118573   -2.8249383    1068.7771    0.0677814  0.067841482            8 
 1315000   0.71779333   -2.8104251    1068.2218  0.067694667  0.067808115            2 
 1316000   0.72805203   -2.8571126    1068.6002  0.067667186  0.067774976           15 
 1317000   0.72809726   -2.8282329     1068.387  0.067602317  0.067741587            5 
 1318000   0.75145633   -2.8248602    1067.8005  0.067513943  0.067708399           13 
 1319000   0.71576514   -2.8331753    1069.7447   0.06758559  0.067675493            3 
 1320000   0.73368357   -2.8188521    1069.5141  0.067519829   0.06764244            6 
 1321000   0.73624587   -2.8313682    1073.2417  0.067703866  0.067609355            6 
 1322000   0.71313738   -2.8156183    1075.7687  0.067811942  0.067576477            2 
 1323000   0.70403576   -2.8362173    1070.5179  0.067429949  0.067543567            4 
 1324000   0.71131049   -2.8453481    1071.4526  0.067437851  0.067510826            5 
 1325000   0.72689145   -2.8302173    1072.5055  0.067453178  0.067477933            5 
 1326000   0.71169127   -2.8510988    1075.6607  0.067600597  0.067445204            4 
 1327000   0.73526453    -2.818909    1075.6188  0.067547023   0.06741244            5 
 1328000   0.71646506   -2.8394787    1072.2647  0.067285687  0.067379304            5 
 1329000   0.73191527   -2.8238904    1073.5639  0.067316525  0.067346549            5 
 1330000    0.7254286   -2.8152516    1073.5439  0.067264653  0.067313777            4 
 1331000    0.7225875   -2.8344102    1076.2664  0.067384576  0.067281119            6 
 1332000   0.71273274   -2.8401171    1071.6312  0.067043996  0.067248306            6 
 1333000   0.72098916   -2.8141186    1075.8018  0.067254428  0.067215497            3 
 1334000   0.73667797   -2.8260914    1072.5666   0.06700191  0.067182178            5 
 1335000   0.72287795   -2.8221658    1075.9345  0.067161956  0.067149368            6 
 1336000   0.71542956   -2.8454674    1074.2134  0.067004331  0.067115872            3 
 1337000   0.71177095   -2.8328302    1073.2698  0.066895401  0.067082516            5 
 1338000   0.73379728   -2.8380922    1074.7924  0.066940231  0.067049123            9 
 1339000   0.71603862   -2.8410947    1073.5829   0.06681497  0.067015824            6 
 1340000   0.71416265   -2.8273242    1077.9186  0.067034742  0.066982456            3 
 1341000   0.71643037   -2.8612201    1071.8352  0.066606714  0.066949272            5 
 1342000   0.72445966    -2.825183    1079.8037  0.067051896  0.066916023            4 
 1343000   0.72022286   -2.8251894    1079.2487  0.066967527  0.066883262            3 
 1344000   0.72074512   -2.8391465    1076.4904  0.066746676  0.066850786            3 
 1345000   0.70797014   -2.8365948    1076.9813  0.066727466  0.066817834            9 
 1346000   0.71038862   -2.8239049    1078.7531  0.066787587  0.066785248            4 
 1347000    0.7081623   -2.8526539    1076.2736  0.066584608  0.066752502            5 
 1348000   0.70961779   -2.8439478    1077.2494  0.066595539  0.066719536            3 
 1349000   0.72244496   -2.8488163    1080.5655   0.06675102  0.066686539            4 
 1350000   0.72242987   -2.8406495     1080.224  0.066680491  0.066653626           14 
 1351000   0.71280118   -2.8301615    1076.6557  0.066411033  0.066620475            5 
 1352000   0.70656517   -2.8492642    1079.4324  0.066533064   0.06658749            5 
 1353000   0.71884528   -2.8406516     1079.787  0.066505727  0.066554628            3 
 1354000   0.69196142   -2.8409467    1082.0458   0.06659563  0.066521776            4 
 1355000   0.70665148   -2.8521593    1082.5199   0.06657564   0.06648921            6 
 1356000   0.68976253   -2.8337326    1083.0659  0.066560098  0.066456426            8 
 1357000   0.71587834   -2.8536098    1081.3983  0.066408638  0.066423279            5 
 1358000   0.70752137   -2.8483084    1082.8906  0.066451313  0.066390497            4 
 1359000   0.70715317   -2.8587169    1078.1748  0.066113244  0.066357976            5 
 1360000   0.71923451   -2.8538765    1082.8645  0.066351994  0.066325098            9 
 1361000   0.71515681   -2.8596352    1085.7734  0.066481348  0.066292304            4 
 1362000   0.71132339   -2.8403957    1082.9625  0.066260552  0.066259862            8 
 1363000   0.71953791   -2.8629803    1084.4203  0.066301071  0.066227173            5 
 1364000    0.7048578   -2.8443959    1082.4838  0.066134153  0.066194252            6 
 1365000   0.69937203   -2.8591322    1084.5739    0.0662133  0.066161613            5 
 1366000   0.70910275   -2.8306071     1085.578  0.066226087  0.066128934            2 
 1367000   0.71939381   -2.8526908    1086.4561  0.066231171  0.066096448            4 
 1368000   0.70870023   -2.8666467    1088.4112   0.06630185  0.066063538            7 
 1369000   0.71721373   -2.8556939    1088.6568  0.066268373  0.066030975            5 
 1370000   0.69275103   -2.8705565    1085.9398   0.06605473  0.065998177           10 
 1371000   0.70512733   -2.8507096    1086.0342   0.06601229   0.06596584            5 
 1372000   0.71681089   -2.8597578    1088.7598  0.066129726   0.06593335            5 
 1373000   0.70493404   -2.8547968    1084.8957  0.065847029  0.065901293            6 
 1374000   0.72135681   -2.8529575     1091.265  0.066185406  0.065869129            4 
 1375000    0.7039435   -2.8440165    1090.4563  0.066088259  0.065836962            7 
 1376000   0.70699359   -2.8776223    1092.4172  0.066158986  0.065805132            4 
 1377000   0.71981487   -2.8520691    1091.9123  0.066080383  0.065773371            3 
 1378000   0.68936098   -2.8640995    1089.1159  0.065863323  0.065741598            4 
 1379000   0.71266096   -2.8452416    1091.3336  0.065949577  0.065709436           11 
 1380000   0.70778334   -2.8688423    1090.7612   0.06586722  0.065677817            6 
 1381000   0.71079986   -2.8606997    1087.2806  0.065609497  0.065645976            5 
 1382000    0.7113834   -2.8472396    1093.3146   0.06592587  0.065613983            2 
 1383000   0.70593603   -2.8515338    1092.6996  0.065841144  0.065582197            5 
 1384000   0.69991009   -2.8734556    1092.1207   0.06575871  0.065550128            4 
 1385000   0.69630118   -2.8497722    1090.8394  0.065634139  0.065518178            4 
 1386000   0.69230233   -2.8523485    1092.0967  0.065662379  0.065486146            6 
 1387000   0.70544726   -2.8721059    1090.9865  0.065548337  0.065454052            5 
 1388000   0.68947076   -2.8750035    1090.7059  0.065484262  0.065422099            4 
 1389000   0.69234165   -2.8498783    1095.9492  0.065751693  0.065389971            3 
 1390000   0.69126527   -2.8728126    1093.9401  0.065583936   0.06535776            5 
 1391000   0.70223263   -2.8720365    1092.9443  0.065477133  0.065325343            8 
 1392000   0.70455064   -2.8757463    1089.8749  0.065246344  0.065292979            3 
 1393000   0.69378581   -2.8596011    1097.2682   0.06564179  0.065260741            6 
 1394000   0.68037611   -2.8857145    1095.3235   0.06547845  0.065228472            7 
 1395000   0.68309986   -2.8718523    1091.3979  0.065197009  0.065196426            4 
 1396000   0.70225504   -2.8679767    1096.6771  0.065465443   0.06516446            7 
 1397000   0.69511769   -2.8641298    1094.9423  0.065315098  0.065132592            4 
 1398000   0.70397855   -2.8597182    1097.5923  0.065426344  0.065100736            4 
 1399000   0.69704835   -2.8615785    1098.9934  0.065463031  0.065069126            8 
 1400000   0.68791736   -2.8744078    1095.9145  0.065233007  0.065037275            5 
 1401000   0.68595153   -2.8511152    1101.4548  0.065515991    0.0650057            5 
 1402000   0.69994605   -2.8628058    1098.6567  0.065302941  0.064974159            4 
 1403000   0.70002333   -2.8713713    1097.0845  0.065163016  0.064942736            7 
 1404000   0.69261635   -2.8636952    1096.9377  0.065107889  0.064911516            4 
 1405000    0.6915156   -2.8867162    1100.3902  0.065266323  0.064880026            6 
 1406000   0.69609127   -2.8762405    1098.9249  0.065133057   0.06484815            4 
 1407000   0.68979629   -2.8716006    1097.3695  0.064994638  0.064816686            3 
 1408000   0.69570533   -2.8840932    1100.6517  0.065142738  0.064785029            5 
 1409000   0.69777981    -2.878316    1100.0831  0.065062876  0.064753485            3 
 1410000    0.6837345     -2.86957    1099.1519  0.064961695  0.064721892            4 
 1411000   0.68601875   -2.8550293    1101.7062  0.065066511  0.064690608            4 
 1412000    0.7024658   -2.8815421    1097.2222  0.064755795   0.06465919            3 
 1413000    0.6831753   -2.8838364    1104.8842  0.065161844  0.064627737           12 
 1414000   0.68235878   -2.8957458     1100.229  0.064841406  0.064596401            7 
 1415000   0.70504268   -2.8769458    1102.2401  0.064914022   0.06456508            4 
 1416000   0.69194189   -2.8883643    1101.6815  0.064835305  0.064533978            8 
 1417000    0.6978762   -2.8823083    1103.0897  0.064872366   0.06450291            5 
 1418000   0.68759391   -2.8698674    1106.3913  0.065020648  0.064471673            7 
 1419000   0.67730517   -2.8928127    1103.4941  0.064804678  0.064440542           10 
 1420000   0.68647292   -2.9098217    1107.4685  0.064992283  0.064409567            5 
 1421000   0.71115211   -2.8703514    1102.0473  0.064628623  0.064378682            3 
 1422000   0.69564458   -2.8804538    1105.5586  0.064788949   0.06434773            3 
 1423000    0.6849109   -2.9066493    1103.6742  0.064633062  0.064316793           10 
 1424000    0.6849405   -2.8770804     1103.274  0.064564256  0.064285735            5 
 1425000   0.67802522   -2.8799105    1110.9444   0.06496751  0.064254692            3 
 1426000   0.70234358   -2.9011271    1106.0481  0.064635818  0.064223895            4 
 1427000   0.68392335   -2.8909101    1102.2672  0.064369724  0.064192658            5 
 1428000    0.6801401   -2.8730186    1105.7596  0.064528454   0.06416113           10 
 1429000   0.68863505   -2.8814599    1106.6152  0.064533192  0.064129874            4 
 1430000   0.67660553   -2.8748378    1106.8871  0.064503913  0.064098662            5 
 1431000   0.68411844   -2.8781172    1105.5491  0.064380914  0.064067579            3 
 1432000    0.6901467   -2.8747529     1107.907   0.06447317  0.064036625            6 
 1433000   0.67637402    -2.886082    1106.6395  0.064354471  0.064005295            8 
 1434000   0.69598435   -2.8935966    1107.5306   0.06436138  0.063974001            9 
 1435000   0.67698688   -2.8849269    1104.8484  0.064160769  0.063942841            4 
 1436000    0.6778544   -2.9004836    1108.9972  0.064356848  0.063911515            8 
 1437000   0.68342995   -2.8834221    1107.8883  0.064247758  0.063880187            3 
 1438000   0.67206272   -2.8803304    1109.1555   0.06427651  0.063849037            6 
 1439000   0.68360048   -2.8907134    1107.8187   0.06415443  0.063817757            2 
 1440000   0.67639278   -2.8950201    1108.9865  0.064177459  0.063786189            5 
 1441000   0.68105871   -2.8901976    1106.1086  0.063966495   0.06375515            4 
 1442000   0.68065037   -2.8840633    1108.1689  0.064041197  0.063723733            5 
 1443000   0.67900301   -2.8978627    1108.7661  0.064031305  0.063692656            8 
 1444000   0.68115589   -2.9174858     1111.916  0.064168745  0.063661275            6 
 1445000   0.67008842   -2.8930376    1111.4054  0.064094893  0.063630157            7 
 1446000    0.6882739   -2.8893495    1107.6441  0.063833801  0.063598897            5 
 1447000   0.67735535   -2.9134268    1110.2839  0.063941715  0.063567406           12 
 1448000   0.66304417   -2.8944847     1111.869  0.063988776  0.063536036            5 
 1449000   0.68472452   -2.8916035    1112.0613  0.063955675  0.063505187            8 
 1450000   0.67578282   -2.9022142    1113.3416   0.06398515  0.063473979            8 
 1451000   0.68648563   -2.9120459    1113.8111  0.063968017  0.063442787            7 
 1452000   0.67141692   -2.9027551      1113.03  0.063879132  0.063411593            2 
 1453000   0.66413328   -2.8994116    1112.7361  0.063818312  0.063380544            8 
 1454000   0.68246133   -2.9195633    1112.5001  0.063760896  0.063349513            3 
 1455000    0.6607022   -2.8916738     1114.265  0.063818155  0.063318585            6 
 1456000   0.66182009   -2.8985022    1113.2285  0.063714999  0.063287688            5 
 1457000    0.6719483   -2.9188312    1111.8208   0.06359076  0.063256582            4 
 1458000   0.68643412    -2.901458     1112.865  0.063606826  0.063225223            9 
 1459000   0.66862829   -2.9222974    1112.0796  0.063518367  0.063193949            5 
 1460000   0.67500142    -2.912794    1111.8675  0.063462759  0.063162707            8 
 1461000    0.6630475   -2.9101601    1116.0447   0.06365758  0.063131705            6 
 1462000   0.67748707   -2.9170696    1109.9156  0.063264685  0.063100568            9 
 1463000   0.66564174   -2.8915334    1113.5769   0.06342999  0.063069395            4 
 1464000   0.68017567   -2.9103225    1113.3964  0.063376387  0.063038351            6 
 1465000   0.68011038   -2.8993841    1112.7042  0.063293756  0.063007224            6 
 1466000   0.66443292   -2.9089702    1114.0189  0.063325314  0.062976316            7 
 1467000   0.67605766   -2.9142863     1114.513  0.063310213   0.06294513            5 
 1468000   0.66395328   -2.9074627    1115.1728  0.063304543  0.062913907            4 
 1469000   0.63791885   -2.9032931    1117.9815  0.063420781   0.06288266            5 
 1470000   0.65856529   -2.9227844    1115.7216  0.063249522  0.062851541            8 
 1471000   0.65509479   -2.9172002    1120.1426  0.063456977  0.062820532            3 
 1472000   0.67072937   -2.9278266    1113.8348  0.063056772  0.062789467            7 
 1473000    0.6710557    -2.931919    1116.8908  0.063186851  0.062758441            3 
 1474000   0.67091399   -2.9210554    1119.3664  0.063283944  0.062727725           10 
 1475000   0.65640202   -2.9091581    1117.7259  0.063148357   0.06269693            3 
 1476000   0.66259407   -2.9047639    1118.5909  0.063154407  0.062665975            6 
 1477000   0.66789601   -2.8967929    1121.1763  0.063257522  0.062635303            3 
 1478000   0.66837937   -2.9145933    1118.3865  0.063057425  0.062604389            5 
 1479000   0.65955177   -2.9346931    1118.8002  0.063038102   0.06257344            5 
 1480000   0.66754192   -2.9318306    1115.8716  0.062830606  0.062542403            8 
 1481000   0.65567943   -2.9137712    1117.9533   0.06290532  0.062511362            6 
 1482000   0.66480254   -2.9170925     1114.242  0.062654181  0.062480092            3 
 1483000   0.65485933   -2.9290255    1120.0686  0.062939348  0.062448954            7 
 1484000   0.65958183   -2.9515023    1117.8533  0.062772534  0.062417771            4 
 1485000   0.66034542   -2.9201618    1115.9268  0.062622155  0.062386557            5 
 1486000   0.65809215   -2.9174352    1121.4426  0.062889333  0.062355434            5 
 1487000   0.66137713   -2.9359592    1119.7854  0.062754167  0.062324149            5 
 1488000   0.66204226   -2.9065381    1121.3937  0.062802065  0.062293234            6 
 1489000   0.65261323   -2.9253995     1118.809  0.062615233  0.062262209            8 
 1490000   0.65286566   -2.9109361     1120.989  0.062695132   0.06223101           11 
 1491000   0.65968531   -2.9069298    1121.8143  0.062699211  0.062200292            6 
 1492000   0.65760943   -2.9152459     1120.969  0.062609975  0.062169268            4 
 1493000   0.66699778   -2.9111344    1120.9589  0.062567475  0.062138361            3 
 1494000   0.63526868   -2.9273125    1119.9532    0.0624695  0.062107536           12 
 1495000   0.65783642   -2.9235544    1123.0173  0.062598511  0.062076554            4 
 1496000   0.64465116   -2.9368464    1118.3701  0.062297799  0.062045299           11 
 1497000   0.64853224   -2.9183479    1123.4147  0.062537004  0.062014609            4 
 1498000   0.66750888   -2.9157048     1122.528  0.062445926  0.061983589            9 
 1499000   0.65163145   -2.9248658    1125.0021  0.062541811  0.061952662            6 
 1500000    0.6481867    -2.926534    1123.3791  0.062409949  0.061921426            7 
 1501000   0.64398126   -2.9140889    1123.6645  0.062384213  0.061890627           11 
 1502000   0.65404354   -2.9172079    1122.9998  0.062305802  0.061859508            7 
 1503000   0.65000744   -2.9271487    1123.5782  0.062296418  0.061828277            5 
 1504000   0.65150874    -2.936162    1121.3666  0.062132455  0.061797127            7 
 1505000   0.65813715   -2.9372728    1121.0015  0.062070958  0.061765938            6 
 1506000   0.64829343   -2.9240576    1123.1042  0.062146095  0.061734558            6 
 1507000   0.64647601   -2.9372823    1123.0015  0.062099179  0.061703302            4 
 1508000    0.6582078   -2.9485093    1121.0739  0.061951474  0.061671851            3 
 1509000   0.67032945   -2.9645552    1121.5068  0.061934327  0.061640326           11 
 1510000   0.64802619   -2.9299181    1124.7783  0.062073855  0.061609184            5 
 1511000   0.65940015   -2.9448642    1120.4726  0.061795314  0.061578118            5 
 1512000   0.64110866    -2.955009    1122.6319  0.061873452  0.061546782            5 
 1513000   0.65505448   -2.9443422    1120.8074  0.061732068  0.061515338            8 
 1514000    0.6486746   -2.9271121     1124.705  0.061905824   0.06148393            4 
 1515000   0.65418121   -2.9303084    1125.2833   0.06189677  0.061452913           12 
 1516000    0.6468048   -2.9320194    1123.5824  0.061762447  0.061421908           12 
 1517000   0.65498782   -2.9445879    1125.4767  0.061825789  0.061390976            9 
 1518000   0.65131388   -2.9335402    1125.3814  0.061779833  0.061360177            5 
 1519000    0.6483807   -2.9479189    1125.3294  0.061736306  0.061329241            5 
 1520000   0.64865236   -2.9278126    1127.4999  0.061814687  0.061298502            4 
 1521000   0.63570195   -2.9175819    1125.9494  0.061689096   0.06126754            5 
 1522000   0.64191103    -2.931102    1124.0253  0.061543215   0.06123693            3 
 1523000    0.6376182   -2.9392683     1126.975  0.061664202  0.061206334            7 
 1524000   0.64064831   -2.9483832    1129.9387    0.0617858  0.061175415            5 
 1525000   0.63436743   -2.9455466    1128.0708   0.06164321  0.061144623            4 
 1526000   0.63595355   -2.9550964    1126.0757   0.06149387  0.061113734            5 
 1527000   0.63175183   -2.9388559    1128.6222  0.061592566  0.061082978            4 
 1528000   0.65445713   -2.9268226    1127.0194  0.061464845  0.061052537            5 
 1529000   0.65139212   -2.9525102    1127.1132  0.061429758  0.061021626            6 
 1530000   0.64430338   -2.9495052    1130.0883  0.061551652  0.060991039           20 
 1531000   0.65438963   -2.9585942     1131.259  0.061575168  0.060960416            8 
 1532000   0.64115473   -2.9378936    1127.6655  0.061339506  0.060929682           11 
 1533000   0.63831766   -2.9568751    1129.1368  0.061379472  0.060899043            7 
 1534000   0.62668334   -2.9526257    1129.4286  0.061355311   0.06086842            6 
 1535000   0.63918928   -2.9483249    1131.7776  0.061442864  0.060837751            4 
 1536000   0.64132775   -2.9322773     1133.146  0.061477107  0.060807449            3 
 1537000   0.64429372   -2.9404718    1126.6969  0.061087447   0.06077681            5 
 1538000   0.64838293   -2.9350915    1130.1631  0.061235537   0.06074624            5 
 1539000   0.64581229   -2.9329991     1133.589  0.061381252  0.060715692            6 
 1540000   0.63056787   -2.9326961    1131.1895  0.061211555  0.060685094            8 
 1541000   0.63122449   -2.9412439     1132.843  0.061261246  0.060654525            3 
 1542000    0.6366155   -2.9406128    1131.7421  0.061162023   0.06062369            6 
 1543000   0.63999741   -2.9547908    1132.1635  0.061145143  0.060593086            8 
 1544000   0.63220132   -2.9432155    1127.7195  0.060865688  0.060562214            7 
 1545000   0.64454099   -2.9445571    1129.7449  0.060935537  0.060531407            5 
 1546000   0.63439803   -2.9741596    1132.7128  0.061056099  0.060500351            7 
 1547000   0.63770704   -2.9571656    1128.0492  0.060765415  0.060469253            7 
 1548000   0.63907493   -2.9627239    1129.8637  0.060823841    0.0604382            3 
 1549000   0.62850267   -2.9631136    1130.4433  0.060815757  0.060407112            6 
 1550000   0.64605516   -2.9579232    1130.2354  0.060765343  0.060375929            5 
 1551000   0.62612232   -2.9618941    1129.2072  0.060670922  0.060344694            9 
 1552000    0.6393047   -2.9658883    1131.5828  0.060759387  0.060313583            8 
 1553000   0.62057586   -2.9627967    1130.2608  0.060649321  0.060282532            7 
 1554000   0.63083671   -2.9483598    1129.8507  0.060588303  0.060251285            4 
 1555000   0.62850365   -2.9383944    1131.8159  0.060654657  0.060220177            3 
 1556000   0.62408895   -2.9546487     1131.758  0.060612575  0.060189061            7 
 1557000   0.64507143   -2.9502204    1128.1443  0.060380234  0.060157891            8 
 1558000   0.62069458   -2.9635042    1130.9265  0.060490291  0.060126674            5 
 1559000   0.62280228   -2.9524719    1133.3003  0.060578377  0.060095563            6 
 1560000   0.63609362   -2.9428915    1131.2238   0.06042862  0.060064574            6 
 1561000   0.62449963   -2.9679727    1131.0121  0.060378609  0.060033365           10 
 1562000   0.62590791   -2.9582625    1129.7996  0.060275266  0.060001988           10 
 1563000   0.62206631   -2.9567439    1132.7514   0.06039408   0.05997071            7 
 1564000   0.63810974   -2.9717369    1133.5556  0.060398315  0.059939547            3 
 1565000   0.62479412   -2.9542663    1133.6058  0.060362395  0.059908651           10 
 1566000   0.63681673   -2.9794945     1132.297  0.060254203   0.05987731            6 
 1567000   0.63097473   -2.9637748    1131.1566  0.060155107  0.059846091            5 
 1568000   0.64449374   -2.9792648      1135.79  0.060362987  0.059815007            6 
 1569000   0.62111785   -2.9831107    1132.9405   0.06017317  0.059783866            5 
 1570000   0.62301052   -2.9704717    1134.1673  0.060199963  0.059752691            5 
 1571000   0.61752134   -2.9888862    1133.0321  0.060101426  0.059721502           10 
 1572000   0.64569166   -2.9889885    1129.5662  0.059879465   0.05969012           15 
 1573000    0.6322059     -2.97676    1132.9384  0.060020046  0.059658643           11 
 1574000   0.62713598   -2.9798673    1132.0179  0.059933181  0.059627432            8 
 1575000   0.63432425   -2.9786543    1132.6807  0.059930194  0.059596224           10 
 1576000   0.62227611   -2.9830887    1133.2301  0.059921217   0.05956504            9 
 1577000   0.63250704   -2.9596589    1131.7835  0.059806779  0.059533801            5 
 1578000   0.61070944    -2.964616    1135.2914  0.059954129  0.059502506            5 
 1579000   0.61945362   -2.9876759    1135.7165  0.059938594  0.059471336            7 
 1580000   0.62444256   -2.9687423    1136.4785  0.059940851  0.059440347            6 
 1581000   0.61357155    -3.000742    1130.3763  0.059581294  0.059409191            7 
 1582000   0.62918226   -2.9854862    1135.2429  0.059799983  0.059378059            5 
 1583000   0.61884889   -2.9695027    1134.4244  0.059719122  0.059346789            5 
 1584000   0.60903694   -2.9860715    1136.1984  0.059774748  0.059315597            4 
 1585000   0.60534111   -2.9992394     1135.064   0.05967739  0.059284401            8 
 1586000   0.60667682    -2.967779    1130.6582  0.059408269  0.059253237           10 
 1587000   0.61269414    -2.976226    1134.1867  0.059556116  0.059222082            8 
 1588000   0.62832546   -2.9783753     1133.813  0.059499003  0.059190978            3 
 1589000   0.63391913    -2.968525    1137.2617  0.059642422  0.059159922            3 
 1590000   0.61716177   -2.9869573    1137.1834  0.059600808  0.059128792            9 
 1591000     0.626663   -2.9868163    1135.9576   0.05949914  0.059097568            5 
 1592000   0.63735255   -2.9699393    1136.5551  0.059493044  0.059066507            7 
 1593000   0.62332361   -2.9922423    1135.0315  0.059375996  0.059035339            6 
 1594000   0.62289083   -2.9890409    1138.4878  0.059519435  0.059003911            6 
 1595000   0.61033963   -2.9782532     1135.602   0.05933135  0.058972786            8 
 1596000   0.62523201    -2.986471     1136.377   0.05933464  0.058941561           28 
 1597000   0.61294467   -3.0197761    1136.7037  0.059314531  0.058910167           10 
 1598000   0.62952266    -3.011144    1136.3474  0.059258831   0.05887868           14 
 1599000    0.6127863   -2.9893556    1135.1724  0.059160536  0.058847442            7 
 1600000   0.61664628   -2.9861697    1135.1882  0.059124384  0.058816035            6 
 1601000   0.61561172   -2.9813325    1135.8701  0.059122947  0.058784767           10 
 1602000   0.62380144   -3.0092103    1132.2581  0.058898154  0.058753338            8 
 1603000   0.61703273   -2.9870404    1138.6261  0.059192455  0.058722034            9 
 1604000    0.6188611   -2.9963779    1133.2928   0.05887847  0.058690495            7 
 1605000   0.61613385   -2.9784044    1137.0041  0.059034479  0.058659136            9 
 1606000   0.61966798   -2.9992831    1134.6582  0.058875995  0.058627738            3 
 1607000   0.61290708   -2.9905074    1137.6832  0.058996224  0.058596529            7 
 1608000   0.61935053   -2.9876758    1135.6545  0.058854398  0.058565638            5 
 1609000   0.62057843   -2.9911471    1137.7524  0.058926474  0.058534554            5 
 1610000   0.61987981   -2.9834722    1138.2916  0.058917784  0.058503415            4 
 1611000   0.60823208   -2.9968341    1141.4656  0.059045396  0.058472376           12 
 1612000   0.60214454   -2.9959449    1140.0196  0.058934016  0.058441352            7 
 1613000   0.61882897    -3.003596     1135.716  0.058675142  0.058410188           11 
 1614000   0.61391123   -3.0007106     1138.622  0.058788827  0.058379143            4 
 1615000   0.60615324   -2.9983162    1138.5186  0.058747092  0.058348037            7 
 1616000   0.61656535   -2.9949269     1136.606  0.058612108  0.058316862            6 
 1617000   0.60218284   -2.9904611      1142.31   0.05886982  0.058285706            6 
 1618000   0.62034781   -2.9990328    1140.2778  0.058728772  0.058254611            6 
 1619000   0.60318229   -2.9944411    1140.6753  0.058712954  0.058223456            6 
 1620000    0.5911678   -3.0004687    1143.2892  0.058811172  0.058192375            5 
 1621000   0.61157062   -2.9888977    1139.2686  0.058568201  0.058161344            9 
 1622000    0.6111794   -2.9894427    1139.9988  0.058569604  0.058130184            8 
 1623000   0.59873376   -3.0085675    1137.6149  0.058411118  0.058099029            9 
 1624000   0.59977918   -3.0049938      1140.19  0.058507287   0.05806788            4 
 1625000   0.61764474   -3.0117071    1139.8898  0.058455889  0.058036753           12 
 1626000    0.6077137   -3.0217585    1137.5954  0.058302349  0.058005451            6 
 1627000    0.6002302   -3.0147975    1139.1239  0.058344803  0.057974185            9 
 1628000   0.60517383   -3.0074294    1137.8276  0.058242608  0.057943178            8 
 1629000   0.60989079   -3.0019634    1137.0144  0.058165255  0.057912154            6 
 1630000   0.60705136   -2.9883336    1141.9358  0.058381174   0.05788107           10 
 1631000   0.60062854    -3.009842    1138.0302  0.058145833  0.057849916            7 
 1632000   0.60892409   -3.0290275    1138.7611  0.058147525  0.057818548           11 
 1633000   0.58408581   -3.0118178    1143.4833  0.058352895  0.057787417            5 
 1634000   0.60775707   -3.0137746    1140.1298  0.058146153  0.057756533            6 
 1635000   0.59928217   -2.9920237    1140.7894  0.058144212  0.057725425           17 
 1636000   0.59008141   -3.0057018    1142.2261   0.05818185  0.057694538            7 
 1637000   0.60555406   -3.0161683    1137.6186   0.05791176  0.057663324           25 
 1638000   0.59464232   -3.0095483    1141.4284  0.058070229  0.057632189           15 
 1639000   0.60692205   -3.0006858    1140.3438  0.057979654  0.057601124            7 
 1640000   0.60663605   -3.0219756    1141.3858  0.057997243  0.057570061            9 
 1641000   0.59903663   -3.0189452    1144.9507  0.058142934  0.057539076            8 
 1642000   0.59826227   -3.0273507    1143.5294  0.058035396  0.057508302           13 
 1643000     0.587764   -3.0062072    1139.4876   0.05779507  0.057477382            7 
 1644000   0.59708076   -3.0219349     1141.032  0.057838198  0.057446485            8 
 1645000   0.59629733   -3.0249775    1142.3078  0.057867672  0.057415608            9 
 1646000   0.60092529   -3.0184502    1143.8055  0.057908339  0.057384758           12 
 1647000   0.59826075   -3.0243656    1144.5642  0.057911564  0.057353943            9 
 1648000   0.59953951   -3.0349338     1140.976  0.057694982   0.05732304           10 
 1649000   0.59192153   -3.0348462    1144.0281  0.057814235  0.057291994            8 
 1650000   0.58950344   -3.0200126    1144.3041  0.057793136  0.057261103            7 
 1651000   0.60806697     -3.01896    1142.9762  0.057691105  0.057230314            6 
 1652000   0.60042985   -3.0163629    1143.4905  0.057682129  0.057199525            8 
 1653000   0.59708086   -3.0352953    1144.7645  0.057711457  0.057168706            6 
 1654000   0.58543264   -3.0137683    1143.6378  0.057619799   0.05713771            4 
 1655000   0.58243618   -3.0166255    1140.3948   0.05742169  0.057106662            5 
 1656000   0.59451501   -3.0238434    1142.1365  0.057474664  0.057075812            8 
 1657000   0.59422783   -3.0328577    1143.8159  0.057524437  0.057045152            8 
 1658000    0.5993442   -3.0422801    1144.6935   0.05753385  0.057014438            6 
 1659000   0.59366157   -3.0138653    1145.2964  0.057529454  0.056983718           18 
 1660000   0.58349977   -3.0461489    1140.7535   0.05726674  0.056952987           15 
 1661000   0.59249469   -3.0516136    1142.6364  0.057326731  0.056922312           10 
 1662000    0.6038583   -3.0341942    1145.9842  0.057460097  0.056891563            7 
 1663000   0.57990381   -3.0385826    1144.0327  0.057327755   0.05686089            5 
 1664000   0.58726955   -3.0466725    1146.8737  0.057435579  0.056830201            4 
 1665000   0.59435768   -3.0203512    1144.6108  0.057287829  0.056799676           11 
 1666000   0.57780902   -3.0454325    1144.2631  0.057236048  0.056768856            8 
 1667000   0.59729822   -3.0246302    1143.7099   0.05717406  0.056738231            6 
 1668000    0.5780937   -3.0391141    1146.2766  0.057268014  0.056707702            5 
 1669000   0.58528729   -3.0330843    1146.1639  0.057228075  0.056677079           10 
 1670000   0.58653856    -3.041666    1148.3466  0.057302722  0.056646363           13 
 1671000   0.59072126   -3.0247252    1146.6688  0.057184759  0.056615725            6 
 1672000   0.58650655    -3.036412    1144.0375  0.057019411  0.056585314           13 
 1673000   0.58602117   -3.0506477     1146.578  0.057111877  0.056554981            8 
 1674000   0.58842222   -3.0436368    1149.8964  0.057242949  0.056524547            9 
 1675000   0.56323505   -3.0233309    1148.1146  0.057120132  0.056494305           20 
 1676000   0.59327692   -3.0359947    1147.3179  0.057046433  0.056464161            6 
 1677000   0.60551047   -3.0362581    1146.3485  0.056964245  0.056433757           11 
 1678000   0.58789343   -3.0477589    1146.9001  0.056957694  0.056403431            8 
 1679000   0.57754996   -3.0322281    1145.5142  0.056854984  0.056372976            8 
 1680000   0.58631712   -3.0365605    1150.2177   0.05705445  0.056342666            8 
 1681000   0.58010302   -3.0368678     1145.243  0.056773894  0.056312145            5 
 1682000   0.58551015   -3.0447543    1150.0953  0.056980543  0.056281932            7 
 1683000   0.56437292   -3.0590683    1147.3231  0.056809425  0.056251588           12 
 1684000    0.5829994   -3.0475523    1147.8337  0.056800956  0.056221332           16 
 1685000   0.57501558   -3.0457907    1149.8209  0.056865522  0.056191177           19 
 1686000    0.5850191   -3.0455492    1148.0549   0.05674451  0.056161115            7 
 1687000   0.58839448     -3.06044    1147.8809  0.056702275   0.05613089           12 
 1688000   0.57161706   -3.0431999    1149.1765  0.056732648  0.056100853            8 
 1689000   0.57136218   -3.0520961    1147.4369  0.056613226   0.05607053            6 
 1690000   0.58476444    -3.065773    1150.4318  0.056727407  0.056040438            4 
 1691000   0.57639186   -3.0453645    1148.6009   0.05660363  0.056010195            5 
 1692000   0.59388292   -3.0418962    1147.5596  0.056518891  0.055980186            7 
 1693000   0.57407599   -3.0381047    1151.9649   0.05670235  0.055950175            4 
 1694000   0.58120447   -3.0301448    1148.2017  0.056483754  0.055920238            6 
 1695000   0.57377295   -3.0601713    1149.0198  0.056490651  0.055890234            5 
 1696000   0.57546828   -3.0423494    1150.3735  0.056523857  0.055860025            7 
 1697000   0.58175101   -3.0440752    1148.8513  0.056415795  0.055829967           10 
 1698000   0.57876795   -3.0620424    1149.0257  0.056391133  0.055799673            9 
 1699000   0.56586121   -3.0542644    1153.6756  0.056586013   0.05576955            7 
 1700000   0.57827363   -3.0703506    1151.1334  0.056428107  0.055739499            9 
 1701000   0.58272041    -3.052053    1151.2561  0.056400948  0.055709266            8 
 1702000   0.57512418     -3.05843    1149.9796  0.056305306  0.055679227           13 
 1703000   0.57045543   -3.0747811    1147.4078  0.056146397  0.055648957           20 
 1704000   0.57404781   -3.0548981    1150.5508  0.056267157  0.055618818           15 
 1705000   0.58121128   -3.0576653    1152.2481  0.056317111   0.05558865           11 
 1706000   0.57619436   -3.0457463    1154.2152  0.056380189  0.055558682            6 
 1707000   0.57643211   -3.0638232    1148.5033   0.05606831  0.055528551            5 
 1708000   0.57556758   -3.0804479    1152.3126   0.05622134  0.055498429           16 
 1709000   0.57860008    -3.067598    1149.1064  0.056032106  0.055468322            7 
 1710000   0.57403872   -3.0559158    1155.6022  0.056315898  0.055438276            9 
 1711000   0.58902925   -3.0568378    1153.2752  0.056169648  0.055408263           24 
 1712000   0.55876978   -3.0656656     1151.458  0.056048386  0.055378385            6 
 1713000   0.56908456    -3.052211    1152.2488  0.056054133  0.055348379           16 
 1714000   0.56152253   -3.0724373    1149.7472  0.055899805  0.055318488           25 
 1715000    0.5817137   -3.0517107    1152.6098  0.056006306  0.055288547            6 
 1716000   0.57021401   -3.0518324    1151.8345  0.055936019  0.055258628            7 
 1717000   0.56653234   -3.0566784    1152.2315  0.055922708  0.055228772            5 
 1718000   0.56675772   -3.0652315    1154.3106  0.055991005  0.055198855           11 
 1719000    0.5631097   -3.0567406    1153.8781  0.055937468   0.05516885            9 
 1720000   0.56549557   -3.0625771    1149.9431  0.055714296  0.055138757            7 
 1721000   0.56813177   -3.0586374    1152.0291  0.055782931  0.055108712            9 
 1722000   0.56747518   -3.0616472    1152.4403  0.055770435  0.055078716            7 
 1723000   0.55296317   -3.0604225    1152.4959  0.055740759  0.055048758            6 
 1724000   0.55944308   -3.0913065    1153.9731   0.05577983  0.055018572           13 
 1725000   0.56115978   -3.0735849    1152.3236  0.055667806  0.054988383            8 
 1726000   0.56306582    -3.057006    1149.6488  0.055506414  0.054958167            7 
 1727000   0.57005846   -3.0825707    1150.6861  0.055524324  0.054928251           13 
 1728000   0.55874879   -3.0816569    1154.5718  0.055679583  0.054898234           16 
 1729000   0.57671487   -3.0620437    1151.9814  0.055522527  0.054867993            5 
 1730000   0.57809354   -3.0733556    1151.4055  0.055462693  0.054837926           19 
 1731000   0.56328234   -3.0734574     1155.493   0.05562743  0.054807862            9 
 1732000   0.56038542   -3.0804877    1154.8994  0.055566752  0.054777853           13 
 1733000   0.56049971   -3.0636635    1152.0198  0.055396221  0.054747678           10 
 1734000   0.57212414   -3.0712695    1153.8804  0.055453693   0.05471767            7 
 1735000   0.56244094   -3.0842605     1151.673  0.055315706  0.054687597           10 
 1736000     0.571672   -3.0689401    1153.2557  0.055359817  0.054657602           12 
 1737000   0.56474076   -3.0707824    1152.3047   0.05528232   0.05462753            8 
 1738000    0.5515469   -3.0835104    1150.6033  0.055168932   0.05459723           28 
 1739000   0.55273612   -3.0871018    1151.0452  0.055158385  0.054567064           20 
 1740000   0.56103282   -3.0747382    1154.9067  0.055311623  0.054537053            5 
 1741000   0.55751648   -3.0757151    1149.7709  0.055034025  0.054506973            9 
 1742000   0.54123978   -3.0664431    1150.4876  0.055036721  0.054476859           18 
 1743000   0.55802335   -3.0930688    1151.0542  0.055032233  0.054446591           17 
 1744000   0.57074051   -3.0755305    1152.6461  0.055076744  0.054416315           13 
 1745000   0.54854824   -3.0740636    1150.7028  0.054952379  0.054386238            6 
 1746000   0.56130383   -3.0863822    1150.0523  0.054889858   0.05435596           21 
 1747000   0.56599506   -3.0804608    1149.9476  0.054853445  0.054325819            7 
 1748000   0.55729222   -3.0687422    1154.8102  0.055053879  0.054295736           10 
 1749000   0.55549696   -3.0821062    1151.4786  0.054863666  0.054265676           15 
 1750000   0.54560226   -3.0778334    1155.5531  0.055026339  0.054235598            6 
 1751000   0.55884615   -3.0979114    1151.7087  0.054811949  0.054205631           16 
 1752000   0.55563748   -3.0872899    1152.1553  0.054801905  0.054175506            8 
 1753000    0.5485802   -3.0921837    1151.9886  0.054762723  0.054145587           11 
 1754000   0.53083107   -3.0845317    1154.0973  0.054831683  0.054115629           10 
 1755000   0.54480336   -3.0732763    1154.4713  0.054818201  0.054085669           12 
 1756000   0.55531211   -3.0800434    1156.0406  0.054861456  0.054055864           11 
 1757000   0.53360804   -3.0778039    1157.7816  0.054912806  0.054025902           14 
 1758000   0.55908294   -3.0776545      1153.91  0.054698047  0.053996086            8 
 1759000    0.5541537   -3.1068221    1152.6564   0.05460756  0.053966146           12 
 1760000     0.561521   -3.0914647    1154.2973   0.05465423  0.053936123            8 
 1761000     0.553636   -3.0876983    1154.0852  0.054613156  0.053906188            8 
 1762000   0.55533885   -3.0944742    1152.4199  0.054503402  0.053875984           30 
 1763000   0.54093263   -3.0985231    1155.2798  0.054607665  0.053845956            7 
 1764000   0.55442082   -3.0983295    1154.2841  0.054529674  0.053816026           16 
 1765000   0.54964513   -3.0720416    1155.1375  0.054539068  0.053786093            9 
 1766000   0.54958953   -3.0941337    1156.5608  0.054575351  0.053756303            7 
 1767000   0.53411912   -3.0737518    1156.1047  0.054522951  0.053726604           10 
 1768000    0.5546518   -3.1073636    1153.3574  0.054362624  0.053696741           13 
 1769000   0.55378888   -3.0958157    1158.7948  0.054588036  0.053666847           18 
 1770000   0.55068651   -3.1038761    1154.4461  0.054352454  0.053637034           14 
 1771000   0.54471959   -3.1046734    1151.9415  0.054203909   0.05360719           15 
 1772000   0.54237035   -3.0978667    1150.9636  0.054127331  0.053577285           11 
 1773000   0.54154248   -3.1050944    1155.6334  0.054316288  0.053547521           13 
 1774000   0.54982072   -3.0869022    1158.0355   0.05439851  0.053517756           17 
 1775000     0.549381   -3.0913193    1152.2551  0.054096485  0.053488091           12 
 1776000    0.5469068   -3.1007512    1157.5768  0.054315727  0.053458376           10 
 1777000   0.55247653   -3.0951135    1155.3403  0.054180282   0.05342856            9 
 1778000   0.53964414   -3.1121151    1156.7951  0.054217993  0.053398875           25 
 1779000   0.55551635    -3.103222    1157.1147  0.054202485  0.053369162            8 
 1780000   0.53381324   -3.0946096     1156.992  0.054166294  0.053339413           12 
 1781000   0.54604177   -3.1047342    1157.0251  0.054137427  0.053309772            8 
 1782000   0.54259799   -3.1236568    1151.7231  0.053859105  0.053279999           11 
 1783000   0.54565408   -3.0908043    1154.3583   0.05395206  0.053250212            8 
 1784000   0.54030378   -3.1150403    1157.9503  0.054089607  0.053220409            9 
 1785000    0.5335476   -3.1139138    1156.5802  0.053995342  0.053190661            9 
 1786000   0.55369667   -3.1205949    1156.1846  0.053946648  0.053160977           18 
 1787000   0.54241536   -3.0849706    1159.7659   0.05408347  0.053131417            8 
 1788000   0.53233621   -3.0953371    1156.3609  0.053894525   0.05310188            6 
 1789000   0.53591168   -3.1029788    1157.3599  0.053910935   0.05307221           33 
 1790000   0.54528966   -3.1101668    1153.1753     0.053686  0.053042596           24 
 1791000   0.53581948    -3.112902    1158.0483  0.053882763  0.053012957            9 
 1792000   0.54955137   -3.1014437    1156.0765  0.053760997  0.052983444           11 
 1793000   0.53961618   -3.1123822    1159.6398  0.053896626  0.052953962           17 
 1794000   0.52926689   -3.1062218    1157.1477   0.05375082  0.052924493            7 
 1795000   0.54592078   -3.1069979    1155.3333  0.053636643  0.052894955            6 
 1796000   0.54296821   -3.1244808    1155.4478   0.05361209  0.052865408           12 
 1797000   0.53068081   -3.1040067     1159.157  0.053754269  0.052835831           11 
 1798000   0.54143283   -3.1187135    1156.3988  0.053596532  0.052806396            7 
 1799000    0.5334629   -3.1114379    1160.1037   0.05373836  0.052776994            9 
 1800000   0.53245571   -3.1174294    1157.3192  0.053579593  0.052747653           18 
 1801000   0.53390571   -3.1279038     1154.284  0.053409402  0.052718208           15 
 1802000   0.53774124   -3.1114707    1158.2908  0.053565057  0.052688774           39 
 1803000    0.5293495   -3.1127228    1158.8071  0.053559212  0.052659466            7 
 1804000   0.53593934   -3.1244962    1156.8221  0.053437826  0.052629845           14 
 1805000     0.538766    -3.111377    1158.6937  0.053494629  0.052600359           20 
 1806000    0.5341769   -3.1237232    1157.8207  0.053424726  0.052570909           12 
 1807000   0.53701526   -3.1371114    1158.8055  0.053440578  0.052541459           25 
 1808000   0.52307802   -3.1118682    1157.5762  0.053354358  0.052512044            5 
 1809000    0.5199213   -3.1117243    1158.3847  0.053362109  0.052482648           11 
 1810000    0.5322855   -3.1174339    1158.3758  0.053332221  0.052453274           10 
 1811000    0.5299699   -3.1200224    1158.2919  0.053298907  0.052423853            7 
 1812000   0.52991724   -3.1216544    1160.3712  0.053365124  0.052394582            7 
 1813000   0.52752695   -3.1311332    1157.9496  0.053224379  0.052365162            9 
 1814000   0.53710064   -3.1216519    1159.0209  0.053244251   0.05233576            9 
 1815000    0.5323143   -3.1253166     1157.402  0.053140589  0.052306389           19 
 1816000   0.52329487   -3.1392679     1155.454  0.053021934  0.052276985           21 
 1817000   0.52848769   -3.1168115     1156.061  0.053020591  0.052247508           11 
 1818000    0.5342747   -3.1258302    1158.7342  0.053113963  0.052218118           19 
 1819000   0.52239622    -3.119934    1159.6896  0.053128532  0.052188772           11 
 1820000   0.51216057   -3.1466337    1158.6877  0.053053467   0.05215927           19 
 1821000    0.5261519    -3.156475    1157.5924  0.052974206  0.052129843            6 
 1822000   0.53515104   -3.1422512    1157.9559  0.052961757   0.05210043           13 
 1823000   0.51370541   -3.1296627    1157.3103  0.052903194  0.052071005           12 
 1824000   0.51970671   -3.1141797    1156.4035   0.05283276  0.052041573           12 
 1825000   0.52077286   -3.1510262    1157.4769  0.052852827   0.05201207           22 
 1826000   0.53809984   -3.1301822    1156.0039  0.052756658  0.051982761           10 
 1827000   0.52998766   -3.1202487    1158.7637  0.052853661  0.051953549            7 
 1828000    0.5264361   -3.1347939    1157.0368  0.052746027  0.051924196           18 
 1829000   0.52560119   -3.1209175    1161.2862  0.052910796  0.051894892           10 
 1830000   0.51979066   -3.1388371    1158.3917  0.052750076  0.051865444           21 
 1831000   0.52443831   -3.1318529    1157.9644  0.052701818  0.051836057           23 
 1832000   0.52212361   -3.1563083    1152.4897  0.052424022  0.051806404            9 
 1833000   0.51547895   -3.1301354    1155.4535  0.052530166  0.051776756           16 
 1834000   0.51895558   -3.1498409    1154.5532  0.052460615  0.051747102           31 
 1835000   0.52904915   -3.1498991    1156.7435  0.052531494  0.051717562           10 
 1836000   0.52314046   -3.1424648    1157.5947  0.052541519  0.051687934            9 
 1837000   0.52613147   -3.1439413    1159.3302  0.052591643  0.051658357            7 
 1838000   0.52718145   -3.1335712    1161.6612  0.052668717  0.051629161           13 
 1839000   0.51949775    -3.145483    1160.4452  0.052584975  0.051599977            9 
 1840000   0.51644884   -3.1360218      1158.75  0.052479618  0.051570739           26 
 1841000   0.53618788   -3.1389155    1158.3463  0.052432839  0.051541389           20 
 1842000   0.51172298   -3.1427812    1157.1078  0.052348343  0.051512203           38 
 1843000   0.52361033   -3.1425368    1158.1027  0.052364925    0.0514829           14 
 1844000   0.51110286   -3.1433762    1156.7398  0.052274939  0.051453732           10 
 1845000   0.52932409   -3.1495745    1158.4036  0.052321753  0.051424602           18 
 1846000   0.50972165     -3.15665    1161.1106  0.052415611  0.051395501            9 
 1847000   0.51410438   -3.1513184    1157.5443  0.052226326  0.051366251           21 
 1848000   0.51073636   -3.1646585    1159.0728  0.052266993  0.051336994           12 
 1849000   0.50907293   -3.1484377    1159.3119  0.052249501  0.051307827            9 
 1850000   0.52007859   -3.1678552    1156.9093  0.052113034  0.051278628           16 
 1851000   0.52700879   -3.1424011    1156.0268  0.052045147  0.051249348           31 
 1852000   0.51479679   -3.1612033    1157.7337  0.052093849  0.051220198           20 
 1853000    0.5092729   -3.1656665    1158.7341  0.052110726  0.051191008           10 
 1854000   0.52002744   -3.1381088     1157.989  0.052049128   0.05116184           12 
 1855000    0.5044824    -3.162443    1158.2138  0.052031167   0.05113275           16 
 1856000   0.51531774    -3.148701    1158.9596   0.05203662  0.051103767           12 
 1857000   0.52125455   -3.1557429    1163.7528  0.052223694  0.051074676           19 
 1858000   0.51565552    -3.159164     1156.336  0.051862934  0.051045504           10 
 1859000   0.51528469    -3.161741    1155.8965  0.051815334  0.051016321           16 
 1860000   0.50736072   -3.1474506    1158.8903  0.051921609  0.050987233           12 
 1861000   0.51616913   -3.1484679    1158.3026  0.051867393  0.050958149            9 
 1862000   0.51018492   -3.1543149    1159.9416  0.051912887  0.050929156           14 
 1863000    0.5060378   -3.1581287    1158.1746  0.051805985  0.050900065           12 
 1864000   0.50397678   -3.1549836    1159.5243  0.051838533  0.050870951            7 
 1865000   0.49963358   -3.1596148    1160.0717  0.051835197  0.050841895           10 
 1866000   0.51441837   -3.1547898    1159.4991  0.051781845  0.050812828            7 
 1867000   0.50891577   -3.1508203    1159.6849  0.051762405  0.050783841           11 
 1868000   0.51108063   -3.1560831    1157.8555  0.051653081   0.05075488           12 
 1869000   0.49927007   -3.1782422     1158.816  0.051668273  0.050725894           10 
 1870000   0.50647775   -3.1644366    1156.2028   0.05152419   0.05069674           10 
 1871000   0.51422514   -3.1766862    1160.0595  0.051668425  0.050667688           17 
 1872000   0.50006758   -3.1504921    1158.2958  0.051562312  0.050638729            8 
 1873000   0.50864307   -3.1625172    1157.2678  0.051489045  0.050609749           14 
 1874000   0.49551918   -3.1687997    1157.2758  0.051461927  0.050580669            7 
 1875000   0.50603182   -3.1566065     1158.551  0.051491156  0.050551665           18 
 1876000   0.49259963   -3.1616692    1159.1018  0.051488176  0.050522858           14 
 1877000   0.49571205   -3.1577734    1159.1432  0.051462583  0.050494117           12 
 1878000    0.5012177   -3.1618585     1161.709  0.051549033    0.0504653           10 
 1879000   0.51349045   -3.1642343     1158.672  0.051386909  0.050436494           10 
 1880000   0.49948786   -3.1684323    1158.7849  0.051364579  0.050407549           22 
 1881000   0.50704887   -3.1623694    1160.2908  0.051403988  0.050378509           24 
 1882000   0.50485034   -3.1841872    1157.0495   0.05123315  0.050349575           17 
 1883000    0.5103664   -3.1701649    1156.4972  0.051181501   0.05032059           17 
 1884000   0.50499178   -3.1718337    1162.0682  0.051400752  0.050291751           24 
 1885000   0.49499682   -3.1741301    1162.5644  0.051395421  0.050263014            9 
 1886000   0.50692171   -3.1657712    1159.9514  0.051252711  0.050234135            7 
 1887000   0.48990924   -3.1818834    1161.0101  0.051272306  0.050205309           16 
 1888000   0.49863415   -3.1705968    1163.6982  0.051363798  0.050176653           14 
 1889000   0.50661916   -3.2017557    1158.6001  0.051111705  0.050147833           11 
 1890000   0.49399805   -3.1732947    1160.5795  0.051171935  0.050119094           24 
 1891000   0.49394777   -3.1906165    1160.2606  0.051130821  0.050090393           15 
 1892000   0.49915253   -3.1921256    1158.5177   0.05102703  0.050061642           28 
 1893000   0.49571938   -3.1669152     1157.552  0.050957563  0.050032864           28 
 1894000   0.48904556   -3.1793647    1158.2582  0.050961728  0.050004203           11 
 1895000   0.49527485   -3.1877198    1159.6452  0.050995831  0.049975533           22 
 1896000   0.49115425     -3.15648    1161.5065  0.051050742  0.049946983           37 
 1897000   0.50016446   -3.1842965    1160.2397  0.050968183  0.049918594            8 
 1898000   0.49798567   -3.1854616    1161.3806  0.050991419  0.049890094           20 
 1899000   0.49632215   -3.1652688    1159.7209  0.050891737  0.049861604           28 
 1900000   0.49449111   -3.1948446    1162.5389   0.05098855  0.049833145           19 
 1901000   0.48576257   -3.1908356    1162.5485  0.050962146  0.049804637           11 
 1902000   0.49843516   -3.1819886    1160.5354  0.050847151   0.04977619           17 
 1903000   0.50082944   -3.1828596    1161.1267  0.050846328  0.049747812           12 
 1904000   0.49924735   -3.1870163    1161.1776  0.050821849  0.049719383           16 
 1905000   0.48691063   -3.1961393    1161.6918  0.050817664  0.049690842           22 
 1906000    0.4968949   -3.2027452    1160.3002  0.050730161  0.049662349           16 
 1907000   0.48361406   -3.1827685    1160.8035  0.050725549  0.049634041           13 
 1908000   0.49620676   -3.1745029    1160.7632  0.050697204  0.049605629           13 
 1909000   0.48738033   -3.1793639     1162.919  0.050764756  0.049577287            9 
 1910000   0.49120871   -3.1950894    1161.5567   0.05067874  0.049548863           51 
 1911000   0.48450381   -3.1939379    1163.9302  0.050755721  0.049520463           20 
 1912000   0.49932072   -3.1947455    1160.4439  0.050577225  0.049492132           13 
 1913000   0.48535307   -3.1908331    1157.0636  0.050403539  0.049463747           26 
 1914000   0.48345384    -3.179552    1162.1766  0.050599819  0.049435308           25 
 1915000   0.49299722   -3.1972077    1161.7769     0.050556  0.049406938           38 
 1916000   0.47759023   -3.1916126    1161.7976  0.050530514  0.049378583           17 
 1917000   0.48476786   -3.2097649    1163.1573  0.050563261  0.049350321           15 
 1918000   0.48047936   -3.1802781    1161.2198  0.050452721  0.049321975           11 
 1919000   0.47807167   -3.1766595    1159.9206  0.050370011  0.049293769           11 
 1920000   0.48207016   -3.1803394    1161.9772  0.050433038  0.049265528           16 
 1921000   0.48257836   -3.1821911    1160.2222   0.05033065  0.049237311           28 
 1922000   0.49335253   -3.2056601    1161.5116  0.050360371  0.049209085           50 
 1923000   0.48932029   -3.2135273    1159.7275  0.050256869  0.049180769           14 
 1924000   0.48365581   -3.1958557    1160.0392  0.050244247  0.049152362           24 
 1925000   0.48780954   -3.1938762    1161.4419  0.050278868  0.049124124            6 
 1926000   0.49861868   -3.2053631    1162.2801   0.05028903  0.049095926           24 
 1927000   0.48183682   -3.2045145     1164.478  0.050357983  0.049067703           10 
 1928000    0.4777173    -3.204339    1160.3971  0.050155476  0.049039437           19 
 1929000   0.48218253   -3.2089324    1159.5258  0.050091833  0.049011086            8 
 1930000   0.48266777   -3.2100004    1162.5423  0.050196125   0.04898287           24 
 1931000   0.47578512   -3.1824159    1163.2171  0.050199253  0.048954785            9 
 1932000   0.48913021   -3.2114212    1161.0732  0.050080799  0.048926902           16 
 1933000   0.47892304   -3.1906506    1161.1072  0.050056353  0.048898887           12 
 1934000   0.49526879   -3.1933101    1160.7734  0.050016089  0.048870781           14 
 1935000   0.47667118   -3.2013186    1160.7209  0.049987981  0.048842663           36 
 1936000    0.4755924   -3.1817943    1164.1773  0.050110938  0.048814706           27 
 1937000   0.47306666   -3.2070932    1160.4738  0.049925736  0.048786695           31 
 1938000   0.48137748   -3.1990765    1164.5301  0.050074393  0.048758816           14 
 1939000   0.48473761   -3.2059891    1163.2932  0.049995408  0.048730927            7 
 1940000   0.47806009   -3.2016969    1161.8802  0.049908943  0.048703124            7 
 1941000   0.48924439   -3.1976064    1164.6117  0.050000502  0.048675263           19 
 1942000   0.48315527   -3.2071461    1162.6898  0.049892285  0.048647561           24 
 1943000    0.4725109   -3.2109438    1163.9017  0.049918586  0.048619787           18 
 1944000   0.47997041   -3.2059867    1164.8394  0.049933101  0.048591938           20 
 1945000   0.47544014   -3.2117287    1164.8546  0.049908079  0.048564035           11 
 1946000   0.47703125   -3.1963806    1164.3213  0.049859596  0.048536264           16 
 1947000   0.47765831   -3.2171285    1161.6151  0.049718159  0.048508425           12 
 1948000   0.47549484    -3.214305    1162.9002  0.049747613  0.048480611           29 
 1949000   0.47575888   -3.2160061    1163.7067  0.049756572  0.048452879           13 
 1950000   0.47289063   -3.2227632    1161.6448   0.04964294  0.048425149           15 
 1951000   0.46850369   -3.2063702     1162.013  0.049633224  0.048397385           11 
 1952000   0.47401281    -3.221239    1163.6697  0.049678522  0.048369579           18 
 1953000   0.46863501   -3.2128417    1163.6324  0.049651495    0.0483417           17 
 1954000   0.47812765   -3.2264227    1163.5361  0.049621976  0.048313938           20 
 1955000   0.48157423   -3.2496621    1164.3938  0.049633155  0.048286181           27 
 1956000   0.46404374   -3.2192219    1163.5641   0.04957243  0.048258385           21 
 1957000   0.45845643   -3.2250644    1164.9711  0.049607012  0.048230666           16 
 1958000   0.47220953   -3.2249323    1162.8676  0.049492151  0.048202951           13 
 1959000   0.47153255   -3.2047212    1163.4035  0.049489683  0.048175242           11 
 1960000   0.47717863    -3.222593    1164.4176  0.049507551  0.048147666           18 
 1961000   0.46352421   -3.2051905    1166.4039  0.049566712  0.048120193           19 
 1962000   0.48278594   -3.2232054    1162.5781  0.049378956  0.048092685           38 
 1963000   0.45862056   -3.2078011    1165.1971  0.049464979  0.048065208           16 
 1964000   0.46650887   -3.2347426     1165.675  0.049460073  0.048037729           61 
 1965000    0.4751079   -3.2132737     1163.804  0.049355556  0.048010267           49 
 1966000   0.46835644   -3.2133962    1166.3942  0.049440241  0.047982799           23 
 1967000   0.48024012   -3.2199615    1164.7924  0.049347248  0.047955396           19 
 1968000   0.47659683   -3.2226968    1168.0685  0.049460895  0.047928024            9 
 1969000   0.47196601   -3.2200917    1165.2043  0.049314553  0.047900586           21 
 1970000    0.4565209   -3.2187583    1166.8249  0.049358074  0.047873206            6 
 1971000   0.47184833   -3.2311352    1167.5962  0.049365642  0.047845941           12 
 1972000   0.46908839   -3.2414227     1166.575  0.049297457   0.04781858           13 
 1973000   0.45663753   -3.2397372      1165.88  0.049243115  0.047791176           25 
 1974000   0.46518925   -3.2359266    1164.0824  0.049142284  0.047763909           16 
 1975000   0.46975782   -3.2234918    1167.8798  0.049277629  0.047736495           15 
 1976000   0.46632519     -3.22611    1162.2667  0.049015972  0.047709132           41 
 1977000   0.47123134   -3.2416192    1163.0003  0.049022099  0.047681684           29 
 1978000   0.45413466   -3.2502224    1164.8251  0.049074197  0.047654285           41 
 1979000   0.45579262   -3.2335979    1162.4516  0.048949452  0.047626887           58 
 1980000   0.47433163    -3.247007    1163.3897  0.048964214  0.047599516           77 
 1981000    0.4617077   -3.2341292    1164.5874  0.048989877  0.047572164           49 
 1982000    0.4678341   -3.2393633    1166.7729  0.049057051  0.047544887           21 
 1983000   0.46153983   -3.2284798    1168.1553  0.049090405  0.047517689           20 
 1984000    0.4711256   -3.2509698    1167.1393  0.049022988  0.047490469           33 
 1985000   0.46851772   -3.2355549    1164.0628  0.048869134  0.047463314           23 
 1986000   0.45214006   -3.2487157    1166.6008  0.048951024  0.047436097           25 
 1987000   0.45858229   -3.2532032     1167.535  0.048965567  0.047408941           13 
 1988000   0.46749939   -3.2445686    1165.3049  0.048847456  0.047381763           35 
 1989000   0.45691562   -3.2389955    1164.3937  0.048784721  0.047354657           11 
 1990000   0.44866025   -3.2336326    1165.2487  0.048796011  0.047327432           46 
 1991000    0.4614519   -3.2488291    1163.4003  0.048694135  0.047300219           30 
 1992000   0.44646612   -3.2493782    1163.6352  0.048679516   0.04727299           18 
 1993000   0.45087307   -3.2417607    1165.4941   0.04873282  0.047245714           30 
 1994000   0.46360392   -3.2581284    1165.2043  0.048696267  0.047218501           63 
 1995000   0.45302244   -3.2363238     1166.476  0.048724979  0.047191313           27 
 1996000   0.45251114    -3.242035    1164.8652  0.048633318  0.047164145           30 
 1997000   0.45989579   -3.2432388     1163.505  0.048552203  0.047137058           35 
 1998000   0.45096223   -3.2362714    1164.3725  0.048564085  0.047109973           44 
 1999000    0.4657408   -3.2465327    1166.2638  0.048618634  0.047082928           35 
 2000000   0.45399136   -3.2294318     1163.728  0.048488667  0.047055894           15 
 2001000   0.46014958    -3.258091    1168.7094  0.048671891  0.047028851           15 
 2002000   0.44894359   -3.2461711     1162.716  0.048398103   0.04700182           31 
 2003000   0.45697515   -3.2444473    1165.9533  0.048508626  0.046974756           54 
 2004000   0.46121381   -3.2495565    1163.6784   0.04838982  0.046947766           34 
 2005000   0.45022146   -3.2519558    1164.3647  0.048394211  0.046920766           19 
 2006000    0.4466845   -3.2540909     1165.398  0.048413009  0.046893773           76 
 2007000   0.44537642   -3.2445494    1168.8733  0.048533189  0.046866803           15 
 2008000   0.44965293   -3.2481601    1166.6734  0.048417719  0.046839815            9 
 2009000   0.45796441   -3.2656608    1162.6863  0.048228237  0.046812666           29 
 2010000    0.4548847   -3.2536522    1164.6752  0.048286698  0.046785524           30 
 2011000   0.45673974   -3.2767815    1166.0175  0.048318311  0.046758444           21 
 2012000   0.45320685   -3.2534136    1165.4967  0.048272728  0.046731317           25 
Loop time of 4854.13 on 48 procs for 2000000 steps with 4000 atoms

Performance: 71197.068 tau/day, 412.020 timesteps/s
99.4% CPU use with 48 MPI tasks x no OpenMP threads

MPI task timing breakdown:
Section |  min time  |  avg time  |  max time  |%varavg| %total
---------------------------------------------------------------
Pair    | 295.42     | 323.59     | 340.86     |  54.2 |  6.67
Neigh   | 32.3       | 33.679     | 35.247     |  11.6 |  0.69
Comm    | 306.8      | 324.53     | 353.57     |  64.7 |  6.69
Output  | 4.165      | 4.1668     | 4.1974     |   0.2 |  0.09
Modify  | 4113.7     | 4124.9     | 4136.9     |   9.7 | 84.98
Other   |            | 43.3       |            |       |  0.89

Nlocal:        83.3333 ave          88 max          78 min
Histogram: 2 1 4 7 5 5 5 11 2 6
Nghost:        2157.92 ave        2172 max        2141 min
Histogram: 2 0 1 12 9 5 6 4 4 5
Neighs:        14217.3 ave       15718 max       12839 min
Histogram: 1 4 6 9 10 5 3 4 3 3
FullNghs:      28434.7 ave       30289 max       26466 min
Histogram: 2 2 5 7 7 4 13 2 3 3

Total # of neighbors = 1364866
Ave neighs/atom = 341.21650
Neighbor list builds = 108743
Dangerous builds = 0

#clear
#
#next RN
#
#jump SELF
Total wall time: 1:20:57
