
units lj                  # Use reduced LJ style units
atom_style atomic         # Uncharged point particles
atom_modify map hash      # Needed for indexing of clusters etc
                          # Used to be able to find where atoms are in relation to each other.

lattice fcc 1.0 spacing 1 1 1
Lattice spacing in x,y,z = 1.5874011 1.5874011 1.5874011
region box block 0 10 0 10 0 10 units lattice
create_box 2 box
Created orthogonal box = (0.0000000 0.0000000 0.0000000) to (15.874011 15.874011 15.874011)
  3 by 4 by 4 MPI processor grid
create_atoms 1 box
Created 4000 atoms
  using lattice units in orthogonal box = (0.0000000 0.0000000 0.0000000) to (15.874011 15.874011 15.874011)
  create_atoms CPU = 0.016 seconds
set type 1 type/fraction 2 0.22 78393
Setting atom values ...
  910 settings made for type/fraction
mass 1 1.0
mass 2 1.0
pair_style lj/cut  3.5
pair_modify tail  yes
pair_coeff 1  1  1.0  1.0   # Intearaction between 1 and 1 set with epsilon = 1 and sigma = 1
pair_coeff 1  2  1.5  0.8
pair_coeff 2  2  0.5  0.88

write_data data.0
System init for write_data ...
Neighbor list info ...
  update every 1 steps, delay 10 steps, check yes
  max neighbors/atom: 2000, page size: 100000
  master list distance cutoff = 3.8
  ghost atom cutoff = 3.8
  binsize = 1.9, bins = 9 9 9
  1 neighbor lists, perpetual/occasional/extra = 1 0 0
  (1) pair lj/cut, perpetual
      attributes: half, newton on
      pair build: half/bin/atomonly/newton
      stencil: half/bin/3d
      bin: standard
WARNING: Not all mixed pair coeffs generated from mixing. Use write_data with 'pair ij' option to store all pair coeffs. (../write_data.cpp:312)


#############################
#   M E L T   S Y S T E M   #
#############################

velocity all create 2.4 2750902 mom yes dist gaussian # Assign velocities
                                                    # Temperature 2.4, random number seed, zero linear momentum
                                                                                # Gaussian distribution

timestep 0.002   # simulation timestep
thermo 1000       # output thermodynamic data every 1000 steps bf 100

# Define a fix  in this case with index 1 applied to all
# particles in the simulation. This fix is for simulations
# in the anisotropic NPT ensemble. Note that we use the MTK
# correction.
fix 1 all npt temp 2.4 2.4 0.1 iso 5.68 5.68 0.5 mtk yes tchain 5 pchain 5 # Use NPT ensemble
                                                                         # Set temperature and pressure and damping
                                                                         # Numbers of thermostats in chain and in barostat
run 10000          # run for 10000 steps
Per MPI rank memory allocation (min/avg/max) = 3.642 | 3.644 | 3.648 Mbytes
Step Temp E_pair E_mol TotEng Press Volume 
       0          2.4   -6.9213593            0   -3.3222593   -3.6990896         4000 
    1000    2.3254222   -4.9050609            0   -1.4177997    5.8306104    4365.5851 
    2000    2.3990827   -4.8586384            0    -1.260914    5.8101986    4399.2716 
    3000    2.3862287    -4.845786            0   -1.2673378    5.7577898    4408.1547 
    4000    2.4359948   -4.7844749            0   -1.1313961    5.7819036     4445.792 
    5000    2.3805326    -4.863784            0   -1.2938778    5.9674935    4373.9413 
    6000    2.3686726   -4.7764252            0   -1.2243046    5.9555048    4421.4275 
    7000    2.3532242   -4.8224447            0   -1.2934908    5.7075451    4421.1644 
    8000    2.3866407   -4.8589317            0   -1.2798656    5.5972685     4417.565 
    9000    2.4009272   -4.8543015            0   -1.2538111    5.6070575    4408.6519 
   10000    2.3538687   -4.8461852            0   -1.3162649    5.4652967    4432.6818 
Loop time of 2.32212 on 48 procs for 10000 steps with 4000 atoms

Performance: 744147.224 tau/day, 4306.408 timesteps/s
99.6% CPU use with 48 MPI tasks x no OpenMP threads

MPI task timing breakdown:
Section |  min time  |  avg time  |  max time  |%varavg| %total
---------------------------------------------------------------
Pair    | 0.98656    | 1.0493     | 1.1287     |   3.5 | 45.19
Neigh   | 0.19795    | 0.20672    | 0.22826    |   1.4 |  8.90
Comm    | 0.72695    | 0.81114    | 0.89294    |   4.3 | 34.93
Output  | 0.00024021 | 0.00024498 | 0.0003107  |   0.0 |  0.01
Modify  | 0.21342    | 0.24005    | 0.28959    |   4.7 | 10.34
Other   |            | 0.01471    |            |       |  0.63

Nlocal:        83.3333 ave          91 max          72 min
Histogram: 1 1 2 6 5 10 5 10 5 3
Nghost:        1532.21 ave        1568 max        1503 min
Histogram: 2 4 4 11 7 10 5 3 0 2
Neighs:        8602.69 ave        9630 max        7270 min
Histogram: 3 1 3 6 5 6 7 8 5 4

Total # of neighbors = 412929
Ave neighs/atom = 103.23225
Neighbor list builds = 911
Dangerous builds = 241

# Equilibrate just above the melting temperature to avoid step fn in T

fix 1 all npt temp 1.25 1.25 0.1 iso 5.68 5.68 0.5 mtk yes tchain 5 pchain 5
run 2000
Per MPI rank memory allocation (min/avg/max) = 3.643 | 3.645 | 3.649 Mbytes
Step Temp E_pair E_mol TotEng Press Volume 
   10000    2.3538687   -4.8461852            0   -1.3162649    5.4652967    4432.6818 
   11000     1.236441   -6.5824441            0   -4.7282463    5.5644645    3601.9521 
   12000    1.2548181   -6.6193163            0   -4.7375597    5.6478421     3585.416 
Loop time of 0.511134 on 48 procs for 2000 steps with 4000 atoms

Performance: 676143.690 tau/day, 3912.869 timesteps/s
99.6% CPU use with 48 MPI tasks x no OpenMP threads

MPI task timing breakdown:
Section |  min time  |  avg time  |  max time  |%varavg| %total
---------------------------------------------------------------
Pair    | 0.22713    | 0.2481     | 0.28479    |   2.3 | 48.54
Neigh   | 0.032556   | 0.034659   | 0.037846   |   0.6 |  6.78
Comm    | 0.13514    | 0.17474    | 0.20391    |   3.0 | 34.19
Output  | 5.0387e-05 | 5.1652e-05 | 6.626e-05  |   0.0 |  0.01
Modify  | 0.042611   | 0.049065   | 0.063795   |   2.2 |  9.60
Other   |            | 0.004512   |            |       |  0.88

Nlocal:        83.3333 ave          92 max          75 min
Histogram: 1 3 7 4 11 8 4 5 3 2
Nghost:        1769.04 ave        1791 max        1748 min
Histogram: 5 2 3 8 9 5 5 5 2 4
Neighs:        10673.5 ave       12141 max        9543 min
Histogram: 3 5 6 7 10 6 6 1 2 2

Total # of neighbors = 512328
Ave neighs/atom = 128.08200
Neighbor list builds = 143
Dangerous builds = 12

#############################
# L I N E A R  Q U E N C H  #
#############################

# Define solid atoms. This closely follows ten Wolde  Ruiz-Montero and Frenkel  Faraday Discuss  1996  104  93-110
# Compute components of the per-atom q6 vector
compute q6 all orientorder/atom degrees 1 6 components 6 nnn NULL cutoff 1.3 # compute the Q6 parameter.
                                                                             # Use all neighbours within 1.3 unit cell.

# get number of connections
compute coord_number all coord/atom orientorder q6 0.5

# An atom is solid if it has 8 or more connections (of a possible 14)
variable is_solid atom c_coord_number>=8
group solid dynamic all var is_solid    # Must be dynamic to update
dynamic group solid defined

# do clustering
compute cluster solid cluster/atom 1.3 # Create a cluster where all atoms within are solid and max 1.3 units from another member

# define chunks one chunk per cluster
compute clus_chunks solid chunk/atom c_cluster nchunk every compress yes  # Says which atoms are in which chunk

# count the size of each chunk
compute size_chunks solid property/chunk clus_chunks count


# Find the maximum entry in the vector of chunk sizes
variable max_n equal max(c_size_chunks)


# Thermo style which includes this variable
# thermo_style custom step temp pe vol v_max_n

thermo ${N}  # Print the thermo information every 100 steps
thermo 1000  

# Reset the npt fix at a lower temperature (below freezing)
fix 1  all npt temp  ${temp} ${temp}  0.1  iso  5.68  5.68  0.5  mtk yes tchain  5  pchain  5
fix 1  all npt temp  0.45 ${temp}  0.1  iso  5.68  5.68  0.5  mtk yes tchain  5  pchain  5
fix 1  all npt temp  0.45 0.45  0.1  iso  5.68  5.68  0.5  mtk yes tchain  5  pchain  5

dump dmp2 all dcd ${N} traj.dcd
dump dmp2 all dcd 1000 traj.dcd


compute msd all msd com yes
variable twopoint equal c_msd[4]/6/(step*dt+1.0e-6)
fix 9 all vector 10 c_msd[4]
variable fit equal slope(f_9)/6/(10*dt)
thermo_style custom step temp pe c_msd[4] v_twopoint v_fit v_max_n

fix 1 all npt temp 1.25 ${temp} 0.1 iso 5.68 5.68 0.5 mtk yes tchain 5 pchain 5
fix 1 all npt temp 1.25 0.45 0.1 iso 5.68 5.68 0.5 mtk yes tchain 5 pchain 5
run 5000000 # 5000000  # Run for this many steps
Neighbor list info ...
  update every 1 steps, delay 10 steps, check yes
  max neighbors/atom: 2000, page size: 100000
  master list distance cutoff = 3.8
  ghost atom cutoff = 3.8
  binsize = 1.9, bins = 9 9 9
  4 neighbor lists, perpetual/occasional/extra = 1 3 0
  (1) pair lj/cut, perpetual
      attributes: half, newton on
      pair build: half/bin/atomonly/newton
      stencil: half/bin/3d
      bin: standard
  (2) compute orientorder/atom, occasional
      attributes: full, newton on
      pair build: full/bin/atomonly
      stencil: full/bin/3d
      bin: standard
  (3) compute coord/atom, occasional
      attributes: full, newton on
      pair build: full/bin/atomonly
      stencil: full/bin/3d
      bin: standard
  (4) compute cluster/atom, occasional
      attributes: full, newton on
      pair build: full/bin/atomonly
      stencil: full/bin/3d
      bin: standard
Per MPI rank memory allocation (min/avg/max) = 9.778 | 9.784 | 9.791 Mbytes
Step Temp PotEng c_msd[4] v_twopoint v_fit v_max_n 
   12000    1.2548181   -6.6193163 5.3500547e-30 3.7153156e-32 8.3333333e+20            3 
   13000    1.2616877   -6.5946088   0.52637908 0.0033742247  0.042421119            2 
   14000    1.2727296   -6.6871112    1.0382098   0.00617982  0.042709167            1 
   15000      1.24023   -6.6534839     1.543604 0.0085755774  0.042719469            2 
   16000    1.2644206   -6.6249635    2.0432388  0.010641869  0.042533889            2 
   17000    1.2578352   -6.6449781    2.5433499  0.012467401  0.042039116            2 
   18000    1.2655545   -6.6038391    3.0442919  0.014093944  0.041974717            2 
   19000    1.2420744   -6.6405247    3.6202252   0.01587818  0.042355615            2 
   20000     1.280781   -6.6567029    4.0920519  0.017050216  0.042576787            2 
   21000    1.2342479   -6.5819317    4.5840164  0.018190541  0.042436607            2 
   22000    1.2458418   -6.5913068    5.0847171  0.019260292  0.042297228            2 
   23000    1.2454011   -6.6251223    5.5885806   0.02024848  0.042259464            1 
   24000    1.2365642   -6.6300723    6.1241261  0.021264326  0.042201334            2 
   25000    1.2585463   -6.6560152    6.6174061   0.02205802  0.042221304            1 
   26000    1.2290499   -6.6011683    7.1379006  0.022877886  0.042296742            2 
   27000    1.2449955   -6.6354856    7.6851554  0.023719615  0.042389549            1 
   28000    1.2328744   -6.6092632    8.2553365  0.024569453  0.042516214            1 
   29000    1.2463069   -6.6103694    8.8604109   0.02546095  0.042731735            1 
   30000    1.2334418   -6.6289625    9.4602606  0.026278501  0.043015598            2 
   31000    1.2394463   -6.5756656    10.044517  0.027001389  0.043328689            1 
   32000    1.2646857   -6.6036639    10.511375  0.027373372  0.043513946            2 
   33000     1.271315   -6.6193599    10.964465  0.027688042  0.043575091            2 
   34000    1.2351887   -6.6205843    11.468465  0.028108983  0.043599534            3 
   35000    1.2204931   -6.6584014    11.995513  0.028560744  0.043643423            1 
   36000    1.2476341   -6.6089379    12.409016  0.028724574  0.043655361            1 
   37000    1.2393158   -6.6470149    12.925591  0.029111691  0.043608429            3 
   38000    1.2255842   -6.6189309    13.622575  0.029874068  0.043598982            2 
   39000    1.2518724   -6.6238209    14.177482  0.030293764  0.043658182            2 
   40000    1.2524666    -6.625718    14.829007  0.030893765   0.04378264            1 
   41000    1.2590216    -6.663065    15.255242  0.031006589   0.04387769            1 
   42000    1.2397766    -6.622475    15.760621  0.031271074  0.043925585            2 
   43000    1.2506281   -6.6347296    16.177597  0.031351932  0.043913912            3 
   44000    1.2549137   -6.6341689    16.721028  0.031668613  0.043882546            1 
   45000    1.2592488   -6.6343292    17.292865  0.032023824   0.04386411            2 
   46000    1.2555446   -6.6523364    17.730478  0.032120431  0.043871459            2 
   47000     1.269461   -6.6362352    18.378452  0.032585907  0.043868895            4 
   48000    1.2272069   -6.6506309    18.817533  0.032669328  0.043862401            1 
   49000    1.2609978   -6.6670096     19.26343  0.032760935  0.043816139            2 
   50000     1.259564   -6.6824409    19.563826  0.032606376  0.043755979            1 
   51000    1.2564823    -6.709629    20.079333  0.032809367  0.043672996            1 
   52000    1.2539138   -6.6047886    20.570907  0.032966197  0.043576669            3 
   53000    1.2560502   -6.6247686    20.968048  0.032968629  0.043482818            1 
   54000    1.2459344   -6.6039612    21.684765  0.033464143   0.04341303            1 
   55000    1.2347307   -6.6367408    22.130376  0.033530873  0.043366909            2 
   56000    1.2491665   -6.6512262     22.69093  0.033766264  0.043318983            1 
   57000    1.2602067   -6.6031339    23.365523  0.034160122  0.043285288            2 
   58000    1.2321963   -6.6112383    23.611929  0.033925185  0.043242443            3 
   59000    1.2194454   -6.6733702    24.100424  0.034040147  0.043178553            1 
   60000    1.2023978   -6.6349576    24.735377   0.03435469  0.043133423            2 
   61000    1.2502012   -6.6310813    25.054292  0.034227174  0.043088166            1 
   62000    1.2371947   -6.6905801    25.585434  0.034389023  0.043027885            3 
   63000    1.2363954   -6.6417787    26.209496  0.034668645  0.042991805            1 
   64000    1.2491599   -6.6625896    26.710859  0.034779765  0.042959798            1 
   65000     1.235862   -6.6173281    27.203411  0.034876167  0.042930371            2 
   66000    1.2580469   -6.6420351    27.764996  0.035056813  0.042909542            1 
   67000    1.2025547   -6.6486395    28.540477  0.035498105  0.042914313            1 
   68000    1.2524283   -6.6269139    29.083315  0.035641317  0.042944732            1 
   69000    1.2621723   -6.6407792     29.83126  0.036028092  0.042995232            3 
   70000    1.2260207   -6.6613111    30.275719  0.036042522  0.043050644            1 
   71000    1.2561724     -6.64988    31.079325   0.03647808  0.043108046            3 
   72000    1.2274564   -6.6382483    31.595741  0.036569144  0.043179038            2 
   73000    1.2615528   -6.6267865    31.990893  0.036519284   0.04323513            2 
   74000    1.2390363   -6.6228667    32.460155  0.036554229  0.043285971            3 
   75000    1.2267237   -6.6578788    33.024684  0.036694093  0.043319557            3 
   76000    1.2453275   -6.6036177    33.510136   0.03674357  0.043348561            2 
   77000    1.2573417   -6.6553394    33.886372  0.036673562  0.043366971            1 
   78000    1.2233851   -6.7013317    34.365863  0.036715666  0.043384951            2 
   79000    1.2596878   -6.6264944    34.955372  0.036872755  0.043401146            2 
   80000    1.2453617   -6.6493176    35.731483  0.037220295  0.043428859            2 
   81000    1.2337534   -6.6400018     36.47045  0.037521039  0.043472922            2 
   82000    1.2332335   -6.6529297    37.001988  0.037603646  0.043521466            2 
   83000    1.2420527   -6.6495616    37.627264  0.037778378  0.043575171            1 
   84000    1.2351001   -6.6677997    38.350842   0.03804647  0.043645442            5 
   85000    1.2246676   -6.6900639    38.820515  0.038059329  0.043710418            2 
   86000    1.2421231   -6.6517024    39.585826  0.038358358   0.04377679            1 
   87000    1.2334699   -6.6954439    39.752058  0.038076684  0.043836596            5 
   88000    1.2242794   -6.6445453    40.280219  0.038144147  0.043875234            1 
   89000    1.2363027   -6.6441343    40.658991  0.038070216  0.043899603            1 
   90000    1.2451863   -6.6742704    41.188917  0.038137886  0.043922524            4 
   91000    1.2481447   -6.6353188    41.771127  0.038251947  0.043947139            1 
   92000    1.2463437   -6.6510686    42.214603  0.038237865  0.043965998            1 
   93000    1.2576854   -6.6221703    42.655989  0.038222212  0.043982476            4 
   94000    1.2468852   -6.6542005    42.953985  0.038079774  0.043987583            2 
   95000    1.2245826    -6.636275    43.553258  0.038204612  0.043983074            3 
   96000     1.219218   -6.6524148    43.928745  0.038132591  0.043975888            1 
   97000    1.2261284   -6.5694928    44.573678  0.038293538  0.043968403            1 
   98000    1.1868398   -6.6827434    44.886274    0.0381686   0.04395455            3 
   99000    1.2236913   -6.6207464       45.555  0.038345959  0.043936635            7 
  100000    1.2474749   -6.6511834    46.110155  0.038425129  0.043928261            1 
  101000    1.2592033    -6.621166    46.663336  0.038501102  0.043924558            1 
  102000    1.1997629   -6.6325315    46.755905  0.038199269  0.043912492            3 
  103000    1.2147352   -6.6576003    47.608432  0.038518149  0.043902189            1 
  104000    1.2470604   -6.6337614    48.142333  0.038575587  0.043894883            1 
  105000    1.2272123   -6.6506444     48.46756  0.038466317  0.043881123            1 
  106000    1.2400577   -6.6861357    48.759155  0.038332669  0.043860978            1 
  107000    1.2314528   -6.6647842    49.511746   0.03856055  0.043836912            2 
  108000    1.2447628   -6.6371115    49.956212   0.03854646  0.043811627            2 
  109000    1.2350569   -6.6557174    50.421246  0.038548353  0.043787123            2 
  110000    1.2311233   -6.6065846    50.901412  0.038561676  0.043762865            2 
  111000    1.2703349   -6.6501473    51.268829  0.038490112  0.043740591            1 
  112000    1.1934009   -6.6804631    51.786977  0.038531977  0.043718576            1 
  113000    1.2307171   -6.6485853     52.37899  0.038627574  0.043694227            1 
  114000    1.2324499   -6.6529345    52.987067  0.038733236  0.043677276            1 
  115000    1.2323222   -6.6605176    53.452709  0.038733847  0.043661007            2 
  116000    1.2521881    -6.615625    54.036566  0.038819372  0.043644831            2 
  117000    1.2479589   -6.6327821    54.474428   0.03879945  0.043627853            1 
  118000    1.2507598    -6.650751    54.860888  0.038743565  0.043608127            1 
  119000    1.2125703   -6.6352917    55.720858  0.039020208  0.043588228            1 
  120000    1.2195655   -6.6841856    56.071937  0.038938845  0.043575121            2 
  121000    1.2323608   -6.6880744    56.789729  0.039111383  0.043562586            2 
  122000    1.2400012   -6.6359549    57.205745  0.039074962  0.043548237            4 
  123000    1.2249868   -6.6804646    57.527422  0.038975218  0.043535015            3 
  124000    1.2132666   -6.6647306    58.139716   0.03907239  0.043524092            3 
  125000    1.2294122   -6.6555573     58.77908  0.039186053  0.043513415            3 
  126000    1.2284971   -6.6786701    59.135826  0.039110996  0.043503329            1 
  127000    1.2181239   -6.6930493    59.639989  0.039133851  0.043489466            2 
  128000    1.2352886   -6.6489346    60.145702  0.039157358  0.043474943            1 
  129000    1.2215168   -6.6682554    60.545032  0.039111778  0.043459649            2 
  130000    1.2308024    -6.636931    60.899347  0.039038043  0.043443423            2 
  131000     1.228708   -6.6655231    61.409015  0.039064259  0.043425254            3 
  132000    1.2407302   -6.6453737    61.814772  0.039024477  0.043404767            4 
  133000    1.2048242   -6.6633591    62.471549  0.039142574  0.043383467            1 
  134000    1.2254869   -6.6139181    62.938535   0.03914088  0.043359227            1 
  135000    1.2281854   -6.6828081    63.225808  0.039028277   0.04333481            1 
  136000     1.206934   -6.6736075    63.655069  0.039004331   0.04331056            4 
  137000    1.2356379   -6.6849068    64.599098  0.039293855  0.043290975            1 
  138000    1.2323846   -6.6523151    64.796312  0.039128207  0.043272624            2 
  139000    1.2172106   -6.6761382    65.401799  0.039209711  0.043253932            1 
  140000    1.2377624   -6.6615412    66.021854  0.039298723  0.043234142            1 
  141000    1.2326994   -6.6881733    66.199745  0.039125145  0.043219864            2 
  142000    1.2392943   -6.7240246    66.881117  0.039249482  0.043200982            1 
  143000    1.2361432   -6.6596408    67.503121  0.039337483  0.043188115            1 
  144000    1.2259329   -6.6782076     68.00558  0.039355081  0.043170942            2 
  145000    1.2355526   -6.6993369    68.464833  0.039347605  0.043151501            1 
  146000    1.2402676   -6.6904731    68.711347  0.039218805  0.043131704            1 
  147000    1.2121934   -6.6527778     69.57745  0.039442999  0.043110261            2 
  148000    1.2295287   -6.6739182    69.769159  0.039284436  0.043092669            2 
  149000    1.2357739   -6.7012033    70.371517  0.039357672  0.043075362            2 
  150000    1.2170244   -6.6710314    70.920669  0.039400372  0.043058379            1 
  151000    1.2576606   -6.6692113    71.294247  0.039345611  0.043043577            2 
  152000    1.2209557   -6.6757788    71.841132  0.039386585  0.043025376            1 
  153000    1.2505911   -6.6821767    72.542853  0.039511358  0.043011027            2 
  154000    1.2174389   -6.6934092    72.895321   0.03944552  0.042995789            1 
  155000    1.2272145   -6.6683437    73.395768   0.03946009  0.042979196            3 
  156000    1.2231839   -6.6534941    73.902636  0.039477904  0.042965857            1 
  157000    1.2164833   -6.6610121    73.989411  0.039272511  0.042946227            3 
  158000    1.2298861   -6.6815329    74.621343  0.039357248  0.042928584            2 
  159000    1.2096345   -6.6897876    74.892926  0.039252058  0.042906381            2 
  160000    1.2265263   -6.6836052    75.276279  0.039206395  0.042883767            1 
  161000    1.2318259   -6.6846429    75.961446  0.039317519  0.042859324            1 
  162000    1.2247651   -6.7181489     76.08339  0.039137546  0.042833218            1 
  163000    1.2213766   -6.7001841    77.005374    0.0393688  0.042811771            2 
  164000    1.2321474   -6.6997233    77.706984  0.039485256   0.04279544            1 
  165000      1.22343   -6.6619891    77.981376  0.039384533  0.042779832            1 
  166000    1.2167201   -6.7226585    78.434818  0.039374909   0.04275911            1 
  167000     1.225114   -6.6610421    78.778263  0.039310511  0.042740539            2 
  168000    1.2111502   -6.6873151    79.633833  0.039500909  0.042720764            1 
  169000    1.2088101   -6.6762104    79.756389  0.039327608  0.042701444            2 
  170000    1.1980063   -6.6793499    80.617287  0.039518278  0.042684857            2 
  171000    1.2412068   -6.6675781    80.956139  0.039452309  0.042669165            1 
  172000    1.2357241   -6.6606576    81.174885  0.039328917  0.042650621            4 
  173000    1.2207154   -6.6779074     81.88894  0.039445539  0.042628092            1 
  174000    1.2239318   -6.6533276    82.043928  0.039293069  0.042603918            2 
  175000    1.2305342   -6.6737517    82.781201  0.039419619  0.042578728            1 
  176000    1.2210709   -6.6613282    82.888424  0.039246413  0.042554914            2 
  177000    1.2298737   -6.6961249      83.2212  0.039181356  0.042529275            1 
  178000    1.2429418   -6.6700977    83.576983  0.039127801  0.042501357            5 
  179000    1.2116755   -6.6830714    83.754816     0.038992  0.042465769            1 
  180000    1.2196091   -6.6766895    83.798597  0.038795647  0.042426798            3 
  181000    1.2280246   -6.6862458    84.551093  0.038927759  0.042388266            1 
  182000    1.2413079   -6.6587436    85.531998  0.039163003   0.04235332            2 
  183000    1.2230085   -6.6923568    85.436968  0.038905723  0.042321288            2 
  184000      1.22136   -6.6785017    86.200044  0.039039875  0.042289342            2 
  185000    1.2268279    -6.679018    86.655075  0.039033818  0.042258274            2 
  186000    1.2375849   -6.6438906    87.138824  0.039040692  0.042228487            4 
  187000    1.2198907   -6.6576367    87.462419  0.038976122  0.042199987            3 
  188000    1.1943175   -6.6949348    87.857582  0.038943963   0.04217028            1 
  189000    1.2079392    -6.728285    88.315505  0.038939817  0.042140206            2 
  190000     1.231352   -6.7082171    88.463309  0.038799697  0.042109301            2 
  191000    1.2297438   -6.6672993    89.181029  0.038909698  0.042077525            1 
  192000    1.2351243   -6.6753833     89.76148  0.038958976  0.042049803            7 
  193000     1.226715   -6.6812037     90.10039   0.03890345  0.042022091            2 
  194000    1.2245905   -6.6807761    91.035937  0.039104784  0.041996531            3 
  195000    1.2068632   -6.6864807    91.960929  0.039299542    0.0419748            2 
  196000     1.239905   -6.6513752    92.200522  0.039200902   0.04195542            2 
  197000    1.2009405   -6.6922892    92.463375  0.039113103  0.041932017            2 
  198000     1.196031   -6.6764599     92.90933  0.039103253  0.041908096            3 
  199000     1.233774   -6.7104087     93.51044  0.039158475  0.041883679            1 
  200000     1.229625   -6.7228551    93.214368   0.03883932  0.041857902            1 
  201000    1.2525779   -6.6501645    93.965542  0.038957521  0.041829846            1 
  202000    1.2312633   -6.7043733     94.17038  0.038849167  0.041800661            1 
  203000    1.1989208   -6.6708445    94.232582  0.038683326  0.041770059            2 
  204000     1.215248   -6.6638684    94.942403  0.038783661  0.041736345            2 
  205000    1.2188076   -6.6718091    95.347264   0.03875905  0.041703609            1 
  206000    1.2179946   -6.6698882    96.026481  0.038845664  0.041671599            2 
  207000    1.2423635   -6.6758489    96.503491  0.038850037  0.041641678            2 
  208000    1.2060716   -6.7248347    96.507274  0.038664773   0.04161103            1 
  209000    1.2154861    -6.700153    97.125261  0.038726181  0.041578531            2 
  210000    1.2229162   -6.6869213     97.43344  0.038664063  0.041547631            3 
  211000      1.20787   -6.6949065    98.353842  0.038844329  0.041520195            2 
  212000    1.2139724   -6.6858539    98.670781  0.038785684  0.041493397            2 
  213000    1.2327767   -6.6779659    99.254851  0.038832101  0.041467766            5 
  214000    1.2143224   -6.6967737    99.668966  0.038811903  0.041441493            2 
  215000    1.2070731   -6.6884086    100.41441  0.038920313  0.041417165            1 
  216000    1.2072787   -6.6995056    100.51124  0.038777484   0.04139225            1 
  217000    1.1994525   -6.6803282    100.99607  0.038784972  0.041365294            1 
  218000     1.184388   -6.7194924    101.41145  0.038765845  0.041339581            2 
  219000     1.234703    -6.692581    102.07085  0.038839747  0.041314981            2 
  220000    1.2257569   -6.6873254    102.20823  0.038715237   0.04128931            1 
  221000    1.2264912   -6.6732942    102.64611  0.038705168  0.041261593            1 
  222000    1.2043978    -6.676246    102.58885  0.038509326  0.041234784            1 
  223000    1.2161664   -6.6846343     103.5275  0.038687408  0.041208617            1 
  224000    1.2350495   -6.6632117    103.73354  0.038591345  0.041181375            2 
  225000    1.2126566   -6.6807203    104.51354   0.03870872  0.041154889            2 
  226000    1.2208252   -6.6801736    104.96889  0.038705342    0.0411283            1 
  227000    1.2180634   -6.7160358    104.72195  0.038444183  0.041099786            2 
  228000    1.2274477   -6.6985288    105.45811   0.03854463  0.041069245            2 
  229000    1.1879317   -6.7025487    105.58254  0.038421593  0.041042851            1 
  230000    1.2367152   -6.6954198    106.50364  0.038588275   0.04101524            3 
  231000    1.2034556   -6.6981952    107.32655  0.038718091  0.040991816            2 
  232000    1.2369073   -6.6881875    107.68537  0.038680091  0.040969464            2 
  233000     1.225628   -6.6502931    108.15339  0.038681469  0.040949164            2 
  234000    1.2250838   -6.7271312    109.03018  0.038828413  0.040928928            1 
  235000    1.1953215   -6.7340946    109.55768  0.038850243  0.040912873            2 
  236000    1.2210663   -6.7352904    109.87521  0.038797742  0.040897629            2 
  237000    1.2279291   -6.7051837    110.81001  0.038962733  0.040880783            3 
  238000    1.2230032   -6.7529848    110.42055  0.038662657  0.040863595            1 
  239000    1.2152743   -6.7143217    111.23815  0.038785966   0.04084681            2 
  240000    1.2028168   -6.7233549     111.5233  0.038723369  0.040828562            3 
  241000     1.214281   -6.7518264     111.8378   0.03867144  0.040809177            2 
  242000     1.202997   -6.7146532    112.46856  0.038728844  0.040791035            2 
  243000    1.2185585   -6.7113648    113.22915  0.038830299  0.040773707            2 
  244000    1.2172313   -6.7382384    113.60736  0.038800328  0.040758537            1 
  245000    1.2294982   -6.7042979    113.83868  0.038720638   0.04074087            3 
  246000    1.1968906   -6.6878257    114.56498  0.038809276  0.040724965            4 
  247000    1.2279522   -6.6807586    115.25086  0.038883556  0.040708646            3 
  248000    1.2146682    -6.684096     115.7916  0.038908469    0.0406944            3 
  249000    1.2015397   -6.6892588    116.09934  0.038855201  0.040680178            1 
  250000    1.2048024   -6.6811431    116.80374  0.038934581  0.040667151            4 
  251000    1.2077216   -6.7341567    117.24305  0.038925316  0.040655431            1 
  252000    1.1910914   -6.7074229    117.23616  0.038768572  0.040642658            2 
  253000    1.2203928   -6.7421592    117.67561  0.038760083  0.040628796            2 
  254000    1.2376227   -6.7235917    117.97239  0.038704852  0.040613416            2 
  255000    1.2284615   -6.6771762    118.52954  0.038735142  0.040597774            3 
  256000    1.2364249    -6.701176    118.92559  0.038712756  0.040581894            2 
  257000    1.2236507   -6.7292095     119.4169  0.038721433  0.040567087            3 
  258000    1.2249575   -6.6852428    120.52764  0.038930115  0.040553571            2 
  259000     1.221124   -6.7019417    120.61608  0.038808263   0.04054006            2 
  260000    1.2257413   -6.7329808    120.84904  0.038733667  0.040526142            2 
  261000    1.2326667   -6.7240399     121.2579  0.038715803  0.040511847            2 
  262000    1.2144011   -6.7162908    121.55194   0.03866156  0.040497935            1 
  263000    1.2194868   -6.6548215    122.14695   0.03870309  0.040483336            3 
  264000     1.195025   -6.7055645    122.37905  0.038629752  0.040467344            1 
  265000    1.2100657   -6.7012746    122.88443  0.038642903  0.040451399            2 
  266000     1.235254   -6.7238953     123.0381  0.038545769  0.040435498            1 
  267000    1.2049482   -6.7100231    123.85052  0.038654968  0.040418562            1 
  268000    1.1800023   -6.6750371    124.77871   0.03879935  0.040401074            3 
  269000    1.2150637   -6.6984831    124.42953  0.038546943  0.040383568            2 
  270000    1.2279125   -6.7025146    124.72487  0.038495329  0.040365715            1 
  271000    1.2034421   -6.7277779    125.39371  0.038558952  0.040347647            1 
  272000    1.2048194   -6.7174246    125.83817   0.03855336  0.040328439            2 
  273000    1.1991863   -6.7248808    125.64632  0.038353576  0.040309743            2 
  274000    1.2468616    -6.659018    126.74018  0.038546283  0.040291079            1 
  275000    1.2084055   -6.7000187    126.77279  0.038415997  0.040271242            3 
  276000     1.211573   -6.7234901    126.78646  0.038280936  0.040250157            3 
  277000    1.1976608   -6.6771108    127.93319  0.038487723  0.040229339            3 
  278000    1.2073948   -6.7371963    128.09597  0.038398073  0.040209382            2 
  279000    1.2274718   -6.7178635    128.45127  0.038366567  0.040189855            2 
  280000    1.2068171   -6.7653311    128.44957  0.038229038  0.040170297            1 
  281000    1.2008617   -6.6599662    129.68783  0.038460212  0.040150465            1 
  282000    1.2008557   -6.6982207    130.12362  0.038452606  0.040133132            1 
  283000    1.2073768   -6.6856192    130.23952   0.03835086  0.040117573            2 
  284000    1.1882893   -6.7276606    131.15105  0.038483288  0.040102541            1 
  285000      1.19332   -6.7052103    131.44424  0.038433988   0.04008671            2 
  286000     1.206987   -6.7136416    131.83431  0.038413261  0.040070437            3 
  287000    1.1833154   -6.6965927    132.08403  0.038351925  0.040053894            5 
  288000     1.224295   -6.7380353    132.54592  0.038352407  0.040036645            4 
  289000    1.1795847   -6.7288642     133.3216  0.038443368  0.040020352            2 
  290000    1.2320863   -6.6702957     133.6884  0.038416208  0.040004976            4 
  291000    1.1957229   -6.7594696    133.57796  0.038252565  0.039988332            2 
  292000    1.2225086   -6.7020824    134.98457  0.038522994  0.039972214            2 
  293000    1.2170003   -6.7229065     135.1608  0.038441639  0.039956751            1 
  294000    1.2082049   -6.7091398    135.45273  0.038393631  0.039940715            2 
  295000    1.1642084   -6.6886902    136.23975  0.038485804   0.03992557            2 
  296000    1.1982198   -6.7573879    136.24675  0.038357757  0.039910433            2 
  297000    1.2185922   -6.7699443    136.30695  0.038245496    0.0398934            4 
  298000    1.1981967   -6.6983847    136.81767  0.038259975   0.03987686            2 
  299000    1.1997146   -6.7335845    137.45841  0.038310594  0.039860716            3 
  300000    1.1958915    -6.698177      138.019  0.038338612  0.039845857            2 
  301000    1.1961003    -6.715652    138.13646   0.03824376  0.039829933            1 
  302000    1.2181011   -6.6676703    139.12798  0.038390723  0.039814507            2 
  303000    1.1992081   -6.7348829     139.7657  0.038439412  0.039800651            2 
  304000    1.1903166   -6.7224024    140.27792  0.038453378  0.039787037            2 
  305000    1.1976064    -6.729713    140.33361  0.038342517  0.039773058            2 
  306000    1.1934912   -6.7504357    141.15104  0.038439827  0.039759195            1 
  307000     1.216137   -6.7268882    141.08719  0.038297284  0.039745148            1 
  308000    1.1835994   -6.6942155    142.00188  0.038420423  0.039731296            3 
  309000    1.2200044   -6.7034022    142.14365  0.038334318   0.03971673            1 
  310000    1.2250189    -6.705492    142.66137   0.03834983  0.039703169            1 
  311000    1.1804804   -6.6568108    143.51209  0.038454473  0.039689864            2 
  312000    1.1780043   -6.6773109    143.46807  0.038319464  0.039675596            2 
  313000     1.206564    -6.674546    143.36233  0.038168885  0.039661402            1 
  314000    1.1873549   -6.7483099    143.74464  0.038148789  0.039645985            2 
  315000    1.2010371    -6.713945    144.00541   0.03809667  0.039629033            3 
  316000    1.1822043   -6.7171883    144.22732  0.038034631  0.039612074            3 
  317000      1.19531   -6.7366258    144.80493  0.038066492  0.039593924            1 
  318000    1.2279111   -6.6938961    145.97481  0.038253357   0.03957672            2 
  319000    1.2027633   -6.7072762    145.62216  0.038041316  0.039559744            1 
  320000    1.1710098   -6.7346805    146.41406  0.038128661  0.039543945            2 
  321000    1.1995772   -6.7541963    147.25689  0.038228683  0.039528486            3 
  322000     1.195817   -6.7486418    147.94275  0.038287461  0.039514237            1 
  323000    1.1959158    -6.751483     148.6015   0.03833888  0.039502741            2 
  324000    1.1942855   -6.7287103    148.47134  0.038187072  0.039491245            1 
  325000    1.1967613   -6.6926248    149.45424  0.038321599  0.039478815            1 
  326000    1.1926598   -6.7400644    149.41582  0.038194229  0.039466691            2 
  327000    1.2016542   -6.7016654    149.93447    0.0382096  0.039454769            1 
  328000    1.1822783   -6.7266448    150.66109  0.038277715  0.039443813            1 
  329000    1.1871322   -6.7478364    151.11502  0.038276348  0.039432853            1 
  330000    1.2043014   -6.7331637    151.10415  0.038157615  0.039421067            3 
  331000    1.1992574   -6.6952758    152.17528  0.038312003  0.039410457            1 
  332000    1.2032862   -6.6960236    152.98861  0.038400754  0.039400572            1 
  333000    1.1989157   -6.7509395    152.43251  0.038146275  0.039389326            4 
  334000    1.1761001   -6.6868758    153.71808  0.038352814  0.039378163            2 
  335000    1.2202903   -6.7119274    153.29603   0.03813334  0.039367207            3 
  336000    1.1897679   -6.7608233    153.41658  0.038049747  0.039354319            3 
  337000    1.1759966    -6.726386    154.82124  0.038284183  0.039341999            1 
  338000    1.2136425   -6.7539514    154.81654  0.038169759  0.039330953            3 
  339000    1.1920046   -6.7052432    155.32608  0.038182418  0.039319472            1 
  340000    1.1869986   -6.7621073     155.7771  0.038180662  0.039306922            1 
  341000    1.1900115   -6.7113731    156.47936  0.038240314  0.039294425            1 
  342000    1.1912312   -6.7212052    156.44078  0.038119099  0.039282515            2 
  343000    1.1808992   -6.7424951     157.1149  0.038171745  0.039270983            1 
  344000    1.2000738   -6.7420438    157.45405  0.038142939   0.03925957            2 
  345000    1.2039695   -6.7677863    157.72977  0.038098978  0.039248305            2 
  346000    1.2022378   -6.7188881     158.5681  0.038190775  0.039235879            1 
  347000    1.2012669   -6.7671815    158.39864   0.03804002  0.039222486            2 
  348000    1.2213163   -6.7330025    158.56117  0.037969629  0.039209626            1 
  349000    1.2002208   -6.7578113    159.52915  0.038091966   0.03919692            3 
  350000    1.1703137       -6.739    160.10413   0.03812003  0.039184935            6 
  351000    1.1756706   -6.7358604    160.40777  0.038083516   0.03917277            1 
  352000    1.2224934   -6.7721223     160.3854  0.037970028   0.03916077            1 
  353000    1.1730274   -6.7220307    161.23191  0.038062301  0.039149488            2 
  354000    1.1991071    -6.730798    162.12096  0.038164068  0.039139456            1 
  355000    1.2102467   -6.7210969    162.05043  0.038040007  0.039128769            1 
  356000    1.1673086   -6.7686657    162.85013  0.038120349  0.039118023            2 
  357000     1.204076   -6.7236702    163.04991  0.038060202  0.039109199            2 
  358000    1.1785322   -6.7507417     164.0443  0.038185359  0.039101194            3 
  359000    1.2313529   -6.7515457    164.05091  0.038080526  0.039091255            3 
  360000    1.2109134   -6.7718875    164.26179  0.038023563  0.039080559            4 
  361000    1.2225445   -6.7378711    165.09412   0.03811037   0.03907071            2 
  362000    1.1665137   -6.7319375    165.92512   0.03819639  0.039061391            2 
  363000    1.1891001   -6.7390178    166.12676  0.038137457  0.039052094            1 
  364000    1.1922297   -6.7544182    166.11084  0.038029038  0.039042276            4 
  365000    1.2152861   -6.7392351    166.92323  0.038110327  0.039033572            1 
  366000    1.2040853   -6.7548549    168.02504  0.038257066  0.039025452            2 
  367000    1.1707683   -6.7336919    168.88649   0.03834843  0.039018999            3 
  368000    1.1969754   -6.7345655    169.35609  0.038350564   0.03901333            1 
  369000    1.2098174   -6.7234734    169.43161  0.038263689  0.039006842            3 
  370000    1.1950729   -6.7466457    169.86338  0.038257518  0.039000824            3 
  371000    1.1790736   -6.7663259    170.28857  0.038249903  0.038994671            1 
  372000    1.1874956   -6.7397395    170.99737  0.038305863  0.038988819            4 
  373000    1.2154388   -6.7241296     171.3537  0.038282775  0.038982326            3 
  374000    1.1684259   -6.7581601    171.06205  0.038115429  0.038975389            2 
  375000    1.2144784   -6.7408966    171.65918  0.038146484  0.038967688            1 
  376000    1.1957347   -6.7529766    172.55175  0.038242852  0.038960055            1 
  377000    1.1726757   -6.7460267    172.81914  0.038200517  0.038952406            2 
  378000    1.2155569    -6.728334    173.18028  0.038179073  0.038945955            3 
  379000    1.1957515   -6.7468392    173.89688  0.038235901  0.038939171            2 
  380000    1.1782285   -6.7424781    174.56465  0.038281722  0.038933184            1 
  381000    1.1919452    -6.750797    174.94434   0.03826429  0.038927168            3 
  382000    1.1569225   -6.7694682    175.28993  0.038239512  0.038921312            2 
  383000    1.2196844   -6.7483788    175.84338  0.038260091  0.038915059            3 
  384000    1.1829568   -6.7440846    175.59813  0.038107233  0.038909136            1 
  385000    1.1932737   -6.7284041    176.80923  0.038270397  0.038902268            1 
  386000    1.2072477   -6.7271716    176.58211  0.038122216  0.038895436            2 
  387000    1.1962042   -6.7745461    176.61949   0.03803176  0.038887691            2 
  388000    1.1891981   -6.7679533     177.0954  0.038035954  0.038879143            2 
  389000    1.1972755   -6.7714935    178.43847  0.038225893  0.038872157            2 
  390000    1.1973386   -6.7539818    178.25697  0.038089097  0.038865017            4 
  391000    1.1835686   -6.7759247    178.22103  0.037984022  0.038857804            2 
  392000     1.159901   -6.7201946    179.24171  0.038104105  0.038849893            2 
  393000    1.2127953   -6.7240741    179.89398  0.038145457  0.038843288            2 
  394000    1.1752923   -6.7511894    180.41375  0.038158576  0.038836562            2 
  395000    1.1869925   -6.7551879    180.58268  0.038097612  0.038830161            2 
  396000    1.2006183   -6.7624162    180.58841  0.038002612   0.03882348            1 
  397000    1.1982986   -6.7461367    181.46489  0.038090866  0.038815961            3 
  398000    1.2030918   -6.7464329    181.84914  0.038075615  0.038808889            1 
  399000    1.1851437   -6.7464448    181.75683  0.037960909  0.038801692            1 
  400000    1.2043067   -6.7070051    182.95134  0.038114862  0.038794646            1 
  401000    1.1906832   -6.7245826    183.66853  0.038168854  0.038788559            3 
  402000    1.1945868    -6.753883    183.88641  0.038119072  0.038783006            2 
  403000    1.1602693   -6.7803248    183.63101  0.037971672  0.038778207            1 
  404000    1.1995868   -6.7571393     185.1413  0.038189211  0.038772828            2 
  405000    1.2030997   -6.7493201    185.80915  0.038232335  0.038768023            2 
  406000    1.1890346   -6.7952365    185.56719  0.038088504  0.038761935            1 
  407000    1.1736813   -6.7591861    185.95725  0.038074784  0.038754445            2 
  408000    1.2092883   -6.7278212    186.59424   0.03811157   0.03874743            2 
  409000     1.200693   -6.7617196    186.71117   0.03804221  0.038740794            2 
  410000    1.1756515   -6.7167438    187.64006  0.038138223  0.038734705            1 
  411000    1.1823939   -6.7098023    188.10905  0.038140521  0.038729044            1 
  412000    1.1934345   -6.7572099    188.74975  0.038177539  0.038724371            1 
  413000    1.1900172   -6.7088165    189.29914  0.038195952  0.038720068            2 
  414000    1.1923955   -6.7361363    189.87806  0.038220222  0.038715636            3 
  415000    1.2017483   -6.7467779     189.9076  0.038134056  0.038711667            1 
  416000    1.1674065   -6.7269451    190.76655  0.038214453  0.038706541            2 
  417000    1.1876318   -6.7470482    190.60672   0.03809087   0.03870168            1 
  418000    1.1953979   -6.7239372     191.2232  0.038122647  0.038696382            1 
  419000    1.1816654   -6.7151933    191.76189    0.0381388  0.038691365            2 
  420000    1.2138327   -6.7768644    191.75051  0.038045736  0.038685817            1 
  421000    1.1558085   -6.7468788    192.15756  0.038035939  0.038679712            2 
  422000    1.1710039   -6.7834021    192.71391   0.03805567   0.03867294            2 
  423000    1.1716159   -6.7605938    192.48444  0.037920497  0.038666554            2 
  424000    1.1802114   -6.7326659     194.2038  0.038168986  0.038660634            2 
  425000    1.1907007   -6.7598613    194.03345  0.038045775  0.038655725            3 
  426000    1.1816693   -6.7424404    194.55101   0.03805771  0.038650774            2 
  427000    1.1975498   -6.7556744    194.95489  0.038047402  0.038645677            4 
  428000    1.1761516   -6.7312633    195.42104  0.038049269  0.038638986            2 
  429000    1.2056398   -6.7847863    194.65808   0.03781237  0.038632309            3 
  430000    1.1833183   -6.7636757    196.46666  0.038074934  0.038625929            1 
  431000    1.1865279   -6.7440866    196.56544  0.038005692  0.038620001            1 
  432000    1.1737043   -6.7421168    197.45503   0.03808932  0.038614112            4 
  433000    1.1850276   -6.7458415    197.70074  0.038048642  0.038609507            4 
  434000    1.1780917   -6.7433599    198.56354   0.03812664  0.038605342            2 
  435000    1.1884898   -6.7640816    198.95739  0.038114443  0.038600388            2 
  436000    1.1841055    -6.730109    199.61011   0.03815178  0.038596597            3 
  437000    1.1891334    -6.753746    199.72123  0.038085666  0.038593403            2 
  438000     1.188184    -6.759122     200.0453   0.03806037  0.038589116            1 
  439000     1.213101    -6.789488    200.42852  0.038046416   0.03858426            1 
  440000    1.1909556   -6.7553021    200.75638  0.038022041  0.038579757            1 
  441000    1.2042807   -6.7576381    201.59226  0.038093775  0.038575406            3 
  442000    1.1828416   -6.7697091     202.0087  0.038086104  0.038569797            2 
  443000    1.1913265   -6.7072473    202.82244  0.038153206  0.038564908            2 
  444000     1.191635   -6.8052096    202.86231  0.038074758  0.038560774            2 
  445000    1.1730061   -6.7769035     203.7974  0.038164307  0.038556604            2 
  446000     1.169092   -6.7618927    203.07249   0.03794329  0.038551418            4 
  447000    1.1514528    -6.743215      204.426  0.038110738  0.038546717            2 
  448000    1.2054105   -6.7925481    203.37831  0.037830787  0.038541361            3 
  449000    1.1629523   -6.7357129    204.69352   0.03799063  0.038535016            2 
  450000    1.1607509   -6.7392779    205.04847  0.037971938  0.038528221            3 
  451000    1.1796428   -6.7666537    205.56248  0.037982721  0.038521506            1 
  452000    1.1908219    -6.779504    205.27474  0.037845637  0.038515031            2 
  453000    1.1881765   -6.7586445    206.25915  0.037943184   0.03850842            2 
  454000    1.1715537   -6.7613562    207.24633   0.03804081  0.038501822            1 
  455000    1.1719939   -6.8142141    206.36315  0.037795448  0.038495502            1 
  456000    1.1954783   -6.7441082    207.73775   0.03796377  0.038489815            2 
  457000    1.1850754   -6.7678619    208.60617  0.038039054  0.038485408            3 
  458000    1.1779292   -6.7580321    208.62096   0.03795869  0.038480958            2 
  459000    1.1636722   -6.7521603     208.8531  0.037918137  0.038476587            1 
  460000    1.1696545   -6.7487889    209.84325  0.038015081  0.038472019            2 
  461000    1.1803416   -6.7789957    210.52643  0.038056115  0.038467037            2 
  462000    1.2033938   -6.7552528    210.36778  0.037945126  0.038462437            3 
  463000    1.1579554   -6.7802196    210.83205  0.037946733   0.03845792            2 
  464000    1.1512884   -6.7653587    211.46357  0.037978371  0.038454017            6 
  465000    1.1671173   -6.7483334    212.62304  0.038104487  0.038450111            1 
  466000    1.1933781    -6.767435    213.24488   0.03813392  0.038446217            1 
  467000     1.186595   -6.7607449    212.98666  0.038006185  0.038442365            2 
  468000    1.1591762   -6.7986849     213.0614  0.037938284  0.038439003            2 
  469000    1.1810811   -6.7943227    214.14742  0.038050359  0.038435155            3 
  470000    1.1896398   -6.7195589    214.95497  0.038112584  0.038432009            1 
  471000    1.1981769   -6.8070216    214.20587  0.037899128   0.03842766            2 
  472000    1.1608845   -6.7726067    215.44123   0.03803694  0.038423252            2 
  473000    1.1549603   -6.8090473    215.89047  0.038035672  0.038420047            1 
  474000    1.1754772   -6.7758255     216.6701  0.038092493  0.038416785            1 
  475000    1.1693118   -6.7546814    217.04655  0.038078342  0.038414583            2 
  476000    1.1416379   -6.7738009    217.49631  0.038077084  0.038410807            1 
  477000    1.2019524   -6.7477717    217.88813  0.038065711   0.03840734            1 
  478000    1.1902363   -6.7567868    218.33154  0.038063379   0.03840394            8 
  479000    1.1495547   -6.7480219    217.99884  0.037926034  0.038399896            3 
  480000     1.162824   -6.7197485    219.34505  0.038080737  0.038396354            2 
  481000    1.1727837   -6.8000729    218.71881  0.037893072  0.038392964            3 
  482000    1.1844052   -6.8016382    219.95022  0.038027355  0.038390005            1 
  483000    1.2023448   -6.7513634    221.19596  0.038163555  0.038387854            2 
  484000    1.1810982   -6.7471814    221.99139  0.038221658  0.038386039            1 
  485000    1.1999051   -6.7434543    222.46337  0.038223946  0.038384224            2 
  486000    1.1439352   -6.7609128    221.87445  0.038044316  0.038381952            2 
  487000    1.1902899   -6.7568668    223.08393  0.038173157  0.038379901            2 
  488000    1.1584368   -6.7714729    223.62419  0.038187191  0.038378126            1 
  489000    1.1827472   -6.7542757    223.97761  0.038169327  0.038376172            1 
  490000    1.1756465   -6.7770115    223.99953  0.038095158  0.038374106            5 
  491000    1.1443319   -6.8048087    224.96418  0.038181293  0.038372603            1 
  492000    1.1933051   -6.7818053    224.63295  0.038047587  0.038371116            2 
  493000    1.1781652   -6.7497422    225.75179  0.038159531  0.038369883            1 
  494000    1.1416618   -6.7730834    226.79543  0.038258338   0.03836848            1 
  495000    1.1978802    -6.758136    226.51394   0.03813366  0.038367107            1 
  496000    1.1717654   -6.7738994    226.53366  0.038060092  0.038364617            2 
  497000    1.1805271   -6.7699231    227.17734  0.038091438  0.038362097            2 
  498000    1.1666683   -6.8048435    226.97002  0.037980258  0.038359555            1 
  499000    1.1799352   -6.7708441    227.68379  0.038023346  0.038357068            1 
  500000    1.1786411    -6.785405    229.10542  0.038184236  0.038354594            1 
  501000    1.1977901    -6.781992    228.36499  0.037984862  0.038351674            2 
  502000    1.1881535   -6.8180632    229.98984  0.038178925  0.038349059            1 
  503000     1.157915   -6.7940782    229.51377   0.03802415  0.038346191            1 
  504000    1.1704156   -6.7874078    229.96482  0.038023284  0.038343342            1 
  505000    1.1827862   -6.7440753    230.75996  0.038079202  0.038340607            1 
  506000    1.1698932   -6.7703013    231.07256  0.038055428  0.038338976            2 
  507000    1.1635288   -6.7639427    232.43034  0.038203541  0.038336625            1 
  508000    1.2046945   -6.7755473    232.34881  0.038114962   0.03833463            4 
  509000    1.1527833   -6.8038294    232.70412  0.038098251  0.038332399            4 
  510000    1.1855446   -6.8264589    232.57389  0.038002269    0.0383303            3 
  511000    1.1537213   -6.7940464    234.45513  0.038234693  0.038328059            1 
  512000    1.1717062   -6.7614098    234.04343  0.038093006  0.038325822            3 
  513000    1.1556327   -6.7706668    234.94729  0.038165577  0.038323989            2 
  514000    1.1795838   -6.7278544    235.40789     0.038166  0.038322432            3 
  515000    1.1613191   -6.7834446    235.88782   0.03816955  0.038321117            1 
  516000    1.1618103   -6.7502632    236.79094   0.03824143  0.038319596            2 
  517000    1.1564373   -6.7543847    236.30954  0.038089868  0.038318674            3 
  518000     1.115318   -6.7611052    237.04944  0.038135367  0.038318053            3 
  519000    1.1556944   -6.8013255    236.87386  0.038033696  0.038317437            2 
  520000    1.1547614   -6.7756266    238.32079  0.038192435   0.03831688            2 
  521000    1.1661747   -6.7939932    238.89349  0.038210731  0.038316166            2 
  522000    1.1672089   -6.7757248    239.75561  0.038275161   0.03831616            2 
  523000    1.1663574   -6.7848601    239.61924  0.038180249  0.038315856            1 
  524000    1.1791728   -6.8214898    239.44622   0.03807987  0.038314864            3 
  525000    1.1804811   -6.8333831    239.69537  0.038046884  0.038313069            1 
  526000    1.1850819    -6.783137    241.24045  0.038219336  0.038311557            2 
  527000    1.1780106   -6.7376406    241.44874  0.038179751  0.038310369            2 
  528000    1.1569116   -6.8093568    240.76456  0.037999457  0.038309048            2 
  529000    1.1629052   -6.8253904    241.48419  0.038040988  0.038306891            2 
  530000    1.1592877   -6.7802044    242.14327  0.038072842  0.038304801            1 
  531000    1.1778164   -6.8029283    241.96187  0.037972673  0.038301976            2 
  532000    1.1713906   -6.7739775    242.28215  0.037951464  0.038298911            2 
  533000    1.1916091   -6.7903649    242.12853  0.037856243  0.038295412            3 
  534000    1.1578776   -6.8083264    243.44163  0.037990267  0.038292012            2 
  535000     1.173762    -6.791717    243.41624  0.037915302  0.038289174            3 
  536000    1.1754366   -6.7638656    244.08554  0.037948622  0.038286642            2 
  537000    1.1564379   -6.7934495    244.39227  0.037925553  0.038283053            6 
  538000    1.1821139   -6.7932672    244.82034  0.037921365  0.038279721            1 
  539000    1.1700227   -6.7508427    246.66175  0.038135707  0.038276558            2 
  540000    1.1240572   -6.7557285    245.89554  0.037946842  0.038272997            2 
  541000    1.1594219   -6.7800699    246.18965  0.037922004  0.038269791            2 
  542000    1.1561713   -6.7979624    246.01622  0.037825372   0.03826588            2 
  543000    1.1758763   -6.7885226    247.59622  0.037998192  0.038262304            3 
  544000     1.178884   -6.7621315    247.90346  0.037975407  0.038258765            2 
  545000     1.171965   -6.7897803    247.60739  0.037860458  0.038255242            1 
  546000    1.1424642   -6.7944775    247.65656   0.03779862  0.038250549            2 
  547000    1.1742056   -6.8307872    247.67056  0.037731652  0.038245737            1 
  548000    1.1845824     -6.82031    247.95917  0.037706687  0.038240752            2 
  549000     1.153144   -6.8477285    248.36287  0.037699282  0.038235566            2 
  550000    1.1865282   -6.7968872    248.78456   0.03769463   0.03823025            2 
  551000    1.1593156   -6.7977003    249.69029  0.037763202  0.038225176            3 
  552000    1.1711145   -6.7666205    250.23557  0.037777109  0.038220163            2 
  553000     1.171757   -6.8110647    251.47611  0.037895736  0.038215864            1 
  554000    1.1548447   -6.8222266    250.91325  0.037742668  0.038211823            2 
  555000    1.1618974   -6.7437669    252.35335  0.037890893  0.038207449            1 
  556000    1.1689117   -6.7752242    251.79269  0.037738713  0.038202437            3 
  557000     1.145482   -6.7607699     252.8005  0.037821738  0.038197638            1 
  558000     1.162492   -6.8218541    252.32604  0.037683101  0.038192479            2 
  559000    1.1583599   -6.8240308     252.9352  0.037706499  0.038187462            1 
  560000    1.1923234   -6.8049191    252.33229  0.037549448  0.038182046            2 
  561000    1.1424896   -6.7827945    253.68915  0.037684069  0.038176653            3 
  562000    1.1743898   -6.7833701    254.68262  0.037764327  0.038172289            1 
  563000    1.1913306   -6.7925693    255.29845  0.037788402  0.038167869            1 
  564000    1.1476338   -6.8139468    254.90034   0.03766258  0.038163672            4 
  565000    1.1501057   -6.7757193    255.74236  0.037720112  0.038159037            1 
  566000    1.1714847   -6.8062505    255.92709  0.037680667  0.038154715            2 
  567000    1.1782254   -6.7990388    256.62649  0.037717003  0.038149955            4 
  568000    1.1608626   -6.7737579    257.30999  0.037750879   0.03814506            2 
  569000    1.1560161   -6.7840242    258.12394  0.037803741  0.038140767            2 
  570000    1.1593755     -6.80244    257.91345  0.037706644   0.03813689            2 
  571000    1.1739485   -6.8061621    258.31667  0.037699456  0.038132916            2 
  572000    1.1689361   -6.7906096    258.60009  0.037674838  0.038128444            2 
  573000    1.1654344   -6.7951874    259.26915  0.037706391  0.038124343            1 
  574000    1.1771699    -6.812229     260.6259  0.037837674  0.038119876            3 
  575000    1.1476735   -6.7914954    260.25327  0.037717865  0.038115489            1 
  576000    1.1835604   -6.8006482    260.04407  0.037622116  0.038110687            1 
  577000    1.1545845   -6.8032339    260.57822  0.037634059  0.038105669            1 
  578000    1.1501598   -6.7803948    260.95846  0.037623769   0.03810081            1 
  579000      1.14131   -6.7688159    261.78266  0.037677412  0.038095391            1 
  580000    1.1567731   -6.7738034    262.13987  0.037663774  0.038090699            2 
  581000    1.1674439   -6.7837774    261.65802  0.037529837  0.038085395            2 
  582000    1.1473344   -6.8187848    261.79578  0.037485077  0.038079424            2 
  583000    1.1470727   -6.7878279     263.3657  0.037645183  0.038073656            2 
  584000    1.1380598   -6.7937623    263.72198  0.037631561  0.038067535            2 
  585000    1.1765205    -6.823879     262.5905  0.037406054  0.038061473            2 
  586000    1.1438855    -6.821773     264.0083  0.037543842  0.038054962            1 
  587000    1.1729642   -6.8080871    263.94263   0.03747056  0.038048161            2 
  588000    1.1461003   -6.8077988     264.1879  0.037441596  0.038041452            4 
  589000    1.1507817    -6.838368    264.06973  0.037361309  0.038035129            1 
  590000    1.1364729   -6.8261676    264.85415  0.037408778  0.038028812            5 
  591000    1.1606415   -6.7771493    266.09748  0.037520795  0.038022317            5 
  592000    1.1698657   -6.7804167    266.71052  0.037543711  0.038016238            2 
  593000    1.1572068   -6.7967906    266.96978  0.037516832  0.038010213            2 
  594000    1.1460822   -6.8011418    267.02986  0.037462102  0.038004326            2 
  595000     1.144227   -6.8311852    266.17251  0.037279063  0.037997727            2 
  596000    1.1320014   -6.8080039    267.22525  0.037363709  0.037991208            3 
  597000    1.1647362   -6.8009252     268.5062  0.037479927  0.037984807            1 
  598000    1.1346383   -6.8492773    266.68914  0.037164038  0.037977721            2 
  599000     1.142884   -6.7900774    268.86546  0.037404766  0.037970622            2 
  600000    1.1568034    -6.808345    268.31677  0.037266218  0.037964085            2 
  601000    1.1382715   -6.8285982    268.54488  0.037235841  0.037956715            1 
  602000      1.15253   -6.7558123    270.50874  0.037445839  0.037949511            2 
  603000    1.1283507   -6.7849625    270.48765  0.037380826  0.037942748            2 
  604000    1.1290965   -6.8174695    271.40972  0.037446154  0.037936067            3 
  605000    1.1611101    -6.856057    270.65536  0.037280353  0.037929457            3 
  606000    1.1599162   -6.8226971    271.26469  0.037302624  0.037922457            1 
  607000    1.1533175   -6.8070866    272.25994  0.037377806  0.037915413            5 
  608000    1.1413157   -6.8075001    272.46718  0.037344734   0.03790837            1 
  609000    1.1215037   -6.8276761    273.10842  0.037371157  0.037900853            2 
  610000    1.1387565   -6.8018723    273.21153  0.037323979  0.037893558            4 
  611000    1.1356241   -6.7862498     273.1391  0.037253014  0.037886864            2 
  612000    1.1625895   -6.8318912    273.40594  0.037228478  0.037879717            2 
  613000    1.1497442   -6.8265043    273.62514  0.037197545  0.037872698            1 
  614000    1.1606777   -6.7916848    274.63224  0.037273648  0.037865901            1 
  615000    1.1604045   -6.8020622    275.84262  0.037377049  0.037859141            4 
  616000     1.159457   -6.8194322    274.96153  0.037197177  0.037852232            5 
  617000    1.1424107   -6.8232251    275.62661  0.037226716  0.037844656            1 
  618000    1.1332309   -6.7994744    275.73697  0.037181361  0.037837123            1 
  619000    1.1246682   -6.7724825    276.93951  0.037283187  0.037830335            1 
  620000    1.1630231     -6.83059     276.4484  0.037157043  0.037823788            1 
  621000    1.1596435   -6.8205291    277.81073  0.037280023  0.037817252            1 
  622000    1.1353775   -6.8184156     278.6029  0.037326219  0.037810442            5 
  623000    1.1303082   -6.8120574    278.35338   0.03723293  0.037804235            3 
  624000    1.1833878   -6.8031062     279.1505  0.037279715   0.03779762            2 
  625000    1.1616235   -6.7991074    279.25086  0.037233448  0.037791542            3 
  626000    1.1593081   -6.8288966    279.15713  0.037161493    0.0377853            3 
  627000    1.1496379   -6.8285904    280.54366  0.037286505  0.037779275            2 
  628000    1.1798744   -6.8355185    280.94996  0.037281046  0.037773188            2 
  629000    1.1515669   -6.8049415    280.88728  0.037213471  0.037767025            3 
  630000    1.1432171   -6.8071508    281.59607  0.037248158  0.037760654            1 
  631000    1.1385904   -6.8259496    281.89977  0.037229235   0.03775448            2 
  632000    1.1446998    -6.850666    283.34713  0.037361172  0.037748029            2 
  633000    1.1434245   -6.8355082    282.48495  0.037188646  0.037741764            5 
  634000    1.1411651      -6.8098    283.28672  0.037235373  0.037735986            1 
  635000    1.1789488   -6.8336828    283.62653   0.03722133  0.037729834            2 
  636000    1.1447691   -6.8170094    283.91573  0.037200698  0.037723684            2 
  637000    1.1597504   -6.8197097    283.71755  0.037116372   0.03771718            2 
  638000    1.1495176   -6.8548885    284.49519  0.037159769  0.037710571            1 
  639000     1.146224   -6.8222319    285.39371  0.037218794  0.037704191            2 
  640000    1.1623966   -6.8450395    285.35241  0.037155261  0.037698487            1 
  641000    1.1763557   -6.8198565    285.97705  0.037178504   0.03769216            6 
  642000    1.1456003   -6.8223401    286.54552  0.037194383  0.037686107            2 
  643000    1.1241296   -6.8242336    286.88384  0.037180383  0.037679798            3 
  644000    1.1748408   -6.7927073    287.14799  0.037156831  0.037673787            2 
  645000    1.1563236   -6.8264132    286.81019   0.03705558  0.037667515            1 
  646000    1.1436586   -6.8183213    288.40443  0.037203874  0.037661295            2 
  647000    1.1535843   -6.8238892    288.15123  0.037113759  0.037654771            2 
  648000    1.1546065   -6.8149437    288.78844  0.037138431  0.037648348            1 
  649000    1.1734634   -6.8379848    288.93668  0.037100242  0.037641685            4 
  650000     1.151676   -6.8577997    288.96069  0.037046242  0.037634861            3 
  651000    1.1343736   -6.8315736    289.83316  0.037101019  0.037628116            3 
  652000    1.1344843   -6.8540128    289.19203  0.036962172  0.037620802            2 
  653000    1.1472694   -6.8233973    290.47023  0.037068687  0.037613661            1 
  654000    1.1699443   -6.8514145    290.55142  0.037022352  0.037606634            3 
  655000    1.1432479   -6.7967659    291.51347  0.037088228  0.037599791            1 
  656000    1.1535573   -6.8478648     290.9284  0.036957368  0.037592299            3 
  657000    1.1568231   -6.8193025    291.66661   0.03699475  0.037584545            1 
  658000    1.1489433   -6.7820917    291.59467  0.036929416  0.037577195            3 
  659000    1.1217438   -6.8532253    292.77723  0.037022917  0.037570062            3 
  660000    1.1370188   -6.8027944    293.44839  0.037051565  0.037563316            2 
  661000     1.149628   -6.8201423    293.52643  0.037005349  0.037556213            2 
  662000    1.1597927   -6.8507113    293.59366  0.036957913  0.037549279            2 
  663000    1.1604219   -6.8358348    293.85086  0.036934497  0.037542088            1 
  664000    1.1661353   -6.8345486    295.59806   0.03709815  0.037536016            2 
  665000    1.1487161   -6.8231517    295.97666  0.037089806  0.037530058            1 
  666000    1.1501115   -6.8517774    297.33314  0.037203847  0.037523988            1 
  667000    1.1251694   -6.8393412    296.29853  0.037018807  0.037517329            2 
  668000    1.1275568   -6.8440351    297.21801  0.037078095  0.037510754            3 
  669000    1.1650724   -6.8449856    296.40607  0.036921534  0.037504443            1 
  670000    1.1360464   -6.8320109     296.8788  0.036925224  0.037497989            1 
  671000    1.1444858   -6.8884543    296.93406  0.036877056  0.037491211            2 
  672000    1.1281677   -6.8561745    298.02656  0.036957658  0.037484349            3 
  673000    1.1285226   -6.8333292    299.16322   0.03704349   0.03747768            1 
  674000    1.1530223   -6.8543048    297.65171  0.036801645  0.037471248            1 
  675000     1.168138    -6.851218    299.52024  0.036977807   0.03746457            1 
  676000    1.1297255   -6.8115758    301.13539  0.037122213  0.037458254            1 
  677000    1.1324993   -6.8196727    301.82388  0.037152128  0.037452051            2 
  678000    1.1348178   -6.8515128    300.62852  0.036950408  0.037445885            1 
  679000    1.1333405   -6.8728136    301.83473  0.037044026  0.037439777            2 
  680000    1.1388142   -6.8493801    301.92963   0.03700118  0.037433683            4 
  681000    1.1338345   -6.8206369    302.24886   0.03698591  0.037427412            1 
  682000    1.1648592   -6.8190744     302.2789  0.036935349  0.037420885            3 
  683000    1.1535647   -6.8585725    302.52632  0.036911459  0.037414293            3 
  684000    1.1468726   -6.8031041    302.72707  0.036881953  0.037407842            2 
  685000     1.128437   -6.8066364    303.31371  0.036899479  0.037401315            1 
  686000    1.1268034    -6.846234    303.74547  0.036898138  0.037394994            3 
  687000    1.1233965   -6.8083432    304.78648  0.036970703  0.037389191            1 
  688000    1.1498097    -6.850676      304.964  0.036938469  0.037383379            1 
  689000    1.1254839   -6.8839918    305.13104   0.03690506   0.03737755            1 
  690000    1.1631119   -6.8075111    305.71463  0.036922056  0.037371577            4 
  691000     1.146009   -6.8252784     306.1745  0.036924084  0.037365481            2 
  692000    1.1582203   -6.8412584    305.59402  0.036800821  0.037359095            3 
  693000    1.1649841    -6.852147    306.25661  0.036827394  0.037352151            1 
  694000    1.1539167   -6.8253683    306.71724   0.03682964  0.037345482            1 
  695000    1.1511485   -6.8705132    306.22841  0.036718035  0.037338241            2 
  696000    1.1525264   -6.8566393    306.81768  0.036735834  0.037331238            2 
  697000    1.1440374   -6.8345218    306.37541   0.03663025   0.03732423            3 
  698000    1.1296411   -6.8242307    307.62803  0.036727319  0.037317196            2 
  699000    1.1200641   -6.8349557    308.14716  0.036736667  0.037309928            3 
  700000    1.1215016   -6.8271219    307.94343  0.036659932  0.037302581            3 
  701000    1.1430881    -6.872132     309.5184  0.036794864  0.037295244            3 
  702000    1.1007478   -6.8543049    308.83362  0.036661161  0.037287951            3 
  703000    1.1076241   -6.8366702    308.00617  0.036510926  0.037279969            1 
  704000    1.1581717   -6.8320209    309.03934  0.036581361  0.037271807            5 
  705000    1.1085012   -6.8543043    309.52138  0.036586451  0.037263285            5 
  706000    1.1174739   -6.7689154    311.37084  0.036752932  0.037254918            2 
  707000     1.152001   -6.8551625    309.62578   0.03649526  0.037246494            1 
  708000    1.1319183   -6.8981162    309.43606  0.036421382  0.037237556            4 
  709000    1.1287681   -6.8670994    311.52857  0.036615957  0.037228545            2 
  710000    1.1172288   -6.8806112    311.06353  0.036509804  0.037219897            1 
  711000    1.1390863   -6.8551803    312.05098  0.036574189  0.037211702            1 
  712000    1.1345635   -6.8900671    311.88934  0.036503902   0.03720347            3 
  713000    1.1206763   -6.8397997    312.87677  0.036568112  0.037195363            1 
  714000    1.1564694    -6.838877    313.14599  0.036548319  0.037187591            1 
  715000    1.1265389   -6.8698239    312.50353  0.036422323  0.037179169            3 
  716000    1.1514105   -6.8562466    313.85124   0.03652831  0.037170502            2 
  717000    1.1484377    -6.883843     312.3026  0.036297373  0.037162494            1 
  718000    1.1152009   -6.7931092    315.34093  0.036599458   0.03715438            2 
  719000    1.1425238    -6.825999    314.33451  0.036431909  0.037146089            2 
  720000    1.1528557    -6.852977    314.51864  0.036402621  0.037137728            4 
  721000    1.1296148   -6.8460967    315.81486  0.036501949  0.037129266            4 
  722000    1.1446679   -6.8397102    315.71072  0.036439372  0.037121274            2 
  723000    1.1464501   -6.8650111    317.01889  0.036539753   0.03711308            3 
  724000    1.1390491   -6.8541189     316.5384  0.036433978  0.037105125            2 
  725000    1.1014876   -6.8644039    317.50595  0.036494937    0.0370966            1 
  726000    1.1485627   -6.8718584    317.73144  0.036470551  0.037088291            1 
  727000    1.1252425   -6.8649138    316.85045    0.0363194  0.037079458            2 
  728000    1.1497215   -6.8486558     318.1203   0.03641487  0.037070836            1 
  729000    1.1509243   -6.8002644    317.51784   0.03629605  0.037062357            2 
  730000    1.1363206    -6.872883    318.32391  0.036338346  0.037053724            2 
  731000    1.1321083    -6.834916    320.13987  0.036495653  0.037045229            3 
  732000    1.1188297   -6.8806864    319.13191  0.036331047  0.037036601            1 
  733000    1.1439629   -6.8322242    320.35805  0.036420879  0.037027953            2 
  734000    1.1456691   -6.8494291    320.95069  0.036438543  0.037020027            2 
  735000    1.1297304   -6.8392178    321.00378  0.036394987  0.037012524            2 
  736000    1.1123456   -6.8329539     321.9413  0.036451687  0.037004738            1 
  737000    1.1376475   -6.8752535    321.49862  0.036352173  0.036997098            2 
  738000    1.1165686   -6.8903579    322.60266  0.036427581  0.036988878            4 
  739000    1.1267171   -6.8523225    323.67727  0.036499466  0.036981175            2 
  740000    1.1235302   -6.8466325    324.19723  0.036508697  0.036973826            1 
  741000    1.1341576   -6.8844335    322.94925  0.036319079  0.036966564            4 
  742000    1.1511497   -6.8697939    324.32514  0.036424657  0.036958911            1 
  743000    1.1136394   -6.8238819    325.14965  0.036468107  0.036951491            3 
  744000    1.1367745    -6.833327    325.00695  0.036403109  0.036943864            3 
  745000    1.1343907    -6.854928    325.49549  0.036408892  0.036936662            1 
  746000    1.1270889   -6.8838223     325.3422  0.036342962  0.036929114            2 
  747000    1.1056963   -6.8927129    325.14146  0.036271916   0.03692132            1 
  748000      1.10933   -6.8646203    327.60847   0.03649827  0.036914038            3 
  749000    1.1164391    -6.860759    326.89714  0.036370399  0.036906876            1 
  750000    1.1215735    -6.835078    326.84252  0.036315836  0.036899742            1 
  751000    1.1325944   -6.8331533    328.99847  0.036506709  0.036892703            2 
  752000     1.111686   -6.8610518      327.919  0.036338542  0.036885399            2 
  753000    1.1323213   -6.8581229    328.60908  0.036366654  0.036877898            1 
  754000    1.1378136   -6.8731511    328.87211  0.036347492   0.03687015            2 
  755000    1.1342061   -6.9187645    329.43316  0.036361276   0.03686312            2 
  756000    1.1104836   -6.8690547    330.70177  0.036453017  0.036855585            2 
  757000    1.1338096   -6.8387764    329.74323  0.036299343  0.036848207            3 
  758000    1.1296916   -6.8360457    331.50714  0.036445376  0.036841198            2 
  759000    1.1451397   -6.8597018    330.83937  0.036324042  0.036834345            2 
  760000    1.1500705    -6.830831    331.61486  0.036361279  0.036827747            2 
  761000    1.1090321   -6.8895329    332.57812  0.036418979  0.036821229            4 
  762000    1.1484046   -6.8692561    333.51027  0.036473127  0.036815094            2 
  763000    1.1308598   -6.8522644    334.24312  0.036505365  0.036808486            3 
  764000    1.1394839   -6.8259394     334.1113  0.036443204  0.036802108            3 
  765000    1.1390179   -6.8492227    334.43662  0.036431004  0.036795649            1 
  766000    1.1361963   -6.8239962    334.78456  0.036421296  0.036789034            2 
  767000    1.1347406   -6.8872396    335.68837  0.036472009  0.036782831            3 
  768000    1.1175615   -6.9032308    335.19205  0.036370665  0.036776727            5 
  769000    1.1428435   -6.8443129    336.57812  0.036473572  0.036770832            2 
  770000     1.125585   -6.8877756    336.06869  0.036371071  0.036765029            2 
  771000    1.1311142   -6.8589708    336.54944  0.036375858  0.036759152            1 
  772000    1.1325492   -6.8296312    337.62017  0.036444319  0.036753752            2 
  773000    1.1154452   -6.8464947    338.05483  0.036444031  0.036747638            1 
  774000    1.1082484   -6.8925603     337.3909  0.036325463  0.036741573            2 
  775000    1.0996551   -6.8800239    338.35275  0.036382016  0.036735018            1 
  776000    1.1027103   -6.8527864     337.2056  0.036211942  0.036728494            3 
  777000    1.1086724   -6.8726172    337.31744  0.036177332  0.036721652            1 
  778000    1.1276995   -6.9176181    337.27837  0.036126646  0.036714615            1 
  779000    1.1104904   -6.9099887    339.04871  0.036269652  0.036707832            2 
  780000    1.1251556   -6.9021076    339.24784  0.036244427   0.03670134            1 
  781000    1.1237817   -6.8467723    340.44197  0.036325435  0.036694757            2 
  782000    1.1280058   -6.8501948    341.23998  0.036364021  0.036688162            3 
  783000    1.1318382   -6.8770579     341.1385  0.036306779  0.036681433            2 
  784000    1.1046962   -6.9015945    340.15561  0.036155996  0.036674345            1 
  785000     1.106827   -6.8676109    340.78728  0.036176993  0.036667459            3 
  786000    1.1205848   -6.8385672    342.44135  0.036306335    0.0366604            2 
  787000    1.1325435   -6.9095787    342.02441  0.036216054  0.036653721            3 
  788000    1.1355117   -6.9205903     341.5023  0.036114879  0.036647056            2 
  789000    1.1314705   -6.8950638    342.67997   0.03619349  0.036640455            1 
  790000     1.133344   -6.8361626    343.61407   0.03624621  0.036633643            1 
  791000    1.1322553   -6.8756645    343.15323  0.036151836  0.036626687            2 
  792000    1.1226301   -6.9177501    343.16723  0.036107663  0.036619291            5 
  793000    1.1295317   -6.8435953    343.94882  0.036144264  0.036612385            2 
  794000     1.130639   -6.8853548     344.7237  0.036180069  0.036605198            1 
  795000    1.1214375   -6.9034724    343.47562  0.036003734   0.03659766            2 
  796000    1.1256564   -6.8557045    343.61111  0.035972687  0.036590273            2 
  797000    1.1347486   -6.8764188    344.93545  0.036066024  0.036582774            2 
  798000    1.1225804   -6.8403512    344.98955  0.036026478  0.036574828            1 
  799000    1.0929019   -6.8853461    345.42563   0.03602687  0.036566936            4 
  800000    1.1102857   -6.8831956    346.12805  0.036055005  0.036559085            1 
  801000    1.1305626   -6.8485967    346.98123  0.036098755  0.036551558            2 
  802000    1.1259621   -6.8974223    346.00675  0.035952489  0.036543951            4 
  803000    1.1188293   -6.8699802    347.23681  0.036035368  0.036536677            2 
  804000    1.1339753   -6.8914069    348.12219  0.036082317    0.0365291            3 
  805000    1.1213003   -6.9029918    348.67204  0.036094414  0.036521967            2 
  806000    1.1196977   -6.8934634    349.00711  0.036084276  0.036514584            2 
  807000    1.1334036   -6.8659032    350.14302  0.036156858  0.036507402            2 
  808000    1.1072159   -6.9068824    349.00916  0.035995169  0.036500066            4 
  809000    1.1131744   -6.9016245    349.80647  0.036032804  0.036492658            2 
  810000    1.1301917   -6.8644462    349.14637  0.035920408  0.036485347            2 
  811000    1.1239968   -6.8687939    350.68236  0.036033945  0.036478246            6 
  812000    1.1059484   -6.8789628    351.28665  0.036051586  0.036470742            1 
  813000    1.1480652   -6.8748118    352.05438  0.036085935  0.036463766            1 
  814000    1.1528514   -6.8915172    352.09796  0.036046065  0.036456518            3 
  815000    1.1104562   -6.8533056    352.06327   0.03599829  0.036449056            1 
  816000     1.103791    -6.849269    352.49142  0.035997898  0.036442104            4 
  817000    1.1161068   -6.8784929    351.42486  0.035845049  0.036435084            3 
  818000    1.1175977   -6.8953899    351.75411  0.035834771  0.036427452            2 
  819000    1.1195794   -6.8766067    352.96252  0.035913973  0.036419684            3 
  820000    1.1240566   -6.8765823    353.43965  0.035918663  0.036412418            1 
  821000    1.1097573   -6.8468143    354.18164  0.035950228  0.036405019            3 
  822000    1.1238506   -6.8571862    354.64503   0.03595347  0.036397478            1 
  823000    1.1149213   -6.8643965    354.99116  0.035944832  0.036389952            5 
  824000    1.1383736   -6.8627495    355.14428  0.035916695  0.036382476            2 
  825000    1.1001166   -6.8700161    355.08549  0.035867222  0.036374787            3 
  826000    1.1002705   -6.9098472    356.45255  0.035961718   0.03636749            2 
  827000     1.123571   -6.8645173    355.97379  0.035869991  0.036360294            3 
  828000      1.12236   -6.8958181    356.19097  0.035848527  0.036353533            1 
  829000     1.081398   -6.9217902    356.87117   0.03587366  0.036346195            2 
  830000    1.1258573   -6.9141192    356.02578   0.03574556    0.0363387            3 
  831000     1.113715   -6.8840204    357.85803  0.035886284   0.03633145            1 
  832000    1.0908909   -6.8820759    358.74863  0.035932355  0.036324076            2 
  833000    1.1066152   -6.8863718    358.43245  0.035857588  0.036316706            1 
  834000    1.1043341   -6.8866486    358.17932  0.035789301  0.036309381            3 
  835000    1.1378755   -6.9094061    358.33261  0.035761737  0.036301805            3 
  836000    1.1379275   -6.9467173    359.19123  0.035804548  0.036294721            2 
  837000    1.1318742   -6.9079961     359.5141  0.035793917  0.036287324            1 
  838000    1.1215041   -6.8507599    359.49483  0.035749287  0.036280054            2 
  839000     1.096816   -6.8467178    360.82403    0.0358387  0.036272599            2 
  840000    1.1145225   -6.8695961     361.1667   0.03583003   0.03626531            1 
  841000    1.1375404   -6.9236225    360.35953  0.035707444  0.036257957            5 
  842000    1.1153931   -6.8887185    361.92892   0.03582036  0.036250338            3 
  843000    1.1218663   -6.8773002    361.48017  0.035733508   0.03624241            2 
  844000    1.1164622   -6.8735079    362.47411  0.035789308  0.036234714            2 
  845000     1.125584   -6.9142279    361.07429  0.035608904  0.036226772            3 
  846000    1.1029236   -6.8685347    362.41888  0.035699259  0.036219084            1 
  847000    1.1268261   -6.9278208    363.17125  0.035731134  0.036211387            3 
  848000    1.1290625   -6.8891878    364.14902  0.035785085  0.036203732            1 
  849000    1.1061131   -6.9116076    364.45451   0.03577292  0.036196529            2 
  850000    1.1267205   -6.9071794    365.67918    0.0358509  0.036189466            2 
  851000    1.1123637   -6.8441866    367.30567  0.035968044  0.036182856            6 
  852000    1.1298285    -6.829213    368.24233  0.036017443  0.036176092            1 
  853000    1.1142719   -6.9108536    366.73983  0.035828432  0.036169669            2 
  854000    1.1082119   -6.8656118    366.33538  0.035747012  0.036162872            2 
  855000    1.1252825   -6.8560187    368.14911  0.035881979  0.036156417            1 
  856000    1.1171861   -6.9342574    366.50539  0.035680042  0.036149452            1 
  857000    1.1331446   -6.8958549    367.13652  0.035699779  0.036142433            9 
  858000    1.1077613   -6.8775352    367.72448  0.035715276  0.036135128            2 
  859000    1.1042585   -6.8669723    367.91348  0.035692034  0.036128012            1 
  860000    1.1113301   -6.9328822    367.44229  0.035604873  0.036120786            2 
  861000    1.1325032   -6.8858817    368.65821  0.035681205   0.03611365            2 
  862000    1.1119234    -6.912697     368.3688  0.035611833  0.036106343            3 
  863000    1.1423013   -6.8729498    369.61218  0.035690631  0.036098837            3 
  864000    1.0990154   -6.8833181    368.71613  0.035562899  0.036091121            2 
  865000    1.0871787   -6.9156677    369.06151  0.035555058  0.036083032            1 
  866000    1.1141729   -6.8983303    369.13374  0.035520952  0.036074966            2 
  867000    1.1264376   -6.9048476    369.02335  0.035469372  0.036067175            2 
  868000    1.1247046    -6.857983    371.15175  0.035632849  0.036059613            2 
  869000    1.1214185   -6.8836747    371.14544  0.035591239  0.036052043            2 
  870000    1.1178501     -6.89234     370.3639  0.035475469  0.036044385            3 
  871000    1.1184414   -6.8563722    372.52684   0.03564168  0.036037154            2 
  872000      1.09969   -6.8564995    373.69124  0.035712083  0.036030117            1 
  873000    1.1467556   -6.9044553    371.85043  0.035495459  0.036022871            2 
  874000    1.0851438   -6.9266069     373.9969  0.035659506   0.03601554            2 
  875000    1.0988114   -6.9360415    374.04825  0.035623643  0.036008275            4 
  876000    1.1077879   -6.9232026    375.10266  0.035683282  0.036001126            2 
  877000    1.0864368   -6.9216213    374.63659  0.035598307  0.035993945            1 
  878000    1.1088978    -6.918488    374.62831  0.035556977  0.035986762            2 
  879000     1.095137   -6.8910542    375.27649  0.035577976  0.035979763            2 
  880000    1.1209389   -6.9060818    375.47729  0.035556562  0.035972643            4 
  881000    1.1349673   -6.9144558    376.76059  0.035637589  0.035965483            1 
  882000    1.1010295   -6.8993697    377.18059  0.035636866  0.035958778            1 
  883000    1.1309595    -6.887356    376.12991  0.035497349  0.035951738            1 
  884000     1.102215    -6.912961    377.84706  0.035619066  0.035944921            3 
  885000     1.125871   -6.9095591     378.7183  0.035660856  0.035938186            4 
  886000    1.1126699   -6.9309316    376.53719  0.035415462  0.035931183            2 
  887000    1.1057075    -6.931548    378.25979  0.035537372  0.035924073            2 
  888000    1.1179828   -6.9136261    377.38409  0.035415173  0.035917582            5 
  889000    1.0904901   -6.9242179    378.38054  0.035468742  0.035910552            3 
  890000    1.0930644   -6.8947891    379.98542  0.035579159  0.035903628            2 
  891000    1.1127329   -6.9190042    380.04223  0.035544541   0.03589671            2 
  892000    1.1199466   -6.9247297    379.60905  0.035464223  0.035890131            2 
  893000    1.1140973   -6.8910898    379.96672  0.035457887  0.035883509            1 
  894000    1.0980942   -6.9118327    379.54731   0.03537913  0.035877126            4 
  895000     1.118327   -6.9120107    380.44839    0.0354235  0.035870306            1 
  896000    1.1164521   -6.9081811    382.23187   0.03554984   0.03586342            3 
  897000    1.0825331    -6.866356    382.99429  0.035581038  0.035856696            2 
  898000    1.1087361   -6.9006881    381.13066  0.035368472  0.035849774            4 
  899000    1.1223433   -6.9294623    382.73414  0.035477766  0.035842728            1 
  900000    1.1112331   -6.9493857    383.29711  0.035490473  0.035835369            1 
  901000    1.1197503   -6.9246705    383.54031  0.035473576  0.035828358            2 
  902000    1.0946279   -6.8910462    384.15471  0.035491012  0.035821412            3 
  903000    1.1191329   -6.9124765    383.94238  0.035432113  0.035814567            3 
  904000    1.1103044   -6.9254389    385.03905  0.035494013  0.035807927            1 
  905000    1.1081856    -6.878942    385.51931  0.035499015  0.035801249            3 
  906000    1.0855837   -6.9167713    385.52593  0.035460442  0.035794659            2 
  907000    1.1188652   -6.9384428    384.68069  0.035343687  0.035787646            4 
  908000    1.1064778   -6.9079919     387.8073  0.035591712  0.035780843            2 
  909000    1.1097495   -6.9009994    386.05679  0.035392078  0.035774042            4 
  910000     1.133555   -6.9170037      387.528  0.035487912  0.035767377            2 
  911000     1.113667    -6.869758    387.91097  0.035483989  0.035760873            1 
  912000    1.0965091   -6.8965638    387.29453  0.035388755  0.035754518            4 
  913000    1.1081101    -6.913337    387.39179  0.035358871  0.035747759            2 
  914000    1.1385591    -6.933332    386.95764  0.035280601  0.035740992            2 
  915000    1.1176723   -6.9500185    388.15662   0.03535124  0.035734459            2 
  916000    1.0935005   -6.9151366    388.85715  0.035376379  0.035727705            2 
  917000    1.1031858    -6.909197    390.03275  0.035444633    0.0357209            5 
  918000     1.102906   -6.9305425    390.10642   0.03541271  0.035714285            3 
  919000    1.0971681   -6.9020111    391.71706  0.035520226  0.035707776            4 
  920000    1.0952503   -6.9520128    388.78384  0.035215928   0.03570096            2 
  921000    1.1113821   -6.9383988     391.5486  0.035427851  0.035694223            2 
  922000     1.116125   -6.8835574    391.41728  0.035377556  0.035687561            3 
  923000    1.0958494   -6.9047257    392.03836  0.035395302  0.035681436            3 
  924000    1.1035396   -6.9529265    393.77902  0.035513981  0.035675153            2 
  925000    1.1006734   -6.8899089    394.01471   0.03549682  0.035669047            1 
  926000    1.0945962   -6.9300778    395.40198  0.035583331  0.035663102            2 
  927000     1.128871   -6.9017049    394.32149  0.035447815  0.035657088            4 
  928000    1.0821291   -6.8889295    394.04087  0.035384417  0.035650911            3 
  929000    1.1106065   -6.9078215    394.88583  0.035422123   0.03564466            2 
  930000    1.1062384    -6.881039    395.99555  0.035483472  0.035638351            1 
  931000    1.0704613   -6.9329912    395.63753  0.035413313  0.035632289            2 
  932000    1.0870566    -6.881321    395.54044  0.035366635  0.035625823            2 
  933000    1.1220094   -6.9832418    395.19177  0.035297586  0.035619343            2 
  934000    1.1071314     -6.92287    397.09147  0.035429289  0.035612909            1 
  935000    1.1142122   -6.8917135    397.24411  0.035405001  0.035606888            3 
  936000    1.1034639   -6.9186128    397.07101  0.035351764  0.035600692            2 
  937000    1.0994071    -6.942297    396.22475  0.035238771  0.035594306            3 
  938000     1.145249   -6.9218498    399.11956  0.035458383  0.035588378            3 
  939000    1.1123848   -6.9740245    397.53129  0.035279668  0.035582289            1 
  940000    1.1230418   -6.9354781    398.64337  0.035340724  0.035575949            2 
  941000    1.0971924    -6.925589    398.59472  0.035298859  0.035569651            3 
  942000    1.0880064   -6.9321157    398.45251  0.035248807  0.035563391            2 
  943000    1.1048953   -6.9395969    398.36974  0.035204112  0.035556963            2 
  944000    1.0943447   -6.9652256    399.16048  0.035236624  0.035550504            2 
  945000    1.0688691   -6.9210655    401.26587  0.035384998  0.035544243            2 
  946000    1.0832436   -6.8841713    401.83591  0.035397807  0.035538069            2 
  947000    1.1208801   -6.9289217    401.50917  0.035331676   0.03553191            2 
  948000     1.094607   -6.9588602    400.94885  0.035245152  0.035525701            2 
  949000    1.0964865   -6.9827311    402.09389  0.035308561  0.035519502            2 
  950000    1.1037548   -6.9401516    400.98579  0.035174192  0.035513483            1 
  951000    1.1069145   -6.8976412    403.02567  0.035315955  0.035507138            2 
  952000    1.1060697   -6.9606019    401.88615  0.035179109  0.035500749            2 
  953000    1.1014668   -6.9244436      402.905  0.035231287  0.035494456            3 
  954000    1.1208926   -6.9441835    402.01857  0.035116926  0.035487892            3 
  955000    1.0907353    -6.957789    403.65468  0.035222921  0.035481433            2 
  956000     1.113747   -6.9101352    404.19018  0.035232756  0.035474987            4 
  957000    1.0974264   -6.9392446    403.41636  0.035128558  0.035468372            1 
  958000    1.0975807   -6.9103652    403.60855  0.035108608  0.035461873            2 
  959000    1.1162114   -6.8984913    406.44554  0.035318521  0.035455305            1 
  960000    1.0848108   -6.9110077    403.67594  0.035041314   0.03544859            3 
  961000    1.1186885   -6.9297092    406.51846   0.03525134  0.035441786            2 
  962000     1.090413   -6.8922563    405.34232  0.035112814  0.035434965            1 
  963000    1.1077871   -6.9512508    404.38332  0.034993365  0.035428088            1 
  964000    1.0901884   -6.9418994    405.68176  0.035069308  0.035421375            2 
  965000    1.1068109   -6.9167372    405.17666  0.034989349  0.035414187            3 
  966000    1.1023393   -6.9274349    405.61191  0.034990676   0.03540678            2 
  967000    1.0963905   -6.9387008    405.09769  0.034910177  0.035399784            2 
  968000     1.122886   -6.9053573    407.30725   0.03506433  0.035392853            3 
  969000    1.1137706   -6.9100271    407.50576  0.035045215  0.035386051            2 
  970000    1.1088192    -6.939885     407.5764  0.035015155  0.035378994            3 
  971000    1.0720072   -6.8981968    407.44866  0.034968131  0.035371889            3 
  972000    1.0893057   -6.8994533    409.21216  0.035083347  0.035364781            2 
  973000    1.1208048    -6.952017    408.38682  0.034976603  0.035357613            3 
  974000    1.0940819   -6.9227941    408.83726  0.034979232  0.035350684            2 
  975000    1.1075947   -6.9312263     408.9553  0.034953444  0.035343659            1 
  976000    1.0722862   -6.9581259    408.92371  0.034914935  0.035336372            3 
  977000    1.0774593   -6.8938357    409.86467  0.034959457  0.035329247            2 
  978000    1.1135686    -6.922294    410.36735  0.034966543  0.035321967            3 
  979000    1.1024645   -6.9316403    411.05735   0.03498956  0.035314826            2 
  980000    1.0875866   -6.9120481    410.93063   0.03494308  0.035307675            1 
  981000    1.1179967   -6.9526118    410.62431   0.03488144  0.035300407            2 
  982000    1.0857154   -6.9587869    411.01367  0.034878961  0.035293044            2 
  983000       1.1012   -6.9372723    411.02762  0.034844661  0.035285839            1 
  984000    1.0850363   -6.9314669    411.94716  0.034887124  0.035278487            2 
  985000    1.1014427   -6.9315462    412.75045  0.034919666  0.035271127            1 
  986000    1.0754779   -6.9587079    412.04933  0.034824994  0.035263929            3 
  987000    1.0754795    -6.958299     412.5673  0.034833443  0.035256675            2 
  988000    1.1128686   -6.9583279    412.29611  0.034775313  0.035249301            3 
  989000    1.0908666   -6.8663116    413.78486  0.034865593  0.035242211            3 
  990000    1.0600376   -6.9393122    414.48679  0.034889461  0.035235187            2 
  991000    1.1015589     -6.93801     414.8966  0.034888715  0.035228023            2 
  992000    1.1126842   -6.9255265    416.06558  0.034951746  0.035221013            4 
  993000      1.07967   -6.9296224    415.46459  0.034866112   0.03521378            3 
  994000     1.099756   -6.9292505    415.85992  0.034864179  0.035206436            2 
  995000    1.1042843   -6.9913252    414.07598  0.034679731  0.035198826            3 
  996000    1.1006648   -6.9511547    416.07327   0.03481202  0.035191085            2 
  997000    1.1054115   -6.9659906    415.50016  0.034729201  0.035183361            3 
  998000    1.0995542   -6.9426779    416.96923   0.03481707  0.035175763            6 
  999000    1.1057796   -6.9254186    416.08817  0.034708723  0.035168267            1 
 1000000    1.1004624   -6.9339721    416.63802  0.034719835  0.035160577            3 
 1001000    1.0786787    -6.985336    415.45436   0.03458661  0.035153032            2 
 1002000    1.0986551   -6.9219477    418.82947   0.03483279  0.035145654            2 
 1003000    1.1025097    -6.947334    419.41171  0.034846437  0.035138592            2 
 1004000    1.0872541   -6.9611756    417.16933  0.034625608  0.035131282            1 
 1005000    1.0795677   -6.9211693    418.20361  0.034676916  0.035123684            5 
 1006000     1.090576   -6.9274813    419.72165  0.034768195  0.035116464            2 
 1007000    1.0894781   -6.9082834    420.21645  0.034774615  0.035109119            1 
 1008000    1.1026465   -6.9279653    419.71292  0.034698489  0.035101968            2 
 1009000    1.0946815   -6.9239893    420.79647   0.03475359  0.035094575            4 
 1010000    1.1021102   -6.9496437    421.61589  0.034786789  0.035087219            1 
 1011000    1.0834693   -6.9305528    421.82808  0.034769872  0.035079882            2 
 1012000    1.1046552   -6.9350314    422.26286  0.034771316  0.035072881            2 
 1013000    1.0633696   -6.9434864    422.23159  0.034734418  0.035065912            3 
 1014000    1.0970178   -6.9392132    422.46844  0.034719628   0.03505896            1 
 1015000    1.0949105   -6.9502567    422.28999  0.034670771  0.035051709            1 
 1016000    1.0793561   -6.9480015    422.49398  0.034653378  0.035044247            2 
 1017000    1.0950135   -6.9286775    422.87484  0.034650511  0.035036657            2 
 1018000    1.0789209   -6.9662628     421.7304   0.03452279  0.035028958            4 
 1019000    1.0800325   -6.9262674    423.35261  0.034621574  0.035021419            4 
 1020000    1.0907521   -6.9253126    422.83132  0.034545042  0.035013713            2 
 1021000    1.0737614   -6.9341194    424.16517  0.034620076  0.035006125            2 
 1022000    1.0808451   -6.8970049    424.59159  0.034620971  0.034998646            2 
 1023000    1.0758718    -6.949199    425.35343  0.034649188  0.034991202            3 
 1024000    1.0758991   -6.9445797    426.16387  0.034681304  0.034983917            1 
 1025000    1.0755477   -6.9714852    424.06961  0.034477204  0.034976409            3 
 1026000    1.0994848   -6.9418149    425.63872  0.034571046  0.034968972            1 
 1027000    1.0925269   -6.9511193    426.68916  0.034622619  0.034961784            1 
 1028000    1.0852759   -6.9699688    426.49567  0.034573254   0.03495456            1 
 1029000    1.0771521   -6.9557819    427.45552  0.034617389  0.034947358            3 
 1030000    1.0949771   -6.9551271    428.08978  0.034635095  0.034940323            3 
 1031000    1.0900297   -6.9427858    427.67926  0.034568321  0.034933084            2 
 1032000    1.0794018   -6.9222861    428.37184   0.03459075  0.034925598            1 
 1033000    1.0691749   -6.9557519    428.92308  0.034601732  0.034918181            1 
 1034000    1.0973263   -6.9287226    428.90595  0.034566888  0.034911011            4 
 1035000    1.1034658   -6.9698493    429.55974  0.034586131  0.034903866            1 
 1036000    1.0761787   -6.9521497    429.48925  0.034547076  0.034896821            3 
 1037000    1.0856894   -6.9283943    430.72151  0.034612786  0.034889738            2 
 1038000    1.0985866   -6.9733432    429.54265  0.034484799   0.03488282            2 
 1039000    1.1061855   -6.9763202    431.83781  0.034635693  0.034875997            2 
 1040000    1.0860825   -6.9420212    431.67561  0.034589391  0.034869302            4 
 1041000    1.0876735   -6.9348306    431.38811   0.03453315  0.034862467            1 
 1042000    1.0845137   -6.9405338     431.0723  0.034474752  0.034855569            6 
 1043000    1.0570278   -6.9647257     431.8587   0.03450453  0.034848831            3 
 1044000    1.0927884   -6.9708427    431.82536  0.034468819  0.034841723            1 
 1045000    1.0563635   -6.9883263    431.82128  0.034435509  0.034834446            1 
 1046000    1.0754291    -6.972367    431.93862  0.034411936  0.034827101            3 
 1047000    1.0761201   -6.9661093    432.29605  0.034407518  0.034819739            1 
 1048000    1.1128809   -6.9587574    432.83406  0.034417467  0.034812486            3 
 1049000    1.0918392   -6.9783715    432.93288  0.034392507  0.034804927            2 
 1050000    1.0695983   -6.9102323    435.05581  0.034528239  0.034797655            2 
 1051000    1.0809683   -6.9553357    434.56375  0.034456371  0.034790398            3 
 1052000    1.0832148   -6.9335882    434.23072  0.034397237  0.034782748            2 
 1053000    1.0911692   -6.9392758     434.2415  0.034365424  0.034775397            1 
 1054000    1.1005962   -6.9357803    435.29334  0.034415982  0.034768034            3 
 1055000    1.0667454   -6.9596702    435.58626  0.034406498  0.034760824            1 
 1056000    1.0915291   -6.9284645    435.20894   0.03434414  0.034753214            1 
 1057000    1.0851426   -6.9400772     435.9304  0.034368527  0.034745577            1 
 1058000    1.0721213   -6.9598376     437.0103  0.034421101  0.034738077            1 
 1059000    1.0865364   -6.9205932    439.27436  0.034566758  0.034730835            1 
 1060000    1.0965135   -6.9577479    437.82401  0.034420126  0.034723604            2 
 1061000    1.1010427   -6.9052413    439.09139  0.034487228  0.034716601            3 
 1062000    1.0779591   -6.9520875    438.92477   0.03444168  0.034709655            2 
 1063000     1.083562   -6.9649955    439.69173  0.034469405  0.034702679            3 
 1064000    1.0929657   -6.9886423    439.03035  0.034385209  0.034695874            2 
 1065000    1.0855209   -6.9118532      439.399  0.034381769    0.0346889            2 
 1066000    1.0627232   -6.9245026    439.99309  0.034395958  0.034681968            2 
 1067000    1.0750868   -7.0002524    439.06004   0.03429085  0.034674874            2 
 1068000    1.0672539   -6.9418958    441.11014  0.034418706  0.034667682            4 
 1069000    1.0860117   -6.9307644    440.73348  0.034357147  0.034660631            4 
 1070000     1.065034   -6.9646587    440.98928   0.03434496  0.034653643            5 
 1071000    1.0736487   -7.0081064    440.58231  0.034281225  0.034646493            2 
 1072000     1.078701   -6.9635706    440.75943  0.034263015  0.034639528            3 
 1073000    1.0760067   -6.9773562    440.78127  0.034232779  0.034632306            4 
 1074000     1.073653   -6.9728528    442.62809  0.034344203  0.034625089            2 
 1075000    1.0725831   -6.9642813    442.26802  0.034284343  0.034618147            1 
 1076000    1.0794077   -6.9389614    442.18178  0.034245801  0.034610744            3 
 1077000     1.066943   -6.9692353    441.16122  0.034135037  0.034603261            2 
 1078000    1.0552298   -6.9567005     444.0354  0.034325556  0.034595785            1 
 1079000    1.0587073   -6.9660967    442.80575  0.034198776   0.03458854            3 
 1080000    1.0816169   -6.9771521    441.79669  0.034089251  0.034581116            2 
 1081000    1.0901045   -6.9588263    443.68953  0.034203633  0.034573881            3 
 1082000     1.087154   -6.9509829    444.84228  0.034260804  0.034567065            3 
 1083000    1.0819563   -6.9511648    446.63407  0.034367041  0.034560283            3 
 1084000    1.0599216   -6.9487635     446.2726  0.034307549  0.034553459            3 
 1085000    1.0583029   -6.9435499    446.36834  0.034283282   0.03454676            2 
 1086000    1.0741575   -6.9571765    446.73735   0.03428003  0.034539922            5 
 1087000    1.0727409   -6.9528237    446.46985  0.034227986   0.03453294            1 
 1088000    1.0985532   -6.9312341    447.43856  0.034270723  0.034526247            2 
 1089000    1.0682777   -6.9598355    447.37685  0.034234531  0.034519324            2 
 1090000    1.0791833   -6.9611137    447.50944   0.03421326  0.034512427            4 
 1091000    1.0615979   -7.0064079    447.04234  0.034146222   0.03450535            1 
 1092000    1.0600978   -6.9616259    449.47512  0.034300604  0.034498225            2 
 1093000    1.0762227   -6.9469177    448.68843  0.034209243  0.034491355            2 
 1094000    1.0558121   -6.9840835    449.54148  0.034242952  0.034484285            2 
 1095000     1.082576   -6.9960009    448.44572  0.034128289  0.034477445            4 
 1096000    1.0899045   -6.9831433    449.22392   0.03415632   0.03447061            3 
 1097000    1.0862489   -6.9407305    450.50539  0.034222531   0.03446396            2 
 1098000    1.0770463   -6.9663536    450.59738  0.034198344  0.034457194            2 
 1099000    1.0841374   -6.9975824    449.69545  0.034098836  0.034450343            1 
 1100000     1.081913   -6.9932894    450.94513   0.03416251  0.034443504            2 
 1101000    1.0663101   -6.9325806    451.08985  0.034142435  0.034436864            2 
 1102000    1.0655591   -6.9475643    451.25899  0.034124243  0.034429971            3 
 1103000    1.0692256   -6.9967585    450.13383  0.034008298  0.034422858            1 
 1104000     1.083755   -6.9334643    451.07206  0.034048314  0.034415769            3 
 1105000    1.0755252   -6.9448806    452.58142  0.034131329  0.034408839            2 
 1106000    1.0762105   -7.0072423     451.8127  0.034042548  0.034401765            3 
 1107000    1.0854008   -6.9569082    453.63292  0.034148819  0.034394724            2 
 1108000    1.0754168    -6.960582    453.65835  0.034119912  0.034387479            2 
 1109000    1.0556411   -6.9948486    452.67166  0.034015003  0.034380093            3 
 1110000    1.0776437   -6.9510117     453.1781   0.03402238  0.034372664            2 
 1111000    1.0705848   -7.0055327    453.21077  0.033994207  0.034365286            3 
 1112000    1.0703295   -6.9804463    452.63516    0.0339205  0.034357937            3 
 1113000    1.0947977   -6.9528738    454.08487  0.033998567  0.034350548            1 
 1114000     1.065691   -6.9889912    454.10295  0.033969401  0.034343102            3 
 1115000    1.0843064   -6.9752504     454.4595  0.033965583  0.034335467            3 
 1116000    1.0716474   -6.9885975    454.54764   0.03394173  0.034327992            4 
 1117000     1.077306   -7.0048293    455.16636  0.033957502  0.034320609            4 
 1118000    1.0783182   -6.9929564    455.70708  0.033967433  0.034313272            2 
 1119000    1.0647649   -6.9681688    456.71779  0.034012347  0.034305958            4 
 1120000    1.0726848   -6.9485486    457.53887   0.03404307  0.034298823            3 
 1121000    1.1011922   -6.9637767    458.14358  0.034057655  0.034291724            2 
 1122000    1.0820542   -6.9791732    456.95612  0.033939106  0.034284498            1 
 1123000    1.0876076   -6.9488993    458.05146  0.033990165  0.034277338            1 
 1124000      1.08532   -6.9698514    458.90851  0.034023466  0.034270421            1 
 1125000    1.0607859   -6.9642878    458.39737  0.033955361  0.034263333            2 
 1126000    1.0543477   -6.9979791    459.21465   0.03398569  0.034256236            1 
 1127000     1.082083   -6.9647369    458.95294  0.033936183  0.034249363            2 
 1128000    1.0650589   -6.9627138    459.35558  0.033935843  0.034242583            3 
 1129000    1.0831284    -7.007503    459.97268  0.033951335  0.034235631            4 
 1130000    1.0737316   -6.9740799     461.1255  0.034006305  0.034228747            2 
 1131000    1.0636677   -7.0133735    459.42806  0.033851169  0.034221673            3 
 1132000    1.0725678   -6.9737915    460.55803  0.033904448  0.034214627            1 
 1133000    1.0852599   -7.0152505    460.90038  0.033899704  0.034207782            2 
 1134000    1.0871587    -6.994426    462.56227  0.033991937  0.034201068            2 
 1135000    1.0752699   -6.9864915    461.68762   0.03389777  0.034194373            3 
 1136000    1.0673682   -7.0135881    462.46933  0.033925273  0.034187574            1 
 1137000    1.0949536   -6.9752029    463.07774  0.033940028  0.034180644            4 
 1138000    1.0941489    -6.984104    462.09324  0.033838111   0.03417378            3 
 1139000    1.0642657   -6.9781849    463.52413  0.033913091  0.034166648            2 
 1140000    1.0812011   -6.9422899    464.57739  0.033960336  0.034159623            4 
 1141000    1.0792255   -7.0051117    463.81328  0.033874765  0.034152674            1 
 1142000    1.0776155   -6.9952153     463.9379  0.033854196  0.034145445            2 
 1143000    1.0629095   -6.9956129     465.0951  0.033908946  0.034138226            1 
 1144000    1.0666092   -6.9855039    463.54987  0.033766745  0.034130823            1 
 1145000      1.08089   -6.9417618    465.23206  0.033859684  0.034123571            2 
 1146000    1.0604796   -6.9674192    464.81011  0.033799455  0.034116539            5 
 1147000    1.0528239   -7.0018392    465.42102  0.033814372  0.034109311            3 
 1148000     1.057519   -6.9700185    466.75267  0.033881582  0.034102293            3 
 1149000    1.0647254    -6.995049    465.15629  0.033736314  0.034095208            2 
 1150000    1.0689852   -6.9807323    466.77316  0.033824142  0.034088146            1 
 1151000    1.0724279   -6.9990443    466.73482  0.033791979  0.034080873            1 
 1152000     1.053422   -7.0205894    467.18198  0.033794993  0.034073473            2 
 1153000    1.0679135   -7.0018217    466.60027  0.033723639  0.034066181            3 
 1154000    1.0587402   -6.9763646    467.91581  0.033789414  0.034059082            1 
 1155000    1.0468298   -6.9646159    468.01727   0.03376748  0.034052132            2 
 1156000    1.0610819   -6.9542079    469.91726  0.033875235  0.034045065            1 
 1157000    1.0728215   -6.9561041    469.68932  0.033829539  0.034037963            2 
 1158000    1.0834186   -6.9502686    468.64584  0.033725233  0.034030819            2 
 1159000    1.0674234   -6.9838022    469.53628  0.033760158  0.034023653            2 
 1160000    1.0723869   -6.9975607    468.88371  0.033684175  0.034016267            2 
 1161000    1.0901299   -6.9845606    470.09374  0.033742014  0.034009176            2 
 1162000    1.0672596   -7.0247894    469.91182   0.03369993  0.034001999            2 
 1163000    1.0838108   -7.0149027    470.40631  0.033706385   0.03399459            2 
 1164000    1.0552775   -7.0239084    469.12068  0.033585386  0.033987118            2 
 1165000    1.0827105   -7.0166242    468.85684  0.033537685  0.033979645            1 
 1166000    1.0496662   -7.0010639     471.6562  0.033708991  0.033972103            2 
 1167000    1.0857151   -6.9838363    470.65389  0.033608533   0.03396453            3 
 1168000     1.072329   -6.9687292    472.09994   0.03368293  0.033957017            2 
 1169000     1.082951   -6.9979445    471.16689  0.033587603  0.033949251            1 
 1170000    1.0684882   -6.9831306    469.62181  0.033448847  0.033941289            4 
 1171000    1.0538793   -6.9866743    471.71633  0.033569337  0.033933607            4 
 1172000    1.0669589    -6.996017    470.33633  0.033442572   0.03392593            2 
 1173000    1.0762572   -6.9734033    472.35416  0.033557414  0.033918385            3 
 1174000    1.0462339   -6.9551275    472.19727  0.033517694  0.033910862            2 
 1175000    1.0472171   -6.9953768    473.08102  0.033551846  0.033903263            5 
 1176000     1.047385   -6.9985755    471.49891  0.033411204  0.033895563            2 
 1177000    1.0902076   -6.9994394    472.48353  0.033452529   0.03388762            2 
 1178000    1.0777852   -6.9815503    473.48245  0.033494797  0.033879629            1 
 1179000    1.0862975   -6.9687987    473.03181  0.033434535  0.033871934            2 
 1180000    1.0523768   -6.9861718    473.43457  0.033434645  0.033864189            1 
 1181000    1.0598499   -7.0227061    473.85054  0.033435686  0.033856493            1 
 1182000    1.0375731   -7.0172219    473.72154  0.033398304  0.033848728            2 
 1183000    1.0662963   -7.0209625    473.55243  0.033358159   0.03384116            3 
 1184000    1.0630424   -6.9956903    474.11687  0.033369712  0.033833426            1 
 1185000    1.0696841   -7.0260094    475.30229  0.033424915  0.033825691            3 
 1186000    1.0688462   -7.0075744    476.50608  0.033481315   0.03381804            3 
 1187000    1.0751441   -6.9979486    477.08953   0.03349407  0.033810492            4 
 1188000    1.0713779   -7.0294983    475.37041  0.033345287  0.033802719            2 
 1189000    1.0845957   -6.9935261    475.83948  0.033350118  0.033795181            2 
 1190000    1.0385875   -6.9968017    477.91428  0.033467387  0.033787654            1 
 1191000    1.0297956   -7.0135329    477.57287  0.033415398  0.033780139            5 
 1192000    1.0531819   -6.9900379    478.34979   0.03344168  0.033772588            3 
 1193000    1.0625739   -7.0054103    479.14491  0.033469189  0.033765417            3 
 1194000    1.0636119   -6.9654186     479.1204  0.033439447  0.033757955            2 
 1195000    1.0640888   -7.0213847    480.78028  0.033527216  0.033750677            2 
 1196000    1.0722693    -6.989362    480.32167  0.033467229  0.033743507            2 
 1197000    1.0446378   -7.0350686    479.85347  0.033406674  0.033736313            3 
 1198000    1.0599086   -7.0007802    481.21533  0.033473521  0.033729074            1 
 1199000    1.0529714   -7.0215422    480.80625   0.03341717  0.033721796            1 
 1200000    1.0652705   -7.0048336    482.09749  0.033478992  0.033714647            1 
 1201000    1.0507422   -7.0124575    482.47179  0.033477088  0.033707635            3 
 1202000    1.0677903   -6.9825868    484.03763  0.033557794  0.033700624            2 
 1203000    1.0495691   -6.9977545    481.99034  0.033388082  0.033693558            3 
 1204000     1.068251   -6.9978899     482.8622  0.033420695  0.033686545           11 
 1205000    1.0659123   -7.0354411    482.58721  0.033373943  0.033679458            2 
 1206000    1.0623815   -7.0057231    483.92093  0.033438428  0.033672149            4 
 1207000    1.0897777   -7.0026955     484.2111  0.033430758  0.033664862            2 
 1208000    1.0565954   -7.0365741    483.99188  0.033387961  0.033657631            3 
 1209000    1.0630399    -6.972587    484.31945  0.033382923  0.033650411            2 
 1210000    1.0676146   -7.0287618    484.81182  0.033389243   0.03364338            1 
 1211000    1.0587841   -7.0301986    484.50571  0.033340607  0.033636158            3 
 1212000     1.070233   -7.0074841    483.84484   0.03326766  0.033628808            2 
 1213000    1.0508913   -6.9862306    485.42263  0.033348628  0.033621519            2 
 1214000    1.0670402   -7.0419394    484.00006  0.033223508  0.033614255            3 
 1215000    1.0449734   -7.0088871    485.09412  0.033271202  0.033607012            2 
 1216000    1.0571201   -7.0257796    486.23337  0.033321914  0.033599807            2 
 1217000    1.0539176   -7.0243089    486.98709  0.033346144  0.033592534            1 
 1218000    1.0447128   -7.0052803     487.1817  0.033332081  0.033585443            3 
 1219000    1.0536649   -7.0012505    487.98219  0.033359461  0.033578293            2 
 1220000    1.0613949   -7.0250832    486.64192  0.033240568  0.033570969            2 
 1221000    1.0484638   -6.9815201    488.39605  0.033333063  0.033563687            2 
 1222000    1.0840933   -6.9799535    487.86904  0.033269847  0.033556828            2 
 1223000    1.0628458   -7.0152619     488.3769  0.033277248  0.033549807            3 
 1224000    1.0538293   -7.0167374    488.67208  0.033270158  0.033542653            2 
 1225000    1.0489841   -7.0230922     488.6218  0.033239578  0.033535523            1 
 1226000    1.0393503   -7.0293874     489.3617  0.033262758  0.033528321            2 
 1227000     1.045525   -6.9795623    490.51018   0.03331365  0.033521462            1 
 1228000    1.0298076   -7.0375769    489.75593  0.033235338  0.033514291            1 
 1229000    1.0718901   -7.0127131    491.08053   0.03329811  0.033507124            2 
 1230000    1.0253633   -6.9853144    490.60036  0.033238507  0.033499924            1 
 1231000    1.0413373   -6.9969327     490.8135  0.033225934  0.033492834            2 
 1232000    1.0641209   -7.0198553    491.14831  0.033221612  0.033485632            1 
 1233000    1.0634384   -7.0172507    491.10817  0.033191955  0.033478474            4 
 1234000    1.0669677   -7.0530944    490.85024  0.033147639  0.033471127            2 
 1235000    1.0303874    -7.029721    491.89074  0.033191008  0.033463902            2 
 1236000    1.0557553   -7.0207093    491.18248  0.033116403  0.033456834            3 
 1237000    1.0556911   -6.9888051    492.93279  0.033207544  0.033449588            2 
 1238000     1.046031   -6.9954376    492.19853  0.033131296   0.03344252            3 
 1239000    1.0508104    -6.986628    493.88073  0.033217698  0.033435519            5 
 1240000    1.0417243   -7.0070185    494.96125  0.033263525  0.033428275            2 
 1241000    1.0583215   -7.0313259    493.14928  0.033115047  0.033421189            2 
 1242000    1.0579774   -7.0029821    494.70908  0.033193041  0.033413992            2 
 1243000    1.0596128   -7.0234787    493.95617   0.03311586  0.033406857            2 
 1244000    1.0404278   -6.9970889    493.82745  0.033080617  0.033399635            3 
 1245000    1.0420495   -7.0389095    491.92314  0.032926582  0.033392403            5 
 1246000     1.052924   -7.0426367    492.70883  0.032952704  0.033384742            2 
 1247000    1.0520196   -6.9837152    496.15157  0.033156346  0.033377357            2 
 1248000    1.0429158   -6.9935383    496.15931  0.033130296  0.033370135            2 
 1249000    1.0690526   -7.0480553    494.90942  0.033020378  0.033362843            2 
 1250000    1.0834168   -7.0021669    497.35096  0.033156731  0.033355549            3 
 1251000    1.0409113   -7.0172272    496.20664     0.033054  0.033348269            1 
 1252000     1.044673   -7.0022733    496.04401  0.033016774  0.033340876            2 
 1253000    1.0471524   -7.0183304    496.02198  0.032988958  0.033333493            3 
 1254000    1.0420576   -7.0187687    497.96575  0.033091823  0.033326082            1 
 1255000    1.0735283   -7.0494514    495.10591  0.032875559  0.033318688            2 
 1256000    1.0595176   -7.0278253     496.6782  0.032953702  0.033311075            3 
 1257000    1.0499367   -6.9835531     496.0691  0.032887105   0.03330348            2 
 1258000    1.0721182   -7.0219426    498.05641  0.032992608  0.033295811            1 
 1259000    1.0367171   -7.0384237    497.55075  0.032932933  0.033288365            4 
 1260000     1.071177   -7.0309553     498.3505  0.032959689  0.033280842            4 
 1261000    1.0302315   -7.0396218    498.19019  0.032922957  0.033273198            2 
 1262000    1.0333377   -7.0303659     499.7367   0.03299899  0.033265692            1 
 1263000    1.0503047    -7.024329    498.68948  0.032903766  0.033258192            5 
 1264000    1.0530651    -7.009087    498.80962  0.032885655  0.033250714            2 
 1265000    1.0458646   -7.0042906    498.66984   0.03285045  0.033243075            2 
 1266000    1.0441151    -7.062836    498.45211  0.032810171  0.033235205            2 
 1267000    1.0400243   -7.0029318    499.51711  0.032854322  0.033227286            2 
 1268000    1.0400102   -7.0217932    498.32306  0.032749938  0.033219562            2 
 1269000    1.0532377   -6.9899247    499.54446  0.032804338  0.033211655            2 
 1270000     1.033594   -7.0270924    500.50634  0.032841624  0.033203738            4 
 1271000    1.0413151    -7.044906     497.6824  0.032630632  0.033195774            4 
 1272000    1.0454397   -7.0194627    498.67454  0.032669978  0.033187762            3 
 1273000    1.0611225   -7.0235834    501.77023  0.032846964  0.033179782            2 
 1274000    1.0537643   -7.0165666    499.63923  0.032681792  0.033171782            2 
 1275000    1.0598842    -7.057778    498.53311  0.032583864  0.033163498            2 
 1276000    1.0893193   -7.0282355    501.06627  0.032723764  0.033155278            1 
 1277000    1.0514435   -7.0276043    500.71967   0.03267552  0.033147174            2 
 1278000    1.0405548   -7.0413441    500.99415   0.03266785  0.033139026            2 
 1279000    1.0412597   -6.9943885    502.23274  0.032723009   0.03313098            1 
 1280000    1.0473632   -7.0660191     502.1871  0.032694473  0.033123042            2 
 1281000    1.0640235   -7.0782826    502.32936  0.032678204   0.03311525            1 
 1282000    1.0486496   -7.0133001    502.58389  0.032669259  0.033107194            2 
 1283000    1.0340235   -7.0473508    503.66228   0.03271384  0.033099178            2 
 1284000    1.0609618   -7.0496556    505.21569   0.03278918  0.033091246            2 
 1285000    1.0453438   -6.9952793    504.70414  0.032730489  0.033083507            2 
 1286000    1.0500652   -7.0509519    503.08901  0.032600376  0.033075602            4 
 1287000    1.0412127   -7.0325862    504.45872  0.032663735  0.033067517            2 
 1288000    1.0437364   -7.0375635    504.63522  0.032649795  0.033059647            5 
 1289000    1.0481223   -7.0700215    505.47467  0.032678735  0.033051715            2 
 1290000    1.0481674   -7.0128826    505.89353  0.032680461  0.033043965            3 
 1291000    1.0591195   -7.0162195     506.9294  0.032722011  0.033036162            4 
 1292000    1.0602752   -7.0687864    504.40897  0.032534118  0.033028417            2 
 1293000    1.0268561   -7.0705479    505.99162  0.032610958  0.033020583            3 
 1294000    1.0493404   -7.0188853     507.9809  0.032713866  0.033012745            1 
 1295000    1.0439149   -7.0880722    505.63642  0.032537736  0.033004777            3 
 1296000    1.0595732   -7.0723076    505.71766  0.032517854  0.032996856            2 
 1297000     1.013793   -7.0725586    507.41754  0.032602001  0.032988957            3 
 1298000    1.0426335   -7.0930605    506.83918  0.032539752  0.032981059            2 
 1299000    1.0416245   -7.0427451    507.14934  0.032534599  0.032973096            1 
 1300000    1.0481182    -7.040516    509.00828  0.032628736  0.032965323            2 
 1301000    1.0490816   -7.0301949    507.97441  0.032537433  0.032957446            2 
 1302000    1.0440022   -7.0377354    508.97199  0.032576292  0.032949524            1 
 1303000    1.0331564   -7.0474844    509.75856  0.032601596  0.032941544            2 
 1304000    1.0540286   -7.0164688    509.09137  0.032533958   0.03293355            2 
 1305000    1.0536462   -6.9949149    508.19258  0.032451633  0.032925671            2 
 1306000     1.054021   -7.0285324    510.85729  0.032596816  0.032917995            4 
 1307000    1.0321387   -7.0654869    508.68904  0.032433629  0.032910037            2 
 1308000    1.0722587   -7.0661616    510.09209  0.032498222  0.032902021            3 
 1309000    1.0538343   -7.0489712    510.54018  0.032501921  0.032894275            2 
 1310000    1.0331406     -7.06879    510.45786  0.032471874  0.032886143            2 
 1311000      1.04921   -7.0468218    510.26356  0.032434755  0.032877961            4 
 1312000    1.0365086   -7.0631649       510.83  0.032446011  0.032869767            2 
 1313000    1.0526387   -7.0492546    512.46903  0.032525326  0.032861621            2 
 1314000    1.0327615   -7.0277999    512.18904  0.032482816  0.032853838            1 
 1315000    1.0414134   -7.0643737    512.77255  0.032495092  0.032846031            3 
 1316000    1.0475147   -7.0540806    512.78902  0.032471443  0.032838107            2 
 1317000    1.0398928   -7.0404573     513.4668  0.032489674  0.032830201            1 
 1318000    1.0401652   -7.0650857    513.11881   0.03244302   0.03282247            2 
 1319000    1.0308792   -7.0603633    514.94284  0.032533665  0.032814749            3 
 1320000    1.0482739   -7.0456298    514.13748  0.032458174  0.032807075            3 
 1321000    1.0386939   -7.0673406    515.40016  0.032513258  0.032799368            1 
 1322000    1.0396404   -7.0081905    514.65745  0.032441846  0.032791902            3 
 1323000    1.0176723   -7.0558114    514.20856   0.03238905  0.032784336            2 
 1324000    1.0547835   -7.0627293    515.34495  0.032436112  0.032776475            3 
 1325000    1.0191037   -7.0403189    513.81156  0.032315193  0.032768659            1 
 1326000    1.0275484   -7.0670382    513.75711    0.0322874  0.032760827            1 
 1327000    1.0355597   -7.0679239    515.47386  0.032370878  0.032752905            1 
 1328000    1.0421736   -7.0213492    515.35405  0.032338984  0.032744987            3 
 1329000    1.0293928   -7.0472039    516.83987  0.032407818  0.032737205            2 
 1330000    1.0492108   -7.0347103    517.42353  0.032420021  0.032729408            4 
 1331000    1.0315862   -7.0442871     515.9556  0.032303756  0.032721837            3 
 1332000      1.04603   -7.0647153     515.8603  0.032273542  0.032714065            2 
 1333000    1.0551775    -7.030249    516.85837  0.032311726  0.032706377            3 
 1334000    1.0509863   -7.0328687     517.6356  0.032336057  0.032698835            1 
 1335000    1.0342274   -7.0550606    518.07256  0.032339111  0.032691045            1 
 1336000    1.0533542    -7.028937    517.73506  0.032293854  0.032683274            3 
 1337000    1.0235995    -7.059093    518.49178  0.032316865  0.032675393            1 
 1338000    1.0444512   -7.0542531    520.13376  0.032394978   0.03266763            3 
 1339000    1.0328748   -7.0662385    519.95724  0.032359798  0.032660046            3 
 1340000    1.0337387   -7.0782572    517.42444  0.032178137  0.032652403            2 
 1341000    1.0404842   -7.0658748    520.64029  0.032353983  0.032644816            2 
 1342000     1.041641   -7.0475823     521.1715   0.03236286  0.032637292            1 
 1343000    1.0279516   -7.0673343    519.79262  0.032253203  0.032629763            4 
 1344000    1.0486316    -7.043243    520.70692  0.032285896  0.032622183            4 
 1345000    1.0091738    -7.036704    520.73431  0.032263588  0.032614559            2 
 1346000    1.0296092   -7.0353764    521.54014  0.032289508  0.032607085            3 
 1347000    1.0190265   -7.0706249    522.16832    0.0323044  0.032599639            1 
 1348000    1.0236532   -7.0277529    523.51913  0.032363942  0.032592189            1 
 1349000    1.0041298    -7.062076    521.49605  0.032214977  0.032584772            2 
 1350000    1.0330253   -7.0753263    522.92695  0.032279442   0.03257728            2 
 1351000    1.0151857   -7.0544567    522.05167  0.032201559   0.03256972            2 
 1352000     1.013884   -7.0493385     523.6629  0.032277052  0.032562181            2 
 1353000    1.0523248   -7.0754401    521.94114  0.032147151  0.032554444            1 
 1354000    1.0456275   -7.0570896    524.22258  0.032263822  0.032546878            2 
 1355000    1.0619858   -7.0469206    523.27742  0.032181883  0.032539127            3 
 1356000     1.034606   -7.0732916    523.86115  0.032194024  0.032531436            3 
 1357000    1.0327569    -7.054231    523.32292  0.032137246  0.032523858            6 
 1358000    1.0141957   -7.0516622    525.07146   0.03222088  0.032516338           10 
 1359000    1.0527253   -7.0781009    524.95799  0.032190213  0.032508794            2 
 1360000    1.0348012   -7.0540969    525.15322  0.032178506  0.032501047            2 
 1361000    1.0439959   -7.0197616    525.85558  0.032197868  0.032493501            2 
 1362000    1.0181693   -7.0643422    525.75532  0.032168093  0.032485766            1 
 1363000    1.0331875   -7.0280471    526.46624  0.032187958  0.032478088            3 
 1364000    1.0229359   -7.0759333    525.66302  0.032115287  0.032470266            2 
 1365000     1.028393    -7.089912    524.81092  0.032039739  0.032462344            3 
 1366000    1.0074207   -7.0439844    526.65699  0.032128904  0.032454573            4 
 1367000     1.015515   -7.0816682    525.11864  0.032011622  0.032446818            2 
 1368000    1.0012934    -7.080335    525.55738  0.032014948  0.032439147            4 
 1369000    1.0489846   -7.0382578    526.24281  0.032033285  0.032431276            2 
 1370000    1.0307908   -7.0283387    528.22565  0.032130514  0.032423587            2 
 1371000    1.0460333   -7.0602219    526.41242  0.031996865  0.032415842            4 
 1372000    1.0054374   -7.0779408    527.37383  0.032031938  0.032407859            3 
 1373000    1.0530723   -7.0788984    527.23837  0.032000387  0.032399921            3 
 1374000    1.0315536   -7.0595591    528.14281  0.032031951  0.032392012            1 
 1375000    1.0448433   -7.0640642    528.89979  0.032054533  0.032384257            2 
 1376000     1.038528   -7.0786755    528.50626  0.032007404  0.032376456            2 
 1377000    1.0285416   -7.1110316     527.2764  0.031909731    0.0323684            3 
 1378000    1.0155408   -7.0390922    528.06229  0.031934101  0.032360437            4 
 1379000     1.027626   -7.0466117     529.8645  0.032019851  0.032352607            4 
 1380000    1.0203173   -7.0971347    528.99991  0.031944439   0.03234451            2 
 1381000    1.0192043   -7.0775184    528.91261   0.03191604  0.032336392            3 
 1382000    1.0329636    -7.092345    528.39624  0.031861809  0.032328126            2 
 1383000    1.0079939   -7.0869778    529.18616  0.031886368  0.032319825            4 
 1384000    1.0184604   -7.0566972    530.31046  0.031931025  0.032311632            2 
 1385000    1.0359665   -7.1213074    530.03825  0.031891592  0.032303476            3 
 1386000    1.0227839   -7.1022529    530.12943  0.031874064  0.032295452            3 
 1387000     1.034667   -7.0428391     530.9396   0.03189976  0.032287346            3 
 1388000    1.0229093   -7.0799524    529.97522  0.031818877  0.032279255            1 
 1389000    1.0104147   -7.0559474    530.63898  0.031835792  0.032271177            1 
 1390000     1.023106   -7.0581031    530.71853  0.031817658  0.032263195            3 
 1391000    1.0192372   -7.0693043      530.581  0.031786544  0.032254996            1 
 1392000    1.0575626   -7.0622654        531.9  0.031842673  0.032246832            3 
 1393000    1.0509697   -7.0857112    531.48111  0.031794754  0.032238716            4 
 1394000    1.0308495   -7.0705635    531.59033  0.031778475  0.032230682            4 
 1395000    1.0319168   -7.0876321    530.92446  0.031715917  0.032222349            2 
 1396000     1.023969   -7.0681704    532.78035  0.031803985  0.032214159            4 
 1397000    1.0161802    -7.055466     531.9439  0.031731323  0.032205984            1 
 1398000    1.0260707    -7.102158     532.8046  0.031759931  0.032197656            4 
 1399000    1.0349454   -7.1005457    532.49421   0.03171874   0.03218944            4 
 1400000    1.0227487   -7.0885231    531.27426  0.031623468   0.03218117            2 
 1401000    1.0520841    -7.108654    533.18041  0.031714276  0.032173102            1 
 1402000    1.0160205   -7.0866482    532.82449    0.0316705  0.032164899            2 
 1403000     1.001353    -7.079983    532.02209  0.031600266  0.032156514            2 
 1404000    1.0359932   -7.0628904    534.35783  0.031716395  0.032148223            3 
 1405000    1.0279178   -7.0705859    535.31345  0.031750501  0.032140071            3 
 1406000    1.0399226   -7.0854587    535.35774  0.031730544  0.032132014            2 
 1407000    1.0076625   -7.1187753    534.43447  0.031653309  0.032123867            2 
 1408000    1.0224552   -7.0713294    535.36822  0.031686093  0.032115573            1 
 1409000    1.0329954   -7.0725106    534.10806  0.031589074  0.032107527            2 
 1410000    1.0556533   -7.0775864    535.31741  0.031638145  0.032099375            2 
 1411000   0.99336992   -7.0915913    536.82885  0.031704988  0.032091202            2 
 1412000    1.0294027   -7.0570652    536.26489   0.03164925  0.032083141            2 
 1413000    1.0251782   -7.0558703    536.97219  0.031668565   0.03207506            4 
 1414000     1.010373   -7.0381302    538.27213   0.03172278  0.032067214            5 
 1415000    1.0127669    -7.088639    535.93579  0.031562767  0.032059181            1 
 1416000    1.0097465   -7.1026228     538.1418  0.031670304  0.032051088            2 
 1417000    1.0122688   -7.1051844    537.42825   0.03160599  0.032042926            3 
 1418000    1.0113702   -7.1159829    538.22081  0.031630278   0.03203489            3 
 1419000    1.0472724   -7.0783625    537.61932  0.031572664   0.03202672            1 
 1420000    1.0251392   -7.0672306    538.31206  0.031591084  0.032018629            2 
 1421000    1.0064795   -7.0579543    537.81976  0.031539981  0.032010523            2 
 1422000    1.0489395   -7.1074923    537.65243  0.031507995  0.032002227            3 
 1423000    1.0341298   -7.0745331    539.94505  0.031620113  0.031993942            2 
 1424000    1.0072809   -7.0523865    539.80967  0.031589985   0.03198576            2 
 1425000    1.0343157   -7.0679717    538.44435  0.031487974  0.031977568            5 
 1426000    1.0225198   -7.1017301    539.22128  0.031511295  0.031969245            2 
 1427000    1.0243143   -7.0913923    539.46639  0.031503527  0.031961069            2 
 1428000    1.0282963   -7.0570559    541.67961  0.031610621   0.03195289            4 
 1429000    1.0187398    -7.067385    541.81211  0.031596227  0.031944722            2 
 1430000    1.0171654   -7.0517201    542.96773  0.031641476  0.031936825            2 
 1431000    1.0311998   -7.1107378    540.11038  0.031452969  0.031928942            2 
 1432000    1.0111839   -7.0656823    541.36804  0.031504192  0.031920822            1 
 1433000   0.99743854   -7.0865442    542.43309  0.031544143  0.031913011            3 
 1434000    1.0093942    -7.064532    543.37127  0.031576666  0.031905059            2 
 1435000    1.0254674   -7.0761601    543.60563  0.031568271  0.031897237            2 
 1436000    1.0082588   -7.0753945    542.56055   0.03148564  0.031889301            4 
 1437000    1.0215122   -7.0697998    542.60652  0.031466395  0.031881487            2 
 1438000    1.0401466   -7.0899154    543.68694  0.031507124  0.031873755            3 
 1439000    1.0397988   -7.0743893    546.40787    0.0316428  0.031865913            3 
 1440000    1.0275453   -7.0764662    545.08904  0.031544505  0.031858022            1 
 1441000    1.0406917   -7.0776698     546.0303  0.031577047  0.031850025            3 
 1442000    1.0169977   -7.1076942    545.07248  0.031499797  0.031842255            2 
 1443000    1.0031202   -7.0764812    545.15006  0.031482448  0.031834474            2 
 1444000    1.0131467   -7.0523519    547.62244  0.031603327  0.031826706            2 
 1445000    1.0133435   -7.0681864    545.32042  0.031448698  0.031819006            2 
 1446000    1.0266798   -7.0798948    548.37949  0.031603244    0.0318113            1 
 1447000    1.0169656   -7.0803184    547.96142  0.031557327  0.031803767            3 
 1448000    1.0398022   -7.0629961    548.32447  0.031556426  0.031796163            1 
 1449000     1.010068   -7.0975635    547.84738  0.031507211  0.031788477            3 
 1450000    1.0098518   -7.1074497    546.76597  0.031423331  0.031780693            2 
 1451000     1.013906   -7.1160901    545.96766  0.031355827   0.03177288            4 
 1452000    1.0340656   -7.0807401    548.65294  0.031488346  0.031765177            3 
 1453000    1.0093984   -7.0878123    548.66527  0.031467382  0.031757415            2 
 1454000     1.007718   -7.1244734    548.29012  0.031424239  0.031749649            2 
 1455000     1.039445   -7.0923829    549.88397  0.031493927  0.031742037            2 
 1456000   0.97709302   -7.0857607     550.5474  0.031510268  0.031734364            2 
 1457000    1.0154244   -7.0743305    548.96816  0.031398316  0.031726719            2 
 1458000   0.99544725   -7.0502731    549.93558  0.031432075  0.031719103            9 
 1459000    1.0396679   -7.1073764    550.75028  0.031457064  0.031711457            3 
 1460000    1.0042094   -7.0888131    551.21802  0.031462216  0.031703748            7 
 1461000    1.0126199   -7.0448469    551.31717  0.031446336  0.031696086            1 
 1462000    1.0204025   -7.0980181    552.63055  0.031499689  0.031688329            3 
 1463000    1.0281996   -7.1294384    550.35709  0.031348661  0.031680548            3 
 1464000    1.0240501   -7.0637831    550.57878  0.031339867  0.031672803            2 
 1465000    1.0035194   -7.1372856    548.98017  0.031227541  0.031664906            4 
 1466000    1.0331478   -7.1107072    551.29647  0.031337908   0.03165702            4 
 1467000    1.0071179   -7.1141675    551.04942  0.031302512  0.031649114            2 
 1468000    1.0195953   -7.1187774    551.32091    0.0312966  0.031641269            1 
 1469000    1.0332581   -7.1053992    551.80129  0.031302547  0.031633217            4 
 1470000    1.0092395   -7.1151445    552.02809   0.03129411  0.031625232            3 
 1471000    1.0216472   -7.0994008    550.73836  0.031199771  0.031617211            3 
 1472000    1.0223901   -7.0805786    551.77629  0.031237335  0.031609274            4 
 1473000    1.0327479   -7.0989361    552.29638  0.031245552   0.03160131            2 
 1474000   0.99951388   -7.1133129    552.04656  0.031210231  0.031593402            1 
 1475000    1.0249033   -7.0945711    552.28427  0.031202501  0.031585302            4 
 1476000   0.98520624   -7.0721662    552.65361  0.031202214  0.031577238            2 
 1477000    1.0079598    -7.123236    552.73513  0.031185688  0.031569097            5 
 1478000    1.0154034   -7.0426336    554.86507  0.031284679  0.031561102            2 
 1479000    1.0105352   -7.0941473     551.3377  0.031064779  0.031553162            4 
 1480000     1.025914   -7.0687056      553.693  0.031176408  0.031545063            2 
 1481000    1.0161511   -7.1304361    553.37987  0.031137737  0.031536905            3 
 1482000    1.0117606   -7.1069148    552.14751  0.031047431  0.031528697            2 
 1483000    1.0352236   -7.0916551    553.83029  0.031121055  0.031520529            2 
 1484000    1.0344464   -7.0866637    553.33538  0.031072292  0.031512337            2 
 1485000    1.0219517   -7.1142528    553.54369  0.031063058  0.031504195            2 
 1486000    1.0165744   -7.1295316    552.95419  0.031009095  0.031496071            4 
 1487000    1.0031955   -7.1143032    553.76277  0.031033556  0.031487855            1 
 1488000     1.008814   -7.0993934    554.99134  0.031081505  0.031479806            1 
 1489000    1.0144449   -7.1187683    553.27316   0.03096447  0.031471563            3 
 1490000    1.0323884   -7.0631683    555.16011  0.031049223  0.031463432            2 
 1491000    1.0022224   -7.0769286    554.89149  0.031013385   0.03145521            5 
 1492000    1.0176461   -7.1069965     556.1712  0.031064075  0.031447065            1 
 1493000      1.00789   -7.0698868    554.93941  0.030974515  0.031438914            2 
 1494000   0.99756651   -7.1206689    556.00218  0.031013062  0.031430597            3 
 1495000    1.0146618   -7.1218487     556.7224  0.031032464  0.031422313            2 
 1496000    1.0029125   -7.1538277     556.9006  0.031021647   0.03141406            5 
 1497000    1.0177196   -7.1400886    556.61243  0.030984883  0.031405815            3 
 1498000    1.0023875   -7.1093229    555.78279  0.030918046  0.031397568            2 
 1499000    1.0358683   -7.0800011    557.79386  0.031009221  0.031389326            1 
 1500000     1.022304   -7.1136163    556.36886  0.030909381  0.031381093            4 
 1501000    1.0216604   -7.1220014    556.39771   0.03089039  0.031372749            1 
 1502000    1.0090554   -7.0640159    559.33136  0.031032588  0.031364527            3 
 1503000    1.0203779   -7.0637598    559.95518  0.031046528  0.031356392            1 
 1504000    1.0057656   -7.1288251    558.20145  0.030928715  0.031348231            3 
 1505000    1.0116975   -7.1108061    558.10797  0.030902988  0.031340103            2 
 1506000   0.99843592   -7.0922049    560.81021  0.031031995   0.03133207            3 
 1507000     1.029459   -7.0923992    559.85148  0.030958387   0.03132399            6 
 1508000     1.007841   -7.0544529    559.82469  0.030936378  0.031315773            3 
 1509000    1.0063395   -7.0829586    560.39991  0.030947643  0.031307468            4 
 1510000    1.0202849   -7.1183117    559.65507  0.030886041  0.031299273            1 
 1511000    1.0246837   -7.1052266     559.6238  0.030863876  0.031291092            3 
 1512000   0.99690392   -7.1239268    559.46403  0.030834658  0.031282887            2 
 1513000    1.0094323   -7.1606554    558.33138  0.030751894  0.031274438            3 
 1514000   0.99093561   -7.0935778    560.11138  0.030829556  0.031266056            2 
 1515000    1.0135854   -7.0936056    559.99089  0.030802579  0.031257736            3 
 1516000    1.0104472   -7.0921803    559.67422  0.030764854  0.031249533            2 
 1517000    1.0218412   -7.1325244    560.78705  0.030805705  0.031241244            2 
 1518000   0.97721771   -7.1412654    558.38205  0.030653384  0.031232857            2 
 1519000     0.992805   -7.0982529    561.06318  0.030780293   0.03122448            3 
 1520000    1.0160409   -7.1006394    561.78752  0.030799754  0.031216215            2 
 1521000    1.0156301   -7.1057818     562.0254  0.030792538  0.031207747            4 
 1522000    1.0179109    -7.152374    558.65779  0.030587921   0.03119923            3 
 1523000    1.0225647   -7.1523694    561.12128  0.030702631  0.031190649            5 
 1524000    1.0199771   -7.1212347    560.76467  0.030662985  0.031182155            2 
 1525000    1.0186657   -7.0994824    560.99765   0.03065561  0.031173639            2 
 1526000    1.0068509   -7.0921439    561.49413  0.030662633  0.031165045            2 
 1527000   0.99284093   -7.1161423    561.55892  0.030646088  0.031156389            6 
 1528000    1.0063963   -7.1484802    558.99023  0.030485942  0.031147603            1 
 1529000   0.99532467   -7.0835969     562.8744  0.030677698  0.031138824            5 
 1530000    1.0167896    -7.092576    562.44235  0.030634115  0.031130108            2 
 1531000   0.99409371   -7.1398013    563.76668   0.03068619  0.031121458            3 
 1532000    1.0172402   -7.1236463    560.83994   0.03050696  0.031112605            2 
 1533000   0.98093956   -7.0863574    562.42527  0.030573237  0.031103914            1 
 1534000    1.0117507   -7.1509908    561.04189  0.030478156  0.031095194            5 
 1535000    1.0163307   -7.1558645    562.04035  0.030512505  0.031086404            1 
 1536000    1.0289593   -7.0962768    563.61125  0.030577867  0.031077633            4 
 1537000    1.0014094   -7.0980972    564.43031  0.030602381  0.031068825            2 
 1538000    1.0332634   -7.1486556    563.31478   0.03052204  0.031060052            2 
 1539000    1.0085663   -7.1565073    562.62909   0.03046508  0.031051149            4 
 1540000   0.98597161   -7.1055754     562.9968  0.030465195  0.031042257            2 
 1541000   0.99705029   -7.1315397    563.33109  0.030463503  0.031033362            1 
 1542000    1.0004306   -7.1279446    561.32017  0.030335072  0.031024445            3 
 1543000    1.0061588    -7.127142    563.85857  0.030452504  0.031015557            2 
 1544000    1.0015606   -7.0922367     564.1936  0.030450864  0.031006788            2 
 1545000    1.0219045   -7.1364461    564.39711  0.030442131  0.030997979            2 
 1546000    1.0103023   -7.1075807    562.41098  0.030315383   0.03098894            1 
 1547000    1.0155279   -7.1186118    564.38669  0.030402213  0.030979963            2 
 1548000    1.0078723   -7.1390181    564.23782   0.03037456  0.030970949            2 
 1549000     1.009201   -7.0992281    564.94839  0.030393178  0.030961918            3 
 1550000   0.99809532   -7.1253613    563.72565   0.03030783  0.030952858            5 
 1551000    1.0014397   -7.1093656    564.83337  0.030347806  0.030943782            2 
 1552000    1.0205503   -7.1278223    565.54736  0.030366589  0.030934769            4 
 1553000   0.98070121   -7.1270746    564.92045  0.030313396  0.030925712            2 
 1554000    0.9988456   -7.0952528     565.0834  0.030302628  0.030916661            1 
 1555000   0.98083065   -7.1262717    564.75974  0.030265795  0.030907587            3 
 1556000    1.0020168   -7.0896621    565.55396   0.03028888  0.030898694            2 
 1557000     1.010878   -7.1283974    566.97641  0.030345558   0.03088979            4 
 1558000    1.0306613   -7.1342813    565.87952  0.030267411   0.03088088            1 
 1559000    1.0331862   -7.1675905    565.35814  0.030220127  0.030871948            2 
 1560000    1.0118195   -7.1572083    567.62165  0.030321669  0.030863084            4 
 1561000   0.99457555   -7.1349796    567.31459  0.030285853  0.030854226            2 
 1562000     1.014392   -7.1619411    567.60952  0.030282198   0.03084537            1 
 1563000    1.0105306   -7.1163742    569.31862  0.030353946  0.030836625            2 
 1564000    1.0217463    -7.084643    570.68294  0.030407233  0.030827954            4 
 1565000    1.0092613   -7.1506354    567.91888  0.030240622  0.030819168            3 
 1566000   0.97618982   -7.1164913    568.46495   0.03025037  0.030810344            4 
 1567000   0.99718502   -7.1207754    569.91997  0.030308443  0.030801351            2 
 1568000   0.98947448   -7.1221754     569.0606  0.030243442   0.03079243            4 
 1569000   0.98912267   -7.1248595    569.37731  0.030240987  0.030783589            2 
 1570000   0.99773954   -7.1453547    570.21387  0.030266129  0.030774735            3 
 1571000   0.98992333   -7.1181187    570.67615  0.030271385  0.030765909            1 
 1572000    1.0210958   -7.1267115    569.31527  0.030179987  0.030757162            2 
 1573000   0.99187447   -7.1511036    570.00987  0.030197598  0.030748267            1 
 1574000    1.0004297   -7.1235989    571.47007  0.030255721  0.030739501            1 
 1575000    1.0065841   -7.1061778    571.90048  0.030259285  0.030730741            2 
 1576000   0.98997551   -7.1250438     571.9612  0.030243295  0.030721924            2 
 1577000    1.0040304   -7.1556224    570.86724  0.030166309  0.030713145            4 
 1578000   0.98734136     -7.12095    572.13639  0.030214216  0.030704318            1 
 1579000    1.0232585   -7.1119063        571.7   0.03017205  0.030695471            2 
 1580000   0.99539736   -7.1258471    571.43508  0.030138981  0.030686565            3 
 1581000   0.99926416   -7.1686973    570.91474  0.030092491  0.030677678            6 
 1582000   0.98071568   -7.1207991    571.95907   0.03012848  0.030668553            4 
 1583000     0.992315   -7.1351998    571.43042  0.030081618  0.030659401            6 
 1584000   0.97108154   -7.1054116    571.34171   0.03005796  0.030650378            1 
 1585000     1.016348   -7.1750067    570.71068  0.030005819  0.030641317            6 
 1586000    1.0020798     -7.09875    572.02669  0.030056047  0.030632364            2 
 1587000   0.97748337   -7.1370324    572.61683  0.030068096  0.030623336            2 
 1588000    1.0043669   -7.1132585    573.34554  0.030087403  0.030614361            2 
 1589000   0.99409165   -7.0956885    574.20296  0.030113434  0.030605324            1 
 1590000    1.0135254   -7.1368132    572.90258  0.030026341  0.030596328            2 
 1591000   0.98699106   -7.1419219    572.52935  0.029987919  0.030587375            4 
 1592000    1.0011032    -7.159888    571.95719  0.029939133  0.030578435            2 
 1593000   0.98773103   -7.1249909    573.63936  0.030008336  0.030569583            5 
 1594000   0.99261732   -7.1441084     575.1722  0.030069646  0.030560538            1 
 1595000   0.99015901   -7.1440105    574.45267  0.030013201   0.03055159            3 
 1596000    1.0037031    -7.126585    573.79245  0.029959923   0.03054262            8 
 1597000   0.99309313    -7.101216    573.23784  0.029912223  0.030533676            2 
 1598000   0.98476981   -7.1609667    573.78955  0.029922275  0.030524713            4 
 1599000   0.97789735   -7.1106316    574.30637  0.029930497  0.030515732            2 
 1600000    1.0085405    -7.117817     574.7467  0.029934724  0.030506715            2 
 1601000     1.008664   -7.1502515    575.44561  0.029952405  0.030497672            2 
 1602000   0.99776305   -7.1372881    577.14312   0.03002201  0.030488717            4 
 1603000   0.99673382   -7.1374743    577.85882  0.030040488  0.030479887            3 
 1604000   0.99896953   -7.1312793    575.80033  0.029914814  0.030471098            3 
 1605000   0.97334439   -7.1733764    577.34003  0.029976118  0.030462268            2 
 1606000   0.99955304   -7.1557494    576.00114   0.02988798  0.030453314            2 
 1607000   0.99198394   -7.1128593    576.04376  0.029871591  0.030444416            2 
 1608000    1.0082119   -7.1215399    578.40167  0.029975211  0.030435584            3 
 1609000    1.0029257   -7.1576955    576.61829  0.029864217  0.030426772            1 
 1610000   0.99828084   -7.1453742    577.53898  0.029893322  0.030417924            3 
 1611000   0.99573721   -7.1689352     577.8003  0.029888283  0.030409029            2 
 1612000   0.97312666   -7.1393325    577.88769   0.02987426  0.030400257            2 
 1613000    0.9919055   -7.1676938    578.33117  0.029878651  0.030391447            1 
 1614000   0.98565762   -7.1695736    578.39907  0.029863644  0.030382534            3 
 1615000   0.99820026   -7.1567689      578.551  0.029852993  0.030373696            3 
 1616000    1.0106038   -7.1468677    580.04361   0.02991149   0.03036498            2 
 1617000   0.99864126   -7.1039162    578.99258  0.029838826   0.03035621            3 
 1618000   0.99171846   -7.1357791    579.68128  0.029855855  0.030347391            4 
 1619000   0.97391793   -7.1507579     578.7995  0.029792027  0.030338553            2 
 1620000   0.96263841    -7.126222     578.9998   0.02978394  0.030329627            5 
 1621000   0.98017446   -7.1634774    579.55113  0.029793909    0.0303207            3 
 1622000   0.98885553   -7.1268384    578.27592  0.029710025  0.030311763            1 
 1623000   0.99218159   -7.1453036    580.49365  0.029805589   0.03030276            3 
 1624000   0.99996935   -7.1145177    580.40998  0.029782942  0.030293868            2 
 1625000   0.99421707   -7.1704549    578.28718  0.029655753  0.030285024            2 
 1626000   0.98285156   -7.1643308     580.3463  0.029743045  0.030276103            4 
 1627000   0.98703721   -7.1206553    582.03801  0.029811412  0.030267269            2 
 1628000   0.99440767   -7.1689807    580.19941  0.029698987  0.030258381            2 
 1629000    1.0112871   -7.1673586    580.01068  0.029671101  0.030249387            6 
 1630000    0.9669985   -7.1354185    581.57065  0.029732651  0.030240431            6 
 1631000    1.0231764   -7.1282651    581.98311  0.029735495  0.030231551            3 
 1632000    1.0062425   -7.1462328    582.11829  0.029724177  0.030222719            2 
 1633000   0.99071275   -7.1740673     581.6719  0.029683195   0.03021382            4 
 1634000    1.0043829   -7.1449691    583.47542  0.029757009  0.030205029            1 
 1635000   0.99425479   -7.1471898    583.55546  0.029742888  0.030196324            2 
 1636000   0.97947212   -7.1497945    582.10407  0.029650778  0.030187479            3 
 1637000    1.0005208   -7.1481189    582.58802  0.029657301  0.030178642            2 
 1638000   0.96366373   -7.0898934    583.88702  0.029705282  0.030169911            3 
 1639000   0.98481816   -7.1280768    583.86869  0.029686226  0.030161184            4 
 1640000   0.99638332   -7.1533337    583.80434  0.029664854  0.030152349            1 
 1641000   0.99165941   -7.1732477    584.86825  0.029700805  0.030143611            3 
 1642000    1.0275159   -7.1627311    583.86757  0.029631931   0.03013488            3 
 1643000   0.97786769    -7.167928    585.50395  0.029696893  0.030126203            2 
 1644000   0.98126314    -7.235068    583.33452  0.029568862  0.030117479            2 
 1645000   0.98457498   -7.1443208    586.39808  0.029706083   0.03010872            3 
 1646000   0.97640027   -7.1533989    585.50036  0.029642586  0.030099998            3 
 1647000   0.98370146   -7.1784612    585.47476  0.029623293  0.030091275            1 
 1648000   0.99297504   -7.1364701    585.99143  0.029631444  0.030082616            2 
 1649000   0.97512337   -7.1713485    585.51729  0.029589514  0.030073828            2 
 1650000   0.96761244    -7.153945    587.34609  0.029663944  0.030065188            4 
 1651000   0.99982688   -7.1339535     587.3501  0.029646179  0.030056601            2 
 1652000   0.99014257   -7.1934071    588.65022  0.029693817  0.030048037            1 
 1653000   0.97896744   -7.1892518    586.43147  0.029563998  0.030039474            2 
 1654000   0.98816915   -7.1740688    586.44736  0.029546925  0.030030825            2 
 1655000   0.99203091    -7.159866    587.67261  0.029590766  0.030022209            5 
 1656000   0.99905365   -7.1412378    589.61656  0.029670721    0.0300136            1 
 1657000   0.98411814   -7.1444054    588.01404  0.029572221  0.030005081            5 
 1658000   0.97852471   -7.1439026    589.26702  0.029617361  0.029996577            2 
 1659000   0.99225163   -7.1562428    588.15214  0.029543507  0.029988015            2 
 1660000   0.98970126   -7.1621494    587.46282  0.029491105  0.029979465            7 
 1661000   0.96942685   -7.1772493    588.28144  0.029514421  0.029970961            1 
 1662000   0.99425535   -7.1588609    589.06588  0.029535995  0.029962399            3 
 1663000   0.99075201   -7.1492801    592.10688  0.029670619  0.029953986            2 
 1664000   0.98246583   -7.1557446    590.57707  0.029576176  0.029945473            4 
 1665000   0.99529023   -7.1934879    589.51078  0.029505044  0.029936963            2 
 1666000   0.97472734   -7.1818804    589.16339  0.029469958  0.029928345            3 
 1667000   0.98849927   -7.2082152    589.25448  0.029456832  0.029919788            2 
 1668000   0.97742533    -7.164531    590.45793  0.029499297  0.029911274            3 
 1669000   0.97983285   -7.1493645     589.8315  0.029450344  0.029902684            5 
 1670000    1.0001844   -7.1685778    590.66322  0.029474213  0.029894244            5 
 1671000   0.97844891   -7.1550697    591.69878  0.029508218  0.029885798            3 
 1672000   0.97592153   -7.1636794    590.67054  0.029439321  0.029877464            1 
 1673000   0.97744894   -7.2002668    590.68927  0.029422657  0.029868934            3 
 1674000   0.97651137   -7.1633929    593.24438  0.029532277  0.029860351            2 
 1675000   0.97913955   -7.1515176    591.09294  0.029407609  0.029851874            1 
 1676000   0.98906579   -7.2148107    589.66042  0.029318836  0.029843228            4 
 1677000   0.97424383   -7.1667604    591.88903  0.029412096  0.029834579            1 
 1678000   0.97581196   -7.1684231    590.26163  0.029313748  0.029825894            2 
 1679000   0.99372826   -7.1736232    592.21513  0.029393247  0.029817309            4 
 1680000   0.97815737    -7.143269    593.91292  0.029459966  0.029808707            3 
 1681000   0.96950833   -7.1585895    592.11579  0.029353351  0.029800104            2 
 1682000   0.99077325   -7.2032174    591.12037  0.029286582  0.029791511            1 
 1683000    0.9679345   -7.2190125    592.00685  0.029313074  0.029782877            2 
 1684000   0.98657135   -7.1762301    592.42378  0.029316299  0.029774284            5 
 1685000   0.97989774   -7.1721012    594.38557  0.029395923  0.029765681            3 
 1686000   0.99045629   -7.1967158     593.6734  0.029343288  0.029757099            6 
 1687000   0.98092074   -7.1773405    593.06498   0.02929584  0.029748464            3 
 1688000   0.99195427   -7.1619906    593.80449  0.029314993  0.029739903            2 
 1689000   0.96213562   -7.1527977    594.18707  0.029316512  0.029731305            2 
 1690000   0.99829019   -7.1264747    594.17666  0.029298652   0.02972269            2 
 1691000   0.98328322   -7.1618314    594.19135   0.02928205  0.029714069            3 
 1692000   0.95937442   -7.1846643    595.33411  0.029321026  0.029705559            2 
 1693000   0.98769296    -7.158444    595.51174   0.02931245  0.029697137            3 
 1694000   0.96224199   -7.1979251    596.39141   0.02933842  0.029688701            4 
 1695000   0.97306323   -7.1817067    597.56717  0.029378917  0.029680322            2 
 1696000   0.99501588    -7.220961    595.04678  0.029237755  0.029671878            3 
 1697000   0.98517375   -7.1514373     596.4839  0.029291097  0.029663461            2 
 1698000   0.96554471   -7.1373214    597.96649  0.029346608  0.029655054            2 
 1699000   0.98426363   -7.1360408    597.63138  0.029312899  0.029646645            2 
 1700000   0.98523711   -7.1575883    596.40087  0.029235337  0.029638207            3 
 1701000   0.98058533   -7.1857675    597.17108  0.029255883  0.029629826            3 
 1702000   0.98803208   -7.1416765    596.86472  0.029223693  0.029621492            7 
 1703000   0.98924155   -7.1863371    598.37319  0.029280348  0.029613169            3 
 1704000   0.97019234   -7.1652385    598.67903  0.029278121  0.029604791            4 
 1705000   0.96660519   -7.2007111    597.45576  0.029201161  0.029596417            1 
 1706000   0.98751727   -7.2124446    598.14637  0.029217779  0.029587947            4 
 1707000   0.97391887   -7.1526326    598.98772  0.029241736  0.029579643            4 
 1708000   0.98227071   -7.1937193    599.69485  0.029259116  0.029571347            2 
 1709000   0.95718551   -7.1605419     599.2687  0.029221216  0.029562967            2 
 1710000   0.96524121   -7.1823893    599.43365  0.029212166  0.029554594            6 
 1711000   0.96630013   -7.1708454    598.16441  0.029133275  0.029546216            3 
 1712000   0.96845474   -7.1529549    600.37824  0.029224019  0.029537815            2 
 1713000    0.9905826   -7.1810354    600.31428  0.029203847  0.029529376            4 
 1714000   0.97945221   -7.1741736    600.81249  0.029211031  0.029520989            1 
 1715000   0.97328801   -7.1485863    599.38523  0.029124647  0.029512521            9 
 1716000    1.0037654   -7.1806438    600.48267  0.029160969  0.029504074            2 
 1717000   0.98665225    -7.182615    601.22569  0.029180047  0.029495677            3 
 1718000   0.97054622   -7.1838289    600.48078   0.02912693  0.029487166            5 
 1719000   0.97706336   -7.1580015    600.72691  0.029121917  0.029478654            4 
 1720000   0.98480619   -7.1718981    600.77028  0.029107087  0.029470217            4 
 1721000   0.97670102   -7.1540064    600.03118  0.029054386  0.029461773            2 
 1722000   0.98294239   -7.2222004    599.36981  0.029005507  0.029453311            2 
 1723000   0.96914911   -7.1966611    601.24648  0.029079439  0.029444876            3 
 1724000   0.97208625   -7.2136377    600.69721  0.029036021  0.029436317            2 
 1725000   0.96743836   -7.2021067    601.52861  0.029059353  0.029427736            5 
 1726000   0.98428665    -7.209301     601.3548  0.029034125  0.029419158            2 
 1727000   0.98740945   -7.2187427    600.92126  0.028996394  0.029410578            7 
 1728000   0.97783203   -7.1921679    599.97284  0.028933876  0.029402047            4 
 1729000   0.99208119   -7.1824518    603.59373  0.029091658  0.029393512            3 
 1730000   0.96508119   -7.1952462    601.74545  0.028985812   0.02938504            2 
 1731000   0.96444606   -7.1824576    603.17914  0.029038087  0.029376517            1 
 1732000   0.97968028    -7.192807    600.75681  0.028904774  0.029367968            2 
 1733000   0.96065507   -7.1757768    602.69736  0.028981408  0.029359509            2 
 1734000     0.967915   -7.2016962    601.83766  0.028923378  0.029350909            3 
 1735000   0.98719308   -7.1932126    603.09003   0.02896686  0.029342202            4 
 1736000   0.97267616   -7.1794079    604.57254  0.029021339  0.029333564            3 
 1737000   0.98790482   -7.1864504    602.43357  0.028902014  0.029324983            1 
 1738000   0.97015694   -7.1638947    602.89068  0.028907301  0.029316397            2 
 1739000    0.9562041   -7.2025575    603.03925  0.028897798  0.029307899            1 
 1740000   0.96190192   -7.2038441    603.24335  0.028890965  0.029299412            2 
 1741000    0.9764579   -7.1863089    604.75538  0.028946744  0.029291035            3 
 1742000   0.96809636   -7.1647492    604.74279  0.028929525  0.029282716            2 
 1743000   0.96005761    -7.155375    605.21202  0.028935361   0.02927437            4 
 1744000   0.97228339   -7.1782408    605.72975  0.028943509  0.029266078            3 
 1745000   0.97548746   -7.2054421    604.50808  0.028868581  0.029257739            3 
 1746000   0.97997252   -7.1873759    604.68096  0.028860298  0.029249295            2 
 1747000   0.97282453   -7.2167871    604.49271  0.028834798  0.029240885            2 
 1748000   0.98605924   -7.1599569    607.34983  0.028954511  0.029232543            2 
 1749000   0.97556171   -7.1992984    605.81682  0.028864914  0.029224237            4 
 1750000   0.96438329   -7.1757701    605.37396  0.028827331  0.029215838            3 
 1751000   0.97305659   -7.1818744     605.1488  0.028800152  0.029207432            2 
 1752000   0.97276232   -7.2208967    605.39799  0.028795567  0.029198955            7 
 1753000   0.96230144   -7.1962851    606.66089  0.028839175  0.029190422            3 
 1754000     0.981641   -7.1992995    606.02014  0.028792291  0.029181967            3 
 1755000   0.98815422   -7.2216118    604.85337  0.028720483  0.029173456            3 
 1756000   0.98088329   -7.2105003    604.89187  0.028705954  0.029164899            2 
 1757000   0.96725261   -7.1667368    608.16719  0.028844962  0.029156368            2 
 1758000   0.97863112   -7.2168348    607.12042  0.028778935   0.02914786            2 
 1759000   0.96479198   -7.1674744    606.58368  0.028737146  0.029139401            2 
 1760000   0.96092467   -7.1969707    608.04054  0.028789798   0.02913089            3 
 1761000   0.96917318   -7.2107282    606.99396  0.028723924  0.029122434            5 
 1762000   0.96841716   -7.1836171     607.7987  0.028745682  0.029113935            3 
 1763000   0.94914751   -7.2389542    607.76745    0.0287279  0.029105381            6 
 1764000   0.97050117   -7.1883532    608.82125  0.028761397   0.02909681            2 
 1765000    0.9819047    -7.213796    607.35324   0.02867579    0.0290883            5 
 1766000   0.98050586   -7.1917431    608.97161   0.02873592   0.02907975            2 
 1767000   0.98561487   -7.2156387    608.70761  0.028707207  0.029071196            3 
 1768000   0.97174244   -7.2133348    607.95671  0.028655577  0.029062619            2 
 1769000   0.97629813   -7.2190643    608.36779  0.028658743  0.029053956            2 
 1770000   0.94991629   -7.2091552    608.46861  0.028647298  0.029045198            1 
 1771000    0.9654018   -7.2142126    608.61079  0.028637812  0.029036575            2 
 1772000   0.96834509   -7.1891861    609.40326   0.02865892  0.029027959            4 
 1773000   0.98313564   -7.2300268    608.01974  0.028577728  0.029019347            5 
 1774000   0.94414614   -7.2056123    607.21913   0.02852401  0.029010756            3 
 1775000   0.97215575   -7.1906518    609.44385  0.028612387  0.029002088            3 
 1776000   0.95617205   -7.1614841    609.91256  0.028618269  0.028993554            5 
 1777000   0.94635425    -7.221132    610.57202  0.028633091  0.028984988            4 
 1778000   0.97908647   -7.1821828    609.99482  0.028589934  0.028976405            2 
 1779000   0.97101268   -7.2054334    608.47069  0.028502468  0.028967824            2 
 1780000   0.95381689   -7.1908886    610.35943   0.02857488   0.02895928            2 
 1781000   0.97880193   -7.2533645    609.39424  0.028513674  0.028950713            4 
 1782000   0.95733301   -7.2211652    611.18263  0.028581305  0.028942174            2 
 1783000   0.96970907   -7.1832044    610.54786  0.028535607  0.028933663            3 
 1784000   0.98308443   -7.1987604    613.13075  0.028640263  0.028925225            3 
 1785000   0.96175224   -7.2146506    610.05947  0.028480834  0.028916802            4 
 1786000   0.95306529   -7.2114665    613.19156  0.028611028  0.028908351            3 
 1787000   0.96535917   -7.1813473    613.38783   0.02860417  0.028899972            2 
 1788000   0.95161973   -7.2105214    612.97564  0.028568962  0.028891531            3 
 1789000     0.964939   -7.1899229     612.7112  0.028540675  0.028882995            4 
 1790000   0.97306383   -7.2240655    611.22991  0.028455769  0.028874556            3 
 1791000   0.98237153   -7.1990805    613.25512  0.028534111  0.028866099            5 
 1792000   0.96355391   -7.1981305    611.73366  0.028447436  0.028857526            2 
 1793000   0.93578118   -7.2101595    614.00641  0.028537201  0.028848956            2 
 1794000   0.99533705   -7.2290061    612.37257    0.0284454   0.02884041            3 
 1795000    0.9653387    -7.218473    613.39757  0.028477139  0.028831852            2 
 1796000   0.94945724   -7.1682446    614.43461  0.028509401  0.028823457            2 
 1797000   0.98060819   -7.2232894    614.39565  0.028491729   0.02881514            4 
 1798000   0.95713118   -7.2104421    614.31725  0.028472249  0.028806769            2 
 1799000   0.97374399   -7.1940161    615.03972  0.028489889  0.028798398            3 
 1800000   0.95688625   -7.2091662       614.52      0.02845  0.028790042            2 
 1801000   0.96689433   -7.2254587    614.53793  0.028435033  0.028781637            2 
 1802000   0.96168539   -7.1950949    616.03573  0.028488519  0.028773388            4 
 1803000   0.93899953   -7.2325898    616.16163  0.028478537  0.028765115            1 
 1804000   0.97004668   -7.2379761    617.16387  0.028509048  0.028756823            2 
 1805000   0.95773136    -7.205179    615.55129  0.028418804  0.028748487            3 
 1806000   0.97763517   -7.2093155      616.516  0.028447582  0.028740208            2 
 1807000   0.96053632    -7.219887     614.2014  0.028325097  0.028731906            2 
 1808000   0.96772675   -7.2376044    615.88055  0.028386825  0.028723577            3 
 1809000   0.95813376   -7.2266949    616.44637  0.028397198  0.028715267            3 
 1810000   0.96015268   -7.2311657     615.7318   0.02834861  0.028706854            2 
 1811000   0.95057883   -7.2118818     616.7368  0.028379201  0.028698467            3 
 1812000   0.95603572    -7.240965    616.09194  0.028333883  0.028690042            3 
 1813000    0.9645068    -7.195332    616.90872  0.028355797   0.02868162            3 
 1814000   0.96036892   -7.2398268    616.03977  0.028300247  0.028673332            3 
 1815000   0.94788557   -7.1990715    615.08639  0.028240881  0.028664931            2 
 1816000   0.95739981   -7.2218827    616.95965  0.028311291  0.028656499            2 
 1817000   0.99545161   -7.2369726    617.25978  0.028309474  0.028648195            5 
 1818000   0.95701862   -7.2062311    618.91924  0.028369969  0.028640006            6 
 1819000   0.95135819   -7.2420349    618.09246  0.028316496  0.028631731            4 
 1820000    0.9496995   -7.2380281    616.65993  0.028235345  0.028623401            4 
 1821000   0.98167051   -7.2326941    615.73829  0.028177663  0.028615057            2 
 1822000   0.98396485    -7.208125    618.88743  0.028306231  0.028606724            4 
 1823000   0.96571242   -7.2203661     618.2342  0.028260843  0.028598383            3 
 1824000   0.95830842     -7.21426    619.26351  0.028292375  0.028589999            3 
 1825000   0.95398177   -7.1925392    619.01242  0.028265407  0.028581726            5 
 1826000   0.96671446   -7.2143887    618.14653  0.028210411  0.028573376            2 
 1827000   0.94731142   -7.2173956    618.82637  0.028225979  0.028564997            2 
 1828000   0.95090134   -7.2302929    617.57727  0.028153596  0.028556462            2 
 1829000   0.94502019   -7.2132165    618.14998  0.028164297   0.02854791            2 
 1830000    0.9484835   -7.2313436    618.52716  0.028166082   0.02853944            3 
 1831000   0.97614009   -7.2092542    619.65232  0.028201908  0.028530895            4 
 1832000   0.95689211   -7.2455756    620.39033  0.028220084  0.028522525            2 
 1833000   0.96176928   -7.2275736     621.2147  0.028242167  0.028514103            2 
 1834000   0.97582203   -7.2159694    620.78909  0.028207429  0.028505779            3 
 1835000   0.96253677   -7.2207715    620.60022  0.028183479   0.02849747            2 
 1836000   0.95847187   -7.2275559    620.72816  0.028173936   0.02848913            3 
 1837000   0.94430489   -7.2241793    621.76872  0.028205803  0.028480861            7 
 1838000   0.94550322   -7.2200915    620.84653  0.028148646  0.028472488            2 
 1839000   0.94973169   -7.2192678    619.75021   0.02808366  0.028464055            2 
 1840000    0.9527886   -7.2216707    619.88578  0.028074537  0.028455637            3 
 1841000   0.93805011   -7.2417369     620.5931  0.028091304   0.02844722            5 
 1842000   0.94149315   -7.2410406    619.50993  0.028027051  0.028438755            4 
 1843000   0.96112149   -7.2002769    620.07771  0.028037516  0.028430205            1 
 1844000   0.94947928   -7.2154778    622.02902  0.028110494  0.028421821            1 
 1845000   0.96068032   -7.2174073    621.52539  0.028072511  0.028413403            5 
 1846000   0.96278514   -7.2180765    620.38148  0.028005664  0.028405047            2 
 1847000     0.938911   -7.2148832    621.86579  0.028057471  0.028396704            4 
 1848000   0.95454418   -7.2536838    622.26732  0.028060395  0.028388323            2 
 1849000   0.93472375   -7.2020585    625.34529  0.028183941  0.028380089            1 
 1850000   0.96233816   -7.1968885    625.06895  0.028156259  0.028371887            2 
 1851000   0.97284317    -7.252709    623.76899  0.028082523  0.028363738            2 
 1852000    0.9536684   -7.2440369    622.15293  0.027994642  0.028355549            2 
 1853000   0.95843272   -7.2231345     624.1324  0.028068556  0.028347341            2 
 1854000   0.92440232    -7.243279    624.87156  0.028086639  0.028339126            2 
 1855000   0.95525594   -7.2975961     623.7842  0.028022651  0.028330946            2 
 1856000   0.93734414   -7.2248481    624.30498  0.028030935  0.028322774            4 
 1857000   0.94731008   -7.2682687    623.81599  0.027993897  0.028314603            2 
 1858000   0.94311499   -7.2190145    626.48802  0.028098673  0.028306407            1 
 1859000   0.95220847   -7.2256426    626.18846   0.02807013  0.028298195            4 
 1860000   0.94358248   -7.2409161    624.76076  0.027991073  0.028290002            5 
 1861000   0.94989468   -7.2398504    626.49438  0.028053662  0.028281794            3 
 1862000   0.96401443   -7.2397086    626.67643  0.028046743  0.028273677            3 
 1863000    0.9559096   -7.2399044    627.54168  0.028070392  0.028265583            3 
 1864000   0.93891952   -7.2181789    628.06814  0.028078869   0.02825755            2 
 1865000   0.95662314   -7.2346752    625.99318  0.027971098  0.028249578            2 
 1866000   0.96509161   -7.2406302    626.94707  0.027998708  0.028241595            1 
 1867000   0.97271464   -7.2405698    628.36055  0.028046802  0.028233525            7 
 1868000   0.97617962   -7.2261854    627.42172  0.027989906  0.028225556            2 
 1869000   0.92676548   -7.2242313    628.68329  0.028031179  0.028217556            3 
 1870000   0.93527255   -7.2629396    627.91464  0.027981936  0.028209404            3 
 1871000   0.94888985   -7.2286961    627.37725  0.027943045  0.028201209            5 
 1872000   0.96696857   -7.2383517    629.01803  0.028001159  0.028193129            3 
 1873000   0.96651221   -7.2281127    630.72638  0.028062216  0.028185228            2 
 1874000   0.95249683   -7.2313313    629.01763  0.027971257  0.028177313            4 
 1875000   0.94517451   -7.2072224    629.68858  0.027986159   0.02816935            2 
 1876000   0.97146924    -7.248962    627.50628  0.027874302  0.028161275            3 
 1877000   0.93686576   -7.2308377    629.48562  0.027947328  0.028153209            4 
 1878000   0.95470791   -7.2287135    629.64213  0.027939392  0.028145274            4 
 1879000   0.93281471   -7.2311155    629.54397  0.027920169  0.028137283            4 
 1880000   0.94725372   -7.1971527    629.28063  0.027893645  0.028129266            1 
 1881000   0.93947074   -7.2081898    631.01745  0.027955762  0.028121271            3 
 1882000   0.95352829   -7.2045294    630.57869  0.027921479  0.028113317            5 
 1883000   0.94451785   -7.2575472    630.83458  0.027917976   0.02810536            2 
 1884000   0.95610094     -7.27849    629.52546  0.027845252  0.028097347            3 
 1885000   0.92209113   -7.2510981    631.92271   0.02793646  0.028089282            3 
 1886000   0.95658053   -7.2498356    630.56987  0.027861871  0.028081336            2 
 1887000   0.96528978    -7.203273    632.69801  0.027941089  0.028073447            2 
 1888000   0.94009941   -7.2587554    632.07817   0.02789893  0.028065496            2 
 1889000   0.93725192   -7.2393965     630.0282  0.027793727  0.028057509            2 
 1890000   0.92653239   -7.1807076    633.59172  0.027936143  0.028049591            3 
 1891000   0.95770985   -7.2492265    631.09965  0.027811548  0.028041583            4 
 1892000   0.93369424   -7.2389073    631.44764  0.027812176  0.028033639            2 
 1893000   0.93755217   -7.2479851    631.79546  0.027812796  0.028025624            2 
 1894000   0.97056286   -7.1997852    631.53923  0.027786837  0.028017658            2 
 1895000   0.93157917   -7.2234794    633.28181  0.027848804  0.028009732            3 
 1896000   0.95709673   -7.2671372    634.26273   0.02787723  0.028001812            2 
 1897000    0.9589418   -7.2489769    633.31267  0.027820799  0.027993895            2 
 1898000   0.93198952   -7.2217015    635.30755  0.027893728  0.027986074            7 
 1899000   0.95534575   -7.2764284    634.20316  0.027830576  0.027978157            4 
 1900000   0.93895436   -7.2501286    633.05315  0.027765489  0.027970346            4 
 1901000   0.94629503   -7.2297954    635.49268  0.027857824  0.027962492            4 
 1902000   0.96079725   -7.2709174    634.66769  0.027807032  0.027954614            1 
 1903000   0.93675034   -7.2409951    635.39626  0.027824324  0.027946771            2 
 1904000   0.96255304   -7.2445963    636.44733  0.027855713  0.027938996            2 
 1905000   0.92750413   -7.2443691    636.34583   0.02783665  0.027931199            2 
 1906000   0.96722903   -7.2369528     636.7328  0.027838965   0.02792344            3 
 1907000   0.96962745    -7.251926    636.76783  0.027825897  0.027915732            3 
 1908000   0.94227123   -7.2504931    637.31746  0.027835319  0.027907956            3 
 1909000   0.96103224   -7.2053831    636.68889  0.027793299  0.027900252            2 
 1910000   0.94464945   -7.2239469    635.96295  0.027747075  0.027892488            2 
 1911000   0.95024537   -7.2393901    637.76181  0.027810998  0.027884722            3 
 1912000   0.94156599   -7.2220528    635.92616  0.027716447  0.027876912            3 
 1913000   0.95099096   -7.2791151    635.17453  0.027669216   0.02786916            3 
 1914000   0.96135078   -7.2612013    637.12817   0.02773982  0.027861391            2 
 1915000   0.95233074   -7.2452296    638.01545  0.027763945  0.027853602            2 
 1916000   0.98400249   -7.2576176    637.54909   0.02772917  0.027845755            3 
 1917000   0.96131102   -7.2340182    637.32776  0.027705084  0.027837934            3 
 1918000   0.93735707   -7.2539212    637.97593  0.027718801  0.027830167            4 
 1919000   0.95326519   -7.2473572    639.71873  0.027780038  0.027822413            2 
 1920000   0.94225737    -7.257011     640.0956  0.027781927  0.027814697            1 
 1921000   0.92883907   -7.2521804    638.01277  0.027677111  0.027806845            2 
 1922000   0.94431522   -7.2432735    637.65759  0.027647312  0.027798932            3 
 1923000   0.94078655   -7.2841778    637.37492  0.027620685   0.02779112            3 
 1924000   0.94659677   -7.2385027    638.69022  0.027663298  0.027783262            2 
 1925000    0.9181743   -7.2320651    638.14672  0.027625399  0.027775389            1 
 1926000   0.94671524   -7.2489557    637.64432  0.027589318  0.027767443            6 
 1927000   0.94483171   -7.2388906    637.85041  0.027583913  0.027759601            3 
 1928000   0.94728225   -7.2526295    639.15883   0.02762616  0.027751685            3 
 1929000   0.95188092    -7.231621    637.58187  0.027543713  0.027743728            2 
 1930000   0.96148864   -7.2535307    638.77634  0.027581017  0.027735838            3 
 1931000   0.91286703   -7.2646231     638.5478  0.027556871  0.027727909            2 
 1932000   0.94198397   -7.2302343    639.49862  0.027583619   0.02771995            5 
 1933000   0.93027531   -7.2170137     639.1652  0.027554975  0.027712064            3 
 1934000   0.95885049    -7.265185     639.4277  0.027552038  0.027704168            5 
 1935000     0.941534   -7.2625311    640.21582  0.027571741  0.027696249            3 
 1936000   0.94802376   -7.2596789    638.36938  0.027478021  0.027688306            2 
 1937000   0.94208854   -7.2614389    639.74672  0.027523091  0.027680373            4 
 1938000   0.91536126   -7.2444111    641.47683  0.027583283  0.027672447            4 
 1939000   0.92594441   -7.2548574    639.86347  0.027499719  0.027664638            3 
 1940000   0.92384538   -7.2382181    642.81531  0.027612341  0.027656927            2 
 1941000   0.93736899   -7.2617705    639.59665  0.027459928  0.027649218            2 
 1942000   0.95628855    -7.233085    641.74108  0.027537808  0.027641478            2 
 1943000   0.90463763     -7.23496    641.40466  0.027509207  0.027633808            3 
 1944000   0.92182258   -7.2369429    642.95189  0.027561381   0.02762616            4 
 1945000   0.94359004   -7.2494292    643.21481  0.027558475  0.027618434            2 
 1946000    0.9379676   -7.2737391    641.25968  0.027460589  0.027610767            2 
 1947000   0.93608399    -7.225984    643.89196  0.027559149  0.027603073            4 
 1948000   0.95217557   -7.2660079    643.85362  0.027543361  0.027595364            2 
 1949000   0.95484085   -7.2736803     643.9092  0.027531606  0.027587741            2 
 1950000   0.91480095    -7.250758    642.97852  0.027477715   0.02758007            2 
 1951000   0.94773661   -7.2514307    643.11987  0.027469668  0.027572394            4 
 1952000   0.95139008   -7.2460169    642.37814   0.02742393  0.027564691            3 
 1953000   0.93475419   -7.2739166    643.02053  0.027437299  0.027556983            3 
 1954000   0.94322209   -7.2899279     642.7842  0.027413178  0.027549213            1 
 1955000    0.9207844   -7.2657274    643.13072  0.027413927  0.027541383            4 
 1956000   0.95340677   -7.2940895    641.62827  0.027335901   0.02753345            3 
 1957000    0.9543854   -7.2725875    640.04969  0.027254714  0.027525407            6 
 1958000   0.92729435   -7.2585894    643.39787  0.027383294  0.027517428            2 
 1959000   0.94671785   -7.2990634     641.0136  0.027267892  0.027509505            3 
 1960000   0.94192835    -7.281039    641.02174  0.027254326  0.027501452            5 
 1961000   0.92571786    -7.294927    643.39025  0.027341078  0.027493513            3 
 1962000   0.92088643   -7.2791445     643.2513  0.027321241  0.027485523            2 
 1963000   0.93043581   -7.2972569    641.11653  0.027216697  0.027477515            2 
 1964000   0.95406037   -7.2419022    643.75457  0.027314773  0.027469595            2 
 1965000   0.93032283   -7.2325644    645.51441  0.027375505  0.027461677            2 
 1966000   0.94140993   -7.2375513    644.65457  0.027325134  0.027453772            2 
 1967000   0.96516006    -7.272235     643.2761  0.027252843  0.027445893            3 
 1968000   0.96888178   -7.2740157    644.50213   0.02729091  0.027437984            5 
 1969000   0.93238853   -7.2682963    642.93124  0.027210565  0.027430044            7 
 1970000   0.90892421   -7.2690592    643.27556  0.027211318  0.027422058            5 
 1971000   0.91351974   -7.2774024    645.15858  0.027277126  0.027414039            3 
 1972000   0.94626152    -7.269768    642.19811  0.027138189  0.027406119            1 
 1973000   0.93830249   -7.2712144     644.3384  0.027214833  0.027398188            1 
 1974000   0.95718193   -7.2601693    644.72942  0.027217554  0.027390219            2 
 1975000   0.94055324   -7.2471636    645.79982  0.027248937  0.027382323            4 
 1976000   0.94754855   -7.2770197    645.35045  0.027216196   0.02737438            3 
 1977000   0.92863671   -7.2649953    644.27579  0.027157132  0.027366424            4 
 1978000   0.93822934   -7.2777884    646.00314  0.027216175  0.027358493            6 
 1979000   0.94507274   -7.2646287    645.54364  0.027183074  0.027350617            2 
 1980000    0.9637146   -7.2644831    645.88816  0.027183845  0.027342728            5 
 1981000   0.95346391   -7.2658429     646.1038  0.027179194  0.027334926            3 
 1982000   0.93327871   -7.2683898    646.54324  0.027183957  0.027327082            2 
 1983000   0.93839248   -7.2739739    646.50176  0.027168505   0.02731928            4 
 1984000   0.94302519   -7.2981213    645.75511   0.02712345  0.027311502            2 
 1985000   0.93804898   -7.2971231    646.70625  0.027149717  0.027303649            2 
 1986000    0.9273722      -7.2786    646.24652  0.027116756   0.02729582            3 
 1987000   0.96142238   -7.2571126    647.65236  0.027162069  0.027288049            4 
 1988000   0.94586304   -7.2720753     647.7429  0.027152201  0.027280206            2 
 1989000   0.93342967     -7.29217    648.09147  0.027153154  0.027272335            1 
 1990000   0.94286812   -7.2982719    648.63072   0.02716209  0.027264644            4 
 1991000   0.94369977   -7.3048178    647.25617  0.027090916  0.027256882            1 
 1992000   0.91851636   -7.2907719    648.40875  0.027125533  0.027249103            2 
 1993000   0.92469533    -7.287681    648.53038  0.027117009  0.027241282            1 
 1994000   0.93978469    -7.319674    647.52471   0.02706138  0.027233495            7 
 1995000   0.94300319   -7.2694091    650.25445   0.02716184   0.02722573            2 
 1996000    0.9441389   -7.2947208    650.63486  0.027164114  0.027218026            3 
 1997000   0.93467364    -7.274857    651.03549   0.02716723  0.027210452            2 
 1998000   0.93327804    -7.269993    651.83252  0.027186875  0.027202876            1 
 1999000   0.93301034   -7.2671045     651.4881  0.027158917  0.027195263            1 
 2000000   0.94023916   -7.2778492    650.24251  0.027093438  0.027187662            4 
 2001000   0.93323037   -7.2404615    652.10354  0.027157402  0.027180025            1 
 2002000   0.91210749   -7.2814092     651.2513  0.027108363  0.027172489            2 
 2003000   0.93302011   -7.2876568    650.24355  0.027052902  0.027164883            2 
 2004000   0.93183741   -7.2675316    650.97025  0.027069621  0.027157235            3 
 2005000   0.91717741   -7.3170801    650.26219  0.027026691  0.027149488            4 
 2006000   0.91954171   -7.2891869    651.49282  0.027064341  0.027141761            4 
 2007000   0.94356001    -7.316108    649.42382  0.026964949  0.027134061            4 
 2008000   0.95036102   -7.2991752    651.99284  0.027058136  0.027126348            4 
 2009000   0.92955704   -7.2456093    651.34842  0.027017937  0.027118708            4 
 2010000   0.94647297   -7.2906193    652.64022  0.027058052  0.027111093            2 
 2011000   0.92755952     -7.27419    651.79564  0.027009599  0.027103469            2 
 2012000    0.9329098    -7.275648    653.27007  0.027057243  0.027095898            6 
 2013000    0.9469476   -7.3241291    651.62062  0.026975518  0.027088209            4 
 2014000    0.9226497   -7.3079893    651.26737  0.026947508  0.027080466            2 
 2015000    0.9443106   -7.2875365    651.19079  0.026930967   0.02707278            5 
 2016000   0.90530091    -7.295349    651.56968   0.02693327  0.027065033           14 
 2017000   0.90963833   -7.2639736    653.90939  0.027016584  0.027057341            2 
 2018000   0.94553167   -7.2863155    653.01358  0.026966204  0.027049682            2 
 2019000   0.93752076   -7.2830377     652.6303  0.026937027  0.027041955            3 
 2020000   0.90264915   -7.2811833    651.55873  0.026879485  0.027034151            3 
 2021000   0.92275576   -7.2938189    652.22375  0.026893607  0.027026401            2 
 2022000   0.93789234   -7.2972938    652.81432  0.026904646  0.027018603            3 
 2023000   0.92513602    -7.309279    653.36059  0.026913849  0.027010822            2 
 2024000   0.92084868   -7.2965405    654.24763  0.026937073  0.027003036            2 
 2025000   0.92531962   -7.2771284    653.66621  0.026899844  0.026995249            4 
 2026000   0.93732282   -7.3112365    653.10988  0.026863684  0.026987479            3 
 2027000   0.92893101   -7.2747747    654.26285  0.026897831  0.026979788            3 
 2028000    0.9044899   -7.2754935    655.23366   0.02692446  0.026972008            4 
 2029000   0.95225741   -7.3007724    653.65086  0.026846183  0.026964318            2 
 2030000   0.93744779   -7.2815123    653.97945  0.026846447  0.026956596            4 
 2031000   0.95158317   -7.2736729     654.0689  0.026836899  0.026948884            3 
 2032000   0.91570323   -7.2626515    655.91886   0.02689956  0.026941308            2 
 2033000   0.92918287   -7.2686041     655.3068   0.02686124  0.026933688            3 
 2034000   0.92650622    -7.309053    657.39298  0.026933504  0.026926024            5 
 2035000   0.93371044   -7.2871519    655.28931  0.026834124  0.026918368            2 
 2036000   0.93223838   -7.3024999    657.58314  0.026914831  0.026910717            5 
 2037000   0.93367354   -7.2801084     656.9041  0.026873838  0.026903146            3 
 2038000   0.91960392   -7.2958775    656.53711  0.026845646  0.026895548            2 
 2039000   0.92170015   -7.3245972    656.32765  0.026823919  0.026887992            2 
 2040000    0.9252074   -7.3129065    654.58075   0.02673941  0.026880348            3 
 2041000   0.93352552    -7.309302    657.53664  0.026846997  0.026872714            4 
 2042000   0.91785125   -7.2946974    656.17062  0.026778102  0.026865177            1 
 2043000   0.92718674    -7.296701    657.42284  0.026816073  0.026857567            2 
 2044000   0.94066449   -7.2974574    656.92104  0.026782495  0.026849963            1 
 2045000   0.92269013   -7.3546809    657.39328  0.026788642  0.026842305            2 
 2046000   0.90110693   -7.3140988    656.22088  0.026727797  0.026834592            5 
 2047000   0.91594105   -7.2776524    655.73737  0.026695057  0.026826936            3 
 2048000    0.9173181   -7.3079881    658.44973  0.026792388  0.026819369            2 
 2049000    0.9233154   -7.2804164    659.08655  0.026805212   0.02681178            3 
 2050000   0.92363242     -7.29333     657.1848  0.026714829  0.026804123            3 
 2051000   0.91990279   -7.2969374    658.27421  0.026746067  0.026796533            3 
 2052000   0.91515188   -7.3026122    659.82023  0.026795818  0.026788929            3 
 2053000   0.93633467   -7.2817213    658.34997  0.026723087  0.026781343            2 
 2054000   0.92413404   -7.2572568    661.14869  0.026823624  0.026773822            3 
 2055000   0.90387918   -7.2700332    659.83982  0.026757495  0.026766444            4 
 2056000   0.92996745   -7.2697363    659.20064  0.026718573   0.02675898            2 
 2057000   0.90661273   -7.3093078    660.44924  0.026756167  0.026751468            4 
 2058000   0.93474633   -7.2853648    660.91014   0.02676183  0.026743986            2 
 2059000   0.89934701   -7.3141069    658.89635  0.026667328  0.026736476            2 
 2060000   0.91203069   -7.2989924    660.72386  0.026728311  0.026728966            8 
 2061000   0.91687023    -7.317765    661.99098  0.026766577  0.026721521            5 
 2062000   0.92847871   -7.2913914      661.396   0.02672955  0.026714059            3 
 2063000   0.94113822   -7.3085781    659.93229  0.026657469  0.026706604            2 
 2064000   0.92351408   -7.2853973    659.52457  0.026628092  0.026699119           13 
 2065000    0.9168346   -7.3195307    660.60163  0.026658662  0.026691607            1 
 2066000   0.95216793   -7.3287927    661.45833  0.026680314  0.026684081            2 
 2067000   0.91481748   -7.3016348    660.94096  0.026646547  0.026676603            2 
 2068000   0.93473759   -7.2854164    662.46983   0.02669527  0.026669175            2 
 2069000   0.91297078   -7.3091294    661.25633  0.026633492  0.026661729            2 
 2070000   0.92677204    -7.314291    661.26314  0.026620899  0.026654248            3 
 2071000   0.94612677   -7.2904022    661.23378  0.026606864  0.026646809            4 
 2072000   0.92194299   -7.2923599    663.04421  0.026666836  0.026639251            3 
 2073000   0.92782831   -7.2878612    662.48786  0.026631607  0.026631664            3 
 2074000   0.90002105   -7.2854332    661.97876  0.026598311  0.026624184            4 
 2075000   0.90960831   -7.2636455    664.43186   0.02668401   0.02661672            4 
 2076000   0.90445613   -7.3276598     662.0152  0.026574149  0.026609278            4 
 2077000   0.91808128   -7.2971215    662.20937  0.026569145  0.026601831            3 
 2078000   0.94324341   -7.2948691     664.2622  0.026638683  0.026594386            2 
 2079000     0.916874   -7.3059355    664.48073  0.026634629  0.026586948            2 
 2080000   0.92424518   -7.2990882    663.65137  0.026588597  0.026579472            2 
 2081000   0.92677488   -7.3032475    663.15838  0.026556078  0.026572039            6 
 2082000   0.92759512    -7.306859    664.06902  0.026579772  0.026564613            2 
 2083000   0.90495009   -7.3164325    662.91827  0.026520974   0.02655719            2 
 2084000   0.91062403   -7.3303358    663.55843  0.026533847  0.026549824            2 
 2085000    0.8891744   -7.3020797    664.64007  0.026564351  0.026542424            3 
 2086000   0.92717919   -7.2928911     665.4529  0.026584089  0.026535021            3 
 2087000   0.91301979   -7.3004696    664.51763  0.026534005  0.026527643            2 
 2088000   0.90591472   -7.3180582    665.18633  0.026547986   0.02652028            4 
 2089000   0.92039305   -7.3186671     664.2718  0.026498795   0.02651292            2 
 2090000    0.9285504   -7.2973308    667.93596  0.026632215   0.02650566            3 
 2091000   0.91441096   -7.3265746    664.54105   0.02648418  0.026498403            3 
 2092000    0.9263347    -7.332591    665.81659  0.026522331  0.026491065            3 
 2093000   0.90913245   -7.3203251    667.10002  0.026560759  0.026483856            2 
 2094000   0.90031024   -7.3397432    667.29135  0.026555689  0.026476686            3 
 2095000   0.92986613   -7.3104009    667.33583  0.026544782   0.02646948            2 
 2096000   0.91001796   -7.3439868    666.93883  0.026516334  0.026462273            1 
 2097000   0.91169257   -7.3254267     665.6593  0.026452841  0.026454992            4 
 2098000   0.93467879   -7.3318488    667.54764  0.026515238  0.026447724            1 
 2099000    0.9168059   -7.3445007    666.28698  0.026452556  0.026440489            2 
 2100000   0.91327609   -7.3594881    668.32191  0.026520711  0.026433149            4 
 2101000    0.9322873   -7.2657719    669.43751  0.026552337   0.02642592            2 
 2102000   0.91304848   -7.3184253    669.75914  0.026552456  0.026418815            5 
 2103000   0.90263069   -7.3079926    669.37987  0.026524801  0.026411606            4 
 2104000   0.89962315   -7.2938087    669.18824  0.026504604  0.026404484            3 
 2105000   0.92637117   -7.2849045      670.822   0.02655669  0.026397422            2 
 2106000   0.92850414   -7.3133513    669.53053  0.026492978  0.026390299            3 
 2107000   0.92198346    -7.306888     669.8413  0.026492695  0.026383129            4 
 2108000   0.91797315   -7.2882202    670.12817  0.026491468  0.026376004            4 
 2109000   0.89466763   -7.2966114    669.96334  0.026472394  0.026368828            4 
 2110000   0.91028235    -7.300649     668.6729  0.026408882  0.026361586            2 
 2111000   0.92558081   -7.3072758    669.93751  0.026446293  0.026354423            2 
 2112000   0.90389529   -7.2749973    670.69418  0.026463627  0.026347312            4 
 2113000   0.92601944   -7.3081971    670.39031  0.026439119  0.026340137            2 
 2114000   0.92260145   -7.2969052     671.7465  0.026480073  0.026332991            6 
 2115000   0.92706443   -7.3684826    668.12291   0.02632478  0.026325837            3 
 2116000   0.91302182   -7.3243428    670.21495  0.026394729  0.026318619            2 
 2117000   0.91931926   -7.3297318    670.11325  0.026378257   0.02631146            3 
 2118000   0.88317485    -7.317104    671.88488  0.026435509  0.026304331            2 
 2119000   0.91041867   -7.3146468    674.38415  0.026521321  0.026297301            2 
 2120000   0.92363921   -7.3220206    672.08957  0.026418615  0.026290201            3 
 2121000   0.90327858   -7.3696913     669.9524  0.026322191  0.026283121            2 
 2122000   0.91291409   -7.3209108    672.78923  0.026421192  0.026275957            4 
 2123000   0.89270901   -7.3142942     672.2936  0.026389292  0.026268873            2 
 2124000   0.90921323   -7.3769338    670.36076  0.026301034  0.026261673            3 
 2125000   0.90614442   -7.3434174    673.54592  0.026413566   0.02625451            2 
 2126000   0.90400405    -7.308974    672.64614  0.026365873  0.026247396            3 
 2127000   0.89236414   -7.3618368    672.71469  0.026356162  0.026240319            3 
 2128000   0.90113897   -7.3574874    671.79406  0.026307725  0.026233196            3 
 2129000   0.91361622   -7.3241263    673.03957   0.02634412  0.026226073            3 
 2130000   0.93147866   -7.3513995    672.52967  0.026311803  0.026219005            2 
 2131000   0.89679771   -7.3022413    674.74203   0.02638597  0.026211919            1 
 2132000   0.90131142   -7.3125953    673.84128  0.026338386  0.026204799            1 
 2133000   0.89693811   -7.3391288    672.25724  0.026264152  0.026197583            3 
 2134000   0.91372406    -7.317258    672.36214  0.026255941  0.026190336            2 
 2135000   0.90896357   -7.3095722    672.39166  0.026244795  0.026183027            3 
 2136000   0.91783207   -7.3607733    672.95072   0.02625432  0.026175773            8 
 2137000   0.90731715     -7.33045    674.22959  0.026291904  0.026168597            4 
 2138000   0.91382507   -7.2985774    674.18505  0.026277871  0.026161471            1 
 2139000   0.92161847   -7.3147246    673.98048  0.026257616  0.026154368            2 
 2140000   0.90103637    -7.287043    676.36854  0.026338339  0.026147244            3 
 2141000   0.89513258   -7.3087525    675.58221  0.026295431  0.026140133            2 
 2142000   0.91154416   -7.3458387    676.63695  0.026324189  0.026133074            4 
 2143000   0.91487894   -7.3338817    675.33253  0.026261181  0.026125966            3 
 2144000   0.91484615    -7.355438    674.42576  0.026213688  0.026118846            2 
 2145000   0.90981806   -7.3448027    674.70231  0.026212211  0.026111684            3 
 2146000   0.90133102   -7.3321817    673.93064  0.026170031   0.02610445            3 
 2147000   0.91058412   -7.3631462     674.5714  0.026182712  0.026097284            2 
 2148000   0.90489223   -7.3602125     674.7082   0.02617583  0.026090061            6 
 2149000   0.89169701   -7.3524979    676.83426  0.026246094  0.026082852            3 
 2150000   0.91017451   -7.3050306    675.42105   0.02617911  0.026075755            2 
 2151000    0.9002651   -7.3755128     673.8675  0.026106753  0.026068608            3 
 2152000   0.91264868   -7.3106751    675.53829   0.02615932   0.02606145            2 
 2153000   0.90322164   -7.3562501    676.52171  0.026185234  0.026054292            4 
 2154000     0.891032   -7.3302148    677.72912   0.02621979  0.026047145            2 
 2155000   0.88219097   -7.3172438    676.75976  0.026170138  0.026040063            2 
 2156000   0.89081295   -7.3885585    674.53752  0.026072106  0.026032842            2 
 2157000     0.897168   -7.3377276    676.56982  0.026138534  0.026025582            3 
 2158000   0.92940147   -7.3440507    676.28095  0.026115267   0.02601833            4 
 2159000   0.91149719   -7.3434058    676.61151   0.02611593    0.0260111            4 
 2160000   0.89234228   -7.3295553    675.34642  0.026055032  0.026003831            4 
 2161000    0.9140227    -7.344455     674.3655  0.026005148  0.025996514            2 
 2162000   0.90476439   -7.3613437    675.45553  0.026035135  0.025989143            1 
 2163000   0.90784652   -7.3100449    675.54056  0.026026374  0.025981823            2 
 2164000   0.89132947   -7.3846587    674.85147  0.025987811   0.02597451            3 
 2165000   0.91193008   -7.3102844    675.89588  0.026016008  0.025967145            3 
 2166000   0.89154314   -7.3262392    677.47106  0.026064599  0.025959831            3 
 2167000   0.90720051   -7.3618305    676.81327  0.026027276  0.025952609            2 
 2168000   0.90722389   -7.3307194    676.13805  0.025989316  0.025945325            2 
 2169000   0.90728013   -7.3357891    677.41987  0.026026582  0.025938082            4 
 2170000   0.87717397   -7.3810966    675.05555  0.025923792  0.025930786            5 
 2171000    0.9043832   -7.3613821    675.70678  0.025936848  0.025923512            3 
 2172000   0.90805251   -7.3513924    677.65068  0.025999489  0.025916187            3 
 2173000    0.8991098   -7.3509704    676.74778  0.025952898  0.025908949            9 
 2174000   0.91291564   -7.3299396    676.68565  0.025938579  0.025901765            3 
 2175000   0.91239039   -7.3395297    677.33002  0.025951342   0.02589452            3 
 2176000   0.91081284   -7.3785582    678.77723  0.025994839  0.025887262            5 
 2177000    0.9216172    -7.334711    677.55435  0.025936087  0.025880031            4 
 2178000   0.90027947   -7.3264567    678.39068  0.025956179  0.025872856            3 
 2179000   0.89536568   -7.3415446    679.32933  0.025980164  0.025865583            3 
 2180000   0.92180068    -7.316102    679.67635  0.025981512  0.025858322            6 
 2181000   0.89597876    -7.337177    676.62303  0.025852935  0.025851144            2 
 2182000   0.86754757   -7.3432938    678.97543  0.025930929  0.025843985            5 
 2183000   0.90225272   -7.3266606    679.74457  0.025948411   0.02583676            2 
 2184000   0.89743577   -7.3327962    680.01144  0.025946712  0.025829589            2 
 2185000   0.91833024   -7.3513156    678.47472  0.025876229  0.025822392            2 
 2186000   0.90255783   -7.3014135    681.27046  0.025970969  0.025815272            3 
 2187000   0.93156694   -7.3312574    680.29111  0.025921777  0.025808116            2 
 2188000   0.89449965   -7.3526178    679.40691  0.025876253  0.025800916            3 
 2189000   0.90785581   -7.3458792    679.94547  0.025884935  0.025793722            3 
 2190000   0.90517292   -7.3585486    679.22893   0.02584585  0.025786427            2 
 2191000   0.88368366   -7.3404145    680.26632   0.02587351  0.025779175            4 
 2192000   0.93431119    -7.366036    680.13659  0.025856774  0.025771935            4 
 2193000   0.88539607   -7.3559243     678.9949    0.0258016  0.025764672            4 
 2194000   0.88845709   -7.3208784    680.98929  0.025865591  0.025757444            2 
 2195000   0.90559036    -7.361604    680.76539  0.025845307  0.025750247            5 
 2196000   0.88573196   -7.3262654    681.44794  0.025859439  0.025743013            4 
 2197000   0.88397582   -7.3620173    679.58415  0.025776974  0.025735864            3 
 2198000   0.90183303   -7.3374143    681.82483  0.025850198  0.025728634            4 
 2199000   0.90378713   -7.3679716    680.26815  0.025779451  0.025721417            4 
 2200000   0.90205816   -7.3620864    681.66697  0.025820718  0.025714233            4 
 2201000   0.91297087   -7.3619421    680.76011  0.025774652  0.025707021            5 
 2202000   0.90874559   -7.3407009    681.38596  0.025786632  0.025699829            1 
 2203000   0.88686779    -7.344645    682.15604  0.025804056  0.025692552            3 
 2204000   0.87454854   -7.3682601    680.97084  0.025747536  0.025685248            2 
 2205000   0.89385302   -7.3543001    680.86077    0.0257317  0.025677987            4 
 2206000   0.90646489   -7.3333724    682.67568  0.025788595  0.025670716            3 
 2207000   0.88664444   -7.3507189    679.78637  0.025667814   0.02566351            3 
 2208000   0.91836316   -7.3123194     682.7041  0.025766308  0.025656283            4 
 2209000    0.8915394   -7.3535672    682.48729  0.025746465  0.025649038            2 
 2210000   0.90255421   -7.3214331     681.5013  0.025697636  0.025641813            7 
 2211000   0.89442157   -7.3600831    680.59836  0.025651981  0.025634549            5 
 2212000   0.89285877   -7.3640118    681.19627   0.02566291  0.025627261            3 
 2213000   0.89831573   -7.3494151      682.634  0.025705453   0.02561998            3 
 2214000   0.87301256    -7.382203    683.61217   0.02573066  0.025612726            3 
 2215000    0.9054644      -7.3633    682.01215  0.025658847  0.025605523            3 
 2216000   0.89411894   -7.3391185    681.55963  0.025630251  0.025598243            2 
 2217000    0.8974991   -7.3416968    684.24567  0.025719654  0.025591064            2 
 2218000   0.90296935   -7.3675079    682.42713  0.025639733    0.0255839            4 
 2219000   0.89105085   -7.3956984    681.96085  0.025610667  0.025576742            4 
 2220000   0.88666172   -7.3555606    683.78514   0.02566761  0.025569547            9 
 2221000   0.90848502   -7.3706659    683.78816  0.025656167  0.025562341            4 
 2222000   0.90316749   -7.3837344    682.30144  0.025588863  0.025555089            3 
 2223000   0.87917106   -7.3500915     684.7267  0.025668267  0.025547846            5 
 2224000   0.90505293   -7.3485668    683.61281  0.025614988  0.025540632            2 
 2225000   0.88673959   -7.3754065    683.72604  0.025607717  0.025533423            2 
 2226000   0.90707165   -7.3490185    682.77493  0.025560607  0.025526195            7 
 2227000   0.88513755    -7.352326    684.30804  0.025606497  0.025518993           10 
 2228000   0.88343472   -7.3622984    684.35148  0.025596629  0.025511808            6 
 2229000   0.90295387   -7.3633766    684.59304  0.025594177  0.025504558            2 
 2230000   0.88709875   -7.3657719    683.83689  0.025554443  0.025497327            2 
 2231000   0.89324215   -7.3626341    685.25733  0.025596045  0.025490101            4 
 2232000   0.87665582    -7.365084    686.00381  0.025612448  0.025482918            2 
 2233000   0.91549651   -7.3237186    686.29683  0.025611913  0.025475721            1 
 2234000   0.90446116   -7.3540294    685.95846  0.025587827  0.025468582            5 
 2235000   0.89138093   -7.3679079    685.06895  0.025543212  0.025461448            2 
 2236000   0.90079944   -7.3709259    684.98243  0.025528564  0.025454286            3 
 2237000      0.89878   -7.3617225     685.9592  0.025553539  0.025447135            2 
 2238000   0.89116225   -7.3649077    685.73817  0.025533891  0.025439936            2 
 2239000   0.89364005   -7.3819806    685.09904  0.025498699  0.025432705            2 
 2240000   0.87859054   -7.3157823    688.68191  0.025620607  0.025425562            2 
 2241000   0.90715447   -7.3760505    685.78476  0.025501441  0.025418377            3 
 2242000   0.91579603   -7.3543981    684.03508  0.025425033  0.025411157            3 
 2243000   0.90418822   -7.3782441      687.055  0.025525895  0.025403977            5 
 2244000   0.89466504   -7.3833776    685.38055  0.025452338  0.025396748            2 
 2245000   0.89439198   -7.3940512    685.93569  0.025461607  0.025389497            2 
 2246000   0.90058332   -7.3845005    686.43563   0.02546882   0.02538228            6 
 2247000   0.89572873   -7.3559922    686.33787   0.02545386  0.025375058            4 
 2248000    0.8962434    -7.355083    686.26586  0.025439867  0.025367903            4 
 2249000   0.88083516   -7.3294534    688.53372  0.025512588  0.025360776            3 
 2250000   0.91051318   -7.3644893    688.62415  0.025504598  0.025353687            2 
 2251000   0.90460779   -7.3564369    688.07012  0.025472757  0.025346597            4 
 2252000   0.86707459   -7.3486276    687.98581  0.025458326    0.0253395            1 
 2253000   0.88055083   -7.3748241    688.43374  0.025463594  0.025332445            1 
 2254000    0.8873677   -7.3609885    689.43314  0.025489246  0.025325393            5 
 2255000   0.90162204   -7.3385376    688.66324  0.025449492  0.025318316            4 
 2256000   0.89865906   -7.3608959    689.45975  0.025467633  0.025311277            2 
 2257000   0.88579425   -7.3877089    690.11598  0.025480578  0.025304211            2 
 2258000   0.89877093   -7.3427298     689.4299  0.025443973  0.025297183            4 
 2259000   0.90660559   -7.3505369    689.55945  0.025437489  0.025290146            2 
 2260000   0.89143502    -7.376022    689.76206  0.025433704  0.025283115            3 
 2261000   0.90595893   -7.3832695    690.01924  0.025431934  0.025276044            2 
 2262000   0.88152866   -7.3612825    690.50865  0.025438721  0.025269043            2 
 2263000   0.90467764   -7.3773618     688.4666  0.025352283  0.025262004            3 
 2264000   0.91448735    -7.387107     689.6225  0.025383631  0.025254912            2 
 2265000   0.87586502   -7.3865672    690.27296  0.025396356  0.025247779            3 
 2266000   0.88301573   -7.3677406    689.66565  0.025362814  0.025240704            5 
 2267000   0.89736342   -7.3740446    689.08787  0.025330388  0.025233643            2 
 2268000   0.90377182   -7.3311033    692.52932  0.025445669  0.025226635            3 
 2269000   0.91345986    -7.371669    690.69559  0.025367107  0.025219589            2 
 2270000   0.88267935   -7.3637717    690.18169  0.025337066   0.02521253            2 
 2271000    0.9041521   -7.3738287    691.17186  0.025362243  0.025205429            3 
 2272000   0.89550641   -7.3726257    690.96029  0.025343321   0.02519839            3 
 2273000   0.89104654   -7.3904006     689.2114  0.025268052   0.02519125            3 
 2274000   0.89027684   -7.3919888    690.29981  0.025296827  0.025184062            3 
 2275000   0.88650874   -7.4050569    690.46129  0.025291622  0.025176921            3 
 2276000   0.88624475   -7.3763433    689.66001  0.025251172  0.025169833            2 
 2277000   0.89382823   -7.3962573     689.8289  0.025246263  0.025162702            1 
 2278000   0.86584999   -7.3965088    691.18676  0.025284854   0.02515562            7 
 2279000   0.88468871   -7.3686627    691.74371  0.025294124  0.025148513            7 
 2280000   0.89407921    -7.382611    690.68407  0.025244301   0.02514141            4 
 2281000   0.87354927   -7.3945244    690.45223  0.025224764  0.025134292            2 
 2282000   0.87216489   -7.3538733    689.69084  0.025185906  0.025127116            2 
 2283000   0.87698317   -7.3871308     689.8071  0.025179117  0.025119954            3 
 2284000   0.88933853   -7.3959663    690.95777  0.025210076  0.025112779            2 
 2285000   0.88865187   -7.4027228    691.56533  0.025221201  0.025105632            4 
 2286000   0.89606979   -7.4064231    688.78868  0.025108949  0.025098523            4 
 2287000   0.88994341   -7.3910014    691.36888  0.025191987  0.025091388            2 
 2288000   0.88217331   -7.4113265    691.21459  0.025175357   0.02508421            2 
 2289000   0.90900908   -7.3905604     690.9327  0.025154096  0.025077055            7 
 2290000   0.86804623   -7.3622269    692.90376  0.025214838  0.025069963            4 
 2291000   0.89395975   -7.3701404    693.38085  0.025221186  0.025062855            4 
 2292000   0.87101556   -7.3710892    691.67263  0.025148074  0.025055698            3 
 2293000    0.8727874   -7.4024843    692.37233  0.025162536  0.025048602            3 
 2294000   0.89476921   -7.3713619    692.70151  0.025163525  0.025041466            3 
 2295000   0.86838692   -7.3745442     693.2867  0.025173809  0.025034395            1 
 2296000   0.88059931   -7.3543089    693.05301  0.025154363  0.025027352            3 
 2297000   0.88297233   -7.3504783    693.31328  0.025152855   0.02502032            3 
 2298000   0.88874347   -7.3607885     694.6536  0.025190513  0.025013266            5 
 2299000   0.88735239   -7.3571235    695.17732   0.02519854  0.025006251            2 
 2300000   0.88156456   -7.3451969    695.09148  0.025184474  0.024999213            2 
 2301000   0.88374488   -7.3919956    695.64458   0.02519356  0.024992196            2 
 2302000    0.8864286   -7.3703702    694.55825   0.02514329   0.02498513            2 
 2303000   0.87489372   -7.3836695    693.85035  0.025106758  0.024978065            4 
 2304000   0.87847601   -7.4040181    694.48596   0.02511885   0.02497101            7 
 2305000   0.87170168   -7.3800959    695.69241  0.025151569  0.024964007            2 
 2306000   0.87389529   -7.3852548    695.60784  0.025137606  0.024957022            3 
 2307000   0.89026704   -7.3719476    694.90246   0.02510123  0.024950114            2 
 2308000   0.88188008     -7.35992    696.92403  0.025163346  0.024943172            2 
 2309000   0.88560023   -7.3985521    695.63846  0.025106051   0.02493624            2 
 2310000   0.88088426   -7.3767685     695.3643  0.025085292  0.024929246            4 
 2311000   0.86678737   -7.3722374    697.92239  0.025166681  0.024922358            3 
 2312000   0.87897996   -7.4046119    696.29828  0.025097256  0.024915387            2 
 2313000   0.88107626    -7.367255    695.65502   0.02506323  0.024908412            4 
 2314000   0.87753499   -7.3565482    697.49647  0.025118715  0.024901549            2 
 2315000   0.89241053    -7.401628     695.0035  0.025018125  0.024894616            4 
 2316000   0.87451813   -7.3962201    696.89621  0.025075425  0.024887613            2 
 2317000   0.87300626   -7.3925382     694.7721  0.024988207  0.024880505            1 
 2318000   0.89249231   -7.4119858    693.67897  0.024938128  0.024873436            2 
 2319000   0.86697178   -7.3845646    696.37451  0.025024239  0.024866339            2 
 2320000   0.87485073   -7.3482659    697.97534  0.025070953  0.024859281            3 
 2321000   0.87062636   -7.3956524    696.42877  0.025004623  0.024852192            4 
 2322000   0.88632996   -7.3966868    695.81556  0.024971848   0.02484514            3 
 2323000   0.88337827   -7.3834222    696.12569  0.024972223  0.024838076            2 
 2324000   0.86518203   -7.4136404    696.15205  0.024962423  0.024831025            1 
 2325000   0.89703596   -7.4061965    696.66418  0.024970042  0.024823989            5 
 2326000   0.87873214   -7.3597823    698.00807  0.025007455  0.024817033            2 
 2327000   0.86448197   -7.4152795    695.31414  0.024900234  0.024810052            6 
 2328000     0.887691   -7.3756289    696.82219  0.024943521  0.024803028            2 
 2329000   0.86499597   -7.4118546    695.88237  0.024899183  0.024796028            3 
 2330000   0.86713204   -7.3785618    698.35969  0.024977099  0.024788971            2 
 2331000   0.85927204   -7.3837583    696.64389  0.024905044  0.024781935            6 
 2332000   0.87014501   -7.3975247    696.18647  0.024878019  0.024774916            4 
 2333000   0.87512324   -7.3923468    698.00403  0.024932277  0.024767926            6 
 2334000   0.87101258   -7.4220071    697.69219  0.024910461  0.024760818            3 
 2335000   0.86806922   -7.4021246    698.39627   0.02492492  0.024753772            5 
 2336000   0.89263925   -7.4100905    696.73429  0.024854962  0.024746769            3 
 2337000   0.87401017   -7.3998178     696.1588  0.024823805  0.024739694            3 
 2338000   0.85343237   -7.4216552    697.97251  0.024877834  0.024732635            2 
 2339000   0.88700011   -7.4058954    698.28508  0.024878334   0.02472561            6 
 2340000   0.89491967   -7.3844138    697.76046  0.024849019  0.024718618            7 
 2341000   0.89407966   -7.3945773    697.98881  0.024846533  0.024711674            4 
 2342000   0.87291479   -7.4022097    698.41054   0.02485093  0.024704699            6 
 2343000   0.86319444   -7.4224618    697.88192  0.024821522  0.024697671            8 
 2344000   0.86125683   -7.4246052    697.90202  0.024811648  0.024690591            4 
 2345000    0.8785104   -7.4201886    698.65154  0.024827702   0.02468351            2 
 2346000   0.89274634   -7.4041099    698.77557  0.024821525  0.024676467            2 
 2347000    0.8782088    -7.403763    700.74124  0.024880743  0.024669458            4 
 2348000   0.88367126   -7.4061166    700.10702  0.024847637  0.024662497            2 
 2349000   0.86026221   -7.3906265     698.6926  0.024786881  0.024655511            2 
 2350000   0.87299376   -7.3994647    698.81734  0.024780757  0.024648499            4 
 2351000   0.86103868   -7.3931767    699.28041   0.02478663  0.024641464            2 
 2352000   0.86582646   -7.4303227    699.38616  0.024779839  0.024634428            2 
 2353000   0.86936884   -7.3820941    699.90041   0.02478752  0.024627451            3 
 2354000   0.88218357   -7.4047818    700.19346  0.024787364  0.024620523            4 
 2355000   0.87483082   -7.4059831    699.67373  0.024758448  0.024613641            2 
 2356000   0.88125678   -7.4059232    700.49178  0.024776874   0.02460674            2 
 2357000   0.88820811   -7.4053089    702.43259  0.024834981  0.024599804            3 
 2358000   0.87939322   -7.4114198    700.29314  0.024748839  0.024592872            3 
 2359000   0.89842453   -7.3994764    700.80013  0.024756257  0.024585987            4 
 2360000    0.8694218   -7.4166442    700.04066   0.02471895  0.024579093            3 
 2361000    0.8689609   -7.4236486    700.10145  0.024710626  0.024572181            3 
 2362000   0.89718842   -7.4015871    701.53502  0.024750741  0.024565316            2 
 2363000   0.88642434   -7.4344192    701.44228  0.024736997  0.024558415            2 
 2364000   0.87068896   -7.4626682    699.84877   0.02467036  0.024551429            2 
 2365000   0.87901049   -7.4138003    701.65776   0.02472367  0.024544418            4 
 2366000   0.88873658   -7.4034281    701.82691  0.024719178  0.024537503            4 
 2367000   0.86700363   -7.3885325    702.53354  0.024733613  0.024530564            7 
 2368000   0.86312919   -7.3567203    703.41515  0.024754193  0.024523661            2 
 2369000   0.88111649   -7.4099854    701.70962  0.024683749  0.024516796            2 
 2370000   0.86429128   -7.4197842     701.4032   0.02466256  0.024509862            3 
 2371000   0.86995267   -7.4448203    699.54536  0.024586861  0.024502858            3 
 2372000   0.86384979   -7.4271763    701.11181  0.024631528  0.024495892            2 
 2373000   0.86927471   -7.4353791    702.48237  0.024669278  0.024488945            4 
 2374000     0.872548   -7.4194227    702.86986  0.024672489  0.024482039            2 
 2375000   0.86094428   -7.4167723    702.02465  0.024632444  0.024475111            3 
 2376000    0.9005267   -7.4018513     702.6615  0.024644413  0.024468237            4 
 2377000   0.87337313   -7.4295786    703.78483  0.024673427  0.024461397            3 
 2378000   0.85998872   -7.3900078    703.47707  0.024652266  0.024454526            2 
 2379000   0.86272394   -7.4124722    702.16624  0.024595987  0.024447612            3 
 2380000   0.85136461    -7.438196    703.49552  0.024632196  0.024440743            5 
 2381000   0.85715782    -7.426238    704.56471  0.024659272   0.02443389            5 
 2382000   0.86266168   -7.4050423    705.72748  0.024689598  0.024427037            1 
 2383000   0.86703194   -7.4575048    704.81497  0.024647327  0.024420189            3 
 2384000   0.87199999   -7.4444187    705.56473  0.024663197  0.024413362            6 
 2385000   0.87578609   -7.4489386    705.75872  0.024659634  0.024406606            4 
 2386000    0.8596375   -7.4222133    704.82931  0.024616838  0.024399795            2 
 2387000   0.89149986   -7.3965027    706.35161  0.024659671  0.024392964            3 
 2388000   0.84545864   -7.4157643    705.97035  0.024636039  0.024386147            6 
 2389000   0.86960887   -7.4297758    705.52795  0.024610295  0.024379331            2 
 2390000   0.87359595   -7.4285878    706.40683  0.024630642  0.024372455            3 
 2391000   0.85144921   -7.4661498     703.6036   0.02452264  0.024365558            5 
 2392000   0.86408287   -7.4295375    705.69821  0.024585361  0.024358688            3 
 2393000   0.86699777   -7.4362837    704.84259  0.024545291   0.02435189            3 
 2394000   0.86862046   -7.3904939    705.47545  0.024557068  0.024345047            3 
 2395000   0.86444985   -7.4275862    704.31365   0.02450639  0.024338224            4 
 2396000   0.87921648   -7.4611508    704.21851  0.024492853   0.02433136            2 
 2397000    0.8785104   -7.4094822    706.06438  0.024546808  0.024324526            2 
 2398000   0.86211891   -7.4125999    706.55883  0.024553754  0.024317725            3 
 2399000    0.8482595    -7.440754    704.91573  0.024486443  0.024310824            3 
 2400000   0.85492454   -7.4138177    704.78132  0.024471574  0.024303906            3 
 2401000   0.88559275   -7.4272517    705.52337  0.024487136  0.024296986            3 
 2402000   0.86183299   -7.4424886     706.0656  0.024495754  0.024290074            2 
 2403000   0.86143456    -7.419884    705.62392  0.024470243   0.02428316            3 
 2404000   0.85833466   -7.4046933    706.88141  0.024503654  0.024276234            3 
 2405000   0.87575905   -7.3915834     706.0989  0.024466351  0.024269411            4 
 2406000   0.85687376   -7.4138673    707.40303  0.024501352  0.024262528            5 
 2407000   0.86433834   -7.4229668    706.45039  0.024458191  0.024255674            6 
 2408000   0.86231077   -7.4198251    707.27756   0.02447666  0.024248875            2 
 2409000   0.88205288   -7.4427879    705.19852   0.02439458  0.024242059            3 
 2410000   0.86423074   -7.4153902    707.43637  0.024461839  0.024235306            3 
 2411000   0.87672742   -7.4164944    707.84566  0.024465839  0.024228558            3 
 2412000   0.86942936   -7.4475589    707.82156  0.024454863  0.024221801            2 
 2413000   0.87890164    -7.412177    707.63612  0.024438325  0.024215035            4 
 2414000   0.86944346   -7.4360449    707.84019  0.024435245  0.024208265            4 
 2415000   0.88446622   -7.4008843    710.18879  0.024506169  0.024201546            5 
 2416000   0.86375153   -7.4154427    708.94626  0.024453169   0.02419477            5 
 2417000   0.86110163   -7.4579265     708.3051  0.024420946  0.024187956            2 
 2418000   0.85826007     -7.42064    708.67005  0.024423423  0.024181185            3 
 2419000    0.8823169   -7.4504335    708.57904  0.024410192  0.024174387            3 
 2420000    0.8578765    -7.402816    709.37163  0.024427398   0.02416761            4 
 2421000   0.84847404   -7.4254058    709.49373  0.024421511  0.024160856            5 
 2422000   0.87395892   -7.4499229    707.96913  0.024358971  0.024154092            5 
 2423000   0.85689898   -7.4323381    708.60549  0.024370804  0.024147245            3 
 2424000   0.86094443   -7.4521664    706.43556  0.024286151  0.024140396            2 
 2425000   0.87202215   -7.4408467    709.20834  0.024371421  0.024133537            2 
 2426000   0.86935086   -7.4198024    708.75397  0.024345767  0.024126733            2 
 2427000   0.87289678   -7.4682658    707.57762  0.024295345  0.024119856            3 
 2428000   0.85046158   -7.3949822    709.15719  0.024339552  0.024112993            4 
 2429000   0.86396926   -7.4373095    708.00694  0.024290069  0.024106152            2 
 2430000    0.8533085   -7.4351028    708.92715  0.024311631  0.024099279            2 
 2431000   0.82859115   -7.4310002     708.7869  0.024296822  0.024092418            4 
 2432000   0.85928852   -7.4483925    708.44294  0.024275046  0.024085543            4 
 2433000   0.86456929   -7.4544163    708.88558   0.02428023  0.024078723            3 
 2434000   0.87124188   -7.4409021     708.0297  0.024240951  0.024071869            2 
 2435000    0.8359979   -7.4258596     710.5139  0.024316013  0.024064982            1 
 2436000   0.88495577   -7.4534299    708.85872  0.024249409  0.024058131            3 
 2437000   0.87087878    -7.436375    710.28947  0.024288383  0.024051292            3 
 2438000   0.84627833   -7.4564164     709.5656  0.024253678  0.024044488            6 
 2439000   0.84821724   -7.4359098    710.98986  0.024292396  0.024037689            2 
 2440000   0.86506279   -7.4182375    711.81705  0.024310692  0.024030925            3 
 2441000   0.84182653   -7.4287767    710.84304  0.024267481  0.024024192            8 
 2442000   0.86267306   -7.4444511    710.03086  0.024229827  0.024017431            2 
 2443000    0.8726279   -7.4461247    712.29386  0.024297103  0.024010654            2 
 2444000   0.85558052   -7.4117506    711.01393  0.024243519  0.024003925            3 
 2445000   0.85789217   -7.4324559    711.62867  0.024254556  0.023997151            3 
 2446000   0.86468801   -7.4065192    711.06033  0.024225277  0.023990401            2 
 2447000   0.85524003   -7.4486739    712.15935  0.024252804  0.023983673            2 
 2448000    0.8543284    -7.466144    711.09733  0.024206745   0.02397693            3 
 2449000   0.86118775   -7.4100031    712.16235    0.0242331  0.023970243            6 
 2450000   0.87504651   -7.4471746    711.95889  0.024216289  0.023963565            5 
 2451000   0.85700781   -7.4685789    712.21246   0.02421503  0.023956819            3 
 2452000   0.85990008   -7.4208166    711.55293   0.02418274  0.023950084            3 
 2453000   0.86617682   -7.4475378    711.60456  0.024174635  0.023943394            4 
 2454000   0.84207122   -7.4428026    713.14509  0.024217098  0.023936736            6 
 2455000   0.85361859   -7.4202091    712.35321  0.024180353  0.023930067            2 
 2456000    0.8587075   -7.4433456    714.56439  0.024245534  0.023923382            3 
 2457000   0.85477664   -7.4482912    711.26108  0.024123629   0.02391669            7 
 2458000   0.85239339   -7.4580676    713.04698  0.024174362  0.023909973            3 
 2459000   0.87296939   -7.4554388    713.86402   0.02419222  0.023903257            3 
 2460000   0.85843862   -7.4482151    712.55198   0.02413794   0.02389652            2 
 2461000   0.87945519   -7.4756808    710.61548  0.024062559  0.023889754            2 
 2462000   0.86022884   -7.4644052    711.16611  0.024071423  0.023882997            6 
 2463000   0.84699365   -7.4607788    712.09898  0.024093212  0.023876223            4 
 2464000   0.86795395   -7.4572103     713.0617  0.024115994  0.023869435            3 
 2465000   0.85236326   -7.4682496     712.8876  0.024100325  0.023862688            7 
 2466000   0.85036398   -7.4610551    713.23166  0.024102178  0.023855937            1 
 2467000   0.83128273   -7.4246934    713.97267  0.024117439  0.023849196            2 
 2468000   0.86837787   -7.4489798    712.56588  0.024060166  0.023842453            2 
 2469000   0.84005427   -7.4592609    713.61127  0.024085705  0.023835714            4 
 2470000   0.85711348   -7.4258846    713.45109   0.02407055  0.023828941            6 
 2471000   0.84825258   -7.4472412     714.9741  0.024112171   0.02382224            1 
 2472000   0.83274336    -7.431499    713.87348  0.024065314  0.023815488            1 
 2473000   0.84414641   -7.4716853    714.34858  0.024071593  0.023808806            2 
 2474000   0.85504278   -7.4669491    713.53842  0.024034573  0.023802103            5 
 2475000    0.8547147   -7.4523446    714.16341  0.024045906   0.02379539            2 
 2476000   0.85147168   -7.4457291    715.88107  0.024094005  0.023788636            5 
 2477000   0.86653707   -7.4776539     713.6001  0.024007539  0.023781897            2 
 2478000   0.84939943    -7.467899     714.4904  0.024027791  0.023775162            3 
 2479000   0.85738671   -7.4349397    715.09817  0.024038529  0.023768401            2 
 2480000   0.85257193   -7.4580464    713.95494  0.023990421   0.02376172            2 
 2481000   0.84504367   -7.4489206    716.71118   0.02407333  0.023755107            4 
 2482000   0.87615966    -7.470483    716.08618  0.024042646  0.023748445            3 
 2483000   0.86644433   -7.4429549    715.81413  0.024023833  0.023741806            3 
 2484000   0.85355139   -7.4261925    716.58076   0.02403988  0.023735142            3 
 2485000   0.85081786   -7.4426341    716.41691  0.024024712  0.023728483            3 
 2486000   0.85102822   -7.4329674    716.42711   0.02401539  0.023721834            2 
 2487000   0.84417443   -7.4365334    715.93039  0.023989089  0.023715201            4 
 2488000   0.86189641   -7.4587486    715.30433  0.023958478   0.02370855            2 
 2489000   0.85726848   -7.4571949    716.77173  0.023997982  0.023701839            3 
 2490000   0.85160562   -7.4403551    715.52506  0.023946622  0.023695235            3 
 2491000   0.86134283   -7.4459965    717.25001  0.023994715  0.023688579            3 
 2492000   0.82640859   -7.4340965    715.87939  0.023939252  0.023682009            7 
 2493000   0.86848113   -7.4754827    716.60227  0.023953813  0.023675404            9 
 2494000   0.86422037   -7.4564791    715.69227  0.023913802  0.023668795            5 
 2495000   0.85043154   -7.4975842    716.97002  0.023946895  0.023662146            2 
 2496000   0.84199683   -7.4689608     716.9433  0.023936408  0.023655565            4 
 2497000   0.85758341    -7.462429    717.94576  0.023960278  0.023648991            1 
 2498000   0.84582823   -7.4687297    717.71458  0.023942974  0.023642403            3 
 2499000   0.85758166   -7.4498341    717.63615  0.023930777  0.023635838            4 
 2500000   0.86538442   -7.4783136     717.8923  0.023929743  0.023629262            5 
 2501000    0.8443409    -7.435049    722.30601   0.02406724  0.023622762            3 
 2502000   0.86457385   -7.4338182    719.43134  0.023961875  0.023616247            3 
 2503000   0.83539232   -7.4455481     718.4201  0.023918634  0.023609717            1 
 2504000   0.85075149   -7.4798886    718.58923  0.023914711  0.023603171            2 
 2505000   0.85297496   -7.4358733    719.64795  0.023940384  0.023596619            1 
 2506000   0.82832494   -7.4779906    718.55595  0.023894518  0.023590096            5 
 2507000   0.85686913   -7.4637936    719.77489  0.023925505  0.023583595            4 
 2508000   0.86310177   -7.4559549    720.85354  0.023951806   0.02357706            4 
 2509000   0.88186145   -7.4688414    719.54964  0.023898952  0.023570556            3 
 2510000   0.83510757   -7.4223784    720.75875  0.023929573  0.023564048            2 
 2511000   0.85599966   -7.4621207    721.37377  0.023940454  0.023557574            2 
 2512000   0.83132087   -7.4955515    719.34421  0.023863595  0.023551031            3 
 2513000   0.86510686   -7.4727953     719.8963  0.023872407  0.023544477            2 
 2514000   0.85749065    -7.496674    720.62636  0.023887111  0.023537892            3 
 2515000   0.86593065   -7.4621852    720.70811  0.023880322  0.023531382            4 
 2516000   0.86551786   -7.4803098    719.24681   0.02382243   0.02352485            5 
 2517000   0.85016928   -7.4486224    721.42872  0.023885205  0.023518312            2 
 2518000   0.84432162   -7.4369443     720.5408  0.023846333  0.023511776            5 
 2519000   0.84911758   -7.4666302    720.05797  0.023820893  0.023505232            2 
 2520000   0.82651739   -7.4590385    720.67707  0.023831914  0.023498732            5 
 2521000   0.85538976   -7.4628288    721.01798  0.023833729   0.02349223            3 
 2522000   0.85345564   -7.4625069    722.33426  0.023867772  0.023485769            3 
 2523000   0.84212255   -7.4570908    720.46842  0.023796684  0.023479245            2 
 2524000   0.84857678   -7.4826934    721.13336   0.02380921   0.02347273            2 
 2525000   0.83359782   -7.4693508    722.74545  0.023852985  0.023466268            3 
 2526000    0.8535841   -7.4718763    722.31559  0.023829361  0.023459757            4 
 2527000   0.83982638   -7.4748526    720.85558  0.023771784  0.023453239           10 
 2528000   0.84134356   -7.4798759    721.36987  0.023779334  0.023446785            4 
 2529000   0.85490174   -7.4752582    720.54249  0.023742668  0.023440317            5 
 2530000   0.85098971   -7.4723013    723.20576  0.023821007  0.023433842            4 
 2531000    0.8513616   -7.4988681      724.097  0.023840939  0.023427355            3 
 2532000   0.84918064   -7.4648769    721.38101  0.023742134   0.02342084            4 
 2533000   0.85782074   -7.5030988    722.12534  0.023757249  0.023414329            2 
 2534000   0.82829774   -7.4791538    721.60474  0.023730753  0.023407791            3 
 2535000   0.83986934   -7.4913452    722.82107  0.023761376  0.023401277            2 
 2536000   0.81559505    -7.469622    721.67357    0.0237143  0.023394743            5 
 2537000   0.85378877   -7.5253902    722.12979  0.023719938  0.023388215            4 
 2538000   0.83623756   -7.5017781    722.83447   0.02373373  0.023381698            3 
 2539000   0.82235667   -7.4954918    721.31174  0.023674404  0.023375131            3 
 2540000   0.84260621   -7.5161385    724.65999  0.023774934  0.023368575            1 
 2541000   0.84898074   -7.4698822    722.48854  0.023694364  0.023362044            3 
 2542000   0.85566311   -7.4802796    724.08079  0.023737241  0.023355568            2 
 2543000   0.84119597   -7.4772486    725.09425  0.023761117  0.023349151            2 
 2544000   0.83331693   -7.4874566    723.98781  0.023715534   0.02334276            4 
 2545000   0.84906366   -7.5016953    724.16785   0.02371211  0.023336346            2 
 2546000   0.82503681   -7.4711856      725.162  0.023735336  0.023329887            3 
 2547000   0.83802945    -7.462053    723.04679  0.023656812  0.023323448            3 
 2548000   0.83358757   -7.4693246    723.74356  0.023670315  0.023316986            3 
 2549000   0.84796062   -7.4826231     724.3466  0.023680744  0.023310597            4 
 2550000   0.82331119   -7.4665657    724.24386    0.0236681  0.023304176            3 
 2551000   0.84808138   -7.4841468     726.0013  0.023716232  0.023297783            2 
 2552000   0.84242029   -7.4546148    725.83126  0.023701387  0.023291404            2 
 2553000   0.86054593   -7.4531451     726.3404  0.023708722  0.023285065            5 
 2554000   0.84548015   -7.4388863    725.54081  0.023673349   0.02327867            5 
 2555000    0.8482035   -7.4374268    725.48796   0.02366236  0.023272311            3 
 2556000   0.81923779   -7.5121867    725.00996  0.023637518  0.023265901            4 
 2557000   0.86240844   -7.5037721    723.56165  0.023581073  0.023259438            4 
 2558000   0.84192709   -7.4973297    726.24172  0.023659165   0.02325299            4 
 2559000   0.83661242   -7.5240749     722.5577   0.02352995  0.023246519            6 
 2560000   0.85968139   -7.5042544    725.37438  0.023612447  0.023240023            3 
 2561000    0.8206028   -7.4810884    725.31394  0.023601261  0.023233615            2 
 2562000   0.85123797    -7.485962    725.87787  0.023610391  0.023227213            4 
 2563000   0.85068087   -7.4831451    724.82151  0.023566833   0.02322084            2 
 2564000   0.85196113   -7.4689326    726.87776  0.023624472  0.023214475            3 
 2565000   0.84062182   -7.4702794    727.79992  0.023645221  0.023208096            4 
 2566000   0.84010656   -7.4658079    727.31353  0.023620211  0.023201691            2 
 2567000   0.84007043    -7.472687    727.71954   0.02362419  0.023195306            3 
 2568000   0.84012371   -7.4834747    727.17615  0.023597357  0.023188918            3 
 2569000   0.84290103   -7.5070091    725.84779  0.023545082  0.023182536            3 
 2570000   0.85011059   -7.4719013    727.34674  0.023584525  0.023176134            4 
 2571000   0.83819578    -7.456553    728.95903   0.02362761  0.023169754            2 
 2572000   0.82398697   -7.4778722    726.50181  0.023538809  0.023163438            2 
 2573000   0.85358081   -7.4608937    727.81419  0.023572166  0.023157075            3 
 2574000    0.8492596   -7.4615471     729.2533  0.023609599  0.023150661            2 
 2575000   0.81721376   -7.4928995    728.25866  0.023568242  0.023144221            4 
 2576000   0.83840318   -7.4951699    726.42144  0.023499658  0.023137828            9 
 2577000   0.84053174   -7.4667572    726.76063  0.023501508  0.023131472            2 
 2578000   0.85433622   -7.5252013    725.75985  0.023460042   0.02312504            3 
 2579000     0.852506   -7.4811539    726.95436  0.023489542  0.023118647            3 
 2580000   0.84307718   -7.4966237    728.32154  0.023524597   0.02311225            3 
 2581000    0.8344532    -7.455026    729.52947  0.023554484  0.023105866            2 
 2582000   0.82700372   -7.4789122    727.72323  0.023487065  0.023099531            4 
 2583000   0.83304677   -7.5044856    728.71458  0.023509955  0.023093203            2 
 2584000   0.84386572   -7.4818777    728.30294  0.023487582   0.02308686            2 
 2585000   0.83832237   -7.4713666    729.16256  0.023506208  0.023080545            5 
 2586000   0.83180519     -7.48953    728.93272  0.023489711  0.023074247            4 
 2587000   0.84780494   -7.4792532    730.64857  0.023535903  0.023067981            6 
 2588000   0.83950199    -7.492641    730.35629  0.023517397  0.023061719            2 
 2589000   0.83981066   -7.4927986    728.95047  0.023463064  0.023055478            4 
 2590000   0.83539372   -7.5126693    729.10662  0.023459029  0.023049232            5 
 2591000   0.85045768    -7.480555    729.11475  0.023450236  0.023042962            2 
 2592000   0.83985493   -7.5199113     730.5309  0.023486719  0.023036687            5 
 2593000   0.84328507    -7.485076    730.95252  0.023491211  0.023030412            2 
 2594000   0.84549742   -7.4676232    731.68433  0.023505665   0.02302413            4 
 2595000   0.84864877   -7.4660412    730.64561   0.02346325  0.023017898            2 
 2596000   0.83322169   -7.5234139    730.86056  0.023461112  0.023011594            4 
 2597000   0.82820269   -7.5083203    730.36776  0.023436265  0.023005319            1 
 2598000   0.84100597   -7.5147724     730.3547  0.023426825  0.022999017            8 
 2599000   0.84862341   -7.4823964    731.47962   0.02345388  0.022992745            3 
 2600000   0.84257343   -7.5173672    730.39891  0.023410221  0.022986484            3 
 2601000   0.81835257   -7.4718278    731.71026  0.023443235  0.022980229           11 
 2602000   0.84813626   -7.4790131    730.34829  0.023390606  0.022974013            2 
 2603000   0.82728278   -7.4636595    731.43558  0.023416429  0.022967806            3 
 2604000   0.83133701   -7.4617078    731.00089  0.023393526    0.0229616            3 
 2605000   0.82941465   -7.4923523    730.71939   0.02337554  0.022955372            2 
 2606000     0.825942   -7.4890806    731.71395  0.023398374  0.022949114            2 
 2607000    0.8354298   -7.4744431     731.5167  0.023383094  0.022942848            1 
 2608000    0.8340426    -7.501528    730.95857  0.023356294  0.022936609            3 
 2609000   0.81387831   -7.4852248    730.62011  0.023336531    0.0229303            2 
 2610000   0.84339233   -7.4986468    730.53012  0.023324716  0.022924004            3 
 2611000   0.83079609   -7.4862837    732.23714  0.023370265  0.022917724            2 
 2612000   0.82066651   -7.5035471    729.89261  0.023286518  0.022911403            4 
 2613000    0.8414759    -7.505016    730.85725   0.02330837  0.022905102            6 
 2614000   0.82562058    -7.483436    730.75544  0.023296208  0.022898808            4 
 2615000   0.83993319   -7.5326117    729.27669  0.023240175  0.022892502            1 
 2616000   0.80844547   -7.4968211    731.44906  0.023300493  0.022886204            2 
 2617000   0.83856613   -7.4887604    730.89685  0.023274005  0.022879871            2 
 2618000   0.84041248   -7.4962678    731.86371  0.023295891  0.022873545            2 
 2619000   0.85065638   -7.4960177    732.39178  0.023303799   0.02286724            8 
 2620000   0.83384566   -7.5015272    733.25777  0.023322448  0.022860968            3 
 2621000   0.83599135    -7.511773    729.55426  0.023195799  0.022854714            6 
 2622000   0.83387404   -7.4910395    732.54119  0.023281884  0.022848432            4 
 2623000   0.83787211   -7.5025223    733.70019  0.023309829  0.022842126            4 
 2624000   0.82926013   -7.4751634    733.11489  0.023282358  0.022835844            4 
 2625000   0.83861692   -7.4969657    732.43282  0.023251836  0.022829557            3 
 2626000   0.83069855   -7.4848077     735.0128  0.023324854  0.022823265            5 
 2627000   0.85209568   -7.4736646    735.08751  0.023318345  0.022817023            3 
 2628000   0.83988066   -7.4969206    732.85535  0.023238691   0.02281074            6 
 2629000   0.83868795   -7.5099188    733.70994   0.02325694  0.022804447            3 
 2630000   0.83324622   -7.5087292    733.48986  0.023241124  0.022798165            6 
 2631000   0.82693229   -7.4963381    733.55938  0.023234492  0.022791888            3 
 2632000   0.82035863   -7.4728929    733.81212  0.023233667  0.022785631            2 
 2633000   0.82340861   -7.5062404    732.98488   0.02319866  0.022779373            3 
 2634000   0.83137508     -7.48047    733.01474  0.023190798  0.022773147            1 
 2635000   0.83027988   -7.4802754    733.70415    0.0232038  0.022766878            4 
 2636000   0.81244416   -7.5208062    732.78844  0.023166048  0.022760594            2 
 2637000   0.83870253    -7.499242    732.18787  0.023138284  0.022754271            6 
 2638000   0.83251015     -7.54302    734.03817  0.023187963  0.022747934            2 
 2639000   0.83661242   -7.5129848    733.19269  0.023152479  0.022741613            2 
 2640000   0.83430798   -7.4953724    734.41516  0.023182297  0.022735328            4 
 2641000    0.8415228   -7.5554982    732.81648  0.023123074  0.022729021            4 
 2642000   0.85584346   -7.5000233    733.90954  0.023148799  0.022722723            6 
 2643000   0.82527835    -7.533698    733.07575  0.023113752  0.022716406            3 
 2644000   0.83129885   -7.4946586    734.63099  0.023154028  0.022710105            3 
 2645000   0.83355541   -7.5163646    734.94107  0.023155043  0.022703851            2 
 2646000   0.82272618   -7.5193051    732.52612  0.023070236  0.022697535            2 
 2647000    0.8153901   -7.5037839    734.18885  0.023113866  0.022691197            2 
 2648000   0.83305069   -7.5038078    732.67336  0.023057445   0.02268492            6 
 2649000   0.82319154   -7.4969103    734.20153  0.023096814  0.022678585            5 
 2650000   0.81976222   -7.5190342    733.02216  0.023051011  0.022672255            2 
 2651000   0.82284362   -7.4915344    734.65857  0.023093756  0.022665927            5 
 2652000   0.82471284   -7.5332238    733.77017  0.023057132  0.022659603            2 
 2653000   0.82132387   -7.5059421    735.64889  0.023107453  0.022653259            3 
 2654000   0.82156849   -7.5065486    733.62042  0.023035055  0.022646919            5 
 2655000   0.84036468   -7.5162212    734.87507  0.023065759  0.022640567            4 
 2656000   0.81601062   -7.5030853    733.83539  0.023024454  0.022634208            5 
 2657000   0.82844362    -7.476179    734.54564  0.023038064  0.022627867            7 
 2658000   0.79867124   -7.5388551    733.65355  0.023001428   0.02262156            6 
 2659000   0.83476912   -7.5022059     734.8461  0.023030152  0.022615233            3 
 2660000   0.82105404   -7.5038658    732.20176  0.022938652  0.022608925            3 
 2661000   0.80416326   -7.5417665     733.6764  0.022976212   0.02260256            3 
 2662000   0.81180006   -7.4965735    734.98074  0.023008413  0.022596237            2 
 2663000   0.83250198   -7.4705681    737.12285  0.023066806  0.022589939            3 
 2664000    0.8197411   -7.5136952    733.98265  0.022959918  0.022583641            6 
 2665000   0.82615737   -7.5000022    735.71146  0.023005362  0.022577373            3 
 2666000   0.83513538   -7.4969677     735.7049  0.022996527  0.022571084            2 
 2667000    0.8470989    -7.524648    735.44715  0.022979851  0.022564785            3 
 2668000   0.82399775   -7.5266009    736.90061  0.023016636    0.0225585            5 
 2669000   0.82761288   -7.5273993    735.36087  0.022959937  0.022552204            2 
 2670000   0.82141312   -7.4727214    737.12964  0.023006543  0.022545933            2 
 2671000    0.8499041   -7.5276962    736.64841  0.022982916  0.022539642            5 
 2672000   0.83873699    -7.538808    734.02528  0.022892505  0.022533334            3 
 2673000   0.80693586   -7.5406511    735.46733  0.022928898  0.022526992            2 
 2674000   0.80855166   -7.5409807    736.71898   0.02295933  0.022520674           17 
 2675000   0.83763182   -7.5245714    736.43981   0.02294205  0.022514363            7 
 2676000   0.82995688   -7.5201875    735.48776  0.022903829  0.022508087            4 
 2677000    0.8209239   -7.5493551    734.92653  0.022877803  0.022501784            3 
 2678000   0.81996989   -7.5253083    736.18531   0.02290843  0.022495486            3 
 2679000   0.82705849   -7.5046136    737.07282  0.022927486  0.022489164            1 
 2680000   0.81064775   -7.5251644    735.71413  0.022876683  0.022482856            4 
 2681000    0.8221954   -7.5395286    736.09781  0.022880076   0.02247652            3 
 2682000    0.8093404   -7.5305093    735.16431   0.02284254  0.022470212            3 
 2683000   0.82484034   -7.5247042    736.73521  0.022882818   0.02246391            5 
 2684000   0.82303569   -7.5275772    736.04177  0.022852762  0.022457602            6 
 2685000   0.84221387   -7.5108833    737.30418  0.022883432  0.022451338            3 
 2686000   0.82272072   -7.5215173    735.50075  0.022818961  0.022445073            2 
 2687000   0.79921688   -7.5120868    735.95843  0.022824663  0.022438829            8 
 2688000   0.80795058   -7.5451365    737.95351  0.022878023  0.022432589           11 
 2689000   0.81165766   -7.4783231    737.74183  0.022862955  0.022426377            8 
 2690000   0.81406938   -7.5344878    737.24306  0.022839004  0.022420141            9 
 2691000   0.80960572   -7.5635543    737.22144  0.022829848  0.022413871            6 
 2692000   0.83740178   -7.5423928    737.10679  0.022817818  0.022407578            3 
 2693000   0.84727925   -7.5262866    737.36921  0.022817465  0.022401341            2 
 2694000    0.8321208   -7.5607456    737.95747  0.022827192  0.022395109            8 
 2695000   0.81426546   -7.5066062    740.06361  0.022883847  0.022388909            6 
 2696000   0.80902599   -7.5545328     736.8246  0.022775241  0.022382686            4 
 2697000   0.82031311   -7.5027376    739.79726  0.022858647   0.02237649            2 
 2698000    0.8100382   -7.4977216    739.47461  0.022840209  0.022370335            2 
 2699000   0.81190672   -7.5432031    737.60552  0.022774037   0.02236411            2 
 2700000   0.80514362   -7.5206188    737.54999  0.022763889  0.022357866            4 
 2701000   0.80946701   -7.5390869    739.06539  0.022802215  0.022351642            4 
 2702000   0.80994729   -7.5328384    737.97666  0.022760198  0.022345412            6 
 2703000   0.82280967   -7.5025543    740.32988  0.022824327  0.022339233            3 
 2704000   0.80776002   -7.5211563    740.50253  0.022821207  0.022333053            4 
 2705000   0.80156311   -7.5135204    739.48626  0.022781462  0.022326843            4 
 2706000   0.79424353   -7.4959721    739.65216  0.022778152  0.022320592            2 
 2707000   0.82909937   -7.5127202    739.00586  0.022749842  0.022314372            3 
 2708000   0.83105726     -7.47767    739.63582  0.022760827  0.022308191            4 
 2709000   0.81908064   -7.5185323     740.0493  0.022765144  0.022302006            3 
 2710000   0.82078999   -7.5447324    738.86182  0.022720228  0.022295788            3 
 2711000   0.81455414   -7.5340462    739.30778  0.022725556  0.022289545            4 
 2712000   0.81172952   -7.5590819    737.05221  0.022647868  0.022283286            4 
 2713000   0.81592948   -7.5500664    739.00559  0.022699521  0.022277056            2 
 2714000    0.8331571   -7.5659498    738.99034  0.022690688  0.022270766            4 
 2715000   0.83198685   -7.5468612    740.18124  0.022718884  0.022264502            7 
 2716000   0.80842475   -7.5539645    739.83244  0.022699817  0.022258256            2 
 2717000   0.81909683   -7.5507799    738.47249  0.022649751  0.022251961            2 
 2718000   0.82185026    -7.523941    739.01522  0.022658058  0.022245688            4 
 2719000   0.81604607   -7.5582847    737.66252  0.022608266  0.022239381            3 
 2720000   0.82323088   -7.5419768    740.77282  0.022695246  0.022233058            3 
 2721000   0.81099602   -7.5476459    739.67265  0.022653211  0.022226751            6 
 2722000   0.81372495   -7.4958791    741.30096  0.022694739  0.022220456            2 
 2723000   0.83176652   -7.5337001    740.67552  0.022667264  0.022214196            5 
 2724000   0.81898337   -7.5483755    739.92974  0.022636128  0.022207935            2 
 2725000   0.82608766   -7.5584673    741.59198  0.022678654  0.022201654            5 
 2726000   0.82688849   -7.5460494    739.56999  0.022608523  0.022195369            3 
 2727000   0.79659417   -7.5267011    738.93136  0.022580716  0.022189076            4 
 2728000   0.80960576   -7.5683537     739.4344  0.022587805   0.02218279            4 
 2729000   0.79950636   -7.5603956    739.13209  0.022570297  0.022176496            5 
 2730000   0.81311558   -7.5608119    738.64192  0.022547067  0.022170207            2 
 2731000   0.80116317   -7.5275547    737.48124  0.022503394  0.022163873            2 
 2732000   0.83135486   -7.5467709    739.90614  0.022569123  0.022157611            5 
 2733000   0.81890704    -7.542435    740.62716   0.02258285  0.022151352            3 
 2734000    0.8150823   -7.5502413    739.98209  0.022554928  0.022145131            3 
 2735000   0.82740532   -7.5636395    739.94634  0.022545592  0.022138874            3 
 2736000   0.82622801   -7.5269423    739.83149  0.022533854  0.022132607            4 
 2737000   0.81407956   -7.5335896    741.55208  0.022578008  0.022126362            3 
 2738000   0.82440141    -7.543234    739.78464  0.022515968  0.022120084            9 
 2739000   0.81521645   -7.5375347    742.46895  0.022589417  0.022113812            2 
 2740000   0.82477376   -7.5321171    740.77707  0.022529716   0.02210754            5 
 2741000   0.80574653   -7.5586551    742.76923  0.022582063  0.022101282            5 
 2742000   0.82599448   -7.5465348    739.76446  0.022482508   0.02209505            5 
 2743000   0.80756256   -7.5461139    741.98835  0.022541875   0.02208877            5 
 2744000   0.81509011   -7.5608708    741.44196  0.022517066  0.022082514            6 
 2745000   0.82035254   -7.5175388    741.54822  0.022512089  0.022076258            1 
 2746000   0.79977736   -7.5658739    740.95385  0.022485854  0.022070023            2 
 2747000   0.80456117   -7.5398615    741.92656  0.022507176  0.022063777            2 
 2748000    0.8033768   -7.5637331    741.10918  0.022474199  0.022057491            3 
 2749000   0.82790363   -7.5608832    742.68226   0.02251371  0.022051242            2 
 2750000   0.81066919   -7.5313349    740.75232   0.02244704  0.022044998            4 
 2751000   0.81243781   -7.5564306    742.60197   0.02249491  0.022038749            5 
 2752000   0.81587092    -7.564251    741.28629  0.022446896  0.022032544            2 
 2753000   0.78776663   -7.5628662    741.48704  0.022444819  0.022026283            3 
 2754000   0.82066629   -7.5248228    742.02799  0.022453038  0.022019976            6 
 2755000   0.82087871   -7.5645083    741.22017  0.022420453   0.02201373            4 
 2756000   0.81399877   -7.5527032    739.70948  0.022366639  0.022007443            3 
 2757000   0.79629753   -7.5605436    739.59952  0.022355203  0.022001159            3 
 2758000    0.7986351   -7.5186653     742.3817  0.022431161  0.021994888            5 
 2759000   0.82973718   -7.5405635    743.44101  0.022455026  0.021988669            3 
 2760000   0.82682609   -7.5399675    741.08992  0.022375903  0.021982417            5 
 2761000   0.81859617   -7.5599434    741.37397  0.022376372  0.021976169            2 
 2762000   0.81634154   -7.5311819    740.85013  0.022352466   0.02196989            4 
 2763000    0.8206416   -7.5812073     741.6788  0.022369369   0.02196362            5 
 2764000   0.80096535   -7.5909474    741.71371  0.022362328  0.021957348            3 
 2765000   0.81507292   -7.5831029    741.95838  0.022361615  0.021951066            2 
 2766000   0.82132779   -7.5648854    743.19303  0.022390728  0.021944809            2 
 2767000   0.78754334   -7.5809596    740.98577   0.02231616  0.021938516            2 
 2768000   0.80770519    -7.582924    741.15567  0.022313213  0.021932224            3 
 2769000    0.8144557   -7.5375161     742.0022  0.022330631   0.02192593            1 
 2770000   0.81616065   -7.5676261    743.85894  0.022378428  0.021919649            2 
 2771000   0.82000558   -7.5618783      743.696  0.022365452    0.0219134            2 
 2772000   0.80001146   -7.5659419    743.81471  0.022360952  0.021907204            6 
 2773000   0.79571948   -7.5161691    744.47514  0.022372735  0.021901029            5 
 2774000   0.80773448   -7.5520128    742.66422  0.022310268  0.021894815            3 
 2775000   0.80548044   -7.5438187    743.29274  0.022321103  0.021888562            5 
 2776000   0.80538186   -7.5613186    743.33428   0.02231431   0.02188233            3 
 2777000   0.80530268   -7.5443753    743.21251   0.02230262  0.021876086            4 
 2778000   0.81377227   -7.5839382    743.61975  0.022306808  0.021869835            2 
 2779000   0.79440975   -7.5754493    742.00479  0.022250354  0.021863556            4 
 2780000   0.79770923   -7.5596973    742.63532  0.022261251  0.021857263            4 
 2781000   0.81710054   -7.5585896    742.76399  0.022257102  0.021850974            5 
 2782000   0.80634961   -7.5824891    743.50692  0.022271355  0.021844691            3 
 2783000   0.82099713   -7.5619231    742.38578  0.022229781  0.021838394            4 
 2784000   0.82020404   -7.5369558    743.28394  0.022248681  0.021832136            2 
 2785000   0.80652446   -7.5528321    742.73423  0.022224244  0.021825895            2 
 2786000   0.81081417   -7.5696653    742.58957   0.02221194  0.021819637            3 
 2787000    0.7901599   -7.5739433    742.37879  0.022197668  0.021813358            2 
 2788000    0.8038466   -7.5539156    743.91202  0.022235534    0.0218071            3 
 2789000   0.80044596   -7.5704349    742.95466  0.022198956  0.021800848            1 
 2790000   0.79873446   -7.5637653    743.47737  0.022206612  0.021794538            3 
 2791000   0.80768577   -7.5803492    742.56238  0.022171336  0.021788239            4 
 2792000   0.79852545   -7.5825564    743.11369   0.02217985  0.021781951            5 
 2793000   0.81211067   -7.5433578    741.72755  0.022130551  0.021775648            3 
 2794000   0.81491422   -7.5746472    743.06095    0.0221624  0.021769335            6 
 2795000   0.82427998   -7.5705087    743.37209  0.022163748  0.021763056            3 
 2796000   0.81754336   -7.5746798      743.944  0.022172866  0.021756752            5 
 2797000   0.81705437   -7.5798778     743.4752  0.022150971  0.021750457            2 
 2798000   0.79985335   -7.5434356    743.81073  0.022153048  0.021744175            3 
 2799000   0.80412165   -7.5560451    744.26454  0.022158644  0.021737931            3 
 2800000    0.7937988   -7.5734927    744.09395  0.022145653  0.021731684            3 
 2801000   0.80532322   -7.5647101     745.8193  0.022189078  0.021725417            4 
 2802000   0.80150722   -7.6007244    743.08197  0.022099749  0.021719165            5 
 2803000   0.80212961   -7.5988306    743.18673   0.02209498  0.021712897            1 
 2804000   0.80671577   -7.5767933    744.42305  0.022123842  0.021706636            2 
 2805000   0.79885036   -7.5944306    743.93501  0.022101456  0.021700365            5 
 2806000   0.79464248    -7.581274    745.03556  0.022126264  0.021694148            3 
 2807000   0.79506333   -7.5318554    745.96554   0.02214599  0.021687928            4 
 2808000   0.80523124   -7.5797854    744.42629  0.022092423  0.021681751            3 
 2809000   0.79510323   -7.5880225    744.52858  0.022087593  0.021675528            5 
 2810000   0.80946536   -7.5706783     745.8232  0.022118126  0.021669323            2 
 2811000   0.79999887   -7.5754354    745.03542  0.022086903  0.021663076            6 
 2812000   0.81612821   -7.5714401    745.32435  0.022087611  0.021656853            5 
 2813000   0.79457477   -7.5910606    744.53216  0.022056291  0.021650614            1 
 2814000   0.79403942    -7.568808    745.93272  0.022089929  0.021644386            5 
 2815000   0.81192875   -7.5495202    746.36649  0.022094923  0.021638168            2 
 2816000   0.80764725   -7.6105325    746.94164  0.022104097  0.021631976            2 
 2817000   0.78183516   -7.5704758    746.53195   0.02208413  0.021625745            2 
 2818000   0.80166732   -7.5759244    746.70228  0.022081331  0.021619489            3 
 2819000   0.81342464   -7.5897188    745.72936  0.022044737  0.021613226            3 
 2820000    0.7872376   -7.5674436    745.01949  0.022015942  0.021606955            4 
 2821000   0.79037523   -7.6045715    744.98912  0.022007241  0.021600686            6 
 2822000   0.79647343   -7.5967705    745.82556  0.022024142  0.021594403            2 
 2823000   0.79806591    -7.578573    745.02545  0.021992722  0.021588146            3 
 2824000   0.80240824   -7.5468248    745.13177  0.021988072  0.021581868            5 
 2825000   0.78965636   -7.5850915    745.65158  0.021995622  0.021575575            3 
 2826000   0.80991806   -7.5899374    744.54622  0.021955243  0.021569298            3 
 2827000   0.80993435   -7.6086774     744.9778  0.021960199  0.021563014           15 
 2828000   0.79461645   -7.6040191    746.25082  0.021989946  0.021556728            2 
 2829000   0.80191843   -7.5619546    745.84287  0.021970156  0.021550502            8 
 2830000    0.7934903   -7.5806738    746.38073  0.021978231  0.021544251            6 
 2831000   0.80046047   -7.5772514    745.84795  0.021954785  0.021538011            5 
 2832000   0.80909739   -7.6168569     744.9918   0.02192184   0.02153174            3 
 2833000   0.79247812   -7.6237266    746.17028  0.021948767  0.021525451            5 
 2834000    0.7757106   -7.6228383    744.75262  0.021899336  0.021519163            4 
 2835000   0.79838714    -7.595585    744.43624  0.021882312  0.021512872            2 
 2836000   0.81300455   -7.6037173    744.89334  0.021888027  0.021506603            2 
 2837000   0.80788891   -7.6051944    745.52297  0.021898807  0.021500345            5 
 2838000   0.79608512   -7.5868338    745.91105  0.021902486  0.021494078            3 
 2839000   0.80383593    -7.595401     746.8418  0.021922091  0.021487819            5 
 2840000   0.78486572   -7.6242589    744.81896  0.021855016  0.021481534            7 
 2841000   0.79345722   -7.5988987    745.34268  0.021862686  0.021475263            3 
 2842000   0.79692409   -7.6151017    746.49167  0.021888684  0.021468982            3 
 2843000   0.77909645   -7.5865036    746.60782  0.021884389  0.021462697            4 
 2844000   0.81685738   -7.6061879    747.46651  0.021901855  0.021456427            3 
 2845000   0.80379022   -7.5664231    745.92018  0.021848863  0.021450202            2 
 2846000   0.79850965   -7.6118659    746.97775  0.021872152  0.021443967            4 
 2847000   0.80063619   -7.5584459    745.54526   0.02182254  0.021437737            3 
 2848000   0.80041767   -7.6267219    745.98009  0.021827601  0.021431509            4 
 2849000    0.7994754   -7.5853343    747.30154  0.021858592  0.021425274            2 
 2850000   0.81806023    -7.579283    746.69105  0.021833072  0.021419069            3 
 2851000   0.78014822   -7.5931384    746.31111  0.021814308  0.021412865            4 
 2852000   0.76985245   -7.5889004    745.09083  0.021771004  0.021406642            5 
 2853000   0.79300869   -7.5941796    746.90176  0.021816268  0.021400424            7 
 2854000   0.79655141   -7.5885328    748.13318   0.02184458  0.021394233            3 
 2855000    0.8116068   -7.6208427    748.47793  0.021846991   0.02138804            4 
 2856000   0.78170204   -7.5921538    747.39401  0.021807715  0.021381805            2 
 2857000   0.81379457   -7.5917738     747.5446  0.021804474  0.021375625            5 
 2858000   0.78927153   -7.6064891     747.0796  0.021783287   0.02136943            7 
 2859000    0.7961197   -7.6152151     748.1486  0.021806826   0.02136324            6 
 2860000   0.79368547   -7.5730992    748.30761  0.021803835  0.021357035            4 
 2861000   0.78577952   -7.5927118    748.18587  0.021792668  0.021350849            3 
 2862000   0.79111238   -7.5776107    748.01975  0.021780216  0.021344642            4 
 2863000    0.8028946   -7.5952246    747.59672  0.021760296  0.021338439            2 
 2864000   0.80038544   -7.5918543    749.41963  0.021805739  0.021332223            4 
 2865000   0.79676222   -7.5867266      748.629  0.021775131  0.021326002           10 
 2866000   0.79471231   -7.5638315    751.20842  0.021842534  0.021319815            2 
 2867000   0.80918387   -7.6168149    747.03762  0.021713685  0.021313644            4 
 2868000   0.80434077   -7.6106748    747.63157  0.021723372  0.021307409            3 
 2869000   0.78420822   -7.5993005    747.53195  0.021712907  0.021301186            4 
 2870000   0.79801637   -7.5859712    749.51676  0.021762972   0.02129497            4 
 2871000   0.77608564   -7.6064892     747.4785  0.021696229  0.021288781            1 
 2872000   0.78860288   -7.6101107    747.87415  0.021700155  0.021282579            2 
 2873000   0.80933329   -7.5849718    748.78411  0.021718996  0.021276382            2 
 2874000    0.7760682   -7.5922297     747.9313  0.021686711  0.021270168            3 
 2875000   0.79952789   -7.6118614    746.91163  0.021649612  0.021263989            3 
 2876000   0.79156767   -7.6401113    747.79368  0.021667642   0.02125776            6 
 2877000   0.80308028   -7.5885712    746.41666  0.021620225  0.021251521            5 
 2878000   0.78621566   -7.6147958    748.16472  0.021663329  0.021245272            3 
 2879000   0.79236583   -7.6009082    748.87208  0.021676279  0.021239056            4 
 2880000   0.78677382   -7.5702052    749.16585  0.021677253   0.02123287            7 
 2881000   0.79661462   -7.5700002     749.4766  0.021678717  0.021226707            3 
 2882000   0.80161495   -7.5829088    749.02303   0.02165808  0.021220529            5 
 2883000   0.79577781   -7.5877136    749.43213  0.021662392  0.021214392            1 
 2884000   0.78655888   -7.5876706     750.2949  0.021679811  0.021208218            4 
 2885000   0.78935933   -7.5911806    749.41798  0.021646966  0.021202058            2 
 2886000   0.79794813   -7.6124623    748.17934    0.0216037  0.021195847            3 
 2887000   0.80078362   -7.6260606      748.563  0.021607291  0.021189629            5 
 2888000   0.79632604   -7.5887116     748.2135  0.021589725  0.021183439            3 
 2889000   0.79051194   -7.5962198    750.64665  0.021652436  0.021177271            2 
 2890000   0.79922231   -7.5928587    749.17214  0.021602426  0.021171091            3 
 2891000   0.77887067   -7.5903009    749.71925  0.021610724  0.021164939            3 
 2892000   0.79294811   -7.6178324    749.30367  0.021591277  0.021158773            2 
 2893000   0.78635157   -7.5733713    752.49894  0.021675854  0.021152602            1 
 2894000    0.7846619   -7.5828939    748.96573  0.021566624  0.021146461            3 
 2895000   0.77925691    -7.610262    748.92724  0.021558067  0.021140287            4 
 2896000   0.78808034   -7.5865126     750.3595  0.021591836  0.021134141            4 
 2897000    0.7876687   -7.6176366    750.92965  0.021600784  0.021127985            3 
 2898000   0.77636075   -7.6146307    749.76462  0.021559829  0.021121801            2 
 2899000   0.79896606   -7.6080483    749.64895  0.021549067  0.021115621            3 
 2900000   0.78610271   -7.6186851    749.68318   0.02154262  0.021109459            4 
 2901000   0.80047073   -7.6081088    751.26394  0.021580603  0.021103314            4 
 2902000   0.79059033   -7.6164472    750.18415  0.021542159  0.021097171            4 
 2903000   0.77917279   -7.6244015      749.832   0.02152463  0.021091002            3 
 2904000   0.76574859   -7.6269741    750.90014  0.021547869  0.021084849            3 
 2905000   0.78134742   -7.6335242    750.96538  0.021542323  0.021078652            3 
 2906000    0.7858117   -7.6451786    747.87616  0.021446323  0.021072447            4 
 2907000   0.80306254   -7.6066668    750.71315  0.021520271  0.021066224            2 
 2908000   0.78332741   -7.5927061    749.30415  0.021472494   0.02106004            5 
 2909000    0.7780723   -7.6257793    749.08204   0.02145875  0.021053866            5 
 2910000   0.76779631   -7.6293077    751.83244  0.021530139  0.021047675            3 
 2911000   0.78382048   -7.6366893    750.95385  0.021497591  0.021041496            4 
 2912000   0.78748973   -7.5936532    750.45458  0.021475921  0.021035325            3 
 2913000   0.78561232   -7.6211084    751.28297  0.021492247  0.021029166            7 
 2914000   0.78116305   -7.5931617     751.8225    0.0215003  0.021023026            3 
 2915000   0.77504543   -7.5928821    752.03689  0.021499053  0.021016876            3 
 2916000   0.79643636   -7.6096741    750.50676  0.021447953  0.021010728            3 
 2917000   0.78606991   -7.5964853    751.95509  0.021481976  0.021004567            3 
 2918000    0.7801173   -7.6029448    750.73093  0.021439654  0.020998398            4 
 2919000   0.78423811   -7.6292513    751.44993  0.021452836  0.020992243            3 
 2920000   0.77706314   -7.6399002    751.23501  0.021439355  0.020986088            4 
 2921000   0.78784356   -7.6381471     750.2077  0.021402707   0.02097995            8 
 2922000   0.80301233   -7.6066993    750.78994  0.021411988  0.020973794            5 
 2923000   0.78676404   -7.6394662    749.98347   0.02138167  0.020967607            2 
 2924000   0.79736807   -7.6327207     751.5418   0.02141877  0.020961412            2 
 2925000   0.78314519   -7.6333075    751.90826  0.021421888  0.020955226            5 
 2926000   0.77981532   -7.6242239    750.01513   0.02136065  0.020949038            4 
 2927000   0.79431579   -7.6584294    748.49991  0.021310213  0.020942857            3 
 2928000   0.79489917   -7.6341221    749.83629  0.021340969   0.02093666            5 
 2929000   0.78591744   -7.6246731    751.76097  0.021388442  0.020930495            2 
 2930000   0.78961925   -7.5939026    752.07821  0.021390165  0.020924327           10 
 2931000   0.78333509    -7.639338    749.77414  0.021317359  0.020918156            6 
 2932000   0.76527649   -7.6539673    751.18885  0.021350297  0.020911999            3 
 2933000   0.81225022   -7.6109528    752.48162  0.021379748  0.020905856            2 
 2934000   0.78682041   -7.6412324    752.16804  0.021363555  0.020899717           10 
 2935000   0.78852428    -7.623717    751.68909  0.021342677  0.020893547            3 
 2936000   0.76412285   -7.6394751    751.87857  0.021340786  0.020887384            4 
 2937000   0.77163925   -7.6460465    751.18523  0.021313847  0.020881218            4 
 2938000   0.78058745   -7.6295978    753.51782  0.021372754  0.020875039            2 
 2939000    0.7741252   -7.6451016    752.70693   0.02134249  0.020868902            3 
 2940000   0.77545229   -7.6101168    754.18669  0.021377174  0.020862771            4 
 2941000   0.77000483   -7.6333806    753.05605  0.021337868  0.020856642            6 
 2942000   0.78470093   -7.6259087    752.56576  0.021316728  0.020850519            2 
 2943000   0.78576803   -7.6218073    752.93559  0.021319957  0.020844365            4 
 2944000   0.77261858   -7.6531825    752.08503  0.021288639  0.020838192           11 
 2945000   0.80515799   -7.6400145    752.30232  0.021287558  0.020832061            5 
 2946000   0.78017174   -7.6532231     751.8899  0.021268667  0.020825922            6 
 2947000   0.78849551   -7.6352905    751.04452  0.021237544  0.020819787            4 
 2948000   0.76629946   -7.6209978    753.08277  0.021287957  0.020813658            8 
 2949000   0.78461807   -7.6062278    752.72822  0.021270719  0.020807555            2 
 2950000    0.7569701   -7.6581876    752.24378  0.021249824  0.020801423            3 
 2951000   0.77318027   -7.6247737    753.22577  0.021270354  0.020795286            5 
 2952000   0.78538763   -7.6533499     752.0799  0.021230801  0.020789146            5 
 2953000   0.79173383   -7.6384862     753.6976  0.021269263  0.020783032            7 
 2954000   0.77988818   -7.6431499      752.105  0.021217135   0.02077691            7 
 2955000   0.76616522   -7.6130839    753.51475  0.021249711  0.020770791            3 
 2956000   0.75957496    -7.619444    752.03426  0.021200785   0.02076467            3 
 2957000   0.77454308    -7.651509    753.50808   0.02123515  0.020758548            3 
 2958000   0.77407543   -7.6320151    753.40977  0.021225202  0.020752405            3 
 2959000   0.77225965   -7.5994926     752.9033  0.021203765  0.020746303            7 
 2960000   0.76693816    -7.616184    753.65738  0.021217832  0.020740241            3 
 2961000   0.77538987   -7.6304682    752.57054  0.021180078  0.020734178            4 
 2962000   0.77849745    -7.609388    754.29428  0.021221424  0.020728128            3 
 2963000   0.77651663   -7.6159107    754.33435  0.021215388  0.020722089            2 
 2964000   0.77157271   -7.6374869    753.03322  0.021171649  0.020716041            4 
 2965000   0.78752171   -7.6069579    753.03423  0.021164537  0.020709994            5 
 2966000   0.78940992   -7.6115645    754.56556  0.021200426  0.020703945            2 
 2967000   0.79315293   -7.6020519    753.32092  0.021158323  0.020697895            3 
 2968000   0.76362538   -7.6230458    752.08247  0.021116422  0.020691835            2 
 2969000   0.76447118   -7.6152712    753.71595  0.021155157  0.020685746            2 
 2970000   0.77616152   -7.6190456    754.31274  0.021164779  0.020679643            6 
 2971000   0.78856149   -7.6246787    753.37085  0.021131237  0.020673541            2 
 2972000   0.79030549   -7.6073796    753.43015  0.021125789  0.020667459            5 
 2973000    0.7755465    -7.613866    752.71155  0.021098541   0.02066138            4 
 2974000   0.78578944   -7.6216284    753.72624  0.021119879  0.020655293            3 
 2975000   0.77840989   -7.6431934    754.10221  0.021123311  0.020649169            5 
 2976000   0.76306259   -7.6374714    753.09608   0.02108804  0.020643053            2 
 2977000   0.77934288   -7.6535725    754.46327  0.021119227  0.020636916            4 
 2978000   0.78321943   -7.6705577    751.95865  0.021042049  0.020630749            5 
 2979000   0.77168421    -7.658426    751.38136  0.021018836  0.020624615            4 
 2980000   0.77689491   -7.6657677    754.07773  0.021087185   0.02061847            5 
 2981000   0.75887426   -7.6414001    753.20428  0.021055694  0.020612329            4 
 2982000   0.78026325   -7.6607677    753.78718  0.021064922  0.020606216            4 
 2983000   0.78261496   -7.6229398    753.75923   0.02105708  0.020600086            7 
 2984000   0.77107163   -7.6234692     756.3981  0.021123718  0.020593979            4 
 2985000    0.7924279   -7.6362991    753.45448  0.021034463  0.020587873            4 
 2986000   0.77136422   -7.6630248    753.73887  0.021035356  0.020581732            3 
 2987000   0.76109245   -7.6613268    751.70538  0.020971582  0.020575587            3 
 2988000    0.7669123   -7.6551037    753.36536  0.021010859  0.020569437            2 
 2989000   0.75933509   -7.6457163     752.7709  0.020987256  0.020563303            3 
 2990000   0.77738192   -7.6609386    753.99816  0.021014442  0.020557164            3 
 2991000   0.77098489   -7.6459863    753.06487  0.020981413  0.020551035            6 
 2992000   0.79386373   -7.6473643    753.21564    0.0209786  0.020544871            3 
 2993000   0.76403068   -7.6517305    753.77173  0.020987073  0.020538734            2 
 2994000   0.78489082   -7.6583236    751.44838  0.020915397    0.0205326            4 
 2995000   0.76901218     -7.66182    752.76092  0.020944934  0.020526433            3 
 2996000   0.76246792   -7.6489684    752.49521  0.020930552  0.020520256            3 
 2997000   0.77294428   -7.6529748    752.34231  0.020919317  0.020514079            2 
 2998000   0.78807084   -7.6481975    752.15328  0.020907085  0.020507899            3 
 2999000   0.77994446   -7.6495041    752.48723  0.020909393  0.020501754            7 
 3000000   0.76699608    -7.636405    754.58656  0.020960738  0.020495601            4 
 3001000   0.78796907   -7.6472813    754.11108   0.02094055  0.020489452            5 
 3002000   0.77741796    -7.650039    753.49787  0.020916552  0.020483329            4 
 3003000   0.76800001   -7.6740519    754.94217  0.020949666  0.020477188            3 
 3004000   0.76978758    -7.634311    755.55768  0.020959767  0.020471049            3 
 3005000   0.76752715   -7.6418305    753.89021   0.02090655  0.020464904            2 
 3006000   0.77918579   -7.6344035    754.86677  0.020926668  0.020458782            4 
 3007000   0.76551025   -7.6253256    754.07513   0.02089777  0.020452643            3 
 3008000   0.77301129   -7.6549877    754.56032  0.020904264  0.020446501            5 
 3009000   0.74648231   -7.6396882    755.57478  0.020925412  0.020440368            3 
 3010000   0.78616137   -7.6483489    753.89615  0.020871987  0.020434254            5 
 3011000   0.75443506   -7.6802483    753.26156  0.020847491  0.020428118            7 
 3012000    0.7856303   -7.6408391    754.04031  0.020862116  0.020421964            6 
 3013000    0.7692649   -7.6496612    754.39733  0.020865066  0.020415822            7 
 3014000   0.74656959   -7.6271009    754.99137  0.020874568    0.0204097            2 
 3015000    0.7818369   -7.6102855    755.02381  0.020868541  0.020403629            4 
 3016000   0.76353143   -7.6588077     754.7132  0.020853039  0.020397541            3 
 3017000    0.7596621   -7.6215709    754.39129  0.020837236  0.020391427            2 
 3018000   0.75963216   -7.6530074    756.87164  0.020898819  0.020385306            2 
 3019000   0.78331468   -7.6507156    754.85954  0.020836357   0.02037919            3 
 3020000   0.77143058   -7.6941893    752.30532  0.020758977   0.02037306            3 
 3021000   0.77930124   -7.6593936    753.53261   0.02078596  0.020366929            3 
 3022000   0.77179438   -7.6455061    755.87947  0.020843797  0.020360814            4 
 3023000   0.77145426   -7.6601288    755.17726  0.020817545  0.020354747            2 
 3024000   0.76828525   -7.6465298    756.70352  0.020852721  0.020348645            4 
 3025000   0.77272474   -7.6402995    755.59496  0.020815288  0.020342584            2 
 3026000   0.78154011   -7.6216869    757.37568  0.020857449    0.0203365            3 
 3027000   0.76834127   -7.6493725    757.50464  0.020854109  0.020330423            2 
 3028000   0.75991565   -7.6608313    754.69484  0.020769893  0.020324314            4 
 3029000   0.76652249   -7.6610696    754.15996  0.020748321  0.020318212            3 
 3030000   0.74956938   -7.6588246    755.33409  0.020773765  0.020312116            2 
 3031000   0.75927796   -7.6865195    755.64061  0.020775338  0.020306034            3 
 3032000   0.75868918   -7.6321843    756.54649  0.020793384  0.020299967            2 
 3033000   0.75024838   -7.6463765    757.55928  0.020814355  0.020293906            6 
 3034000   0.77862195   -7.6463627    755.93705  0.020762938  0.020287842            4 
 3035000   0.74872001   -7.6619653    755.87506  0.020754395  0.020281738            2 
 3036000   0.76558331   -7.6754523    754.38026  0.020706529  0.020275614            3 
 3037000   0.77027264    -7.682125    756.78359  0.020765656  0.020269495            5 
 3038000   0.75614955   -7.6401831    755.21336  0.020715749   0.02026342            4 
 3039000   0.80310679   -7.6480927    756.54166  0.020745357  0.020257377            3 
 3040000   0.75532407    -7.623621    756.46112  0.020736325  0.020251314            2 
 3041000   0.77625671   -7.6684251    755.24905  0.020696291  0.020245253            5 
 3042000   0.75619629   -7.6707185    756.05638  0.020711604  0.020239194            2 
 3043000   0.74590285   -7.6401135      756.419  0.020714728  0.020233152            2 
 3044000   0.76611756   -7.6473931    757.24299   0.02073048  0.020227109            5 
 3045000    0.7701734   -7.6504953    756.39181  0.020700378   0.02022109            5 
 3046000   0.76714303    -7.642734    755.52635  0.020669904  0.020215046            2 
 3047000   0.77252888    -7.662748    756.82505  0.020698639  0.020209016            2 
 3048000   0.75618003   -7.6386938    757.55089  0.020711693     0.020203            5 
 3049000   0.74450117   -7.6059164    758.75755   0.02073788  0.020196996            5 
 3050000   0.78101041   -7.6516986    756.71162  0.020675181  0.020190982            3 
 3051000   0.76216502   -7.6553245    756.12278  0.020652321  0.020184962            2 
 3052000   0.75287879   -7.6649466    757.00335  0.020669598  0.020178928            3 
 3053000   0.74835189   -7.6860946    756.30749  0.020643834  0.020172877            7 
 3054000   0.75290071   -7.6241934    757.77754  0.020677187  0.020166843            5 
 3055000     0.758754   -7.6703215    756.54677  0.020636846  0.020160839            2 
 3056000   0.76230387   -7.6726114    757.60628  0.020658984  0.020154841            2 
 3057000   0.77286621   -7.6681665    758.11074  0.020665978  0.020148834            2 
 3058000   0.75800784   -7.6846209    756.04949  0.020603049  0.020142827            5 
 3059000   0.75401445   -7.6554527     757.2402  0.020628751   0.02013682            3 
 3060000   0.75638907   -7.6568274    758.55964  0.020657942  0.020130854            4 
 3061000   0.76104483   -7.6723232    758.25719   0.02064296  0.020124878            3 
 3062000   0.76767706   -7.6767237    759.41727   0.02066779  0.020118927            2 
 3063000    0.7639454   -7.6533599    759.50349  0.020663388  0.020112973            4 
 3064000   0.75227259   -7.6817497    757.70381  0.020607697  0.020106975            3 
 3065000   0.76705881   -7.6883278    757.14772  0.020585854  0.020100953            3 
 3066000   0.76590226   -7.6620585    758.77197  0.020623287   0.02009498            4 
 3067000   0.77662468   -7.6875953     760.5214  0.020664096  0.020089011            2 
 3068000   0.76069627    -7.662193    760.68202  0.020661724  0.020083071            7 
 3069000   0.76758165   -7.6658089    757.85741  0.020578294  0.020077124            2 
 3070000   0.75197253   -7.7094885    758.12824  0.020578942  0.020071139            4 
 3071000   0.75908363   -7.6596995    760.49403  0.020636438  0.020065138            3 
 3072000   0.76573195   -7.6787301    758.12322  0.020565408  0.020059151            4 
 3073000   0.76244915   -7.6751071    758.24166  0.020561928  0.020053177            5 
 3074000   0.76400518   -7.6919458    758.27874  0.020556244  0.020047185            3 
 3075000   0.77156165   -7.6730335    758.19851  0.020547385  0.020041195            4 
 3076000   0.77176087   -7.6906278    756.33959  0.020490344  0.020035166            3 
 3077000   0.76993405   -7.6823659    758.93349  0.020553935  0.020029176            4 
 3078000   0.77606992   -7.6559879    759.58694  0.020564949  0.020023184            7 
 3079000   0.73620862   -7.7026293    758.67678  0.020533636  0.020017191            3 
 3080000    0.7608218   -7.6833825    757.45218  0.020493836  0.020011204            3 
 3081000   0.75997398   -7.6676743    757.85786  0.020498157   0.02000525            5 
 3082000   0.75089308   -7.6604323    759.87268  0.020545984  0.019999276            2 
 3083000   0.77319227   -7.6263595    758.87016  0.020512222  0.019993338            3 
 3084000   0.74166163   -7.6787328     758.4242   0.02049352  0.019987382            4 
 3085000   0.75531098   -7.6700309    758.29252   0.02048332  0.019981406            3 
 3086000   0.75146621   -7.6719133    760.23232  0.020529065   0.01997544            3 
 3087000    0.7640331   -7.6631534    760.53696  0.020530638  0.019969476            2 
 3088000   0.73580974   -7.6536872    757.72598  0.020448132   0.01996353            3 
 3089000   0.76436904   -7.6793636     758.7267  0.020468509  0.019957551            4 
 3090000   0.74129933   -7.7062893    757.65658  0.020433025  0.019951551            6 
 3091000   0.75627739   -7.7041696    756.24071  0.020388243  0.019945527            3 
 3092000   0.75762857   -7.6352074    757.47016  0.020414784   0.01993952            3 
 3093000   0.77919616   -7.6648489    757.74471  0.020415581  0.019933523            4 
 3094000    0.7639952   -7.6676509    759.15114  0.020446863  0.019927489            3 
 3095000   0.74753739   -7.6788848    759.03898  0.020437237  0.019921494            4 
 3096000   0.76295793   -7.7027872    758.00955  0.020402927  0.019915483            6 
 3097000    0.7398794   -7.6579347     758.0305  0.020396903  0.019909458            2 
 3098000   0.74984227   -7.6589699    758.27557  0.020396911  0.019903442            7 
 3099000   0.73990976   -7.6917994    758.70744  0.020401943   0.01989742            5 
 3100000    0.7584947   -7.6905999     758.8756  0.020399882  0.019891367            5 
 3101000   0.77036237   -7.6622885    757.31691  0.020351416  0.019885313            3 
 3102000   0.75603163   -7.6762891    758.18636  0.020368213  0.019879285            2 
 3103000   0.76696041   -7.6826694    757.26201  0.020336825  0.019873247            2 
 3104000   0.75382635   -7.7000658    755.24975   0.02027625  0.019867199            3 
 3105000   0.76924733   -7.7009296    756.90209  0.020314066  0.019861117            4 
 3106000   0.74631555   -7.6960556    756.96869  0.020309312  0.019855061            6 
 3107000   0.76212711    -7.696727    757.68102  0.020321881  0.019848995            4 
 3108000   0.74612781   -7.6719095    759.57094  0.020366016  0.019842906            3 
 3109000   0.76790641   -7.6836225    758.38704  0.020327732  0.019836816            7 
 3110000   0.75717556   -7.6965676    757.12792  0.020287458  0.019830746            2 
 3111000    0.7609404   -7.6744528    757.15997  0.020281795  0.019824688            2 
 3112000   0.74705972   -7.7140637    757.68652  0.020289378  0.019818622            3 
 3113000   0.75917871   -7.7133539    757.20256  0.020269905  0.019812559           10 
 3114000   0.77789444   -7.7097518    757.15852  0.020262217  0.019806472            5 
 3115000   0.76991369   -7.6795564    758.59732  0.020294203  0.019800402            4 
 3116000   0.74842488   -7.6687336    759.26565  0.020305564  0.019794383            4 
 3117000   0.73808087   -7.6821938    758.53021  0.020279388  0.019788355            7 
 3118000   0.75763104   -7.6801096    757.59286  0.020247831   0.01978235            6 
 3119000   0.75537383   -7.6791001    758.61262  0.020268586  0.019776331            3 
 3120000   0.73919466   -7.6931865    757.56182  0.020234023  0.019770326            3 
 3121000    0.7613202   -7.6940004    756.67992  0.020203992  0.019764266            7 
 3122000   0.76352089   -7.6796087    758.19306   0.02023791  0.019758258            3 
 3123000   0.74050688   -7.7120879     758.3887   0.02023665   0.01975224            3 
 3124000   0.75359417   -7.6940114    759.43984  0.020258212  0.019746204            5 
 3125000   0.76037914   -7.6968742    758.25312  0.020220083  0.019740193            4 
 3126000   0.75318281   -7.7088455    759.08034  0.020235667  0.019734173            5 
 3127000    0.7705931   -7.7111014    756.88731  0.020170752  0.019728142            2 
 3128000   0.77147262   -7.7142486    758.75045   0.02021394  0.019722124            4 
 3129000   0.74553861   -7.7068395    758.16175  0.020191801  0.019716111            4 
 3130000    0.7588534   -7.6972996    759.40252  0.020218385  0.019710097            4 
 3131000   0.74106526   -7.6756618    760.19616   0.02023305   0.01970409            4 
 3132000   0.75326886   -7.6854765    758.91556  0.020192517  0.019698097            3 
 3133000   0.74821544   -7.6836652    758.27014  0.020168905  0.019692099            4 
 3134000   0.75181011   -7.7054424      758.255  0.020162067  0.019686093            2 
 3135000   0.74101693    -7.722454    759.20222  0.020180814  0.019680084            2 
 3136000   0.76570177   -7.6943216    757.85696  0.020138631  0.019674063            3 
 3137000   0.75171708   -7.6878994    758.19273  0.020141131  0.019668052            5 
 3138000    0.7393555   -7.7203593    757.64417  0.020120145  0.019662052            4 
 3139000   0.74907198    -7.709592    759.04389  0.020150894  0.019656065            2 
 3140000   0.74151006   -7.7037625     759.4943   0.02015643   0.01965005            3 
 3141000   0.74193543   -7.7074841    759.13441  0.020140465  0.019644057            4 
 3142000   0.75589534   -7.7054207    758.97228  0.020129755  0.019638034            2 
 3143000   0.73069628   -7.7151759     761.4327  0.020188586   0.01963203            7 
 3144000   0.74833813   -7.6776962    759.57601  0.020132952  0.019626055            2 
 3145000   0.76823045   -7.7165287    759.48321  0.020124091  0.019620093            4 
 3146000   0.75062993     -7.70976    758.60077   0.02009432  0.019614077            3 
 3147000   0.76013347   -7.7108541    759.05936  0.020100078  0.019608074            6 
 3148000   0.74027777   -7.7319517    759.69821  0.020110605  0.019602123            4 
 3149000   0.76470931   -7.6982463     760.9388  0.020137049   0.01959619            3 
 3150000   0.74004294   -7.6936098     760.6817  0.020123854  0.019590229            2 
 3151000    0.7475419   -7.7002613    761.42141  0.020137031  0.019584263            2 
 3152000    0.7584028   -7.6916814    761.47449  0.020132046  0.019578303            3 
 3153000   0.74299583   -7.6863315    760.28773  0.020094295  0.019572401            3 
 3154000   0.73158149   -7.7043317    760.96815  0.020105901  0.019566464            6 
 3155000   0.73470468    -7.706993    759.76596  0.020067775  0.019560539            3 
 3156000   0.75268767   -7.7125749    758.94073  0.020039626  0.019554582            7 
 3157000   0.74512203   -7.7226648    759.72252  0.020053915  0.019548635            5 
 3158000    0.7534649   -7.6998356    759.89881  0.020052217  0.019542677            4 
 3159000   0.74501717    -7.724785    761.35221  0.020084209  0.019536742            3 
 3160000   0.75522311   -7.7026867    760.76494  0.020062367  0.019530782            3 
 3161000   0.74220214   -7.7413695    758.36338  0.019992708  0.019524814            4 
 3162000   0.74380823   -7.7120794    760.32452   0.02003807  0.019518862            6 
 3163000   0.73799822   -7.7311963     762.1758  0.020080509  0.019512916            3 
 3164000   0.75265272   -7.6853079    760.60294  0.020032736  0.019506991            6 
 3165000   0.75050909   -7.6827004    761.07703   0.02003889  0.019501091            3 
 3166000   0.74468775   -7.6848093     762.0138  0.020057217  0.019495187            6 
 3167000   0.74308155   -7.6857047    762.17616  0.020055156  0.019489317            5 
 3168000   0.74477742   -7.7026455    762.83129  0.020066059   0.01948342            4 
 3169000   0.74600017   -7.6937218    762.36758  0.020047533  0.019477517            3 
 3170000   0.72910622   -7.6947868     760.1494  0.019982897  0.019471624            3 
 3171000   0.75061196   -7.7118813    761.83241  0.020020824   0.01946572            7 
 3172000   0.74542759   -7.6767649    761.67164  0.020010289  0.019459819            3 
 3173000   0.75539612   -7.7040203    761.02706  0.019987054   0.01945394            4 
 3174000   0.74260253   -7.7464134     762.0227  0.020006897   0.01944802            2 
 3175000   0.75126084   -7.7424857    761.46578  0.019985979  0.019442099            3 
 3176000   0.72872036   -7.7060836    762.16268  0.019997971   0.01943618            5 
 3177000   0.73361702   -7.7178379    762.61596  0.020003566  0.019430264            1 
 3178000    0.7533037   -7.7047754    761.81555  0.019976284  0.019424338            8 
 3179000   0.74304701   -7.7166807    763.05016  0.020002364  0.019418406            4 
 3180000   0.74013865   -7.7222511    761.18801  0.019947275   0.01941247            6 
 3181000   0.74458184     -7.71616    759.88382  0.019906838  0.019406527            3 
 3182000   0.72077073   -7.7166112    761.78663  0.019950414  0.019400617            5 
 3183000   0.74595859   -7.7239173    759.63806  0.019887895  0.019394668            3 
 3184000   0.72633778   -7.7403766     760.1037  0.019893836  0.019388734           10 
 3185000   0.73049317   -7.7238372    760.12906  0.019888254  0.019382817            6 
 3186000    0.7308492   -7.7245409    761.47723  0.019917274  0.019376873            5 
 3187000   0.74321608   -7.6902994    762.12697  0.019928014  0.019370965            5 
 3188000   0.74708308   -7.7134364    760.92831  0.019890431  0.019365046            3 
 3189000   0.73915843   -7.7100413    761.66008  0.019903316  0.019359145            6 
 3190000   0.74498122    -7.724592    760.22638  0.019859623  0.019353225            3 
 3191000   0.74370629   -7.7213423    761.17044  0.019878054  0.019347312            4 
 3192000   0.73593149   -7.7401394    761.14904  0.019871268  0.019341388            7 
 3193000   0.73442786   -7.6995257    760.89751   0.01985848  0.019335466            3 
 3194000   0.74931636   -7.7203446    761.71936  0.019873705  0.019329541            3 
 3195000   0.73969527   -7.7362949     760.8841  0.019845699  0.019323633            6 
 3196000   0.74306842   -7.7368182     762.4948  0.019881487  0.019317729            9 
 3197000   0.74065565   -7.7073784    762.95118  0.019887164  0.019311841            5 
 3198000   0.71860375    -7.701132    761.28627  0.019837562  0.019305936            5 
 3199000   0.75896556   -7.7154141    762.55125  0.019864313   0.01930002            4 
 3200000   0.74915807    -7.747809    761.64074  0.019834394  0.019294103            4 
 3201000   0.75324734   -7.7152862    762.88742  0.019860653  0.019288181            2 
 3202000   0.75122829   -7.7342856    762.70115  0.019849603  0.019282274            2 
 3203000   0.72363911   -7.7049021    762.59065  0.019840531  0.019276361            2 
 3204000   0.74859043   -7.7240042    760.92649  0.019791055  0.019270447            5 
 3205000   0.73840608   -7.7045991     761.7056  0.019805138  0.019264518            4 
 3206000   0.73075653   -7.7161623     760.4764   0.01976701  0.019258589            4 
 3207000   0.74422755    -7.750737    759.87265  0.019745158  0.019252619            3 
 3208000    0.7468943   -7.7467782    759.94923  0.019740992  0.019246655            4 
 3209000   0.74608808   -7.7188832    761.17347  0.019766632  0.019240692            4 
 3210000   0.72843432    -7.737158     758.8703  0.019700683  0.019234732            3 
 3211000    0.7249281   -7.7270366    759.54432   0.01971204  0.019228768            2 
 3212000   0.72880529   -7.7293251       761.66  0.019760793  0.019222827            4 
 3213000   0.73794308   -7.7116323    762.83187  0.019785036    0.0192169            3 
 3214000   0.72836553   -7.6891911    760.34738  0.019714462  0.019210967            3 
 3215000   0.74483453    -7.729027    761.25183  0.019731774  0.019205042            4 
 3216000   0.71613211   -7.7292781    760.52521   0.01970681  0.019199135           11 
 3217000   0.75818786   -7.7201258    759.76974  0.019681114  0.019193198            4 
 3218000   0.73786666   -7.7156359    761.54792  0.019721046   0.01918729            3 
 3219000   0.73789059   -7.7284976    760.02978  0.019675618  0.019181369            2 
 3220000   0.73520284   -7.7313926    761.11976  0.019697716  0.019175458            3 
 3221000    0.7262768   -7.7132713    762.12478  0.019717603  0.019169559            4 
 3222000   0.73789368   -7.7039394    762.05818  0.019709761   0.01916368            6 
 3223000   0.75303288   -7.7083834    761.09865  0.019678836  0.019157803            4 
 3224000   0.72808399    -7.717937     761.7901  0.019690604   0.01915192            6 
 3225000   0.72815124   -7.7571249    760.26253  0.019645026  0.019145991            4 
 3226000   0.76406847   -7.7580207    761.26452   0.01966482   0.01914008            6 
 3227000   0.73059079   -7.7375722    760.98305  0.019651458  0.019134157            6 
 3228000   0.72743307    -7.738653     760.9529  0.019644591  0.019128236            3 
 3229000   0.72920934   -7.7216936    760.84252  0.019635659  0.019122308            3 
 3230000   0.73577598   -7.7302811    760.63041  0.019624108  0.019116371            3 
 3231000   0.73846774   -7.7227467    760.12073  0.019604888   0.01911044            5 
 3232000   0.74854569   -7.7012249    762.26154  0.019654021  0.019104549            5 
 3233000   0.75825789   -7.7215868    762.25376  0.019647741  0.019098641            7 
 3234000   0.72850287   -7.7372021    762.70955   0.01965341  0.019092751            5 
 3235000   0.73616238   -7.7647445    760.60741  0.019593184  0.019086847            7 
 3236000   0.74711878   -7.7342428    762.85828  0.019645094  0.019080934            2 
 3237000   0.72964223   -7.7410772    762.01733  0.019617375  0.019075046            7 
 3238000   0.73681729   -7.7815521    761.22708  0.019590979  0.019069148            7 
 3239000   0.74621251   -7.7334463    761.58871  0.019594235  0.019063227            3 
 3240000   0.73385392   -7.7347504    761.42731  0.019584036  0.019057307            5 
 3241000   0.74138427   -7.7293194    762.17538  0.019597228  0.019051403            6 
 3242000   0.73597737   -7.7335378     761.7519  0.019580298  0.019045502            5 
 3243000   0.72893121   -7.7241881    762.23096   0.01958657  0.019039591            3 
 3244000   0.73323951   -7.7230289    763.09851  0.019602818  0.019033698            4 
 3245000   0.73423269   -7.7472445    763.72618  0.019612896  0.019027809            5 
 3246000   0.73719372   -7.7268682    762.35725   0.01957171  0.019021929            4 
 3247000   0.73054764   -7.7195389    762.69868  0.019574445  0.019016065            5 
 3248000   0.74239446    -7.725233    761.80157  0.019545401  0.019010186            4 
 3249000   0.72560731   -7.7577116     760.4895  0.019505733  0.019004305            3 
 3250000   0.72822731   -7.7459911    760.32631  0.019495546   0.01899842            7 
 3251000   0.73066306   -7.7499898    760.66218  0.019498159  0.018992505            5 
 3252000   0.74047304   -7.7337934    761.93151   0.01952469  0.018986602           11 
 3253000   0.70567137   -7.7721772    760.06206  0.019470798  0.018980699            5 
 3254000   0.72814349   -7.7479821    763.01646  0.019540475  0.018974809            3 
 3255000   0.72700289   -7.7269057     762.0698  0.019510236  0.018968922            4 
 3256000   0.73712623   -7.7449122    764.16075  0.019557759  0.018963051            2 
 3257000   0.70857741   -7.7462781    761.82225  0.019491921  0.018957176            5 
 3258000   0.73772687   -7.7525134    760.79425  0.019459644  0.018951281            4 
 3259000   0.72646877   -7.7261777    762.91922  0.019508009  0.018945384            2 
 3260000   0.73150562   -7.7524424    762.14701  0.019482286  0.018939498            2 
 3261000   0.73287921    -7.778313    760.39013  0.019431415  0.018933599            5 
 3262000   0.73437957   -7.7399467     761.3927   0.01945107  0.018927699            3 
 3263000   0.72287586   -7.7536844    762.10395  0.019463274  0.018921799            6 
 3264000   0.73756218   -7.7409162    761.40919  0.019439573  0.018915904            2 
 3265000   0.73236505   -7.7379605    760.93247  0.019421451  0.018909999            5 
 3266000   0.72183027   -7.7527901    760.37661  0.019401322  0.018904095            4 
 3267000   0.72514246   -7.7567105    760.07793  0.019387765  0.018898164            3 
 3268000   0.71877029   -7.7442533    759.80438  0.019374857  0.018892248            5 
 3269000   0.73848763   -7.7599864    760.90458  0.019396976  0.018886339            1 
 3270000   0.72096178   -7.7308666    761.38662  0.019403329   0.01888046            3 
 3271000   0.73000792   -7.7059441    762.41228  0.019423527  0.018874605            6 
 3272000   0.73242113   -7.7018126    763.52556  0.019445944  0.018868771            4 
 3273000   0.73921528   -7.7290944    761.58673  0.019390639  0.018862921            4 
 3274000   0.70415218   -7.7126441    764.21564   0.01945163  0.018857058            4 
 3275000   0.72945994   -7.7754041    762.41907  0.019399976  0.018851195            4 
 3276000   0.72171213   -7.7408944    762.85591  0.019405166  0.018845326            7 
 3277000   0.71991433   -7.7385741    762.55983  0.019391716  0.018839444            4 
 3278000   0.72792458   -7.7488634    760.62398  0.019336587  0.018833584            4 
 3279000   0.72518006   -7.7204577      764.416  0.019427061  0.018827732            4 
 3280000   0.73425202   -7.7408841    763.94356  0.019409135  0.018821894            3 
 3281000   0.72765874   -7.7124034    762.24237  0.019360011  0.018816039            3 
 3282000   0.71949886   -7.7301041     763.6512  0.019389884  0.018810184            9 
 3283000   0.72666012   -7.7403571    765.00621  0.019418373  0.018804333            4 
 3284000   0.71367686   -7.7574569    762.10896   0.01933894  0.018798484            7 
 3285000   0.72349288   -7.7488816    762.22322  0.019335952  0.018792625            3 
 3286000    0.7217321   -7.7489529    763.70073  0.019367537  0.018786762            7 
 3287000   0.72935373   -7.7692639    762.35761  0.019327594  0.018780893            7 
 3288000   0.72607336   -7.7558096    762.14216  0.019316255  0.018775012            3 
 3289000   0.73013041   -7.7510546    762.73561  0.019325418   0.01876913            3 
 3290000   0.72684366    -7.742879    763.85131  0.019347804  0.018763256            3 
 3291000   0.74214275   -7.7416068    763.56354  0.019334638   0.01875739            2 
 3292000   0.71517158   -7.7202108    763.51813  0.019327616  0.018751561            3 
 3293000   0.73158103     -7.76996    764.96367  0.019358327  0.018745738            2 
 3294000   0.73159413   -7.7555724    764.86289  0.019349901  0.018739925            4 
 3295000   0.73035302   -7.7617722    761.27183  0.019253208  0.018734107            3 
 3296000   0.72142781   -7.7633103    761.77833  0.019260172  0.018728285            3 
 3297000   0.72041381   -7.7318522     764.3343  0.019318934  0.018722467            2 
 3298000   0.72720184   -7.7374253    764.74746  0.019323516  0.018716681            6 
 3299000   0.72553141   -7.7443096    763.87872  0.019295714   0.01871088            5 
 3300000   0.71027402   -7.7220343    763.70913  0.019285584  0.018705057            4 
 3301000   0.74127356   -7.7340662    765.80956  0.019332767  0.018699256            3 
 3302000   0.71956629   -7.7276783    763.27313  0.019262899  0.018693446           10 
 3303000   0.72438698   -7.7544835    763.11232   0.01925301  0.018687607            4 
 3304000    0.7298745    -7.768813    762.10049  0.019221663  0.018681768            5 
 3305000   0.72494322   -7.7553677    763.19847  0.019243532  0.018675954            4 
 3306000   0.71973199   -7.7507455    762.93445  0.019231056  0.018670136            7 
 3307000    0.7237161   -7.7531435    762.79742  0.019221788  0.018664321            4 
 3308000   0.74226946   -7.7702921    762.03503  0.019196771  0.018658497            3 
 3309000   0.70807048   -7.7676409    763.62761  0.019231077  0.018652678            2 
 3310000   0.71572287   -7.7762734    763.52789  0.019222757  0.018646833            3 
 3311000   0.71889787   -7.8104458     761.3526  0.019162202  0.018640978            4 
 3312000   0.71379684   -7.7768397     761.1622  0.019151625  0.018635122            3 
 3313000   0.72368028   -7.7596816    762.08541  0.019169067  0.018629271            5 
 3314000   0.71525912   -7.7707961    764.89543  0.019233943  0.018623421            6 
 3315000    0.7151135   -7.7685441     761.5349  0.019143663  0.018617589            1 
 3316000   0.73040179   -7.7837342    762.54529  0.019163281  0.018611743            3 
 3317000   0.72306642   -7.7612041    762.80644  0.019164065  0.018605909            4 
 3318000   0.72232593   -7.7690726     763.2363  0.019169085  0.018600079            2 
 3319000   0.71825078   -7.7825855    763.19996  0.019162397  0.018594263            3 
 3320000   0.72560017   -7.7693352    763.45302  0.019162977  0.018588454            4 
 3321000   0.71371716   -7.7517804    764.75872  0.019189971  0.018582655            6 
 3322000   0.72837312   -7.7361033    763.01069  0.019140344  0.018576843            3 
 3323000   0.72398638   -7.7933288    763.68731  0.019151553  0.018571049            4 
 3324000   0.70339007   -7.7799753    763.99158  0.019153419  0.018565243            7 
 3325000   0.72500475   -7.7635427    763.72522  0.019140983  0.018559437            3 
 3326000   0.71360401   -7.7549325    763.52537  0.019130221   0.01855363            4 
 3327000   0.70654206   -7.7714645    764.18755  0.019141057  0.018547821            9 
 3328000   0.73347518   -7.7879455    762.03346  0.019081367  0.018542008            4 
 3329000   0.72973135   -7.8026991    761.42788  0.019060476  0.018536179            5 
 3330000   0.72372086    -7.790002    764.58427   0.01913374  0.018530341            5 
 3331000   0.72000491   -7.7755695    763.54847  0.019102083  0.018524522            3 
 3332000   0.73211217   -7.7713547    763.25102  0.019088911  0.018518726            2 
 3333000   0.70977464   -7.7759904    763.12793  0.019080106  0.018512936            4 
 3334000   0.70795269   -7.7687386    761.95346  0.019045027  0.018507152            4 
 3335000   0.71916569   -7.7691932     763.4994  0.019077946  0.018501348            3 
 3336000   0.70440923   -7.7559539    765.25046  0.019115969  0.018495566            9 
 3337000   0.71138153    -7.758006    764.27821  0.019085961  0.018489796            6 
 3338000   0.72179148   -7.7674519    763.91666  0.019071217  0.018484033            3 
 3339000    0.7082958   -7.7776149    764.45479  0.019078936  0.018478258            5 
 3340000   0.72616109   -7.7613119    764.29909  0.019069339  0.018472491            3 
 3341000   0.71524941   -7.7722998    764.09982  0.019058661  0.018466724            3 
 3342000    0.7107686   -7.7773202    763.75617  0.019044389   0.01846094            3 
 3343000    0.7052583   -7.7563227    763.65263  0.019036111  0.018455161            3 
 3344000   0.70958202   -7.8027916    763.51017  0.019026868  0.018449393            2 
 3345000   0.72920276   -7.8050174    763.91145  0.019031177   0.01844362            5 
 3346000   0.71661695   -7.7822266    763.76874  0.019021935  0.018437823            6 
 3347000   0.71340544   -7.7789766    765.60973  0.019062089  0.018432036            5 
 3348000   0.73270805   -7.7893814    763.22059  0.018996928  0.018426262            3 
 3349000   0.73225146   -7.7891409    763.83637  0.019006578  0.018420489            4 
 3350000   0.71098446   -7.7969944    763.16995  0.018984327  0.018414719            6 
 3351000   0.72228117   -7.7648848    766.42733  0.019059667  0.018408971            5 
 3352000   0.72726215   -7.7837222    765.33927  0.019026931  0.018403246            3 
 3353000   0.71087183   -7.7764659     765.5268  0.019025917  0.018397529            3 
 3354000   0.72500531   -7.7643498    765.89667  0.019029434  0.018391799            6 
 3355000   0.71840726   -7.7678239    765.41538  0.019011808  0.018386068            2 
 3356000   0.71481987   -7.7830688    765.56865  0.019009949  0.018380322            7 
 3357000   0.69526248   -7.7808263    764.79518  0.018985085  0.018374575            6 
 3358000    0.7204829   -7.7999594    765.25815  0.018990921  0.018368825            4 
 3359000   0.71865463   -7.7807031    764.73655  0.018972327  0.018363084            3 
 3360000   0.71802461    -7.792185    765.21463  0.018978537  0.018357361            4 
 3361000   0.70347914   -7.7776385    764.99682   0.01896749  0.018351643            2 
 3362000   0.70599335   -7.7822844     764.5495  0.018950761   0.01834593            3 
 3363000    0.7320991    -7.756821    765.73023  0.018974384  0.018340243            1 
 3364000   0.70312072    -7.783049    764.59412  0.018940599  0.018334545            4 
 3365000   0.71234132   -7.7807357    764.30807  0.018927887  0.018328859            3 
 3366000   0.70557195   -7.7651934    766.82985  0.018984696  0.018323171            3 
 3367000   0.72548709   -7.7555226     766.1428  0.018962053   0.01831747            2 
 3368000   0.69941207    -7.786285     765.3283   0.01893627  0.018311794            3 
 3369000   0.70806371   -7.7794379    765.62521  0.018937994    0.0183061            3 
 3370000    0.7129373   -7.7824008     764.7463  0.018910641   0.01830039            3 
 3371000   0.70840459   -7.7782807    767.36161  0.018969683  0.018294693            3 
 3372000   0.71885973    -7.788319    766.05531  0.018931774  0.018288966            3 
 3373000   0.70658669   -7.8019223    766.50497  0.018937271  0.018283253            6 
 3374000   0.70952192    -7.762307    765.88454  0.018916334  0.018277547            8 
 3375000   0.71329524   -7.7982636    765.49092   0.01890101  0.018271838            9 
 3376000   0.70430017   -7.7956571    763.98813  0.018858317  0.018266138            7 
 3377000   0.69916253    -7.807577     764.1477   0.01885667  0.018260447           11 
 3378000   0.71716865   -7.7838033    765.69758  0.018889322  0.018254757            4 
 3379000   0.71615871   -7.7616798    765.11755  0.018869428  0.018249072            3 
 3380000   0.70675228   -7.7925885    765.02599  0.018861587  0.018243398            3 
 3381000   0.71130059   -7.7901144    766.33277  0.018888218  0.018237711            4 
 3382000   0.70206991   -7.7831896    765.97508  0.018873819  0.018232015            2 
 3383000   0.71700537   -7.7946712    765.20059  0.018849162  0.018226312            3 
 3384000   0.69104478   -7.7975608    765.15405  0.018842446  0.018220598            5 
 3385000   0.71665404   -7.7944615    765.44638  0.018844076  0.018214911            2 
 3386000    0.7017322   -7.7903734    763.32447  0.018786289  0.018209218            3 
 3387000   0.71084053   -7.7712977     765.6771  0.018838626  0.018203527            6 
 3388000   0.69487289   -7.7720087    766.36117  0.018849891  0.018197862            3 
 3389000   0.70874548   -7.7909208     765.3329  0.018819045  0.018192181            4 
 3390000   0.71861616    -7.783573    765.71811  0.018822962  0.018186494            3 
 3391000    0.7048134   -7.7902438    765.27254  0.018806462  0.018180792            7 
 3392000   0.71999721   -7.7787485    763.90188  0.018767243  0.018175102            4 
 3393000   0.70704644   -7.7881071    765.03863  0.018789631  0.018169409            8 
 3394000   0.70050564   -7.7735849    765.86474  0.018804379  0.018163716            6 
 3395000   0.70542455   -7.7699033    766.48845   0.01881415  0.018158046            8 
 3396000   0.72036483   -7.7922232    765.55815  0.018785781  0.018152388            3 
 3397000   0.70398428    -7.779461    764.44997  0.018753066  0.018146703            4 
 3398000   0.70266835   -7.7730066    764.83647  0.018757025  0.018141016            7 
 3399000   0.70823337   -7.7945409    765.30609  0.018763021  0.018135327            3 
 3400000   0.69376046   -7.8095621    764.86843  0.018746775  0.018129624           10 
 3401000   0.71416218   -7.8035331    765.25351  0.018750699  0.018123926            9 
 3402000   0.71820473   -7.8072228    763.78906  0.018709315  0.018118221            9 
 3403000   0.70521407   -7.7896429    764.39663  0.018718695  0.018112542            4 
 3404000   0.71549728   -7.7810776    765.10077  0.018730434  0.018106855            2 
 3405000     0.714135   -7.7912903    765.41911  0.018732724  0.018101185            4 
 3406000   0.70256539   -7.7856475    764.51163  0.018705021  0.018095496            2 
 3407000   0.70047896   -7.8041161    765.14429  0.018715006  0.018089796            7 
 3408000   0.71410253   -7.8025715    765.33441  0.018714163  0.018084117            5 
 3409000   0.70210406    -7.803285    764.21599  0.018681333  0.018078436            5 
 3410000   0.68864096   -7.7822617    765.59207  0.018709484  0.018072741            5 
 3411000   0.69674259   -7.7970773    765.35413  0.018698186  0.018067071            4 
 3412000   0.71037972   -7.7913308     766.0657  0.018710084  0.018061391            2 
 3413000   0.71717282   -7.7704996    766.68266  0.018719666  0.018055722            3 
 3414000   0.70090291   -7.7856049    766.82241  0.018717594  0.018050057            4 
 3415000   0.71976473   -7.8162668    765.44088  0.018678401  0.018044384            3 
 3416000   0.69075675   -7.7823847    766.99669  0.018710887  0.018038718            3 
 3417000   0.70505061   -7.8054944    764.44169    0.0186431  0.018033051            4 
 3418000   0.70559113   -7.7894037    765.77743  0.018670212  0.018027382            4 
 3419000   0.68887034   -7.7930836    766.30122  0.018677518  0.018021722            5 
 3420000   0.70295086   -7.7926633     764.9015  0.018637951  0.018016054            4 
 3421000   0.70082305   -7.7928698    765.46697  0.018646277  0.018010389            3 
 3422000   0.70983191   -7.8001007     765.2207  0.018634831  0.018004725            2 
 3423000   0.70518352   -7.8326237    764.11184  0.018602392  0.017999042            4 
 3424000   0.71206771   -7.8284825    763.99627  0.018594146  0.017993367            6 
 3425000   0.69260312   -7.8033073    766.16807  0.018641559  0.017987703            5 
 3426000   0.70542661   -7.7893235    767.76981  0.018675078  0.017982063            5 
 3427000   0.70817338   -7.8039756     766.7651  0.018645198   0.01797643            4 
 3428000   0.70970304   -7.8329744    765.97382  0.018620523  0.017970803            6 
 3429000   0.71846321   -7.7950691    765.95485  0.018614631  0.017965157            4 
 3430000   0.70291719   -7.8026802    764.44306  0.018572475  0.017959505            4 
 3431000   0.70467209   -7.8109604    764.97579  0.018580001  0.017953841            4 
 3432000   0.69250601   -7.8052711    767.17212  0.018627917  0.017948187            8 
 3433000   0.68936646   -7.8058952    766.34447    0.0186024  0.017942545            2 
 3434000   0.70280163   -7.7961752     765.8075  0.018583952  0.017936897            5 
 3435000    0.6945559   -7.8042753    763.75898  0.018528845  0.017931231            3 
 3436000   0.70415507   -7.8126738    764.45063  0.018540227  0.017925579            3 
 3437000   0.71349351   -7.8302093    765.65097  0.018563936  0.017919899            5 
 3438000   0.69434071   -7.8133283    765.19664  0.018547524  0.017914217            4 
 3439000   0.68965793   -7.8151569     764.9456  0.018536047  0.017908557            4 
 3440000   0.69749731   -7.8361726     765.7836  0.018550959  0.017902892            3 
 3441000   0.70507615   -7.8141938    766.92884  0.018573303  0.017897232            7 
 3442000   0.69553963   -7.8091752    766.47719  0.018556972  0.017891573           11 
 3443000   0.70084369   -7.8231472    766.12994  0.018543178  0.017885936            2 
 3444000   0.69155192    -7.813025    765.88389   0.01853184  0.017880306            3 
 3445000   0.68267337   -7.8147696    765.69048  0.018521782  0.017874671            4 
 3446000   0.70159292   -7.8165681    766.23334  0.018529535  0.017869048            7 
 3447000   0.69998096   -7.8153914    764.40058  0.018479852  0.017863403            4 
 3448000   0.69958759   -7.8303249    765.92725  0.018511389  0.017857768            7 
 3449000   0.72192909    -7.805657    766.28718  0.018514719  0.017852115            6 
 3450000   0.71065063   -7.8066819    765.43525  0.018488774  0.017846497            4 
 3451000   0.70836346   -7.8221871    766.34054  0.018505277  0.017840855            2 
 3452000   0.71742318   -7.8044938     766.1755  0.018495932   0.01783521            4 
 3453000   0.70793702   -7.8193927    765.43357   0.01847267  0.017829577            4 
 3454000   0.70164564   -7.8229753    766.49219  0.018492863  0.017823939            3 
 3455000   0.69062676   -7.8209113    766.20782  0.018480652   0.01781829            5 
 3456000   0.68989863   -7.8232468    765.06476  0.018447742  0.017812665            3 
 3457000   0.69898584   -7.8079551    763.86743  0.018413543  0.017807023            4 
 3458000   0.69673843    -7.827283    765.75852  0.018453791  0.017801383            4 
 3459000   0.70090324   -7.8200056    765.38488  0.018439454  0.017795754            5 
 3460000   0.71236891   -7.8236313    766.39087  0.018458354  0.017790123            4 
 3461000   0.69238756   -7.8101811     765.4919  0.018431376  0.017784484            4 
 3462000   0.69137581   -7.8308214    764.09364  0.018392394  0.017778864            4 
 3463000   0.70216061   -7.8345108    765.49101   0.01842071  0.017773224            3 
 3464000   0.70409719   -7.8343855    764.75717  0.018397738  0.017767588            3 
 3465000   0.70656148   -7.8376996     765.2491  0.018404259  0.017761961            3 
 3466000   0.71285192   -7.8139794    765.33788  0.018401084  0.017756319            4 
 3467000   0.69562881   -7.8472681    764.92551  0.018385865  0.017750681            9 
 3468000    0.7055536   -7.8220536    763.40129  0.018343937  0.017745048            3 
 3469000    0.7030205   -7.8368775    765.39098  0.018386446  0.017739416            8 
 3470000   0.70568233   -7.8573433    766.24784  0.018401725  0.017733788            4 
 3471000   0.70161366   -7.8475633    764.93097  0.018364808  0.017728165            5 
 3472000   0.69745641   -7.8305111    764.02578  0.018337792  0.017722534            3 
 3473000   0.70050413   -7.8472419    765.39063  0.018365261  0.017716911            5 
 3474000   0.70124844   -7.8474746    766.18181  0.018378953    0.0177113            6 
 3475000   0.69469516   -7.8319475     766.5545  0.018382602  0.017705686            6 
 3476000   0.69598736   -7.8348847    767.21094  0.018393051  0.017700087            7 
 3477000   0.68889772    -7.832675    766.34634  0.018367039  0.017694479            2 
 3478000   0.69903396   -7.8357021    764.80322  0.018324785   0.01768888            8 
 3479000   0.71733423   -7.8397296    764.95664  0.018323192  0.017683284            5 
 3480000   0.68845287   -7.8393295      767.744  0.018384674  0.017677692            1 
 3481000   0.68803594   -7.8293569    767.90648  0.018383283  0.017672114            5 
 3482000   0.69766804   -7.8304274    766.13713  0.018335658  0.017666521            3 
 3483000   0.70107661   -7.8381706    766.66569   0.01834304  0.017660931            7 
 3484000   0.69607492   -7.8241185    765.92923   0.01832016  0.017655337            4 
 3485000   0.69826149   -7.8202269    767.01451  0.018340854   0.01764974            3 
 3486000   0.68650391   -7.8207625    765.17365  0.018291586  0.017644149            6 
 3487000   0.69363412   -7.8066198    766.84673  0.018326325  0.017638546            6 
 3488000   0.68669262   -7.8358768    766.79794  0.018319905  0.017632962            5 
 3489000   0.69373837   -7.8158307    766.49343  0.018307381  0.017627398            2 
 3490000   0.69717786   -7.8349398    766.06732  0.018291961  0.017621803            2 
 3491000   0.70407705   -7.8385637     764.8752  0.018258264  0.017616207            3 
 3492000   0.68703241   -7.8336101     766.6565  0.018295544  0.017610619            3 
 3493000   0.68297635   -7.8525801    765.14612  0.018254273  0.017605012            7 
 3494000   0.69114084   -7.8300347    767.47093  0.018304497  0.017599412            9 
 3495000   0.69793951   -7.8326818    765.09797  0.018242679  0.017593825            2 
 3496000    0.6849549   -7.8366657    763.27721   0.01819406  0.017588254            4 
 3497000   0.68608772   -7.8516055    764.55535  0.018219315  0.017582653            6 
 3498000   0.68640578    -7.830852    766.55369  0.018261714  0.017577049            4 
 3499000   0.67300158   -7.8402218    765.12476  0.018222463   0.01757144            6 
 3500000    0.6901356    -7.823366    765.08107  0.018216216  0.017565842           17 
 3501000   0.69030965    -7.843709    765.29163  0.018216025  0.017560242           11 
 3502000   0.69469261   -7.8514173    765.46655  0.018214986  0.017554644            3 
 3503000   0.69113167    -7.841655    765.35029   0.01820702  0.017549042            7 
 3504000   0.69403037   -7.8465801     766.4592  0.018228196  0.017543463            4 
 3505000   0.67995465    -7.837749    764.38584    0.0181737  0.017537884            7 
 3506000   0.70719639   -7.8256367    765.49347  0.018194844  0.017532304            6 
 3507000   0.69646008   -7.8466797    765.58415   0.01819181  0.017526738            4 
 3508000   0.69906067     -7.83114    764.22452  0.018154326  0.017521153            6 
 3509000   0.69037491   -7.8269149    765.78625  0.018186241  0.017515585            5 
 3510000   0.69281031   -7.8398852    766.03415  0.018186946   0.01751001            4 
 3511000   0.68867994   -7.8307867    764.22346  0.018138789  0.017504438            4 
 3512000    0.6861381    -7.822513    763.65673  0.018120177   0.01749886            5 
 3513000   0.67331461   -7.8398495    765.34347  0.018155031  0.017493279            3 
 3514000   0.69118039   -7.8298097    766.40814  0.018175112    0.0174877            4 
 3515000   0.68719584   -7.8255649    767.02111  0.018184474  0.017482129            4 
 3516000   0.68874575    -7.843297    765.49194  0.018143059  0.017476559            3 
 3517000    0.6876265   -7.8411881    764.71694  0.018119537  0.017470982            5 
 3518000   0.68503521   -7.8533825    765.10005  0.018123461  0.017465419            6 
 3519000   0.67197614   -7.8545766    764.88725  0.018113272  0.017459844            3 
 3520000   0.69003521   -7.8641444    765.48838  0.018122358  0.017454283            5 
 3521000   0.67325123    -7.844312    765.21817  0.018110815  0.017448709            3 
 3522000   0.69011845   -7.8510313    766.31409  0.018131603  0.017443139            4 
 3523000   0.69944756   -7.8458653    765.03364  0.018096169   0.01743757            2 
 3524000   0.68883737   -7.8565421    764.23896  0.018072242  0.017432003            3 
 3525000   0.69446492   -7.8445457    765.19875  0.018089805  0.017426437            7 
 3526000    0.6928321   -7.8506417    764.79907  0.018075229  0.017420874            4 
 3527000   0.68518298   -7.8467114    767.95755   0.01814473   0.01741532            3 
 3528000    0.6843309    -7.841935    766.71432  0.018110221  0.017409769            7 
 3529000   0.69009667   -7.8551613    766.78273  0.018106705  0.017404228            6 
 3530000   0.68016154   -7.8340057    765.93041  0.018081455  0.017398696            2 
 3531000   0.68761479   -7.8407479     766.1597  0.018081745  0.017393165            4 
 3532000   0.67856809   -7.8545378    766.21479  0.018077925  0.017387641            3 
 3533000   0.68761422   -7.8315966     767.1864  0.018095726    0.0173821            3 
 3534000   0.68959015    -7.838971     767.6149   0.01810071  0.017376555            6 
 3535000   0.68027657   -7.8237964    766.04058  0.018058477  0.017371017            6 
 3536000   0.70280508   -7.8420241    765.18564  0.018033221  0.017365473            2 
 3537000   0.67345816   -7.8345822    764.75701  0.018018024  0.017359925            5 
 3538000   0.68163085   -7.8466638    764.95761  0.018017656  0.017354375            3 
 3539000   0.68847995   -7.8689239    765.22573  0.018018878  0.017348821            3 
 3540000   0.67662939   -7.8532002    764.96638  0.018007683  0.017343257            3 
 3541000   0.69535659   -7.8460155    765.80102   0.01802224  0.017337705            3 
 3542000   0.68792822   -7.8451705    764.29035   0.01798161  0.017332155            5 
 3543000   0.68381162   -7.8692577    766.92969  0.018038614  0.017326597            4 
 3544000   0.68564929   -7.8541319    765.45511  0.017998851  0.017321037            6 
 3545000   0.70514667   -7.8817206    764.41914   0.01796942  0.017315485            5 
 3546000   0.68141537   -7.8218364    765.51289  0.017990057  0.017309937            4 
 3547000   0.67074241   -7.8499695    763.91688  0.017947488  0.017304397            5 
 3548000   0.68782224   -7.8392461    767.10734  0.018017365  0.017298861            5 
 3549000   0.68258922   -7.8685877    765.80073  0.017981608  0.017293315            5 
 3550000   0.68702336   -7.8512313    763.78198  0.017929154  0.017287781            3 
 3551000   0.67706021   -7.8514951    763.64097  0.017920796   0.01728224            3 
 3552000   0.67484022   -7.8596762    764.78881   0.01794268  0.017276711           10 
 3553000   0.67630414   -7.8595344    766.20405  0.017970824  0.017271195            3 
 3554000   0.68462126   -7.8493958    765.95801  0.017959998  0.017265673            3 
 3555000   0.67084659   -7.8298667    766.48735  0.017967355  0.017260156            1 
 3556000   0.68668695   -7.8634507    766.01311  0.017951188  0.017254639            2 
 3557000   0.68941138   -7.8636845    766.88446  0.017966556  0.017249133            6 
 3558000   0.67860289   -7.8706939    766.29207  0.017947631  0.017243616            4 
 3559000   0.67814299   -7.8477185     766.4307  0.017945835  0.017238115            4 
 3560000   0.68539655   -7.8300516    765.88839  0.017928099  0.017232609            8 
 3561000   0.67017604   -7.8329554    767.30385  0.017956189  0.017227109            7 
 3562000   0.67754074   -7.8670716    765.80169  0.017916004  0.017221607            7 
 3563000   0.66934818   -7.8763384    766.01453  0.017915954   0.01721607            9 
 3564000   0.68401329   -7.8606158     767.6215  0.017948501  0.017210542            7 
 3565000   0.68600792   -7.8666524    766.10103  0.017907925  0.017205029            5 
 3566000   0.67877735   -7.8600685    765.25692  0.017883177  0.017199501            3 
 3567000   0.66860344   -7.9006403    763.46663  0.017836338  0.017193959            6 
 3568000   0.68651799     -7.84833    766.56553  0.017903717  0.017188434            4 
 3569000   0.68203515   -7.8584722    766.04778  0.017886611  0.017182903            2 
 3570000   0.67972431   -7.8984942    767.85258   0.01792373  0.017177363            3 
 3571000   0.68418155   -7.8643929    765.17541  0.017856236  0.017171826            5 
 3572000   0.68095623    -7.865174    765.66982  0.017862771  0.017166292            3 
 3573000   0.69181758   -7.8716652    766.00918  0.017865687  0.017160769            5 
 3574000   0.68139666   -7.8662983    763.78599  0.017808851   0.01715523            6 
 3575000   0.67100185    -7.845311    766.28958  0.017862228  0.017149703            5 
 3576000   0.68732594   -7.8521345    767.17154  0.017877786  0.017144185            6 
 3577000    0.6930861   -7.8832013    764.28227  0.017805476  0.017138645            4 
 3578000   0.67719903   -7.8914504    765.30646  0.017824354  0.017133116           10 
 3579000   0.68857285   -7.8835256    765.44391  0.017822574  0.017127585            8 
 3580000     0.678545   -7.8869805    764.55932  0.017797005  0.017122061            5 
 3581000   0.67429972   -7.8865474    763.75052  0.017773213  0.017116532            3 
 3582000   0.67139303   -7.8760773    764.77275  0.017792033  0.017111002            4 
 3583000   0.67693643   -7.8464726     766.3785  0.017824414   0.01710548            5 
 3584000   0.69044504   -7.8725566    764.51694  0.017776157  0.017099961            6 
 3585000   0.69495866   -7.8818572    766.58789  0.017819337  0.017094447            5 
 3586000   0.65510244   -7.8581283    764.23368   0.01775966  0.017088926            4 
 3587000   0.68386412   -7.9063532    764.86696  0.017769421  0.017083418            5 
 3588000   0.68200211   -7.8736256    766.07516   0.01779253  0.017077904            6 
 3589000   0.68039049   -7.8818411    766.56414  0.017798926  0.017072394           10 
 3590000   0.68795541   -7.8809643    764.93968   0.01775626  0.017066896            6 
 3591000   0.66610588   -7.9013958    763.92491  0.017727766  0.017061384            3 
 3592000   0.67651785   -7.8797054      764.611  0.017738748  0.017055863            4 
 3593000   0.70004107   -7.8936768    765.15492  0.017746426   0.01705036            7 
 3594000   0.67353405    -7.889645    764.86324  0.017734725   0.01704484            5 
 3595000    0.6757445    -7.876723    766.23381  0.017761563  0.017039333            6 
 3596000   0.67187966   -7.8965006    765.17604  0.017732111  0.017033827            5 
 3597000   0.67993993    -7.863421    762.92702  0.017675077  0.017028323            7 
 3598000   0.65733061   -7.8622556    764.50354  0.017706678  0.017022807            3 
 3599000   0.65707203   -7.8727327    764.88527  0.017710597   0.01701729            3 
 3600000   0.66478747   -7.8910224    765.31146  0.017715543  0.017011789            4 
 3601000    0.6872441   -7.8833164    766.81457  0.017745408   0.01700628            5 
 3602000   0.68252624   -7.8545205    764.53066  0.017687643  0.017000778            3 
 3603000   0.67490167   -7.8636469    765.85627  0.017713393  0.016995292            5 
 3604000   0.67466558   -7.8643593    766.12871  0.017714778  0.016989804            3 
 3605000   0.68339071   -7.8735613    765.18594  0.017688071  0.016984322            2 
 3606000   0.66502852   -7.8671457    766.64442   0.01771687  0.016978835            4 
 3607000   0.66298353   -7.9049299    763.73393  0.017644717  0.016973359            3 
 3608000   0.66798108   -7.8644072    765.64335  0.017683928  0.016967891            4 
 3609000   0.68066621   -7.8737266     765.6516  0.017679219  0.016962417            3 
 3610000   0.66441533   -7.8758116    765.31897  0.017666643  0.016956963            8 
 3611000   0.67538594   -7.8783945    767.59576  0.017714293  0.016951512            5 
 3612000   0.66529912   -7.8670048    764.82825  0.017645539  0.016946055            4 
 3613000   0.65532763   -7.8821014    765.51217   0.01765643  0.016940591            7 
 3614000   0.69093172   -7.8810872    765.91478  0.017660828  0.016935121            3 
 3615000   0.66820463   -7.8884007    765.43744  0.017644939  0.016929668            5 
 3616000   0.67573877   -7.8758643    764.92624  0.017628278   0.01692419            8 
 3617000   0.68011019   -7.8599973    765.93599  0.017646668  0.016918724            5 
 3618000   0.67006938   -7.8679404    765.84947  0.017639798  0.016913267            6 
 3619000   0.67596409   -7.8541244    765.99651   0.01763831  0.016907807            8 
 3620000   0.67337877   -7.8732659    765.01506  0.017610844  0.016902332            5 
 3621000   0.67109263   -7.8790195    764.60346  0.017596508  0.016896859            4 
 3622000    0.6819698   -7.9132803     765.6058  0.017614711  0.016891382            9 
 3623000   0.66593717   -7.8737461    765.85012  0.017615469  0.016885907            4 
 3624000   0.68370299   -7.8734094    765.74112  0.017608101  0.016880443            7 
 3625000   0.68499356   -7.8923525    764.16099  0.017566919  0.016874971            5 
 3626000   0.67240806   -7.8937155    764.07508    0.0175601  0.016869497            4 
 3627000   0.66902888   -7.8798653    764.28101   0.01755999  0.016864006            5 
 3628000   0.66764561   -7.9127277    764.49515  0.017560069  0.016858524           11 
 3629000   0.65917277    -7.885947    766.09598   0.01759199  0.016853035            6 
 3630000   0.66580304   -7.9029767    765.75802  0.017579385  0.016847557            7 
 3631000   0.66892117    -7.881031    763.44976  0.017521568  0.016842095            5 
 3632000   0.67250737   -7.8896736     763.2998  0.017513303  0.016836628            7 
 3633000   0.68162855    -7.900544    763.81344  0.017520264  0.016831162            2 
 3634000   0.67095601   -7.9017192    766.06144  0.017566993  0.016825707            4 
 3635000   0.66055577   -7.8782752    765.14652  0.017541186  0.016820257            2 
 3636000   0.67939344   -7.8684207    765.68105  0.017548612  0.016814817            4 
 3637000   0.67039007   -7.8839258    765.83417  0.017547296  0.016809371            4 
 3638000   0.67768268   -7.8824056    766.08889  0.017548307  0.016803928            7 
 3639000   0.65736631   -7.8821337     763.2256  0.017477915  0.016798479            6 
 3640000   0.66673756   -7.8883816    765.70207  0.017529809  0.016793031            2 
 3641000   0.67420076   -7.8794377    765.86961  0.017528829  0.016787585            3 
 3642000   0.67717743   -7.8669242     765.8435  0.017523419  0.016782139            3 
 3643000   0.68187373   -7.8850606    766.77189  0.017539846    0.0167767            6 
 3644000   0.66919409   -7.8810488    763.04662   0.01744984  0.016771266            4 
 3645000   0.65585792   -7.9001359     765.4738  0.017500544  0.016765833            4 
 3646000   0.66829581    -7.886043     765.3254  0.017492352  0.016760397            4 
 3647000   0.66964912    -7.892518    766.35857  0.017511164  0.016754965            6 
 3648000   0.68225532   -7.8904793    765.98253  0.017497774  0.016749528            6 
 3649000   0.65329897   -7.8821685    766.24482  0.017498968  0.016744098            2 
 3650000   0.68133954   -7.8848329     766.7175  0.017504966  0.016738677            2 
 3651000   0.65941188   -7.9128605     765.4957  0.017472284  0.016733267            6 
 3652000   0.66070628   -7.8895652     765.1787  0.017460266  0.016727832            3 
 3653000   0.67969252   -7.9182327    763.57693  0.017418946  0.016722401            3 
 3654000   0.67358762   -7.8874365    764.75297     0.017441  0.016716973            1 
 3655000   0.66229225   -7.8774823    765.41955  0.017451426   0.01671155            3 
 3656000   0.65940865     -7.90526     765.4797  0.017448024  0.016706119            7 
 3657000   0.66911702    -7.883188    766.01782  0.017455515  0.016700687            3 
 3658000   0.66158256   -7.9099964    766.08793   0.01745234  0.016695272            5 
 3659000   0.66205371   -7.9052529    764.99935  0.017422778  0.016689864            7 
 3660000   0.66879616   -7.9119134    766.26177  0.017446762  0.016684441            5 
 3661000    0.6705339   -7.9098642    765.41773  0.017422784  0.016679019           10 
 3662000   0.66898224   -7.8973526    765.65163  0.017423349    0.0166736            6 
 3663000   0.66492856    -7.905467    763.42272  0.017367884  0.016668187            4 
 3664000   0.66576732   -7.8904376    766.33235   0.01742932  0.016662775            3 
 3665000   0.67620058   -7.8964764    765.25438  0.017400054  0.016657383           10 
 3666000   0.64890937    -7.878529    765.79118   0.01740751   0.01665199            7 
 3667000   0.65813607    -7.904081    765.94145  0.017406178  0.016646592            2 
 3668000   0.66233169   -7.8940775    764.78683  0.017375201  0.016641183            4 
 3669000   0.64683419   -7.9146054     765.5113   0.01738692  0.016635763            6 
 3670000   0.68023225   -7.8924284    763.16099  0.017328814  0.016630346            1 
 3671000   0.65352396   -7.9031638    765.19247   0.01737021  0.016624946            2 
 3672000   0.68259578   -7.8911065    764.81878  0.017356998  0.016619535            3 
 3673000   0.67127466     -7.89887    764.03247  0.017334433  0.016614135            3 
 3674000   0.65893421   -7.8981693    765.31034  0.017358699  0.016608732            5 
 3675000   0.67478308   -7.8811439    765.42768  0.017356637  0.016603348            3 
 3676000    0.6595053   -7.9170119    764.53883  0.017331765  0.016597953            4 
 3677000   0.65890974   -7.8947262     765.3713  0.017345918  0.016592562            4 
 3678000   0.66453766   -7.9113209    764.94239  0.017331484  0.016587165            5 
 3679000   0.66815733   -7.9197164    764.19512  0.017309847  0.016581759            4 
 3680000   0.66789743   -7.9092313    763.02925  0.017278742  0.016576361            2 
 3681000   0.67010314   -7.8975715    766.49827  0.017352582  0.016570978            3 
 3682000   0.66107312    -7.896975    764.49811  0.017302601  0.016565588            4 
 3683000   0.66238579   -7.9104209    765.35418  0.017317273  0.016560215            3 
 3684000   0.66302702   -7.9236342     764.9123  0.017302576  0.016554853            3 
 3685000   0.66111141   -7.8831974    767.59515  0.017358551  0.016549501            6 
 3686000   0.68023069   -7.9185537    766.60024  0.017331349  0.016544137            4 
 3687000   0.66926332   -7.9223383     765.7292  0.017306961  0.016538763            4 
 3688000   0.65745001   -7.9333499    766.06841  0.017309933  0.016533377            3 
 3689000   0.66996282   -7.9270181    766.19686  0.017308143  0.016527991            3 
 3690000   0.65947638   -7.9115015     766.1628  0.017302683  0.016522617            2 
 3691000   0.65578716     -7.89717    764.05477  0.017250401  0.016517245            9 
 3692000   0.65040574   -7.9092193    764.83079  0.017263245  0.016511881            4 
 3693000   0.65986346   -7.9148242    765.34989  0.017270284  0.016506511            8 
 3694000   0.66518221   -7.9176793    765.17858  0.017261744  0.016501141            8 
 3695000   0.67499092   -7.9242822    766.25519  0.017281353  0.016495776            9 
 3696000   0.66079373   -7.9356947    764.26957  0.017231908  0.016490397            8 
 3697000   0.65336114   -7.9156651    764.90509  0.017241572  0.016485026            4 
 3698000   0.66189617   -7.9320827    764.58961    0.0172298  0.016479668            3 
 3699000   0.66090748   -7.9249971    764.96545  0.017233609  0.016474305            4 
 3700000   0.67546386   -7.9083968    766.17062  0.017256095  0.016468957            4 
 3701000   0.66031775   -7.9272854     764.9854  0.017224745  0.016463616            6 
 3702000   0.65751499   -7.9089794    767.21024  0.017270175  0.016458272            6 
 3703000    0.6607699   -7.9199729    766.39563  0.017247179  0.016452936            4 
 3704000   0.66471511   -7.9216023    767.83065  0.017274808  0.016447606            7 
 3705000   0.66377451   -7.9052676    765.96526  0.017228188  0.016442286            5 
 3706000   0.65778641    -7.889415    765.80074   0.01721984   0.01643697            5 
 3707000   0.66314115   -7.9290095     764.9821  0.017196792  0.016431651            5 
 3708000   0.66783853   -7.9126665    765.55264  0.017204977  0.016426343            6 
 3709000   0.65448544   -7.9216003    766.98407  0.017232499  0.016421032            3 
 3710000   0.65537468   -7.9109327    767.00811  0.017228394  0.016415721            5 
 3711000   0.65279968   -7.9084946    765.00244  0.017178713  0.016410417            8 
 3712000   0.65794558   -7.9337465    766.80704  0.017214598  0.016405108            3 
 3713000    0.6781187    -7.898158    766.17679  0.017195816  0.016399822            4 
 3714000   0.65368162   -7.9157055    766.06685   0.01718872  0.016394519            5 
 3715000   0.64973994   -7.9154273    765.81483  0.017178439  0.016389222            4 
 3716000   0.66224338   -7.9319735     766.8917  0.017197966  0.016383925            9 
 3717000   0.67076039   -7.9252111    766.23878  0.017178701  0.016378618            9 
 3718000   0.64556361   -7.9383141    767.44727  0.017201167  0.016373326            6 
 3719000   0.65359578   -7.9270025    767.19987  0.017190998  0.016368026            4 
 3720000   0.63702243   -7.9215036    765.76921  0.017154328  0.016362737            2 
 3721000   0.65129612   -7.9205062    767.41092  0.017186485  0.016357449            7 
 3722000    0.6611336   -7.9101972    766.96037   0.01717178  0.016352172            5 
 3723000   0.66038488   -7.9287935    766.61975  0.017159543  0.016346883            5 
 3724000   0.66563844   -7.9208304    765.42006  0.017128089    0.0163416            6 
 3725000   0.65600179   -7.9190305    766.75428   0.01715334  0.016336308            6 
 3726000   0.65157126    -7.914624    766.98832   0.01715397  0.016331027            5 
 3727000   0.64685397   -7.9304591    765.59078   0.01711812  0.016325753            8 
 3728000   0.65593963   -7.9453809    766.66635   0.01713757  0.016320471            4 
 3729000   0.66814752   -7.9216616    767.17946  0.017144441  0.016315198            8 
 3730000   0.64686691   -7.9191963    766.25011  0.017119082  0.016309926            3 
 3731000   0.66370459   -7.9317571    766.59783   0.01712226  0.016304646            4 
 3732000   0.64877472   -7.9183261    766.43998  0.017114148  0.016299366            5 
 3733000   0.64043104   -7.9378709     765.1636   0.01708107  0.016294076            3 
 3734000   0.64343781    -7.929163    765.68881  0.017088217  0.016288782            3 
 3735000   0.66084631   -7.9614663    766.54522  0.017102749  0.016283491            3 
 3736000   0.66414422   -7.9308109    767.77994  0.017125712  0.016278221            5 
 3737000   0.64222724   -7.9120619    766.91845  0.017101919  0.016272959            9 
 3738000   0.66624552    -7.924754    766.00198  0.017076912  0.016267683            5 
 3739000   0.65395763   -7.9195182    764.99571  0.017049918  0.016262407            6 
 3740000   0.66116226   -7.9530937    764.82767  0.017041615  0.016257139            7 
 3741000   0.65654604   -7.9205261    767.07064  0.017087023  0.016251881            6 
 3742000   0.65396522   -7.9094627    765.80532  0.017054278  0.016246626            3 
 3743000   0.63930897   -7.9250161    766.57928  0.017066953  0.016241369            2 
 3744000   0.65564545   -7.9494053    765.90984  0.017047495  0.016236106            2 
 3745000   0.65306356   -7.9412125    765.00232  0.017022749  0.016230848            3 
 3746000   0.64064428   -7.9240488    767.13258  0.017065594  0.016225588            4 
 3747000   0.64730728   -7.9329304    766.24265  0.017041248  0.016220326            4 
 3748000   0.65975795   -7.9391266    766.90342  0.017051392  0.016215078            8 
 3749000   0.64410037   -7.9230925    766.40704   0.01703581  0.016209832            5 
 3750000   0.65076277   -7.9299613     766.2383  0.017027518  0.016204591            4 
 3751000   0.65817813   -7.9181867    765.84692  0.017014283  0.016199348            4 
 3752000   0.64388005   -7.9299798    767.26423  0.017041228  0.016194107            9 
 3753000   0.65539316   -7.9206466     767.1759  0.017034726  0.016188865            6 
 3754000   0.64584618   -7.9373156    766.42137  0.017013438  0.016183621            3 
 3755000   0.63713462   -7.9435573    765.28848  0.016983766  0.016178386            3 
 3756000   0.65124639    -7.932454    767.09457  0.017019315  0.016173145            7 
 3757000   0.64084374   -7.9510124    766.43382  0.017000129  0.016167905           12 
 3758000   0.65653144   -7.9156078      767.847  0.017026943  0.016162666            3 
 3759000   0.64906492   -7.9483643    766.82674  0.016999795  0.016157422            8 
 3760000    0.6527768   -7.9382433    765.36746  0.016962931  0.016152187            4 
 3761000     0.651045   -7.9424218    765.92083  0.016970682  0.016146965           11 
 3762000    0.6483764   -7.9181721    766.13003  0.016970805   0.01614174            3 
 3763000   0.65173543   -7.9284654    766.96476  0.016984781  0.016136512            5 
 3764000   0.65031328   -7.9596547    766.46887   0.01696929  0.016131293            6 
 3765000   0.63744303   -7.9622945     767.5729  0.016989219  0.016126077            3 
 3766000   0.63890735   -7.9545871    767.46357  0.016982288  0.016120868            4 
 3767000   0.66592907   -7.9540497    765.54539  0.016935346  0.016115655            5 
 3768000   0.66020727   -7.9476366    767.07999  0.016964791  0.016110442            7 
 3769000   0.64457213    -7.951355     765.2841  0.016920582  0.016105236           11 
 3770000   0.65146057   -7.9336425      766.278  0.016938064  0.016100037            5 
 3771000   0.65904734   -7.9356489    766.03776  0.016928263  0.016094822            3 
 3772000   0.65186036   -7.9323905    766.37896  0.016931313  0.016089618           10 
 3773000   0.65393176   -7.9343246    765.99735  0.016918397  0.016084415            3 
 3774000   0.64279794   -7.9683654    766.79503  0.016931528  0.016079198            2 
 3775000   0.63406482   -7.9532288    765.86205  0.016906447  0.016073973            5 
 3776000   0.64402031   -7.9631488    766.19848  0.016909394  0.016068756            3 
 3777000   0.64122186   -7.9588349    767.70622  0.016938183  0.016063545            5 
 3778000    0.6367229   -7.9485543    766.24702  0.016901514  0.016058333            9 
 3779000   0.64516589   -7.9440869    767.21783  0.016918449  0.016053125            6 
 3780000   0.65005453   -7.9739102    764.80783  0.016860843  0.016047905            9 
 3781000   0.65141263   -7.9307717    766.37601  0.016890946   0.01604269            6 
 3782000   0.63423736   -7.9539337    766.81784  0.016896215  0.016037477            5 
 3783000   0.64888896   -7.9579516    765.14521  0.016854904  0.016032261            5 
 3784000   0.64954883   -7.9467834    765.31107  0.016854102  0.016027049            5 
 3785000   0.64920956   -7.9579707    764.91594   0.01684095   0.01602184            3 
 3786000   0.62450489    -7.933242    764.43828  0.016825988  0.016016637            8 
 3787000   0.63917979    -7.951408    765.91085  0.016853949  0.016011432            7 
 3788000   0.63876455   -7.9494257    766.56475  0.016863885  0.016006226            3 
 3789000   0.63549176   -7.9660678    765.21071  0.016829654  0.016001007            5 
 3790000   0.63512129    -7.948718    764.31759  0.016805576  0.015995777            4 
 3791000   0.64045617   -7.9370618    765.83361  0.016834468  0.015990568            3 
 3792000   0.64960427   -7.9471184    766.29777  0.016840229  0.015985355            5 
 3793000   0.65280053   -7.9497927    766.10221  0.016831492  0.015980152            4 
 3794000   0.63155599   -7.9637997    765.51311  0.016814117  0.015974951            6 
 3795000     0.656273    -7.951432    765.18123  0.016802398  0.015969748            5 
 3796000   0.64609843   -7.9781628    765.38931   0.01680254  0.015964543            4 
 3797000   0.64403118    -7.959249    765.64874  0.016803809  0.015959333            8 
 3798000    0.6536622   -7.9446746    764.43241  0.016772696  0.015954124            7 
 3799000   0.64116949   -7.9453335    766.61088  0.016816067  0.015948921            8 
 3800000   0.65032945   -7.9786744     765.7691  0.016793182  0.015943715            5 
 3801000   0.64226567   -7.9543418    766.76337  0.016810562  0.015938508            9 
 3802000   0.64229759   -7.9595634    766.56514  0.016801796  0.015933317            6 
 3803000   0.64358527   -7.9557055    765.22379  0.016767986  0.015928126            5 
 3804000   0.64215675   -7.9764369    765.14852  0.016761929  0.015922923            2 
 3805000   0.65799563   -7.9698122     765.1196   0.01675689  0.015917724            4 
 3806000   0.63509853   -7.9505302     765.7809  0.016766967  0.015912524           13 
 3807000    0.6446455   -7.9437281    766.39766  0.016776063  0.015907338            8 
 3808000   0.64401822   -7.9554165    765.82726  0.016759175  0.015902142            4 
 3809000   0.62407485   -7.9717512    765.77174   0.01675356  0.015896941            6 
 3810000   0.63140057   -7.9519992    766.47211  0.016764482  0.015891741            4 
 3811000   0.65294083   -7.9778622    765.57465  0.016740458  0.015886539            7 
 3812000    0.6496491   -7.9618069    764.92442  0.016721853   0.01588134            6 
 3813000   0.63485432   -7.9475984    762.98707  0.016675126  0.015876149            6 
 3814000   0.63825863   -7.9702505    764.63945  0.016706857  0.015870962            9 
 3815000   0.63649636   -7.9805874    764.93178  0.016708864  0.015865769            7 
 3816000   0.62795787   -7.9655464    765.77576  0.016722916  0.015860589            7 
 3817000   0.64119465   -7.9768249    764.75562  0.016696263  0.015855404            4 
 3818000   0.64107889   -7.9845058    765.79114  0.016714491  0.015850225           12 
 3819000   0.65415782   -7.9724708    764.88878  0.016690425  0.015845041            4 
 3820000   0.63931917   -7.9642846    764.02994   0.01666732  0.015839862            9 
 3821000   0.63748173   -7.9601243    765.17172  0.016687859  0.015834672            6 
 3822000   0.63984149   -7.9466307    765.47984  0.016690211  0.015829485            3 
 3823000    0.6498422   -7.9719938    764.35871  0.016661407  0.015824304           10 
 3824000   0.63791201   -7.9673937    766.39521   0.01670143  0.015819133            6 
 3825000   0.64098658   -7.9727569    765.14172  0.016669754   0.01581396            5 
 3826000   0.63218103   -7.9827734    765.49626  0.016673119  0.015808795            7 
 3827000   0.63909452   -7.9659966    765.42867  0.016667291   0.01580363            3 
 3828000   0.65931485   -7.9854445    765.85225  0.016672158  0.015798463            6 
 3829000   0.65405154   -7.9881502    765.93858  0.016669683  0.015793295            6 
 3830000    0.6504343   -7.9822317    765.55013  0.016656878  0.015788127            2 
 3831000   0.63865857   -7.9768521    767.27609  0.016690074  0.015782966            3 
 3832000   0.63804478   -7.9609657    765.85688  0.016654856  0.015777805            5 
 3833000   0.64204811   -7.9976128    765.35554  0.016639611  0.015772645            8 
 3834000   0.64232554   -7.9868364    763.94975  0.016604715  0.015767485            6 
 3835000   0.63926761   -7.9670544    765.40584  0.016632026  0.015762343            3 
 3836000   0.64580674   -7.9790586    764.70544  0.016612475  0.015757184            3 
 3837000    0.6311806   -7.9791685     765.5465  0.016626412  0.015752032            3 
 3838000   0.62596728     -7.99399    766.27642  0.016637928   0.01574688            5 
 3839000   0.63617668   -7.9704433    765.16808  0.016609535  0.015741734            4 
 3840000   0.62709953   -7.9401929    765.71587  0.016617098  0.015736595            3 
 3841000   0.63745283   -7.9615341    765.33917  0.016604599  0.015731453            9 
 3842000   0.64640944   -7.9638962    767.31432  0.016643118  0.015726313            4 
 3843000   0.62978935    -7.959777    766.19993  0.016614623  0.015721186            4 
 3844000   0.63973055   -8.0127729    764.85307  0.016581102  0.015716055            5 
 3845000   0.63700536   -7.9647635    764.81948  0.016576062  0.015710923            5 
 3846000   0.64587956   -7.9656132     765.3174   0.01658254  0.015705792            6 
 3847000   0.63008586   -7.9658199    765.46335  0.016581391  0.015700663            3 
 3848000   0.63751803   -7.9889997    764.97974  0.016566609  0.015695531            7 
 3849000   0.64010958   -7.9840275    766.10247  0.016586613  0.015690397            8 
 3850000   0.63305667   -7.9649653    766.17442  0.016583862  0.015685287            7 
 3851000   0.63255744   -7.9594718    766.83583  0.016593868  0.015680173            2 
 3852000   0.62647667   -7.9813031    765.09863  0.016551978   0.01567505            4 
 3853000   0.64177483    -7.986096     766.4722   0.01657739  0.015669926            7 
 3854000   0.62716285   -7.9769166    764.99458  0.016541139  0.015664802            5 
 3855000   0.63611933   -7.9905956    765.47885  0.016547316  0.015659674            6 
 3856000   0.64708461   -7.9685859    765.76234  0.016549152  0.015654545            7 
 3857000    0.6426973   -7.9771276    766.14635  0.016553158   0.01564942            4 
 3858000   0.63590935   -7.9853004    764.45564  0.016512347  0.015644292            4 
 3859000   0.63621315   -7.9966893    764.44667  0.016507875   0.01563916            5 
 3860000   0.62228493   -7.9737927    764.81678  0.016511589  0.015634035            4 
 3861000   0.62142054   -7.9677254    764.56037  0.016501778  0.015628922            6 
 3862000   0.62261099   -7.9970195    764.75935  0.016501799  0.015623808            5 
 3863000   0.62466613   -7.9805478    765.91467   0.01652245  0.015618696            4 
 3864000   0.63836281   -7.9845974    765.44411  0.016508025  0.015613583           11 
 3865000   0.63085031   -7.9845368    764.86785  0.016491329  0.015608467            4 
 3866000   0.63819112    -7.977039    764.74897  0.016484501  0.015603351            4 
 3867000   0.63052824   -7.9767465    765.11569  0.016488141  0.015598232            3 
 3868000   0.63563942   -7.9694771    765.21999  0.016486125  0.015593127            3 
 3869000   0.62392566   -7.9679312    764.08277   0.01645737  0.015588023            8 
 3870000   0.62627647   -8.0052823    766.32386  0.016501375  0.015582921           14 
 3871000   0.63703652   -7.9729132    766.09254  0.016492133  0.015577813            3 
 3872000   0.64564721   -7.9717109     764.6676  0.016457206  0.015572715            4 
 3873000   0.64179721   -7.9842585    765.25954  0.016465693  0.015567618            6 
 3874000   0.62989213    -7.995191    764.51913  0.016445516  0.015562515            5 
 3875000   0.64795183   -7.9689964    765.69068  0.016466466  0.015557425            3 
 3876000   0.62899052   -7.9909108    765.04254  0.016448283   0.01555233            4 
 3877000   0.61992058   -7.9702709    764.08131  0.016423379  0.015547241            4 
 3878000   0.64162997   -7.9691258     764.7577  0.016433679  0.015542157            5 
 3879000   0.61611734   -7.9970648    764.31869  0.016420011   0.01553707            5 
 3880000   0.64582588   -7.9851353    765.73695   0.01644624  0.015531979           10 
 3881000   0.62912527   -7.9832639    764.59839  0.016417555  0.015526892            8 
 3882000   0.62401385    -7.992316    766.76031  0.016459735  0.015521815           16 
 3883000   0.63159185   -7.9818255    764.51056  0.016407214  0.015516724            8 
 3884000   0.62337757    -7.988433    764.25818  0.016397575  0.015511639            8 
 3885000   0.63530747   -8.0108085    765.57648  0.016421632  0.015506561            7 
 3886000   0.62341547   -7.9701931    765.09948  0.016407177  0.015501496            7 
 3887000   0.62363669   -7.9605143    767.00584  0.016443826  0.015496421            5 
 3888000   0.62310702   -7.9886252    765.92698  0.016416473  0.015491361            5 
 3889000   0.62143688   -7.9748907    765.72227  0.016407866  0.015486299            7 
 3890000    0.6277094   -8.0070556    765.55796  0.016400128  0.015481232            4 
 3891000   0.63829003   -7.9815504    764.39196  0.016370941  0.015476166            5 
 3892000   0.62724673   -7.9834263    764.41499  0.016367227  0.015471109            4 
 3893000   0.61637629   -7.9914802    764.90544  0.016373522   0.01546605            4 
 3894000   0.61952051   -7.9696038    764.92679  0.016369774  0.015460997            6 
 3895000    0.6316361   -7.9769594    765.36674  0.016374984  0.015455936            3 
 3896000   0.63186069   -7.9596196    764.40507  0.016350211  0.015450882            4 
 3897000     0.621892   -7.9651639    766.19914   0.01638438  0.015445833            3 
 3898000   0.63489641   -8.0114641    765.14183  0.016357573  0.015440781            4 
 3899000    0.6320181   -7.9799661    764.68664  0.016343649  0.015435728            5 
 3900000   0.62969031   -7.9854255    765.13354  0.016349007  0.015430677            4 
 3901000   0.62083322   -8.0092549    765.06044  0.016343255  0.015425628            6 
 3902000   0.61549361   -7.9835508    764.68669  0.016331084  0.015420571            6 
 3903000   0.61969722   -7.9766522    767.31082  0.016382928  0.015415537            3 
 3904000   0.63947673   -7.9675898    766.21988  0.016355445  0.015410503            8 
 3905000   0.61464763    -7.985857    766.41356   0.01635539  0.015405462            5 
 3906000   0.62452742   -7.9758693    765.68192  0.016335593   0.01540043            4 
 3907000   0.60707967   -7.9894166    765.22423   0.01632165  0.015395388           12 
 3908000   0.63173667   -7.9761887     766.2934  0.016340272  0.015390354           22 
 3909000   0.62217358   -7.9959581    764.16075  0.016290627  0.015385329           12 
 3910000   0.62902034   -8.0094453    766.08638  0.016327502    0.0153803           23 
 3911000   0.63989397   -8.0055066    766.57361  0.016333708  0.015375289           19 
 3912000   0.63915374   -8.0075777    765.69909  0.016310904  0.015370264            9 
 3913000    0.6121188    -7.969302    764.29692  0.016276874  0.015365237            8 
 3914000    0.6114066    -8.008333     767.0805  0.016331981  0.015360221            4 
 3915000   0.61220748   -7.9812704     765.1026  0.016285709  0.015355203            7 
 3916000    0.6216894   -7.9877578    765.60681   0.01629228  0.015350186            7 
 3917000   0.63550822     -7.99557    764.69429  0.016268707  0.015345173            6 
 3918000   0.62385749   -7.9761878    764.35055  0.016257243  0.015340161            7 
 3919000   0.62706176   -7.9942219    766.03172  0.016288843   0.01533515            6 
 3920000      0.62768   -8.0027149     764.9136  0.016260918  0.015330134            9 
 3921000   0.63257478   -7.9800557    765.04375  0.016259537  0.015325122            6 
 3922000   0.62690093   -7.9684108    765.39081  0.016262766  0.015320123            6 
 3923000   0.62003128   -7.9975514    765.75232    0.0162663  0.015315113            6 
 3924000    0.6165536   -8.0005159    765.07768  0.016247827   0.01531011            4 
 3925000   0.63062013   -7.9721256    764.72307  0.016236159  0.015305117            9 
 3926000   0.63659066   -7.9816244    765.04849   0.01623893  0.015300118           10 
 3927000   0.63844463   -7.9873999    765.39978   0.01624225  0.015295122            7 
 3928000   0.60335003   -7.9943838    764.31449   0.01621509  0.015290122            6 
 3929000   0.62267493    -7.988732    764.25868  0.016209779  0.015285124            8 
 3930000   0.63034501   -8.0020009    765.91882  0.016240857  0.015280135            6 
 3931000   0.64128282   -7.9970109    764.82675  0.016213575  0.015275143            5 
 3932000   0.61901967   -7.9829579    765.75868  0.016229202  0.015270162            5 
 3933000   0.63996917   -7.9724946    766.22469   0.01623495  0.015265189            5 
 3934000    0.6110041   -7.9911489    763.75501  0.016178508  0.015260203            3 
 3935000   0.62822657    -7.996224     766.9027  0.016241057  0.015255218            4 
 3936000   0.62692592   -7.9928346    764.70126  0.016190321  0.015250237            4 
 3937000   0.61868644   -7.9818614    766.09159  0.016215638   0.01524526            2 
 3938000   0.62099303   -7.9906182    765.72826  0.016203831  0.015240275            5 
 3939000   0.61938521   -7.9965526    765.37574   0.01619226  0.015235291            5 
 3940000   0.60982058   -8.0083367    765.16302  0.016183651  0.015230315            4 
 3941000   0.62022816   -8.0047741    764.82922  0.016172486  0.015225345            3 
 3942000   0.62994621   -7.9991467    766.63832  0.016206628  0.015220373            4 
 3943000   0.61048347   -7.9978739     765.6618  0.016181879  0.015215403            5 
 3944000   0.60931356   -7.9857573    763.65709  0.016135419  0.015210422            3 
 3945000   0.62691799   -8.0157054    764.70383   0.01615344  0.015205447            6 
 3946000    0.6202849   -8.0065001    766.16507  0.016180205  0.015200465            3 
 3947000   0.61379545   -8.0053749    766.21096  0.016177075  0.015195498           21 
 3948000   0.61789836   -7.9987497    765.73967  0.016163029  0.015190517            7 
 3949000   0.62798696   -8.0125263    763.93227  0.016120796  0.015185535            6 
 3950000   0.61014058   -8.0118903    764.41127   0.01612682  0.015180573            5 
 3951000   0.62597557   -7.9994427    764.93685  0.016133824  0.015175599            8 
 3952000   0.61523065   -7.9955317    763.01696  0.016089258  0.015170633            5 
 3953000   0.62176311   -8.0070318    764.70504  0.016120774  0.015165661            3 
 3954000   0.61934514   -7.9971444    765.37257  0.016130766    0.0151607            3 
 3955000   0.61956721   -8.0199595    765.91241  0.016138062  0.015155744            6 
 3956000   0.61236166   -7.9984092    765.51275  0.016125563  0.015150791            4 
 3957000   0.62151275    -8.015765     765.7525  0.016126537  0.015145831            7 
 3958000   0.62287743   -8.0097345    764.74148  0.016101176  0.015140865            4 
 3959000   0.62342074   -8.0191307    764.39822  0.016089884  0.015135899            3 
 3960000    0.6174289   -8.0167797    764.25458  0.016082798   0.01513094            2 
 3961000   0.61919771    -8.022751    765.76917  0.016110603  0.015125981            4 
 3962000   0.60818876   -7.9987256    765.38949  0.016098551  0.015121038            4 
 3963000   0.61101971   -8.0025569    764.40506  0.016073788  0.015116096            3 
 3964000   0.62550584   -8.0110526    765.18522  0.016086134  0.015111151            5 
 3965000     0.610707   -8.0254716      764.617  0.016070135    0.0151062            7 
 3966000   0.62030091   -8.0015705    765.59561  0.016086645  0.015101251            4 
 3967000   0.62610791   -8.0122537    765.48447  0.016080255  0.015096303            6 
 3968000   0.61661766   -8.0173879    765.31506  0.016072645  0.015091355            5 
 3969000   0.62759212   -8.0035202    765.46727  0.016071791  0.015086409            2 
 3970000   0.60283983   -8.0187596     765.3329  0.016064922  0.015081463           11 
 3971000   0.62437384   -8.0118993    765.51175   0.01606463  0.015076521            5 
 3972000   0.62108747   -8.0096151    764.74421  0.016044483  0.015071579            8 
 3973000   0.61016912    -8.016226     763.7164  0.016018886  0.015066639            5 
 3974000   0.61322305   -8.0144932    763.52994  0.016010945  0.015061697            7 
 3975000   0.63561463    -8.015709    764.20784  0.016021129  0.015056751            4 
 3976000    0.6153415   -8.0185383    763.34145  0.015998941  0.015051803            3 
 3977000   0.61930465   -8.0152485    764.52444  0.016019706  0.015046857            8 
 3978000   0.60623249   -8.0294348    764.77948  0.016021021  0.015041919            3 
 3979000    0.6052044   -7.9939283    764.60484  0.016013338  0.015036981            2 
 3980000    0.6124489   -8.0348028    764.81685  0.016013753  0.015032048            5 
 3981000   0.62044425   -8.0184043    765.08168  0.016015274  0.015027118            4 
 3982000   0.61150184   -7.9978083    764.44521  0.015997933  0.015022172            5 
 3983000   0.62843047    -8.025546    764.43929  0.015993792  0.015017237            3 
 3984000   0.60855209   -8.0231265    765.64306  0.016014957  0.015012313            6 
 3985000   0.61000518   -8.0134501    763.78217  0.015972024  0.015007388            2 
 3986000   0.62049039   -8.0004823    764.02729  0.015973141  0.015002456            3 
 3987000    0.6233037   -8.0214783    764.53348  0.015979715  0.014997534            5 
 3988000   0.59365071    -8.008317    765.53609  0.015996659  0.014992609            4 
 3989000   0.61101865   -8.0138907    765.23263  0.015986309  0.014987688            7 
 3990000    0.6071518   -8.0264538    765.73191   0.01599273   0.01498278            4 
 3991000   0.61496018   -8.0150681    764.90872  0.015971534   0.01497787            6 
 3992000   0.62047616   -8.0054084    765.71872  0.015984442  0.014972967            4 
 3993000   0.61399595   -8.0162602    764.65927  0.015958329  0.014968056            3 
 3994000   0.61975304   -8.0273247    765.09445  0.015963413  0.014963148            3 
 3995000   0.61252994   -8.0190055    764.17295  0.015940195  0.014958229            4 
 3996000   0.61757628   -8.0051534    763.91649  0.015930858  0.014953319            3 
 3997000   0.61313073   -8.0230986    763.80032   0.01592445  0.014948408            5 
 3998000   0.62321248   -8.0353715    765.24234  0.015950524  0.014943498            3 
 3999000   0.61513654   -8.0289906    763.16445  0.015903235  0.014938588            4 
 4000000   0.60347485   -8.0379588    763.32583  0.015902621  0.014933666            4 
 4001000   0.61171075   -8.0463309    763.28318  0.015897758  0.014928736            4 
 4002000   0.61208671   -8.0204406     763.3874  0.015895956  0.014923814            3 
 4003000   0.62743855   -8.0171347    763.96325  0.015903973   0.01491889            4 
 4004000   0.60514637   -8.0343936    763.23511  0.015884847  0.014913974            5 
 4005000    0.6118716   -8.0582434    763.63299  0.015889159  0.014909056            3 
 4006000   0.60417691   -8.0154452     763.2374  0.015876964  0.014904146            4 
 4007000    0.6160716   -8.0476813    764.73896  0.015904229  0.014899228            4 
 4008000   0.60829078   -8.0409126    763.04218  0.015864982  0.014894321            4 
 4009000     0.603756   -8.0487571    763.47702  0.015870064  0.014889415            4 
 4010000   0.61153633   -8.0642374    764.02338   0.01587746  0.014884501            4 
 4011000   0.61668593   -8.0294384     764.2637  0.015878495  0.014879595            4 
 4012000   0.60190812   -8.0223635    763.93491  0.015867708  0.014874697            3 
 4013000   0.60299366   -8.0308274    762.92539   0.01584279  0.014869805            5 
 4014000   0.60621843   -8.0522752    764.02388  0.015861648   0.01486491            8 
 4015000   0.59685298   -8.0312853     764.5453   0.01586852  0.014860014            4 
 4016000   0.61151481    -8.041544    764.97099  0.015873402  0.014855113            7 
 4017000   0.60934531    -8.044866    763.44653  0.015837825  0.014850203            4 
 4018000   0.59911122   -8.0427364    764.25396   0.01585063  0.014845307            4 
 4019000   0.61693544   -8.0432398    764.12806  0.015844075  0.014840409            3 
 4020000   0.60222062   -8.0060176     764.2993  0.015843684  0.014835515            4 
 4021000   0.62499512   -8.0061156    763.67833  0.015826874  0.014830626            5 
 4022000    0.6017397   -8.0431483    765.27408  0.015856002  0.014825739            5 
 4023000   0.61359682   -8.0438966    763.63263  0.015818059  0.014820844            6 
 4024000   0.60032626    -8.018377     764.7072  0.015836382  0.014815957            8 
 4025000   0.60254417   -8.0319387    764.42799  0.015826666  0.014811067            4 
 4026000   0.60255963   -8.0514145    764.18971  0.015817803  0.014806188            3 
 4027000   0.61224009   -8.0299832    763.28898  0.015795236  0.014801314            6 
 4028000   0.61356337   -8.0464075    763.66915   0.01579918   0.01479644            5 
 4029000    0.6072931   -8.0285416    763.90825  0.015800204  0.014791558            5 
 4030000   0.60667061   -8.0250158    763.53723  0.015788611  0.014786689            5 
 4031000   0.60760973   -8.0391639    763.91374  0.015792478  0.014781807            7 
 4032000   0.60547924   -8.0434912    763.76463  0.015785479  0.014776922            6 
 4033000   0.59814626   -8.0229767    762.92899  0.015764299  0.014772036            6 
 4034000   0.61006202   -8.0436984    762.61403  0.015753884  0.014767154            4 
 4035000   0.60048682   -8.0541795    762.87738  0.015755419  0.014762272            3 
 4036000   0.60854514   -8.0572281    763.83328  0.015771252  0.014757389           10 
 4037000   0.59380479   -8.0527222    765.24918  0.015796573  0.014752514            5 
 4038000   0.60601402    -8.043586    763.29892  0.015752413  0.014747643            4 
 4039000   0.59752445   -8.0329063     763.5818  0.015754349  0.014742779            4 
 4040000   0.61140305   -8.0269515    763.94237  0.015757887  0.014737907            5 
 4041000   0.62179437    -8.043889    762.43303  0.015722862  0.014733044            4 
 4042000   0.60476682   -8.0497633    763.82864  0.015747745  0.014728181            6 
 4043000   0.61476523   -8.0506744    764.09655  0.015749372  0.014723315            3 
 4044000    0.6102509   -8.0313399    764.61153   0.01575609  0.014718464            9 
 4045000   0.60027361   -8.0251623    762.62756  0.015711322   0.01471361            4 
 4046000   0.59229908   -8.0491068    763.26221   0.01572051  0.014708759            7 
 4047000   0.60912804   -8.0392802    764.29487   0.01573789  0.014703909            4 
 4048000    0.6095388   -8.0195825    764.59634  0.015740208  0.014699071            7 
 4049000   0.59260374   -8.0252639    763.12488  0.015706036  0.014694238            3 
 4050000   0.60590949   -8.0436249    764.98271  0.015740385   0.01468941            5 
 4051000   0.59658946   -8.0351887    764.58075  0.015728231  0.014684581            5 
 4052000   0.60180626   -8.0172307    764.44945  0.015721649  0.014679758            6 
 4053000   0.60238115   -8.0609754    764.21817  0.015713015  0.014674927            6 
 4054000    0.5980438   -8.0328039     763.7885  0.015700306  0.014670107            8 
 4055000   0.61113032   -8.0204544    762.87799  0.015677723  0.014665291            9 
 4056000   0.59966662   -8.0116842    764.14108  0.015699808  0.014660475            5 
 4057000   0.61481546   -8.0218187    762.83495   0.01566911  0.014655664            4 
 4058000    0.6066997   -8.0384044    764.92193  0.015708106  0.014650852            4 
 4059000   0.59312427    -8.007519    764.06235  0.015686588  0.014646035            5 
 4060000   0.60298075   -8.0427229    763.47686  0.015670707  0.014641222            4 
 4061000   0.59503647   -8.0335759    763.99967  0.015677577  0.014636406            5 
 4062000   0.60055813   -8.0434758    764.56723  0.015685361  0.014631583            5 
 4063000   0.61223618   -8.0288381    763.32106  0.015655941  0.014626775            3 
 4064000   0.59390128   -8.0053565    764.09555   0.01566797  0.014621966            3 
 4065000   0.60887578   -8.0547474    764.40304  0.015670419  0.014617163            5 
 4066000   0.60175033   -8.0391117    762.93833  0.015636546  0.014612353            7 
 4067000   0.58672591   -8.0494448    764.23373  0.015659244  0.014607553            6 
 4068000   0.57958106   -8.0642679    763.87474   0.01564804  0.014602752            4 
 4069000   0.59731939   -8.0375309    763.32049  0.015632844  0.014597954            3 
 4070000   0.60318942   -8.0473522    763.32703  0.015629137  0.014593163            3 
 4071000    0.6042809   -8.0472332    764.54516  0.015650232  0.014588373            5 
 4072000   0.61054078   -8.0611011    763.67929  0.015628669  0.014583565            6 
 4073000   0.59649787   -8.0380172    763.87213  0.015628777  0.014578763            2 
 4074000   0.59815162   -8.0298514    763.37574  0.015614788  0.014573965            3 
 4075000   0.59455318   -8.0549084    763.04438   0.01560418  0.014569168            3 
 4076000     0.607095   -8.0445302    763.26079  0.015604776  0.014564374            3 
 4077000   0.59512624   -8.0476668     763.9759  0.015615565  0.014559588            6 
 4078000   0.60002919   -8.0447641    763.29282  0.015597777  0.014554798            9 
 4079000   0.60628685   -8.0349138    762.41884  0.015576098   0.01455001            9 
 4080000   0.59133055    -8.042177    764.26104  0.015609907  0.014545224            7 
 4081000    0.5952541   -8.0283069    763.38402  0.015588173  0.014540431            7 
 4082000   0.59542467   -8.0615901    764.07073  0.015598374  0.014535641            6 
 4083000   0.59671308   -8.0489296    763.76409  0.015588295  0.014530857            4 
 4084000   0.59616511   -8.0622934    762.60475  0.015560822   0.01452607            6 
 4085000    0.5996175   -8.0586043    763.64893  0.015578314  0.014521288            4 
 4086000   0.59419026    -8.050338    763.01824  0.015561638  0.014516511            4 
 4087000   0.59710787   -8.0136268    764.21069  0.015582144  0.014511736            3 
 4088000   0.59007077   -8.0496367    761.80005  0.015529192  0.014506954            8 
 4089000   0.60777136   -8.0307339     763.9493  0.015569196  0.014502166            7 
 4090000   0.59526501   -8.0665133    764.05558  0.015567555  0.014497379            2 
 4091000   0.60057707   -8.0488004    762.17399  0.015525421  0.014492596            6 
 4092000    0.5988501   -8.0610125    763.40521  0.015546701  0.014487826            9 
 4093000   0.60134885   -8.0472684    764.50787  0.015565353  0.014483052           12 
 4094000   0.60300762   -8.0476845    763.47528  0.015540533  0.014478284            4 
 4095000   0.58661875   -8.0375056    764.48581  0.015557302  0.014473521            4 
 4096000    0.5964051   -8.0500364    762.67737  0.015516711  0.014468756            4 
 4097000   0.60219788   -8.0584039    762.29459  0.015505138  0.014463994            5 
 4098000   0.58929254   -8.0595012    764.07795  0.015537619   0.01445922            3 
 4099000   0.60017575   -8.0404799    764.08693  0.015534011  0.014454452           13 
 4100000   0.60929805   -8.0738511      763.089  0.015509939  0.014449684            6 
 4101000   0.57525054   -8.0752046    763.51049  0.015514722  0.014444911            7 
 4102000   0.60717601   -8.0669915    762.86086  0.015497742  0.014440138            3 
 4103000   0.60244005   -8.0364247    761.22517  0.015460744  0.014435364            5 
 4104000   0.58854898   -8.0811659    762.48126  0.015482482  0.014430594            5 
 4105000   0.58520811   -8.0877027    762.94062  0.015488035  0.014425821            5 
 4106000   0.58001793   -8.0556041    761.59013  0.015456854  0.014421056            3 
 4107000   0.59321991   -8.0669708    764.88306  0.015519906  0.014416297            7 
 4108000   0.60014298   -8.0610074    762.81422  0.015474161  0.014411529            4 
 4109000   0.59209111     -8.07368    762.25514  0.015459056  0.014406766            3 
 4110000   0.60388452   -8.0526809    761.51165   0.01544022  0.014401997            9 
 4111000   0.59208171   -8.0821573    761.54346  0.015437109  0.014397238            4 
 4112000   0.58896821   -8.0746052    762.26834  0.015448045  0.014392484           10 
 4113000   0.58809986   -8.0683693    763.54236  0.015470102  0.014387727            7 
 4114000   0.59729365   -8.0855686    763.67076  0.015468943  0.014382968            6 
 4115000   0.59264121   -8.0709173    762.91948  0.015449969  0.014378207            3 
 4116000   0.59638126   -8.0716648    762.61162  0.015439983  0.014373454            6 
 4117000   0.58039566   -8.0619725    763.76117  0.015459501  0.014368713            5 
 4118000    0.5873919   -8.0613764    762.41296  0.015428464  0.014363964            4 
 4119000   0.59644519   -8.0705288    763.39905  0.015444668  0.014359217            4 
 4120000   0.59367642    -8.087899    762.38126  0.015420333  0.014354476            3 
 4121000   0.58556505   -8.0615098    762.53743  0.015419749  0.014349744            3 
 4122000    0.5946086   -8.0651132    763.40907   0.01543363  0.014345015            4 
 4123000   0.59801219   -8.0581398    761.72694  0.015395888   0.01434029            5 
 4124000   0.58111241   -8.0581515    763.58816  0.015429764  0.014335565            6 
 4125000   0.59479227   -8.0608514    762.71863  0.015408457  0.014330838            3 
 4126000   0.58764436   -8.0564389    763.39368  0.015418357  0.014326113            4 
 4127000   0.58975606   -8.0735483    761.55668  0.015377528  0.014321387            5 
 4128000   0.59163517   -8.0769881    763.50418  0.015413117  0.014316665            5 
 4129000   0.58162854   -8.0780514    764.96235  0.015438814  0.014311944            7 
 4130000   0.58455757   -8.0889072     763.1804   0.01539912  0.014307221            7 
 4131000   0.56789642   -8.0691476    761.65914  0.015364705  0.014302499            4 
 4132000   0.58622606   -8.0644859    762.83993    0.0153848  0.014297779            4 
 4133000   0.58908165    -8.065574    762.25485  0.015369281  0.014293059            8 
 4134000   0.58599395   -8.0765008    763.49918  0.015390646  0.014288351            9 
 4135000   0.59450637   -8.0966413    762.05936  0.015357907  0.014283646            9 
 4136000   0.59640598   -8.0848496    760.50255  0.015322827  0.014278927            5 
 4137000   0.58465098   -8.0882484    763.24849  0.015374436  0.014274213            8 
 4138000   0.59207934   -8.0822077    763.91939  0.015384231  0.014269504            4 
 4139000   0.59157056   -8.0721366    761.50147  0.015331833  0.014264791            6 
 4140000   0.59845918   -8.0772345    762.24066  0.015343008  0.014260079           13 
 4141000   0.58922148   -8.0717119    761.68567  0.015328135  0.014255368            8 
 4142000   0.57680614   -8.0964526    763.16023  0.015354101  0.014250654           14 
 4143000   0.58990915     -8.09292    762.61912  0.015339511  0.014245945            5 
 4144000   0.57942616    -8.076175    761.73458  0.015318022  0.014241243            5 
 4145000   0.59492557   -8.0896931    762.34356  0.015326569  0.014236535            5 
 4146000   0.59457722   -8.0835533    761.76349  0.015311213  0.014231837            6 
 4147000   0.58354632   -8.0913264    762.11181  0.015314521  0.014227138            6 
 4148000   0.57168228   -8.0984928    761.83692  0.015305306  0.014222432            5 
 4149000   0.58500646   -8.0918108    761.90687  0.015303022  0.014217731           13 
 4150000   0.59266819   -8.0815394    764.38194  0.015349035  0.014213035            5 
 4151000   0.57852594   -8.0801584    763.23743  0.015322361   0.01420834            6 
 4152000   0.58558614   -8.0950381    763.33645  0.015320658  0.014203652           15 
 4153000   0.59902129   -8.1054084     763.3578  0.015317397  0.014198961            7 
 4154000   0.56863202   -8.0985196    762.66686  0.015299849  0.014194269            8 
 4155000   0.56320408   -8.0831246     762.8239  0.015299316  0.014189574            7 
 4156000   0.59005404   -8.0762463    762.61953  0.015291537  0.014184889           11 
 4157000   0.58135441   -8.0850837    762.11559  0.015277756  0.014180211            5 
 4158000   0.58532144   -8.0737021    763.50248  0.015301877  0.014175534            6 
 4159000   0.58350842   -8.0731321    763.33256  0.015294794  0.014170858           12 
 4160000   0.58259256   -8.0933848    762.82346  0.015280919  0.014166187           13 
 4161000   0.58283367   -8.0640997    762.81929  0.015277163  0.014161522           14 
 4162000   0.58948014    -8.087737    761.81244  0.015253333  0.014156845           11 
 4163000   0.59741861   -8.0850885     762.4234  0.015261898  0.014152176            4 
 4164000   0.58642757   -8.0821869    763.42716  0.015278321   0.01414751            5 
 4165000   0.57998879   -8.0784875    763.20717  0.015270252   0.01414284            6 
 4166000   0.59520199   -8.0851528    762.92391   0.01526092  0.014138171            6 
 4167000   0.58754177    -8.069687      762.579   0.01525036   0.01413351           15 
 4168000   0.58443862    -8.081025    762.11753  0.015237475  0.014128853           11 
 4169000   0.59472882   -8.0641668    761.87853  0.015229042  0.014124197           17 
 4170000   0.58531512   -8.1007636    762.30841  0.015233981  0.014119541            7 
 4171000   0.57832794   -8.1128806    761.19712  0.015208126  0.014114886            6 
 4172000    0.5902044   -8.1094291    762.75536  0.015235606   0.01411022           24 
 4173000   0.58191947    -8.087555    762.70381  0.015230925  0.014105558           13 
 4174000   0.59392993   -8.0883236    762.46255  0.015222459  0.014100896           12 
 4175000   0.60184014   -8.1079051     761.7875  0.015205339  0.014096237            5 
 4176000   0.58944085   -8.0982554    761.56187  0.015197196   0.01409158            9 
 4177000   0.59001768   -8.1025195    762.53806  0.015213033  0.014086927           12 
 4178000   0.58515396   -8.1147342    764.47411  0.015248008  0.014082279            6 
 4179000    0.5793799   -8.0891767    762.57834  0.015206555  0.014077629           16 
 4180000   0.58882024   -8.0998451    762.63005  0.015203948  0.014072977            5 
 4181000   0.58211898   -8.0929465    761.76642  0.015183099  0.014068325           12 
 4182000   0.58311055   -8.0994902    762.20315  0.015188171  0.014063674            5 
 4183000   0.58806162   -8.0967741    762.86914  0.015197807   0.01405903            8 
 4184000   0.57262926    -8.073966    763.25547   0.01520187  0.014054389            5 
 4185000   0.57518579   -8.0734195    762.62192  0.015185622  0.014049746            7 
 4186000   0.58225788    -8.089372    762.63208  0.015182196  0.014045101            9 
 4187000   0.59324092   -8.0816734    761.07033  0.015147487  0.014040454            4 
 4188000   0.58935119   -8.1079081    760.61056  0.015134721  0.014035805            6 
 4189000     0.588582   -8.0947748    761.30188  0.015144861  0.014031155            4 
 4190000    0.5775636   -8.1014125    760.81735   0.01513161  0.014026514           12 
 4191000   0.58158484   -8.0991182    761.55957  0.015142758  0.014021867            9 
 4192000   0.57471763   -8.0921749    760.65537  0.015121171  0.014017226           11 
 4193000   0.57398182   -8.1091081    761.69312  0.015138189  0.014012588            8 
 4194000   0.58345582   -8.1017294    762.04527  0.015141577   0.01400795            8 
 4195000    0.5747853    -8.109889    763.86734  0.015174163  0.014003316            7 
 4196000   0.58112118   -8.0986465    761.65996  0.015126707  0.013998683            5 
 4197000   0.58911548   -8.1181186    759.76755  0.015085528  0.013994048            8 
 4198000   0.58144455   -8.1044989    762.70173  0.015140181  0.013989416            4 
 4199000   0.57020941   -8.0986334     761.5382  0.015113483  0.013984783            9 
 4200000   0.58942943    -8.100555    762.29344   0.01512487  0.013980146            7 
 4201000   0.57982506    -8.103035    761.26283  0.015100826   0.01397551            4 
 4202000   0.57868887   -8.1102498    761.75184   0.01510693  0.013970881            7 
 4203000   0.57651533   -8.1275487    761.25634  0.015093511  0.013966245            6 
 4204000    0.5735423   -8.1098343    761.62648  0.015097258  0.013961609            7 
 4205000   0.59901243   -8.1241116    760.47581  0.015070864  0.013956984            3 
 4206000     0.578193   -8.1286373     761.8862  0.015095225  0.013952358            6 
 4207000   0.58497617   -8.1060515    759.96398  0.015053561  0.013947732            7 
 4208000    0.5892723   -8.1075012     761.7566  0.015085484  0.013943113            6 
 4209000    0.5758573   -8.1262191    762.17154  0.015090115  0.013938491            7 
 4210000   0.57083862   -8.1239209    761.43117  0.015071876  0.013933877            6 
 4211000   0.57736334   -8.1264331    762.14428  0.015082409  0.013929261            7 
 4212000   0.57297534   -8.1113362    761.30122  0.015062148  0.013924651            5 
 4213000   0.57090212   -8.1180979    762.05202  0.015073424  0.013920042            9 
 4214000   0.58036626   -8.1014381    761.41429  0.015057236  0.013915432            3 
 4215000   0.57334866   -8.0895248    762.97459  0.015084511  0.013910829            4 
 4216000   0.56827779    -8.108444    761.59494  0.015053663  0.013906225            5 
 4217000   0.56070016   -8.1107371    761.31572  0.015044576  0.013901623            5 
 4218000   0.56611973   -8.1109212    761.05047  0.015035769  0.013897019            2 
 4219000   0.56655601   -8.1056247    761.68204   0.01504468  0.013892419            7 
 4220000   0.55988106   -8.1060476    761.41363  0.015035814  0.013887824            5 
 4221000   0.58232911   -8.1056933    761.61955  0.015036317  0.013883236            5 
 4222000   0.56156008   -8.0971216    762.46086  0.015049362  0.013878648            4 
 4223000   0.57814911   -8.1171927    762.04349  0.015037562  0.013874053            4 
 4224000   0.58482199   -8.1021242    761.49866  0.015023253  0.013869466            4 
 4225000   0.56193838   -8.1101576    761.27199  0.015015227  0.013864879            3 
 4226000   0.57543347   -8.1111656    761.75322  0.015021163  0.013860292            3 
 4227000   0.57672966   -8.1252899    760.76418  0.014998111  0.013855705            5 
 4228000   0.57961364   -8.1097389    761.96426  0.015018217  0.013851112            4 
 4229000   0.57686755   -8.1147606    762.34266  0.015022122  0.013846529            5 
 4230000   0.57359369   -8.1474195     760.5364  0.014982987   0.01384194            6 
 4231000   0.58630898   -8.1178998     761.5825  0.015000049  0.013837353            9 
 4232000   0.56489149   -8.1215102    762.01455  0.015005012  0.013832771            7 
 4233000   0.57390552   -8.1148806     761.2239  0.014985902  0.013828188            6 
 4234000   0.58354856   -8.1124965    762.13385  0.015000273  0.013823602            6 
 4235000   0.57358647   -8.1229854    760.84472  0.014971364  0.013819026           10 
 4236000   0.57528911   -8.1285548      761.462  0.014979973  0.013814447            5 
 4237000   0.57306462   -8.1168329      760.934  0.014966053  0.013809872            5 
 4238000   0.58296471   -8.1163396    760.66786  0.014957288  0.013805297            7 
 4239000   0.57121783   -8.1166888    761.85077  0.014977014  0.013800722            3 
 4240000   0.57367755   -8.1260708    761.82423   0.01497296  0.013796155            7 
 4241000    0.5650233   -8.1151547     762.4103  0.014980946  0.013791584            5 
 4242000   0.56437165   -8.1133585    761.64357  0.014962352  0.013787019            4 
 4243000   0.57699352   -8.1377646    760.28156  0.014932076  0.013782449            6 
 4244000    0.5614569   -8.1184235    762.01727  0.014962639  0.013777892            8 
 4245000   0.57376346   -8.1120204     760.3346  0.014926082  0.013773334            8 
 4246000   0.56627663   -8.0970012    761.37399  0.014942966  0.013768778            7 
 4247000   0.57869183    -8.127586    760.27459  0.014917875  0.013764227            6 
 4248000    0.5749753   -8.1048217    760.50218  0.014918828  0.013759671            5 
 4249000   0.57330434    -8.115849    761.80675  0.014940903  0.013755123            6 
 4250000   0.56797264    -8.121901    761.72955  0.014935874  0.013750576            4 
 4251000   0.57430886   -8.1139227    760.02871  0.014899018  0.013746032            6 
 4252000   0.57117569   -8.1361468    761.21866  0.014918835   0.01374149           10 
 4253000   0.56351295   -8.1375215    762.06822  0.014931974  0.013736945           10 
 4254000   0.57448858   -8.0991515    761.55466  0.014918404  0.013732401            4 
 4255000   0.57720066   -8.1150221    760.96448  0.014903339  0.013727863            6 
 4256000   0.55980319   -8.1376229    760.12675  0.014883434  0.013723316            7 
 4257000   0.56932905   -8.1340047     760.6975  0.014891111  0.013718773            8 
 4258000   0.56596316   -8.1195099    761.53076  0.014903921  0.013714236            5 
 4259000   0.57766244   -8.1293064    762.37462  0.014916933  0.013709704            7 
 4260000   0.57850008   -8.1071603    762.04596  0.014907002  0.013705173            5 
 4261000    0.5749533     -8.08944    762.44451  0.014911298  0.013700649            6 
 4262000   0.56906411     -8.12394    760.96996  0.014878968  0.013696124            5 
 4263000     0.579191   -8.1357416     759.8507  0.014853599   0.01369159            5 
 4264000   0.57709176   -8.1292943    761.89455  0.014890059  0.013687064            6 
 4265000    0.5741496   -8.1286119    760.82627  0.014865695  0.013682538            2 
 4266000    0.5685204   -8.1085846    761.18585  0.014869234  0.013678016           12 
 4267000   0.56610078   -8.1128465    761.44764  0.014870862  0.013673496            6 
 4268000   0.54908112   -8.1210842    759.45893  0.014828548  0.013668972           10 
 4269000   0.55552172   -8.1283797    762.07847   0.01487621  0.013664456            5 
 4270000   0.57974212   -8.1294938    760.61867  0.014844236  0.013659945            4 
 4271000   0.57565912    -8.119544    760.43055   0.01483709  0.013655435           11 
 4272000    0.5559195   -8.1248361    761.39601   0.01485245   0.01365092            9 
 4273000   0.57598146   -8.1356955    760.31836  0.014827958  0.013646408            8 
 4274000   0.56771705   -8.1078386    760.50368  0.014828102  0.013641899            4 
 4275000   0.56008755   -8.1331138    761.01603   0.01483462   0.01363739            6 
 4276000   0.56309027   -8.1327525    760.22428  0.014815721  0.013632883            7 
 4277000   0.57091016   -8.1336909     759.7828  0.014803655  0.013628373            9 
 4278000   0.56677766   -8.1214326    760.71459  0.014818346   0.01362387            5 
 4279000   0.57895334   -8.1393236     760.9264  0.014819008  0.013619369            3 
 4280000   0.56515357    -8.133103     760.7804  0.014812703  0.013614864            4 
 4281000    0.5749037   -8.1283215    762.33683   0.01483954  0.013610365            5 
 4282000   0.57007163   -8.1376409    759.51148  0.014781089  0.013605861            6 
 4283000   0.57605916   -8.1257499    760.09962  0.014789081  0.013601361            7 
 4284000   0.55957446    -8.137742    760.85923  0.014800405  0.013596864            5 
 4285000   0.56272894   -8.1431569    760.18804  0.014783898  0.013592369            4 
 4286000   0.57445261   -8.1389951    760.50745  0.014786659   0.01358787            5 
 4287000   0.56883341   -8.1124593    760.53437  0.014783733  0.013583378            8 
 4288000   0.56738707   -8.1299042    761.88843    0.0148066  0.013578886            4 
 4289000   0.56555888   -8.1270194    761.09772  0.014787785  0.013574391            4 
 4290000   0.57397359   -8.1249057     760.4481  0.014771719  0.013569904            4 
 4291000   0.57907376   -8.1340665    761.40558  0.014786871  0.013565414            8 
 4292000   0.57212412   -8.1479819     759.3611  0.014743731  0.013560927            3 
 4293000    0.5683264   -8.1315501    760.76719   0.01476759  0.013556444            9 
 4294000   0.55635967   -8.1232618    760.33205  0.014755707  0.013551957            6 
 4295000   0.56365627   -8.1494303     759.8575  0.014743064  0.013547473            8 
 4296000   0.55803296   -8.1169839    760.38526  0.014749869  0.013542992            5 
 4297000   0.56186141    -8.133386    760.85301  0.014755508  0.013538513            4 
 4298000   0.56068381   -8.1271332    761.38995  0.014762485  0.013534038            5 
 4299000   0.55524632    -8.129493     760.9096   0.01474974  0.013529568            5 
 4300000   0.55878988   -8.1419644    759.42473  0.014717534  0.013525098            8 
 4301000   0.56692265   -8.1439654    761.04134  0.014745434  0.013520631            8 
 4302000   0.56881765   -8.1195927    762.00638    0.0147607  0.013516167            3 
 4303000   0.56381306   -8.1416206    760.04136  0.014719214  0.013511702            5 
 4304000   0.55884438   -8.1454001    761.33026   0.01474075  0.013507241            5 
 4305000   0.57811608   -8.1225604    761.41007  0.014738871  0.013502785            4 
 4306000   0.56513431   -8.1479295    760.46662   0.01471719  0.013498331            6 
 4307000   0.56415889     -8.13947    761.26911  0.014729299   0.01349388            4 
 4308000   0.56618796   -8.1359347    761.51616  0.014730659  0.013489422            6 
 4309000   0.55766901   -8.1369801    760.76415  0.014712697  0.013484965            4 
 4310000   0.55741729   -8.1334096    760.63839  0.014706852  0.013480511            4 
 4311000   0.55762688   -8.1469846    761.81805  0.014726244  0.013476056            6 
 4312000   0.57365423   -8.1447691    759.24351  0.014673073  0.013471592            4 
 4313000   0.57001834   -8.1537229     759.6716  0.014677943  0.013467132            3 
 4314000   0.56536085   -8.1520343    761.25006  0.014705031  0.013462672            6 
 4315000   0.55793421   -8.1206204    759.45706  0.014666996  0.013458219            6 
 4316000   0.57282943   -8.1490032     759.9848  0.014673787  0.013453765            7 
 4317000   0.56105896   -8.1474568    760.90175  0.014688089  0.013449316            6 
 4318000   0.56728366   -8.1454394    760.28749  0.014672833  0.013444865            7 
 4319000   0.54889992    -8.132844    760.24435  0.014668603  0.013440419            7 
 4320000   0.55354577   -8.1537904    761.08603  0.014681443  0.013435974            4 
 4321000   0.55945582    -8.152315    759.66908  0.014650719  0.013431527            6 
 4322000   0.57236629   -8.1409132    760.80183   0.01466917  0.013427086            7 
 4323000   0.54829516    -8.150847    759.81673  0.014646787  0.013422646            7 
 4324000   0.56565099   -8.1500443    760.35756  0.014653823  0.013418205            4 
 4325000   0.56987764   -8.1523615    758.90436  0.014622435  0.013413765            7 
 4326000    0.5762938    -8.155561    758.18153   0.01460513  0.013409329            3 
 4327000    0.5666008   -8.1578486    760.37147  0.014643931  0.013404888            4 
 4328000   0.55427833   -8.1556215    759.78617  0.014629278  0.013400448            5 
 4329000   0.55751429   -8.1287605    759.50286  0.014620445  0.013396011            7 
 4330000    0.5648419   -8.1454295    759.50956  0.014617197  0.013391575            6 
 4331000   0.56102856   -8.1443701    760.10519  0.014625283  0.013387139            5 
 4332000   0.55773045   -8.1620788     759.8054   0.01461614  0.013382713            7 
 4333000   0.56044123   -8.1725395    760.03225  0.014617129  0.013378283            8 
 4334000   0.55485183   -8.1517852    758.84055  0.014590843  0.013373857            6 
 4335000   0.56654986   -8.1642449    760.04643  0.014610658  0.013369431            6 
 4336000   0.56314031   -8.1282029    761.36203  0.014632573   0.01336501            7 
 4337000    0.5660633   -8.1474277    760.45404  0.014611752  0.013360587            5 
 4338000   0.56379317   -8.1525917    760.43036  0.014607929  0.013356169            3 
 4339000   0.55410855   -8.1572268    759.68258  0.014590201  0.013351748            3 
 4340000   0.55239336   -8.1430148    760.13671  0.014595559  0.013347335            5 
 4341000    0.5509889   -8.1481979    759.83701  0.014586443   0.01334292            4 
 4342000    0.5472093   -8.1456606    758.78451  0.014562884  0.013338503            6 
 4343000   0.55221707   -8.1465205    761.50017  0.014611639  0.013334094            8 
 4344000   0.56524449   -8.1632652    760.83544  0.014595523  0.013329687            7 
 4345000   0.55544478   -8.1526342    759.97652  0.014575691  0.013325281            5 
 4346000   0.55936488   -8.1543749    759.55427  0.014564241  0.013320877            4 
 4347000   0.53872465   -8.1296518    760.65814  0.014582052  0.013316477            5 
 4348000   0.55185791    -8.167199    759.67338  0.014559824  0.013312077            3 
 4349000   0.54990195   -8.1598001    759.82922  0.014559462  0.013307678            3 
 4350000   0.55558159   -8.1721957    759.11376  0.014542409  0.013303279            3 
 4351000   0.55887588   -8.1626299    758.87567  0.014534507  0.013298882            7 
 4352000   0.56780413    -8.157604    759.58175  0.014544687  0.013294476            7 
 4353000   0.55952468   -8.1673339    759.79896  0.014545504  0.013290077            8 
 4354000   0.56785657   -8.1554238    759.48849  0.014536221  0.013285677            7 
 4355000   0.55264369   -8.1451145    759.88845  0.014540537  0.013281283            8 
 4356000   0.55023073   -8.1730352    760.53837  0.014549632  0.013276891            4 
 4357000   0.56251224   -8.1612693    759.46549  0.014525773  0.013272502            5 
 4358000   0.55183118   -8.1544591    759.81548  0.014529132  0.013268117            9 
 4359000   0.55359263   -8.1725795    759.84696  0.014526401  0.013263735            4 
 4360000   0.55526829   -8.1571966    759.14316  0.014509617  0.013259353            9 
 4361000   0.55878837   -8.1474821    760.35541  0.014529454  0.013254973           23 
 4362000   0.54231173   -8.1639026    759.83869  0.014516252    0.0132506           10 
 4363000    0.5538173   -8.1678494    761.29589  0.014540757  0.013246222           11 
 4364000   0.56200872   -8.1493703     760.3913  0.014520152  0.013241845            4 
 4365000   0.54869236   -8.1721702    759.31164  0.014496213  0.013237472            5 
 4366000   0.55199051   -8.1555582    759.99326  0.014505903  0.013233092            8 
 4367000   0.55678185   -8.1725682    758.30522  0.014470369   0.01322872           10 
 4368000     0.554291   -8.1783934    760.81765  0.014514989  0.013224349            5 
 4369000   0.55619163   -8.1740439    758.58474  0.014469077  0.013219978            5 
 4370000   0.56113763   -8.1634167    758.84591  0.014470746  0.013215608            7 
 4371000   0.56587624   -8.1624939    760.47421  0.014498479  0.013211242           11 
 4372000   0.55332199   -8.1517268    760.32622  0.014492342  0.013206879            6 
 4373000   0.54286159   -8.1545928    760.18492  0.014486335  0.013202517           13 
 4374000   0.56486351   -8.1713454    760.57854  0.014490522  0.013198155           11 
 4375000   0.53826753   -8.1700921    759.15372  0.014460071  0.013193796           14 
 4376000     0.551477   -8.1758319    759.69767  0.014467125  0.013189433           10 
 4377000    0.5544002   -8.1749058    759.14521  0.014453302  0.013185073            8 
 4378000   0.55895559   -8.1633087    760.07584  0.014467714  0.013180715            9 
 4379000   0.54778051   -8.1605219    760.25744  0.014467866  0.013176358            8 
 4380000   0.56782721   -8.1799241    759.51725   0.01445048  0.013172001            4 
 4381000   0.54957544   -8.1630724    759.32423   0.01444351  0.013167648            9 
 4382000   0.54648649   -8.1616536    759.30891  0.014439923  0.013163298            6 
 4383000   0.54961335   -8.1602128    760.37593  0.014456916  0.013158946            9 
 4384000   0.54917391   -8.1714664    758.87196   0.01442503  0.013154597            6 
 4385000   0.55198315   -8.1405335    758.72784  0.014419001  0.013150253           13 
 4386000   0.54801918   -8.1886865    759.38148  0.014428133  0.013145906            6 
 4387000   0.53882822   -8.1751047    759.16504  0.014420732   0.01314156            5 
 4388000     0.554328   -8.1785229    760.95245  0.014451391  0.013137225            4 
 4389000   0.55788238   -8.1637046    760.19018  0.014433625  0.013132887            5 
 4390000   0.55970549   -8.1855466    759.36335  0.014414642   0.01312855            6 
 4391000   0.54116058   -8.1733173    759.14501  0.014407216  0.013124211           11 
 4392000   0.53989776   -8.1740299    760.12759  0.014422579   0.01311988            5 
 4393000   0.55658994   -8.1848596    759.52637  0.014407891  0.013115551            5 
 4394000   0.54166996   -8.1572493    758.89231  0.014392587  0.013111217            6 
 4395000   0.54663302   -8.1539585    759.68519  0.014404346  0.013106887            5 
 4396000   0.55694312   -8.1780744    759.46087  0.014396817  0.013102552            8 
 4397000   0.54503037   -8.2020735    758.30401  0.014371617  0.013098221            8 
 4398000   0.55971212   -8.1691431    759.41555  0.014389411  0.013093891            9 
 4399000   0.54962737   -8.1698883    758.70795  0.014372735  0.013089567            8 
 4400000   0.54757912   -8.1706713    759.67271  0.014387741  0.013085243           14 
 4401000   0.54735791   -8.1596466    759.24996  0.014376467  0.013080923            5 
 4402000   0.53415323   -8.1703228    760.68502  0.014400368  0.013076604            6 
 4403000   0.55203043    -8.157983    758.38247  0.014353518  0.013072284            7 
 4404000    0.5458028   -8.1667005    759.36732  0.014368894  0.013067968            6 
 4405000   0.55541899    -8.172279     757.6488  0.014333121  0.013063652            3 
 4406000   0.54508259   -8.1781816    760.14669  0.014377113  0.013059337            8 
 4407000    0.5385087   -8.1497198     760.5992  0.014382407   0.01305503            6 
 4408000   0.54753003   -8.1637274    760.22828  0.014372132  0.013050729            6 
 4409000   0.54376251   -8.1742852     759.3915  0.014353056  0.013046422            5 
 4410000   0.54773052   -8.1674857    760.02401  0.014361754   0.01304211            7 
 4411000   0.54032008   -8.1754247    760.47175  0.014366957  0.013037807            2 
 4412000    0.5495951   -8.1849051    759.80282  0.014351066  0.013033511            5 
 4413000   0.53844646     -8.17615    758.52472  0.014323679  0.013029216            5 
 4414000   0.54934494   -8.1656781    759.45991  0.014338089  0.013024915            7 
 4415000   0.55786084   -8.1696197    759.36195  0.014332993  0.013020621            8 
 4416000   0.55712058    -8.177339     757.9518  0.014303136  0.013016321            5 
 4417000    0.5450013   -8.1745417    759.06742  0.014320946  0.013012031            6 
 4418000   0.54363069   -8.1867581    759.38441  0.014323684  0.013007742            7 
 4419000    0.5431617    -8.164606    758.87862  0.014310904  0.013003451           10 
 4420000   0.54090174   -8.1902113    758.86952  0.014307495  0.012999161            4 
 4421000   0.55809053   -8.1816564    759.66037  0.014319165  0.012994873            9 
 4422000   0.55250715   -8.1611576    758.59897  0.014295925   0.01299058           10 
 4423000   0.55002635   -8.1676866    759.87926  0.014316815  0.012986288            6 
 4424000   0.53340859   -8.1931098    759.25763  0.014301869  0.012982004           14 
 4425000   0.54875555   -8.1871787    759.35838  0.014300534  0.012977717            6 
 4426000   0.55659331   -8.1930699    760.95682  0.014327399  0.012973433            8 
 4427000   0.54677634   -8.1938747    758.98294  0.014287007  0.012969151            7 
 4428000   0.55095782   -8.1655604    760.10285  0.014304856   0.01296487            8 
 4429000   0.55413973   -8.1886019    758.78531  0.014276837  0.012960594            5 
 4430000   0.53797681   -8.1904863    759.53996   0.01428781  0.012956318            7 
 4431000   0.52184676   -8.1796169    758.76344  0.014269981  0.012952042            9 
 4432000    0.5249259   -8.1810486     758.2475   0.01425706   0.01294777            8 
 4433000   0.55296673   -8.1870607    758.63761  0.014261178    0.0129435            4 
 4434000     0.543388   -8.1999511    760.11702  0.014285766  0.012939227            5 
 4435000   0.55134646   -8.1772661     758.9342  0.014260319  0.012934956            4 
 4436000   0.55433947    -8.182705    760.25843  0.014281981  0.012930686            7 
 4437000   0.54775409   -8.1966427    759.13096  0.014257587  0.012926422            7 
 4438000   0.53978599   -8.1662031     758.8298  0.014248719  0.012922158           14 
 4439000   0.53250358   -8.1836239    758.43346  0.014238069  0.012917895            8 
 4440000   0.54285238   -8.2077606    758.83204  0.014242343  0.012913631           10 
 4441000   0.53613592    -8.185838    758.15698  0.014226469  0.012909367            7 
 4442000   0.53896567   -8.2005693    758.64147  0.014232355  0.012905107            9 
 4443000   0.53031378   -8.1937361    759.26495  0.014240846  0.012900851            8 
 4444000   0.54157835   -8.1946096    757.74236   0.01420909  0.012896591            7 
 4445000   0.52862689   -8.1883187     758.5066  0.014220221  0.012892333            7 
 4446000   0.54196124   -8.1833503     759.5605  0.014236777  0.012888075            4 
 4447000    0.5435915     -8.17189    758.82369  0.014219768  0.012883823            9 
 4448000    0.5425083   -8.1839771    759.00633  0.014219993  0.012879575           10 
 4449000   0.53590342   -8.1843516    759.03845  0.014217398   0.01287533            5 
 4450000   0.54450596   -8.1965507     758.8857  0.014211343  0.012871079            5 
 4451000   0.53178036   -8.1876226    757.98762  0.014191336  0.012866831           10 
 4452000   0.52984755   -8.2057547    759.18913  0.014210638  0.012862587            4 
 4453000   0.53217117   -8.2012397    758.04981  0.014186126   0.01285834            4 
 4454000   0.53448473   -8.1792282    758.53541  0.014192026  0.012854098           12 
 4455000   0.53767445   -8.1921666    758.28601  0.014184175  0.012849857            5 
 4456000   0.53349803   -8.1782656     759.8579  0.014210389  0.012845616           10 
 4457000   0.54491882   -8.1975469    757.28007  0.014159002  0.012841381           14 
 4458000   0.53607663   -8.1964161     757.8228  0.014165971  0.012837144            6 
 4459000   0.54347905   -8.1909881    759.69516  0.014197786  0.012832909            7 
 4460000   0.53417477   -8.1941709    759.18674  0.014185103  0.012828675            6 
 4461000   0.53193717   -8.2029236    758.65621  0.014172013  0.012824443            7 
 4462000   0.53942909   -8.2136257    759.48932  0.014184396   0.01282021            8 
 4463000   0.53345542   -8.1857269    757.81555  0.014149966   0.01281598            7 
 4464000   0.54094185   -8.1829137    758.53228  0.014160175  0.012811748            7 
 4465000    0.5397146   -8.1963019    758.51199  0.014156625  0.012807524            6 
 4466000   0.53811739   -8.1931557    758.02104  0.014144295  0.012803301            5 
 4467000   0.52400858   -8.1883019    757.34935  0.014128598  0.012799079            8 
 4468000   0.53242857   -8.2081123    758.84528  0.014153336  0.012794856            7 
 4469000   0.52691907   -8.2298525    758.93306  0.014151806  0.012790635            7 
 4470000   0.53566109   -8.1928424    759.15784  0.014152831  0.012786418            9 
 4471000    0.5383477   -8.1857635    758.30937  0.014133851    0.0127822            9 
 4472000   0.54298395   -8.1869544    759.64798  0.014155635  0.012777985           14 
 4473000   0.53406173   -8.1910697    758.87225  0.014138018  0.012773776            5 
 4474000   0.53785585   -8.1971295    758.01454  0.014118882  0.012769572            9 
 4475000   0.53708818   -8.2009872    759.38219  0.014141195   0.01276536            8 
 4476000   0.53481242   -8.1979702    757.21365  0.014097663  0.012761157           11 
 4477000   0.54127468   -8.1779699    758.71171  0.014122398  0.012756958           10 
 4478000   0.53374972   -8.2151543    758.45134  0.014114399  0.012752757           11 
 4479000   0.54456055   -8.1891602    758.75041  0.014116812  0.012748555            4 
 4480000    0.5269965   -8.1979281    758.18972  0.014103231  0.012744358            8 
 4481000   0.53935546   -8.2034525    759.27843  0.014120331   0.01274016            5 
 4482000   0.52841724   -8.2052126    759.74187  0.014125797  0.012735962            7 
 4483000   0.53876255   -8.1902644    758.76144  0.014104421  0.012731764            7 
 4484000   0.53971543   -8.2071721    758.70462   0.01410022   0.01272757            6 
 4485000   0.54143403   -8.1892895    759.98297  0.014120828  0.012723382            6 
 4486000   0.53434764   -8.1975612       758.59  0.014091804  0.012719194            4 
 4487000   0.52915194   -8.1870668    759.71952  0.014109641  0.012715008            4 
 4488000   0.53716091   -8.2060383    759.23963  0.014097587  0.012710826            3 
 4489000   0.52780015   -8.1863011    757.26015  0.014057699  0.012706643            4 
 4490000   0.54186546   -8.1900678    759.19821  0.014090538  0.012702461            7 
 4491000   0.52232046   -8.2013542    758.54889  0.014075352  0.012698281            5 
 4492000   0.52875558    -8.213778    758.08158   0.01406355  0.012694097            4 
 4493000   0.51858541   -8.1885046    758.88151  0.014075256  0.012689924            5 
 4494000   0.54408151   -8.1851318    756.95618  0.014036422   0.01268575            6 
 4495000   0.53319346   -8.1940259    758.83485  0.014068128  0.012681572            4 
 4496000   0.53904943   -8.1896834    759.26992  0.014073064  0.012677404            4 
 4497000   0.53533981   -8.2061787    757.58333   0.01403868  0.012673235            5 
 4498000   0.53293616   -8.1915035    757.90192  0.014041461  0.012669063            5 
 4499000   0.54675409   -8.1978628    758.24676  0.014044728  0.012664898            3 
 4500000   0.53295443   -8.2025364    758.77181   0.01405133  0.012660732            7 
 4501000    0.5390976   -8.2003923    757.18981  0.014018918  0.012656565            4 
 4502000   0.52458782     -8.20524    757.91404   0.01402921  0.012652401            6 
 4503000    0.5291346   -8.1968505    758.78086  0.014042136  0.012648239            7 
 4504000   0.53058654     -8.20876    757.80723  0.014021004  0.012644077            3 
 4505000   0.52740215   -8.1940273    757.24678  0.014007525  0.012639915            4 
 4506000   0.52246184   -8.2031293    758.13135  0.014020775   0.01263576            4 
 4507000   0.53146624   -8.1984958      758.916  0.014032172  0.012631602            4 
 4508000   0.52209744   -8.1968795    757.87111  0.014009744  0.012627444            7 
 4509000   0.52078671   -8.1994424     758.9823  0.014027174  0.012623286            6 
 4510000   0.52020921   -8.1976723    758.16288  0.014008922  0.012619127            6 
 4511000   0.51348449   -8.2058607    758.26016  0.014007614  0.012614973            6 
 4512000   0.54266931   -8.2051973    758.35493   0.01400626  0.012610819            4 
 4513000   0.53374818   -8.2148564    759.76469  0.014029188  0.012606668            7 
 4514000   0.53239896   -8.1920895    758.20889  0.013997358  0.012602522            7 
 4515000    0.5282522   -8.2283632    757.67024  0.013984316  0.012598374            6 
 4516000   0.53179534   -8.2109615    757.52026  0.013978452  0.012594228            7 
 4517000   0.53088358   -8.2151935    758.59272  0.013995143  0.012590085            5 
 4518000   0.53038607   -8.2165182    756.64914  0.013956196  0.012585939            7 
 4519000   0.53904368   -8.2100968    758.48596   0.01398698  0.012581798            6 
 4520000   0.52632997   -8.2086049    757.36347  0.013963191  0.012577662            7 
 4521000   0.52589928   -8.2081983     757.8538   0.01396914  0.012573524            5 
 4522000   0.53157571    -8.201884    758.45526  0.013977135  0.012569385            5 
 4523000   0.53466314   -8.2129247    757.16887  0.013950344  0.012565249            5 
 4524000   0.53450083   -8.2259245    757.70573   0.01395715  0.012561113            4 
 4525000   0.52172655   -8.2282781    759.21194  0.013981804  0.012556977            3 
 4526000   0.53688079   -8.2002624    758.86075  0.013972248  0.012552845            5 
 4527000    0.5348317    -8.222203    758.17967  0.013956625  0.012548719            7 
 4528000    0.5280148   -8.2092096    758.86286  0.013966116  0.012544588            6 
 4529000   0.52226344   -8.2185311    757.82987  0.013944025  0.012540461            5 
 4530000   0.54196469   -8.2180969    757.67655  0.013938126  0.012536339            3 
 4531000   0.52908052   -8.2089143    757.10837    0.0139246  0.012532218            4 
 4532000    0.5182074   -8.2244203    758.05533   0.01393894  0.012528093            3 
 4533000   0.52062462   -8.1920239    756.13582  0.013900578  0.012523976            3 
 4534000   0.53267996   -8.2177842    758.48843  0.013940752  0.012519856            3 
 4535000   0.54091608   -8.2205142    757.20763  0.013914142   0.01251574            4 
 4536000   0.52664569   -8.2241243    758.76256  0.013939641  0.012511626            5 
 4537000   0.52126644   -8.2302671    758.26685  0.013927464  0.012507508            3 
 4538000   0.52427139   -8.2152023     758.1908  0.013922998  0.012503394            3 
 4539000   0.52552786   -8.2054059    758.25464  0.013921103  0.012499282            5 
 4540000   0.51649538   -8.2047651    756.89335   0.01389305  0.012495176            2 
 4541000   0.52307354   -8.2127536     756.9741  0.013891472  0.012491069            4 
 4542000   0.51128796   -8.2070326    758.13836  0.013909775  0.012486963            4 
 4543000   0.51733388    -8.199809    759.21067  0.013926383  0.012482858            3 
 4544000   0.51460163   -8.1944294    757.78136  0.013897105  0.012478756            6 
 4545000   0.51696064   -8.2149533    757.47131  0.013888363  0.012474653            3 
 4546000   0.52381405    -8.215513    758.57855  0.013905605  0.012470554            6 
 4547000   0.52947301     -8.21337    758.69066  0.013904601  0.012466458            5 
 4548000   0.53256551   -8.2213775    757.93423  0.013887684  0.012462363            7 
 4549000   0.52038338   -8.2198644    757.94749  0.013884874  0.012458265            3 
 4550000   0.52844867   -8.2133391    757.77852  0.013878727  0.012454171            5 
 4551000    0.5152018    -8.230429    758.25825  0.013884462  0.012450078            4 
 4552000   0.52254175   -8.2208033    756.62166  0.013851451  0.012445985            3 
 4553000   0.51335796   -8.2119223    758.74811  0.013887329  0.012441895            4 
 4554000   0.52694323   -8.2408891    756.23545  0.013838301  0.012437809            9 
 4555000   0.52160875   -8.2021094    758.56146  0.013877817  0.012433723           14 
 4556000   0.52519637   -8.2211202    758.33385  0.013870607   0.01242964            5 
 4557000   0.52096388   -8.1909568    757.43437  0.013851115  0.012425563            4 
 4558000   0.52343717   -8.2003221    757.78887  0.013854557  0.012421485            4 
 4559000   0.51792029   -8.2294064    757.91123  0.013853755   0.01241741            5 
 4560000   0.52743817   -8.2306293    757.07607  0.013835455  0.012413335            5 
 4561000   0.53646208   -8.2198961     758.9949   0.01386748   0.01240926            3 
 4562000   0.51878878   -8.2106024    757.59969  0.013838954  0.012405186            3 
 4563000   0.51782496   -8.2142752    757.06797   0.01382621  0.012401117            4 
 4564000    0.5250094    -8.231538    757.39229  0.013829103  0.012397047            5 
 4565000    0.5293265   -8.2321373    758.31552  0.013842927  0.012392977            4 
 4566000   0.53524619   -8.2215666    757.06842  0.013817134  0.012388913            8 
 4567000   0.52425552   -8.2167316    758.73315  0.013844485  0.012384857            5 
 4568000   0.52428811   -8.2322985    758.54792  0.013838075  0.012380805            8 
 4569000   0.51565081   -8.2129145    758.13852  0.013827579  0.012376752            7 
 4570000   0.51088542   -8.2031026    758.89537  0.013838355  0.012372693            7 
 4571000   0.52918922   -8.2133739    758.04426  0.013819811   0.01236864            7 
 4572000   0.51483632   -8.2179281    758.22199  0.013820028  0.012364586            8 
 4573000   0.53279548   -8.2052779    757.02528  0.013795198  0.012360536            9 
 4574000   0.52329577   -8.2216315    758.24682  0.013814437  0.012356489            3 
 4575000   0.51814968    -8.228369    757.00226  0.013788748  0.012352443            4 
 4576000   0.52064584   -8.2179986    756.67153  0.013779712  0.012348396            4 
 4577000   0.52024521   -8.2191374    757.62854  0.013794125  0.012344353            3 
 4578000    0.5328139   -8.2273195     758.5217   0.01380737  0.012340314            4 
 4579000   0.52125094   -8.2306881    757.72417  0.013789841  0.012336276            5 
 4580000   0.51734126   -8.2060223     757.9385   0.01379073  0.012332238            3 
 4581000     0.506653   -8.2101772     758.2731  0.013793806  0.012328201            4 
 4582000   0.53015171   -8.2272715    757.95467  0.013785004  0.012324163            5 
 4583000   0.51976698    -8.216962    756.97257  0.013764139   0.01232013            7 
 4584000   0.52390166   -8.2273324    756.49412  0.013752438  0.012316096            4 
 4585000   0.51719893   -8.2306552    757.80644   0.01377329  0.012312059            4 
 4586000   0.51355428   -8.2300478    757.49945  0.013764709  0.012308022            4 
 4587000   0.51361956   -8.2171381    756.88615  0.013750566  0.012303986            8 
 4588000   0.51925114   -8.2255638    756.85693  0.013747038  0.012299957            3 
 4589000   0.52882194   -8.2260965    757.24969  0.013751175  0.012295926            3 
 4590000   0.50993928   -8.2217617    757.18287  0.013746966    0.0122919            4 
 4591000   0.51977087   -8.2372608     757.2489   0.01374517  0.012287872            6 
 4592000   0.52120361   -8.2235243    756.48498  0.013728313   0.01228385            5 
 4593000   0.52781437   -8.2342264    757.85664  0.013750211  0.012279828            4 
 4594000   0.51599663   -8.2158605    758.67512  0.013762065  0.012275806            5 
 4595000   0.52184268   -8.2239132    757.79474  0.013743104   0.01227179            3 
 4596000    0.5153144   -8.2329599    757.04975  0.013726605   0.01226777            5 
 4597000    0.5164891   -8.2180439    755.66528  0.013698522  0.012263754            5 
 4598000   0.51519679   -8.2376667    757.15001  0.013722452  0.012259736            5 
 4599000   0.51794002   -8.2099609    756.62336  0.013709925  0.012255722            2 
 4600000    0.5114988   -8.2261667    758.04101  0.013732627  0.012251709            3 
 4601000   0.51869117   -8.2047931    756.55958  0.013702811  0.012247697            3 
 4602000   0.51311475   -8.2126582    757.53549  0.013717505  0.012243687            3 
 4603000   0.51708775   -8.2130941    757.52741  0.013714379  0.012239676            2 
 4604000   0.52729313    -8.234994    757.76771  0.013715749  0.012235667            5 
 4605000   0.51750151     -8.22437    756.57442  0.013691177  0.012231663            3 
 4606000   0.51935689   -8.2347101    756.33085  0.013683797  0.012227657            7 
 4607000   0.51494085   -8.2284068    759.30282  0.013734585  0.012223649            4 
 4608000   0.51712572   -8.2319489    757.88755   0.01370601  0.012219645            4 
 4609000   0.50908413   -8.2270117    756.55807  0.013678999  0.012215639            4 
 4610000    0.5068604   -8.2319229    756.48211  0.013674658  0.012211636            3 
 4611000   0.51511506   -8.2216437    757.33243  0.013687061  0.012207637            3 
 4612000   0.52320947   -8.2379466    757.44711  0.013686165  0.012203639            3 
 4613000   0.51724676   -8.2221779    756.82201  0.013671906  0.012199638            4 
 4614000   0.50698372   -8.2345202     757.3046  0.013677659  0.012195639            3 
 4615000   0.50705989   -8.2206727    757.46555  0.013677601  0.012191644            6 
 4616000   0.49691195   -8.2441213    757.00854  0.013666387  0.012187647            6 
 4617000   0.51714736   -8.2224068    757.89414  0.013679412  0.012183657            3 
 4618000    0.5172069   -8.2198013    756.51937  0.013651642  0.012179664            5 
 4619000   0.51100767   -8.2239808    756.80634  0.013653863  0.012175676            4 
 4620000   0.50626565   -8.2245159    757.21357  0.013658253  0.012171695            3 
 4621000   0.51754287   -8.2394656     756.1589  0.013636278   0.01216771            3 
 4622000   0.51291851   -8.2328551    757.91101  0.013664918  0.012163726            4 
 4623000   0.52493759    -8.247879     756.5539  0.013637499  0.012159742            3 
 4624000   0.50612372   -8.2247152    756.43395  0.013632388  0.012155757            5 
 4625000   0.51630657   -8.2206982    757.08976  0.013641257  0.012151775            5 
 4626000   0.51599264    -8.235914    757.47843   0.01364531  0.012147801            3 
 4627000    0.5037263    -8.236187    755.79137  0.013611976  0.012143826            4 
 4628000   0.51281132   -8.2304949    757.16257  0.013633725   0.01213985            7 
 4629000   0.49640802   -8.2383817    756.14117  0.013612392  0.012135874            6 
 4630000   0.51608994   -8.2352715    756.34527  0.013613126  0.012131908            7 
 4631000   0.51551741   -8.2446063    756.58365  0.013614476  0.012127936            6 
 4632000    0.5144827   -8.2537209    756.28555  0.013606173  0.012123972            4 
 4633000   0.50575237    -8.238827    755.43662  0.013587967  0.012120009            5 
 4634000   0.52419422   -8.2494003    756.94469  0.013612154  0.012116047            5 
 4635000   0.51745957   -8.2276775    755.90495  0.013590524  0.012112082            5 
 4636000   0.50675099    -8.241327    755.43637   0.01357917  0.012108121            5 
 4637000   0.51901777   -8.2354104    757.47778  0.013612928  0.012104163            9 
 4638000   0.50758432   -8.2536521    758.14402  0.013621964  0.012100204            3 
 4639000    0.5061228   -8.2427163    757.14983  0.013601168   0.01209625            3 
 4640000   0.51016254   -8.2348671    756.99919  0.013595531  0.012092297            4 
 4641000   0.51052328   -8.2436463    756.82546  0.013589483  0.012088347            3 
 4642000   0.50601688   -8.2479533    756.81272  0.013586326  0.012084398            6 
 4643000   0.51457992   -8.2395907    755.75645  0.013564442  0.012080454            5 
 4644000   0.50703382   -8.2429019    756.44309  0.013573842  0.012076508            3 
 4645000   0.51065191   -8.2357091    756.90293   0.01357917  0.012072562            5 
 4646000   0.51449893   -8.2396968    756.75489  0.013573592  0.012068614            4 
 4647000    0.5072199   -8.2527848     757.6393  0.013586531  0.012064668            4 
 4648000   0.51250738   -8.2471356    757.68371  0.013584404  0.012060728            2 
 4649000   0.50980491   -8.2618415    757.98301  0.013586847  0.012056787            4 
 4650000   0.51186199   -8.2469674     757.0534  0.013567265  0.012052853            4 
 4651000   0.50694875   -8.2466943    758.05602  0.013582312  0.012048917            6 
 4652000   0.49465547   -8.2502214    756.57275  0.013552822  0.012044984            4 
 4653000   0.51134634   -8.2483592    758.18632  0.013578808  0.012041053            5 
 4654000   0.50266763   -8.2587427    755.76376  0.013532513  0.012037118            5 
 4655000   0.50187349   -8.2439545    756.55779   0.01354382  0.012033189            4 
 4656000   0.51297815   -8.2501017    757.98187    0.0135664  0.012029264            3 
 4657000   0.50196605    -8.237858    757.67041  0.013557913   0.01202534            8 
 4658000   0.51309506   -8.2370589    757.39967  0.013550159  0.012021416            8 
 4659000   0.50849163   -8.2427226    756.35939  0.013528643  0.012017498            5 
 4660000   0.50668264   -8.2531993     757.0238  0.013537622  0.012013576            6 
 4661000   0.50160072   -8.2349969    756.95373  0.013533464  0.012009659            4 
 4662000    0.5126177   -8.2378172     757.4391  0.013539238  0.012005738            5 
 4663000   0.49813813   -8.2514401    756.83622   0.01352556  0.012001822            4 
 4664000   0.50765992   -8.2391063    755.53812  0.013499466  0.011997907            5 
 4665000   0.51018131   -8.2561073    755.82358  0.013501672  0.011993987            4 
 4666000   0.50887456   -8.2495379    756.95825  0.013519043  0.011990071            4 
 4667000   0.51343053   -8.2644149    756.01174  0.013499245  0.011986157            4 
 4668000   0.50016842   -8.2329159    755.71174  0.013490998  0.011982245            6 
 4669000   0.50495054    -8.242125    756.55541  0.013503167  0.011978334            4 
 4670000    0.5046995   -8.2322674    757.63571  0.013519552  0.011974428            3 
 4671000    0.5091183   -8.2516949    756.44725  0.013495455  0.011970521            7 
 4672000   0.50235198   -8.2453853    756.94473   0.01350144   0.01196662            5 
 4673000   0.51342262   -8.2380377    756.88951  0.013497566  0.011962717            5 
 4674000    0.5091719   -8.2422277    756.06499  0.013479978  0.011958812            4 
 4675000    0.5037683   -8.2426688    756.98109  0.013493424  0.011954912            5 
 4676000   0.51261793   -8.2315017    755.65939  0.013466984  0.011951013            4 
 4677000   0.51020901   -8.2400155    756.26334  0.013474865  0.011947115            4 
 4678000    0.5096837   -8.2485413    755.20254  0.013453088  0.011943217            6 
 4679000   0.50678354    -8.229072    756.50263  0.013473367  0.011939323            4 
 4680000   0.49906877   -8.2541458    756.29935  0.013466869  0.011935427            4 
 4681000   0.50836647   -8.2349751    755.88944  0.013456695  0.011931535            5 
 4682000   0.50954061     -8.25473    757.20904  0.013477307  0.011927643            5 
 4683000   0.49982276   -8.2409138    756.47423  0.013461354  0.011923752            5 
 4684000   0.49041073   -8.2504911    756.99664  0.013467774  0.011919863            5 
 4685000   0.49721979   -8.2566707    755.70799  0.013441978  0.011915975            3 
 4686000   0.51310647   -8.2520686    757.12455  0.013464301  0.011912092            3 
 4687000   0.50633404   -8.2681082    757.05472  0.013460186  0.011908212            5 
 4688000   0.49789485   -8.2601278    757.35266  0.013462611  0.011904331            4 
 4689000   0.50859984   -8.2615305    756.13034  0.013438017  0.011900449            4 
 4690000   0.50056714   -8.2408354    756.40603   0.01344005  0.011896572            3 
 4691000   0.50802968   -8.2494735    755.47907  0.013420718  0.011892696            4 
 4692000   0.50765718   -8.2661689    757.31499  0.013450465   0.01188882            4 
 4693000   0.49177604   -8.2585038    755.82601  0.013421159  0.011884943            4 
 4694000   0.50862185   -8.2840619    756.73988  0.013434524  0.011881068            3 
 4695000   0.49639935    -8.255606    755.23482  0.013404949  0.011877197            4 
 4696000   0.50308143   -8.2592552    756.53425  0.013425153  0.011873327            4 
 4697000   0.51176246   -8.2607167    756.92769  0.013429276  0.011869459            8 
 4698000   0.49693007   -8.2508195    757.55498  0.013437544  0.011865591            4 
 4699000    0.5000393   -8.2444817    755.20732   0.01339305  0.011861728            6 
 4700000   0.51263284   -8.2350127    756.35412  0.013410534  0.011857861            5 
 4701000   0.49089301   -8.2703942    757.42693  0.013426699     0.011854            5 
 4702000   0.50818798   -8.2501883    756.50503  0.013407504  0.011850141            5 
 4703000   0.49427741   -8.2378928    756.89084   0.01341149  0.011846282            5 
 4704000    0.4966527   -8.2562131    755.92614  0.013391549  0.011842425            5 
 4705000   0.48936063   -8.2716968    756.71675  0.013402705   0.01183857            5 
 4706000   0.51037796   -8.2529283    756.05291  0.013388102  0.011834716            7 
 4707000   0.49966889   -8.2575088     756.1079  0.013386231  0.011830862            6 
 4708000   0.49833448   -8.2560836    755.85901  0.013378983  0.011827006            4 
 4709000   0.49543191   -8.2667202    755.64812   0.01337241  0.011823152            4 
 4710000   0.50195543   -8.2566433    756.22728  0.013379817  0.011819307            6 
 4711000   0.50589969   -8.2657479     755.3614  0.013361661  0.011815458            5 
 4712000   0.49407009   -8.2556466     756.6978   0.01338246   0.01181161            5 
 4713000   0.50554093   -8.2581245     755.6185  0.013360536  0.011807764            8 
 4714000    0.4941508    -8.262503    757.34016  0.013388137  0.011803922            4 
 4715000   0.48958975   -8.2540975     755.7384  0.013356988  0.011800081            3 
 4716000    0.4976286   -8.2512582    755.71076  0.013353668  0.011796246            6 
 4717000   0.49191145    -8.261153      755.493   0.01334699  0.011792409            4 
 4718000   0.50144276   -8.2546142    755.14741  0.013338057  0.011788575            9 
 4719000   0.49952732   -8.2394169    756.80025  0.013364418  0.011784742            6 
 4720000   0.49540363   -8.2581413    755.50292  0.013338682  0.011780908            4 
 4721000   0.49487806   -8.2643097    756.19554  0.013348082   0.01177708            4 
 4722000   0.50247638   -8.2669299    756.58437  0.013352117  0.011773254            3 
 4723000   0.50550994     -8.25248    757.50057  0.013365456  0.011769425            3 
 4724000   0.48675876   -8.2605164    755.68736  0.013330641  0.011765599            5 
 4725000   0.49333177   -8.2585323    755.61862  0.013326607  0.011761781            4 
 4726000    0.4913754   -8.2412793    755.31462  0.013318427  0.011757958            5 
 4727000   0.49392022   -8.2713545    755.95838  0.013326958  0.011754135            5 
 4728000   0.49876247   -8.2486907    756.56225  0.013334783  0.011750314            5 
 4729000    0.4828813   -8.2496809     756.5774   0.01333223  0.011746498            8 
 4730000   0.49417735   -8.2441152    755.79937  0.013315704   0.01174268            7 
 4731000   0.49482053     -8.27119    756.71964    0.0133291  0.011738865            5 
 4732000    0.4936927   -8.2547444    756.69038  0.013325767  0.011735051            4 
 4733000   0.49400594   -8.2497543     756.0684  0.013312001  0.011731239            7 
 4734000   0.49850485   -8.2605275    756.83035  0.013322602   0.01172743            4 
 4735000   0.51234198   -8.2693013    755.66967  0.013299361   0.01172362            3 
 4736000   0.48762657   -8.2522139    755.59969  0.013295321  0.011719813            3 
 4737000   0.50024536   -8.2437267    756.03519  0.013300176  0.011716005            5 
 4738000   0.49819089   -8.2640377    756.83001  0.013311348    0.0117122            4 
 4739000   0.49163321   -8.2702541    756.03656  0.013294587  0.011708397            7 
 4740000   0.49564917   -8.2839886    756.63101  0.013302233  0.011704597            4 
 4741000   0.49396734   -8.2701799    755.95641   0.01328757  0.011700798            3 
 4742000   0.48360777   -8.2548585    755.84908  0.013282881  0.011697001            7 
 4743000   0.48724171   -8.2672128    754.50418  0.013256451  0.011693203            5 
 4744000   0.49436992   -8.2579248    756.82037  0.013294343  0.011689408            4 
 4745000   0.49223323   -8.2684726    755.96312  0.013276486  0.011685614            5 
 4746000   0.48091751   -8.2614212    756.60135  0.013284895  0.011681826            5 
 4747000   0.47719168   -8.2670312    756.51411  0.013280565  0.011678037            3 
 4748000   0.49273231   -8.2715753    756.72123  0.013281403  0.011674245            5 
 4749000   0.49429575   -8.2656393    755.76244  0.013261782   0.01167046            4 
 4750000   0.48111375   -8.2666537    755.92373   0.01326182  0.011666673            5 
 4751000    0.4850131   -8.2616414     755.5849  0.013253085  0.011662888            5 
 4752000   0.49822329   -8.2634261    755.94528  0.013256616  0.011659103            4 
 4753000   0.49660335   -8.2639221    756.72504  0.013267498  0.011655321            6 
 4754000   0.49497964   -8.2549005    755.44627  0.013242292  0.011651545            3 
 4755000   0.48982234   -8.2611843    755.77403  0.013245251  0.011647766            3 
 4756000   0.48830022   -8.2623714    756.05224  0.013247341  0.011643993            6 
 4757000   0.50295064   -8.2762601    755.75164   0.01323929  0.011640218            3 
 4758000   0.49348172   -8.2595687    755.69906  0.013235587  0.011636443            3 
 4759000   0.48814876   -8.2670981    756.87019  0.013253313  0.011632669            6 
 4760000   0.48435206   -8.2635506    756.04714  0.013236119  0.011628898            5 
 4761000   0.47192897   -8.2724644    755.40545  0.013222108  0.011625131            5 
 4762000    0.4882546   -8.2813045    755.13623   0.01321462   0.01162136            5 
 4763000   0.48972783   -8.2718235    755.48175  0.013217891  0.011617594            4 
 4764000   0.50062099    -8.269391    756.19784  0.013227642  0.011613832            5 
 4765000   0.48178344    -8.265934    756.13493  0.013223766  0.011610072            6 
 4766000   0.49498934    -8.257048    756.22605  0.013222584  0.011606313            6 
 4767000    0.4850396   -8.2555779    756.89529   0.01323151  0.011602554            4 
 4768000   0.49252635   -8.2523914    756.19167  0.013216437  0.011598797            5 
 4769000   0.47659159   -8.2688773    757.31106  0.013233226  0.011595043            3 
 4770000   0.48700569    -8.272621    754.59757  0.013183046  0.011591281            4 
 4771000   0.48583018   -8.2541618    755.77895  0.013200918  0.011587526            6 
 4772000   0.49563365    -8.286022    755.55815  0.013194296  0.011583773            4 
 4773000   0.48644227   -8.2655033    755.77629   0.01319534  0.011580021            6 
 4774000   0.48646477   -8.2728316    755.52697  0.013188224  0.011576272            2 
 4775000   0.50195334   -8.2715608    756.85321  0.013208608  0.011572523            5 
 4776000   0.47945205   -8.2589123    754.06931  0.013157267  0.011568776            6 
 4777000   0.48955101   -8.2700788    757.04831  0.013206481  0.011565031            7 
 4778000   0.47945403   -8.2683798    754.03748  0.013151205  0.011561285            5 
 4779000   0.49489123   -8.2678679    755.83321  0.013179766  0.011557541           11 
 4780000    0.4919388   -8.2717066    755.42278  0.013169853  0.011553801            4 
 4781000   0.47969641   -8.2768492     756.4743  0.013185427  0.011550059            5 
 4782000   0.48572366   -8.2525522    756.78886  0.013188151   0.01154632            5 
 4783000   0.49144001   -8.2715711    755.87036  0.013169391  0.011542583            3 
 4784000   0.47585957   -8.2762222    755.04198  0.013152208  0.011538848            5 
 4785000   0.49946839   -8.2820353    756.21591  0.013169904  0.011535112            4 
 4786000   0.48765505   -8.2742508    754.94219  0.013144975  0.011531376            4 
 4787000   0.48563385   -8.2798937    756.77507  0.013174136  0.011527638            4 
 4788000   0.49297167   -8.2767631    755.07371  0.013141773  0.011523905            4 
 4789000   0.48812786   -8.2887495    755.75339  0.013150856  0.011520173            7 
 4790000   0.49743034   -8.2611162    756.54606  0.013161901  0.011516447            3 
 4791000   0.48434521   -8.2820314    755.43808  0.013139882  0.011512721            9 
 4792000   0.49058865   -8.2821095    755.19801  0.013132965  0.011508994            4 
 4793000   0.48838493   -8.2710333    756.20302  0.013147698  0.011505268            9 
 4794000   0.48995291    -8.274129    754.88913  0.013122117  0.011501544            5 
 4795000     0.466805   -8.2649536    755.25924  0.013125812  0.011497821            8 
 4796000   0.47843998   -8.2777415    755.89353  0.013134097  0.011494099            4 
 4797000   0.47989849    -8.276684    755.09147  0.013117425   0.01149038            6 
 4798000   0.49199893   -8.2684724     754.8475  0.013110454  0.011486661            6 
 4799000   0.47127976    -8.276973    754.91567  0.013108906  0.011482945            4 
 4800000   0.47986702   -8.2761476    754.80061  0.013104177  0.011479229            5 
 4801000   0.48794208   -8.2804361    756.16642  0.013125155  0.011475511            7 
 4802000   0.48864315    -8.282121    754.40782  0.013091903  0.011471796            6 
 4803000   0.47709584   -8.2821382    755.95976  0.013116104  0.011468083            4 
 4804000   0.48626843   -8.2955446    756.56212  0.013123822  0.011464375            3 
 4805000   0.48565405   -8.2777086    754.49352  0.013085215  0.011460666           10 
 4806000   0.48041754   -8.2939313    756.23411  0.013112674  0.011456958            5 
 4807000   0.47280474   -8.2864837    755.87836  0.013103778  0.011453249            5 
 4808000   0.48051929   -8.2668493    755.24437  0.013090065  0.011449543            8 
 4809000   0.47482629   -8.2754126    754.12181   0.01306789  0.011445842            4 
 4810000   0.48332219    -8.301519      755.107  0.013082242  0.011442137            8 
 4811000   0.48323427   -8.2600672     755.5922  0.013087927  0.011438437            4 
 4812000    0.4787727   -8.2829743    757.15218  0.013112223  0.011434738            6 
 4813000    0.4859039   -8.2900351    755.77192    0.0130856  0.011431039           13 
 4814000   0.49225531   -8.2710301    756.99615  0.013104074  0.011427347            7 
 4815000   0.47680074   -8.2701221    755.13407  0.013069125  0.011423657            3 
 4816000   0.48975541   -8.2798802    755.53172  0.013073292  0.011419966            6 
 4817000   0.48403749   -8.2784368    756.40459  0.013085679  0.011416276            6 
 4818000   0.47995449   -8.2875477    756.17788  0.013079042   0.01141259            6 
 4819000   0.48002898   -8.2748586    755.21798  0.013059728  0.011408905            6 
 4820000   0.48562975    -8.300707    755.17123  0.013056211  0.011405217            7 
 4821000   0.48981333   -8.2792297    754.87409  0.013048366  0.011401531           10 
 4822000   0.48826979    -8.291444    755.72113  0.013060299  0.011397846            8 
 4823000    0.4762223   -8.2769597    756.08062  0.013063802  0.011394165            6 
 4824000   0.48264383   -8.2766142    755.77755  0.013055859  0.011390483            7 
 4825000   0.48655299   -8.2771368    755.24067   0.01304388  0.011386806            5 
 4826000   0.47675017   -8.2817977    753.82068  0.013016658   0.01138313            4 
 4827000   0.47202506   -8.2928189    755.87956  0.013049506  0.011379453            6 
 4828000   0.49173216   -8.2736629    754.62754  0.013025192  0.011375779           10 
 4829000    0.4842269   -8.2747701    755.54926  0.013038401  0.011372108            6 
 4830000   0.47676874   -8.2849959    756.52884  0.013052603  0.011368437            6 
 4831000   0.47526262   -8.2669511    755.20625  0.013027086  0.011364765            6 
 4832000    0.4702286   -8.2935501    756.23277  0.013042094  0.011361097            7 
 4833000   0.47648032   -8.2675134    755.18886  0.013021396  0.011357431           13 
 4834000   0.47657112   -8.2906796     755.6076  0.013025921  0.011353761           10 
 4835000   0.48685259   -8.2902471     755.9765  0.013029585  0.011350096            7 
 4836000   0.47339562   -8.2913859    754.82744   0.01300709   0.01134643            3 
 4837000   0.47256225   -8.2894464    755.94022  0.013023572  0.011342767            6 
 4838000   0.47478316    -8.286571    756.07857  0.013023263  0.011339108            5 
 4839000    0.4850064   -8.2664637    754.20428  0.012988294   0.01133545            3 
 4840000   0.48721128    -8.282187    755.64993  0.013010502  0.011331791            5 
 4841000   0.47879764   -8.2827692    754.88601  0.012994664  0.011328134            6 
 4842000   0.46924322   -8.2801579    754.85428  0.012991434  0.011324478            6 
 4843000   0.47301877   -8.2761749    755.31042    0.0129966  0.011320821            5 
 4844000   0.48695367   -8.3001855    755.07256  0.012989825  0.011317168            4 
 4845000   0.46863488   -8.2704403    754.56861  0.012978476  0.011313516            4 
 4846000   0.46612769   -8.2803455    754.85216  0.012980674  0.011309863            6 
 4847000   0.47776589   -8.2853071    755.32736  0.012986166  0.011306214            7 
 4848000   0.47788261   -8.2985285    754.36391  0.012966926  0.011302566            6 
 4849000   0.48921866   -8.3033525     755.0363  0.012975808  0.011298918            5 
 4850000   0.47088708   -8.2867023    754.86626  0.012970211   0.01129527            7 
 4851000   0.47577069   -8.2811106    755.55869  0.012979432  0.011291626            8 
 4852000   0.48342406    -8.300406    755.19167  0.012970453  0.011287983            5 
 4853000   0.46955686   -8.2942132    755.33145  0.012970181  0.011284345            9 
 4854000   0.46903744    -8.287993    757.16587  0.012999002   0.01128071            6 
 4855000   0.46938309   -8.2871613    755.46927  0.012967203  0.011277072            7 
 4856000    0.4662938   -8.2857806    754.50738  0.012948026  0.011273434            8 
 4857000   0.46457231   -8.2997398    755.60267  0.012964153  0.011269799            8 
 4858000   0.48298868   -8.2975816    755.36392  0.012957388  0.011266166            3 
 4859000   0.47745181   -8.2759062    755.13941  0.012950871  0.011262536            9 
 4860000   0.46867685   -8.3046104    754.36888  0.012934995  0.011258907            5 
 4861000   0.46642331   -8.2911057    754.63715  0.012936933  0.011255279            8 
 4862000   0.48022333   -8.2937877    754.12586  0.012925508  0.011251651            5 
 4863000   0.48421349   -8.2869699     755.0968  0.012939489  0.011248025            5 
 4864000   0.47313904   -8.2958238    756.01705  0.012952595    0.0112444            6 
 4865000   0.46482236   -8.3012361    754.20994  0.012918978  0.011240777            8 
 4866000   0.46911102   -8.2900328    755.34893  0.012935829  0.011237156            4 
 4867000   0.47110158   -8.2998509    756.10204  0.012946066  0.011233535           11 
 4868000   0.47142179   -8.3167941     755.6963  0.012936461  0.011229916            3 
 4869000   0.47788917   -8.2728998    753.51904   0.01289654  0.011226297            7 
 4870000   0.47622993   -8.2986752    755.01418  0.012919476  0.011222684            8 
 4871000   0.47147196   -8.2960514    754.58633  0.012909504  0.011219069            9 
 4872000   0.47860185   -8.2856311    754.06275  0.012897899  0.011215452            5 
 4873000   0.46279844   -8.3002384    754.14115  0.012896593  0.011211837            3 
 4874000     0.471382   -8.3011186    754.61003  0.012901963  0.011208227            7 
 4875000   0.47819776   -8.2952807    755.09456  0.012907599  0.011204616            6 
 4876000   0.47320666   -8.2909446    754.29557  0.012891297  0.011201008            5 
 4877000   0.46171381    -8.298939     755.4633  0.012908607  0.011197403            7 
 4878000   0.48037026    -8.291995    755.15067   0.01290062  0.011193798            8 
 4879000    0.4863306   -8.3041392    754.98899  0.012895214  0.011190194            5 
 4880000   0.47550457   -8.2801773    754.09161  0.012877247  0.011186592            9 
 4881000   0.46319745   -8.2944505    754.61413   0.01288353  0.011182993            8 
 4882000   0.46055174   -8.3036791    754.50717  0.012879065  0.011179392            8 
 4883000   0.46875992   -8.2990519     755.2036  0.012888313  0.011175792            4 
 4884000   0.47303209   -8.2950083    755.04525  0.012882972  0.011172197            6 
 4885000   0.47420858   -8.3031236    753.97612  0.012862097  0.011168604            5 
 4886000   0.48208195   -8.3029259     754.1256  0.012862014  0.011165013            5 
 4887000   0.45614451    -8.291118    753.73454  0.012852714   0.01116142            4 
 4888000   0.47028327   -8.2935673    754.41322  0.012861655  0.011157832            4 
 4889000   0.47491442   -8.2991405    754.72847  0.012864397  0.011154244           11 
 4890000   0.47259534   -8.3058283    755.42906  0.012873706  0.011150656            5 
 4891000    0.4529301    -8.306829    754.65876  0.012857949  0.011147072            5 
 4892000   0.47074611   -8.3099571    754.93112   0.01285996  0.011143486            6 
 4893000   0.46880228   -8.2892026    754.60303  0.012851745  0.011139901            6 
 4894000   0.46364418    -8.306579    754.26845  0.012843421  0.011136317            4 
 4895000   0.47700288   -8.2966444    754.61737  0.012846738  0.011132737            4 
 4896000   0.46193564   -8.3049749    754.42406  0.012840824  0.011129155            9 
 4897000   0.48694092   -8.3107769    755.36608  0.012854232  0.011125579            9 
 4898000   0.46992144   -8.3152783     755.5749   0.01285516  0.011122002            4 
 4899000   0.46550246   -8.3056129    754.94276  0.012841783  0.011118423            8 
 4900000   0.46509938    -8.297174    754.51997  0.012831972  0.011114849            5 
 4901000   0.46877869    -8.306557    754.35293  0.012826514  0.011111277            6 
 4902000   0.47213322   -8.3109383    754.46379  0.012825782  0.011107709           13 
 4903000   0.46372282   -8.3023159    754.14468  0.012817742   0.01110414            8 
 4904000    0.4640842   -8.3107494    754.80741   0.01282639  0.011100572            5 
 4905000   0.45577415   -8.3072364     754.1148  0.012812008  0.011097005            5 
 4906000   0.46263535   -8.2976421    753.94657  0.012806539  0.011093439            7 
 4907000   0.46566955   -8.2998145    754.32243  0.012810312  0.011089877            7 
 4908000   0.46957634   -8.3042362    754.11243  0.012804137  0.011086314           10 
 4909000   0.45426967   -8.3008173     754.6645    0.0128109  0.011082753            5 
 4910000   0.46740178   -8.2955154    754.36447  0.012803199  0.011079193           10 
 4911000   0.45928479   -8.3144042    754.86735  0.012809125  0.011075636            5 
 4912000   0.47071183   -8.3135399    754.81047  0.012805552  0.011072082            9 
 4913000   0.46938518     -8.29358    754.40937  0.012796142  0.011068525            4 
 4914000   0.45941482   -8.2962546     754.9855  0.012803309  0.011064971            6 
 4915000   0.46949395   -8.2814064    754.97226  0.012800479  0.011061421            5 
 4916000   0.47028567   -8.3132141    753.69507  0.012776225  0.011057871            8 
 4917000   0.46821067   -8.2981363    754.04448  0.012779549   0.01105432            8 
 4918000   0.45938204   -8.3034369    753.50163  0.012767752   0.01105077            4 
 4919000    0.4619208   -8.3059248    753.84647  0.012770998  0.011047224            9 
 4920000   0.45123347   -8.3143828    754.03206  0.012771546  0.011043677            5 
 4921000   0.45922336   -8.3082412    754.71291   0.01278048  0.011040132           10 
 4922000    0.4746098   -8.2775715    754.11593  0.012767776  0.011036589            5 
 4923000   0.46315112   -8.3010072    754.40848  0.012770135  0.011033051            9 
 4924000   0.45928431   -8.3065502    753.98982  0.012760456  0.011029514            6 
 4925000   0.45882754   -8.3082243    754.65952  0.012769197  0.011025975            5 
 4926000   0.45695874   -8.3174444    753.19285  0.012741793  0.011022437            8 
 4927000   0.46055754   -8.3032461    753.05188  0.012736822    0.0110189           10 
 4928000   0.45284965   -8.3209121    754.54418  0.012759473  0.011015362            6 
 4929000   0.46771888   -8.3097717    754.25367  0.012751973  0.011011829            5 
 4930000   0.46572674   -8.3145799    753.98351  0.012744819  0.011008295            5 
 4931000   0.45555018   -8.3162974    753.92045  0.012741169  0.011004766            7 
 4932000   0.48007532   -8.3024514    754.36469  0.012746092  0.011001237            5 
 4933000   0.45531384   -8.3130841    753.81867  0.012734284   0.01099771            7 
 4934000   0.46457107   -8.3282895    754.56772  0.012744354  0.010994184            7 
 4935000   0.45594124   -8.3025794    754.63352  0.012742883  0.010990659            5 
 4936000   0.46587821   -8.3187914    754.67831  0.012741057  0.010987137            6 
 4937000   0.46164044   -8.3242888    754.39136  0.012733633  0.010983615            6 
 4938000   0.45889267    -8.314765    753.34624  0.012713417  0.010980092            9 
 4939000    0.4663478    -8.312216     754.3945   0.01272853  0.010976576            8 
 4940000   0.45807001   -8.3231687    754.30673  0.012724472  0.010973056            7 
 4941000   0.45927045   -8.3082725    753.33679  0.012705538   0.01096954            4 
 4942000   0.45785031   -8.3124884    754.83304  0.012728198  0.010966025            5 
 4943000   0.46421006   -8.3043584    754.35978  0.012717644  0.010962509            5 
 4944000   0.46511452   -8.3049672    754.60802  0.012719256  0.010958998            6 
 4945000   0.44838022   -8.3156711    753.40717  0.012696447  0.010955485            9 
 4946000   0.46701612    -8.313426    754.61534  0.012714236  0.010951979            8 
 4947000   0.46333061   -8.3180668    755.07347  0.012719383  0.010948473            4 
 4948000   0.46074214   -8.3165599    753.52365  0.012690711  0.010944967            5 
 4949000   0.46451056   -8.3072466    753.45574  0.012687003  0.010941462            7 
 4950000   0.46377209   -8.2957067    753.85274  0.012691124  0.010937958            5 
 4951000   0.45787367   -8.3041405    754.29175  0.012695949  0.010934454            6 
 4952000   0.46710667    -8.306712    754.69436  0.012700161  0.010930953            5 
 4953000   0.46186498   -8.3170097    755.17411  0.012705668  0.010927456            8 
 4954000   0.46512612   -8.2971128    753.84846  0.012680804  0.010923958           12 
 4955000   0.46374895   -8.3159831     755.4682  0.012705486  0.010920465            7 
 4956000   0.46486468    -8.312503     753.3441  0.012667206  0.010916972            6 
 4957000    0.4562069   -8.3159915    753.97113  0.012675192   0.01091348            4 
 4958000   0.45423567   -8.3167231    754.77447  0.012686138  0.010909987            5 
 4959000   0.46460676   -8.3172233    754.13043  0.012672757  0.010906497            6 
 4960000   0.47220452   -8.3248261    753.77719  0.012664267  0.010903008            4 
 4961000    0.4577944   -8.3168514    754.20132  0.012668839  0.010899521            4 
 4962000   0.45686843   -8.3253416    753.48121  0.012654192  0.010896034            5 
 4963000   0.46299656   -8.3222537    753.16456  0.012646325   0.01089255            6 
 4964000   0.45954725   -8.3252568    753.48404  0.012649141  0.010889065            8 
 4965000   0.45516925    -8.311063    753.07603  0.012639745  0.010885584            9 
 4966000   0.45703676   -8.3216796    754.87416  0.012667374  0.010882103           12 
 4967000   0.45806435   -8.3144192    754.30128  0.012655212  0.010878625            7 
 4968000   0.45911454   -8.3150172    754.26193  0.012652005  0.010875149            7 
 4969000   0.44578102   -8.3225785    754.12031  0.012647084  0.010871673            6 
 4970000   0.45465369   -8.3241151    753.25377  0.012630009  0.010868196            8 
 4971000   0.45312413   -8.3201991    752.73875  0.012618835  0.010864724            7 
 4972000   0.45164051   -8.3291714     754.0975   0.01263907   0.01086125            5 
 4973000   0.44985966   -8.3090199    753.50524  0.012626604  0.010857782            8 
 4974000   0.46363049    -8.312296    753.13864  0.012617924  0.010854312           12 
 4975000   0.46076319   -8.3402429    753.33005  0.012618594  0.010850845            8 
 4976000   0.46744614   -8.3281071     754.4556  0.012634908   0.01084738            4 
 4977000   0.46301931   -8.3267393    754.82725  0.012638592  0.010843915            6 
 4978000     0.456451   -8.3360003    753.36833   0.01261163   0.01084045            6 
 4979000    0.4540366    -8.325228    753.54703  0.012612088  0.010836988            5 
 4980000   0.45366037   -8.3170013    753.12187  0.012602441  0.010833528            8 
 4981000   0.45681829   -8.3255861    755.53075  0.012640212  0.010830069            8 
 4982000   0.45534972   -8.3270826     753.8768  0.012610009  0.010826614            5 
 4983000   0.45751019    -8.322298    753.71865  0.012604834  0.010823156            6 
 4984000   0.44702957    -8.313861     753.4781  0.012598283  0.010819701            5 
 4985000   0.44580898   -8.3251011    753.98976  0.012604309  0.010816247            6 
 4986000   0.45584165   -8.3228122    753.58254  0.012594975  0.010812793           14 
 4987000   0.46813091   -8.3107716    753.05918  0.012583704   0.01080934            4 
 4988000   0.46499472   -8.3318671    754.35067  0.012602758  0.010805888            6 
 4989000   0.45880831   -8.3212642    754.04719  0.012595162  0.010802439            6 
 4990000   0.45671435   -8.3257483    753.21312  0.012578709  0.010798991            5 
 4991000   0.44681312   -8.3320532    754.61745  0.012599637  0.010795542            5 
 4992000   0.44634517   -8.3324592    754.60517  0.012596908  0.010792097            9 
 4993000   0.45971722    -8.334141    753.03503  0.012568179  0.010788651            4 
 4994000   0.45733132   -8.3265812    754.18096  0.012584784  0.010785209            6 
 4995000   0.45305961   -8.3381776    753.13146  0.012564756  0.010781768            6 
 4996000   0.45060523   -8.3284413    753.02838  0.012560521  0.010778329            5 
 4997000   0.45073858   -8.3339352    753.42654  0.012564648  0.010774894            4 
 4998000   0.45309252   -8.3297272    753.44933  0.012562514   0.01077146            5 
 4999000   0.44360539   -8.3127948    754.18006  0.012572182  0.010768025            6 
 5000000   0.45087671   -8.3340083    753.13421  0.012552237  0.010764592            5 
 5001000   0.45720039   -8.3237397    754.64267  0.012574863  0.010761164            6 
 5002000    0.4481114   -8.3217353    753.87423  0.012559547  0.010757735            7 
 5003000   0.45677719   -8.3223164    754.61985  0.012569456  0.010754309            6 
 5004000   0.45268723   -8.3327868    753.42898  0.012547112  0.010750882            6 
 5005000    0.4553701   -8.3053237    753.53552  0.012546379  0.010747456            5 
 5006000   0.46261052   -8.3413408    753.10758  0.012536749  0.010744032            5 
 5007000   0.44015001   -8.3285842    754.64853  0.012559892   0.01074061            9 
 5008000   0.44449366   -8.3229283    753.09686  0.012531564  0.010737187            9 
 5009000     0.456109   -8.3214578    752.79595  0.012524056  0.010733767            7 
 5010000   0.44054882   -8.3216619    753.74639  0.012537365  0.010730349            7 
 5011000   0.44550908   -8.3241779    752.56291  0.012515182   0.01072693            7 
 5012000   0.44556078   -8.3320008    754.37665  0.012542841  0.010723515           10 
Loop time of 11568.2 on 48 procs for 5000000 steps with 4000 atoms

Performance: 74687.344 tau/day, 432.218 timesteps/s
99.4% CPU use with 48 MPI tasks x no OpenMP threads

MPI task timing breakdown:
Section |  min time  |  avg time  |  max time  |%varavg| %total
---------------------------------------------------------------
Pair    | 717.09     | 767.7      | 814.17     |  79.9 |  6.64
Neigh   | 75.606     | 77.896     | 80.696     |  16.8 |  0.67
Comm    | 712.53     | 758.31     | 817.81     |  92.9 |  6.56
Output  | 13.445     | 13.45      | 13.539     |   0.4 |  0.12
Modify  | 9823.1     | 9844.5     | 9865.2     |  10.3 | 85.10
Other   |            | 106.4      |            |       |  0.92

Nlocal:        83.3333 ave          91 max          72 min
Histogram: 1 1 1 3 9 11 8 5 7 2
Nghost:        1954.60 ave        1980 max        1937 min
Histogram: 3 3 6 13 11 6 3 1 1 1
Neighs:        12413.9 ave       13752 max       10650 min
Histogram: 2 2 2 4 7 11 3 9 4 4
FullNghs:      24828.9 ave       27373 max       21509 min
Histogram: 1 2 2 4 15 6 2 5 9 2

Total # of neighbors = 1191785
Ave neighs/atom = 297.94625
Neighbor list builds = 268464
Dangerous builds = 0

#clear
#
#next RN
#
#jump SELF
Total wall time: 3:12:51
