
units lj                  # Use reduced LJ style units
atom_style atomic         # Uncharged point particles
atom_modify map hash      # Needed for indexing of clusters etc
                          # Used to be able to find where atoms are in relation to each other.

lattice fcc 1.0 spacing 1 1 1
Lattice spacing in x,y,z = 1.5874011 1.5874011 1.5874011
region box block 0 10 0 10 0 10 units lattice
create_box 2 box
Created orthogonal box = (0.0000000 0.0000000 0.0000000) to (15.874011 15.874011 15.874011)
  3 by 4 by 4 MPI processor grid
create_atoms 1 box
Created 4000 atoms
  using lattice units in orthogonal box = (0.0000000 0.0000000 0.0000000) to (15.874011 15.874011 15.874011)
  create_atoms CPU = 0.003 seconds
set type 1 type/fraction 2 0.51 78393
Setting atom values ...
  2042 settings made for type/fraction
mass 1 1.0
mass 2 1.0
pair_style lj/cut  3.5
pair_modify tail  yes
pair_coeff 1  1  1.0  1.0   # Intearaction between 1 and 1 set with epsilon = 1 and sigma = 1
pair_coeff 1  2  1.5  0.8
pair_coeff 2  2  0.5  0.88

write_data data.0
System init for write_data ...
Neighbor list info ...
  update every 1 steps, delay 10 steps, check yes
  max neighbors/atom: 2000, page size: 100000
  master list distance cutoff = 3.8
  ghost atom cutoff = 3.8
  binsize = 1.9, bins = 9 9 9
  1 neighbor lists, perpetual/occasional/extra = 1 0 0
  (1) pair lj/cut, perpetual
      attributes: half, newton on
      pair build: half/bin/atomonly/newton
      stencil: half/bin/3d
      bin: standard
WARNING: Not all mixed pair coeffs generated from mixing. Use write_data with 'pair ij' option to store all pair coeffs. (../write_data.cpp:312)


#############################
#   M E L T   S Y S T E M   #
#############################

velocity all create 2.4 2750902 mom yes dist gaussian # Assign velocities
                                                    # Temperature 2.4, random number seed, zero linear momentum
                                                                                # Gaussian distribution

timestep 0.002   # simulation timestep
thermo 1000       # output thermodynamic data every 1000 steps bf 100

# Define a fix  in this case with index 1 applied to all
# particles in the simulation. This fix is for simulations
# in the anisotropic NPT ensemble. Note that we use the MTK
# correction.
fix 1 all npt temp 2.4 2.4 0.1 iso 5.68 5.68 0.5 mtk yes tchain 5 pchain 5 # Use NPT ensemble
                                                                         # Set temperature and pressure and damping
                                                                         # Numbers of thermostats in chain and in barostat
run 10000          # run for 10000 steps
Per MPI rank memory allocation (min/avg/max) = 3.642 | 3.644 | 3.648 Mbytes
Step Temp E_pair E_mol TotEng Press Volume 
       0          2.4   -5.2404118            0   -1.6413118   -4.2035775         4000 
    1000    2.3361481    -4.869276            0     -1.36593    5.4418141    3698.2515 
    2000    2.4095025   -4.8485144            0   -1.2351642    5.5804306    3702.1726 
    3000    2.3781891     -4.84014            0   -1.2737481    5.7057861     3693.522 
    4000    2.4335816   -4.8134865            0   -1.1640267    5.7590565    3712.8202 
    5000    2.4069668    -4.843156            0   -1.2336084    5.6587554    3697.7624 
    6000    2.3448225   -4.8320461            0   -1.3156917    5.5466334    3700.4967 
    7000    2.3901889   -4.8501178            0   -1.2657308    5.5270943    3695.1945 
    8000    2.4199878   -4.8558179            0   -1.2267437    5.4670886     3707.402 
    9000    2.3974961   -4.9012359            0   -1.3058908    5.6322824    3669.9946 
   10000    2.3473598   -4.8464882            0   -1.3263287    5.4038222     3704.845 
Loop time of 2.57977 on 48 procs for 10000 steps with 4000 atoms

Performance: 669827.734 tau/day, 3876.318 timesteps/s
99.7% CPU use with 48 MPI tasks x no OpenMP threads

MPI task timing breakdown:
Section |  min time  |  avg time  |  max time  |%varavg| %total
---------------------------------------------------------------
Pair    | 1.1731     | 1.2442     | 1.2853     |   2.3 | 48.23
Neigh   | 0.21477    | 0.22116    | 0.22713    |   0.6 |  8.57
Comm    | 0.80604    | 0.86297    | 0.94229    |   3.1 | 33.45
Output  | 0.00024228 | 0.00024695 | 0.00031824 |   0.0 |  0.01
Modify  | 0.21636    | 0.23566    | 0.26388    |   2.9 |  9.13
Other   |            | 0.01557    |            |       |  0.60

Nlocal:        83.3333 ave          92 max          71 min
Histogram: 1 1 1 5 8 6 9 12 3 2
Nghost:        1729.10 ave        1755 max        1709 min
Histogram: 3 3 9 9 6 8 4 0 3 3
Neighs:        10306.5 ave       11595 max        8705 min
Histogram: 2 0 5 5 5 11 6 7 4 3

Total # of neighbors = 494714
Ave neighs/atom = 123.67850
Neighbor list builds = 904
Dangerous builds = 202

# Equilibrate just above the melting temperature to avoid step fn in T

fix 1 all npt temp 1.25 1.25 0.1 iso 5.68 5.68 0.5 mtk yes tchain 5 pchain 5
run 2000
Per MPI rank memory allocation (min/avg/max) = 3.644 | 3.646 | 3.649 Mbytes
Step Temp E_pair E_mol TotEng Press Volume 
   10000    2.3473598   -4.8464882            0   -1.3263287    5.4038222     3704.845 
   11000    1.2434574   -6.9378448            0    -5.073125    5.4112317    2885.5722 
   12000    1.2463068   -7.0410147            0   -5.1720219    5.7356114    2848.1321 
Loop time of 0.638535 on 48 procs for 2000 steps with 4000 atoms

Performance: 541238.913 tau/day, 3132.170 timesteps/s
99.7% CPU use with 48 MPI tasks x no OpenMP threads

MPI task timing breakdown:
Section |  min time  |  avg time  |  max time  |%varavg| %total
---------------------------------------------------------------
Pair    | 0.29076    | 0.31555    | 0.34996    |   2.0 | 49.42
Neigh   | 0.04033    | 0.042953   | 0.047911   |   0.5 |  6.73
Comm    | 0.19294    | 0.23167    | 0.25972    |   2.5 | 36.28
Output  | 5.0643e-05 | 5.2101e-05 | 6.6699e-05 |   0.0 |  0.01
Modify  | 0.040359   | 0.043364   | 0.046795   |   0.8 |  6.79
Other   |            | 0.004946   |            |       |  0.77

Nlocal:        83.3333 ave          91 max          76 min
Histogram: 1 2 7 5 11 6 8 5 1 2
Nghost:        2060.65 ave        2075 max        2044 min
Histogram: 3 1 6 5 4 9 6 6 6 2
Neighs:        13408.3 ave       14745 max       11713 min
Histogram: 3 1 3 5 5 7 11 7 3 3

Total # of neighbors = 643597
Ave neighs/atom = 160.89925
Neighbor list builds = 142
Dangerous builds = 9

#############################
# L I N E A R  Q U E N C H  #
#############################

# Define solid atoms. This closely follows ten Wolde  Ruiz-Montero and Frenkel  Faraday Discuss  1996  104  93-110
# Compute components of the per-atom q6 vector
compute q6 all orientorder/atom degrees 1 6 components 6 nnn NULL cutoff 1.3 # compute the Q6 parameter.
                                                                             # Use all neighbours within 1.3 unit cell.

# get number of connections
compute coord_number all coord/atom orientorder q6 0.5

# An atom is solid if it has 8 or more connections (of a possible 14)
variable is_solid atom c_coord_number>=8
group solid dynamic all var is_solid    # Must be dynamic to update
dynamic group solid defined

# do clustering
compute cluster solid cluster/atom 1.3 # Create a cluster where all atoms within are solid and max 1.3 units from another member

# define chunks one chunk per cluster
compute clus_chunks solid chunk/atom c_cluster nchunk every compress yes  # Says which atoms are in which chunk

# count the size of each chunk
compute size_chunks solid property/chunk clus_chunks count


# Find the maximum entry in the vector of chunk sizes
variable max_n equal max(c_size_chunks)


# Thermo style which includes this variable
# thermo_style custom step temp pe vol v_max_n

thermo ${N}  # Print the thermo information every 100 steps
thermo 1000  

# Reset the npt fix at a lower temperature (below freezing)
fix 1  all npt temp  ${temp} ${temp}  0.1  iso  5.68  5.68  0.5  mtk yes tchain  5  pchain  5
fix 1  all npt temp  0.45 ${temp}  0.1  iso  5.68  5.68  0.5  mtk yes tchain  5  pchain  5
fix 1  all npt temp  0.45 0.45  0.1  iso  5.68  5.68  0.5  mtk yes tchain  5  pchain  5

dump dmp2 all dcd ${N} traj.dcd
dump dmp2 all dcd 1000 traj.dcd


compute msd all msd com yes
variable twopoint equal c_msd[4]/6/(step*dt+1.0e-6)
fix 9 all vector 10 c_msd[4]
variable fit equal slope(f_9)/6/(10*dt)
thermo_style custom step temp pe c_msd[4] v_twopoint v_fit v_max_n

fix 1 all npt temp 1.25 ${temp} 0.1 iso 5.68 5.68 0.5 mtk yes tchain 5 pchain 5
fix 1 all npt temp 1.25 0.45 0.1 iso 5.68 5.68 0.5 mtk yes tchain 5 pchain 5
run 500000 # 5000000  # Run for this many steps
Neighbor list info ...
  update every 1 steps, delay 10 steps, check yes
  max neighbors/atom: 2000, page size: 100000
  master list distance cutoff = 3.8
  ghost atom cutoff = 3.8
  binsize = 1.9, bins = 8 8 8
  4 neighbor lists, perpetual/occasional/extra = 1 3 0
  (1) pair lj/cut, perpetual
      attributes: half, newton on
      pair build: half/bin/atomonly/newton
      stencil: half/bin/3d
      bin: standard
  (2) compute orientorder/atom, occasional
      attributes: full, newton on
      pair build: full/bin/atomonly
      stencil: full/bin/3d
      bin: standard
  (3) compute coord/atom, occasional
      attributes: full, newton on
      pair build: full/bin/atomonly
      stencil: full/bin/3d
      bin: standard
  (4) compute cluster/atom, occasional
      attributes: full, newton on
      pair build: full/bin/atomonly
      stencil: full/bin/3d
      bin: standard
Per MPI rank memory allocation (min/avg/max) = 9.839 | 9.844 | 9.849 Mbytes
Step Temp PotEng c_msd[4] v_twopoint v_fit v_max_n 
   12000    1.2463068   -7.0410147 1.8165494e-30 1.2614926e-32 8.3333333e+20            5 
   13000    1.2326272   -7.0595256   0.46210417 0.0029622061  0.037990229            2 
   14000    1.2292716    -7.033378   0.86160863 0.0051286226  0.034651462            1 
   15000    1.2400831   -7.0717529    1.2221129 0.0067895161  0.033244951            1 
   16000    1.2212574   -7.0678151    1.6027263 0.0083475325  0.032214532            1 
   17000    1.2185967   -7.0897311    2.0200172  0.009902045  0.032469186            3 
   18000    1.2422682   -7.0694613    2.4757543  0.011461825  0.033028576            3 
   19000    1.2347989   -7.1494399    2.9165311  0.012791803  0.033676223            1 
   20000    1.2399099   -7.1158782     3.368681  0.014036171  0.034396771            2 
   21000    1.2530373   -7.1008458    3.7069226   0.01471001  0.034524929            2 
   22000    1.2215991   -7.0879966    4.0646695  0.015396475  0.034377763            4 
   23000      1.23651   -7.1323902    4.4364466  0.016074082    0.0340898            4 
   24000    1.2088177   -7.1332437    4.7695125  0.016560807   0.03369099            2 
   25000    1.2374582   -7.0919628    5.1066322  0.017022107  0.033250721            3 
   26000    1.2407138   -7.1384468    5.4769361  0.017554282  0.032858197            2 
   27000    1.2201619   -7.1779403    5.8392237  0.018022295  0.032619192            2 
   28000    1.2195752   -7.1067892    6.1861411  0.018411134  0.032387296            3 
   29000    1.2416566   -7.1311141    6.4264996  0.018466953  0.032032315            1 
   30000    1.2034948   -7.1896658    6.7437988  0.018732774  0.031648848            2 
   31000    1.2359127   -7.1604563    7.1381459  0.019188564  0.031346807            2 
   32000    1.2174778   -7.1634664     7.473095  0.019461184  0.031125762            2 
   33000    1.2201695   -7.1463938    7.9420558  0.020055696  0.030951863            3 
   34000    1.2122196   -7.1580264    8.3272255  0.020409866  0.030859246            2 
   35000    1.2095215   -7.1896643    8.7517652  0.020837536  0.030842795            1 
   36000    1.1905039   -7.1935785    9.0640473  0.020981591  0.030844458            2 
   37000    1.2184667   -7.2043796    9.4523515   0.02128908  0.030826745            2 
   38000    1.2017056   -7.1809364    9.7386683  0.021356728  0.030775018            3 
   39000    1.2290657   -7.2126903    10.098848  0.021578734  0.030698208            4 
   40000    1.1950382   -7.1877486    10.502831  0.021880898  0.030645947            1 
   41000    1.2070323   -7.1378816     10.88173  0.022117336  0.030630517            1 
   42000    1.1972794   -7.2022314    11.182733  0.022187961  0.030574498            3 
   43000    1.1816433   -7.2249368    11.474328  0.022237069  0.030503397            1 
   44000    1.2046781   -7.1804823    11.753706  0.022260807  0.030423371            4 
   45000    1.2036222   -7.1796709    12.156803  0.022512599  0.030346312            1 
   46000    1.1963154   -7.2006459    12.462325  0.022576676  0.030264512            4 
   47000    1.1987612   -7.2419772    12.739942  0.022588549  0.030180849            2 
   48000    1.2067699   -7.2095906    13.133621  0.022801425  0.030083177            3 
   49000    1.2034103   -7.2604509     13.53389   0.02301682  0.030028516            4 
   50000    1.1926468   -7.2290393    13.952046   0.02325341  0.030005305            3 
   51000    1.1644959   -7.1994397    14.383824  0.023502981  0.029992216            3 
   52000    1.1946811   -7.2369148     14.57588  0.023358781  0.029962283            2 
   53000    1.1846501   -7.2328248    14.871291  0.023382533   0.02991096            2 
   54000    1.1733835   -7.2653072    15.213467  0.023477572  0.029858553            1 
   55000    1.1933449   -7.2603202    15.574065  0.023597068  0.029816366            2 
   56000    1.1868147   -7.2349062    15.861888  0.023603999  0.029757451            2 
   57000    1.1749346   -7.2922088    16.208215   0.02369622   0.02971247            1 
   58000    1.1936599   -7.2389267    16.643313  0.023912806  0.029668058            3 
   59000    1.2052364   -7.2725139    16.919909  0.023898176  0.029633785            3 
   60000    1.1902201   -7.2546862    17.338411  0.024081127  0.029595838            1 
   61000    1.1585132   -7.2523982    17.664404  0.024131699  0.029570529            3 
   62000    1.1735184   -7.3349112    17.891086  0.024047158  0.029537335            2 
   63000    1.1792003   -7.3108357    18.290225  0.024193419  0.029499733            3 
   64000    1.1625839     -7.28055    18.691992  0.024338532  0.029476692            2 
   65000    1.1411064   -7.2734687    19.015429  0.024378755  0.029456507            4 
   66000    1.1639547   -7.2807278    19.263569  0.024322688  0.029421682            4 
   67000    1.1683826   -7.3084545     19.51536  0.024272836   0.02937507            2 
   68000    1.1572444   -7.3442836    19.860797  0.024339211  0.029326794            4 
   69000    1.1525469   -7.3200742    20.145256  0.024330019  0.029273851            5 
   70000    1.1452229   -7.2957072    20.321172  0.024191872  0.029207498            4 
   71000    1.1803788   -7.2965452    20.575958  0.024150185  0.029124427            2 
   72000    1.1584918   -7.3423365     20.85456  0.024137222  0.029039813            3 
   73000    1.1519893   -7.3216365     21.24705  0.024254623  0.028965529            3 
   74000    1.1372045   -7.3585737    21.569922  0.024290452  0.028900271            2 
   75000     1.167546   -7.3014826    21.964213  0.024404681  0.028841516            2 
   76000    1.1447375   -7.3288987    22.111119  0.024244648  0.028779611            3 
   77000    1.1488303   -7.3506326    22.223986  0.024051933  0.028699808            1 
   78000    1.1580158   -7.3234637    22.500162  0.024038635  0.028609814            2 
   79000    1.1593137   -7.3421786    22.735322  0.023982407  0.028518824            2 
   80000    1.1365625    -7.360355    22.890192   0.02384395  0.028421411            1 
   81000    1.1425181   -7.3658167     23.35391  0.024026656  0.028323859            2 
   82000    1.1377905   -7.3669171    23.558068  0.023941126  0.028235061            1 
   83000    1.1668627   -7.3814246     24.05035  0.024146937   0.02815853            3 
   84000    1.1396835   -7.3953631    24.101831  0.023910546  0.028075654            2 
   85000    1.1336181    -7.347801    24.334674  0.023857523  0.027979087            2 
   86000    1.1322314   -7.3652327     24.43075  0.023673207  0.027878784            3 
   87000    1.1491524   -7.3980003     24.70895  0.023667577  0.027778176            1 
   88000    1.1226188   -7.3953316    24.948798  0.023625755  0.027677231            3 
   89000    1.1166304   -7.3970771    25.255425  0.023647402  0.027574951            2 
   90000    1.1216957   -7.3897004     25.62469  0.023726564  0.027482929            2 
   91000    1.1508578   -7.4064337    25.913609  0.023730411  0.027399657            3 
   92000    1.1160585   -7.4283354    26.118918   0.02365844  0.027313583            2 
   93000     1.137895   -7.4035526    26.309447  0.023574773  0.027225019            2 
   94000    1.1115746   -7.4017655    26.723961  0.023691454  0.027141551            2 
   95000    1.1218125   -7.4364324    26.914797  0.023609471  0.027060816            3 
   96000    1.1235551   -7.4857239    27.130887  0.023551117  0.026980654            2 
   97000    1.1088656   -7.4280537    27.445424  0.023578543  0.026902324            3 
   98000    1.1164592   -7.4399168    27.552827  0.023429275  0.026821728            3 
   99000    1.1028233   -7.4075733     28.10641  0.023658594  0.026744863            2 
  100000    1.0963898   -7.4275474    28.264281  0.023553568   0.02667491            1 
  101000    1.1232533   -7.4398699    28.598117  0.023595806  0.026603922            2 
  102000    1.1064257   -7.4573147    28.730878  0.023472939  0.026531881            2 
  103000    1.1040163   -7.4072216    29.032359  0.023488964  0.026461803            2 
  104000    1.0949115   -7.4195432    29.285784  0.023466173   0.02639327            2 
  105000    1.0770683   -7.4808059    29.555578  0.023456808  0.026324092            3 
  106000    1.1030173   -7.4479245    29.785786  0.023416499  0.026251352            2 
  107000    1.1077177   -7.4568895    29.983523  0.023351653  0.026182647            3 
  108000     1.120948   -7.5219422    30.342907  0.023412737  0.026114752            4 
  109000    1.1014081   -7.5151483    30.509605  0.023325386  0.026049203            4 
  110000    1.0826175   -7.4796572    30.849773   0.02337104  0.025984997            4 
  111000     1.090482   -7.5217169    30.955064  0.023239538  0.025922014            3 
  112000    1.0555698   -7.4721143    31.266341  0.023263646  0.025859212            3 
  113000    1.0534538   -7.5084666    31.601604  0.023305017  0.025797136            1 
  114000    1.0900713   -7.5174115    31.812133  0.023254483  0.025736128            3 
  115000    1.0946229   -7.5269957    31.983045  0.023176119  0.025671329            4 
  116000    1.0576483   -7.4670802    32.345503  0.023236712  0.025609173            3 
  117000     1.068908    -7.531808    32.464599  0.023122934  0.025548086            2 
  118000    1.0840004   -7.5142963    32.472366  0.022932462  0.025481826            4 
  119000    1.0753261    -7.507119    32.674308  0.022881168  0.025409437            2 
  120000    1.0366736      -7.5358    32.964221   0.02289182   0.02533583            1 
  121000    1.0652885   -7.5502015    33.084275  0.022785313   0.02526201            3 
  122000    1.0943709   -7.5242953     33.34822  0.022778838  0.025188369            2 
  123000    1.0784543   -7.5179212     33.59334  0.022759715  0.025113458            2 
  124000    1.0716048   -7.5507263    33.522593  0.022528624  0.025036607            4 
  125000     1.086095   -7.5611358    33.704108  0.022469405  0.024957196            6 
  126000    1.1004852   -7.4923204    33.967203  0.022465081  0.024878161            6 
  127000    1.0636572   -7.5490013    34.079785  0.022362064  0.024798323            2 
  128000    1.0532097   -7.5622597    34.327331  0.022348523  0.024717379            9 
  129000    1.0572947   -7.5559693    34.537609  0.022311117  0.024638927            3 
  130000    1.0720446   -7.5623091    34.628671  0.022197866  0.024557793            3 
  131000     1.058174   -7.5932239    34.916726  0.022211657  0.024480542            5 
  132000    1.0521987   -7.5839046    34.836092  0.021992482  0.024402986            5 
  133000     1.075112   -7.5629139    35.328329  0.022135544  0.024324937            5 
  134000    1.0444213   -7.6102917    35.629819  0.022157848  0.024250608            2 
  135000    1.0516591   -7.5720853     35.84109  0.022124129  0.024179363            1 
  136000    1.0354633   -7.6493654    35.771111  0.021918573   0.02410499            5 
  137000    1.0380857     -7.59684    36.065214  0.021937478     0.024028            3 
  138000    1.0475586   -7.6144184    36.155469  0.021833012   0.02394916            2 
  139000    1.0235222   -7.6586261    36.224966  0.021717605  0.023869077            4 
  140000    1.0342711    -7.605979    36.534493  0.021746722  0.023792011            2 
  141000    1.0452645   -7.6982046    36.610751   0.02163756  0.023715132            4 
  142000    1.0605029   -7.6301858    36.807275  0.021600513  0.023637313            4 
  143000    1.0362758    -7.603193    37.010365  0.021567811  0.023560383            4 
  144000    1.0572237   -7.6299699    37.252137   0.02155795  0.023484114            4 
  145000    1.0205338   -7.6288772    37.496432  0.021549674   0.02341006            3 
  146000    1.0377867   -7.6511087    37.554241  0.021435069  0.023336726            4 
  147000    1.0413052   -7.6774589    37.879214  0.021473477  0.023265774            2 
  148000    1.0383884   -7.6257405    38.190111  0.021503441  0.023196668            2 
  149000    1.0255424   -7.6679325    38.175983  0.021351221  0.023128459            4 
  150000    1.0175338   -7.6694614    38.429254  0.021349586  0.023059113            5 
  151000    1.0081829   -7.6521484    38.604415  0.021304865  0.022989139            4 
  152000    1.0364618   -7.6594618    38.909237  0.021331819  0.022921331            4 
  153000    1.0280598   -7.6663072    39.001342  0.021242561  0.022853649            3 
  154000    1.0315607   -7.7016836    39.074548  0.021144236  0.022785922            3 
  155000     1.017117   -7.6720305    39.034882  0.020986496  0.022714162            4 
  156000    1.0284483   -7.6602981    39.364418  0.021028001  0.022642755            7 
  157000      1.00623   -7.6824438    39.455786  0.020942562  0.022573904            5 
  158000    1.0177804   -7.6507135    39.726751  0.020952928  0.022505423            4 
  159000    1.0363086   -7.7001196    39.853137  0.020887388  0.022439107            6 
  160000    1.0093004   -7.7099521    40.141029  0.020906786  0.022374983            5 
  161000    1.0146227   -7.7364451    40.232317  0.020824181  0.022309783            6 
  162000     1.001867   -7.6506096    40.559184  0.020863778  0.022245797            3 
  163000    1.0193899   -7.7325914    40.577735  0.020745263  0.022179452           10 
  164000    1.0243477   -7.7283398    40.809744  0.020736659  0.022114594            2 
  165000   0.98675861   -7.7281179     40.95307  0.020683369  0.022050395            2 
  166000   0.98569505   -7.7695722    41.115819  0.020640471  0.021986756            4 
  167000    1.0105232   -7.7363533    41.146705  0.020532288   0.02192213            7 
  168000   0.99422404   -7.7296388    41.465366  0.020568138  0.021858178            5 
  169000    1.0058228   -7.7933146    41.593967  0.020509846  0.021797161            2 
  170000   0.99611969    -7.710692    41.774961  0.020477922  0.021734234            4 
  171000   0.99826244    -7.732309    41.967415  0.020451956   0.02167281            4 
  172000   0.97490181   -7.7477398    42.080714  0.020387943  0.021609771            4 
  173000   0.99793813   -7.7571561    42.021557  0.020241598  0.021546484            4 
  174000   0.98927981   -7.7372018     42.27594  0.020247098  0.021482013            3 
  175000    0.9873994   -7.7621026     42.21824  0.020103924  0.021417315            5 
  176000   0.98487015   -7.7827154    42.407976  0.020079534  0.021352836            2 
  177000    0.9792244   -7.7454398    42.438563  0.019980491   0.02128669            2 
  178000    1.0062144   -7.7746596    42.909876  0.020088893  0.021222511            4 
  179000   0.97768979   -7.7539886    42.925047  0.019983727  0.021158397            1 
  180000   0.98990825   -7.8179769    43.174573  0.019988228  0.021094966            8 
  181000   0.98324499   -7.8286043    43.240136  0.019907982  0.021031868            3 
  182000   0.95211256   -7.8297746    43.317932  0.019834218  0.020968796            2 
  183000   0.98196767   -7.8174481    43.430856  0.019777257  0.020905987            4 
  184000   0.95935643   -7.8324835    43.363766  0.019639387   0.02084245            2 
  185000    0.9488196   -7.8490121    43.394983   0.01954729  0.020777482            5 
  186000   0.97974454   -7.8301696     43.72388  0.019589552  0.020711407            6 
  187000   0.98723737   -7.8340855    43.749096  0.019496032  0.020645934            5 
  188000     0.949351   -7.8546602    43.742537  0.019389423  0.020579632            4 
  189000   0.95799193   -7.8364547    43.900159  0.019356331  0.020513525           11 
  190000   0.97084817   -7.8637085    43.856046  0.019235108  0.020446965            3 
  191000   0.97525203   -7.8097841    44.036779  0.019213254  0.020379688            9 
  192000    0.9848304   -7.8819895    44.144045  0.019159742  0.020312104            5 
  193000   0.94740162   -7.8728243    44.201238  0.019085163  0.020243996            8 
  194000   0.98092263   -7.8902813    44.238227  0.019002675  0.020175832            3 
  195000   0.93826784   -7.8993738    44.311899  0.018936709  0.020107564            3 
  196000   0.96852743   -7.9135989    44.401657  0.018878256  0.020039728            3 
  197000   0.96604025   -7.9089468     44.69449  0.018906298  0.019973168            4 
  198000   0.95856904   -7.9298845    44.870708  0.018884978  0.019907257            4 
  199000   0.96983295   -7.8917306    44.907239  0.018805376  0.019841764            6 
  200000    0.9628899   -7.8946987    44.959001  0.018732917   0.01977524            4 
  201000    0.9613503    -7.882947    44.932624  0.018628783  0.019709009           11 
  202000   0.94992393   -7.8553852    45.147118  0.018625049  0.019642278            3 
  203000    0.9471845   -7.8693911    45.221332  0.018563765  0.019575677            3 
  204000    0.9264269   -7.9062659    45.140462  0.018439731  0.019508269            5 
  205000   0.96727722   -7.9154527    45.428902  0.018467033  0.019441727           15 
  206000   0.93298559   -7.8982553    45.470304  0.018394136  0.019376162           12 
  207000   0.91490838   -7.9321767    45.613722  0.018363012  0.019310788            6 
  208000   0.94618107   -7.9282387    45.786612  0.018343995  0.019246769            2 
  209000   0.92529797   -7.9728211    45.771584  0.018250233  0.019181882           10 
  210000   0.91367371   -7.9438552     45.76197  0.018159512  0.019115861           11 
  211000   0.95077152   -7.9717386    46.012182  0.018172268  0.019050554            4 
  212000   0.90955372   -7.9462221    45.988163  0.018077108  0.018985822           14 
  213000    0.9132267   -7.9462923    46.015064  0.018002764  0.018921441            6 
  214000   0.94806355   -7.9507324    46.079673  0.017943798  0.018857535            5 
  215000   0.92666631   -7.9811773    46.210903  0.017911203  0.018793125            5 
  216000    0.9276154   -7.9408039    46.359674  0.017885677  0.018728564            6 
  217000    0.9190954   -7.9832965    46.432235  0.017831119  0.018664227            3 
  218000   0.91880569   -7.9965803    46.473568  0.017765125  0.018600282            5 
  219000   0.90181432   -7.9509012    46.739481  0.017785191  0.018537642            4 
  220000   0.92538878   -7.9799843      46.7023  0.017690265  0.018474845            4 
  221000   0.92328942   -8.0071017    46.597325  0.017570635  0.018411287            4 
  222000   0.90149996   -7.9736936    46.765538  0.017554631  0.018347665            6 
  223000    0.9129943   -8.0018318    46.838565  0.017503201  0.018284336            7 
  224000   0.93029971   -7.9999618    46.934264  0.017460663  0.018221989            2 
  225000    0.9066941   -8.0189024    46.980756   0.01740028  0.018158584            6 
  226000   0.90340108   -7.9958373    47.056047   0.01735105  0.018095777            4 
  227000   0.89763826   -7.9692365    47.154016  0.017310579  0.018032495            5 
  228000   0.90084847   -8.0738473    47.226245  0.017261054  0.017968954            4 
  229000   0.90239721   -7.9987668    47.287164  0.017207847  0.017905187            4 
  230000   0.89916427   -8.0464008    47.303713  0.017139027  0.017842546            8 
  231000   0.90510086   -8.0331474    47.319212  0.017070423  0.017780151            9 
  232000   0.91277734   -8.0556482    47.372672  0.017016046  0.017717389            4 
  233000   0.90077736   -8.0445615    47.467989  0.016977106  0.017654725            4 
  234000   0.90673953   -8.0740008     47.53174  0.016927258  0.017592344            3 
  235000   0.86604419    -8.022419    47.561761  0.016865873  0.017529272            3 
  236000    0.8894964   -8.0333933    47.547558  0.016789392  0.017467081            5 
  237000   0.89528982   -8.0663856    47.668577  0.016761103   0.01740541            5 
  238000   0.87473197   -8.0388185    47.801116  0.016737085  0.017344161            5 
  239000   0.90867251   -8.0756275    47.640522  0.016611061   0.01728275           14 
  240000   0.87892881   -8.0168568    47.907832  0.016634664   0.01722139            5 
  241000   0.87781298   -8.0309165    48.070045   0.01662173  0.017160164            4 
  242000   0.90493728   -8.0667036    47.977214  0.016521079  0.017099795            5 
  243000   0.86491857    -8.078231    48.034695  0.016472803  0.017039214           20 
  244000    0.8805141   -8.0910173    48.096672  0.016426459  0.016978427            7 
  245000    0.8939597   -8.1316844    48.333283  0.016439892  0.016918567            5 
  246000   0.88468307   -8.0972858    48.449661  0.016412487   0.01685982            8 
  247000   0.88159415   -8.1093322    48.492824  0.016360602  0.016801504            5 
  248000   0.87825663    -8.115385    48.451065    0.0162806  0.016743089            6 
  249000   0.85931793    -8.127794    48.593923  0.016263026  0.016684901            8 
  250000   0.88165382   -8.1327671    48.671904  0.016223968  0.016627338            6 
  251000   0.84745577   -8.1399069    48.783249  0.016196298  0.016569238            5 
  252000   0.86830134   -8.1458522    48.720641  0.016111323  0.016511489            9 
  253000   0.85799323   -8.1118081    48.849934  0.016090228  0.016454615            3 
  254000   0.85313952   -8.1652641    48.782646  0.016004805  0.016397589           10 
  255000    0.8613851   -8.1381408    48.961448  0.016000473    0.0163407            6 
  256000    0.8633139   -8.1297765    49.049202  0.015966537  0.016284343           12 
  257000   0.86790854   -8.1160377    49.048447  0.015904166  0.016228173           12 
  258000   0.84710682   -8.1779971    49.098504   0.01585869  0.016172668           15 
  259000    0.8644675   -8.2075957    49.083758  0.015792715  0.016116508           14 
  260000   0.85000814   -8.1488403     49.24479  0.015783587  0.016060887            9 
  261000   0.86158645    -8.183696     49.19864  0.015708378  0.016005642           12 
  262000   0.83614499   -8.1864395    49.260179  0.015667996  0.015950005           12 
  263000   0.85136439   -8.1772583     49.30911  0.015623926  0.015894361            5 
  264000   0.83661013   -8.1992744     49.37754  0.015586345  0.015839476            4 
  265000   0.82963345   -8.2006943    49.350958  0.015519169  0.015784424            4 
  266000   0.83288091   -8.1991761    49.569204  0.015529199   0.01572975            9 
  267000   0.84053942   -8.2032249    49.485212  0.015444823  0.015675259            4 
  268000   0.84983721   -8.2194789    49.478171  0.015385003  0.015620784           12 
  269000   0.83801093   -8.2229394    49.508019  0.015337057  0.015566417           23 
  270000   0.83155685     -8.24431    49.419211  0.015252843  0.015511921            5 
  271000   0.85812355   -8.2595788    49.601728  0.015252684  0.015457571            9 
  272000    0.8557039   -8.2283056    49.569142  0.015186624  0.015403599            7 
  273000   0.82171038   -8.2494494    49.623725  0.015147657  0.015349636            7 
  274000   0.83261962   -8.2232056    49.728178  0.015124142  0.015295798            6 
  275000   0.83191323   -8.2560206     49.82539  0.015098603  0.015242769            5 
  276000   0.82169596   -8.2266048    50.007039  0.015098744  0.015189969            9 
  277000    0.8413459   -8.2370054    50.128725  0.015080844  0.015137769            6 
  278000   0.81561648   -8.2337235    50.179603  0.015041847  0.015085979           12 
  279000   0.83506472   -8.2412693    50.112023  0.014967749  0.015034532            9 
  280000   0.81193887   -8.2804735     50.05061  0.014896015  0.014982795           16 
  281000    0.8122981   -8.2722565    50.120368  0.014863692  0.014930956           15 
  282000   0.81186359   -8.2741758      50.1917  0.014832063  0.014879424           17 
  283000   0.80456751   -8.2786501    50.158655  0.014769922  0.014828534           21 
  284000   0.83653318   -8.2900959    50.415509  0.014793283  0.014778079           21 
  285000   0.83288166   -8.3215563     50.43237  0.014746307  0.014727692           16 
  286000   0.83258009    -8.308906    50.257605  0.014643824  0.014677006           26 
  287000   0.79811837   -8.3030473    50.486404  0.014659235  0.014626515           11 
  288000   0.82917794   -8.3265283    50.415612  0.014587851  0.014576204           13 
  289000   0.80870625   -8.3422942    50.385546  0.014528704  0.014525728           23 
  290000   0.79142698   -8.3484078    50.414988  0.014487066  0.014475754           14 
  291000    0.8076904   -8.3409647    50.434677   0.01444292  0.014425787           19 
  292000    0.7890141   -8.3455284    50.507575  0.014414262  0.014375787           35 
  293000   0.79894675   -8.3672349    50.564839  0.014381353  0.014325978           33 
  294000   0.78368114   -8.3325588    50.618191   0.01434756  0.014276493           20 
  295000   0.80451459   -8.3318832     50.56627  0.014284257  0.014226973           39 
  296000   0.78895512   -8.3404112    50.554898  0.014232798  0.014177634           26 
  297000   0.78052299   -8.3721359    50.526545   0.01417692   0.01412836           27 
  298000   0.78776977   -8.3593679    50.690182  0.014175107   0.01407936           23 
  299000   0.79831747   -8.3656755    50.690593  0.014127813  0.014030276           15 
  300000   0.79060656   -8.3770207    50.717564  0.014088212  0.013981235           19 
  301000   0.80796009   -8.3469617    50.742735  0.014048376  0.013932558           24 
  302000   0.78064774   -8.3709221    50.727788  0.013997734  0.013884063           13 
  303000   0.79225838   -8.3441021    50.757709  0.013959766  0.013835372           28 
  304000    0.7883369   -8.3841163    50.655827  0.013885917  0.013786905           28 
  305000   0.77242596   -8.3695747    50.643243  0.013836952  0.013738495           19 
  306000   0.77939192   -8.4250599    50.697535  0.013806518  0.013689741           31 
  307000   0.76299894   -8.4143373    50.748502   0.01377538  0.013641051           29 
  308000   0.78063577   -8.3976552    50.702203  0.013718129   0.01359233           24 
  309000   0.76819308    -8.409508    50.802366  0.013700746  0.013544058           21 
  310000   0.77176192   -8.4217325    50.729282  0.013636904  0.013496136           17 
  311000   0.76585701   -8.4097542    50.821157  0.013617673  0.013448043           33 
  312000   0.75716857   -8.4419519      50.7072   0.01354359  0.013400355           29 
  313000   0.75222389   -8.4221375    50.813343  0.013528579  0.013352974           21 
  314000   0.75765894   -8.4383279    50.901716  0.013508948  0.013305938           33 
  315000   0.76058043   -8.4321434    51.000418  0.013492174   0.01325902           27 
  316000   0.79748784   -8.4329422    51.050512  0.013462688  0.013212239           28 
  317000   0.73584523   -8.4211969    50.884971  0.013376701  0.013165647           27 
  318000   0.75658181   -8.4572363    50.934303  0.013347564  0.013119115           46 
  319000   0.78026241   -8.4420511    50.948785  0.013309505   0.01307264           49 
  320000   0.74664893   -8.4643396    51.015736  0.013285348  0.013026523           53 
  321000   0.74934222   -8.4672251    50.938325  0.013223864  0.012980392           24 
  322000    0.7438886   -8.4621708    51.106613  0.013226349  0.012934415           23 
  323000   0.75455344   -8.4811763    50.903467  0.013132989   0.01288834           36 
  324000   0.75552136   -8.4906258    50.946677  0.013103569  0.012842269           16 
  325000   0.75302273   -8.4958263    50.797288  0.013024946  0.012795977           42 
  326000    0.7373912    -8.495693    50.974965   0.01303041  0.012750061            7 
  327000   0.74126186   -8.4991076    51.077705  0.013016744  0.012704496           16 
  328000   0.74460565   -8.4909126    50.945545  0.012943482  0.012658808           34 
  329000   0.74924178   -8.5093723    50.975662  0.012911769  0.012613319           28 
  330000   0.74085604   -8.5206106    50.975312  0.012872554  0.012568151           17 
  331000   0.72718221   -8.5100003     51.12348  0.012870967  0.012523123           39 
  332000   0.76029854    -8.511498    51.022776  0.012806922  0.012478464           47 
  333000   0.73040795   -8.5054424    51.077585  0.012782179  0.012433748           27 
  334000   0.72321391   -8.5215169    51.110623  0.012752151  0.012389108           36 
  335000   0.73849324   -8.5004246    51.084125  0.012707494   0.01234452           24 
  336000   0.74278313   -8.5222034    50.963429  0.012639739  0.012299907           28 
  337000   0.71750458   -8.5273189    50.972699  0.012604525  0.012255492           27 
  338000   0.73666438   -8.5169468    51.058497  0.012588387  0.012211317           37 
  339000   0.74529847   -8.5354901    51.103164  0.012562233  0.012167271           26 
  340000   0.72637937   -8.5523192    51.102564  0.012525138  0.012123537           44 
  341000   0.71416979   -8.5512626    51.144229   0.01249859  0.012079883           38 
  342000   0.72115185   -8.5421642    50.970125  0.012419621  0.012036275           74 
  343000   0.73383216   -8.5562835    51.006776  0.012392317  0.011992773           76 
  344000   0.71321201   -8.5563357    51.032942  0.012362631  0.011949464           71 
  345000     0.727814   -8.5596706    51.049342  0.012330759  0.011906415           80 
  346000   0.71933401   -8.5726498     51.12628  0.012313651  0.011863537           85 
  347000   0.71037943    -8.566714    51.161589  0.012286645  0.011820631           88 
  348000   0.70853713   -8.5624006    51.145137  0.012247399  0.011778064           90 
  349000   0.71002796   -8.5756728    51.007363  0.012179409  0.011735682           88 
  350000    0.7203375   -8.5768196    51.118582  0.012171091  0.011693488           85 
  351000   0.70224974   -8.6019665    51.062303  0.012123054  0.011651276           97 
  352000   0.69733603   -8.6337662    51.045403  0.012084612  0.011609171           74 
  353000   0.69632077   -8.6236215    51.025044  0.012045572   0.01156729           87 
  354000   0.69836925   -8.6165477    51.067921  0.012021639  0.011525561           87 
  355000   0.70087294    -8.615762    51.010735  0.011974351  0.011483831           94 
  356000   0.70124291   -8.6297012    50.983934  0.011934442  0.011442166          102 
  357000   0.70292026   -8.6379098    50.998572  0.011904429   0.01140072           99 
  358000   0.69952475   -8.6356448    50.994246  0.011870169   0.01135936           80 
  359000   0.68581998   -8.6381122    51.123529  0.011867114  0.011318217           76 
  360000   0.68085566   -8.6190384    51.153548  0.011841099  0.011277265           96 
  361000   0.69465827   -8.6072612     51.03156  0.011780138  0.011236384           99 
  362000    0.6773271   -8.6347628    51.119824  0.011767915   0.01119575           98 
  363000   0.68403407   -8.5998575    51.131511   0.01173818  0.011155206           88 
  364000   0.68201619    -8.631236    51.058577  0.011689235  0.011114908          110 
  365000   0.67412531   -8.6195164    51.167655  0.011682113   0.01107467          106 
  366000   0.68321565   -8.6599361    50.983737  0.011608319  0.011034591           81 
  367000   0.69503533   -8.6488344    51.251608  0.011637513  0.010994692           91 
  368000   0.66534801   -8.6802659     51.07329  0.011565509  0.010954996           89 
  369000   0.69169044   -8.6721982    51.051019  0.011529137  0.010915345           89 
  370000   0.68855437   -8.6805213    51.033887  0.011494119   0.01087587          108 
  371000     0.682279   -8.6717157    51.059182  0.011468819  0.010836282           99 
  372000   0.67383579   -8.6724604    51.035995  0.011432795  0.010796842          103 
  373000   0.67547814   -8.6701181    51.050055  0.011405285  0.010757687           78 
  374000   0.66797935   -8.6630363    51.040623  0.011372688  0.010718631           88 
  375000   0.66524795   -8.6833767    50.963775  0.011325283   0.01067958           81 
  376000   0.66632209   -8.6967305    51.027415  0.011309267  0.010640846           79 
  377000   0.65778341    -8.696258    51.088555  0.011292784  0.010602246           83 
  378000   0.67690986   -8.7061245    51.074229  0.011259751  0.010563756           88 
  379000   0.66415274   -8.7141434    51.011963  0.011216351  0.010525454          116 
  380000   0.64784902   -8.7194386    51.001752  0.011184595   0.01048734           96 
  381000   0.66661824   -8.6974747    51.032496  0.011161963  0.010449351          100 
  382000   0.64834546   -8.7020655    51.047678  0.011136055  0.010411527           78 
  383000   0.64865186   -8.7191632    51.011304  0.011099065  0.010373825          125 
  384000   0.66179853   -8.7233797    51.011958  0.011070303  0.010336286           91 
  385000    0.6480463   -8.7325667    51.077698  0.011055779  0.010298975          120 
  386000   0.64285143   -8.7583608      50.9963  0.011009564  0.010261719          126 
  387000   0.66277175   -8.7474093    50.993284  0.010980466  0.010224608          106 
  388000   0.65667568   -8.7499801    50.918192  0.010936038  0.010187566           93 
  389000   0.64496462   -8.7291948    50.971522  0.010919349  0.010150775           99 
  390000   0.64789015   -8.7387736    50.918786  0.010880082  0.010114064           89 
  391000   0.65448076   -8.7302513    51.062435  0.010882872  0.010077348          104 
  392000   0.64087742    -8.754198    51.025234  0.010847201  0.010040952          103 
  393000    0.6459101   -8.7359729    51.012632  0.010816928  0.010004625           95 
  394000   0.63009873   -8.7399273    50.957333  0.010777778 0.0099685008          101 
  395000   0.63700262   -8.7570431    50.942643  0.010747393 0.0099326561          100 
  396000   0.62631895   -8.7666918     50.92337  0.010716197 0.0098967558          137 
  397000   0.62943443   -8.7705682    51.018339  0.010709139 0.0098610405          102 
  398000   0.63891463   -8.7515921    50.935472  0.010664881 0.0098253229           85 
  399000     0.632695   -8.7742195    50.902981  0.010631366 0.0097898654           92 
  400000   0.63075834   -8.7545817    51.039502   0.01063323 0.0097544957           94 
  401000   0.62413356   -8.7612415    50.931398  0.010584247 0.0097192362          106 
  402000   0.62918143   -8.7812211    50.923472  0.010556275 0.0096841241           88 
  403000   0.62574403   -8.7863508    50.965096  0.010538688 0.0096490919           88 
  404000   0.62379721   -8.7919541    50.873025  0.010493611 0.0096142509           92 
  405000   0.62418247   -8.7972687    50.778695  0.010448291 0.0095794082           89 
  406000   0.62655239   -8.8036984    50.818344  0.010430695 0.0095447474           90 
  407000   0.61051694   -8.7999538     50.99015  0.010440244 0.0095102265          100 
  408000   0.61537641   -8.7969993    50.819952  0.010379892 0.0094758432           84 
  409000   0.62367091   -8.8197024    50.780102  0.010346394 0.0094416463           90 
  410000    0.6128504   -8.8064105    50.795735  0.010324336 0.0094076087           93 
  411000   0.62634559   -8.8046147     50.90094  0.010320547 0.0093736267           79 
  412000   0.63095803   -8.7970529    50.829927  0.010281134 0.0093398784          106 
  413000    0.6120266   -8.8315733     50.87644  0.010265625 0.0093062667           78 
  414000   0.60869356    -8.823433    50.786023  0.010222629 0.0092728484           86 
  415000   0.60503531   -8.8044136    50.729286  0.010186604 0.0092394028           99 
  416000   0.60334391     -8.80125    50.770069  0.010170286 0.0092062146           83 
  417000   0.58867237   -8.8170787    50.773453  0.010146573 0.0091730985          102 
  418000   0.58999624   -8.8240673    50.678256  0.010103321 0.0091400489          108 
  419000   0.60380844   -8.8087374     50.74116  0.010091718 0.0091072009          100 
  420000   0.57938271   -8.8133456    50.810717  0.010081491 0.0090744312           77 
  421000   0.59966436   -8.8225415    50.809401  0.010057284 0.0090418945           99 
  422000   0.60500249   -8.8490758    50.706655  0.010013163 0.0090094458          105 
  423000   0.58370623   -8.8296041    50.735112  0.009995097 0.0089771239           96 
  424000   0.58800595   -8.8502019    50.756321  0.009975692 0.0089450597           86 
  425000   0.58443805   -8.8420028     50.77852 0.0099565726 0.0089131347           92 
  426000   0.58596058   -8.8564669    50.735318 0.0099247492 0.0088812417           80 
  427000   0.58690857   -8.8316848    50.778367 0.0099099078 0.0088495468          105 
  428000   0.58630334   -8.8542587    50.697785 0.0098710641 0.0088179743           78 
  429000   0.58571885   -8.8649547    50.686559  0.009845874 0.0087864689           92 
  430000    0.5885573   -8.8631732    50.750473  0.009835363 0.0087551231          104 
  431000   0.59509726   -8.8723485    50.800045 0.0098221277 0.0087239453          102 
  432000   0.58089527   -8.8800702    50.702618 0.0097805977 0.0086928542           90 
  433000   0.58062804   -8.8449371    50.741471 0.0097654871 0.0086619189           96 
  434000   0.57763374   -8.8630524    50.726281 0.0097400692 0.0086311147           83 
  435000    0.5813113   -8.8596996    50.804502 0.0097326631 0.0086005567          115 
  436000   0.56778395   -8.8587956    50.614188 0.0096739655 0.0085699908          107 
  437000   0.56374288   -8.8885536    50.675932 0.0096636026 0.0085395134           99 
  438000   0.57189189     -8.89314    50.691588 0.0096445183 0.0085092311           87 
  439000   0.56373221   -8.8755385    50.713901 0.0096267845 0.0084790872           96 
  440000   0.56477074   -8.8844139    50.659753 0.0095946503 0.0084490734           90 
  441000   0.57158531   -8.9098392    50.634423 0.0095681071 0.0084191677           99 
  442000   0.56667561   -8.9091924    50.654159 0.0095501807 0.0083892953           89 
  443000   0.55915619   -8.9042849    50.657834 0.0095293141 0.0083595932          106 
  444000     0.551037   -8.9050881    50.652631 0.0095068753 0.0083300274           80 
  445000   0.54446941   -8.8826871    50.683252 0.0094912457 0.0083006329          106 
  446000   0.55687064   -8.9128881     50.63699 0.0094613211 0.0082713552          110 
  447000    0.5528732   -8.9054009    50.711442 0.0094540346 0.0082422248           92 
  448000   0.54410055   -8.9046787    50.692354 0.0094293813 0.0082132279           95 
  449000   0.54086162   -8.9245394     50.68558 0.0094071233 0.0081842811          109 
  450000   0.54133164   -8.9353484    50.485949 0.0093492497 0.0081555233          111 
  451000   0.55438459   -8.8982236    50.631577 0.0093554281 0.0081268173           97 
  452000   0.53957009   -8.9301462    50.459565 0.0093030172 0.0080982744           93 
  453000   0.52904088   -8.9370247     50.61589  0.009311238 0.0080698637           90 
  454000   0.54128744   -8.9315737    50.561793  0.009280799 0.0080416626          115 
  455000   0.53517343   -8.9303124    50.615146 0.0092701733 0.0080135594          156 
  456000   0.54878235     -8.94497    50.571596 0.0092418852 0.0079856002          108 
  457000   0.53448434   -8.9376791    50.551892 0.0092180692 0.0079577781           92 
  458000    0.5285658   -8.9262114    50.603679 0.0092073651 0.0079300472          100 
  459000   0.53486587    -8.940819    50.606737 0.0091878608 0.0079024431           86 
  460000   0.52618697   -8.9421314    50.625339 0.0091712571 0.0078749619          115 
  461000   0.53039252   -8.9461333    50.611846 0.0091489237 0.0078475485          112 
  462000   0.52983679   -8.9327762    50.566638 0.0091209665 0.0078202565           77 
  463000   0.53539523   -8.9526324    50.538816 0.0090962591 0.0077931315          101 
  464000   0.52929744   -8.9358318    50.550297 0.0090787171 0.0077661366          106 
  465000   0.52090869   -8.9557076    50.594526 0.0090671194 0.0077391944          107 
  466000   0.52816191   -8.9669692    50.573946 0.0090439818 0.0077124147           85 
  467000   0.51808881   -8.9600904    50.455636 0.0090035039 0.0076857398          100 
  468000   0.52202245   -8.9649942    50.560301 0.0090029026 0.0076592295           96 
  469000   0.51185579   -8.9572113    50.487849 0.0089708332 0.0076328064           81 
  470000   0.51182459   -8.9619334    50.560246 0.0089645825 0.0076064988          102 
  471000   0.51863608   -8.9612066    50.525536 0.0089394083 0.0075802457           70 
  472000   0.51576111   -8.9885192    50.514241 0.0089184748  0.007554172          106 
  473000   0.51589763   -8.9817667    50.494619 0.0088961626 0.0075281721          109 
  474000   0.51391326   -8.9613511    50.527591  0.008883191 0.0075023012          117 
  475000   0.51833832   -8.9901187    50.472241 0.0088547792 0.0074765516           99 
  476000   0.50508266   -8.9739951    50.513223 0.0088433513 0.0074508988          109 
  477000   0.50337394   -8.9906666    50.491234 0.0088209703  0.007425356          107 
  478000   0.50740754   -9.0038631    50.493493 0.0088029103 0.0073999743          109 
  479000   0.50674396   -8.9931248    50.444682 0.0087760406 0.0073746395          120 
  480000   0.49141071   -8.9876306    50.500745 0.0087674905 0.0073494585          102 
  481000   0.48637093   -9.0103342    50.455397 0.0087414063 0.0073243502          100 
  482000   0.49352357   -8.9952296     50.48265 0.0087279823   0.00729934          124 
  483000   0.49465025    -8.992037    50.449807 0.0087042456  0.007274395           92 
  484000   0.49961791   -9.0089819     50.44822 0.0086859882 0.0072496225          148 
  485000   0.48257802   -9.0036162    50.395868 0.0086590839 0.0072249392          105 
  486000   0.48978681   -9.0081845     50.50131 0.0086593467 0.0072003704          144 
  487000   0.48238832   -9.0268682    50.432411  0.008629776 0.0071758914           96 
  488000   0.48301527   -9.0155319    50.367991 0.0086010913 0.0071515255          109 
  489000   0.48962521   -9.0251682    50.451288 0.0085976973 0.0071272486          136 
  490000   0.48297606   -9.0193311    50.509913 0.0085901212 0.0071031214          103 
  491000   0.49406756   -9.0293801    50.405438 0.0085548945 0.0070791005          120 
  492000   0.48541052   -9.0251738    50.295246 0.0085188425 0.0070551443          107 
  493000   0.47496568   -9.0190996    50.281299 0.0084992053   0.00703133          107 
  494000   0.47248223   -9.0208598    50.326658 0.0084896521 0.0070075462           76 
  495000   0.47687829   -9.0408749    50.387249 0.0084827018   0.00698394           88 
  496000   0.48170364   -9.0261299    50.331944 0.0084563078 0.0069603896          106 
  497000   0.47234904    -9.028193    50.321859 0.0084376021 0.0069369222          111 
  498000   0.48297871    -9.033808    50.305143  0.008417862 0.0069135755          139 
  499000   0.46473232   -9.0347393    50.363086 0.0084106691 0.0068903558           83 
  500000   0.46351035    -9.057383    50.433269 0.0084055449 0.0068672337          100 
  501000     0.461614   -9.0467729    50.390022 0.0083815739 0.0068441715          140 
  502000   0.46730156   -9.0486745    50.419619 0.0083697906 0.0068212432          101 
  503000   0.47368439   -9.0590299    50.361654 0.0083435478 0.0067983729          123 
  504000   0.46583858   -9.0595601    50.317477 0.0083196887  0.006775593          116 
  505000   0.46896195   -9.0514136    50.333995 0.0083059398 0.0067529481           99 
  506000   0.46786129   -9.0575178    50.263179 0.0082778622 0.0067304105          106 
  507000     0.457764   -9.0718845    50.423955 0.0082879611 0.0067079303          115 
  508000   0.45955781   -9.0465948    50.275967 0.0082473699 0.0066855502          104 
  509000    0.4469027   -9.0456779    50.253696 0.0082275207 0.0066632407          118 
  510000   0.44436224   -9.0798464    50.361479 0.0082289999  0.006641056          101 
  511000   0.45218138   -9.0619074    50.257176 0.0081958864 0.0066189496          137 
  512000   0.44664603    -9.066801    50.283724 0.0081841998 0.0065969429           92 
Loop time of 1277.84 on 48 procs for 500000 steps with 4000 atoms

Performance: 67614.256 tau/day, 391.286 timesteps/s
99.4% CPU use with 48 MPI tasks x no OpenMP threads

MPI task timing breakdown:
Section |  min time  |  avg time  |  max time  |%varavg| %total
---------------------------------------------------------------
Pair    | 88.361     | 94.998     | 102.65     |  32.2 |  7.43
Neigh   | 8.4956     | 8.9415     | 9.3304     |   6.6 |  0.70
Comm    | 79.576     | 86.435     | 93.336     |  35.5 |  6.76
Output  | 0.92519    | 0.92607    | 0.94931    |   0.4 |  0.07
Modify  | 1069.9     | 1074.8     | 1079.6     |   6.0 | 84.11
Other   |            | 11.77      |            |       |  0.92

Nlocal:        83.3333 ave          90 max          77 min
Histogram: 2 0 3 13 8 10 5 4 0 3
Nghost:        2322.83 ave        2339 max        2302 min
Histogram: 1 0 6 8 4 9 2 9 5 4
Neighs:        15867.8 ave       17297 max       14142 min
Histogram: 1 0 3 6 10 12 6 4 2 4
FullNghs:      31733.8 ave       34495 max       29261 min
Histogram: 2 0 5 9 12 9 4 4 2 1

Total # of neighbors = 1523221
Ave neighs/atom = 380.80525
Neighbor list builds = 26646
Dangerous builds = 0

#clear
#
#next RN
#
#jump SELF
Total wall time: 0:21:21
