
units lj                  # Use reduced LJ style units
atom_style atomic         # Uncharged point particles
atom_modify map hash      # Needed for indexing of clusters etc
                          # Used to be able to find where atoms are in relation to each other.

lattice fcc 1.0 spacing 1 1 1
Lattice spacing in x,y,z = 1.5874011 1.5874011 1.5874011
region box block 0 10 0 10 0 10 units lattice
create_box 2 box
Created orthogonal box = (0.0000000 0.0000000 0.0000000) to (15.874011 15.874011 15.874011)
  3 by 4 by 4 MPI processor grid
create_atoms 1 box
Created 4000 atoms
  using lattice units in orthogonal box = (0.0000000 0.0000000 0.0000000) to (15.874011 15.874011 15.874011)
  create_atoms CPU = 0.002 seconds
set type 1 type/fraction 2 0.3 78393
Setting atom values ...
  1229 settings made for type/fraction
mass 1 1.0
mass 2 1.0
pair_style lj/cut  3.5
pair_modify tail  yes
pair_coeff 1  1  1.0  1.0   # Intearaction between 1 and 1 set with epsilon = 1 and sigma = 1
pair_coeff 1  2  1.5  0.8
pair_coeff 2  2  0.5  0.88

write_data data.0
System init for write_data ...
Neighbor list info ...
  update every 1 steps, delay 10 steps, check yes
  max neighbors/atom: 2000, page size: 100000
  master list distance cutoff = 3.8
  ghost atom cutoff = 3.8
  binsize = 1.9, bins = 9 9 9
  1 neighbor lists, perpetual/occasional/extra = 1 0 0
  (1) pair lj/cut, perpetual
      attributes: half, newton on
      pair build: half/bin/atomonly/newton
      stencil: half/bin/3d
      bin: standard
WARNING: Not all mixed pair coeffs generated from mixing. Use write_data with 'pair ij' option to store all pair coeffs. (../write_data.cpp:312)


#############################
#   M E L T   S Y S T E M   #
#############################

velocity all create 2.4 9622624 mom yes dist gaussian # Assign velocities
                                                    # Temperature 2.4, random number seed, zero linear momentum
                                                                                # Gaussian distribution

timestep 0.002   # simulation timestep
thermo 1000       # output thermodynamic data every 1000 steps bf 100

# Define a fix  in this case with index 1 applied to all
# particles in the simulation. This fix is for simulations
# in the anisotropic NPT ensemble. Note that we use the MTK
# correction.
fix 1 all npt temp 2.4 2.4 0.1 iso 5.68 5.68 0.5 mtk yes tchain 5 pchain 5 # Use NPT ensemble
                                                                         # Set temperature and pressure and damping
                                                                         # Numbers of thermostats in chain and in barostat
run 10000          # run for 10000 steps
Per MPI rank memory allocation (min/avg/max) = 3.642 | 3.644 | 3.648 Mbytes
Step Temp E_pair E_mol TotEng Press Volume 
       0          2.4   -6.4318281            0   -2.8327281   -3.9834666         4000 
    1000    2.4085939   -4.9931941            0   -1.3812066    5.6586207    4152.9685 
    2000    2.4088655   -5.0529778            0   -1.4405829     5.248838    4158.9219 
    3000    2.3765356   -4.9679815            0   -1.4040694    5.5145322    4167.9731 
    4000    2.3538383   -4.9949092            0   -1.4650345       5.4173    4162.6418 
    5000    2.3572687   -4.9720716            0   -1.4370526    6.0205623    4130.6755 
    6000    2.3660316   -4.9618593            0   -1.4136991    5.7665293    4152.1169 
    7000    2.3947041    -5.014824            0   -1.4236659      5.53178    4154.5311 
    8000    2.3773816   -4.9395998            0   -1.3744189    5.5585582    4183.6628 
    9000    2.3617289   -4.9637972            0   -1.4220895    5.6239681    4165.8866 
   10000    2.3546906   -4.9227886            0   -1.3916356    5.6422193    4179.2563 
Loop time of 2.40782 on 48 procs for 10000 steps with 4000 atoms

Performance: 717662.098 tau/day, 4153.137 timesteps/s
99.6% CPU use with 48 MPI tasks x no OpenMP threads

MPI task timing breakdown:
Section |  min time  |  avg time  |  max time  |%varavg| %total
---------------------------------------------------------------
Pair    | 1.0249     | 1.1048     | 1.2065     |   3.7 | 45.89
Neigh   | 0.20027    | 0.21057    | 0.22688    |   1.2 |  8.75
Comm    | 0.74124    | 0.82597    | 0.90588    |   4.8 | 34.30
Output  | 0.00024001 | 0.00024484 | 0.00031942 |   0.0 |  0.01
Modify  | 0.21608    | 0.25137    | 0.28089    |   3.0 | 10.44
Other   |            | 0.01482    |            |       |  0.62

Nlocal:        83.3333 ave          94 max          73 min
Histogram: 1 1 6 7 11 7 10 3 0 2
Nghost:        1597.17 ave        1619 max        1573 min
Histogram: 3 4 4 3 10 8 2 4 3 7
Neighs:        9138.73 ave       10528 max        7992 min
Histogram: 1 5 8 6 8 9 4 3 2 2

Total # of neighbors = 438659
Ave neighs/atom = 109.66475
Neighbor list builds = 907
Dangerous builds = 212

# Equilibrate just above the melting temperature to avoid step fn in T

fix 1 all npt temp 1.25 1.25 0.1 iso 5.68 5.68 0.5 mtk yes tchain 5 pchain 5
run 2000
Per MPI rank memory allocation (min/avg/max) = 3.643 | 3.645 | 3.649 Mbytes
Step Temp E_pair E_mol TotEng Press Volume 
   10000    2.3546906   -4.9227886            0   -1.3916356    5.6422193    4179.2563 
   11000    1.2520936   -6.8486199            0   -4.9709491    5.7053693    3341.0712 
   12000    1.2437361    -6.905659            0   -5.0405212    5.4331424    3336.3241 
Loop time of 0.562026 on 48 procs for 2000 steps with 4000 atoms

Performance: 614918.265 tau/day, 3558.555 timesteps/s
99.6% CPU use with 48 MPI tasks x no OpenMP threads

MPI task timing breakdown:
Section |  min time  |  avg time  |  max time  |%varavg| %total
---------------------------------------------------------------
Pair    | 0.23745    | 0.26911    | 0.30013    |   2.2 | 47.88
Neigh   | 0.036214   | 0.039214   | 0.042299   |   0.7 |  6.98
Comm    | 0.17036    | 0.20417    | 0.24095    |   2.8 | 36.33
Output  | 5.1625e-05 | 5.2766e-05 | 6.9681e-05 |   0.0 |  0.01
Modify  | 0.041803   | 0.044827   | 0.047459   |   0.7 |  7.98
Other   |            | 0.004656   |            |       |  0.83

Nlocal:        83.3333 ave          91 max          75 min
Histogram: 1 6 4 5 5 7 8 2 8 2
Nghost:        1855.69 ave        1891 max        1824 min
Histogram: 2 5 9 7 3 6 5 5 2 4
Neighs:        11460.4 ave       13119 max       10133 min
Histogram: 4 4 10 1 5 12 6 3 2 1

Total # of neighbors = 550098
Ave neighs/atom = 137.52450
Neighbor list builds = 143
Dangerous builds = 9

#############################
# L I N E A R  Q U E N C H  #
#############################

# Define solid atoms. This closely follows ten Wolde  Ruiz-Montero and Frenkel  Faraday Discuss  1996  104  93-110
# Compute components of the per-atom q6 vector
compute q6 all orientorder/atom degrees 1 6 components 6 nnn NULL cutoff 1.3 # compute the Q6 parameter.
                                                                             # Use all neighbours within 1.3 unit cell.

# get number of connections
compute coord_number all coord/atom orientorder q6 0.5

# An atom is solid if it has 8 or more connections (of a possible 14)
variable is_solid atom c_coord_number>=8
group solid dynamic all var is_solid    # Must be dynamic to update
dynamic group solid defined

# do clustering
compute cluster solid cluster/atom 1.3 # Create a cluster where all atoms within are solid and max 1.3 units from another member

# define chunks one chunk per cluster
compute clus_chunks solid chunk/atom c_cluster nchunk every compress yes  # Says which atoms are in which chunk

# count the size of each chunk
compute size_chunks solid property/chunk clus_chunks count


# Find the maximum entry in the vector of chunk sizes
variable max_n equal max(c_size_chunks)


# Thermo style which includes this variable
# thermo_style custom step temp pe vol v_max_n

thermo ${N}  # Print the thermo information every 100 steps
thermo 1000  

# Reset the npt fix at a lower temperature (below freezing)
fix 1  all npt temp  ${temp} ${temp}  0.1  iso  5.68  5.68  0.5  mtk yes tchain  5  pchain  5
fix 1  all npt temp  0.45 ${temp}  0.1  iso  5.68  5.68  0.5  mtk yes tchain  5  pchain  5
fix 1  all npt temp  0.45 0.45  0.1  iso  5.68  5.68  0.5  mtk yes tchain  5  pchain  5

dump dmp2 all dcd ${N} traj.dcd
dump dmp2 all dcd 1000 traj.dcd


compute msd all msd com yes
variable twopoint equal c_msd[4]/6/(step*dt+1.0e-6)
fix 9 all vector 10 c_msd[4]
variable fit equal slope(f_9)/6/(10*dt)
thermo_style custom step temp pe c_msd[4] v_twopoint v_fit v_max_n

fix 1 all npt temp 1.25 ${temp} 0.1 iso 5.68 5.68 0.5 mtk yes tchain 5 pchain 5
fix 1 all npt temp 1.25 0.45 0.1 iso 5.68 5.68 0.5 mtk yes tchain 5 pchain 5
run 5000000 # 5000000  # Run for this many steps
Neighbor list info ...
  update every 1 steps, delay 10 steps, check yes
  max neighbors/atom: 2000, page size: 100000
  master list distance cutoff = 3.8
  ghost atom cutoff = 3.8
  binsize = 1.9, bins = 8 8 8
  4 neighbor lists, perpetual/occasional/extra = 1 3 0
  (1) pair lj/cut, perpetual
      attributes: half, newton on
      pair build: half/bin/atomonly/newton
      stencil: half/bin/3d
      bin: standard
  (2) compute orientorder/atom, occasional
      attributes: full, newton on
      pair build: full/bin/atomonly
      stencil: full/bin/3d
      bin: standard
  (3) compute coord/atom, occasional
      attributes: full, newton on
      pair build: full/bin/atomonly
      stencil: full/bin/3d
      bin: standard
  (4) compute cluster/atom, occasional
      attributes: full, newton on
      pair build: full/bin/atomonly
      stencil: full/bin/3d
      bin: standard
Per MPI rank memory allocation (min/avg/max) = 9.809 | 9.814 | 9.820 Mbytes
Step Temp PotEng c_msd[4] v_twopoint v_fit v_max_n 
   12000    1.2437361    -6.905659            0            0 8.3333333e+20            1 
   13000    1.2502347   -6.8718915   0.52468298 0.0033633523  0.042878253            2 
   14000    1.2721914   -6.8195239    1.0189672 0.0060652808  0.041961484            1 
   15000    1.2650858   -6.8621959    1.4765315 0.0082029524  0.041212809            1 
   16000    1.2221177   -6.8691652    1.9476441  0.010143979  0.040059109            3 
   17000     1.259921   -6.8670523     2.426887  0.011896504  0.039915532            1 
   18000    1.2427961   -6.8806613    2.9100914  0.013472645  0.039659179            2 
   19000    1.2384783    -6.872782     3.336429   0.01463346  0.039501753            3 
   20000    1.2145386   -6.8681553    3.7556241  0.015648433   0.03912645            1 
   21000    1.2591899   -6.8760602    4.2686057  0.016938911  0.038918418            1 
   22000    1.2621012   -6.8868726    4.7847111  0.018123905  0.038952993            2 
   23000    1.2459201   -6.8726672    5.3443073  0.019363432  0.039227494            1 
   24000    1.2543087    -6.939554    5.8103359  0.020174777  0.039558621            2 
   25000    1.2523605   -6.8740872    6.3269852   0.02108995   0.03978367            1 
   26000    1.2406189   -6.8584633    6.8047288  0.021810028  0.039988339            2 
   27000    1.2753961    -6.884341    7.2297879   0.02231416  0.040056792            2 
   28000    1.2696642   -6.8951084    7.6505406  0.022769466  0.040039656            2 
   29000    1.2305187   -6.8942595    8.0598793  0.023160572  0.039857953            1 
   30000    1.2414352   -6.8690291    8.5829967  0.023841657  0.039711058            1 
   31000    1.2453736   -6.8753413    9.0064653  0.024210928  0.039562229            2 
   32000    1.2527861   -6.8578099     9.411347  0.024508716  0.039422236            2 
   33000    1.2440152   -6.8888582    9.8665502   0.02491553  0.039273549            3 
   34000    1.2729673   -6.8388129    10.244107  0.025108106  0.039116435            1 
   35000    1.2288097   -6.8668233    10.729774   0.02554708  0.038956358            2 
   36000    1.2491853   -6.8986152    11.082475  0.025653876  0.038788102            3 
   37000    1.2554239   -6.8680256    11.633601  0.026201803  0.038636362            1 
   38000     1.256723   -6.9152039    12.145845  0.026635625  0.038602937            1 
   39000    1.2477473     -6.86455    12.561189  0.026840147  0.038565655            3 
   40000    1.2719106   -6.8830995    13.157621  0.027411709  0.038572689            1 
   41000    1.2703062   -6.8984164    13.470887  0.027379851  0.038575149            1 
   42000    1.2885587   -6.8801081    13.972672  0.027723554  0.038533956            2 
   43000    1.2607822   -6.9057171    14.503158  0.028106895  0.038562207            1 
   44000    1.2286381   -6.8833291    14.976316  0.028364234  0.038591947            3 
   45000     1.261182   -6.8981381    15.448562  0.028608448  0.038618841            2 
   46000    1.2252674   -6.9069316    15.962321  0.028917247  0.038631165            2 
   47000    1.2131187   -6.8456583    16.384051  0.029049735  0.038644149            1 
   48000    1.2562925   -6.9203245    16.831148  0.029220742  0.038641906            1 
   49000    1.2310909   -6.8821233    17.318569  0.029453348  0.038654671            4 
   50000    1.2434435    -6.890437    17.770431  0.029617385  0.038676144            1 
   51000    1.2817153   -6.9093327    18.197118  0.029733852  0.038685632            3 
   52000    1.2387902   -6.8931426    18.763734  0.030070087  0.038684919            1 
   53000    1.2329913    -6.846195    19.392588   0.03049149  0.038730196            1 
   54000    1.2356994   -6.9289369    19.863502  0.030653552  0.038788854            1 
   55000    1.2164391   -6.8870968    20.458699  0.030998029  0.038860032            1 
   56000    1.2276118   -6.8870501    20.974831  0.031212546  0.038940787            2 
   57000    1.2458566   -6.8902045    21.494842  0.031425207  0.039019152            1 
   58000    1.2326614   -6.8847716    21.952001  0.031540231  0.039094248            2 
   59000    1.2421045   -6.8937314    22.357944  0.031579016  0.039149125            1 
   60000    1.2427252   -6.8760868     22.83985  0.031722014  0.039200018            1 
   61000    1.2405849   -6.9094125    23.437879  0.032018961  0.039261144            2 
   62000    1.2482253   -6.8882424    23.969001  0.032216399  0.039342062            2 
   63000    1.2311422   -6.9381322    24.450335  0.032341713  0.039415136            1 
   64000    1.2523036   -6.9104528    24.887658  0.032405805  0.039480539            2 
   65000    1.2554164   -6.9432577    25.094081  0.032171899  0.039518493            1 
   66000    1.2463057   -6.9135821    25.733025  0.032491193  0.039539972            1 
   67000    1.2426998    -6.929557    26.403797  0.032840543  0.039577811            1 
   68000    1.2241415   -6.8884347    26.875223  0.032935322   0.03962565            1 
   69000    1.2453356   -6.8926995    27.413862  0.033108529  0.039683435            2 
   70000     1.232293   -6.8877876    27.737042  0.033020288  0.039726911            1 
   71000    1.2502955   -6.8825182    28.246909  0.033153649  0.039755998            2 
   72000    1.2500201   -6.8591177    28.813534  0.033348997  0.039781973            3 
   73000    1.2416289   -6.8939244    29.248512  0.033388712  0.039806349            1 
   74000    1.2379905   -6.8855757    29.415167  0.033125188  0.039806611            1 
   75000    1.2370861   -6.8632929     29.88032  0.033200356  0.039782202            1 
   76000    1.2253721   -6.9003424    30.440847  0.033378122  0.039771097            2 
   77000    1.2091536   -6.9164131    30.833891  0.033370012  0.039757958            1 
   78000    1.2397733   -6.8645528    31.512822  0.033667545  0.039754865            1 
   79000    1.2481486   -6.8857062    32.126006  0.033888192  0.039773952            3 
   80000     1.229773   -6.9256812    32.547598  0.033903748  0.039799088            2 
   81000    1.2527675   -6.8624397    33.245239  0.034202921   0.03984307            1 
   82000     1.240694   -6.9046495    33.598307   0.03414462   0.03986823            1 
   83000    1.2416981   -6.9027908    34.141636  0.034278751  0.039883628            1 
   84000    1.2481078   -6.8898861    34.160836  0.033889718  0.039888284            1 
   85000    1.2433144   -6.8988748    34.637832  0.033958659   0.03987269            1 
   86000    1.2266294   -6.8901152    35.112895  0.034024123  0.039853521            1 
   87000    1.2561692   -6.8805078    35.639852  0.034137789  0.039829883            2 
   88000    1.2570635   -6.9008341    36.080691   0.03416732  0.039819812            1 
   89000     1.236695    -6.927508    36.401111  0.034083437  0.039806996            2 
   90000      1.22916   -6.9214525    37.057248  0.034312266  0.039793224            1 
   91000    1.2701715    -6.930805    37.486352  0.034328161  0.039787094            3 
   92000    1.2279952   -6.9099208    38.184404  0.034587322  0.039789342            1 
   93000    1.2469122   -6.8582274     38.79849  0.034765672  0.039799413            1 
   94000    1.2436768   -6.8939834    39.174359  0.034729041  0.039806833            2 
   95000    1.2462167   -6.9112655      39.6368  0.034769123  0.039813864            1 
   96000    1.2617999   -6.9494594    39.792557   0.03454215  0.039810629            1 
   97000    1.2285559   -6.8775061    40.449826   0.03475071  0.039798057            1 
   98000    1.2386454   -6.9027118    40.870412  0.034753751  0.039796109            1 
   99000     1.242656   -6.8465992    41.421916  0.034866933  0.039791226            1 
  100000    1.2177407   -6.8688063    41.857503  0.034881252   0.03978345            1 
  101000    1.2477796   -6.8607863    42.088693  0.034726644  0.039777175            1 
  102000    1.2186605   -6.9014684     42.43446  0.034668677  0.039760168            1 
  103000    1.2274095    -6.914576    42.863402  0.034679128  0.039739312            1 
  104000    1.2298171   -6.8996907    43.202132  0.034617093  0.039707144            3 
  105000    1.2223666   -6.9388438    43.829649  0.034785436  0.039678339            2 
  106000    1.2261127   -6.9029195    44.289238  0.034818583   0.03965642            1 
  107000    1.2198787   -6.9333048     44.97855  0.035030023   0.03964104            1 
  108000     1.253427   -6.9156126    45.377713  0.035013667  0.039623303            3 
  109000    1.2435326   -6.9210859    45.710253  0.034946676  0.039605749            1 
  110000    1.2500596   -6.9531992      45.8657  0.034746742  0.039581719            1 
  111000    1.2366769   -6.8641741    46.338754  0.034788854  0.039547297            2 
  112000    1.2361203   -6.9293714    46.666505  0.034722102   0.03951394            2 
  113000    1.2197971   -6.9198498    47.170037  0.034786163  0.039480467            1 
  114000    1.2129731   -6.9035043    47.611707  0.034803879  0.039443889            1 
  115000    1.2303418   -6.8951932    48.055182  0.034822595   0.03941047            2 
  116000    1.2237911   -6.8791089    48.634119  0.034938304  0.039383625            1 
  117000    1.2523137   -6.9086614    49.160214  0.035014397  0.039364466            1 
  118000    1.2520554   -6.9082419    49.567257  0.035005125  0.039346398            1 
  119000    1.2550813   -6.9427792    50.092582  0.035078839  0.039326736            5 
  120000    1.2419184   -6.9254047    50.725457  0.035226012  0.039304921            1 
  121000    1.2292935   -6.9478959    51.050303  0.035158611  0.039282185            1 
  122000    1.2232606   -6.9035725     51.40264  0.035111092  0.039259366            1 
  123000    1.2490198   -6.9390141    51.817548   0.03510674  0.039239686            1 
  124000    1.2047984   -6.9119628     52.40102  0.035215739  0.039221129            3 
  125000    1.2076079   -6.8849008    53.193067  0.035462044  0.039208682            2 
  126000    1.2282003   -6.9453318    53.152193  0.035153567  0.039194028            2 
  127000    1.2604626   -6.8958811    53.711442  0.035243728  0.039176365            2 
  128000    1.2492594    -6.957477    54.336627  0.035375408  0.039162576            2 
  129000    1.2255656    -6.935155    54.784763  0.035390674  0.039153552            1 
  130000    1.2585086   -6.9331328    55.159202  0.035358463   0.03913947            1 
  131000    1.2094276   -6.8838768    55.748928  0.035463694  0.039124343            1 
  132000    1.2059368   -6.9146894    56.136599  0.035439772  0.039109279            2 
  133000    1.2368839    -6.910659    56.831773   0.03560888  0.039099555            2 
  134000     1.211764   -6.9011032    57.175833   0.03555711  0.039096277            2 
  135000    1.2289719   -6.9225863    57.794696  0.035675738  0.039090463            1 
  136000    1.2116699   -6.9157698    57.918098   0.03548903  0.039083358            2 
  137000    1.2289373   -6.9232712    58.779137  0.035753733  0.039078491            2 
  138000    1.2310025   -6.9024159    59.171801  0.035731763  0.039075336            2 
  139000    1.2439381   -6.9350367    59.297251  0.035549911  0.039070926            1 
  140000    1.2350679   -6.9485533     60.38124  0.035941214  0.039067973            3 
  141000    1.2607341   -6.9580357    60.514582  0.035765119  0.039066011            1 
  142000    1.2291701   -6.9414196    60.795317  0.035678003  0.039056887            1 
  143000    1.2185502   -6.8996992      61.1964  0.035662238  0.039049377            1 
  144000    1.2476424   -6.9603076     61.76402  0.035743067  0.039040365            2 
  145000    1.2281521    -6.896296    62.201058  0.035747734  0.039034155            2 
  146000    1.2314215   -6.9028271    62.607242  0.035734727  0.039025172            1 
  147000    1.2543395   -6.9383326    63.025594  0.035728795  0.039012679            1 
  148000    1.2344296   -6.9220746     63.51576  0.035763378  0.039001968            1 
  149000    1.2086925   -6.9284716    64.116036  0.035859081  0.038993216            1 
  150000    1.2363575   -6.8811396    64.896057  0.036053365  0.038986553            1 
  151000    1.2168753   -6.8947402    65.348954  0.036064544  0.038984327            2 
  152000    1.2267688   -6.8974879    65.564264   0.03594532  0.038981878            2 
  153000    1.2250806   -6.9539033    66.210805   0.03606253   0.03897789            1 
  154000    1.2181778   -6.9039406    66.964618  0.036236265   0.03898212            3 
  155000     1.181114   -6.9713141    67.104151    0.0360775   0.03898587            2 
  156000    1.2269917   -6.9470212    67.932706  0.036288839  0.038991113            2 
  157000    1.2449826   -6.9166422    68.362288  0.036285715  0.038997475            1 
  158000    1.2510601   -6.8936004    68.927106  0.036353959  0.039003889            1 
  159000    1.2340509    -6.966478    68.957563   0.03614128  0.039003134            1 
  160000    1.2563362   -6.9317107     69.63733  0.036269443  0.039001952            1 
  161000    1.2393027    -6.935262     69.90602   0.03618324  0.039003221            2 
  162000    1.2023194   -6.9653792    70.020692  0.036018874  0.039001498            1 
  163000     1.240208   -6.9463383    70.767838  0.036179876  0.038998296            1 
  164000    1.2268553   -6.9329344    71.225398  0.036191767  0.038996391            1 
  165000    1.2126059   -6.9326688    71.774813  0.036249906  0.038996892            1 
  166000    1.2225165   -6.9443727    72.031564  0.036160424  0.038995021            1 
  167000    1.2127238   -6.9145715    72.488152  0.036171732  0.038991467            1 
  168000    1.2615557   -6.9188139    73.361208  0.036389488  0.038989796            1 
  169000    1.2147923    -6.868053    73.833391  0.036406998  0.038991407            2 
  170000    1.1961741   -6.9247542    74.140186  0.036343228   0.03898985            1 
  171000    1.2077038   -6.9057081    74.685711  0.036396545  0.038987973            1 
  172000    1.2176017    -6.948173    75.308657  0.036486752  0.038987382            2 
  173000    1.2151958   -6.9187696    75.842331  0.036532915  0.038988137            3 
  174000    1.2387383    -6.880478    76.311673  0.036547736  0.038992544            1 
  175000    1.2178522   -6.8786173     77.02888  0.036680419  0.038994734            1 
  176000    1.2267295   -6.9030035    77.375638  0.036636192  0.039001233            3 
  177000    1.2364517   -6.9251846    77.810756  0.036634066  0.039007676            2 
  178000    1.2258114   -6.9641991    77.921418  0.036480064  0.039010425            1 
  179000    1.2336408   -6.8935627    78.566665  0.036576659  0.039013417            2 
  180000    1.2392002   -6.9611321    78.526637  0.036354925  0.039011945            3 
  181000    1.1937978   -6.9287683    79.085079  0.036411178  0.039009663            4 
  182000    1.2167081   -6.9421379    79.692302  0.036489149  0.039006926            2 
  183000    1.2326354   -6.9399955    80.061936  0.036458077   0.03900307            3 
  184000    1.2304253   -6.9091806    80.565725    0.0364881  0.038998616            6 
  185000    1.2190962   -6.9500485    80.776826  0.036385958   0.03899479            2 
  186000     1.182034   -6.9602926    81.271136  0.036411799  0.038990843            1 
  187000    1.2073271   -6.9223899    81.565525  0.036348273   0.03898713            3 
  188000     1.194343   -6.9443442    82.288071  0.036475209  0.038979847            1 
  189000    1.2278487   -6.9733921     82.60847  0.036423488  0.038974776            1 
  190000    1.2226308   -6.9359976    83.239107   0.03650838  0.038968167            1 
  191000    1.2241347   -6.9213019    83.609608  0.036478886  0.038965513            1 
  192000    1.2214182   -6.9019486     83.98554  0.036452057  0.038958116            2 
  193000    1.2386414   -6.9397485    84.475312   0.03647466  0.038951148            1 
  194000    1.2003969   -6.9539578    84.685682  0.036377011  0.038944727            2 
  195000    1.2269784    -6.943811    85.305151  0.036455193  0.038940028            4 
  196000    1.2139304    -6.966128    85.663159  0.036421411  0.038933989            2 
  197000    1.2291811   -6.9507691    86.248472  0.036484125  0.038927261            1 
  198000    1.2117232   -6.9340637    86.968479  0.036602895  0.038921016            3 
  199000    1.2054386   -6.9100581    87.418489  0.036607407  0.038916321            2 
  200000    1.2102633   -6.9458813    87.958714  0.036649464  0.038914639            1 
  201000    1.2146782   -6.9303725    88.364735  0.036635462  0.038912012            2 
  202000    1.1785699   -6.9591215    88.866207  0.036660976  0.038909123            2 
  203000    1.2366133   -6.9511053    89.168818  0.036604605  0.038907755            2 
  204000    1.2139958   -6.9531865    89.412746  0.036524814  0.038904087            2 
  205000    1.2120839   -6.9070215    89.843966  0.036521937  0.038897674            2 
  206000    1.2132837   -6.9284339    89.957032  0.036390385  0.038888055            2 
  207000    1.1941283   -6.8948382    91.106458  0.036677318  0.038877881            1 
  208000    1.1967689    -6.912928    91.164098  0.036524078  0.038870128            2 
  209000    1.1950114    -6.957257     91.46212   0.03646815  0.038860521            1 
  210000    1.2365059   -6.9468511     91.58682  0.036343976  0.038849867            2 
  211000    1.2121189   -6.9600318    92.492763  0.036529527  0.038840351            2 
  212000    1.2273079   -6.9947008     92.99539  0.036554791  0.038832709            2 
  213000    1.2238382   -6.9473454     93.57206  0.036608787  0.038826885            1 
  214000    1.1932213   -6.9534846    93.876464  0.036556255  0.038820806            1 
  215000     1.205875   -6.9239145    93.994774  0.036432083  0.038812743            1 
  216000    1.2208216   -6.9128249     94.42367  0.036428885  0.038801565            1 
  217000    1.2314936   -6.9562777    94.908525  0.036447206  0.038791145            2 
  218000    1.2281722   -7.0009062    95.385013  0.036462161  0.038780112            2 
  219000    1.1908884   -6.9499158    95.922146  0.036500055  0.038768316            1 
  220000    1.2203896   -6.9301008    96.174905  0.036429888  0.038758276            2 
  221000    1.1887858   -6.9339633    96.759795  0.036485594  0.038746098            1 
  222000    1.2400635   -6.9272012    96.950234   0.03639273  0.038733549            1 
  223000    1.2129914    -6.971083    97.246716  0.036340327  0.038718896            2 
  224000    1.2052882   -6.9479877    97.918457  0.036427997  0.038704512            2 
  225000    1.2236291   -6.9528686    97.942547  0.036275017  0.038689646            2 
  226000    1.2209941   -6.9358748    98.299663  0.036246188  0.038673063            1 
  227000    1.2027535   -6.9617193    99.096406  0.036379003  0.038658605            2 
  228000    1.2234604   -6.9082081    99.465021  0.036354174  0.038644176            1 
  229000    1.2413648   -6.9813697    100.06433  0.036413513  0.038630409            2 
  230000    1.2249524   -6.9699667    100.45983   0.03639849  0.038618354            1 
  231000    1.2103301    -6.921319    100.98702  0.036431104   0.03860736            2 
  232000    1.2288602   -6.9821494    101.71129  0.036534228   0.03859889            1 
  233000    1.2058701   -6.9565706    101.97417  0.036471448  0.038589006            1 
  234000    1.2189215   -6.9404579     102.2686  0.036420441  0.038578403            1 
  235000    1.1874907   -6.9691461    102.64547  0.036399105  0.038566368            1 
  236000    1.1961561   -7.0105271     102.3772  0.036150141  0.038552251            1 
  237000    1.2148015   -6.9761921    103.12333  0.036259961  0.038538455            1 
  238000    1.1992906   -6.9632816     103.5127  0.036243943   0.03852295            1 
  239000    1.2142277   -6.9164261    104.39457   0.03639978   0.03850802            1 
  240000    1.1889397   -6.9880681    104.31452   0.03622032  0.038493239            2 
  241000    1.2201476   -6.9498293    105.08581  0.036336725  0.038479309            2 
  242000    1.2049361   -6.9209395    105.07227  0.036181912  0.038466061            1 
  243000    1.1986674   -6.9413868    105.66048  0.036234733  0.038452076            1 
  244000    1.2243003   -6.9377424    106.74312  0.036455984  0.038438226            1 
  245000    1.2221374   -6.9650831    107.04371  0.036409426  0.038427634            1 
  246000    1.2412723   -6.9449985      107.469  0.036405486  0.038416753            2 
  247000    1.2352541   -6.9309616    108.13954  0.036484327  0.038407618            1 
  248000    1.2300499   -6.9578116    108.50839  0.036461153  0.038397118            1 
  249000    1.2103985   -6.9637749    108.41243  0.036282608  0.038385751            2 
  250000    1.2253586   -6.9567453    108.49029  0.036163428  0.038373424            1 
  251000    1.2334432   -6.9187254    108.97385  0.036179897  0.038357778            1 
  252000    1.2055688   -6.9937453    108.98252  0.036039194  0.038339405            1 
  253000    1.2049956   -7.0042697    109.42906  0.036043827  0.038321401            2 
  254000    1.2086023    -6.929667    110.42803   0.03622967  0.038304846            2 
  255000    1.1934765   -6.9471296    110.40903  0.036081381  0.038288811            2 
  256000    1.2140056   -6.9907477    110.96281  0.036120707  0.038273994            2 
  257000    1.2231109   -6.9023879    111.72577  0.036227553  0.038261641            4 
  258000    1.2109515   -6.9096842     112.5229  0.036344606   0.03824996            1 
  259000    1.2106144   -6.9292746    112.71482  0.036266031  0.038236889            4 
  260000    1.2169112   -6.9903736    112.62758  0.036098584  0.038222341            2 
  261000    1.2463963   -6.9925316    112.81455   0.03601997  0.038205397            1 
  262000    1.2070565    -6.995217    113.58547  0.036127693  0.038188665            1 
  263000    1.2050608   -6.9187271    114.36443  0.036237146  0.038174205            2 
  264000    1.2173211   -6.9236286    114.67516  0.036197968  0.038159823            4 
  265000      1.21134   -6.9577427    115.18996  0.036223257   0.03814556            2 
  266000    1.1957283   -6.9680665    115.42245  0.036159917  0.038130938            1 
  267000    1.2129563   -6.9806187    115.41775  0.036023017  0.038115036            1 
  268000    1.1987169   -6.9542028    115.88343  0.036033406  0.038098818            2 
  269000    1.1995601   -6.9789715    116.42783  0.036068101  0.038080815            3 
  270000    1.1952762   -6.9626352    116.64962   0.03600297  0.038062394            1 
  271000    1.2422798   -6.9645764    116.84053  0.035928821  0.038043535            2 
  272000    1.2119314   -6.9617332    117.38899  0.035964763  0.038025363            1 
  273000    1.2025869     -6.97833    117.54658  0.035881129  0.038006139            4 
  274000    1.2310627   -6.9598265    118.60395  0.036071761  0.037986613            1 
  275000    1.1881288    -6.948874    118.49982  0.035909037  0.037967202            2 
  276000    1.2093339   -7.0031895    119.11248  0.035963913  0.037948943            1 
  277000    1.2118431   -6.9382616    119.23376  0.035870565  0.037932247            2 
  278000    1.2403906   -7.0090232    119.68541  0.035876921  0.037913984            1 
  279000    1.2122384   -6.9430487    120.35156  0.035947301  0.037896696            2 
  280000    1.1992751   -6.9834061    120.56173  0.035881468   0.03788059            1 
  281000    1.2094655   -6.9353597    121.48431  0.036027376  0.037864171            2 
  282000    1.2263185   -6.9383184    121.67203   0.03595509  0.037848269            1 
  283000    1.2003452   -6.9535159    122.16371  0.035972823  0.037832694            1 
  284000    1.1918255   -6.9727641    121.87998  0.035762904  0.037814971            1 
  285000    1.1974684   -6.9375927    123.04812  0.035978982  0.037799319            1 
  286000    1.2303012   -6.9706927    123.57993  0.036008138    0.0377837            1 
  287000     1.202324   -6.9344401    124.08211  0.036028486  0.037769088            2 
  288000    1.1925429   -7.0165283    123.92043  0.035856606  0.037752693       -1e+20 
  289000    1.2117487   -6.9684489     124.3484  0.035855939  0.037736928            2 
  290000    1.1814964   -7.0018847     124.4356  0.035757357  0.037721398            1 
  291000    1.2417439   -6.9157593    125.34646  0.035895322  0.037704511            1 
  292000    1.1984556   -6.9671327     125.4778  0.035809874  0.037689045            3 
  293000    1.1956363   -6.9833699    126.17751  0.035886665  0.037672381            1 
  294000     1.175701   -6.9502019    126.55843  0.035872571  0.037655381            3 
  295000    1.1911935   -7.0087441    126.60583   0.03576436  0.037640194            2 
  296000    1.2302465   -6.9435886    127.44159  0.035878825  0.037624488            2 
  297000    1.2001295   -6.9690939    128.13496  0.035952571  0.037611343            1 
  298000    1.1790618   -6.9895416    128.90819  0.036048152  0.037599194            1 
  299000     1.196242   -7.0179486     128.7948  0.035895986  0.037587231            1 
  300000    1.2153584    -6.977744    129.26956  0.035908212   0.03757373            2 
  301000    1.2211932   -6.9911251    129.62119  0.035886265  0.037559629            1 
  302000    1.1809138   -6.9644597      130.294   0.03595309  0.037545743            1 
  303000    1.1907967   -6.9567051    130.94984  0.036014808  0.037533259            1 
  304000    1.2363064   -6.9670821    130.95489  0.035897723   0.03751963            1 
  305000    1.2015593   -7.0010417    131.08264   0.03581493  0.037506362            3 
  306000    1.2099986   -7.0120431    131.63513  0.035848346  0.037492417            1 
  307000    1.2007288   -7.0178453    131.88263  0.035798758  0.037477459            1 
  308000    1.2087407   -6.9872238     132.4495  0.035835905  0.037461557            3 
  309000    1.1971661   -6.9351119    132.38092  0.035701436  0.037444754            1 
  310000    1.1982901   -6.9607416     132.8104  0.035701721  0.037429427            2 
  311000    1.1970504   -6.9780881    133.58278  0.035793885  0.037413148            2 
  312000    1.2239023    -6.975569    133.77023  0.035729227  0.037397356            1 
  313000    1.1868932   -6.9745825    133.98053  0.035671068  0.037382748            1 
  314000    1.1824797   -6.9733853    134.92908  0.035809203  0.037368727            2 
  315000    1.2079692   -6.9389392    134.74088  0.035645735  0.037355097            1 
  316000    1.2028383   -6.9775628    135.26771  0.035671864  0.037340479            2 
  317000    1.1921604   -6.9859419    135.45118  0.035607566  0.037325351            1 
  318000    1.2208711   -6.9975365    136.16779  0.035683383  0.037310714            2 
  319000    1.2016673   -6.9423648    136.96959   0.03578098  0.037296279            1 
  320000    1.2022617   -7.0042066    137.13675  0.035712696  0.037283178            1 
  321000     1.193374   -6.9826117     137.5249  0.035702206  0.037269943            2 
  322000    1.1673237   -6.9875008    138.05875  0.035729489  0.037256234            1 
  323000    1.1804397   -7.0101814    137.81059  0.035554847  0.037241487            1 
  324000    1.1908681   -6.9627726    139.10324  0.035777582  0.037228066            2 
  325000    1.2006448   -6.9394978    138.99108  0.035638738  0.037214175            3 
  326000     1.177318   -6.9878298    139.45067  0.035646899  0.037201087            2 
  327000    1.2030783    -6.976738    140.26738  0.035746019   0.03718736            1 
  328000     1.182311   -6.9920231    140.74267  0.035757792  0.037175249            2 
  329000    1.2079828   -6.9760302    140.97592  0.035708186  0.037162664       -1e+20 
  330000    1.1614651   -6.9832959    141.35993  0.035696952  0.037150187            2 
  331000     1.211584   -7.0105856    141.98733  0.035747062  0.037138284            4 
  332000    1.2179027   -6.9963666    142.67913  0.035813034  0.037127045            1 
  333000    1.1906697    -6.970187    143.37268  0.035879049  0.037116716            1 
  334000    1.2171379   -6.9606359    143.54758  0.035815264  0.037106286            1 
  335000    1.1967239   -6.9739508    143.38574  0.035668094  0.037094201            2 
  336000    1.2126539   -6.9849366    143.49091  0.035588024  0.037081446            1 
  337000    1.2133574   -7.0062693    144.07995  0.035628077  0.037068624            1 
  338000    1.2380344   -6.9998077    144.38205  0.035597153  0.037054722            2 
  339000    1.2085196   -6.9838431    143.97083  0.035391058  0.037040529            2 
  340000    1.1616322   -6.9817408    144.63661  0.035450149  0.037025442            2 
  341000    1.1876463   -6.9748817    145.45375  0.035545882  0.037010269            4 
  342000     1.223525   -6.9561662     145.9529  0.035563571  0.036995448            2 
  343000    1.1681609   -6.9999478     145.6809  0.035393805  0.036980502            2 
  344000    1.1784826   -6.9827946     146.2828  0.035436725  0.036965833            3 
  345000    1.1772017   -6.9764504    146.80545  0.035460254  0.036952669            2 
  346000    1.1832094   -6.9578495     147.7316  0.035580828  0.036940096            2 
  347000    1.1966319   -6.9687073    148.12683  0.035573205  0.036928776            1 
  348000    1.1879694   -6.9919721    147.80124  0.035393018  0.036916003            1 
  349000    1.1942633   -7.0096727    148.78365  0.035526182  0.036903458            1 
  350000    1.1591255   -6.9677029    149.32157  0.035552754   0.03689086            1 
  351000    1.1738241   -7.0197902    149.88462  0.035585142  0.036878685            1 
  352000    1.2197588   -7.0281503    149.64231  0.035426683  0.036865958            1 
  353000    1.1875512     -7.01327    150.57822  0.035547267  0.036853669            2 
  354000     1.179724   -7.0052252     151.2259  0.035599316  0.036841438            3 
  355000     1.202021   -6.9901404    151.63893  0.035595993  0.036830678            1 
  356000    1.2127307   -7.0053664    151.77065  0.035526838  0.036819806            1 
  357000    1.2207616   -6.9864325    152.25219  0.035539727   0.03680876            1 
  358000    1.1822669   -6.9592933    152.96819  0.035607121  0.036797637            2 
  359000    1.1690492   -6.9619829    153.26727  0.035577361  0.036786096            3 
  360000    1.2033336   -6.9764492    153.97806  0.035643069  0.036776068            2 
  361000    1.1992468   -7.0097971    153.85189   0.03551521  0.036765822            2 
  362000    1.1769368   -7.0168755    154.71069    0.0356148  0.036755455            1 
  363000    1.1684207   -6.9827463    154.83074  0.035544247  0.036746086            1 
  364000     1.173609   -7.0082224    155.19535  0.035530072  0.036737112            1 
  365000    1.2067325   -7.0051055    155.86928  0.035586592  0.036727747            1 
  366000    1.1908171   -7.0271874    156.01434   0.03552239  0.036718092            2 
  367000    1.1865202    -7.001466    156.63476  0.035566475  0.036707965            1 
  368000    1.2110625   -6.9967397    156.92775  0.035536176  0.036697669            1 
  369000     1.194327   -6.9642683     157.5506  0.035580533  0.036687162            2 
  370000    1.1976751   -6.9668919    157.94757  0.035573777  0.036677547            1 
  371000    1.1910861   -7.0455395    157.73893  0.035431026  0.036667894            1 
  372000    1.1758438   -6.9868914    158.34731  0.035472068   0.03665707            2 
  373000     1.202734   -6.9683592    158.62045  0.035437991  0.036646652            3 
  374000    1.1990982   -6.9927644    159.20101  0.035472595  0.036636318            1 
  375000    1.1842389   -7.0052233    159.75988  0.035502195  0.036626553            1 
  376000    1.1683777   -7.0167872    160.83916  0.035646978  0.036618256            1 
  377000    1.1981605   -7.0194249     160.4269  0.035461294  0.036609641            1 
  378000    1.2008279   -7.0278791    161.21178  0.035540516  0.036600386            1 
  379000    1.1862141   -6.9975836    161.91083  0.035600447  0.036591172            2 
  380000    1.1860413   -6.9818853    162.31439  0.035595261  0.036583177            1 
  381000    1.2031811   -7.0163514    162.11843  0.035458974  0.036574998            2 
  382000    1.1935548   -6.9641634    162.85818  0.035527527  0.036566181            2 
  383000     1.167964    -7.006944    163.49149  0.035572562  0.036557943            2 
  384000    1.1471339   -6.9822051    164.53884  0.035707213  0.036549878            2 
  385000    1.1942191   -7.0232442    164.22614  0.035546784  0.036542414            1 
  386000    1.1922812   -6.9689598    165.02149    0.0356264  0.036535381            2 
  387000     1.184704   -6.9644188    165.12451  0.035556526  0.036528376            2 
  388000    1.2090349   -6.9979371    165.86183  0.035623246  0.036521903            1 
  389000    1.2084541   -7.0675021    165.23815  0.035398061   0.03651421            1 
  390000    1.2124945   -7.0475342    166.57508  0.035592966  0.036505405            3 
  391000    1.2248645   -6.9865812    167.02622  0.035598087  0.036497363            1 
  392000    1.1748329    -6.987426    167.20739  0.035545789  0.036488746            1 
  393000    1.1555724   -6.9931635     167.0625  0.035424619  0.036480017            2 
  394000    1.1834593   -7.0470322    167.40113   0.03540633   0.03647145            3 
  395000    1.1935183   -7.0545224    168.17138  0.035479194  0.036462129            2 
  396000    1.1706868   -6.9962389    168.68102  0.035496848  0.036453156            1 
  397000    1.1945626   -6.9836982    168.59309  0.035388978  0.036442952            1 
  398000    1.1864916   -7.0092402     168.7355  0.035329878  0.036433853            2 
  399000    1.1500924   -6.9946043    169.08143  0.035313582  0.036423849            1 
  400000    1.1906525   -7.0481092    169.92506  0.035401054  0.036414552            1 
  401000    1.2007535   -6.9877498    170.14569  0.035358623  0.036404647            1 
  402000    1.2051126   -7.0130373    170.58452  0.035361633  0.036394319            1 
  403000    1.1868126   -7.0662945    170.50165  0.035256751   0.03638464            3 
  404000    1.1825614   -7.0141463    171.19545  0.035312593  0.036375483            1 
  405000    1.1521434   -7.0027423     172.1545  0.035422737  0.036366627            1 
  406000    1.1977348   -7.0054821    172.65485  0.035438188  0.036358191            2 
  407000     1.198606   -7.0356053    172.69122  0.035358563  0.036349791            1 
  408000      1.17181    -7.001402     173.2706  0.035390237  0.036341419            1 
  409000    1.1704106   -6.9877793     173.7336  0.035398045  0.036332466            2 
  410000    1.1828235   -7.0082949      174.326  0.035432113  0.036324282            1 
  411000    1.2021079   -7.0062507    174.36365  0.035353538  0.036316546            1 
  412000    1.1578944   -7.0034628     174.7675  0.035349413  0.036307968            1 
  413000    1.1943395   -6.9364855    175.44974   0.03540148  0.036299634            3 
  414000    1.1991649   -7.0040917    175.90141  0.035406885   0.03629166            1 
  415000    1.1985504   -7.0438298    176.13731  0.035368938  0.036282164            2 
  416000    1.1645607   -7.0246472    176.04894  0.035266213  0.036272153            3 
  417000    1.1874075   -6.9887441    176.37044  0.035245891  0.036262623            1 
  418000    1.1883421   -7.0282906    176.71385  0.035230033   0.03625263            1 
  419000    1.1777709    -7.002742     177.0071  0.035204277  0.036241651            1 
  420000    1.2008888   -7.0573167    176.85181  0.035089645   0.03623109            2 
  421000    1.1964278   -7.0111038    177.11549   0.03505849  0.036220787            1 
  422000    1.1797864   -7.0176864    177.76547  0.035103765  0.036210447            1 
  423000    1.2024847   -7.0286261    178.25707  0.035117626    0.0362007            1 
  424000    1.1750518   -7.0088458    179.12475  0.035205336  0.036190218            2 
  425000    1.1849403   -7.0330734    179.04985  0.035107814  0.036179584            1 
  426000    1.1876136   -6.9846099    178.80848  0.034978185  0.036167542            1 
  427000    1.1856708   -6.9966309    178.80511  0.034895612  0.036154354            3 
  428000     1.184489   -7.0231742    179.69117  0.034986599  0.036140593            2 
  429000    1.2108921   -6.9758749    179.99717  0.034964485  0.036128094            1 
  430000    1.1683352   -7.0439956    180.86404  0.035051171  0.036115568            1 
  431000    1.1890346   -7.0554334    180.70018  0.034938163  0.036102661            1 
  432000    1.2093572   -7.0120593    181.74378    0.0350586  0.036089852            1 
  433000    1.1960882   -6.9834945    181.18396  0.034869893  0.036077283            1 
  434000    1.1726538   -7.0496183    181.39522  0.034830111  0.036064118            1 
  435000    1.1476573   -6.9856613    182.15405  0.034895411  0.036050613            1 
  436000    1.1573942   -7.0073689    182.10738  0.034806457   0.03603749            2 
  437000    1.1934206   -7.0105881    183.08879  0.034913956  0.036023994            2 
  438000    1.2130069   -7.0119575     183.4781  0.034908314  0.036010224            1 
  439000     1.190807   -7.0164557    183.95524   0.03491937   0.03599664            1 
  440000    1.1704013   -7.0131854    184.13568  0.034874182  0.035983371            3 
  441000    1.1884003   -7.0046839    184.81849  0.034924129  0.035970917            3 
  442000    1.1588319   -7.0222914    184.95627  0.034871092  0.035958203            3 
  443000    1.1735326   -7.0440423    184.63094  0.034731178   0.03594545            1 
  444000    1.1611268    -7.006912    185.56846  0.034828915   0.03593304            2 
  445000    1.2152709   -7.0364073    186.02035  0.034835272  0.035920515            1 
  446000     1.184255   -7.0106319    186.41368  0.034830658  0.035908411            1 
  447000    1.1625965   -7.0070365     186.8116  0.034826921  0.035895753            2 
  448000    1.1755374   -6.9898852    187.48119  0.034873733  0.035883339            2 
  449000     1.167873   -7.0020404     187.2567  0.034754398  0.035870688            2 
  450000    1.1793053    -7.062337    187.83547  0.034784346  0.035858052            1 
  451000    1.1764756   -7.0531851    187.71924  0.034685743   0.03584574            2 
  452000    1.1854268   -7.0070556    188.79795  0.034807881  0.035833234            1 
  453000    1.1874379   -7.0678499    188.46723  0.034670205  0.035820167            3 
  454000    1.1910733   -7.0536952     188.3796  0.034577752  0.035807158            2 
  455000    1.1874366   -6.9988654    189.12681  0.034638609  0.035793862            2 
  456000    1.1809266   -7.0520752    189.30375  0.034594983  0.035781198            2 
  457000    1.1921999   -7.0691514    189.88561  0.034625385  0.035767962            3 
  458000    1.1612811   -7.0793325    189.84325  0.034542076  0.035754435            2 
  459000    1.1857448   -7.0128862    190.99481  0.034675892   0.03574197            2 
  460000    1.1797237   -7.0531106    191.75458  0.034738149  0.035730015            1 
  461000     1.184768   -7.0729494    192.63762  0.034822418  0.035718408            3 
  462000    1.1764858   -7.0507132    192.65012    0.0347493  0.035707401            1 
  463000    1.1467537   -7.0215631    193.32222  0.034795216  0.035696928            1 
  464000    1.1813957   -7.0211435    193.68345  0.034785103  0.035686087            1 
  465000    1.1888041   -7.0506048    193.37858  0.034655659  0.035674564            2 
  466000    1.1619459   -7.0248771    193.88037  0.034671025  0.035662595            1 
  467000    1.1502663    -7.043268    194.31446  0.034674243  0.035650662            2 
  468000    1.1659142    -7.039881    194.10513   0.03456288  0.035638728            1 
  469000    1.1589382   -7.0283136    195.25854  0.034694126  0.035627357            2 
  470000    1.1689014   -7.0143404    194.93697  0.034563292  0.035615134            2 
  471000    1.1680465    -7.035852    195.65357  0.034616697  0.035603263            1 
  472000    1.1888431   -6.9957508    196.38126  0.034671832   0.03559172            1 
  473000    1.1708618   -7.0311662    197.03462   0.03471364  0.035580586            1 
  474000    1.1542011   -7.0528888    196.72078  0.034585228   0.03556888            5 
  475000    1.1620188   -7.0045532      197.559  0.034659474  0.035557244            2 
  476000    1.1925679   -7.0380372    197.65072  0.034602717  0.035546101            2 
  477000    1.1604385   -7.0333198    197.92877   0.03457875  0.035534354            2 
  478000    1.1733876   -7.0830048    198.22894  0.034558742  0.035522958            3 
  479000    1.1780425   -7.0378654    198.57218  0.034546308  0.035511207            1 
  480000    1.1607769   -7.0449343    199.44038  0.034625067  0.035499628            1 
  481000    1.1882468   -7.0457728    199.05229  0.034485844  0.035488474            1 
  482000    1.1701416   -7.0000321    200.84301  0.034723896  0.035478371            1 
  483000    1.1874387   -7.0260402    200.61264  0.034612257  0.035467894            2 
  484000    1.1766977   -7.0108339    200.93493  0.034596234  0.035458229            3 
  485000    1.1788738   -7.0404506    201.24557  0.034578277    0.0354477            2 
  486000    1.1700053   -7.0364913    201.20539  0.034500238  0.035436216            1 
  487000    1.1574233   -7.0328294    201.38694  0.034460462  0.035425332            1 
  488000    1.1977588    -7.046719    201.57788  0.034422453  0.035413963            2 
  489000    1.1967024   -7.0516578    201.94031  0.034413823  0.035402375            2 
  490000    1.1925035   -7.0170162    203.02389  0.034527872  0.035391617            1 
  491000    1.1545693   -6.9913885    204.31658  0.034676948  0.035380934            3 
  492000    1.1737989   -7.0115133    204.38059  0.034617309  0.035370464            1 
  493000    1.1699591   -7.0388238    204.37734  0.034546541  0.035359332            1 
  494000    1.1662631   -7.0676585    204.84488  0.034555479  0.035348757            1 
  495000    1.1727225   -7.0422795    204.93837  0.034501409   0.03533845            1 
  496000    1.2052498   -7.0553213    204.23642  0.034313915  0.035327607            1 
  497000    1.1898506   -6.9864099    206.25058  0.034582592   0.03531669            2 
  498000    1.1689992   -7.0585937    204.76982  0.034265365  0.035305169            1 
  499000    1.1765269   -7.0347543    206.58259  0.034499431  0.035293318            1 
  500000    1.1731176   -7.0487098    205.28103  0.034213505  0.035281197            2 
  501000    1.1794168   -7.0545612     206.5378  0.034354258  0.035268705            1 
  502000    1.1674256   -7.0270667    206.52073   0.03428299  0.035256189            2 
  503000    1.1681759   -7.0194196    206.68227  0.034241595  0.035243765            2 
  504000    1.1846573   -7.0386512    207.30292  0.034276277  0.035231169            1 
  505000    1.1705065   -7.0902166     206.9186  0.034144983  0.035217878            1 
  506000    1.1722419   -7.0572882    207.88692  0.034236976  0.035205134            1 
  507000    1.1660976   -7.0293579    208.91998  0.034339247   0.03519307            1 
  508000    1.1764001   -7.0427001     208.8475   0.03425976  0.035181248            1 
  509000    1.1880204   -7.0330698    209.19263  0.034248957  0.035169761            1 
  510000    1.1592088    -7.071084    209.70418   0.03426539  0.035158113            2 
  511000    1.1531699   -7.0265748    210.71638  0.034363401    0.0351472            3 
  512000    1.1877683   -7.0579483    210.84142  0.034316637  0.035137026            3 
  513000    1.1459625   -7.0419505    211.68431  0.034386665  0.035126484            2 
  514000    1.1757972   -7.0456026     211.6677  0.034317072  0.035115259            1 
  515000    1.1618692   -7.0112654    212.15261  0.034328901  0.035104266            1 
  516000    1.1404258   -7.0568906    211.75765  0.034198586  0.035093516            1 
  517000    1.1765833   -7.0972249     212.8066  0.034301515  0.035083137            2 
  518000    1.1821066   -7.1166237    213.23547   0.03430429  0.035072732            2 
  519000    1.1443433   -7.0320303    214.20635  0.034394083  0.035063347            1 
  520000    1.1883852   -7.0866017    213.99756  0.034294481  0.035053719            1 
  521000    1.1542308    -7.051819     214.5272  0.034313371  0.035044152            1 
  522000    1.1656007   -7.1185655    214.92271  0.034310777   0.03503459            2 
  523000    1.1853789   -7.0308091    216.01329  0.034418943  0.035025438            3 
  524000    1.1881092   -7.1075825    216.11584  0.034369568  0.035016829            2 
  525000    1.1773862    -7.059897    216.80277  0.034413138  0.035008256            2 
  526000    1.1858857   -6.9991312     216.7247  0.034335345  0.034999911            2 
  527000    1.1249582   -7.0618695    217.23781  0.034351329  0.034990949            1 
  528000    1.1400967   -7.0537802    217.44627  0.034319172  0.034982291            2 
  529000    1.1444222   -7.0227614    218.57513  0.034432125  0.034974031            3 
  530000    1.1626182   -7.0492451    219.61732  0.034531025  0.034966121            2 
  531000    1.1708181   -7.0052566    219.91391   0.03451254  0.034958389            3 
  532000    1.1772714   -7.0767176    218.92349  0.034292526  0.034950354            1 
  533000    1.1569846   -7.0722491    220.05179  0.034404596  0.034942307            1 
  534000     1.185135   -7.0495025     220.4579  0.034403543  0.034934077            1 
  535000    1.1815062   -7.0448329     221.0604  0.034433083  0.034926029            2 
  536000    1.1479685    -7.043785    221.43101  0.034426464   0.03491871            1 
  537000     1.134027   -7.0645016     221.8644  0.034429609  0.034911358            1 
  538000    1.1750553    -7.100474    222.05493  0.034395125  0.034903841            1 
  539000    1.1617159   -7.0801646    222.46199  0.034394248  0.034896425            1 
  540000    1.1353215   -7.1179812    223.20952  0.034445914  0.034889015            2 
  541000    1.1554564   -7.0530616    223.65104  0.034450253  0.034881675            3 
  542000    1.1344359   -7.0360412    224.14988  0.034463388  0.034875123            2 
  543000    1.1706032   -7.0811398     223.5411  0.034306492  0.034868337            1 
  544000    1.1530446   -7.1027299    224.90006  0.034451602  0.034861668            2 
  545000    1.1664536    -7.088293    224.67891  0.034354573  0.034855151            1 
  546000    1.1446714   -7.0490514    225.54065  0.034423176   0.03484848            1 
  547000    1.1686192    -7.069683    226.21862  0.034463531  0.034841735            2 
  548000    1.1700182   -7.0429116    226.88679  0.034502249  0.034835566            2 
  549000    1.1825444   -7.0517182     227.4261  0.034521266  0.034829365            1 
  550000     1.188936   -7.0815676    227.08041  0.034406122  0.034823549            2 
  551000    1.1773651   -7.0551749    228.04842  0.034490081  0.034817844            1 
  552000    1.1809703   -7.0447549    228.35517  0.034473908  0.034812135            4 
  553000      1.17195   -7.0745995     228.0567  0.034366592  0.034806503            1 
  554000    1.1656408   -7.0503334    228.40234  0.034356549  0.034800461            3 
  555000    1.1433917   -7.0611163    229.84461  0.034511202  0.034794295            1 
  556000    1.1341973   -7.0490644    230.36343  0.034526894  0.034788218            6 
  557000    1.1414778    -7.064079    230.33545   0.03446072  0.034782202            1 
  558000    1.1772431   -7.0709494    230.54714  0.034430576  0.034776488            1 
  559000    1.1541471    -7.051518     231.2572  0.034474836  0.034770518            1 
  560000    1.1942654   -7.0412578    231.13241  0.034394704  0.034764134            2 
  561000    1.1644509    -7.094772    232.37887  0.034518548  0.034758336            1 
  562000    1.1533628   -7.0735919    232.16766   0.03442581  0.034752288            1 
  563000    1.1530179   -7.0511326    232.91187  0.034474818  0.034746675            2 
  564000    1.1852246   -7.0578823     233.3898  0.034484308  0.034741704            1 
  565000    1.1628898   -7.0781659    233.33937  0.034415837  0.034736564            1 
  566000    1.1758578   -7.0638928    233.64744  0.034400389   0.03473106            1 
  567000    1.1417305   -7.0729417    234.50033   0.03446507  0.034725764            1 
  568000    1.1578423   -7.0454847     235.9492   0.03461696  0.034721695            2 
  569000    1.1404118   -7.0587247    235.74715   0.03452653  0.034717745            2 
  570000    1.1956184    -7.021451    236.42069  0.034564429  0.034713855            1 
  571000    1.1579252   -7.0496763     236.1819  0.034469045   0.03470978            2 
  572000    1.1473439   -7.0625269    236.70757  0.034485369  0.034705286            2 
  573000    1.1322054   -7.0644666    237.22998  0.034501161  0.034700817            1 
  574000    1.1761892   -7.0912643    237.41264  0.034467573  0.034696577            3 
  575000    1.1944616   -7.0783047    238.05668  0.034500968  0.034691858            4 
  576000    1.1930684   -7.0166687    238.72668  0.034538003  0.034687983            2 
  577000    1.1269006   -7.0406945    238.76295  0.034483384  0.034683762            1 
  578000    1.1816727   -7.0175371     239.9327  0.034592373   0.03467917            1 
  579000    1.1476662   -7.1175688    237.90756  0.034241158  0.034674297            4 
  580000    1.1651332   -7.0661787    239.94451  0.034474787  0.034669193            2 
  581000    1.1404786   -7.0674893    240.13466  0.034442723  0.034664515            2 
  582000    1.1766797   -7.0709008    240.11473  0.034380689  0.034659068            2 
  583000    1.1325093   -7.0874214    240.29757  0.034347852  0.034653962            1 
  584000     1.126238   -7.0692282    240.80377  0.034361269  0.034648283            3 
  585000    1.1814676   -7.0536654    241.77289  0.034440583  0.034642805            2 
  586000     1.154561   -7.0964522    241.81472  0.034387759  0.034637624            3 
  587000    1.1441703   -7.0838785    242.05622  0.034363461  0.034632479            1 
  588000    1.1554927   -7.0459903    242.64652  0.034388679  0.034627623            1 
  589000    1.1531447   -7.0961165    242.83048  0.034356322  0.034622526            3 
  590000    1.1530904   -7.0579256    242.83439  0.034298642  0.034617421            2 
  591000    1.1175105   -7.0638078    243.17523  0.034288668  0.034611856            1 
  592000     1.138104   -7.0609261    244.67025  0.034441195   0.03460703            2 
  593000    1.1637506   -7.0716312     244.6214  0.034376251  0.034602378            1 
  594000    1.1423844   -7.0860267    245.14753  0.034392189  0.034598241            2 
  595000    1.1301628    -7.030724    246.17412  0.034478168  0.034593587            2 
  596000    1.1671485   -7.0694566    246.37993  0.034449095  0.034589428            2 
  597000    1.1467388    -7.069738     246.2237  0.034369584  0.034584212            1 
  598000    1.1386969   -7.0769749    246.76133   0.03438703   0.03457906            5 
  599000    1.1475124   -7.1127392     245.5988  0.034167891  0.034573883            4 
  600000    1.1375354   -7.0911898    246.98409  0.034303345  0.034568519            1 
  601000    1.1764497   -7.0718522    247.53314  0.034322399  0.034563161            1 
  602000    1.1326396   -7.0874398      247.263   0.03422799  0.034558001            1 
  603000    1.1820183   -7.0871554    247.62814  0.034221689  0.034552872            2 
  604000    1.1669362   -7.0931299    248.15879  0.034238243   0.03454729            2 
  605000    1.1649596   -7.0714863    248.26577  0.034196386  0.034541833            3 
  606000    1.1648888   -7.0611204    249.15116  0.034261711  0.034535919            1 
  607000    1.1584649   -7.0747418    249.78959  0.034292915  0.034530581            2 
  608000    1.1455777   -7.0566628    249.59455   0.03420978  0.034525382            3 
  609000    1.1332856   -7.0870062    250.22627  0.034240048  0.034520022            1 
  610000    1.1606789   -7.1038638     250.1001   0.03416668  0.034514401            1 
  611000    1.1719064   -7.0689115     251.1396  0.034252536  0.034508505            2 
  612000    1.1571308   -7.0734935    251.78765  0.034284811  0.034502875            1 
  613000     1.136587   -7.0674149    251.50707  0.034190738  0.034496966            2 
  614000    1.1604759   -7.0388756    252.56659  0.034278853  0.034491619            1 
  615000    1.1254473   -7.1043671     251.6278  0.034095907  0.034485543            1 
  616000     1.140706   -7.0938042    251.87932  0.034074583   0.03447952            2 
  617000    1.1378391    -7.023553    253.40651  0.034225622  0.034473573            2 
  618000    1.1611436   -7.0697588    253.56623  0.034191778  0.034467858            1 
  619000    1.1387253   -7.0791968    254.77833  0.034299721    0.0344624            4 
  620000    1.1391051   -7.0703209    254.14826  0.034159712  0.034456676            2 
  621000    1.1496704   -7.0710695    254.48258  0.034149568  0.034450495            1 
  622000    1.1492755   -7.0331351    254.51426  0.034098909  0.034444528            2 
  623000    1.1483024   -7.0730248    254.43235  0.034033219  0.034438324            1 
  624000    1.1523733   -7.1028015    254.08405  0.033932165  0.034431809            1 
  625000    1.1505943   -7.1067896     255.0958  0.034012774  0.034424885            2 
  626000    1.1848091   -7.1042009    255.35739  0.033993262  0.034418283            2 
  627000    1.1429809   -7.0366176    256.06156  0.034032637  0.034412074            1 
  628000    1.1490046   -7.0575466    256.41739  0.034025662  0.034405551            2 
  629000    1.1610622   -7.0444867    257.00071  0.034048849  0.034399281            1 
  630000    1.1440865   -7.0745017    257.82047  0.034103237  0.034392891            1 
  631000    1.1437666   -7.1151075    257.50825  0.034007957  0.034386244            2 
  632000    1.1414802   -7.0953148    257.79697  0.033992217  0.034379098            1 
  633000    1.1430084   -7.0588201     258.3123  0.034006358  0.034371834            1 
  634000      1.12739    -7.117737     258.1625   0.03393303  0.034364684            1 
  635000    1.1516901   -7.1084045    259.02971    0.0339934  0.034357757            2 
  636000    1.1595265   -7.0627583    259.70017    0.0340278  0.034351306            1 
  637000    1.1547338   -7.1322569     259.3653  0.033930573  0.034344444            2 
  638000    1.1302338   -7.0587186    259.53122  0.033899062   0.03433754            1 
  639000    1.1205894    -7.063783    260.59119  0.033984245  0.034330293            2 
  640000    1.1409653   -7.0220366    260.16932  0.033876214  0.034323435            1 
  641000    1.1412945    -7.063242    260.69092  0.033891176  0.034316235            2 
  642000    1.1643145   -7.0827871    260.77852  0.033849755   0.03430921            2 
  643000    1.1274644    -7.128015     260.4687   0.03375696  0.034301542            2 
  644000    1.1852041    -7.084098    261.85302  0.033883672  0.034293759            2 
  645000     1.141855   -7.0994691    260.94849  0.033714275  0.034285774            1 
  646000    1.1665991   -7.0722082    261.89479  0.033784158   0.03427834            1 
  647000    1.1637563   -7.1056374    261.97407  0.033742152  0.034271051            1 
  648000    1.1513241   -7.1033529    263.05205  0.033828711  0.034263495            1 
  649000    1.1367042    -7.112436    263.02148  0.033772661  0.034255638            1 
  650000    1.1724939   -7.0806909    262.62662  0.033670079  0.034247416            1 
  651000    1.1372017   -7.0866267    264.27202  0.033828983   0.03423952            2 
  652000    1.1521935   -7.1164938      262.707  0.033577071  0.034231413            1 
  653000    1.1777289   -7.0820359    263.24977  0.033594917  0.034223163            4 
  654000    1.1761217   -7.0733366    264.16472  0.033660132  0.034215492            1 
  655000    1.1476086   -7.0733473    264.73968  0.033681893  0.034207585            3 
  656000    1.1476584   -7.1123166    265.02776  0.033667145  0.034199458            1 
  657000    1.1467464   -7.1040672    265.06756  0.033620948   0.03419089            2 
  658000    1.1358075   -7.0765257    265.29103  0.033598155  0.034182268            2 
  659000    1.1505918   -7.0819008    264.89619  0.033497242  0.034173273            1 
  660000    1.1533448   -7.0760655    265.64329  0.033540819  0.034164616            2 
  661000    1.1449546   -7.1425195    265.95895  0.033529873  0.034155512            2 
  662000     1.135161   -7.0933838    266.61976  0.033562407  0.034146923            2 
  663000    1.1660691    -7.124732    266.33461  0.033475944  0.034138029            2 
  664000    1.1448772   -7.1112839    267.09375  0.033520802  0.034128736            1 
  665000    1.1382727   -7.0747718    267.01044  0.033459954  0.034119838            2 
  666000    1.1416844   -7.0560541    268.61299  0.033610233  0.034111017            4 
  667000    1.1332999   -7.0941237    268.38981   0.03353196   0.03410182            1 
  668000    1.1274845   -7.1304707    267.62836  0.033386772  0.034092607            1 
  669000    1.1570841   -7.0993586      268.706  0.033471101   0.03408315            3 
  670000    1.1516016   -7.1128137    269.06346  0.033465605  0.034073887            1 
  671000    1.1390188   -7.1016287    269.23312  0.033436801  0.034064598            2 
  672000    1.1468153   -7.0819027    269.96144  0.033477362  0.034055483            1 
  673000    1.1456809   -7.1119657    269.88157  0.033417728  0.034046108            4 
  674000    1.1523409   -7.0838087     269.9041  0.033370932   0.03403675            3 
  675000    1.1258617    -7.107874    270.64292  0.033412706  0.034027692            1 
  676000    1.1573622   -7.1082743    271.15873  0.033426865  0.034018773            1 
  677000    1.1444987   -7.1150381     271.5239   0.03342244  0.034009743            2 
  678000     1.143318   -7.0825861    271.39684  0.033357527  0.034000446            2 
  679000    1.1908558   -7.0887236    271.38057  0.033306402  0.033991041            1 
  680000    1.1538072   -7.1358068    271.76078  0.033304017  0.033981703            2 
  681000     1.133452   -7.0768602    272.47729  0.033342791  0.033972159            1 
  682000    1.1159442    -7.121863    271.98177  0.033233354  0.033962655            3 
  683000     1.139039   -7.1158271    272.49385  0.033247175  0.033952913            2 
  684000    1.1187425   -7.1412614    272.72721     0.033227  0.033943405            2 
  685000    1.1352496    -7.110958    273.93342  0.033325233  0.033934023            2 
  686000    1.1163111   -7.0815798    274.48496  0.033343654  0.033924668            1 
  687000    1.1198008   -7.1177936    275.61554  0.033432258  0.033915575            2 
  688000    1.1306927   -7.1275427    274.63968  0.033265465  0.033905935            1 
  689000    1.1372587   -7.0513607    275.35418  0.033303602    0.0338965            1 
  690000    1.1565556   -7.1155793    275.56528  0.033280831  0.033886733            2 
  691000    1.1386907   -7.1056113    276.09152  0.033296131  0.033877725            2 
  692000    1.1235686   -7.0790706    276.96521  0.033353228  0.033868452            1 
  693000    1.1452003   -7.0977833    276.60517  0.033261805  0.033859851            4 
  694000    1.1494556   -7.0736432    277.29844  0.033297123  0.033851011            1 
  695000    1.1413482   -7.1446829    277.39836  0.033261194  0.033842217            3 
  696000    1.1369945   -7.1064465    277.76295  0.033257058  0.033833542            1 
  697000    1.1379979   -7.0806811    278.63047  0.033313064  0.033824834            1 
  698000     1.149904   -7.1264458    278.25575    0.0332206   0.03381642            1 
  699000    1.1436911   -7.1388734    278.99718  0.033261467  0.033807381            1 
  700000    1.1499911   -7.1119273    278.76235  0.033185994  0.033798745            3 
  701000     1.121957   -7.0707055    279.50297  0.033226697  0.033790012            1 
  702000    1.1341601   -7.1509246    278.24503  0.033030036  0.033780907            3 
  703000    1.1236577   -7.1085728    279.71515   0.03315732  0.033771669            2 
  704000    1.1423682   -7.0597698    281.13698  0.033278525  0.033762516            2 
  705000    1.1435217   -7.1675631    280.43157   0.03314794  0.033753562            2 
  706000    1.1508069   -7.1387848    281.00062  0.033168157  0.033744476            2 
  707000    1.1526069   -7.1288681    281.43949  0.033172972  0.033735551            2 
  708000     1.146474   -7.1185819    281.64774  0.033150628  0.033726232            2 
  709000    1.1383953   -7.1455818    281.22076  0.033053686  0.033717164            1 
  710000    1.1247385   -7.1170884    282.84214  0.033197434  0.033708297            1 
  711000    1.1292715   -7.1260607    282.49412  0.033109953  0.033699623            4 
  712000     1.162399   -7.1126951    282.71413    0.0330892  0.033691022            4 
  713000    1.1306824   -7.1140654    283.47805  0.033132077  0.033681926            3 
  714000    1.1503271   -7.1138025    283.38948  0.033075336  0.033673063            2 
  715000    1.1400985   -7.1062585     285.0007  0.033216865  0.033664484            2 
  716000    1.1298023    -7.129755    284.04339  0.033059054  0.033655682            2 
  717000    1.1355389   -7.1378428    284.87323  0.033109394  0.033646798            2 
  718000    1.1592733   -7.1263127    284.96164  0.033073542   0.03363765            1 
  719000    1.1359745   -7.1633823    284.47456  0.032971089  0.033628483            1 
  720000    1.1271455   -7.1410992     285.8245  0.033081539    0.0336188            2 
  721000    1.1631422   -7.1196375    286.03986  0.033060548  0.033609502            2 
  722000    1.1546929   -7.1254195      286.116  0.033023545  0.033600505            1 
  723000    1.1291851   -7.1359367    286.62945   0.03303705  0.033591609            1 
  724000    1.1370238   -7.1219899    285.99245  0.032918099   0.03358233            1 
  725000    1.1332341   -7.0685848    288.46676  0.033157099  0.033573632            1 
  726000    1.1359302   -7.1139939    288.38792  0.033102378  0.033564663            2 
  727000    1.1244056   -7.1542683    288.39464  0.033057616   0.03355595            2 
  728000    1.1203152   -7.0764511    289.01667   0.03308341  0.033547452            1 
  729000    1.1400903   -7.1620787    288.55612  0.032985381  0.033538253            2 
  730000    1.1287131   -7.1250715    289.34357  0.033030088   0.03352932            4 
  731000    1.1284697   -7.1174561    289.69844  0.033025358  0.033520591            1 
  732000    1.1694944   -7.1858558    289.23662  0.032927666  0.033511709            2 
  733000    1.1296587   -7.1324945     290.1024  0.032981173   0.03350254            2 
  734000    1.1373222   -7.1419098    290.18225  0.032945305  0.033493899            1 
  735000    1.1210233    -7.128932    290.98496  0.032991492  0.033484646            1 
  736000    1.1307321   -7.0715124    291.42142  0.032996085  0.033475565            2 
  737000    1.1214679   -7.1267914    291.34856  0.032943076  0.033466658            1 
  738000    1.1341182   -7.1280318     291.7734  0.032946409  0.033457568            2 
  739000    1.1336152   -7.0950336    292.30247  0.032961487  0.033448373            2 
  740000    1.1285168   -7.1602957    291.99828  0.032882689  0.033439121            3 
  741000    1.1698705   -7.1216121    293.32574  0.032987601  0.033430455            4 
  742000    1.1560789   -7.1480139    292.82967  0.032887429  0.033421583            2 
  743000    1.1506985   -7.1327488    293.22155  0.032887118  0.033412526            1 
  744000    1.1185363   -7.1427484    293.19719  0.032840187    0.0334035            2 
  745000    1.1635292    -7.124073    293.45475  0.032824917  0.033393878            1 
  746000    1.1196514   -7.1016876    293.96667    0.0328381    0.0333843            3 
  747000    1.1083182   -7.1145838    294.56468  0.032860852  0.033374947            1 
  748000    1.1527171   -7.1183188    294.46877  0.032806236  0.033365096            1 
  749000    1.1489975   -7.1157911    294.52882  0.032769116  0.033355678            1 
  750000    1.1289063   -7.0965237    294.87295  0.032763661  0.033346123            2 
  751000    1.1306578   -7.1680192    294.90281  0.032723347  0.033336999            1 
  752000    1.1248986   -7.1473328    296.35438  0.032840689  0.033327691            2 
  753000    1.1651807   -7.1272392    296.24645  0.032785132  0.033318609            1 
  754000    1.1150995   -7.1482942    296.45515  0.032764716  0.033309689            1 
  755000    1.1389459   -7.1139633    297.38872  0.032824362  0.033300717            4 
  756000    1.1265516   -7.1269368     297.0069  0.032738856  0.033291778            3 
  757000    1.1167323    -7.160488    297.53688   0.03275395  0.033282415            2 
  758000    1.1397218   -7.1129233    297.71905  0.032730766  0.033273219            3 
  759000    1.1135404   -7.1442653    298.56598   0.03278063  0.033264365            3 
  760000    1.1255621   -7.1506317    297.69675  0.032642187  0.033255461            1 
  761000    1.1502114   -7.1544286    299.83086  0.032832989  0.033246777            2 
  762000     1.158709   -7.1883681    299.02556  0.032701833  0.033237764            4 
  763000    1.1464905   -7.1398504    300.16086  0.032782968  0.033228933            2 
  764000    1.1342133   -7.0864609    300.93873  0.032824905  0.033220106            3 
  765000    1.1389195     -7.13684    300.17718  0.032699039   0.03321132            1 
  766000    1.1142389   -7.1400167    300.08569  0.032646398  0.033202656            2 
  767000    1.1319044   -7.1405278    301.48559  0.032755931  0.033194068            2 
  768000    1.1230813   -7.1696248    302.51218  0.032824672  0.033185479            2 
  769000    1.1228951   -7.1602177    301.74596  0.032698956  0.033177356            1 
  770000    1.1494574   -7.1071807    303.63158  0.032860561  0.033169231            1 
  771000    1.1136198   -7.1433845    303.99862  0.032857611  0.033161384            3 
  772000     1.122351   -7.1486689    302.99075  0.032706256   0.03315299            2 
  773000    1.1269688   -7.1398571    304.11977  0.032785659  0.033144846            3 
  774000    1.1278482    -7.123377    304.53389  0.032787886  0.033136584            1 
  775000    1.1265288   -7.1629047    304.15603   0.03270495  0.033128724            1 
  776000    1.1278935   -7.0879948    305.99958   0.03286078   0.03312093            3 
  777000    1.1318818   -7.1444022    305.30605  0.032744107  0.033112889            2 
  778000    1.1287062   -7.1105874    305.28515   0.03269978  0.033104569            2 
  779000    1.1328855   -7.1776416    305.61966  0.032693588  0.033096185            1 
  780000    1.1293033   -7.1512336    306.53135  0.032749076    0.0330878            1 
  781000    1.1096155   -7.0978222    306.13197  0.032664529  0.033079591            4 
  782000    1.1305554   -7.1240911     306.6473  0.032677675  0.033071377            3 
  783000    1.1219013   -7.1048298    307.70732  0.032748757  0.033063568            1 
  784000    1.1115813   -7.1483005    308.38403  0.032778915  0.033055692            1 
  785000    1.1194541   -7.1334868    307.73533  0.032668294  0.033047861            1 
  786000    1.1622423   -7.1241735     309.4067  0.032803933   0.03304004            1 
  787000    1.1402009   -7.1642818    307.71192  0.032582795  0.033032291            1 
  788000    1.1247958   -7.1217414    309.78395   0.03276057    0.0330238            3 
  789000    1.1167649     -7.14397    308.81945  0.032617179  0.033016063            2 
  790000    1.1463089    -7.132839    309.30105  0.032626693  0.033007927            1 
  791000    1.1227295   -7.1211573    309.83248  0.032641433  0.033000018            1 
  792000    1.1248843    -7.172557    309.83663  0.032600655  0.032992025            1 
  793000    1.1079522   -7.1533743    310.55706  0.032635252  0.032983875            1 
  794000    1.1266658   -7.1907303     310.6533   0.03260425   0.03297579            1 
  795000    1.1094488   -7.1594594    311.77836  0.032681169  0.032968167            3 
  796000    1.1166936   -7.1416254    311.93349  0.032656354  0.032960158            2 
  797000     1.116252   -7.1412284     311.9468  0.032616772  0.032952542            1 
  798000    1.1125499   -7.1531736    312.27274  0.032609935  0.032945002            2 
  799000    1.1006826    -7.144476     312.2327  0.032564946  0.032937327            1 
  800000    1.0916614   -7.1395783    312.35494  0.032536973  0.032929654            1 
  801000    1.1376177    -7.140925    313.50744  0.032616254  0.032921809            1 
  802000    1.1468737   -7.1553487    314.32898  0.032660949  0.032914044            2 
  803000    1.1263267   -7.1267474    314.24368  0.032611423  0.032906475            1 
  804000    1.1604495   -7.1420105     315.3307   0.03268353  0.032899182            2 
  805000    1.0967814   -7.1170093    314.73321  0.032581078  0.032892001            2 
  806000    1.1140436   -7.1667559    314.86178  0.032553947  0.032884934            1 
  807000    1.1036316     -7.14958    316.45933  0.032678576   0.03287802            1 
  808000    1.1130587   -7.1326716    316.78201  0.032671411  0.032871068            2 
  809000    1.1399125   -7.1067563    316.79957  0.032632835  0.032864215            3 
  810000    1.1137384   -7.1361995    316.70656  0.032582979  0.032857173            1 
  811000    1.0943765   -7.1599585    316.92837  0.032565595  0.032849988            1 
  812000    1.1144383   -7.1785053    317.29318  0.032562929  0.032842668            2 
  813000    1.0915073   -7.1369839    316.63613  0.032455528  0.032835225            2 
  814000     1.129845   -7.1337788    317.29713  0.032483326  0.032827843            2 
  815000    1.1311639   -7.1172219    317.68766  0.032483401  0.032820214            1 
  816000     1.123166   -7.1569847    317.23047  0.032396902  0.032812398            2 
  817000    1.1198428   -7.1455995    318.76313  0.032513579  0.032804578            1 
  818000    1.1266572   -7.1375528    319.78857  0.032578297  0.032796927            3 
  819000    1.1382303   -7.1228212    320.17398  0.032577735  0.032789255            2 
  820000    1.1488327   -7.1769276    319.79534  0.032499527   0.03278178            1 
  821000    1.1177926   -7.1613352    319.02932  0.032382189  0.032774162            3 
  822000    1.1360855   -7.1588639    319.58498  0.032399126  0.032766312            3 
  823000     1.131719   -7.1351259    321.05993  0.032509106   0.03275817            2 
  824000    1.1229484   -7.1631325    321.07577  0.032471255  0.032749971            1 
  825000    1.1362192   -7.1571148    319.89689  0.032312817  0.032741812            2 
  826000    1.1229403    -7.195471    320.72099  0.032356839  0.032733705            4 
  827000     1.128106   -7.1573186    321.06114  0.032351989  0.032725597            2 
  828000     1.128642    -7.182283    321.61725  0.032368886  0.032717634            4 
  829000    1.0934028   -7.1295527    322.47984  0.032416551  0.032709638            1 
  830000    1.1239549   -7.1545666    322.49028  0.032378543  0.032702129            4 
  831000    1.1153796   -7.1392899    322.28798  0.032319292  0.032694542            3 
  832000    1.1168063   -7.1376311    324.55967  0.032507979  0.032686641            1 
  833000    1.1091628   -7.1658701    323.38683  0.032351624  0.032678846            2 
  834000    1.1092722   -7.1608423    324.08662  0.032382756  0.032670887            2 
  835000    1.0969831   -7.1745767    323.45026  0.032280465  0.032663064            1 
  836000    1.1407856   -7.1393776     324.1074  0.032307356  0.032655256            2 
  837000    1.1069227   -7.1309161    323.92383  0.032250481  0.032647275            1 
  838000    1.1678685   -7.1442892    325.76554  0.032395142  0.032639117            1 
  839000    1.1142298    -7.161692    325.13824  0.032294223  0.032630916            2 
  840000    1.0838794   -7.1733192    324.21739  0.032164424  0.032622366            1 
  841000    1.1341702    -7.114366    327.20078  0.032421797  0.032614246            1 
  842000    1.1398581   -7.1568913     326.1641  0.032280691  0.032606317            4 
  843000    1.0963819    -7.190997    325.13211  0.032140383  0.032598112            1 
  844000    1.1345683   -7.1516027    325.85588  0.032173763  0.032589876            1 
  845000    1.1212603   -7.1329787    327.10896  0.032259267  0.032581731            2 
  846000     1.102514   -7.1667612    328.00093  0.032308996  0.032573598            1 
  847000    1.1142836   -7.1387161    327.96935  0.032267744  0.032565757            2 
  848000    1.0978365   -7.1891607    327.62693  0.032196043  0.032557658            1 
  849000    1.1406394   -7.1405479     328.6921  0.032262672  0.032549318            2 
  850000    1.1097196   -7.1487086    328.14545  0.032171123  0.032541575       -1e+20 
  851000    1.1173132    -7.158092    329.34889  0.032251165  0.032533716            3 
  852000    1.1086501   -7.1685899    329.43353  0.032221589  0.032525588            1 
  853000    1.1101925   -7.1256709    329.81348  0.032220934  0.032517898            1 
  854000    1.1082134   -7.1160099    330.61574   0.03226149  0.032510407            2 
  855000    1.1298649   -7.1903543    330.07192  0.032170752  0.032502475            3 
  856000    1.1251707   -7.1500503    330.83415  0.032207374  0.032494769            3 
  857000    1.1151342   -7.1834905     331.4016  0.032224971  0.032486891            1 
  858000    1.0972432   -7.1823441    331.59118  0.032205826    0.0324791            1 
  859000    1.1183762   -7.2096239    330.38415  0.032051237  0.032471244            3 
  860000     1.121008   -7.1469401    333.60548  0.032326113  0.032463468            1 
  861000    1.1257819   -7.1884552    330.98503  0.032034943  0.032456002            2 
  862000    1.1251501   -7.1934104    332.97115  0.032189786  0.032448276            1 
  863000    1.1155135   -7.1844721    333.43564  0.032197339  0.032440567            2 
  864000    1.1127896   -7.1309005     334.3934   0.03225245  0.032433394            2 
  865000    1.1050152   -7.1309651    334.73536  0.032248108  0.032426083            1 
  866000    1.0971088   -7.1568937    335.02514  0.032238755    0.0324191            3 
  867000    1.0902506   -7.1629107    334.54469  0.032155391  0.032411941            1 
  868000    1.1385004   -7.1391647    335.13429  0.032174951  0.032404733            1 
  869000    1.0845247   -7.1705206    335.21646  0.032145806  0.032397444            1 
  870000    1.0950532   -7.1859666    335.23396  0.032110533  0.032389957            1 
  871000    1.0974324   -7.1432052    336.70292  0.032214209  0.032382685            2 
  872000    1.1023279   -7.1707135    336.48027  0.032155989  0.032375961            1 
  873000    1.0668357   -7.1349518    337.12488  0.032180687  0.032369167            1 
  874000    1.1211399   -7.2112719    337.06144  0.032137819  0.032362254            3 
  875000     1.108554   -7.1784112    338.46472  0.032234736  0.032355444            3 
  876000    1.1352187   -7.1934278    338.66694  0.032217175  0.032348609            1 
  877000    1.1078094   -7.1866347    338.59249  0.032173365   0.03234176            2 
  878000    1.1090671   -7.1594115    339.59235   0.03223162  0.032335331            1 
  879000    1.1092435   -7.1918113    339.66593  0.032201927   0.03232903            2 
  880000    1.1143264    -7.165481    340.67006  0.032260423  0.032322527            3 
  881000    1.1156901   -7.1769254    340.63639  0.032220619  0.032316125            1 
  882000    1.1293341   -7.1694187    341.54067  0.032269527  0.032309794            2 
  883000    1.1284706   -7.1790242    340.52317  0.032136954  0.032303372            1 
  884000    1.1170712   -7.1798421    341.27885  0.032171837  0.032297043            2 
  885000    1.1231188   -7.2016893    341.77529   0.03218223  0.032290694            2 
  886000    1.1253073   -7.1897321    342.56261   0.03221996  0.032284116            4 
  887000    1.0926857   -7.2397239    342.25432  0.032154672  0.032277653            2 
  888000    1.1227993    -7.129858    343.52218  0.032237442  0.032271216            1 
  889000    1.1118831   -7.1824352    343.82851  0.032229894  0.032265252            2 
  890000    1.1239142   -7.1726032    343.56574  0.032169077  0.032259124            1 
  891000    1.1116389   -7.1412405    343.77985  0.032152998  0.032252931            1 
  892000    1.1059936   -7.1614292    344.34949  0.032170169  0.032246735            3 
  893000     1.110964   -7.1352988    344.39361  0.032138262  0.032240352            2 
  894000    1.1259692   -7.1875635    343.81816  0.032048673  0.032233986            3 
  895000    1.1252198   -7.1500635    346.14409  0.032229432  0.032227671            1 
  896000    1.0993418   -7.1794037    345.94542  0.032174983  0.032221406            1 
  897000    1.1069169   -7.1572286    346.28777  0.032170919  0.032215169            1 
  898000    1.1199353    -7.154518    346.48748  0.032153626    0.0322089            1 
  899000    1.1025126   -7.1710173    346.86167  0.032152547  0.032202699            2 
  900000    1.1053001   -7.2109198    346.16017  0.032051868  0.032196674            1 
  901000    1.1090771    -7.153926     348.1096  0.032196596   0.03219029            2 
  902000    1.1272066   -7.1549334    347.31375  0.032087376  0.032183805            2 
  903000    1.0892936   -7.2319689     345.8928  0.031920709  0.032177425            1 
  904000    1.0814491   -7.1736493    348.97119  0.032169173  0.032170879            1 
  905000    1.0917349   -7.1969003    347.67467  0.032014242  0.032164491            2 
  906000     1.102743   -7.1833922     348.9852  0.032099448  0.032158371            2 
  907000    1.1236327    -7.213107    348.85431  0.032052032  0.032151738            2 
  908000    1.1102487   -7.1876168    350.43793  0.032162072  0.032145395            2 
  909000     1.075945   -7.2220261     349.3565  0.032027548  0.032139289            3 
  910000    1.1103856   -7.1654417    351.75229  0.032211748   0.03213333            1 
  911000    1.1092953   -7.1793236    351.61294  0.032163642  0.032127443            2 
  912000    1.1118572    -7.234051     350.9576  0.032068494  0.032121645            2 
  913000    1.0942033    -7.162326    351.53128  0.032085732  0.032115836            2 
  914000    1.0997443   -7.1659174    351.61764  0.032058501  0.032110062            3 
  915000    1.0885222   -7.1899177     352.4588  0.032100073  0.032104336            1 
  916000    1.1011486   -7.2092223    352.82455  0.032098304  0.032098663            3 
  917000    1.1336935   -7.1645963    353.71075  0.032143834  0.032093122            1 
  918000    1.1035948   -7.2121242    353.75673  0.032112993  0.032087447            1 
  919000    1.1351046   -7.1842865    353.83646  0.032085279  0.032081997            1 
  920000    1.1029945   -7.2170637    354.36775  0.032098528  0.032076908            2 
  921000    1.1252683   -7.2144503    354.36939  0.032063825  0.032071532            2 
  922000    1.0986201   -7.1694344    356.84063  0.032252407  0.032066167            1 
  923000    1.0905028   -7.1819243    355.80476   0.03212394  0.032061021            1 
  924000    1.1183301   -7.1888114    356.40856  0.032143629  0.032055688            1 
  925000    1.0938154   -7.2373162    355.61693  0.032037562  0.032050303            2 
  926000    1.1227843   -7.1957293    355.92554  0.032030736  0.032044963            1 
  927000    1.0801446   -7.2336557     355.9453  0.031997959  0.032039485            5 
  928000    1.1182725   -7.1719172    357.89613  0.032138661  0.032034186            1 
  929000    1.1021897   -7.1545402     357.6393  0.032081028  0.032028801            1 
  930000    1.1105082   -7.1704163    358.32736  0.032108186  0.032023449            1 
  931000    1.1194045   -7.2153444     357.4002  0.031990709  0.032017964            2 
  932000     1.099637   -7.2022119      358.195   0.03202745   0.03201239            1 
  933000    1.1078857   -7.1644249    358.70002  0.032038229  0.032006882            2 
  934000    1.1126074   -7.1679214    360.93958  0.032203746  0.032001661            2 
  935000    1.1044464   -7.1864033    359.83169   0.03207056  0.031996441            4 
  936000    1.0886933   -7.1730755    360.07616  0.032058063  0.031990934            1 
  937000    1.0778231   -7.2108321    360.12431  0.032028131   0.03198544            2 
  938000    1.1194715   -7.1883835    361.16196  0.032086172  0.031979794            4 
  939000    1.0847233   -7.2237671    359.67358  0.031919913  0.031974002            2 
  940000    1.0831266   -7.1991305    360.83828   0.03198921  0.031968354            1 
  941000    1.0803402   -7.1689806    361.26395  0.031992911   0.03196319            1 
  942000    1.0927426   -7.2312592    361.90881  0.032015995  0.031958089            3 
  943000    1.0910221   -7.2272906    361.36051  0.031933591    0.0319526            5 
  944000     1.076204   -7.2194645    362.64696  0.032013326  0.031947291            2 
  945000    1.0956775   -7.1709928    362.41389  0.031958897   0.03194183            2 
  946000    1.1024019   -7.1687245    363.00172  0.031976896  0.031936499            2 
  947000    1.0929502   -7.2058672    362.98319  0.031941498  0.031931095            2 
  948000    1.1022846   -7.2260966    362.79153  0.031890958  0.031925499            4 
  949000    1.0913141   -7.1848298    364.20419  0.031981401  0.031920136            2 
  950000     1.111855    -7.196243    364.54648  0.031977761  0.031914917            2 
  951000    1.0844401   -7.2237912    364.39533  0.031930891  0.031909621            1 
  952000    1.1027579   -7.2368197    365.02376   0.03195236  0.031904171            2 
  953000    1.0862533   -7.1989784    365.55769  0.031965521  0.031899122            3 
  954000    1.1113246   -7.2145826    365.01226  0.031884369  0.031893494            1 
  955000    1.1036626   -7.1857331    366.43768  0.031975364  0.031888086            1 
  956000    1.1083005   -7.2098724    366.44651  0.031942688  0.031882538            1 
  957000    1.1081904   -7.1880392    366.47812  0.031912062  0.031877511            4 
  958000    1.0999293   -7.1961038    367.60604  0.031976865  0.031872783            1 
  959000    1.1140235   -7.2428276    367.04327  0.031894619  0.031867766            2 
  960000    1.1072064   -7.2109079    368.31901  0.031972137  0.031862903            2 
  961000    1.0991667    -7.194111    368.26788  0.031934433  0.031857775            3 
  962000    1.0892497   -7.1733574    368.89414  0.031955487  0.031852354            1 
  963000     1.093595   -7.2156558    368.67742   0.03190355  0.031847191            1 
  964000    1.0971215   -7.2030328    369.34782  0.031928408  0.031841897            2 
  965000    1.0743149   -7.1647998    370.02344  0.031953665  0.031836736            2 
  966000    1.0789646   -7.2073177    369.68116  0.031891059  0.031831656            2 
  967000    1.0820427    -7.249362    368.96769  0.031796595  0.031826196            1 
  968000    1.0981879   -7.2209643    370.75823  0.031917891  0.031820699            2 
  969000    1.1099748   -7.2022017    370.99711  0.031905496   0.03181543            3 
  970000    1.0903032   -7.1662658    371.21378  0.031891218  0.031810053            1 
  971000    1.1033788    -7.191957    371.41664  0.031875784  0.031804664            1 
  972000    1.0817723   -7.2405969    371.78658  0.031874707  0.031799281            2 
  973000    1.0885348   -7.2049159    372.37821  0.031892618  0.031793681            2 
  974000    1.0948943   -7.1524679    372.61712  0.031880315  0.031788289            2 
  975000    1.1019985   -7.2141561    373.71568  0.031941511  0.031782999            3 
  976000    1.1008715   -7.2442374    373.44429  0.031885612    0.0317779            2 
  977000    1.1179767   -7.2066737    373.44954  0.031853424  0.031772543            4 
  978000    1.1353063   -7.2228399    372.27878  0.031721095  0.031766972            1 
  979000    1.0735755   -7.2483331    373.32425  0.031777686  0.031761451            3 
  980000    1.0793685   -7.2214005     373.4316  0.031754388  0.031755827            1 
  981000    1.0843057   -7.1928055    374.19127   0.03178655  0.031750179            1 
  982000    1.0994958    -7.210432    374.60485  0.031789278  0.031744793            2 
  983000    1.1022187   -7.2088586    374.17973  0.031720899  0.031739148            1 
  984000    1.0743882    -7.167743    373.60992  0.031640407  0.031733528            2 
  985000     1.088166   -7.2390491    375.57403  0.031774452  0.031727845            3 
  986000    1.0951327   -7.2354212     375.2862    0.0317179  0.031722123            2 
  987000    1.0819437   -7.1650909    375.59774  0.031712069  0.031716236            4 
  988000    1.0613307   -7.1939704    376.29557   0.03173883  0.031710649            1 
  989000    1.1065407   -7.1698529    376.70682   0.03174139  0.031704944            1 
  990000    1.0989976   -7.2156013    376.49436  0.031691444  0.031698958            2 
  991000    1.0993899   -7.1890477    376.79018  0.031684341  0.031693271            4 
  992000    1.0787596   -7.2302952     377.7638   0.03173419  0.031687516            1 
  993000    1.0764407   -7.1890378    378.23936  0.031742141  0.031681841            1 
  994000    1.0779878   -7.2158571    377.51893   0.03164981  0.031676039            1 
  995000      1.10552   -7.2498941    377.20946  0.031592082  0.031670128            3 
  996000    1.0903155   -7.2086778    378.99605  0.031709843  0.031664377            1 
  997000    1.0993118   -7.2213314    378.91637  0.031671378  0.031658852            2 
  998000    1.1027322   -7.2224668    380.06515  0.031735567  0.031653408            2 
  999000    1.0823378   -7.1971223    381.13591  0.031793119  0.031648114            2 
 1000000    1.1077275   -7.2089363    379.89865   0.03165822   0.03164271            2 
 1001000    1.0994944   -7.2445107     379.5243  0.031595429  0.031637365            1 
 1002000    1.0856272   -7.2159849    380.15038  0.031615966  0.031632129            3 
 1003000    1.1040683   -7.1984621    382.08533  0.031745208  0.031626869            2 
 1004000    1.1094871   -7.2106178    381.66036  0.031678317  0.031621885            2 
 1005000    1.0757501   -7.2054896    382.00255   0.03167517  0.031616773            3 
 1006000    1.0762629   -7.2026745    383.50061  0.031767777  0.031611734            2 
 1007000    1.0784148    -7.205085    382.56236  0.031658586  0.031606687            2 
 1008000    1.1328175   -7.1935634    384.29267  0.031770227  0.031601544            3 
 1009000    1.0999036   -7.2203797    384.13504  0.031725721  0.031596537            1 
 1010000    1.0900719   -7.2448749    383.66392  0.031655439  0.031591556            2 
 1011000    1.0828042   -7.2346445    385.75259   0.03179629  0.031586703            1 
 1012000    1.0705876    -7.246242    384.58827  0.031668994  0.031581682            4 
 1013000    1.0773353   -7.2270266    386.79492   0.03181926  0.031576942            1 
 1014000    1.0849861   -7.2325689    385.62658  0.031691863  0.031572094            1 
 1015000    1.0811377   -7.2442077     385.4968  0.031649984  0.031567233            1 
 1016000    1.0870181   -7.2681143    384.82315  0.031563578  0.031562005            1 
 1017000    1.0930062    -7.235564    385.83902  0.031615783  0.031556573            4 
 1018000    1.0835308   -7.2205796    386.41764  0.031632092  0.031551425            1 
 1019000    1.0986648   -7.2129622    387.58231  0.031696296  0.031546224            4 
 1020000    1.0924818   -7.2101553    387.45131  0.031654519  0.031540872            1 
 1021000    1.0710264   -7.2698312    386.41665  0.031539067   0.03153556            2 
 1022000    1.0815916   -7.2239688    387.30675  0.031580785  0.031530279            1 
 1023000    1.1104485   -7.2001696    386.97414   0.03152282  0.031524889            1 
 1024000    1.0929555   -7.2515462     388.8769  0.031646883  0.031519853            1 
 1025000    1.0905975   -7.2273268    388.69818  0.031601478  0.031514545            3 
 1026000    1.0740001    -7.235029    389.29187  0.031618898  0.031509167            2 
 1027000    1.0951445   -7.2357498    389.22702  0.031582848  0.031503764            1 
 1028000    1.0938024   -7.1975542    389.76362  0.031595624  0.031498389            2 
 1029000     1.070584   -7.2341691    390.24179  0.031603644  0.031493054            2 
 1030000    1.0839475   -7.1891077    390.71833  0.031611515  0.031487949            3 
 1031000    1.0667338   -7.1819968     390.7355  0.031582242  0.031482599            2 
 1032000    1.0921503    -7.212856    390.37432  0.031522474  0.031477365            2 
 1033000    1.0812326    -7.231777    390.38389  0.031492731  0.031471871            2 
 1034000    1.0826912   -7.2381231    390.24641  0.031451194  0.031466042            2 
 1035000    1.0982749   -7.2213077    390.03357  0.031403669  0.031460233            1 
 1036000    1.1144166   -7.2576445    390.85993  0.031439827  0.031454645            2 
 1037000    1.0640614   -7.2352004    390.28273  0.031363125  0.031449005            2 
 1038000    1.0796735    -7.221136    391.80585   0.03145519  0.031443228            1 
 1039000    1.0791701   -7.2542925    391.60244  0.031408602  0.031437424            2 
 1040000    1.0855641   -7.2405347    391.54114  0.031373489  0.031431559            2 
 1041000     1.091777   -7.2328757    392.46009  0.031416914  0.031425621            2 
 1042000     1.095505   -7.2513582    393.43408  0.031464658   0.03141993            2 
 1043000    1.0658028   -7.1847714    395.04792  0.031563432  0.031414202            1 
 1044000    1.1042421   -7.2096004    392.33991  0.031317043  0.031408283            1 
 1045000    1.0848819   -7.2006228    394.35562  0.031447817  0.031402421            3 
 1046000    1.0384702   -7.2070617    394.13535  0.031400203  0.031396753            2 
 1047000    1.0928287   -7.2475234    394.47677  0.031397387   0.03139123            3 
 1048000    1.0824629    -7.256778    395.73169  0.031467214  0.031385654            1 
 1049000    1.0748322   -7.2268739    394.59739  0.031347107   0.03138028            2 
 1050000    1.0577801   -7.2588149    394.05261  0.031274017  0.031374441            1 
 1051000    1.0955973   -7.2240387    397.03638  0.031480842  0.031368874            1 
 1052000    1.0731405   -7.2372095    395.65013  0.031341107  0.031362974            2 
 1053000    1.0888286   -7.2164455    396.05708  0.031343548  0.031357049            1 
 1054000    1.1237355   -7.2321633    395.27982  0.031252358  0.031351238            1 
 1055000    1.0951081   -7.2419332    396.29834  0.031303186  0.031345247            2 
 1056000    1.1053125    -7.193747    397.39467  0.031360059  0.031339197            2 
 1057000    1.0845374   -7.2145547    398.22962  0.031396217  0.031333373            1 
 1058000    1.0648994   -7.2393747    397.54376   0.03131252  0.031327775            2 
 1059000    1.0707868   -7.2515147    397.06177  0.031245025  0.031322138            1 
 1060000     1.062428   -7.2321819     398.0262  0.031291368  0.031316481            2 
 1061000    1.0897518   -7.2410468    398.19641  0.031275244  0.031310687            1 
 1062000    1.0904216   -7.2278979    398.60152  0.031277583  0.031304799            2 
 1063000    1.0835671    -7.241924    398.98092  0.031277902  0.031298922            3 
 1064000    1.0712186   -7.2551052    399.06288  0.031254925  0.031292764            2 
 1065000    1.1091985   -7.2351589    400.17248  0.031312401  0.031286651            1 
 1066000     1.095575   -7.2695387    398.96675  0.031188771  0.031280745            3 
 1067000    1.0728173   -7.2380687    399.49104  0.031200487  0.031274597            1 
 1068000     1.078122   -7.2673391    399.56981  0.031177419  0.031268485            2 
 1069000    1.0573234    -7.265589    399.46402  0.031140008  0.031262234            2 
 1070000      1.07823   -7.2387719    400.72323  0.031208974  0.031256275            2 
 1071000     1.067938   -7.2527804    400.89354  0.031193086  0.031250373            3 
 1072000    1.0907038   -7.2376335    401.74562  0.031230225  0.031244377            3 
 1073000    1.0656067   -7.1899468    403.03356  0.031301146  0.031238382            1 
 1074000    1.0786681   -7.2168331    403.15344  0.031281304   0.03123252            1 
 1075000    1.0662523   -7.2376225    402.94637  0.031236153  0.031226859            1 
 1076000    1.0762058    -7.230642    403.63844  0.031260722  0.031221039            2 
 1077000    1.0732679   -7.2828889    401.24962   0.03104686  0.031215211            2 
 1078000    1.0537614   -7.1900551    403.15797  0.031165582  0.031209188            3 
 1079000    1.0523367   -7.2538053    403.96667  0.031199156  0.031203403            1 
 1080000    1.1030131   -7.2541413    403.93942  0.031168165  0.031197418            2 
 1081000    1.0623498   -7.2706903    403.81675  0.031129876  0.031191173            2 
 1082000    1.0889978   -7.2083465     404.0693  0.031120556  0.031185041            1 
 1083000    1.0616563   -7.2401294    404.13111  0.031096577  0.031179077            2 
 1084000    1.0717685   -7.1929848    405.25568  0.031154342  0.031172945            1 
 1085000    1.0827238   -7.2538672    404.12422  0.031038726  0.031166933            2 
 1086000    1.0621044   -7.2601977    404.76283  0.031059149  0.031160356            2 
 1087000    1.0597817   -7.2293914    405.13753  0.031059301  0.031153827            1 
 1088000    1.0895686   -7.2585773    404.58141   0.03098816  0.031147362            1 
 1089000    1.0633986   -7.1988598    406.40503  0.031099252  0.031140787            2 
 1090000    1.0921509   -7.2603085    405.71941  0.031018303  0.031134401            1 
 1091000    1.0723168   -7.2245352    405.97546  0.031009431  0.031127981            2 
 1092000    1.0780389   -7.2293908     407.1297  0.031069117  0.031121688            1 
 1093000    1.0766187   -7.3026083    407.46675  0.031066388  0.031115373            2 
 1094000    1.0624399   -7.2707211    405.86392  0.030915899  0.031108952            2 
 1095000    1.0820754   -7.2677182    407.06893  0.030979371  0.031102502            1 
 1096000    1.0575132   -7.2569328    406.49266  0.030907289  0.031096153            1 
 1097000    1.0671421   -7.2495274    407.98426  0.030992423  0.031089832            1 
 1098000    1.0686152     -7.29891    406.85889  0.030878786  0.031083224            2 
 1099000    1.0639416   -7.2623733    407.64652  0.030910413  0.031076556            3 
 1100000    1.0542777   -7.2703906     408.5609  0.030951583  0.031069887            2 
 1101000    1.0746259   -7.2311789    408.01365  0.030882051   0.03106357            1 
 1102000    1.0794353   -7.2086301    409.52009  0.030967944  0.031057212            2 
 1103000    1.0800902   -7.2548041    408.98173  0.030899194  0.031050684            2 
 1104000    1.0869596    -7.238025    408.45276  0.030831277  0.031044047            4 
 1105000    1.0638753    -7.247328    408.19007  0.030783565  0.031037227            2 
 1106000    1.0666743   -7.2375401    411.24835  0.030986163  0.031030354            1 
 1107000    1.0768726   -7.2405745    409.60561  0.030834508  0.031023849            1 
 1108000    1.0662368    -7.242464    410.89493   0.03090365  0.031017046            1 
 1109000    1.0753745   -7.2650652    410.08067  0.030814598  0.031010203            1 
 1110000    1.0768022   -7.2405183    411.20424  0.030871189  0.031003582            1 
 1111000    1.0991881   -7.2703124    410.16689  0.030765593  0.030996768            2 
 1112000    1.0882678     -7.23779    411.06318  0.030805095  0.030989787            1 
 1113000    1.0647569   -7.2208403    412.30085  0.030870085   0.03098305            3 
 1114000    1.0534584   -7.2327465    411.88044  0.030810924  0.030976391            3 
 1115000    1.0852973   -7.2838219    411.17033  0.030730219  0.030969564            2 
 1116000    1.0536609   -7.2652658     411.6559  0.030738941  0.030962423            1 
 1117000    1.0770668   -7.2503999    412.44339  0.030770172  0.030955344            2 
 1118000    1.0636258   -7.2373836    413.28124  0.030805101  0.030948464            2 
 1119000    1.0811504   -7.2300314    413.06246   0.03076128   0.03094148            2 
 1120000     1.060531   -7.2798707    411.44741  0.030613646  0.030934338            1 
 1121000    1.0660112   -7.2391425     412.6894  0.030678665  0.030927381            1 
 1122000    1.0710113   -7.2442725    413.22791  0.030691319  0.030920344            1 
 1123000    1.0384661   -7.2590416     413.5224  0.030685842  0.030913456            2 
 1124000    1.0850603   -7.2754038    413.94492  0.030689867    0.0309065            5 
 1125000    1.1159799   -7.2774934    415.37451  0.030768482  0.030899536            1 
 1126000    1.0809266   -7.2895154     412.9967  0.030565179  0.030892541            3 
 1127000    1.0710062   -7.2548767    414.61359  0.030657615  0.030885539            2 
 1128000    1.0687781   -7.2420548    415.36059  0.030685623  0.030878341            2 
 1129000    1.0668582   -7.2809039    414.90072  0.030624499  0.030871107            4 
 1130000    1.0776289   -7.2800132    414.28607   0.03055207  0.030863941            1 
 1131000    1.0691466     -7.29478    413.53015   0.03046936  0.030856581            1 
 1132000    1.0823431   -7.2631003    416.40932  0.030654397  0.030849179            3 
 1133000    1.0751577   -7.2433473    416.20998  0.030612679  0.030841838            2 
 1134000    1.0634736   -7.3008955    415.10199  0.030504262  0.030834605            2 
 1135000    1.0469371   -7.2817933    416.23294  0.030560422  0.030827229            1 
 1136000    1.1038489   -7.2634922     416.6216   0.03056203  0.030820103            3 
 1137000    1.0715379    -7.242439    417.68473   0.03061307  0.030812711            1 
 1138000    1.0622043   -7.2615346    417.37667  0.030563611  0.030805536            2 
 1139000    1.0700496   -7.2561909    417.20678  0.030524347  0.030798162            2 
 1140000    1.0770961   -7.2577372    417.98514   0.03055447  0.030791013            1 
 1141000    1.0555084   -7.2682471    416.58771  0.030425629  0.030783705            1 
 1142000    1.0741252   -7.3394758    416.40346  0.030385542  0.030776277            1 
 1143000    1.0544774   -7.2828493    418.49247  0.030511262   0.03076894            1 
 1144000    1.0768989   -7.2530785    418.85994  0.030511359  0.030761818            1 
 1145000    1.0760907   -7.2801139    419.17355  0.030507536  0.030754531            3 
 1146000    1.0757739   -7.2542789    420.84567  0.030602507  0.030747324            1 
 1147000     1.041622   -7.2609635    419.94071  0.030510078  0.030740304            3 
 1148000    1.0537761   -7.2929915    419.86962   0.03047834  0.030733039            1 
 1149000    1.0649534   -7.2539493    420.62657  0.030506714  0.030725817            1 
 1150000    1.0734085   -7.2504447    419.85218  0.030424071   0.03071855            2 
 1151000    1.0752145   -7.2525262    420.75967  0.030463341  0.030711323            2 
 1152000    1.0711205   -7.2385835     421.7004  0.030504948  0.030704159            3 
 1153000    1.0629266   -7.3017868    420.62886  0.030401045  0.030696766            2 
 1154000     1.066678   -7.2661238    421.02923  0.030403612  0.030689597            2 
 1155000    1.0867562   -7.3011079    422.34725  0.030472384  0.030682495            2 
 1156000    1.0964874   -7.3097749     421.2864   0.03036955  0.030675135            1 
 1157000    1.0866303    -7.259038    422.46514  0.030428201  0.030667771            1 
 1158000    1.0776102   -7.2778598    422.34334  0.030393159  0.030660588            1 
 1159000    1.0585817   -7.2489775    423.78807  0.030470813  0.030653419            2 
 1160000    1.0545224   -7.3113946    422.91534  0.030381849  0.030646248            2 
 1161000    1.0835761   -7.3152926    423.03788  0.030364476  0.030638956            2 
 1162000    1.0489408   -7.2573119    423.80618  0.030393444  0.030631827            1 
 1163000    1.0710502   -7.2757672    425.15975  0.030464299  0.030624857            2 
 1164000    1.0608786   -7.3032479    423.97784  0.030353511  0.030617667            1 
 1165000    1.0855994   -7.2898187    423.46509  0.030290779  0.030610468            1 
 1166000    1.0538096   -7.2659182    424.60311  0.030346134  0.030603251            1 
 1167000    1.0623952   -7.3124231    424.78905  0.030333408  0.030596002            2 
 1168000    1.0651933   -7.2846317    425.54395  0.030361298  0.030588915            2 
 1169000    1.0795178   -7.3098499    426.67338  0.030415838  0.030581817            2 
 1170000    1.0470275   -7.2853274    426.90241  0.030406155  0.030574839            3 
 1171000     1.057189   -7.2731195    426.40157  0.030344547  0.030567919            2 
 1172000    1.0599262   -7.2605798    427.77138  0.030416054  0.030560892            1 
 1173000    1.0788836   -7.2730191    426.90336  0.030328457  0.030554069            4 
 1174000    1.0358531   -7.3047045    427.60689  0.030352562  0.030547193            1 
 1175000    1.0609199   -7.3145984    429.38698  0.030452977  0.030540331            1 
 1176000    1.0600141    -7.289279    427.55911  0.030297556  0.030533422            1 
 1177000    1.0664891   -7.2518526    429.90935  0.030438215  0.030526626            2 
 1178000    1.0384208   -7.2515593    427.82478  0.030264911  0.030519791            2 
 1179000    1.0711779   -7.2932332    429.13915  0.030332142  0.030512863            1 
 1180000    1.0430458   -7.2236534    430.62594  0.030411436  0.030505999            1 
 1181000     1.066955   -7.2704622    430.36948   0.03036759  0.030499079            4 
 1182000    1.0555613   -7.2974229    429.27532  0.030264757  0.030492121            1 
 1183000    1.0597237   -7.2594815    430.31404  0.030312344  0.030485177            1 
 1184000    1.0317817   -7.3077527    428.45901   0.03015618  0.030478284            2 
 1185000    1.0536223   -7.2945519    430.06295  0.030243526  0.030471354            2 
 1186000    1.0666207   -7.2721545    430.23004  0.030229767  0.030464524            5 
 1187000    1.0557022   -7.2602648    432.28949  0.030348883  0.030457969            1 
 1188000    1.0383631   -7.2406324    432.36292  0.030328488  0.030451283            1 
 1189000    1.0822193     -7.27423    432.81355  0.030334563  0.030444698            2 
 1190000     1.050616   -7.3052887    432.51506   0.03028817   0.03043815            2 
 1191000     1.056437   -7.2609009    434.77887  0.030421136  0.030431688            1 
 1192000    1.0580247   -7.3316343    432.63501  0.030245736  0.030425163            2 
 1193000    1.0563062   -7.2852632    435.23876   0.03040226  0.030418691            2 
 1194000    1.0487287   -7.2740138    434.98295  0.030358944  0.030412346            1 
 1195000     1.062909    -7.274123    434.29416  0.030285506  0.030405992            2 
 1196000    1.0703659    -7.269658    435.99348  0.030378587  0.030399616            1 
 1197000    1.0627778   -7.2722534    435.47466  0.030317089  0.030393337            1 
 1198000    1.0669287   -7.2527349    436.26746   0.03034693  0.030387112            3 
 1199000    1.0324753   -7.2886854    436.25371  0.030320664  0.030380857            3 
 1200000    1.0769238   -7.3145774    436.98943  0.030346488  0.030374651            1 
 1201000    1.0674397   -7.2966339    436.87106  0.030313007  0.030368424            9 
 1202000    1.0580638   -7.2705979    436.94517  0.030292927  0.030362329            3 
 1203000    1.0675737   -7.2699822     436.6481  0.030247167  0.030356271            1 
 1204000    1.0653974   -7.2949506    439.29907  0.030405528  0.030350122            2 
 1205000    1.0477811   -7.2882202    438.97854  0.030358128  0.030343919            2 
 1206000    1.0304014   -7.2783724    437.88188  0.030257178  0.030337583            1 
 1207000    1.0467337   -7.3105802    438.53306  0.030277068   0.03033125            2 
 1208000    1.0661237   -7.3147714    438.12765  0.030224037  0.030324717            3 
 1209000    1.0482622   -7.3121996    438.46187  0.030222076  0.030318062            3 
 1210000    1.0324633   -7.2967554    438.14865  0.030175527  0.030311457            3 
 1211000    1.0394527   -7.3286783    437.15577  0.030082285  0.030304639            1 
 1212000    1.0600744   -7.2759484    438.53723   0.03015245  0.030297623            2 
 1213000    1.0604826   -7.2648451      440.351  0.030252199  0.030290828            1 
 1214000    1.0495009   -7.2876898    438.08211  0.030071534  0.030284044            2 
 1215000    1.0625611   -7.3245529    438.96415   0.03010728  0.030277139            2 
 1216000    1.0533389   -7.2607828    438.18447  0.030029089  0.030270304            1 
 1217000    1.0506166   -7.3155245    438.86506  0.030051017  0.030263442            2 
 1218000    1.0518167   -7.2961174    439.38285  0.030061771  0.030256435            2 
 1219000    1.0630759   -7.2833133    439.21133  0.030025385  0.030249338            1 
 1220000    1.0560905   -7.2743671    440.03377  0.030056952  0.030242324            2 
 1221000    1.0714764   -7.3496686    438.43437  0.029923176  0.030235105            4 
 1222000     1.049922   -7.3038375    440.51286  0.030040429  0.030227949            3 
 1223000    1.0624703   -7.2772434    440.76086  0.030032765  0.030220954            1 
 1224000    1.0389027   -7.3289725    442.18419  0.030105133  0.030213904            1 
 1225000    1.0503181   -7.3194981    440.59752  0.029972621  0.030206851            2 
 1226000     1.079078   -7.3218385    440.97223  0.029973642  0.030199611            2 
 1227000    1.0507522   -7.3171663     440.7945  0.029937143  0.030192422            1 
 1228000    1.0406072   -7.3443718    440.91972  0.029921263  0.030184962            1 
 1229000    1.0448318   -7.3292634    441.05112  0.029905826  0.030177559            2 
 1230000    1.0280475   -7.2915154    441.45701  0.029909012  0.030170204            3 
 1231000    1.0542128    -7.280714    442.56009  0.029959389  0.030162801            2 
 1232000    1.0304899   -7.3121709    443.56048  0.030002738  0.030155517            2 
 1233000    1.0553759   -7.3138975    440.39487  0.029764455  0.030148021            3 
 1234000    1.0777565   -7.2916371    442.05894  0.029852711  0.030140542            3 
 1235000    1.0401841   -7.3015462    442.19249   0.02983755  0.030133185            2 
 1236000    1.0661493   -7.2891399    443.63568  0.029910712   0.03012593            2 
 1237000    1.0499486   -7.3159964    442.22596  0.029791563  0.030118489            2 
 1238000    1.0672733   -7.3204078    443.27925  0.029838399  0.030110751            1 
 1239000    1.0389752   -7.2906349    443.23903   0.02981161  0.030103141            4 
 1240000    1.0571188   -7.2869555    443.91916  0.029833277  0.030095647            2 
 1241000    1.0531221   -7.2931884    442.89319  0.029740343  0.030088144            2 
 1242000    1.0513198   -7.3319107    443.23998  0.029739666  0.030080555            1 
 1243000    1.0534756   -7.3168987    445.12324  0.029841998  0.030073085            2 
 1244000    1.0540097   -7.3179776    444.89827  0.029802939  0.030065662            2 
 1245000    1.0494599   -7.3039171    444.84243  0.029775263  0.030058005            1 
 1246000    1.0389501     -7.30509    447.03732  0.029898162  0.030050569            1 
 1247000    1.0569884   -7.2915075     445.5251  0.029773129  0.030043143            2 
 1248000    1.0560216   -7.3320864    445.22106   0.02972897  0.030035706            1 
 1249000    1.0404393   -7.2857389    446.32364  0.029778732  0.030028245            2 
 1250000    1.0474799   -7.2819106    445.52805   0.02970187  0.030020864            1 
 1251000    1.0555788   -7.3496318    445.34741  0.029666095  0.030013259            1 
 1252000    1.0448639   -7.2712684    446.79727  0.029738902  0.030005609            1 
 1253000    1.0760079   -7.3218237    444.78536  0.029581362  0.029997854            2 
 1254000    1.0632041   -7.2805149    447.85449  0.029761729  0.029990102            2 
 1255000    1.0481802   -7.2750069    446.13293    0.0296237  0.029982409            1 
 1256000    1.0535828   -7.3265387    445.66025  0.029568753  0.029974879            3 
 1257000    1.0651578    -7.310559     446.6988  0.029614081  0.029967264            3 
 1258000    1.0583297   -7.3346192    447.75646  0.029660603  0.029959498            3 
 1259000    1.0508691   -7.3191165    447.52674  0.029621839  0.029951658            1 
 1260000    1.0497141   -7.3330217     448.2537  0.029646408  0.029943847            1 
 1261000    1.0447862   -7.3471563    446.90628  0.029533854  0.029936236            1 
 1262000    1.0282586   -7.3076805    448.91749  0.029643258  0.029928635            2 
 1263000    1.0509911   -7.2854633    449.12522  0.029633493  0.029920953            2 
 1264000    1.0263765   -7.3127988    447.69277   0.02951561  0.029913215            2 
 1265000    1.0490535   -7.3159867    448.85593  0.029568902  0.029905467            1 
 1266000    1.0414965   -7.2878084    448.54549  0.029525111  0.029897759            3 
 1267000    1.0905482   -7.2895272    450.13196  0.029606154  0.029890229            1 
 1268000    1.0584639   -7.3134542    450.58829  0.029612795  0.029882696            1 
 1269000    1.0570267   -7.3161928    452.31176  0.029702637  0.029875092            2 
 1270000      1.03938   -7.3115466     450.4712  0.029558478  0.029867413            2 
 1271000    1.0603044   -7.3027094    451.66729  0.029613643  0.029859647            1 
 1272000    1.0679995   -7.3384021     451.0166  0.029547733  0.029851971            2 
 1273000     1.046759   -7.3039148    450.95504  0.029520492  0.029844405            2 
 1274000     1.036382   -7.3257045    451.66405  0.029543698  0.029836801            3 
 1275000    1.0507395   -7.2806491    451.93641  0.029538327  0.029829341            2 
 1276000    1.0583015   -7.3552878    452.54628  0.029555008  0.029821707            1 
 1277000     1.062917   -7.3149013     451.0303  0.029432935    0.0298142            6 
 1278000    1.0499343    -7.272889    453.88439  0.029596009  0.029806766            2 
 1279000    1.0387251   -7.3221382    452.29683  0.029469431  0.029799053            2 
 1280000    1.0431266    -7.336648    452.25539   0.02944371  0.029791436            3 
 1281000    1.0394585   -7.3594003    452.94262  0.029465432  0.029783722            4 
 1282000    1.0510929   -7.3359437    453.57837  0.029483773  0.029776087            1 
 1283000     1.016582   -7.3245317    453.60817  0.029462729  0.029768581            2 
 1284000    1.0425162   -7.3290042    454.12998  0.029473648  0.029761101            2 
 1285000    1.0627981   -7.3393459    454.12396  0.029450322  0.029753531            1 
 1286000    1.0276248    -7.300811    454.71815  0.029465924  0.029745808            2 
 1287000    1.0408745   -7.3442686    455.02756  0.029463064  0.029738282            3 
 1288000     1.056602   -7.3588086    453.97906  0.029372351  0.029730588            6 
 1289000    1.0270047   -7.3215117    455.46178  0.029445421  0.029722783            2 
 1290000    1.0388823   -7.3093646    453.10151  0.029270123  0.029714924            1 
 1291000    1.0402758   -7.3297079    454.07773  0.029310465  0.029707146            3 
 1292000    1.0457809   -7.3366717    454.39629  0.029308326    0.0296992            2 
 1293000    1.0408279   -7.3221986    456.94666   0.02945003  0.029691466            2 
 1294000    1.0474731   -7.3004298    456.57463  0.029403312  0.029683925            3 
 1295000    1.0673074   -7.3484126    455.51331  0.029312311  0.029676386            3 
 1296000    1.0259582   -7.3438788    457.13116  0.029393722  0.029668777            6 
 1297000     1.027589   -7.3277773    456.63229  0.029339006  0.029661185            2 
 1298000    1.0363927   -7.3238054    458.22586  0.029418712  0.029653473            2 
 1299000     1.059713   -7.3094738    458.10557  0.029388348  0.029645858            3 
 1300000    1.0367888   -7.3449659    457.06674   0.02929915  0.029638343            1 
 1301000    1.0274079   -7.3385898    456.77662  0.029258046  0.029630704            2 
 1302000    1.0482313   -7.3381038    458.49343  0.029345458  0.029623085            1 
 1303000    1.0184364   -7.2985262    459.24921  0.029371272  0.029615465            1 
 1304000    1.0705646    -7.315125    458.00252  0.029269077  0.029607866            1 
 1305000    1.0378505    -7.309295    459.41845  0.029337066  0.029600207            1 
 1306000     1.035055   -7.3233139    458.55361  0.029259419  0.029592596            1 
 1307000    1.0506724   -7.3435231    459.84686  0.029319488  0.029584857            2 
 1308000    1.0689317   -7.3292042    459.07163  0.029247683   0.02957728            2 
 1309000     1.036625    -7.376944     458.7347  0.029203889  0.029569436            1 
 1310000    1.0556455   -7.3325229    459.56098  0.029234159  0.029561741            2 
 1311000    1.0409356   -7.3293627    462.05342  0.029370291  0.029554168            2 
 1312000    1.0407408   -7.3110394    459.54769  0.029188751  0.029546481            1 
 1313000    1.0390273   -7.2925638    461.33188  0.029279759  0.029539022            3 
 1314000    1.0664785   -7.3056635    460.76159  0.029221309  0.029531602            2 
 1315000    1.0420601   -7.2895741     462.6101  0.029316229  0.029524212            1 
 1316000    1.0449373   -7.3194281    461.70927  0.029236909  0.029516916            2 
 1317000    1.0409779   -7.3480181    461.16393  0.029180203  0.029509407            1 
 1318000     1.042981   -7.3209931    462.19872   0.02922349  0.029501702            2 
 1319000    1.0545464   -7.3148828    461.62755  0.029165248  0.029493998            1 
 1320000    1.0490874   -7.3458289    462.36096  0.029189454  0.029486293            3 
 1321000    1.0433255   -7.3216584    462.51839   0.02917729  0.029478724            2 
 1322000    1.0629128   -7.3534141    462.39946  0.029147722  0.029471076            1 
 1323000    1.0244973   -7.3598118    462.65529  0.029141805  0.029463368            1 
 1324000    1.0178663   -7.3434467    463.05523  0.029144966  0.029455651            2 
 1325000    1.0258277   -7.3428544     463.5686  0.029155258  0.029448057            2 
 1326000    1.0431407   -7.3450064    464.12914  0.029168498  0.029440381            1 
 1327000    1.0240372   -7.3660674    462.78129  0.029061874  0.029432774            1 
 1328000    1.0553408   -7.3421965    464.42717  0.029143271  0.029425255            2 
 1329000    1.0195935    -7.305773    465.36308  0.029180027  0.029417793            3 
 1330000    1.0313853   -7.3173098     464.5773  0.029108854  0.029410282            2 
 1331000    1.0399179   -7.3293963    466.07758  0.029180915  0.029402808            3 
 1332000    1.0308524   -7.3593943    465.89719  0.029147722  0.029395244            1 
 1333000    1.0450049   -7.3238471    466.24047  0.029147316  0.029387781            4 
 1334000    1.0414842   -7.2931339    468.47159  0.029264842  0.029380503            1 
 1335000    1.0480864   -7.3341753    466.95321  0.029148141  0.029373191            2 
 1336000    1.0326314   -7.3394394    466.53915  0.029100496  0.029365694            1 
 1337000    1.0236272   -7.3759851     465.7178  0.029027537  0.029358094            2 
 1338000    1.0444735   -7.3377023    467.69058  0.029128711  0.029350727            1 
 1339000    1.0195971   -7.3237506    467.53267  0.029097129  0.029343338            1 
 1340000    1.0470554   -7.3273829    466.84993  0.029032956  0.029335978            2 
 1341000    1.0396676    -7.365208    468.30283  0.029101593  0.029328676            2 
 1342000     1.010907   -7.3359533    469.60409  0.029160711  0.029321504            3 
 1343000    1.0281116   -7.3335531      469.166  0.029111814  0.029314405            2 
 1344000    1.0514353   -7.3759048    469.40196  0.029104784   0.02930718            1 
 1345000    1.0550381   -7.3273336    470.68436    0.0291626   0.02929999            2 
 1346000    1.0228019   -7.3532475    470.29985  0.029117128  0.029292815            2 
 1347000    1.0327583    -7.348399     471.3357  0.029159596  0.029285562            2 
 1348000    1.0319357   -7.3466939    470.83132  0.029106783  0.029278513            2 
 1349000    1.0179982   -7.3570935    469.96742  0.029031839  0.029271364            1 
 1350000    1.0202392   -7.3346513    469.89306  0.029005744  0.029264124            3 
 1351000    1.0318338   -7.3639136    471.93234  0.029110063  0.029256914            2 
 1352000    1.0248889   -7.3541582    470.42696  0.028995744  0.029249664            2 
 1353000     1.014459   -7.3579361     471.1001  0.029015774  0.029242479            2 
 1354000    1.0314135   -7.3251855    472.68843  0.029092099  0.029235336            2 
 1355000    1.0205222   -7.3120171     472.7469  0.029074225  0.029228162            2 
 1356000    1.0195078   -7.3291606    471.99729  0.029006717  0.029220874            1 
 1357000     1.016854   -7.3275178    472.92383  0.029042239  0.029213627            4 
 1358000    1.0250092   -7.3627204    471.94932  0.028961053  0.029206341            2 
 1359000    1.0339763   -7.3565376    472.95308  0.029001293  0.029198955            1 
 1360000    1.0326755   -7.3759648    471.44168  0.028887358  0.029191586            1 
 1361000    1.0287921   -7.3249759    473.50005  0.028992165  0.029184354            1 
 1362000    1.0207848   -7.3508948    473.38839  0.028964047  0.029177146            1 
 1363000    1.0298201   -7.3495798    472.59682  0.028894401   0.02916994            2 
 1364000    1.0358827   -7.3253294    475.33786  0.029040681  0.029162781            2 
 1365000   0.99091635   -7.3610413    474.85089  0.028989676  0.029155612            1 
 1366000    1.0210224   -7.3726066    475.32436  0.028997337  0.029148556            2 
 1367000    1.0149272   -7.3706962     475.0864  0.028961619  0.029141503            3 
 1368000     1.035059   -7.3456801    475.60599    0.0289721  0.029134377            3 
 1369000    1.0197811   -7.3500494    477.67294  0.029076755   0.02912734            1 
 1370000    1.0380418   -7.3923918    475.01184  0.028893664  0.029120255            2 
 1371000    1.0365195   -7.3462104    477.16277  0.029003329  0.029113094            2 
 1372000     1.052723    -7.380459    475.39444  0.028874784  0.029105861            1 
 1373000    1.0522282   -7.3570994    477.95122  0.029008935  0.029098762            2 
 1374000    1.0235976   -7.3335371     477.8054  0.028978979  0.029091848            3 
 1375000    1.0262602   -7.3426766    476.51715  0.028879827  0.029084981            2 
 1376000    1.0237787   -7.3548647    477.49403  0.028918001  0.029077935            1 
 1377000    1.0170596   -7.3378554    479.77992  0.029035338  0.029071005            4 
 1378000   0.98689804   -7.3240489    478.38504  0.028929913   0.02906403            1 
 1379000    1.0383246   -7.3345575    478.43774  0.028912119  0.029056882            1 
 1380000    1.0335249    -7.341201    478.37763  0.028887538  0.029049776            1 
 1381000    1.0256632    -7.393678    477.76032   0.02882937  0.029042667            2 
 1382000    1.0301194    -7.344526    478.79296  0.028870777  0.029035695            1 
 1383000    1.0232356   -7.3684378    479.70341  0.028904761  0.029028684            1 
 1384000     1.032494   -7.3719391    479.49113  0.028871094  0.029021439            2 
 1385000    1.0429073   -7.3360462    480.20023  0.028892914  0.029014506            3 
 1386000    1.0531027   -7.3816488    479.45298  0.028827139  0.029007328            2 
 1387000    1.0197377   -7.3696983    479.37234   0.02880151  0.029000084            2 
 1388000    1.0168074   -7.3388126    479.66758  0.028798486  0.028992809            2 
 1389000    1.0345318   -7.3578298    481.12484  0.028865181  0.028985713            2 
 1390000    1.0124132   -7.3686977     480.6303  0.028814766  0.028978463            2 
 1391000    1.0532953   -7.3435605    479.84418  0.028746955  0.028971173            1 
 1392000    1.0432256   -7.3636069    480.69538  0.028777261  0.028963896            3 
 1393000    1.0401051   -7.3076373    481.51467  0.028805616  0.028956669            1 
 1394000    1.0344408   -7.3528531    481.58702  0.028789277  0.028949443            5 
 1395000    1.0143336   -7.3414107    480.87848  0.028726313  0.028942021            2 
 1396000    1.0243775   -7.3689276    481.82394  0.028762174   0.02893475            3 
 1397000    1.0171099    -7.400023    481.69149  0.028733685  0.028927677            1 
 1398000    1.0280893   -7.3478666    483.49292  0.028820512  0.028920666            2 
 1399000    1.0285793   -7.3468437     484.8456  0.028880486  0.028913753            1 
 1400000    1.0389804   -7.3602139    483.37392  0.028772257  0.028906769            2 
 1401000    1.0322496   -7.3325615    484.71134  0.028831271  0.028899802            2 
 1402000    1.0394102   -7.3678042    483.03528  0.028711084  0.028892887            2 
 1403000     1.031523   -7.3576855    483.50254  0.028718374  0.028885943            3 
 1404000    1.0429398   -7.3606358    484.55935  0.028760645  0.028878905            1 
 1405000    1.0262873   -7.3754147    483.66198   0.02868695  0.028872085            3 
 1406000    1.0222744   -7.3306116    484.69389  0.028727708  0.028865141            1 
 1407000    1.0151206   -7.3581769    485.06103  0.028729035  0.028858303            1 
 1408000   0.99715608   -7.3846348    485.51913  0.028735744  0.028851416            1 
 1409000    1.0164484   -7.3536241     485.4297   0.02871006   0.02884445            1 
 1410000    1.0308384    -7.388968    485.91819  0.028718569  0.028837455            1 
 1411000    1.0286972   -7.3456798     485.6042  0.028679672  0.028830544            3 
 1412000    1.0111225   -7.3812032    486.06311  0.028686444  0.028823572            2 
 1413000    1.0110042   -7.3619021    487.13666  0.028729456  0.028816551            3 
 1414000    1.0416274   -7.3834599    485.23173  0.028596872  0.028809535            3 
 1415000    1.0290907   -7.3334582    487.95073  0.028736792  0.028802619            1 
 1416000    1.0308914   -7.3616398    488.11137  0.028725952  0.028795712            1 
 1417000    1.0333879    -7.364709    486.46636  0.028608937  0.028788775            4 
 1418000    1.0182027   -7.3875971    487.07303  0.028624414  0.028781824            2 
 1419000    1.0288999   -7.3611389    487.90113  0.028652873  0.028774894            3 
 1420000    1.0208314   -7.3930906    488.50292  0.028668012  0.028768065            2 
 1421000     1.008016   -7.3591749    488.06079  0.028621909   0.02876118            3 
 1422000    1.0119821   -7.3848789    488.10377    0.0286043  0.028754325            3 
 1423000    1.0151221   -7.3786737    489.67396  0.028676151  0.028747525            4 
 1424000    1.0290199    -7.355533    490.86263  0.028725575  0.028740784            3 
 1425000    1.0322733   -7.3786259    490.25796  0.028670056  0.028734101            2 
 1426000    1.0276107   -7.3637271    491.62402  0.028729782  0.028727329            2 
 1427000     1.039249    -7.377585    490.27683  0.028630976  0.028720591            1 
 1428000    1.0189694   -7.3578745    489.10974  0.028542819  0.028713758            2 
 1429000    1.0498725   -7.3966831    489.46345  0.028543471  0.028706786            2 
 1430000    1.0639357   -7.3599933    489.95379  0.028552086  0.028699863            1 
 1431000    1.0299081   -7.3535558    492.99279  0.028709107  0.028693088            2 
 1432000    1.0378272   -7.3675653    492.68119  0.028670926  0.028686344            2 
 1433000    1.0341151   -7.4081113    491.65621  0.028591312  0.028679624            3 
 1434000    1.0518663   -7.3675451    491.78865  0.028579071  0.028672726            2 
 1435000    1.0212607   -7.3426539    493.79494  0.028675664  0.028665994            1 
 1436000    1.0155702   -7.3962718    492.94044  0.028606107  0.028659243            1 
 1437000    1.0364033   -7.3502202    491.47035  0.028500948  0.028652346            1 
 1438000   0.99573372   -7.3603482    492.65748  0.028549924   0.02864534            4 
 1439000    1.0434371   -7.3695001    492.12559  0.028499281  0.028638602            4 
 1440000    1.0321411   -7.3324954     493.4378  0.028555428  0.028631685            3 
 1441000    1.0374277    -7.370606    493.11987  0.028517226  0.028625021            3 
 1442000    1.0066897   -7.3628662    494.85234  0.028597569  0.028618374            2 
 1443000    1.0321708   -7.3851965    492.62742  0.028449262  0.028611753            2 
 1444000    1.0406136   -7.3613735    494.49717  0.028537464  0.028605047            1 
 1445000    1.0156878   -7.3847539    495.88448  0.028597721  0.028598261            2 
 1446000    1.0230291    -7.372643    496.01083  0.028585225  0.028591463            2 
 1447000    1.0172397   -7.3745981    495.63014  0.028543547  0.028584843            2 
 1448000    1.0190634   -7.3772615    496.46385  0.028571815  0.028578182            2 
 1449000    1.0154698   -7.4005518    495.33101  0.028486945  0.028571447            1 
 1450000    1.0192625   -7.3660596    496.79456  0.028551412  0.028564599            1 
 1451000    1.0151771   -7.3601319    496.12999  0.028493567  0.028557852            1 
 1452000    1.0334298   -7.3667883    495.29134  0.028425811  0.028551132            3 
 1453000    1.0223385   -7.3548917    496.88898  0.028497877  0.028544446            2 
 1454000    1.0167299   -7.3567472    497.53879   0.02851552  0.028537845            1 
 1455000    1.0089175   -7.3890519    497.52228  0.028494976  0.028531205            1 
 1456000     1.003974   -7.3856156    495.58102  0.028364298  0.028524414            3 
 1457000   0.97856752   -7.3828182     497.2202  0.028438584  0.028517545            2 
 1458000    1.0303085   -7.3849744     496.5019  0.028378024  0.028510781            1 
 1459000    1.0055537   -7.3590278    498.76613  0.028487899  0.028504098            2 
 1460000    1.0208206   -7.3792529    497.10733  0.028373706  0.028497381            4 
 1461000   0.99420327    -7.378135    499.25987  0.028477063  0.028490671            1 
 1462000    1.0340656   -7.3698197     497.7838  0.028373449  0.028483877            2 
 1463000      1.01682    -7.426669    496.84932  0.028300827  0.028477015            2 
 1464000    1.0173185   -7.3612479    499.36904  0.028424923  0.028470188            1 
 1465000    1.0130221   -7.3830817     497.4261     0.028295  0.028463231            1 
 1466000    1.0019642    -7.397355    498.31999  0.028326512  0.028456127            3 
 1467000    1.0254809   -7.4371279    495.46204  0.028144856  0.028449062            1 
 1468000    1.0376585   -7.4133841    499.32075  0.028344729  0.028441891            4 
 1469000     1.012731   -7.3681754    499.62995  0.028342975   0.02843481            1 
 1470000    1.0154418   -7.3810297    497.43408  0.028199211  0.028427615            2 
 1471000   0.99958601   -7.3740556    499.60752  0.028303168  0.028420629            2 
 1472000    1.0181356   -7.4086172    499.59039  0.028282971  0.028413636            1 
 1473000     1.032189   -7.3848275    499.93378  0.028283196  0.028406639            1 
 1474000   0.98804455   -7.3595833    500.79075  0.028312458  0.028399694            1 
 1475000    1.0246835   -7.3679476    500.72846  0.028289744  0.028392697            1 
 1476000    1.0252871   -7.3846899    500.97585  0.028284544  0.028385617            1 
 1477000      1.01634   -7.3435016    500.52282  0.028239834  0.028378458            3 
 1478000    1.0202995   -7.3840609    500.00889  0.028191751  0.028371267            3 
 1479000    1.0145694   -7.3368287    502.76085  0.028327747  0.028364294            1 
 1480000    1.0159546   -7.3803328    500.49784  0.028181185  0.028357224            1 
 1481000    1.0069751   -7.3482782    502.23288  0.028259784  0.028350173            1 
 1482000    0.9951111   -7.3854673    501.21326  0.028183382  0.028343144            1 
 1483000    1.0151511   -7.3755258    503.09802  0.028270286  0.028336049            1 
 1484000    1.0271927   -7.3588012    501.68467  0.028171871  0.028329091            3 
 1485000   0.99272869   -7.3543211    503.89511  0.028276942  0.028322105            2 
 1486000    1.0320381   -7.3975059    503.19728   0.02821878  0.028315101            2 
 1487000    1.0326056   -7.4014597    502.55565  0.028163845  0.028308103            3 
 1488000    1.0019697   -7.4335261    502.65897  0.028150704  0.028301044            2 
 1489000    1.0027312   -7.4120879    502.61227  0.028129185  0.028293895            1 
 1490000   0.99404234   -7.4182489     502.7501  0.028118014  0.028286945            4 
 1491000    1.0159549   -7.3752902    504.94167  0.028221645  0.028280042            6 
 1492000     1.002995   -7.4352179    503.55321  0.028125179  0.028273313            2 
 1493000   0.99577343    -7.414822     504.4133  0.028154348  0.028266505            3 
 1494000    1.0265334   -7.4130532    503.96308  0.028110391  0.028259595            2 
 1495000    1.0099869   -7.3503431    507.80816  0.028305917   0.02825296            2 
 1496000    1.0054419    -7.412134    505.18744  0.028141012  0.028246295            1 
 1497000    1.0242336   -7.3939752    505.26003  0.028126254  0.028239414            2 
 1498000    1.0285599   -7.3855056    506.17365  0.028158303  0.028232527            3 
 1499000    1.0383122   -7.4124543    505.57642  0.028106317  0.028225504            1 
 1500000    1.0168118   -7.4121702    507.63034  0.028201686   0.02821864            3 
 1501000    1.0185978   -7.4012902    507.09155  0.028152984  0.028211794            1 
 1502000     1.008113   -7.4157259    505.06598  0.028021859    0.0282049            1 
 1503000    1.0116338   -7.4120142    505.39744  0.028021592   0.02819805            1 
 1504000    1.0001882   -7.4350944    505.81643  0.028026176  0.028191146            2 
 1505000    1.0011599   -7.4056581    507.07935  0.028077483  0.028184117            3 
 1506000    1.0281576   -7.4072928    505.46247  0.027969371  0.028177076            3 
 1507000    1.0173576   -7.3842314     507.5082  0.028063935  0.028170088            4 
 1508000   0.98205683   -7.3894823    508.58325  0.028104733  0.028163158            2 
 1509000    0.9926372   -7.4190243    507.75783  0.028040525  0.028156213            1 
 1510000    1.0150961   -7.4194476    506.84605  0.027971636  0.028149306            4 
 1511000   0.99586083   -7.3843493    509.17496  0.028081566  0.028142504            2 
 1512000    1.0159782   -7.3690172    508.27338  0.028013304  0.028135715            2 
 1513000    1.0049329   -7.4057327     507.8652  0.027972307  0.028128939            2 
 1514000    1.0056655   -7.3941686      509.171  0.028025705  0.028122185            1 
 1515000   0.98704251   -7.3889575    510.89835   0.02810222  0.028115401            2 
 1516000    1.0233059   -7.3697242    509.75821   0.02802101  0.028108551            2 
 1517000   0.99014425   -7.3628765    510.84533  0.028062257  0.028101759            2 
 1518000     1.001573   -7.4336074    509.85468  0.027989388  0.028094805            2 
 1519000    1.0260712   -7.4129523    509.72478  0.027963835  0.028087736            3 
 1520000    1.0192331   -7.3720166    510.10634  0.027966356  0.028080771            4 
 1521000    1.0158046   -7.3904532    511.67286  0.028033797  0.028073985            4 
 1522000    1.0148018   -7.4355145    510.99867  0.027978464  0.028067143            3 
 1523000    1.0250116   -7.4167147    512.30786  0.028031728  0.028060387            1 
 1524000     1.000051    -7.359551    512.70535   0.02803507  0.028053806            1 
 1525000    1.0070994    -7.422478    511.35511  0.027942902  0.028047118            3 
 1526000    1.0092947   -7.3664125    513.63906  0.028049315  0.028040515            1 
 1527000   0.99786411     -7.40348    513.26946  0.028010776  0.028033824            5 
 1528000     1.013552   -7.4158362    512.16201  0.027932047  0.028027137            2 
 1529000    1.0185675   -7.3883335    513.31341  0.027976532  0.028020439            2 
 1530000    1.0085051    -7.385618    514.02548   0.02799703  0.028013745            1 
 1531000    1.0186766   -7.4404558    512.86202  0.027915416  0.028006785            2 
 1532000    1.0061865   -7.4500374    512.81726  0.027894759  0.027999827            4 
 1533000    1.0092818    -7.411405    513.82464  0.027931324  0.027992992            2 
 1534000    1.0135494   -7.4165302    512.44214  0.027838013  0.027986076            3 
 1535000   0.99685531   -7.3685196    514.50356  0.027931789  0.027979244            1 
 1536000   0.99261167     -7.40913    512.80832  0.027821632  0.027972387            2 
 1537000    1.0080528   -7.4309677    514.26427  0.027882469  0.027965585            1 
 1538000    1.0137255   -7.4529966    513.77453  0.027837805  0.027958687            1 
 1539000   0.99997326   -7.4460442    514.43854  0.027855671  0.027951772            2 
 1540000   0.98542076   -7.4029129    515.54375  0.027897389  0.027944961            2 
 1541000   0.99505561   -7.3737594    515.82265  0.027894368  0.027938311            1 
 1542000    1.0269382   -7.4095215    515.18905  0.027842037  0.027931574            2 
 1543000    1.0005293   -7.3969344     516.6744  0.027904213  0.027924864            2 
 1544000    1.0476368   -7.3970134    516.79073  0.027892418  0.027918063            2 
 1545000    1.0136174   -7.3952166    518.19576  0.027950149  0.027911281            1 
 1546000   0.99912891   -7.4379462    515.64042   0.02779433  0.027904556            1 
 1547000   0.99409297   -7.3954392    517.00899  0.027850086  0.027897773            2 
 1548000    1.0071187    -7.409005    517.61824  0.027864892  0.027891111            2 
 1549000   0.99543471    -7.412985     517.9784   0.02786628  0.027884323            3 
 1550000   0.99573902   -7.4316263    517.76818  0.027836999  0.027877606            3 
 1551000   0.99806898   -7.4011874    516.62582  0.027757674  0.027870802            1 
 1552000   0.99822986   -7.4219007    516.54847  0.027735635  0.027863968            4 
 1553000    1.0125316   -7.4305426    516.13867  0.027695786  0.027857076            2 
 1554000   0.98593712   -7.4369101    516.05225   0.02767333  0.027850058            2 
 1555000   0.98898992    -7.382752     517.6316  0.027740172   0.02784323            2 
 1556000    1.0069269   -7.4292627    517.62759  0.027722129  0.027836419            1 
 1557000     1.007382   -7.4143663    518.07636  0.027728343  0.027829463            2 
 1558000    1.0135112   -7.4267054    518.60106  0.027738611   0.02782257            2 
 1559000    1.0139807   -7.4054489    518.47643  0.027714156  0.027815817            2 
 1560000    1.0073295   -7.4527289    519.39854  0.027745649  0.027808977            1 
 1561000    1.0094921   -7.4387505    519.95973  0.027757833  0.027802101            2 
 1562000   0.98193648   -7.4496379    519.24898  0.027702144  0.027795292            4 
 1563000    1.0015489    -7.435977    518.62084   0.02765093  0.027788482            2 
 1564000    1.0036157   -7.4055716    521.66713  0.027795563  0.027781828            1 
 1565000   0.99062585   -7.4229685    519.71004  0.027673591  0.027775188            2 
 1566000     1.014132   -7.4133657    520.87874  0.027718111  0.027768558            2 
 1567000    1.0007815   -7.4277704     520.7127  0.027691592  0.027761891            4 
 1568000    1.0002891   -7.3873633    521.50362  0.027715966  0.027755193            1 
 1569000    1.0263368   -7.4355869    521.40457   0.02769304  0.027748475            2 
 1570000   0.98673956   -7.4360981    521.26144  0.027667805  0.027741741            2 
 1571000    1.0022296   -7.4515431    522.31301  0.027705974  0.027735031            1 
 1572000    1.0099817   -7.4152351    523.12621  0.027731457  0.027728481            3 
 1573000   0.98978579   -7.4126176    522.18557  0.027663995   0.02772187            1 
 1574000   0.99344339   -7.4383321    523.49648  0.027715824  0.027715198            1 
 1575000   0.97184205   -7.3815439    524.78592  0.027766451  0.027708559            1 
 1576000    1.0001054    -7.425961    523.78085  0.027695688  0.027702008            3 
 1577000   0.99888909   -7.4236872    522.44951  0.027607774  0.027695414            3 
 1578000    0.9937865   -7.4318022    524.56477  0.027701984  0.027688744            1 
 1579000   0.98278386   -7.3879046    524.01636  0.027655497  0.027682118            5 
 1580000   0.97440519    -7.398958    524.17375  0.027646295  0.027675489            2 
 1581000   0.99907057   -7.4298271    524.59443  0.027650982  0.027668866            4 
 1582000   0.99793764   -7.4235509    524.45449  0.027626132  0.027662213            2 
 1583000    0.9839827   -7.4238116    525.02501  0.027638714  0.027655508            3 
 1584000     1.000418   -7.4106461    525.14327  0.027627487  0.027648928            2 
 1585000    1.0105753   -7.4583528    525.79156  0.027644141  0.027642313            1 
 1586000    1.0031112   -7.4465766    526.70283  0.027674592  0.027635665            1 
 1587000    0.9981594   -7.4426185    526.75332  0.027659805   0.02762909            2 
 1588000    1.0148223   -7.4720563    526.89735  0.027649945   0.02762252            3 
 1589000   0.96976742   -7.4221193    526.53029  0.027613294  0.027615962            2 
 1590000   0.99276549   -7.4282969    526.69143  0.027604373  0.027609372            2 
 1591000   0.99275303    -7.430456    527.82681  0.027646491  0.027603023            2 
 1592000   0.99588882   -7.4262572    527.88822   0.02763234  0.027596562            1 
 1593000   0.98746592   -7.4178922    526.75529  0.027555728  0.027590188            2 
 1594000    1.0153158   -7.4868182    527.42072  0.027573229  0.027583724            2 
 1595000   0.98366332   -7.4690153    528.62162  0.027618685  0.027577313            2 
 1596000   0.99372059   -7.4234799    528.78182  0.027609744  0.027571012            1 
 1597000    1.0031379   -7.4495064    528.48377  0.027576903  0.027564728            2 
 1598000   0.98295239   -7.4151705    529.66289  0.027621135  0.027558382            1 
 1599000   0.98170131   -7.4134366    529.53178  0.027597028  0.027552047            1 
 1600000    1.0137735   -7.4148894    530.45142  0.027627678  0.027545795            2 
 1601000    1.0054465   -7.4266077    531.02002  0.027640018  0.027539469            2 
 1602000    1.0018345   -7.4031688    530.50916   0.02759619   0.02753315            2 
 1603000    1.0125408   -7.4017017    530.14321  0.027559951  0.027526833            1 
 1604000   0.98369685   -7.4250175    531.25215  0.027600382  0.027520574            2 
 1605000   0.99730506   -7.4276496    531.42126  0.027591966  0.027514237            2 
 1606000   0.99031762   -7.4198466    533.24152  0.027669236  0.027507934            3 
 1607000    0.9851939   -7.4094298    532.23175  0.027599655  0.027501719            3 
 1608000   0.97934476   -7.4347916    531.32836  0.027535674  0.027495461            1 
 1609000   0.98799848   -7.3993199    531.44374  0.027524536  0.027489132            1 
 1610000    1.0178811   -7.4314475    531.78182  0.027524939  0.027482877            2 
 1611000   0.97616098   -7.4745588     531.4343  0.027489877  0.027476536            1 
 1612000   0.97888865   -7.4340602    531.89087  0.027496426  0.027470155            2 
 1613000   0.97491858   -7.4957961    532.18917  0.027494791  0.027463775            2 
 1614000    1.0001434   -7.4702214    530.37892   0.02738429  0.027457305            2 
 1615000     0.974784   -7.4070977     532.8526  0.027494974  0.027450947            2 
 1616000   0.99550919   -7.4364339    533.54378  0.027513602  0.027444593            1 
 1617000     1.004417   -7.4370893    534.08605  0.027524534   0.02743831            1 
 1618000   0.98793431   -7.4736739    531.92778  0.027396363  0.027431926            2 
 1619000    1.0140376   -7.4270452    534.12093  0.027492327  0.027425618            2 
 1620000   0.98145929   -7.4534281    533.89089  0.027463523  0.027419237            1 
 1621000    0.9957913   -7.4552917    531.76702  0.027337396  0.027412647            4 
 1622000   0.98201899   -7.4108045    534.69062  0.027470747  0.027406048            2 
 1623000   0.99724791   -7.4634267    533.15916  0.027375188  0.027399518            3 
 1624000    0.9862976    -7.432057    534.83233  0.027444188  0.027393066            2 
 1625000   0.99492239   -7.4197811    533.71747  0.027370126   0.02738666            4 
 1626000   0.98661851    -7.428156    534.55752  0.027396347  0.027380258            4 
 1627000   0.99790178   -7.4527709    535.29233  0.027417145  0.027373686            3 
 1628000   0.98980682   -7.4378229    534.35015  0.027352076  0.027367034            4 
 1629000     0.993313   -7.4197891    534.90026  0.027363427  0.027360523            1 
 1630000    1.0132747   -7.4552576    534.09181  0.027305307  0.027353989            2 
 1631000   0.99640428   -7.4554301    536.01963  0.027387065  0.027347656            1 
 1632000   0.99806139   -7.4402848    537.33558  0.027437478  0.027341238            1 
 1633000    1.0011682   -7.4338245    534.78813  0.027290678  0.027334781            1 
 1634000   0.97418608   -7.4327722    536.97622  0.027385568  0.027328286            1 
 1635000   0.97624526   -7.4558517    536.21719  0.027330132  0.027321769            2 
 1636000   0.99352065     -7.41182    535.14818  0.027258974  0.027315173            3 
 1637000   0.99714012   -7.4184027    537.10832  0.027342106  0.027308681            2 
 1638000   0.98565347   -7.4285603    536.75876  0.027307629  0.027302079            1 
 1639000   0.99120955   -7.4086214     536.4751  0.027276545  0.027295541            3 
 1640000   0.99160951   -7.4970733    535.99109   0.02723532  0.027288858            2 
 1641000    1.0068026   -7.4193561    537.87926  0.027314608  0.027282335            2 
 1642000    0.9743415   -7.4883444    536.02054  0.027203641  0.027275733            2 
 1643000    1.0040578    -7.486771    535.49869  0.027160615  0.027268982            3 
 1644000   0.99834775   -7.4483545    537.01085  0.027220744  0.027262461            2 
 1645000   0.97536285   -7.4448455    537.81115  0.027244739  0.027255943            3 
 1646000    1.0034546   -7.4214998    539.43056  0.027310174  0.027249479            2 
 1647000   0.99684599   -7.4051368    539.06177  0.027274933  0.027243125            5 
 1648000   0.98875682   -7.4665863    538.46273  0.027228091  0.027236629            3 
 1649000   0.98363543   -7.4773186    537.20484  0.027148011  0.027229963            2 
 1650000   0.98760951   -7.4668513    537.30327  0.027136529  0.027223317            5 
 1651000   0.98416488   -7.4504883    538.73711  0.027192465  0.027216649            3 
 1652000    1.0066531   -7.4803386    538.38354  0.027158169  0.027210038            1 
 1653000   0.97970547   -7.4369791    540.68918  0.027257974  0.027203455            2 
 1654000   0.98390564   -7.4270359    542.08826  0.027311984  0.027196807            1 
 1655000   0.97978685   -7.4655182    539.29444  0.027154806  0.027190125            2 
 1656000    1.0036242   -7.4763085    540.06574  0.027177221  0.027183468            3 
 1657000   0.99140298    -7.449318    539.10703  0.027112605  0.027176855            2 
 1658000    1.0115833   -7.4654358    540.86481    0.0271846  0.027170261            1 
 1659000    0.9879894    -7.481726    539.86273  0.027117879  0.027163645            1 
 1660000   0.99695322   -7.4472975    540.40908   0.02712897  0.027157049            7 
 1661000   0.98676173   -7.4760467    540.75997  0.027130241  0.027150455            2 
 1662000   0.98768719   -7.4556994    541.70194  0.027161148  0.027143912            1 
 1663000   0.97817026   -7.4607028    541.56778  0.027138093   0.02713737            3 
 1664000   0.97581505   -7.4814522     542.8133  0.027184159  0.027130851            2 
 1665000    0.9872043   -7.4159331    542.18935  0.027136604  0.027124404            2 
 1666000   0.99773627   -7.4743583    541.35614  0.027078639  0.027117837            2 
 1667000   0.99498495   -7.4730803    542.81472  0.027135309  0.027111201            4 
 1668000   0.98405663   -7.4902319    540.60235  0.027008511   0.02710461            2 
 1669000    0.9862584   -7.4785063    541.46912  0.027035606  0.027097973            3 
 1670000   0.97286408   -7.4670852    541.87455  0.027039648  0.027091342            2 
 1671000    1.0011902   -7.4984997    541.75579  0.027017544  0.027084773            1 
 1672000   0.99204011   -7.4966049    543.19361  0.027073047  0.027078094            2 
 1673000   0.99298983   -7.4297561    543.81923  0.027088027  0.027071591            3 
 1674000   0.99148535   -7.4546316    543.28923  0.027045461  0.027065133            3 
 1675000     1.003402   -7.4433631    544.80885  0.027104918  0.027058654            2 
 1676000   0.97581704   -7.4178448    545.33623  0.027114968  0.027052243            4 
 1677000   0.99481097   -7.4628464     544.4647  0.027055491  0.027045883            2 
 1678000   0.96526729   -7.4661762    545.97858   0.02711455  0.027039449            3 
 1679000   0.98813418   -7.4840144    546.15654  0.027107233  0.027032998            1 
 1680000     0.971311   -7.4725139    545.11251  0.027039311  0.027026598            2 
 1681000   0.97413463   -7.4607616    545.63947  0.027049349  0.027020122            1 
 1682000    1.0019467   -7.4923063     545.7697   0.02703972  0.027013708            1 
 1683000   0.97093665   -7.4409521    547.08628  0.027088843  0.027007374            1 
 1684000   0.98065488   -7.4650851    546.55084  0.027046261  0.027000872            2 
 1685000    0.9724133    -7.473299    546.71794  0.027038474  0.026994411            2 
 1686000   0.97744829   -7.4436299    545.64745  0.026969526  0.026987869            2 
 1687000   0.95119534   -7.4619684    547.23809  0.027032113  0.026981475            2 
 1688000   0.99743688   -7.4620741    548.73291  0.027089895  0.026975065            1 
 1689000   0.97303397   -7.4593754    547.21618  0.026999022  0.026968669            2 
 1690000   0.97244835   -7.4923814    545.56317  0.026901537  0.026962225            4 
 1691000    1.0054548   -7.5065024    546.49141  0.026931372  0.026955673            2 
 1692000    1.0001992   -7.4885258    547.12795  0.026946806   0.02694917            2 
 1693000   0.99100614   -7.4699915    545.64218  0.026857756  0.026942636            3 
 1694000    1.0032729   -7.4793151    547.36831  0.026926816  0.026936066            2 
 1695000   0.98609024    -7.508105    546.34365  0.026860553  0.026929546            3 
 1696000   0.97804182   -7.4374475    550.56854  0.027052306  0.026923027            1 
 1697000    1.0009347   -7.4980771    547.97605  0.026909057  0.026916523            2 
 1698000   0.96841158   -7.4230408    549.74058  0.026979809  0.026910056            1 
 1699000   0.97331896   -7.5061483    548.31362  0.026893939  0.026903565            2 
 1700000   0.96624198   -7.4936107    547.31047  0.026828945  0.026896938            1 
 1701000   0.97360879   -7.4553844    550.84908  0.026986532  0.026890433            3 
 1702000   0.99553078   -7.4653137    549.26439  0.026893086  0.026883865            3 
 1703000     0.969188   -7.4628062    549.54273  0.026890915  0.026877309            3 
 1704000   0.95096295   -7.4650504    548.14621  0.026806838  0.026870728            1 
 1705000   0.97914921   -7.4850691    548.84038  0.026825043  0.026864128            2 
 1706000   0.95132716   -7.4593232    550.45547  0.026888212  0.026857573            3 
 1707000   0.98190069   -7.4505926    550.54531  0.026876846  0.026851086            4 
 1708000   0.97180708   -7.4610465    549.20852  0.026795888  0.026844553            3 
 1709000   0.99225135   -7.4614347    549.55645  0.026797174  0.026837988            2 
 1710000   0.99975819   -7.4723539    550.26735  0.026816148  0.026831366            2 
 1711000   0.95853094    -7.496783     548.3327  0.026706249  0.026824633            2 
 1712000   0.99034082   -7.4819687    549.81312   0.02676271  0.026817916            2 
 1713000   0.99268802   -7.4755726    548.93424  0.026704332  0.026811247            2 
 1714000   0.96569538   -7.4822449    549.76642  0.026729211  0.026804473            1 
 1715000   0.95503019   -7.5209647    549.45513    0.0266985  0.026797647            3 
 1716000   0.95629326   -7.4812028    550.68992  0.026742906  0.026790797            4 
 1717000   0.98162318   -7.4663824    549.30071  0.026659906  0.026783977            1 
 1718000   0.97642385   -7.4531476    552.22978  0.026786466  0.026777282            1 
 1719000   0.97408713   -7.4824639    552.18488  0.026768706  0.026770538            2 
 1720000   0.98264328   -7.4655194    551.72522  0.026730873  0.026763857            3 
 1721000   0.98801398   -7.4391926    554.08931  0.026829814  0.026757159            1 
 1722000   0.98656494   -7.5061244    550.88257  0.026659048   0.02675046            3 
 1723000   0.97203583   -7.4473176    551.24267  0.026660992  0.026743664            2 
 1724000   0.97614135   -7.4926049    549.57266  0.026564804  0.026736874            2 
 1725000   0.97063394   -7.4706808    551.60219  0.026647449  0.026730127            4 
 1726000   0.97284067    -7.502764    550.88616  0.026597439  0.026723427            2 
 1727000   0.95037933   -7.4593797    553.96766  0.026730731  0.026716736            3 
 1728000   0.98165078   -7.4824634    553.32686  0.026684358  0.026710073            3 
 1729000   0.95369201   -7.4893608     552.1112  0.026610333  0.026703363            2 
 1730000   0.97048606   -7.4911159    552.54332  0.026615767  0.026696521            2 
 1731000    0.9651935     -7.46302    553.42002  0.026642597  0.026689687            5 
 1732000   0.98162876   -7.4773723     553.0672  0.026610239  0.026682905            1 
 1733000   0.95487374   -7.4939277    552.82146  0.026583067  0.026676028            1 
 1734000   0.97389284   -7.4903318    554.12176  0.026630227  0.026669151            3 
 1735000   0.96859754   -7.5099035    553.15021  0.026568214  0.026662393            2 
 1736000   0.96624108   -7.4826487    553.83407  0.026585737  0.026655514            1 
 1737000   0.96363492    -7.472879    555.14085  0.026633125  0.026648629            1 
 1738000   0.96793395   -7.5023227    553.14096   0.02652191  0.026641819            2 
 1739000   0.95275047    -7.506404    552.77757  0.026489245  0.026634881            2 
 1740000   0.97163524   -7.5127482    552.90205  0.026479983  0.026627917            2 
 1741000   0.98896662    -7.494906    553.40642  0.026488915  0.026620937            3 
 1742000   0.97645297   -7.5077559    554.21753  0.026512511   0.02661397            3 
 1743000   0.97103997    -7.480815    554.04876  0.026489231  0.026606963            1 
 1744000   0.98895589   -7.5048485    553.87713  0.026465841  0.026599923            5 
 1745000   0.97207706   -7.4790919    553.98192  0.026455679  0.026593004            1 
 1746000   0.97913221   -7.5246418    553.45569  0.026415411  0.026586079            2 
 1747000    0.9593214    -7.529428    555.30211  0.026488366  0.026579135            2 
 1748000   0.98215895   -7.5035383    554.55248  0.026437475  0.026572184            1 
 1749000   0.96778493   -7.4914817    554.84284  0.026436194  0.026565194            3 
 1750000   0.98909242   -7.5127535    556.06796  0.026479427   0.02655825            3 
 1751000   0.98458916   -7.4895049    555.42323   0.02643362  0.026551359            2 
 1752000   0.97504301   -7.4851336    555.51429  0.026422864  0.026544417            1 
 1753000    1.0001329   -7.4779122    554.97653  0.026382227   0.02653745            1 
 1754000   0.97750442   -7.4641498    556.24949  0.026427665    0.0265306            2 
 1755000   0.97395639   -7.4551084    556.01334  0.026401393  0.026523631            4 
 1756000   0.95280656   -7.4936005    556.37394  0.026403471  0.026516658            2 
 1757000   0.98208762   -7.4696753    556.57068  0.026397775  0.026509647            2 
 1758000   0.98362601   -7.5195493    557.73641  0.026438017  0.026502688            3 
 1759000   0.97692656   -7.5067796    556.47556  0.026363254  0.026495662            3 
 1760000   0.94941301   -7.5191093    556.07366  0.026329245  0.026488631            1 
 1761000   0.98498022   -7.4656889    556.98943   0.02635763  0.026481629            2 
 1762000   0.97647311   -7.5321398    557.10295   0.02634804  0.026474597            3 
 1763000   0.96236556   -7.4694262    558.01022  0.026375979  0.026467602            1 
 1764000   0.96159668   -7.4850022    557.87471  0.026354626  0.026460699            2 
 1765000   0.96159716    -7.477598    555.68923  0.026236507  0.026453713            3 
 1766000   0.96545399    -7.493481    556.90594  0.026279065  0.026446645            3 
 1767000   0.96571967   -7.5418487    557.28623  0.026282128  0.026439477            3 
 1768000   0.97425813      -7.4984    558.54634  0.026326657  0.026432408            2 
 1769000   0.94536001   -7.4875499     558.8584  0.026326474  0.026425291            2 
 1770000   0.96514243   -7.5290008    556.77599  0.026213559   0.02641827            1 
 1771000   0.97863677   -7.4990853    556.83852    0.0262017  0.026411208            3 
 1772000   0.97442264   -7.4687265    558.43938  0.026262198  0.026404145            2 
 1773000    0.9682395   -7.5022815    558.05817  0.026229469  0.026397107            5 
 1774000   0.99882636   -7.4772839    560.21728  0.026316107  0.026390155            2 
 1775000   0.95895851   -7.4908445    558.59042  0.026224902   0.02638314            1 
 1776000   0.97494983   -7.4772407     559.9149  0.026272283  0.026376049            2 
 1777000    0.9536049   -7.5048024    557.44318  0.026141586   0.02636887            1 
 1778000   0.97521938   -7.4974547    558.50705  0.026176746  0.026361736            1 
 1779000   0.96621046   -7.4884959    559.05542  0.026187719  0.026354581            1 
 1780000   0.97980311   -7.5130344    559.35658  0.026187106   0.02634738            2 
 1781000   0.96744145   -7.4770053    559.94883  0.026200114  0.026340296            2 
 1782000   0.99350393   -7.5064866     560.6816  0.026219678  0.026333194            3 
 1783000    0.9560009   -7.5366675    558.86988  0.026120297  0.026326055            2 
 1784000    0.9708034   -7.4921285    561.46288  0.026226779  0.026318914            1 
 1785000   0.94336867   -7.5270129    561.14614  0.026197299  0.026311802            3 
 1786000   0.96564893   -7.5345073    559.45164  0.026103567  0.026304653            3 
 1787000    0.9387949   -7.5269892    559.78372  0.026104445    0.0262975            2 
 1788000   0.96166039   -7.5098503     560.2947  0.026113661  0.026290295            1 
 1789000   0.99279019   -7.4869716    562.40276  0.026197259   0.02628322            1 
 1790000   0.97310665   -7.5352565    561.48638  0.026139962  0.026276153            1 
 1791000   0.97345696     -7.47751    562.96203  0.026194027   0.02626917            2 
 1792000   0.97062288   -7.5437103    560.70252  0.026074336  0.026262162            1 
 1793000   0.97003542   -7.4968256    561.26155  0.026085776  0.026255127            3 
 1794000   0.96985869   -7.5205514    563.82387  0.026190258  0.026248211            2 
 1795000   0.94256454   -7.4746444    563.02351   0.02613851  0.026241259            3 
 1796000    0.9783749   -7.5040693    563.04154  0.026124793  0.026234251            2 
 1797000   0.94656092   -7.5452139    561.20427  0.026025054  0.026227249            3 
 1798000   0.95857541   -7.5001147    563.52066  0.026117939  0.026220238            1 
 1799000   0.94612113    -7.506983    564.62665  0.026154653   0.02621328            6 
 1800000   0.98772999   -7.4926812    565.02005  0.026158336  0.026206297            2 
 1801000   0.98417916   -7.5068661     563.0638  0.026053294  0.026199332            2 
 1802000   0.95763994   -7.5048509    563.46441  0.026057363   0.02619244            3 
 1803000   0.96416594   -7.5065896     564.3933  0.026085843  0.026185565            2 
 1804000   0.93911415   -7.5246807    564.00061  0.026053243  0.026178526            1 
 1805000   0.96186973   -7.5004879    564.76027  0.026073881  0.026171459            1 
 1806000   0.93663544   -7.5116413    563.92482  0.026020894  0.026164475            1 
 1807000   0.96344122   -7.5291983    564.33092  0.026025222  0.026157574            1 
 1808000   0.96572464   -7.5213814    563.58072   0.02597625  0.026150563            2 
 1809000   0.99054242   -7.5211715    563.93178  0.025978062  0.026143566            1 
 1810000   0.97748495   -7.5076163    566.35199  0.026075138  0.026136562            2 
 1811000   0.96867866    -7.524131    566.06833  0.026047687  0.026129584            3 
 1812000    0.9478936   -7.5161338      565.462  0.026005427  0.026122519            2 
 1813000   0.95257379   -7.4996218    565.75028  0.026004333    0.0261156            5 
 1814000   0.95299045   -7.5268572     566.3177  0.026016065  0.026108585            3 
 1815000   0.98831598   -7.5151002    566.39268  0.026005173  0.026101615            1 
 1816000   0.95332323   -7.5583785    565.54664   0.02595203  0.026094561            2 
 1817000   0.97990258   -7.5363393    565.51623  0.025936353   0.02608754            3 
 1818000   0.96193627   -7.4921385    566.26805  0.025956548  0.026080594            2 
 1819000   0.94899566   -7.5098486    566.87538  0.025970102  0.026073689            1 
 1820000   0.94980577   -7.5284328    567.41065  0.025980341  0.026066823            1 
 1821000   0.94042326   -7.5120709     565.7326  0.025889282  0.026059763            2 
 1822000   0.95485281   -7.5437459    567.75849  0.025967732  0.026052748            1 
 1823000    0.9755712   -7.5306995    569.16625  0.026017839  0.026045669            1 
 1824000   0.95689575   -7.5100424    568.88021  0.025990507   0.02603873            2 
 1825000   0.97153283   -7.4939012    568.07534  0.025939513  0.026031839            4 
 1826000    0.9552496   -7.5134372    567.76066  0.025910946  0.026024907            1 
 1827000   0.94847457   -7.4943546    568.52288  0.025931531  0.026017945            2 
 1828000    0.9542922   -7.5467664     568.1242   0.02589917  0.026010958            1 
 1829000   0.96915562   -7.5080509    567.75394   0.02586814  0.026003922            3 
 1830000   0.95866254   -7.5071573    569.40224  0.025929064  0.025996888            1 
 1831000   0.98427301   -7.4915016    569.19765  0.025905591   0.02598995            3 
 1832000   0.97046404   -7.5172967    572.17058  0.026026682   0.02598308            1 
 1833000   0.96564758   -7.5248511    568.85842  0.025861903  0.025976193            2 
 1834000   0.93656448   -7.5215048    568.78335  0.025844391  0.025969297            3 
 1835000   0.93560016   -7.5198587    569.35412  0.025856227   0.02596239            1 
 1836000   0.94351063    -7.589822    568.64804  0.025810096   0.02595547            2 
 1837000   0.95379807      -7.4972    571.25448  0.025914284  0.025948592            2 
 1838000    0.9519678   -7.5068824    568.81182  0.025789437   0.02594175            3 
 1839000   0.95230967   -7.5294162    572.09364  0.025924127  0.025934937            2 
 1840000   0.97768536    -7.536958    570.65171  0.025844733  0.025928178            2 
 1841000   0.94779102   -7.5134189    573.16634   0.02594452  0.025921431            1 
 1842000   0.96455691   -7.5269121    571.39518  0.025850307   0.02591461            1 
 1843000   0.96238284   -7.5162137    571.36031  0.025834704  0.025907702            3 
 1844000   0.97790353   -7.5265935    571.74428  0.025838046  0.025900823            2 
 1845000   0.92468221   -7.5503176    571.16259  0.025797768  0.025893954            3 
 1846000   0.93875332   -7.5163212    572.93756   0.02586392  0.025887128            2 
 1847000   0.96484432   -7.5616667    571.69362  0.025793793  0.025880267            1 
 1848000   0.97149456   -7.5508021    572.06812  0.025796722  0.025873417            3 
 1849000   0.96475142   -7.5108882    572.96547  0.025823214  0.025866611            1 
 1850000   0.96240159   -7.4792065    573.19639  0.025819657   0.02585984            2 
 1851000   0.94579898    -7.525762     572.8733  0.025791163  0.025853137            3 
 1852000   0.93623171   -7.5264832    571.98545  0.025737286  0.025846332            2 
 1853000   0.96805756   -7.5585322    572.00421   0.02572424  0.025839523            2 
 1854000    0.9507413   -7.5099244    572.69571  0.025741447  0.025832731            3 
 1855000   0.95290448   -7.5147631    574.43283  0.025805608   0.02582584            2 
 1856000   0.95800078   -7.5138569    574.18163  0.025780425  0.025818994            2 
 1857000   0.94891989   -7.5345155      573.755  0.025747397  0.025812283            3 
 1858000   0.94113928   -7.5124299     573.6958  0.025730884  0.025805514            4 
 1859000    0.9600354   -7.5156304    574.54887  0.025755284  0.025798695            2 
 1860000   0.96816472   -7.5636576    572.24668  0.025638292  0.025791783            3 
 1861000    0.9677934   -7.5007459    573.22502  0.025668324   0.02578494            2 
 1862000    0.9640705    -7.540054    572.87795  0.025639006  0.025778075            2 
 1863000   0.94387969   -7.5084717    574.38472  0.025692643  0.025771108            3 
 1864000    0.9685512   -7.5063975    574.19569  0.025670408  0.025764056            2 
 1865000   0.96248828   -7.5329558    574.78094  0.025682795  0.025757087            1 
 1866000   0.95531663   -7.5051629    574.31896  0.025648399  0.025750043            1 
 1867000   0.96175754   -7.5371318    572.72861  0.025563677  0.025742882            1 
 1868000   0.93412556   -7.5174008    574.13201  0.025612598  0.025735818            1 
 1869000   0.94455971   -7.5109436    573.70897  0.025580033  0.025728771            3 
 1870000   0.95520729   -7.5341954     572.9982  0.025534679  0.025721724            3 
 1871000   0.94093917   -7.5336592    574.55517  0.025590378  0.025714564            2 
 1872000    0.9407439   -7.5553642    573.94018  0.025549332  0.025707367            1 
 1873000    0.9485284   -7.5138816    575.05458  0.025585272  0.025700258            3 
 1874000   0.94730894   -7.5334571    574.33323  0.025539543   0.02569312            2 
 1875000   0.95481866   -7.5459077    574.21696  0.025520754  0.025685889            2 
 1876000    0.9474409   -7.5580498    574.25558  0.025508865  0.025678764            2 
 1877000    0.9521322   -7.5083296    575.06634  0.025531271  0.025671701            1 
 1878000   0.94993856   -7.5251568    576.16665    0.0255665  0.025664632            2 
 1879000   0.96004911   -7.5342945    573.69983  0.025443491  0.025657488            2 
 1880000   0.94399272   -7.5403964    575.26023  0.025499124  0.025650403            2 
 1881000   0.96411418   -7.5115793    574.74711  0.025462835  0.025643298            2 
 1882000   0.95887744    -7.537609     575.4675  0.025481203  0.025636086            1 
 1883000   0.92804212   -7.5263552    576.32346  0.025505552  0.025628989            2 
 1884000   0.95428848   -7.5424834    576.15646  0.025484628  0.025621884            1 
 1885000   0.95688959   -7.5191524    573.94858    0.0253735  0.025614823            2 
 1886000   0.94041523   -7.5819499    575.59956  0.025432996  0.025607748            3 
 1887000   0.94043345   -7.5597622    576.79244  0.025472197  0.025600566            2 
 1888000   0.95421409   -7.5084199    576.09321  0.025427843  0.025593415            1 
 1889000   0.95251237   -7.5613255    575.97308  0.025409083  0.025586228            3 
 1890000   0.93092786   -7.5151586    576.49611    0.0254187  0.025579113            2 
 1891000   0.94146012   -7.5439616    576.85289   0.02542098  0.025571999            1 
 1892000   0.95218269   -7.5315241    577.14919  0.025420595  0.025564868            2 
 1893000   0.92947206    -7.527758    579.01966  0.025489508  0.025557807            2 
 1894000   0.95417577   -7.5461506    576.93361  0.025384267  0.025550731            2 
 1895000    0.9494366   -7.5467168    578.98948  0.025461279  0.025543589            1 
 1896000   0.94652654   -7.5464705    577.09816  0.025364722  0.025536476            3 
 1897000   0.95829215   -7.5684545    576.86251  0.025340999   0.02552932            2 
 1898000    0.9599042   -7.5971879     575.9784   0.02528883  0.025522149            2 
 1899000   0.94395173   -7.5653976    578.09793  0.025368524  0.025515066            1 
 1900000   0.96404611   -7.5559743    577.97806  0.025349915  0.025507982            3 
 1901000   0.97373377   -7.5249165    577.62293  0.025321012  0.025500886            1 
 1902000   0.96420856   -7.5346406     579.5364  0.025391535  0.025493821            1 
 1903000     0.952115   -7.5507221    579.03959  0.025356437  0.025486744            2 
 1904000   0.94166873   -7.5503355    581.33119  0.025443417  0.025479664            1 
 1905000   0.97534391    -7.593953    577.75489  0.025273617  0.025472619            2 
 1906000   0.94771524   -7.5446957    578.74945  0.025303841  0.025465609            2 
 1907000   0.94101283   -7.5834184    578.76126  0.025291088  0.025458518            1 
 1908000   0.92736853   -7.5346798    580.17974  0.025339786  0.025451513            1 
 1909000   0.92647029   -7.5506695    581.29397  0.025375152  0.025444411            2 
 1910000   0.93823292   -7.5638678    579.23424     0.025272  0.025437394            2 
 1911000   0.94045858   -7.4952114     582.2307  0.025389443  0.025430405            2 
 1912000   0.96530797   -7.5536156     580.6758  0.025308394  0.025423385            2 
 1913000   0.92572963   -7.5062326     581.9622  0.025351202  0.025416529            4 
 1914000   0.96217151   -7.5499985    580.95421   0.02529407  0.025409592            1 
 1915000   0.94522037   -7.5694839    581.52102  0.025305527  0.025402564            2 
 1916000    0.9577971   -7.5377286    582.71731   0.02534435  0.025395641            1 
 1917000   0.96276468   -7.5730833    581.15437  0.025263188  0.025388711            4 
 1918000   0.94124393   -7.5724289    581.77118  0.025276815  0.025381749            2 
 1919000   0.96647413   -7.5445553    582.85004  0.025310493  0.025374764            3 
 1920000   0.94182269   -7.5503726    582.79763  0.025295036  0.025367779            1 
 1921000   0.93948777   -7.5756457    581.11861  0.025209032   0.02536069            1 
 1922000   0.93825723   -7.5419238    581.24652  0.025201462  0.025353674            3 
 1923000   0.91683027   -7.5562953     583.2819   0.02527656  0.025346631            1 
 1924000   0.96967535   -7.5683838    582.34315  0.025222763  0.025339626            1 
 1925000    0.9397185    -7.557273    581.73939  0.025183523  0.025332634            2 
 1926000   0.93020596    -7.601924    580.89412  0.025133875   0.02532553            1 
 1927000   0.93735127   -7.5626831    582.04237  0.025170488  0.025318411            1 
 1928000   0.94902064   -7.5327741      583.469  0.025219096  0.025311309            2 
 1929000   0.95438417   -7.5697081      582.434   0.02516131  0.025304378            2 
 1930000   0.94174049   -7.5364563    583.82667  0.025208405  0.025297386            2 
 1931000    0.9645664   -7.5203995    582.71556    0.0251474   0.02529046            2 
 1932000   0.95445662   -7.5369308    583.86275  0.025183866  0.025283499            1 
 1933000   0.93480983   -7.5356401    584.14457  0.025182987   0.02527655            1 
 1934000   0.93863047   -7.5722008    582.65799  0.025105911  0.025269538            2 
 1935000   0.95435325   -7.5406887    584.30477  0.025163857  0.025262551            2 
 1936000   0.94026563   -7.5946373    582.69822  0.025081707  0.025255511            2 
 1937000    0.9388579   -7.5880693    584.43914  0.025143656  0.025248466            2 
 1938000   0.94418856   -7.5668082    583.38822  0.025085493  0.025241462            2 
 1939000    0.9360998   -7.5224815    585.86722  0.025179096  0.025234471            3 
 1940000   0.92966621   -7.5374139    585.36578  0.025144578  0.025227479            1 
 1941000   0.94796247   -7.5479441    586.19393  0.025167179  0.025220478            3 
 1942000   0.97700351   -7.5565013    585.54018  0.025126166  0.025213564            2 
 1943000   0.95726174   -7.5676541    586.35684   0.02514826  0.025206568            3 
 1944000   0.95303094   -7.5411783    585.42918  0.025095558  0.025199575            2 
 1945000   0.95319909   -7.5409305    584.88315  0.025059261  0.025192541            2 
 1946000   0.96029063   -7.5653014    584.49088  0.025029586  0.025185503            3 
 1947000   0.96186124   -7.5897585    584.41196  0.025013352  0.025178411            2 
 1948000   0.90378956   -7.5961836    584.56849  0.025007208  0.025171308            2 
 1949000   0.95277723   -7.5636077     585.1007  0.025017133   0.02516417            2 
 1950000   0.95287641   -7.5353571    585.41128  0.025017576  0.025157099            1 
 1951000   0.93287136   -7.5506648     587.7666  0.025105356  0.025150049            3 
 1952000   0.92900051   -7.5592037    585.71237  0.025004797  0.025142994            1 
 1953000   0.91743781   -7.5684207    585.53634  0.024984483  0.025135934            2 
 1954000   0.91690439   -7.5784607    585.97778  0.024990523  0.025128797            3 
 1955000   0.95065096    -7.555451    586.29614   0.02499131  0.025121729            3 
 1956000   0.92405046   -7.5378318    586.16807  0.024973077  0.025114726            3 
 1957000   0.93285697   -7.6001325    585.93811  0.024950524   0.02510762            1 
 1958000   0.93820453    -7.600052    587.15809  0.024989704  0.025100596            1 
 1959000   0.94161058   -7.6076279    587.28677  0.024982422  0.025093546            2 
 1960000   0.95636322   -7.5711875    589.16296  0.025049446  0.025086485            1 
 1961000   0.95155669   -7.5272781    587.90416  0.024983179  0.025079518            4 
 1962000   0.92784132   -7.5623543    587.54569   0.02495522  0.025072481            2 
 1963000   0.95303141   -7.5431108     588.8967   0.02499986  0.025065444            1 
 1964000   0.93285561   -7.5688894    588.35595  0.024964187  0.025058444            2 
 1965000     0.940398   -7.5838387    587.68877  0.024923188  0.025051376            3 
 1966000   0.93574978   -7.5787101     589.5861  0.024990934  0.025044325            1 
 1967000   0.94126107   -7.5596949    589.88822  0.024991028  0.025037329            3 
 1968000   0.92525529   -7.5804461    588.72763  0.024929185  0.025030328            2 
 1969000   0.93635651   -7.5465086    590.44953  0.024989399  0.025023371            1 
 1970000    0.9463691   -7.5682563      588.071    0.0248761  0.025016527            2 
 1971000   0.91899936   -7.5574121    590.99499  0.024987104   0.02500965            3 
 1972000   0.92584627   -7.6141216    589.80915  0.024924322  0.025002733            5 
 1973000   0.93106413   -7.5735923    590.80146  0.024953601  0.024995797            2 
 1974000   0.94232977    -7.583835    590.76856  0.024939571  0.024988842            3 
 1975000   0.92624393   -7.5643072     590.2645  0.024905675  0.024981918            1 
 1976000   0.95036097   -7.5676306    590.82977   0.02491691  0.024974983            2 
 1977000   0.91138534   -7.6019953    588.92029   0.02482382  0.024968006            2 
 1978000   0.92697038   -7.6019349    591.05384  0.024901156  0.024961032            3 
 1979000   0.95958295   -7.5612726    589.59391  0.024827097  0.024954097            2 
 1980000   0.93925969   -7.6138446    591.10213  0.024878036  0.024947213            2 
 1981000   0.90506034   -7.5453624    593.26412  0.024956424  0.024940432            2 
 1982000   0.92787512   -7.5866782    591.74103  0.024879795  0.024933638           10 
 1983000   0.93159965   -7.5955225    591.15328  0.024842548  0.024926824            4 
 1984000     0.935772   -7.6064796    592.08242  0.024869053   0.02491995            3 
 1985000   0.95114352   -7.5779124    591.51755  0.024832811  0.024913071            5 
 1986000   0.94122774    -7.545826    592.84083  0.024875832   0.02490623            5 
 1987000   0.94261655   -7.6080066    592.14356   0.02483407  0.024899343            2 
 1988000   0.94513151   -7.5809383    593.53331  0.024879834  0.024892489            3 
 1989000   0.93002131   -7.5639419    594.00805  0.024887215  0.024885674            2 
 1990000   0.91396127   -7.5687815    594.62967   0.02490074  0.024878872            1 
 1991000   0.93919069   -7.5603989    594.29234  0.024874114  0.024872038            2 
 1992000   0.96369093   -7.5604393    594.59736  0.024874388   0.02486527            1 
 1993000   0.94163262   -7.5756067    593.83825  0.024830166  0.024858602            2 
 1994000   0.92362216   -7.5724465    595.46258  0.024885597  0.024851904            2 
 1995000   0.94825309   -7.5901284     595.2483  0.024864173  0.024845107            5 
 1996000   0.92402926   -7.6002277    595.76272  0.024873193  0.024838296            3 
 1997000   0.91696945   -7.5752335    594.29142  0.024799342  0.024831502            4 
 1998000   0.93105651   -7.5775453    595.81034  0.024850281   0.02482479            3 
 1999000   0.93663999   -7.5662683        594.5  0.024783225  0.024818022            2 
 2000000     0.940443   -7.5601721    594.68285  0.024778452  0.024811273            2 
 2001000   0.92528231   -7.5700197    595.71426  0.024809023  0.024804506            2 
 2002000   0.93961118   -7.5867313     596.2043  0.024817029  0.024797748            2 
 2003000   0.90935847    -7.565729    594.24987  0.024723326  0.024790914            2 
 2004000   0.94316359   -7.5466295     597.1999  0.024833662  0.024784167            1 
 2005000    0.9226952   -7.5792233    594.32418  0.024701753  0.024777397            3 
 2006000   0.93869919   -7.5741635    594.48275  0.024696027  0.024770566            2 
 2007000   0.94138829    -7.569272     595.2883  0.024717169  0.024763824            2 
 2008000   0.93958889   -7.5719629    595.36487  0.024708037  0.024757079            1 
 2009000   0.91861325   -7.5728452    596.04434  0.024723923  0.024750366            1 
 2010000   0.93111393   -7.5694548    597.60244  0.024776221  0.024743643            2 
 2011000   0.93666773   -7.5645922     597.2598  0.024749702  0.024736898            2 
 2012000   0.92571345   -7.5883786     595.3065  0.024656499  0.024730153            2 
 2013000   0.94953389   -7.5986444    596.67459  0.024700885   0.02472342            2 
 2014000   0.94446786   -7.5702295    596.78723  0.024693282  0.024716707            2 
 2015000   0.92564108   -7.5839865    597.82191  0.024723817  0.024709929            1 
 2016000    0.9267696   -7.6024514     595.2398   0.02460482   0.02470313            2 
 2017000   0.92796395   -7.5867051    594.27079  0.024552586  0.024696247            3 
 2018000   0.92680119   -7.6025839    595.47545  0.024590166  0.024689285            4 
 2019000   0.91420596   -7.5813233    597.15347  0.024647246  0.024682327            4 
 2020000   0.91673891   -7.5912947    595.36506  0.024561265  0.024675322            2 
 2021000    0.9343845   -7.5935571    596.93285  0.024613758  0.024668419            3 
 2022000   0.93424664   -7.5739333    598.52018  0.024667004  0.024661561            1 
 2023000   0.92665052   -7.5877635    597.54248  0.024614536  0.024654671            2 
 2024000   0.95434545   -7.5714728    598.16147   0.02462786   0.02464774            2 
 2025000   0.93781214   -7.5645304    595.56488  0.024508843  0.024640822            2 
 2026000   0.92405057    -7.588585    598.27568  0.024608246  0.024633901            2 
 2027000   0.91460969   -7.6124088     597.4622  0.024562662  0.024626893            2 
 2028000   0.91691605   -7.6053421    596.50333  0.024511149  0.024619815            2 
 2029000   0.92768558   -7.6368418    596.84379  0.024513052  0.024612835            2 
 2030000   0.90374778   -7.5897842    597.07747  0.024510569  0.024605877            2 
 2031000   0.89925737   -7.5991761    597.76595   0.02452675  0.024598872            2 
 2032000   0.94070229   -7.6154863    597.96564  0.024522869  0.024591931            2 
 2033000   0.93043727   -7.6085398    599.68777  0.024581397   0.02458492            4 
 2034000   0.92255523   -7.6223625    599.01688  0.024541825  0.024577928            1 
 2035000   0.91292135   -7.5916898    597.72936  0.024477042  0.024570981            2 
 2036000   0.94132519   -7.5994636    598.29826  0.024488305  0.024564008            2 
 2037000   0.91567131   -7.6109187    597.45843  0.024441926  0.024557014            3 
 2038000   0.93743464   -7.5844442    599.00689  0.024493249  0.024549965            1 
 2039000   0.93158302   -7.6126408    599.93767  0.024519277  0.024542971            7 
 2040000   0.93136555   -7.5563152    599.13452  0.024474449  0.024536006            2 
 2041000   0.92403744   -7.5859032    598.42188  0.024433361     0.024529            1 
 2042000   0.92781207   -7.5916119    599.32473  0.024458241  0.024522002            3 
 2043000   0.92899647   -7.5970045    598.62778  0.024417841   0.02451506            3 
 2044000    0.9212622   -7.6154652    599.60286  0.024445648  0.024508128            2 
 2045000    0.9060033   -7.6224306    599.81926  0.024442513  0.024501255            1 
 2046000   0.92001823   -7.6303331    598.63297  0.024382249  0.024494318            2 
 2047000   0.90979662   -7.5975158    599.34559  0.024399348  0.024487415            2 
 2048000   0.92568669   -7.5815472    600.97749  0.024453837  0.024480511            3 
 2049000   0.92131242    -7.588773    600.61594  0.024427198  0.024473599            3 
 2050000    0.9214996   -7.6173743     600.1226  0.024395227   0.02446672            3 
 2051000   0.92810613   -7.6044671     601.2631  0.024429672  0.024459826            2 
 2052000   0.90896852   -7.5924077    601.99816  0.024447619  0.024452921            9 
 2053000   0.92140044   -7.6239255    599.97067  0.024353413  0.024446026            1 
 2054000   0.92624761    -7.607671    601.15138  0.024389459  0.024439093            4 
 2055000   0.93073703   -7.5851937     602.1475  0.024417985  0.024432298            5 
 2056000   0.94658861   -7.5630216    602.64272   0.02442618  0.024425586            1 
 2057000   0.93539157   -7.5566495    602.02786  0.024389396  0.024418757            2 
 2058000   0.90769575   -7.6154945    601.51074  0.024356606  0.024412012            3 
 2059000   0.92249713   -7.6163047    600.19235  0.024291418  0.024405167            3 
 2060000   0.93275299   -7.6032448    603.13937  0.024398842  0.024398305            1 
 2061000   0.93129174   -7.6081526    601.40183  0.024316749  0.024391475            2 
 2062000   0.91746953   -7.5558952    604.20258  0.024418145  0.024384681            2 
 2063000   0.95238263   -7.6330832    601.09391  0.024280736  0.024377899            3 
 2064000   0.92089212   -7.6162804     602.9438  0.024343661  0.024371092            2 
 2065000   0.92659659   -7.6024414    603.55571  0.024356566  0.024364266            6 
 2066000   0.93556656     -7.59049    603.62948  0.024347752  0.024357503            2 
 2067000   0.91940145   -7.6054509    603.75389  0.024340989  0.024350771            2 
 2068000   0.91901918   -7.5905596    602.19013  0.024266205  0.024343928            1 
 2069000   0.93952452   -7.6240578    604.15255  0.024333516  0.024337148            2 
 2070000   0.93946149    -7.565569    603.97807  0.024314737  0.024330362            2 
 2071000   0.91085968   -7.6096806    603.04102  0.024265291   0.02432355            4 
 2072000   0.91767331   -7.6220144    603.01403  0.024252495  0.024316666            2 
 2073000   0.93253473   -7.6243022     602.9531  0.024238346  0.024309795            3 
 2074000   0.93524026   -7.6301044    604.40591  0.024285033  0.024302965            2 
 2075000   0.89292265    -7.609078    604.88033  0.024292383   0.02429613            1 
 2076000   0.90733102   -7.6453051    603.28555  0.024216665  0.024289286            3 
 2077000   0.92301987   -7.6107327    604.61517  0.024258352  0.024282462            2 
 2078000   0.91068716   -7.6495865    605.00797  0.024262431  0.024275679            3 
 2079000   0.93741013   -7.5862877    605.07442  0.024253424  0.024268876            2 
 2080000   0.91705792   -7.6194412    603.87122  0.024193559   0.02426209            2 
 2081000   0.92926183   -7.5871644    605.27367  0.024238094  0.024255369            1 
 2082000   0.92439682   -7.6302469     604.6601  0.024201893  0.024248523            1 
 2083000    0.8967098   -7.6322501    604.55081  0.024185902  0.024241657            2 
 2084000    0.9081688   -7.6319753    603.82935  0.024145447  0.024234773            3 
 2085000   0.93491132   -7.6156627    605.43074  0.024197871  0.024227923            2 
 2086000   0.92481317   -7.5848524    604.49754  0.024148991   0.02422112            1 
 2087000   0.91510055   -7.6202446    605.08143  0.024160734  0.024214289            2 
 2088000   0.92535373   -7.6168718    605.03413  0.024147275  0.024207432            2 
 2089000   0.91681171   -7.6154236    604.74083  0.024124016  0.024200539            1 
 2090000   0.93872973    -7.617571    604.95604  0.024121054  0.024193616            2 
 2091000    0.9228872   -7.5963692    606.26982  0.024161877   0.02418668            1 
 2092000    0.9199856   -7.6110771    604.99986   0.02409974  0.024179805            2 
 2093000   0.91756826   -7.6478012    604.81066  0.024080692  0.024172906            2 
 2094000    0.9160164   -7.6040861    606.71413  0.024144943  0.024166021            4 
 2095000    0.8994614   -7.6132721    606.10952  0.024109368  0.024159161            2 
 2096000   0.90358215   -7.6340698    607.04115  0.024134906  0.024152368            3 
 2097000   0.91808427   -7.6023191     607.8239  0.024154502  0.024145625            1 
 2098000   0.93050531   -7.6146305    607.14027  0.024115835  0.024138877            3 
 2099000   0.94799964   -7.6439598       606.39  0.024074559  0.024132134            3 
 2100000   0.92012152   -7.6139123    608.27122  0.024137747  0.024125418            2 
 2101000   0.92215108   -7.5818629    609.16454   0.02416169  0.024118783            2 
 2102000   0.92206464   -7.6237217    608.37065  0.024118722  0.024112171            3 
 2103000   0.92137439   -7.6210718    608.03782  0.024094065  0.024105476            2 
 2104000   0.92592936   -7.6066607    609.05547   0.02412292  0.024098761            1 
 2105000   0.92821282   -7.6258924    609.54483  0.024130833  0.024092079            3 
 2106000   0.91464418   -7.6072623    609.93091  0.024134651  0.024085421            2 
 2107000   0.91694307   -7.6388726    607.83692  0.024040378  0.024078772            3 
 2108000   0.89716244   -7.6147162    609.98162  0.024113758  0.024072059            3 
 2109000   0.91040656   -7.6040988    609.20853  0.024071777  0.024065376            1 
 2110000   0.91391758   -7.5990141    610.88109  0.024126425  0.024058708            2 
 2111000   0.91310807    -7.614707    609.18336  0.024047977  0.024052052            1 
 2112000   0.93425871   -7.5933795     609.1119  0.024033771  0.024045422            2 
 2113000   0.91884612   -7.6189422     609.6376   0.02404313  0.024038794            1 
 2114000   0.92159708    -7.613189    610.64008  0.024071274  0.024032186            1 
 2115000   0.92079766   -7.6377551    611.08878  0.024077572  0.024025578            1 
 2116000   0.89410363   -7.6498333    609.57676  0.024006646  0.024018918            1 
 2117000   0.91810369   -7.6183952    610.74947  0.024041469   0.02401225            2 
 2118000   0.93224274   -7.6444261    610.34059   0.02401403  0.024005604            2 
 2119000   0.92308094   -7.6344621    610.18929  0.023996747  0.023998965            1 
 2120000    0.9253501   -7.6462697    609.69131  0.023965853   0.02399224            2 
 2121000   0.89992294   -7.6552161    609.88903  0.023962323  0.023985517            1 
 2122000   0.90882834   -7.6519013    611.73411  0.024023488   0.02397881            2 
 2123000   0.90988287   -7.6588038    610.13402  0.023949365  0.023972065            1 
 2124000   0.91740474   -7.6160731     610.9886  0.023971618  0.023965408            2 
 2125000    0.9260933   -7.6082071    611.85515   0.02399432  0.023958774            2 
 2126000   0.91391837   -7.6526733    612.00444  0.023988885  0.023952179            2 
 2127000   0.91741497   -7.6476414    610.62446  0.023923541  0.023945464            4 
 2128000   0.89708353   -7.6756393    613.03882  0.024006846  0.023938715            1 
 2129000   0.91366983   -7.6444186    611.02886  0.023916896  0.023932029            4 
 2130000   0.92013407   -7.6286366    612.40018  0.023959319  0.023925331            2 
 2131000   0.92461904   -7.6636777    611.39506   0.02390877  0.023918664            1 
 2132000   0.90344579   -7.6484204     611.4279  0.023898839     0.023912            4 
 2133000   0.89882767   -7.6133654    612.91649  0.023945792  0.023905393            4 
 2134000   0.88735238   -7.6110973     612.6261  0.023923231   0.02389882            2 
 2135000   0.90232755    -7.660149    612.36323  0.023901765  0.023892268            1 
 2136000   0.91072928   -7.5945228    614.03731  0.023955888  0.023885667            2 
 2137000    0.9210943   -7.6091218    613.19537  0.023911846  0.023879087            2 
 2138000   0.89514504   -7.6514187    612.77791   0.02388439  0.023872465            1 
 2139000   0.88937404   -7.6064932    615.72297  0.023987961  0.023865871            2 
 2140000   0.91650244   -7.6308303    613.87602  0.023904829  0.023859214            8 
 2141000   0.90666342   -7.6153803    613.37178  0.023874038  0.023852632            2 
 2142000   0.91870982   -7.6335166    614.48461  0.023906186  0.023846076            1 
 2143000   0.91599543    -7.644834    614.32939  0.023888995  0.023839434            3 
 2144000   0.92193791   -7.6393998    613.30491  0.023838033  0.023832783            1 
 2145000   0.92237571   -7.6468853    613.07607  0.023818029  0.023826109            2 
 2146000   0.90339604   -7.6599375    613.76374  0.023833634   0.02381948            2 
 2147000    0.9068346   -7.6043486    616.40624  0.023925098  0.023812841            2 
 2148000    0.9018356   -7.6332807     613.0461  0.023783601  0.023806199            3 
 2149000   0.89567542   -7.6523832    614.63449  0.023834128  0.023799526            4 
 2150000   0.92025071   -7.6378405    614.90507   0.02383353  0.023792835            1 
 2151000   0.91802991   -7.6499617    614.33454  0.023800346  0.023786161            2 
 2152000   0.91790155   -7.6272546    615.26707  0.023825398  0.023779523            2 
 2153000   0.90405738   -7.6807043    613.74499  0.023755418   0.02377286            3 
 2154000   0.91360016   -7.6782549     615.1187  0.023797535  0.023766217            2 
 2155000   0.91431766    -7.666674    616.47048  0.023838766  0.023759558            3 
 2156000   0.90911512   -7.6139113    616.26307  0.023819692  0.023752973            1 
 2157000   0.91284579   -7.6619956     615.9997  0.023798474  0.023746382            1 
 2158000   0.91950448   -7.6730345    615.65572  0.023774163  0.023739799            3 
 2159000   0.91447044   -7.6299201    617.95967  0.023852079  0.023733249            1 
 2160000   0.89707312   -7.6481881    618.87834  0.023876479  0.023726713            2 
 2161000   0.90549348   -7.6609884    617.31919  0.023805306  0.023720178            2 
 2162000   0.90744077   -7.6459325    615.23587  0.023713994  0.023713639            1 
 2163000   0.89693176   -7.6407028    617.30754  0.023782846  0.023707066            2 
 2164000   0.90937028   -7.6629778    616.08668  0.023724841   0.02370047            2 
 2165000   0.90578279   -7.6194939    617.76495  0.023778482  0.023693888            1 
 2166000   0.90028372   -7.6819227     616.0345  0.023700927   0.02368725            2 
 2167000   0.88630525   -7.6348446    617.49779  0.023746262   0.02368062            2 
 2168000   0.89584622   -7.6485644    616.68438  0.023704043   0.02367398            2 
 2169000    0.8985198   -7.6463467    615.42753  0.023644826  0.023667273            2 
 2170000   0.92042795   -7.6392684    617.50716  0.023713793  0.023660577            2 
 2171000   0.90665814   -7.6279913    616.75305  0.023673923  0.023653863            1 
 2172000   0.90983472   -7.6203107    616.18824  0.023641354   0.02364726            1 
 2173000   0.90518954   -7.6583807    615.89305  0.023619154  0.023640539            2 
 2174000   0.91669481   -7.6671383    616.17035  0.023618919  0.023633797            2 
 2175000    0.9022152    -7.634562    616.96112  0.023638357  0.023627051            4 
 2176000   0.91001535   -7.6460029    614.25689  0.023523931   0.02362035            2 
 2177000   0.88870611   -7.6447522    615.99457  0.023579642  0.023613608            2 
 2178000   0.90790697    -7.669991    618.70164  0.023672392  0.023606843            3 
 2179000   0.90748368    -7.615216     615.5878  0.023542443  0.023600047            4 
 2180000   0.89455925   -7.6550428     618.5455  0.023644705  0.023593284            2 
 2181000    0.8957528   -7.6500006    615.50583  0.023517722  0.023586549            2 
 2182000   0.91349668   -7.6093277    616.99916  0.023563977  0.023579822            2 
 2183000   0.89785096   -7.6599269    615.83158  0.023508611  0.023573072            1 
 2184000   0.89133544   -7.6339201    618.66499   0.02360596  0.023566297            2 
 2185000   0.89283703   -7.6707779    616.84569   0.02352577  0.023559527            2 
 2186000   0.90112581   -7.6559017    616.73344  0.023510729  0.023552738            2 
 2187000    0.8931407   -7.6564423    618.15608  0.023554187  0.023545995            1 
 2188000   0.89963005   -7.6212423    618.56098  0.023558843  0.023539317            3 
 2189000   0.91329009   -7.6267721    620.14567  0.023608408  0.023532657            2 
 2190000   0.91310771   -7.6299967    619.10777  0.023558134  0.023525963            1 
 2191000   0.89243487    -7.647014    618.31255  0.023517137  0.023519293            2 
 2192000   0.87941521    -7.675845    618.42005  0.023510494  0.023512554            2 
 2193000   0.91336575   -7.6755218    618.73447  0.023511722  0.023505795            3 
 2194000   0.89472482   -7.6801223    618.47231  0.023491048  0.023499029            2 
 2195000   0.89066374   -7.6371106    618.92503  0.023497534  0.023492322            1 
 2196000   0.89655801   -7.6329396    620.48927  0.023546193  0.023485634            6 
 2197000   0.89817541   -7.6725859    618.88609  0.023474666   0.02347895            1 
 2198000   0.93104553   -7.6684715    619.05372  0.023470341  0.023472238            1 
 2199000   0.90200527   -7.6465882    619.29185  0.023468692  0.023465548            2 
 2200000   0.90454837   -7.6621237    620.61499  0.023508144  0.023458876            4 
 2201000   0.89179492   -7.6497335     619.0036  0.023436453  0.023452231            2 
 2202000   0.89822091   -7.6922167    621.16179  0.023507485  0.023445542            1 
 2203000   0.91983424   -7.6431243    620.28479   0.02346364   0.02343893            2 
 2204000   0.89982182   -7.6451733    622.37918  0.023532183  0.023432326            2 
 2205000   0.89561641   -7.6346004    621.15238  0.023475147  0.023425732            3 
 2206000    0.9284911   -7.6642455    619.01948  0.023383933  0.023419071            2 
 2207000   0.88441281   -7.6493351    620.91965  0.023445086  0.023412397            3 
 2208000   0.88360053   -7.6603316    621.89488  0.023471274  0.023405764            2 
 2209000   0.90334021   -7.6689917    620.16292  0.023395312  0.023399111            4 
 2210000   0.90289559   -7.6677069    621.47595  0.023434236  0.023392545            2 
 2211000   0.89602866   -7.6554604    621.40886  0.023421109  0.023385951            1 
 2212000   0.89671769   -7.6621251    621.92786  0.023430073  0.023379404            6 
 2213000   0.90835245   -7.6680174     623.0008  0.023459889  0.023372863            1 
 2214000   0.90057376   -7.6569783    622.92014  0.023446256  0.023366366            1 
 2215000   0.93195428   -7.6879004     622.4214  0.023416908  0.023359881            1 
 2216000   0.90632674   -7.6570906    623.10177  0.023431926  0.023353381            1 
 2217000   0.88786869   -7.6487456    622.94882  0.023415607  0.023346929            1 
 2218000   0.89111204   -7.6529682    623.54462  0.023427436  0.023340429            1 
 2219000    0.8888726   -7.6207021    625.78548  0.023501032  0.023333932            2 
 2220000   0.88535432   -7.6764901    622.35687  0.023361744  0.023327399            3 
 2221000     0.888071   -7.6899972    622.65984  0.023362593  0.023320858            4 
 2222000   0.89790612   -7.6608793    623.06938  0.023367439  0.023314248            2 
 2223000   0.87751763   -7.6491425    623.93661  0.023389436  0.023307718            2 
 2224000   0.88626081   -7.6345838    623.94789  0.023379342  0.023301221            4 
 2225000   0.89774757   -7.6705253    624.69963   0.02339699  0.023294776            3 
 2226000   0.89468067   -7.6643726    625.64035  0.023421696  0.023288304            4 
 2227000   0.89998379   -7.6524644    624.24357  0.023358912  0.023281784            1 
 2228000   0.89308812    -7.674581    624.69469  0.023365301  0.023275216            5 
 2229000   0.90069101   -7.7003657    622.56154  0.023275069  0.023268628            2 
 2230000   0.90266437   -7.6704012    624.25576  0.023327943    0.0232621            2 
 2231000    0.8929682   -7.6830504    624.79466  0.023337616  0.023255562            2 
 2232000   0.90000073   -7.7004227    621.71445  0.023212158  0.023248955            3 
 2233000   0.88691087   -7.6619486    624.39003  0.023301613  0.023242356            2 
 2234000   0.91375407   -7.6981701    623.90958  0.023273261   0.02323574            2 
 2235000   0.88974899   -7.6795746    625.88398  0.023336465  0.023229142            2 
 2236000    0.8805128   -7.6587576    624.06655  0.023258294  0.023222621            2 
 2237000   0.89037127   -7.6919259    624.26925  0.023255448  0.023216084            2 
 2238000   0.91235686   -7.7066926    625.16429  0.023278384  0.023209526            1 
 2239000   0.91057517   -7.6952021    624.65316  0.023248964  0.023202909            1 
 2240000   0.88672406   -7.6878996    624.03718  0.023215669   0.02319628            2 
 2241000   0.89376261   -7.6140095    625.96632  0.023277046  0.023189672            1 
 2242000   0.87498157   -7.6695814    624.12456  0.023198207  0.023183075            2 
 2243000    0.8846384   -7.6506044     625.9652  0.023256249  0.023176525            3 
 2244000   0.88122286    -7.667738    625.88507   0.02324291  0.023169892            2 
 2245000   0.87678937   -7.6895322    624.45416  0.023179442  0.023163261            2 
 2246000   0.87883601   -7.7079325     623.7207  0.023141908  0.023156592            2 
 2247000   0.88978714   -7.6978472    624.52408  0.023161403  0.023149909            3 
 2248000   0.89073407   -7.6903844    625.54195  0.023188833  0.023143267            3 
 2249000   0.89906559   -7.6834969    625.54678  0.023178701  0.023136646            1 
 2250000     0.916797   -7.7122105      625.291  0.023158926  0.023130035            3 
 2251000   0.88693689   -7.7001433    626.93611   0.02320954  0.023123479            2 
 2252000   0.88483538   -7.6949663    627.17022  0.023207897  0.023116903            3 
 2253000   0.87153918   -7.6883903    625.74229  0.023144781  0.023110376            1 
 2254000   0.90030739   -7.6555751     626.3769  0.023157975  0.023103811            3 
 2255000   0.91168578   -7.6765061    628.99356  0.023244404  0.023097353            3 
 2256000   0.89573673   -7.7298556    626.86931  0.023155633  0.023090811            1 
 2257000   0.88100722   -7.7053121    627.24471  0.023159235  0.023084241            1 
 2258000   0.89349753   -7.6889565     627.3119  0.023151458  0.023077681            1 
 2259000   0.88522147   -7.6739923    628.34494  0.023179317  0.023071177            2 
 2260000    0.9035974   -7.6884658    627.86039  0.023151194  0.023064625            1 
 2261000   0.89241673   -7.6832462    628.48962  0.023164146  0.023058077            3 
 2262000   0.90486468   -7.6824858    628.41916   0.02315131  0.023051611            4 
 2263000   0.89191099     -7.70314    627.70093  0.023114631  0.023045086            3 
 2264000    0.8858576    -7.726755    627.13149  0.023083462  0.023038555            2 
 2265000   0.89301265   -7.7094049    627.96848  0.023104065  0.023032004            1 
 2266000   0.88070633   -7.6889057    629.70125  0.023157592  0.023025452            2 
 2267000   0.89653878   -7.6360158    628.82023  0.023114992  0.023019009            1 
 2268000   0.87204982   -7.6681723     629.4572  0.023128204  0.023012547            3 
 2269000   0.89079195   -7.6980406    627.37848  0.023041666  0.023006085            2 
 2270000   0.88817167   -7.6420223    631.63589  0.023187808   0.02299959            1 
 2271000   0.88118202   -7.6624209    629.95095  0.023115769  0.022993131            1 
 2272000   0.87980148   -7.6954094    629.20028  0.023078062  0.022986643            1 
 2273000   0.89464523   -7.6829167    630.07597  0.023100013  0.022980215            3 
 2274000   0.88193277   -7.6745067    630.67196  0.023111696  0.022973718            2 
 2275000     0.897646   -7.7087109    630.12725  0.023081584  0.022967221            1 
 2276000   0.89857595    -7.687394    629.29342  0.023040913  0.022960746            3 
 2277000   0.88437034   -7.6926849    631.06082  0.023095477  0.022954296            1 
 2278000   0.90247986   -7.7051019    628.93471  0.023007562  0.022947757            4 
 2279000    0.8906156   -7.7132581    629.12279  0.023004344  0.022941196            4 
 2280000   0.88358763   -7.7119589    629.83568   0.02302031  0.022934661            4 
 2281000   0.85973485   -7.6825543    629.41574  0.022994876  0.022928137            1 
 2282000   0.88480375   -7.6969661    631.36052  0.023055818   0.02292167            2 
 2283000   0.89317951   -7.6874772    631.46299  0.023049459  0.022915171            2 
 2284000   0.91202923   -7.6836916    629.87481  0.022981422  0.022908679            3 
 2285000   0.89252631   -7.6900074    631.70231  0.023038013  0.022902227            1 
 2286000   0.88817914   -7.6778371    632.73359  0.023065529  0.022895785            2 
 2287000    0.8786719   -7.7080765    630.90176  0.022988695  0.022889329            3 
 2288000   0.88155839   -7.6999864    631.98182  0.023017986  0.022882857            4 
 2289000   0.89504287   -7.7179097    630.81694  0.022965521  0.022876432            1 
 2290000   0.88474391   -7.7240799    630.62709  0.022948584  0.022869986            1 
 2291000   0.88317471   -7.6758436    633.15226  0.023030418  0.022863597            1 
 2292000   0.87734694   -7.7109725     630.5641  0.022926269  0.022857216            2 
 2293000   0.86862053   -7.7136841    631.46671  0.022949074  0.022850818            3 
 2294000   0.88477446    -7.681276    632.78861   0.02298709  0.022844367            3 
 2295000   0.87884775   -7.6780886    633.73194  0.023011327  0.022837969            2 
 2296000   0.90175884   -7.6890726    633.23433  0.022983244  0.022831621            2 
 2297000   0.87928009   -7.6926083    634.21244  0.023008723  0.022825293            1 
 2298000   0.88233248   -7.7106316    632.12069  0.022922857  0.022818964            4 
 2299000   0.88063097   -7.6848555     632.5895  0.022929879  0.022812612            1 
 2300000   0.88236462   -7.7039765    632.32526  0.022910335  0.022806242            2 
 2301000   0.89438032   -7.6851533     633.5221  0.022943724  0.022799925            1 
 2302000   0.89911786   -7.6707249     634.6371   0.02297412  0.022793626            2 
 2303000   0.90142172   -7.6880875    634.56528  0.022961546   0.02278735            2 
 2304000   0.87671196   -7.6804379    633.61557   0.02291723  0.022781033            1 
 2305000   0.90350663   -7.7072963    633.99922  0.022921158  0.022774749            2 
 2306000   0.90233696   -7.7021233    633.35201  0.022887829  0.022768365            1 
 2307000   0.88380996   -7.7398621    635.25711  0.022946724  0.022762011            2 
 2308000   0.88993946   -7.7476808    633.98862  0.022890981  0.022755628            1 
 2309000   0.87311623   -7.7105825    633.21797  0.022853254  0.022749267            4 
 2310000   0.87769889   -7.7202524    633.80452  0.022864521  0.022742905            3 
 2311000   0.88098701   -7.6811725    635.64859  0.022921123  0.022736539            3 
 2312000   0.89848649   -7.7076329    634.88612  0.022883727  0.022730209            3 
 2313000   0.86220108   -7.6910468    635.10769  0.022881816    0.0227239            2 
 2314000    0.8997868   -7.6704377    637.58181  0.022961028  0.022717663            2 
 2315000   0.88266608   -7.6938118    634.39765  0.022836489   0.02271133            2 
 2316000   0.88293327   -7.6976481    635.62943   0.02287095  0.022704949            1 
 2317000   0.88419701   -7.6939518    633.72724  0.022792664  0.022698554            4 
 2318000   0.87453454   -7.6899049    635.58727  0.022849701   0.02269215            2 
 2319000   0.87496027    -7.681081    636.48026  0.022871937  0.022685843            2 
 2320000   0.88311562   -7.6987554    634.88033  0.022804609  0.022679469            1 
 2321000    0.8745087   -7.6943446    635.33513  0.022811113  0.022673049            2 
 2322000   0.85505149   -7.6846574    633.99975  0.022753364  0.022666714            4 
 2323000   0.89051938   -7.7242388    635.26164  0.022788838  0.022660285            2 
 2324000   0.87186527   -7.7419059    634.16163  0.022739588   0.02265379            2 
 2325000    0.8550298   -7.7294397    635.81479  0.022789061  0.022647335            2 
 2326000   0.87182399   -7.6918849    635.54938  0.022769754  0.022640925            3 
 2327000   0.87939225   -7.7240435    633.69777   0.02269366  0.022634493            4 
 2328000   0.88175132   -7.6998317    634.31844   0.02270613  0.022628002            4 
 2329000   0.87885855   -7.6994676    634.57419  0.022705531  0.022621567            1 
 2330000    0.8917144    -7.702345    635.51246  0.022729344  0.022615057            2 
 2331000   0.86556272    -7.717831     634.5107   0.02268378  0.022608558            1 
 2332000   0.89480989   -7.7024098    634.20946  0.022663288  0.022602007            2 
 2333000   0.88264188   -7.7341183    634.01693  0.022646697  0.022595457            2 
 2334000   0.88028941   -7.7097063    634.55405  0.022656171  0.022588918            3 
 2335000   0.87315073   -7.7149877    634.68064  0.022650986   0.02258235            3 
 2336000   0.87206475   -7.6812815    636.28529  0.022698534  0.022575824            1 
 2337000   0.87601862   -7.7263805    635.36438  0.022655983  0.022569291            2 
 2338000    0.8624927   -7.7249807    634.97416  0.022632384  0.022562758            2 
 2339000   0.89608197   -7.7169691    635.06672  0.022626005  0.022556246            2 
 2340000   0.88570966   -7.7023379    637.05957  0.022687307    0.0225498            3 
 2341000   0.88299253   -7.7196212    636.43001  0.022655205  0.022543267            2 
 2342000   0.87731408   -7.7298621    636.02588  0.022631151  0.022536778            1 
 2343000   0.89939965   -7.6988431    636.54839  0.022640076  0.022530238            2 
 2344000   0.88132819   -7.7188614    637.48951  0.022663876  0.022523772            1 
 2345000   0.88643313   -7.7323802    636.89197  0.022632977   0.02251728            1 
 2346000   0.85764941   -7.7301703    636.10771  0.022595471   0.02251073            1 
 2347000   0.86485535   -7.6897058    637.39022  0.022631381  0.022504258            1 
 2348000    0.8540257   -7.7012658    636.00983  0.022572751  0.022497732            3 
 2349000   0.87815016   -7.7354077    636.06165   0.02256498  0.022491232            2 
 2350000   0.84526844   -7.7449794    636.40004  0.022567377  0.022484682            1 
 2351000   0.88033777   -7.7155461    635.78674  0.022536039   0.02247822            3 
 2352000   0.87615171   -7.7080801    636.37983  0.022547471  0.022471736            2 
 2353000   0.87604685   -7.7054101    637.16919  0.022565845  0.022465285            3 
 2354000   0.87564228   -7.7239802    636.01773  0.022515496  0.022458833            5 
 2355000    0.8773486   -7.7517953     635.4386  0.022485442  0.022452379            2 
 2356000   0.88057391   -7.7289669    637.90262  0.022563053  0.022445879            2 
 2357000   0.86238178   -7.7082092    636.10996  0.022490099  0.022439451            2 
 2358000   0.86278291    -7.700576    637.95698  0.022545836  0.022432957            2 
 2359000   0.86308769   -7.7160784    638.72377  0.022563366    0.0224265            1 
 2360000   0.86778013   -7.7065963    639.85686  0.022593816  0.022420037            4 
 2361000    0.8695244   -7.7266542    638.37682  0.022532007  0.022413586            3 
 2362000   0.86693417    -7.722217    639.40362  0.022558694  0.022407076            1 
 2363000   0.87288019   -7.7100997    639.10238  0.022538524  0.022400653            3 
 2364000   0.87600692   -7.7200239    638.87598  0.022521009  0.022394232            2 
 2365000   0.87257457   -7.7634098    637.05876  0.022447455  0.022387823            2 
 2366000   0.88078075   -7.7315061    638.27017  0.022480634  0.022381343            1 
 2367000   0.87151457   -7.7325368    640.12264  0.022536355  0.022374943            3 
 2368000   0.86731441   -7.7194353    640.30286  0.022533181  0.022368545            2 
 2369000   0.86801941   -7.7272453      636.309  0.022383179  0.022362098            1 
 2370000    0.8922217   -7.6786538    640.14469  0.022508604  0.022355652            2 
 2371000   0.85970917   -7.7221615    637.70545  0.022413379   0.02234922            3 
 2372000   0.89141933   -7.6640734    640.36835  0.022497483  0.022342798            4 
 2373000   0.87800018   -7.7359325    639.52263  0.022458303  0.022336393            3 
 2374000   0.86415797   -7.6724551    641.42393  0.022515583  0.022329979            3 
 2375000   0.88913061   -7.7108924    640.18614  0.022462672  0.022323601            2 
 2376000   0.87754465   -7.7464978    639.04461  0.022413181  0.022317217            2 
 2377000   0.87060739   -7.7265895    638.77637  0.022394348  0.022310804            3 
 2378000   0.89114925   -7.7378751    639.19103  0.022399461  0.022304377            3 
 2379000   0.89108003   -7.7217831    640.62627   0.02244032  0.022298005            1 
 2380000   0.86879928    -7.725914    640.41335  0.022423437  0.022291669            2 
 2381000   0.85928222   -7.7373997    640.52761  0.022418018  0.022285272            1 
 2382000   0.86398049   -7.7085863    638.86751  0.022350529  0.022278917            4 
 2383000   0.85207108   -7.7103757    641.38998   0.02242936  0.022272569            2 
 2384000   0.86704211   -7.7277997    640.53668  0.022390124  0.022266214            4 
 2385000     0.873092   -7.7460084    639.40921  0.022341342   0.02225977            2 
 2386000   0.86435631   -7.7530934    640.95928  0.022386116  0.022253292            3 
 2387000   0.86345144   -7.7773027    640.75994  0.022369779  0.022246841            2 
 2388000   0.86816775   -7.7119926    641.13591  0.022373531  0.022240439            3 
 2389000   0.87082675   -7.7044535    640.69246  0.022348697  0.022234039            2 
 2390000   0.85846994   -7.7128989    640.56816  0.022335012  0.022227583            3 
 2391000   0.86082698    -7.754438    640.44225  0.022321283  0.022221153            1 
 2392000   0.87047598   -7.7325575    641.78523  0.022358738   0.02221473            1 
 2393000   0.85212364   -7.7623757    640.54747  0.022306292   0.02220829            1 
 2394000    0.8707403   -7.7216016    641.03562  0.022313966  0.022201908            2 
 2395000    0.8682932   -7.7451857     642.0751  0.022340818  0.022195516            1 
 2396000   0.88260744   -7.7518337    641.63552  0.022316205  0.022189098            3 
 2397000   0.84784912   -7.7578278    639.61876  0.022236781  0.022182677            3 
 2398000   0.86303209   -7.7382304    643.09178  0.022348199  0.022176237            4 
 2399000   0.86271067   -7.7315511    640.65169  0.022254123   0.02216982            2 
 2400000   0.87459381   -7.7187493    641.12628  0.022261329   0.02216339            1 
 2401000   0.89605288   -7.7359116    641.80353  0.022275563  0.022156963            1 
 2402000   0.87370755   -7.7534929    641.83682  0.022267444  0.022150537            2 
 2403000   0.85629167   -7.7198713    640.75649  0.022220713  0.022144155            3 
 2404000   0.86149959    -7.766416    641.13578  0.022224618  0.022137752            3 
 2405000   0.86755789   -7.7200897    643.62102  0.022301491  0.022131309            2 
 2406000   0.85672252    -7.768697    642.53434  0.022254584  0.022124931            3 
 2407000   0.87075826   -7.6925415    645.38008  0.022343861  0.022118552            2 
 2408000   0.85008858   -7.7387369     642.4451  0.022233011    0.0221122            1 
 2409000   0.87650023   -7.7153389    643.71869  0.022267839  0.022105861            2 
 2410000   0.87516381   -7.7299081    642.07252  0.022201678  0.022099514            1 
 2411000   0.85638889   -7.7265972    644.04993  0.022260816  0.022093203            6 
 2412000   0.85575944   -7.7694581    642.37629  0.022193764  0.022086864            3 
 2413000   0.85778955   -7.7445942    643.29164  0.022216178  0.022080548            2 
 2414000   0.85579532   -7.7412701    644.52001  0.022249379  0.022074263            1 
 2415000   0.85979671   -7.7140909    643.61448  0.022208919  0.022067992            1 
 2416000   0.87755486   -7.7504974    644.22152  0.022220665  0.022061739            3 
 2417000   0.86280721   -7.7360175    645.59643  0.022258876  0.022055441            2 
 2418000   0.87579662   -7.7106198    645.13189  0.022233661  0.022049191            4 
 2419000   0.86574388   -7.7540344    644.75177  0.022211374  0.022042884            2 
 2420000   0.86390375   -7.7327279    645.41299  0.022224965  0.022036522            3 
 2421000   0.88120247   -7.7512786    643.66892  0.022155752  0.022030128            2 
 2422000   0.87879284   -7.7498401    643.28727  0.022133473  0.022023777            3 
 2423000   0.87421807   -7.7409401    643.64635  0.022136688  0.022017427            4 
 2424000   0.85555495     -7.73229    644.23474  0.022147784  0.022011018            1 
 2425000   0.84543744   -7.7717019    643.32321  0.022107327  0.022004613            3 
 2426000    0.8781448   -7.7702822    642.86033  0.022082314  0.021998149            4 
 2427000    0.8503822   -7.7485724    643.07329  0.022080528  0.021991726            1 
 2428000   0.87128933   -7.7587246    643.17853  0.022075045  0.021985299            1 
 2429000   0.87722039   -7.7484844    644.21381  0.022101475  0.021978823            2 
 2430000    0.8843326   -7.7390509    644.21091  0.022092281  0.021972342            2 
 2431000   0.87974249   -7.7398962    643.96815  0.022074871  0.021965925            2 
 2432000   0.86577639   -7.7570491    644.96284  0.022099878  0.021959543            1 
 2433000   0.85890224   -7.7744352    643.14543  0.022028546  0.021953115            2 
 2434000    0.8444996   -7.7478614    643.21883  0.022022009   0.02194675            2 
 2435000   0.86242352   -7.7609503    644.88869  0.022070113  0.021940356            1 
 2436000   0.86092493   -7.7343288     646.7082  0.022123296   0.02193403            2 
 2437000   0.86417504   -7.7037488    647.48274  0.022140704   0.02192768            1 
 2438000   0.86871534   -7.7469161    643.51023  0.021995838  0.021921318            8 
 2439000   0.86706712   -7.7596132    644.60272  0.022024146  0.021914937            3 
 2440000   0.89346813   -7.7798123    644.21034  0.022001719  0.021908505            2 
 2441000   0.83365572   -7.7526658    644.39703  0.021999079  0.021902049            1 
 2442000   0.86527851    -7.740383    645.11675  0.022014631  0.021895643            1 
 2443000   0.86775607   -7.7253758    643.43796  0.021948354  0.021889242            3 
 2444000   0.86634694   -7.7413679    645.81394  0.022020388  0.021882872            2 
 2445000   0.86120491   -7.7495545    645.29618  0.021993735  0.021876473            2 
 2446000    0.8682609   -7.7422405    645.16967  0.021980433  0.021870061            4 
 2447000     0.864805   -7.7342605    645.94811   0.02199796  0.021863656            2 
 2448000   0.84767302   -7.7531015    645.61566  0.021977657  0.021857279            2 
 2449000    0.8528623   -7.7500341    645.89184  0.021978081  0.021850896            2 
 2450000   0.86106243   -7.7271867    645.83705  0.021967247  0.021844525            1 
 2451000   0.86510832   -7.7840564    645.34869   0.02194168  0.021838088            4 
 2452000   0.86484879   -7.7649278    645.91421  0.021951951  0.021831686            3 
 2453000   0.85737437    -7.715487     646.1818  0.021952093  0.021825232            3 
 2454000   0.84608773   -7.7849084    645.68806  0.021926381  0.021818794            2 
 2455000   0.86297919    -7.734635    646.50009  0.021945013  0.021812371            2 
 2456000   0.84834977   -7.7483587    645.15225  0.021890345  0.021805914            1 
 2457000   0.87881837    -7.761961    644.96712  0.021875157   0.02179943            2 
 2458000   0.85903876   -7.7600423    645.76037  0.021893151   0.02179292            3 
 2459000   0.86485212   -7.7576641    645.56356  0.021877578  0.021786431            2 
 2460000   0.86860551   -7.7224522    647.95001  0.021949526  0.021779973            2 
 2461000   0.85011518   -7.7848003    645.29549  0.021850721  0.021773525            4 
 2462000   0.83566989   -7.7357561    647.44817  0.021914709  0.021767083            2 
 2463000   0.84543644   -7.7930372    646.01236  0.021857232  0.021760633            3 
 2464000   0.86753536   -7.7780233    645.23118  0.021821942  0.021754152            3 
 2465000    0.8565618   -7.7865686    646.21029   0.02184619  0.021747682            1 
 2466000   0.85639307   -7.7967669    646.23355  0.021838117  0.021741148            1 
 2467000    0.8410855   -7.7861062    645.07492  0.021790127  0.021734569            2 
 2468000   0.86484963   -7.7587933     645.5621  0.021797748  0.021728013            2 
 2469000   0.86062688   -7.7826451    644.51659  0.021753631  0.021721483            5 
 2470000   0.84049045   -7.7433132    644.81842  0.021755008  0.021715029            1 
 2471000   0.86026232   -7.7847928    645.84685  0.021780887  0.021708535            1 
 2472000   0.86044894   -7.8023244    645.60607  0.021763959  0.021702021            2 
 2473000   0.87071981   -7.7676154    646.65906  0.021790641    0.0216955            4 
 2474000   0.85976796   -7.7335411    644.30724  0.021702615   0.02168894            3 
 2475000   0.83794372   -7.7960098    646.33304  0.021762055   0.02168243            2 
 2476000   0.85665251    -7.803719    646.20505  0.021748958  0.021675902            4 
 2477000     0.849326   -7.7970328    645.89923  0.021729889  0.021669359            2 
 2478000   0.85005268   -7.8021979    647.01076    0.0217585  0.021662846            2 
 2479000   0.85657862   -7.7732503    647.99232  0.021782719  0.021656326            2 
 2480000   0.83536358   -7.7707786     647.5251  0.021758236  0.021649795            2 
 2481000   0.84168306   -7.7278558    647.39116  0.021744967  0.021643292            1 
 2482000   0.84635459   -7.7673696    646.70746  0.021713251  0.021636804            4 
 2483000    0.8431849   -7.7828722    646.57244  0.021699975  0.021630293            2 
 2484000   0.84408526   -7.7720419    647.48407  0.021721822  0.021623806            3 
 2485000   0.87923478   -7.7846226    647.72786  0.021721256  0.021617289            1 
 2486000    0.8291509   -7.7807754    647.20573  0.021695016  0.021610766            2 
 2487000   0.87095502   -7.7726369    647.62638  0.021700388  0.021604241            6 
 2488000    0.8341633   -7.7824336    646.78393  0.021663449  0.021597732            1 
 2489000   0.83711869   -7.7872798    647.81415  0.021689238  0.021591195            1 
 2490000   0.86574545   -7.7570418     648.5299  0.021704481  0.021584688            4 
 2491000   0.86330073   -7.7726763    647.11309  0.021648371  0.021578199            2 
 2492000    0.8491873   -7.7567247    647.45515  0.021651122  0.021571662            4 
 2493000   0.85001336   -7.7942707    646.99879  0.021627182  0.021565133            2 
 2494000   0.83988771   -7.7830646    648.49966   0.02166866  0.021558634            2 
 2495000   0.83438366   -7.8044078    647.16348  0.021615347  0.021552104            1 
 2496000   0.84635797   -7.7761387    647.31407  0.021611714  0.021545576            3 
 2497000   0.84563323   -7.7970922    647.50948  0.021609581   0.02153908            5 
 2498000   0.85014348   -7.7688358     648.9928  0.021650414  0.021532617            2 
 2499000   0.84685338   -7.7547906    648.73056  0.021633005  0.021526157            2 
 2500000   0.84274983   -7.7526795    650.39194  0.021679731  0.021519696            2 
 2501000   0.84728927   -7.7754477    648.83154   0.02161907  0.021513242            5 
 2502000   0.84328065   -7.7973985    649.18531  0.021622212  0.021506765            4 
 2503000   0.83224561   -7.8137966     648.4644  0.021589573  0.021500302            2 
 2504000   0.86164367   -7.7920771    647.59237  0.021551929   0.02149384            4 
 2505000   0.87021942   -7.7725784    648.22127  0.021564247  0.021487395            1 
 2506000   0.83593531   -7.7605208    649.85958  0.021610122  0.021480974            4 
 2507000   0.85706557   -7.8108722    647.86809  0.021535304  0.021474534            2 
 2508000    0.8627672   -7.8172604    651.14816  0.021635704  0.021468102            2 
 2509000   0.85136063   -7.8045085    649.57954  0.021574981  0.021461643            1 
 2510000   0.84972386   -7.8171728    647.80929  0.021507613  0.021455167            3 
 2511000   0.85598696    -7.803838    649.37366  0.021550964  0.021448698            3 
 2512000    0.8389108   -7.7596085    650.05987   0.02156515  0.021442269            4 
 2513000   0.85694929   -7.7572551    649.59564  0.021541174  0.021435867            2 
 2514000   0.85312588   -7.7808617    649.73877   0.02153735  0.021429436            1 
 2515000   0.84311268   -7.7956649    649.64687  0.021525741  0.021423037            1 
 2516000   0.83978862   -7.7899672    649.06908  0.021498049  0.021416586            5 
 2517000   0.84953784    -7.811049    649.84725  0.021515271  0.021410168            3 
 2518000   0.86557631   -7.7920228    651.87381  0.021573796  0.021403791            2 
 2519000   0.84500667   -7.7668282    653.09266  0.021605553  0.021397405            2 
 2520000   0.83921379   -7.8220471    649.07478  0.021464113  0.021391019            2 
 2521000    0.8632187   -7.7916492    649.99254  0.021485936   0.02138459            3 
 2522000   0.83425328   -7.7633787    650.87909  0.021506711  0.021378231            3 
 2523000   0.85244862   -7.7612755    653.68417  0.021590837  0.021371874            1 
 2524000   0.85377185   -7.7919268    650.95263  0.021492097  0.021365534            3 
 2525000   0.86549568    -7.728916    650.78186  0.021477949  0.021359188            3 
 2526000   0.83662176   -7.7571774    651.37494  0.021489012  0.021352883            6 
 2527000   0.85454802   -7.7557109    651.19874  0.021474698  0.021346534            1 
 2528000   0.86230934   -7.7899577    652.14771  0.021497485  0.021340166            2 
 2529000   0.86934494   -7.7937684    650.99424  0.021450977  0.021333798            3 
 2530000   0.84492567   -7.8279277    650.57537  0.021428701  0.021327408            4 
 2531000   0.83500394   -7.7979427    651.16749   0.02143973  0.021321017            2 
 2532000   0.87751996    -7.806992    651.44591  0.021440426  0.021314641            2 
 2533000   0.86337538   -7.7759355    652.13392  0.021454597  0.021308297            3 
 2534000    0.8636101   -7.7954491    650.94265  0.021406954  0.021301968            3 
 2535000   0.86093763    -7.795738    651.47428  0.021415985  0.021295616            2 
 2536000   0.83091807   -7.7608119    652.32676  0.021435553  0.021289285            3 
 2537000   0.83756456   -7.8066417     652.7976   0.02144257   0.02128298            1 
 2538000   0.84988462   -7.8122399    650.63094  0.021362981  0.021276612            2 
 2539000   0.83931627   -7.8209338    652.61668  0.021419741   0.02127026            1 
 2540000    0.8276452   -7.7877344    654.38328  0.021469268   0.02126391            2 
 2541000   0.83063864   -7.7814596    653.50695  0.021432079  0.021257606            2 
 2542000   0.84427953   -7.8204935    652.77403  0.021399621  0.021251306            1 
 2543000    0.8360155   -7.7929632    654.63056  0.021452044  0.021245015            1 
 2544000   0.85363001   -7.7695242    653.30056  0.021400044  0.021238725            2 
 2545000   0.81356998   -7.7659521    654.55953   0.02143286  0.021232448            4 
 2546000   0.82675078   -7.7769909    653.21009  0.021380273  0.021226136            3 
 2547000   0.85421889   -7.8290958    652.00832  0.021332559  0.021219785            2 
 2548000   0.84564727   -7.8075522    653.93323  0.021387141  0.021213469            2 
 2549000   0.84080924   -7.7912888    652.89157  0.021344696  0.021207177            4 
 2550000   0.82778524   -7.7938044    655.42869  0.021419238  0.021200889            3 
 2551000   0.83292988   -7.7589723    654.24783  0.021372267  0.021194641            2 
 2552000   0.84580221   -7.8285121    654.65654  0.021377238  0.021188407            1 
 2553000   0.84937638   -7.8218108    654.19616  0.021353837  0.021182165            2 
 2554000   0.83700403   -7.7877866    654.83425  0.021366296  0.021175957            3 
 2555000   0.82823816   -7.7962652    654.14661  0.021335506  0.021169689            1 
 2556000   0.85365936   -7.8151802    654.79262  0.021348221  0.021163428            2 
 2557000   0.85034672   -7.7965667    653.33606  0.021292402  0.021157126            3 
 2558000   0.83764531   -7.8344138    655.26028  0.021346764  0.021150879            3 
 2559000   0.85951754   -7.7818374    654.40703  0.021310637  0.021144634            2 
 2560000   0.85032405   -7.8051724      655.341  0.021332715  0.021138375            3 
 2561000    0.8370617    -7.813278    656.16515  0.021351202  0.021132071            3 
 2562000   0.85885859   -7.8270077    654.92134  0.021302412  0.021125835            1 
 2563000   0.83850083    -7.792897    654.48911  0.021280047  0.021119562            1 
 2564000   0.84091989   -7.8001775    656.61965  0.021340992  0.021113315            2 
 2565000   0.82567241    -7.801699    655.39473  0.021292876   0.02110711            2 
 2566000   0.83293028   -7.8322038    654.61777  0.021259345  0.021100856            1 
 2567000   0.85589288   -7.8059533    655.63703  0.021284152  0.021094632            4 
 2568000   0.84643175   -7.7944373    656.36359  0.021299442  0.021088409            2 
 2569000   0.81919338   -7.7742482    656.26392  0.021287917  0.021082214            3 
 2570000   0.86135285   -7.7740958    656.85534  0.021298811  0.021076037            2 
 2571000   0.84864141   -7.7609967    657.69373  0.021317702  0.021069868            2 
 2572000   0.84040765   -7.7616185    656.96609  0.021285838  0.021063741            3 
 2573000   0.84708261   -7.7627893     657.9479  0.021309363  0.021057586            3 
 2574000   0.83505936   -7.8095583    657.50144   0.02128663  0.021051446            2 
 2575000    0.8549071   -7.7975089    656.84526  0.021257128  0.021045311            2 
 2576000   0.83119878   -7.8406094     657.2906  0.021263283  0.021039143            4 
 2577000   0.85752538   -7.8225135    658.77796  0.021303129  0.021032929            2 
 2578000   0.84665647   -7.8276739    658.68606  0.021291895  0.021026778            1 
 2579000   0.83251071   -7.7771607    657.90955  0.021258548   0.02102066            1 
 2580000   0.82694068   -7.7839873    656.14146  0.021193199  0.021014496            2 
 2581000    0.8364655   -7.8041495    657.10698  0.021216162  0.021008279            6 
 2582000   0.84086978   -7.8103587    657.01898  0.021205105   0.02100207            2 
 2583000   0.83970023   -7.8298091    656.90127  0.021193098  0.020995891            2 
 2584000    0.8488584   -7.7944271    657.67311  0.021209788  0.020989726            2 
 2585000   0.81749148   -7.7933247    658.18228  0.021217997  0.020983586            2 
 2586000   0.82042423   -7.8098567    657.46685  0.021186738  0.020977401            4 
 2587000   0.83382251   -7.8179737     657.7099  0.021186377  0.020971244            2 
 2588000   0.84520335   -7.8139762    658.19146  0.021193697  0.020965089            3 
 2589000   0.83217884   -7.8623263     657.7771  0.021172174  0.020958849            5 
 2590000   0.83712057   -7.8286985    657.87805  0.021167248  0.020952646            2 
 2591000   0.85357448   -7.8151562    658.31908  0.021173263  0.020946486            2 
 2592000   0.82749352   -7.8055436    658.76156   0.02117932  0.020940374            2 
 2593000    0.8251348   -7.8095031    657.18891   0.02112061  0.020934221            2 
 2594000   0.83821208   -7.8539427    656.76683  0.021098909  0.020928033            1 
 2595000   0.85153413   -7.8264182    659.29721  0.021172036  0.020921881            2 
 2596000   0.84225779   -7.8122523    658.48297  0.021137743  0.020915706            3 
 2597000   0.84147055    -7.802759     659.3223  0.021156536  0.020909576            3 
 2598000   0.83776659     -7.80293    659.16852   0.02114346  0.020903433            1 
 2599000   0.82870573   -7.8440555    658.86769  0.021125679  0.020897276            1 
 2600000   0.83985037   -7.7867356    659.49181  0.021137558  0.020891097            1 
 2601000   0.82593723   -7.8095114     660.3844  0.021158029  0.020884988            2 
 2602000   0.81487166    -7.807629    660.71794   0.02116058  0.020878852            3 
 2603000   0.82468665   -7.8147624    659.56919  0.021115674  0.020872719            2 
 2604000   0.82790143   -7.8334382    659.67199  0.021110855  0.020866658            2 
 2605000   0.85139493    -7.792559    661.45711  0.021159856  0.020860612            2 
 2606000   0.82354723   -7.7976876    660.91766  0.021134486  0.020854549            3 
 2607000    0.8245919   -7.8142947    659.16089  0.021070224  0.020848454            2 
 2608000   0.82765351   -7.8078419    659.69938  0.021079352  0.020842389            4 
 2609000   0.84716724   -7.8015332    660.43157  0.021094658  0.020836317            4 
 2610000   0.84125605   -7.8327393    661.15654  0.021109723  0.020830239            3 
 2611000   0.84572731   -7.8293891    660.86872  0.021092452  0.020824138            2 
 2612000   0.82063838   -7.8245257    660.35723  0.021068059  0.020818077            2 
 2613000   0.82636613   -7.8196884    661.42022  0.021093897  0.020811999            2 
 2614000   0.83070353   -7.8441743     661.4977  0.021088297   0.02080589            2 
 2615000   0.84078319   -7.8103434    661.29855  0.021073886  0.020799825            3 
 2616000   0.81702484   -7.8164135    661.16261    0.0210615  0.020793762            5 
 2617000   0.81977455   -7.8237197    660.87226  0.021044206  0.020787703            2 
 2618000   0.82895661   -7.8450633    659.71642  0.020999377  0.020781613            2 
 2619000   0.82620509   -7.8273224    660.01898  0.021000986  0.020775557            2 
 2620000   0.84085262   -7.7713418    662.47297  0.021071023  0.020769528            1 
 2621000    0.8361447   -7.8119336    661.87778   0.02104406   0.02076351            2 
 2622000    0.8340814   -7.8343341    661.69974  0.021030376   0.02075747            1 
 2623000   0.83914757   -7.8198559    660.76475  0.020992653  0.020751448            2 
 2624000   0.81375635   -7.8242471     662.6462  0.021044404  0.020745438            1 
 2625000     0.832932   -7.8094401    662.32269  0.021026117  0.020739448            3 
 2626000   0.84017787   -7.8323764    661.68832  0.020997979  0.020733426            2 
 2627000   0.82525211   -7.8120406    660.73547   0.02095976  0.020727424            2 
 2628000   0.81722794   -7.8440721    662.33935  0.021002643  0.020721419            3 
 2629000   0.82415258   -7.8152822    661.98185  0.020983322  0.020715411            1 
 2630000   0.82618907   -7.8292573    663.25853  0.021015796  0.020709385            2 
 2631000   0.83642559    -7.864539     661.9058  0.020964963  0.020703322            1 
 2632000   0.84010108   -7.8427495    661.39671  0.020940879  0.020697209            2 
 2633000   0.81771447   -7.8095388    661.99161  0.020951754  0.020691111            2 
 2634000   0.86594734    -7.833774    662.76762   0.02096835  0.020685045            3 
 2635000   0.81638778   -7.8545645    662.55233  0.020953584  0.020679004            2 
 2636000   0.80623802   -7.8108235    663.42725  0.020973295   0.02067292            1 
 2637000   0.82582514   -7.8341898    662.24629  0.020928021  0.020666882            2 
 2638000   0.83819559    -7.830747    661.61403  0.020900115  0.020660797            2 
 2639000   0.83419318   -7.8361014    661.86002  0.020899963  0.020654708            1 
 2640000   0.82903587   -7.8218615    661.66203  0.020885796  0.020648612            2 
 2641000   0.83944948    -7.822084    662.27468  0.020897219  0.020642527            2 
 2642000   0.81152309   -7.8484384     661.0058  0.020849287  0.020636412            2 
 2643000   0.82593978   -7.8503053    661.22065  0.020848173  0.020630291            2 
 2644000    0.8239554   -7.8376577    660.31092  0.020811615  0.020624158            1 
 2645000   0.82014412    -7.831548    662.37079  0.020868645  0.020618037            2 
 2646000   0.84217284   -7.8413917    660.95525  0.020816177  0.020611953            2 
 2647000   0.84152953   -7.8293732      662.052  0.020842841  0.020605845            3 
 2648000    0.8349397   -7.8334311    663.21667  0.020871622  0.020599789            1 
 2649000   0.83409788   -7.8260782    664.00377  0.020888504  0.020593702            3 
 2650000   0.83967634   -7.8338369    662.47023  0.020832397   0.02058761            1 
 2651000   0.82063126   -7.8680497    661.51781    0.0207946  0.020581478            4 
 2652000   0.82821955   -7.8600476    661.30756  0.020780152  0.020575364            5 
 2653000   0.81674729   -7.8113214    663.92756  0.020854616  0.020569264            2 
 2654000   0.83880659   -7.8351895    662.45533  0.020800532   0.02056318            1 
 2655000   0.82404981   -7.8589554    662.62755  0.020798103   0.02055708            2 
 2656000   0.83817278   -7.8484301    661.33752  0.020749797  0.020550964            3 
 2657000   0.82527164   -7.8367545    662.29339  0.020771967  0.020544843            3 
 2658000   0.83436733   -7.8530561    663.11397  0.020789879  0.020538702            1 
 2659000   0.81582531   -7.8588021    663.72372   0.02080117  0.020532556            3 
 2660000   0.82862154   -7.8566956    663.55145  0.020787953  0.020526456            6 
 2661000   0.85202235   -7.8758593    661.65875  0.020720868  0.020520369            3 
 2662000   0.82617249   -7.8362525    662.27602  0.020732407  0.020514255            2 
 2663000   0.82431025   -7.8794394    663.30119  0.020756703  0.020508127            3 
 2664000   0.81391446     -7.82997    664.23257  0.020778046  0.020502052            4 
 2665000   0.82260721   -7.8348208    662.87011  0.020727646  0.020495967            2 
 2666000   0.82512085   -7.8120939    662.40947  0.020705472  0.020489822            6 
 2667000    0.8264471     -7.82758    661.24353  0.020661278  0.020483715            3 
 2668000   0.83126982   -7.8457622    663.64931  0.020728676   0.02047759            3 
 2669000    0.8105713   -7.8471334    663.24157   0.02070818  0.020471485            1 
 2670000   0.82682687   -7.8447854    662.98028  0.020692268  0.020465383            1 
 2671000   0.81808533   -7.8317877     664.4511   0.02073041  0.020459288            4 
 2672000   0.80553924   -7.8443044    662.99507  0.020677242  0.020453164            5 
 2673000   0.80862108   -7.8872052     662.6108  0.020657526  0.020447032            2 
 2674000    0.8007287   -7.8257645    663.38096  0.020673802  0.020440925            4 
 2675000   0.82299587   -7.8380416     664.1076   0.02068871  0.020434806            4 
 2676000   0.81074059   -7.8389495    661.88432  0.020611744  0.020428684            3 
 2677000   0.82545277   -7.8770162    663.56846  0.020656471  0.020422492            2 
 2678000   0.82426101   -7.8724095    662.32396  0.020610031  0.020416305            2 
 2679000   0.81524309    -7.857757    663.78545  0.020647799  0.020410167            2 
 2680000   0.83285827   -7.8916506    662.74046  0.020607601  0.020404038            2 
 2681000   0.82348539   -7.8789482    662.55501  0.020594151  0.020397884            4 
 2682000   0.82978607   -7.8261266    663.87319  0.020627429  0.020391739            1 
 2683000   0.82615812   -7.8329935    662.97384  0.020591808  0.020385585            2 
 2684000   0.83037124   -7.8563652      661.922  0.020551478  0.020379446            5 
 2685000   0.83795979   -7.8439639    663.05793  0.020579079  0.020373304            7 
 2686000   0.82481744   -7.8314545    663.14416  0.020574093  0.020367161            3 
 2687000   0.82294027   -7.8071137    663.24141  0.020569452  0.020361041            2 
 2688000   0.83500362   -7.8364899    662.75204  0.020546628  0.020354915            2 
 2689000   0.82511526   -7.8513037    662.10469  0.020518926  0.020348778            2 
 2690000   0.80620274   -7.8358052    663.53954  0.020555748  0.020342652            1 
 2691000   0.80945562   -7.8647613    664.11698  0.020565991  0.020336486            1 
 2692000   0.80377706   -7.8831105    663.11539  0.020527346  0.020330328            2 
 2693000   0.81882816   -7.8367378    665.02042  0.020578674  0.020324169            2 
 2694000   0.80719644   -7.8436836    664.29713  0.020548661  0.020318028            4 
 2695000   0.82686234   -7.8406978    664.43446  0.020545283  0.020311913            2 
 2696000   0.84395714   -7.8315195    664.72711  0.020546708  0.020305854            1 
 2697000   0.80950914   -7.8638921    664.78896  0.020541001  0.020299784            3 
 2698000   0.81371224   -7.8688895    665.71327  0.020561937  0.020293712            3 
 2699000   0.82985173   -7.8336808    665.42609  0.020545452  0.020287639            4 
 2700000   0.80807419   -7.8371291    664.21268  0.020500391  0.020281564            1 
 2701000   0.81959108    -7.872126    665.05917  0.020518918  0.020275463            1 
 2702000   0.81165892    -7.874655    664.16434  0.020483726  0.020269356            2 
 2703000   0.82569059   -7.8748603    664.92874  0.020499715  0.020263244            1 
 2704000   0.83399567   -7.8773588    665.57132  0.020511937  0.020257142            2 
 2705000   0.82986993   -7.8745837    664.36328  0.020467137  0.020251046            2 
 2706000   0.82377054   -7.8404812    666.45944  0.020524127  0.020244955            2 
 2707000   0.79027915   -7.8743408     663.9249   0.02043852  0.020238883            2 
 2708000   0.83202643   -7.8882976    664.43368   0.02044663  0.020232788            3 
 2709000   0.80176462   -7.8807447    665.50622  0.020472075  0.020226726            2 
 2710000   0.82323259   -7.8507693    666.20806  0.020486103  0.020220663            2 
 2711000   0.82041756   -7.8569155    664.61175  0.020429477  0.020214574            3 
 2712000   0.83548472   -7.8759826    664.39263  0.020415211   0.02020853            2 
 2713000   0.82256773   -7.8817805    664.81364  0.020420618  0.020202472            5 
 2714000    0.8157784   -7.8326784     666.8542  0.020475749  0.020196405            3 
 2715000   0.81617904   -7.8633402    666.17924  0.020447491  0.020190339            1 
 2716000   0.81999111   -7.8183528    667.24579  0.020472686  0.020184314            1 
 2717000   0.82441542   -7.8504095    667.38327  0.020469368  0.020178288            2 
 2718000   0.81071723   -7.8476545    665.47604  0.020403361  0.020172255            1 
 2719000   0.81380114   -7.8434167    666.73686    0.0204345  0.020166196            2 
 2720000   0.82697996   -7.8423279    665.91872  0.020401921  0.020160101            1 
 2721000   0.83064225   -7.8565256    665.71558  0.020388202  0.020154011            1 
 2722000   0.81693329   -7.8929121     665.4532   0.02037268  0.020147916            3 
 2723000   0.81390922   -7.8919813    664.94166  0.020349543  0.020141807            3 
 2724000   0.80373078   -7.8718059    665.35932   0.02035485  0.020135715            4 
 2725000   0.81504814   -7.8562447    668.02151  0.020428792  0.020129639            2 
 2726000   0.81097397   -7.8503682    666.81798  0.020384507  0.020123593            3 
 2727000   0.81091499   -7.8911368    666.51253  0.020367697  0.020117527            2 
 2728000   0.82121609   -7.8952217    666.52166   0.02036051   0.02011141            1 
 2729000   0.80425013   -7.8702613    665.99959  0.020337107  0.020105306            3 
 2730000   0.82354874   -7.9010951    664.59901  0.020286905   0.02009919            3 
 2731000   0.81140445   -7.8248534    666.63288  0.020341538  0.020093125            2 
 2732000   0.82849222   -7.8776136    666.66439  0.020335053  0.020087071            2 
 2733000   0.82996765   -7.8723361    667.01174  0.020338204  0.020081019            2 
 2734000   0.80886224   -7.8639649    666.58002  0.020317606  0.020074936            2 
 2735000   0.81012812   -7.8575075    667.41042  0.020335479  0.020068895            2 
 2736000   0.81111773   -7.8367968    668.55343   0.02036286  0.020062852            3 
 2737000   0.82290476   -7.8996506     665.5168  0.020262964  0.020056856            2 
 2738000   0.82248024   -7.8754139    666.82228  0.020295297  0.020050814            2 
 2739000   0.80491196   -7.9020129    667.08645  0.020295925  0.020044758            3 
 2740000   0.82840794   -7.9058742    665.95086   0.02025398   0.02003868            3 
 2741000    0.8174645   -7.9026701    667.37276   0.02028982  0.020032626            1 
 2742000   0.81564521   -7.8787343    667.84033  0.020296631  0.020026562            2 
 2743000   0.80954482   -7.8706168    668.28057  0.020302606   0.02002051            1 
 2744000   0.80213386   -7.8533854    667.38112  0.020267891  0.020014487            2 
 2745000   0.82018004   -7.8930805    667.87285  0.020275436  0.020008434            1 
 2746000    0.7985494    -7.877983    666.99525  0.020241419  0.020002389            3 
 2747000   0.78368611   -7.8999327    667.85832  0.020260233   0.01999635            2 
 2748000   0.82686637   -7.8930929    666.92128  0.020224444  0.019990288            2 
 2749000   0.80279361   -7.8755776    667.75106  0.020242241  0.019984233            2 
 2750000   0.81088874   -7.8678934    667.92236  0.020240071  0.019978177            1 
 2751000   0.79088922   -7.8560215    666.46378  0.020188531  0.019972113            6 
 2752000    0.8187189   -7.8787132    668.27505  0.020236042  0.019966041            2 
 2753000   0.82208753   -7.8649652       669.66  0.020270614  0.019959985            2 
 2754000   0.81312824   -7.8492458    667.53767  0.020199034  0.019953935            3 
 2755000   0.80602991   -7.8685877    666.77158  0.020168529  0.019947908            2 
 2756000   0.82895052      -7.8856    668.06398   0.02020029  0.019941836            4 
 2757000   0.81600627   -7.8968634    668.08485  0.020193594  0.019935759            7 
 2758000   0.80177102   -7.8842084    669.17783  0.020219296  0.019929656            2 
 2759000   0.80844744   -7.8708398     669.1994  0.020212619  0.019923564            2 
 2760000   0.79696919   -7.9073678    665.74757  0.020101074  0.019917426            4 
 2761000   0.81281445   -7.8778071     668.0876  0.020164421  0.019911293            2 
 2762000   0.80820494   -7.8879879    667.68958  0.020145112  0.019905173            2 
 2763000   0.81321979   -7.9023984    666.58139  0.020104397  0.019899046            3 
 2764000   0.81893923   -7.8635115    668.68763  0.020160626  0.019892946            3 
 2765000   0.80045932   -7.8584261    667.04826  0.020103926  0.019886883            2 
 2766000   0.80332295   -7.8948129      668.408  0.020137624  0.019880836            3 
 2767000   0.80348924   -7.8746619    667.88217  0.020114509  0.019874763            5 
 2768000   0.79148513   -7.8274604    667.05934   0.02008247  0.019868715            5 
 2769000   0.80253792    -7.875363    667.57836  0.020090838  0.019862649            2 
 2770000   0.80863338   -7.8489758    668.39178  0.020108056  0.019856579            3 
 2771000   0.82266953   -7.8952941    667.88814  0.020085653  0.019850532            2 
 2772000   0.80485796   -7.9220753    667.52881  0.020067605  0.019844495            5 
 2773000   0.79689187   -7.8832376    669.58612  0.020122194  0.019838402            3 
 2774000   0.78025323   -7.8675504    667.89616  0.020064172  0.019832322            1 
 2775000   0.79704786   -7.8704281    668.45221   0.02007364  0.019826236            1 
 2776000   0.81085033   -7.8638211    670.43679  0.020125984  0.019820188            3 
 2777000   0.83104307   -7.8991563    668.47113  0.020059751  0.019814142            4 
 2778000   0.79329826   -7.8732166    668.66721  0.020058412  0.019808113            2 
 2779000   0.80697415   -7.9047842    668.16092  0.020036012  0.019802031            1 
 2780000   0.81592167    -7.896074    668.60548  0.020042131  0.019795931            3 
 2781000   0.80853634   -7.9023685    669.09175  0.020049495  0.019789836            3 
 2782000   0.80236247   -7.8880036    667.53965  0.019995796  0.019783749            1 
 2783000   0.80089909   -7.9034116    667.38075  0.019983853  0.019777663            1 
 2784000   0.80326952   -7.9066607    667.59322  0.019983035  0.019771575            2 
 2785000   0.81110644   -7.8854107    667.99018  0.019987737  0.019765502            4 
 2786000   0.82028413   -7.8975813     669.0825  0.020013236  0.019759428            2 
 2787000   0.79036509   -7.8910509    668.93149   0.02000154  0.019753359            2 
 2788000   0.80290143   -7.8872799    669.33331  0.020006376  0.019747309            3 
 2789000   0.77109251   -7.8846529    668.02818  0.019960206  0.019741237            2 
 2790000   0.79910618   -7.9169085    668.39974   0.01996415   0.01973516            2 
 2791000   0.81442976   -7.9066523    668.33823   0.01995516  0.019729064            2 
 2792000   0.79999708   -7.8819424    669.42057  0.019980318   0.01972298            3 
 2793000   0.80356782   -7.9004041    668.42254  0.019943387  0.019716913            2 
 2794000   0.79075282   -7.9144838    668.14349  0.019927926  0.019710843            4 
 2795000   0.81114376   -7.8787003    669.81273  0.019970564  0.019704814            2 
 2796000    0.8192473   -7.9012236    669.82345  0.019963741  0.019698794            2 
 2797000   0.81948086   -7.8559254    670.58802  0.019979383  0.019692768            2 
 2798000   0.80241217   -7.9150453    669.59079  0.019942542  0.019686739            2 
 2799000   0.80952471   -7.9030183    669.98577  0.019947177  0.019680694            3 
 2800000   0.81168585   -7.9206365    668.79023  0.019904471  0.019674624            4 
 2801000   0.79264058   -7.9012019    670.31067    0.0199426  0.019668532            2 
 2802000    0.7950808   -7.9115593    669.64527  0.019915693  0.019662423            3 
 2803000   0.81225415    -7.909819    669.73805  0.019911346  0.019656356            1 
 2804000   0.81095303   -7.9298057    668.52301  0.019868135  0.019650276            4 
 2805000   0.80664225   -7.8985802    670.99756  0.019934568  0.019644217            2 
 2806000   0.80036727   -7.9015049     668.9437  0.019866468  0.019638156            8 
 2807000   0.80771914    -7.902403    670.70744  0.019911752  0.019632122            2 
 2808000   0.79893174   -7.8881446    668.39091  0.019835913  0.019626088            3 
 2809000    0.7951292    -7.906136    670.39734  0.019888375  0.019620044            4 
 2810000   0.79217309   -7.8976865    669.73495  0.019861653  0.019613978            2 
 2811000   0.80172072   -7.8800547    670.39952  0.019874289  0.019607953            3 
 2812000   0.80494429    -7.895135     670.3658  0.019866222  0.019601924            4 
 2813000    0.7941465   -7.8768562     670.4478  0.019861589  0.019595885            3 
 2814000   0.82154775     -7.89356    669.93331  0.019839295  0.019589859            4 
 2815000   0.79020538    -7.906636    670.17085  0.019839279  0.019583808            1 
 2816000   0.79425691   -7.9355744    669.25265  0.019805062  0.019577715            2 
 2817000   0.79809101   -7.9290374    669.00684   0.01979076  0.019571606            3 
 2818000   0.81731884   -7.9221045    669.21376  0.019789856  0.019565484            2 
 2819000   0.79995883   -7.9540252    668.01239  0.019747321  0.019559379            3 
 2820000   0.81226424   -7.9762369     670.0699   0.01980112  0.019553285            5 
 2821000   0.79471635   -7.9185638    670.46947  0.019805904  0.019547193            2 
 2822000   0.78937414   -7.9133854    670.29834  0.019793832  0.019541118            3 
 2823000   0.77953897   -7.9116724    671.09081  0.019810214  0.019535082            2 
 2824000   0.80568445   -7.9135317    670.64242  0.019789968  0.019529035            2 
 2825000   0.81276437   -7.9163396    669.77104  0.019757258  0.019522972            2 
 2826000   0.80107449   -7.9400283    670.31205   0.01976622  0.019516931            5 
 2827000   0.79631152    -7.922617    669.94349  0.019748364  0.019510888            1 
 2828000   0.77730453   -7.8964504    671.80726  0.019796301  0.019504867            8 
 2829000   0.77773931   -7.8886334     671.3344  0.019775374  0.019498868            3 
 2830000   0.77730922   -7.9019165     671.8994  0.019785024  0.019492863            3 
 2831000   0.78758436    -7.898621    670.03168  0.019723057  0.019486861            1 
 2832000    0.8036094   -7.8883884    671.40521  0.019756509  0.019480858            1 
 2833000   0.79685868   -7.9162354    671.36037  0.019748217  0.019474862            2 
 2834000    0.7957624   -7.9077548    670.76136  0.019723635  0.019468853            1 
 2835000    0.8015748    -7.910974    671.73669  0.019745346   0.01946286            1 
 2836000    0.7851173   -7.8939848    670.36417  0.019698054  0.019456898            2 
 2837000   0.79819966   -7.9104372    671.22666  0.019716445  0.019450897            2 
 2838000   0.79544298   -7.9273672    672.04158  0.019733427  0.019444943            4 
 2839000   0.79196944   -7.9192343    670.36133  0.019677155  0.019439006            1 
 2840000   0.80368686   -7.8817432    674.42821   0.01978956  0.019433056            1 
 2841000   0.79748816   -7.8881273    674.27256  0.019778029   0.01942711            2 
 2842000   0.80315497   -7.8866921    670.80318   0.01966934  0.019421147            3 
 2843000   0.79409318   -7.9162996    672.20415  0.019703487  0.019415199            3 
 2844000   0.78490743   -7.8919286     671.8594  0.019686457  0.019409203            2 
 2845000   0.78412132   -7.9184861    671.09032   0.01965701  0.019403205            3 
 2846000    0.7890565   -7.9139619    671.69048  0.019667676  0.019397194            2 
 2847000   0.78541608   -7.9210287     672.0699  0.019671874  0.019391174            4 
 2848000    0.7950846   -7.9109594    671.58473  0.019650771  0.019385109            1 
 2849000   0.79260363   -7.9121446    671.07308  0.019628907  0.019379035            2 
 2850000   0.80137033   -7.9031035    671.42055   0.01963218  0.019373012            3 
 2851000   0.80432514   -7.9077533    672.10139  0.019645194  0.019366966            2 
 2852000   0.79136529   -7.9324351    670.74198  0.019598585  0.019360963            2 
 2853000   0.77501547   -7.8977428     670.7562  0.019592131  0.019354942            2 
 2854000   0.77476325   -7.9336838    673.93319  0.019678031  0.019348945            2 
 2855000    0.7797223   -7.9408953     671.4067  0.019597393   0.01934296            6 
 2856000   0.79226942   -7.9366513    672.14584  0.019612099  0.019336967            4 
 2857000   0.80163199   -7.9405188    671.86037  0.019596907  0.019330968            3 
 2858000   0.79406633   -7.9397128    672.39639   0.01960568  0.019324971            3 
 2859000   0.79423249   -7.9396431    673.88616  0.019642245  0.019319013            2 
 2860000   0.80654256   -7.9184999    672.70705  0.019601021   0.01931303            3 
 2861000   0.81191471   -7.9434515    672.01059  0.019573884  0.019307035            2 
 2862000   0.79008424    -7.914233    674.90786  0.019651405  0.019301089            4 
 2863000   0.77470421   -7.9407757    671.80294  0.019554166  0.019295137            7 
 2864000   0.79924084   -7.8983244    673.13061   0.01958597   0.01928919            3 
 2865000   0.78414711   -7.9050436    673.22989  0.019582021  0.019283248            2 
 2866000   0.79600475   -7.8915118    671.23361  0.019517144    0.0192773            2 
 2867000   0.79692114   -7.8964874    674.52218  0.019605923  0.019271369            1 
 2868000   0.79084883   -7.9398592    671.69493  0.019516938  0.019265449            1 
 2869000   0.76803373   -7.9209558    673.47597  0.019561867  0.019259517            3 
 2870000   0.81258347   -7.9231215    673.70171  0.019561606  0.019253582            6 
 2871000   0.78572019   -7.9125723    674.67801   0.01958313  0.019247697            2 
 2872000   0.80098335   -7.9202214    673.19615  0.019533315  0.019241799            3 
 2873000   0.78641426   -7.9242584    673.13543  0.019524754  0.019235887            2 
 2874000   0.78088266   -7.9228968    674.53126  0.019558434  0.019229954            2 
 2875000   0.78933597    -7.936961    673.20445  0.019513172  0.019224016            1 
 2876000   0.79478872   -7.9100671    675.12835  0.019562134  0.019218069            4 
 2877000   0.78312374    -7.936338    673.46629  0.019507192  0.019212142            1 
 2878000   0.81109868   -7.8985898    674.14921  0.019520188  0.019206221            4 
 2879000   0.78554011   -7.9275093    674.39061  0.019520395  0.019200328            4 
 2880000    0.7782728   -7.9037288    674.16286  0.019507027  0.019194378            2 
 2881000   0.80131654   -7.9440009    674.57019  0.019512038  0.019188429            2 
 2882000   0.79894229    -7.911633    674.94109  0.019515993  0.019182516            1 
 2883000   0.78688268   -7.9332138    674.24536  0.019489113   0.01917659            3 
 2884000   0.78585624   -7.9282367    673.80917  0.019469752  0.019170659            2 
 2885000   0.78054441   -7.9293541    674.30267  0.019477258  0.019164731            5 
 2886000   0.77920973   -7.9477358    672.22424  0.019410494  0.019158828            3 
 2887000   0.78476512    -7.922856    674.31187   0.01946403  0.019152894            1 
 2888000   0.79030034   -7.9264883    674.79343  0.019471186  0.019146974            2 
 2889000   0.78292362   -7.9429115    672.63631  0.019402224  0.019141055            1 
 2890000   0.79871152   -7.9524861    675.81286  0.019487107   0.01913511            3 
 2891000   0.80114918   -7.9344893    674.69556   0.01944816   0.01912921            2 
 2892000   0.80930684   -7.9507436    674.80031  0.019444453  0.019123307            1 
 2893000   0.79953248   -7.9694451    674.55687   0.01943072  0.019117416            3 
 2894000   0.80746146   -7.9161909    675.76539  0.019458805  0.019111531            2 
 2895000   0.79200741    -7.948211     675.9776  0.019458192  0.019105624            3 
 2896000   0.81691462   -7.9302528     676.7514   0.01947374  0.019099735            2 
 2897000   0.78643036    -7.935733    674.53135  0.019403157   0.01909387            2 
 2898000   0.76872636   -7.9591291    675.98818  0.019438353  0.019087996            1 
 2899000    0.7732217    -7.917464    676.25931  0.019439442  0.019082106            3 
 2900000   0.79471047    -7.939133    676.40798  0.019437011  0.019076234            2 
 2901000   0.78478375   -7.9334929    676.74227  0.019439914  0.019070349            2 
 2902000   0.78576945   -7.9552258     675.7491  0.019404695  0.019064487            2 
 2903000   0.77450021   -7.9500077    675.45521  0.019389574  0.019058617            1 
 2904000   0.79127082   -7.9362939    675.13646  0.019373751  0.019052741            2 
 2905000   0.77577895   -7.9417326    675.33378  0.019372742  0.019046879            3 
 2906000   0.79612701   -7.9278911    674.09658  0.019330597  0.019040991            5 
 2907000   0.78467153   -7.9338333    677.43847  0.019419747  0.019035125            1 
 2908000   0.78290576   -7.9272016    674.89587  0.019340207  0.019029266            2 
 2909000   0.78855189   -7.9291351    675.43637  0.019349042  0.019023416            2 
 2910000   0.78536607   -7.9103031    675.82578  0.019353545  0.019017536            2 
 2911000   0.80486908   -7.9891677    674.26379  0.019302181   0.01901165            3 
 2912000    0.8051088   -7.9345514    673.36593  0.019269858  0.019005737            2 
 2913000   0.78419592   -7.9458961    675.23486  0.019316708  0.018999809            6 
 2914000   0.78796047   -7.9636011    676.57785  0.019348486  0.018993913            4 
 2915000   0.78663317   -7.9249546    675.79301  0.019319412  0.018988043            3 
 2916000   0.78567877   -7.9569214    677.29743  0.019355779  0.018982182            2 
 2917000   0.78488643   -7.9580313    674.60891  0.019272338   0.01897631            3 
 2918000   0.78430931   -7.9662458    675.42369  0.019289002  0.018970434            2 
 2919000   0.77690919   -7.9733255    674.72349  0.019262404  0.018964548            4 
 2920000   0.79747337   -7.9515086    676.10297  0.019295176  0.018958654            2 
 2921000   0.78847422   -7.9480391    677.13441  0.019317996  0.018952799            2 
 2922000   0.79255717    -7.962931    676.78994  0.019301561  0.018946937            2 
 2923000   0.78960999   -7.9788386    675.63749  0.019262102  0.018941065            2 
 2924000   0.77771227   -7.9643168    674.64478  0.019227222  0.018935207            1 
 2925000   0.78383632   -7.9641309    676.43406  0.019271626   0.01892933            3 
 2926000   0.79509448   -7.9578791     676.8491   0.01927686  0.018923433            2 
 2927000   0.77391679   -7.9417226    675.62802  0.019235509  0.018917576            2 
 2928000   0.76713507   -7.9455318    676.93743  0.019266206  0.018911727            1 
 2929000   0.78226578   -7.9703016    675.18735  0.019209837  0.018905866            3 
 2930000   0.77051867   -7.9175858    677.87587  0.019279746  0.018900041            1 
 2931000   0.79031429   -7.9359546    677.25135  0.019255412  0.018894195            1 
 2932000   0.78494582   -7.9600023    677.85918   0.01926612  0.018888371            1 
 2933000   0.78924299   -7.9659868    676.73265  0.019227544  0.018882546            7 
 2934000   0.77790387   -7.9636546    676.02105   0.01920078  0.018876694            5 
 2935000   0.77683191    -7.975308    676.41675  0.019205473  0.018870829            3 
 2936000   0.78414241    -7.924818    676.57794  0.019203506  0.018864943            3 
 2937000   0.78276417   -7.9567398    675.28725  0.019160346  0.018859095            4 
 2938000   0.79199229   -7.9347312    676.77143  0.019195922  0.018853237            3 
 2939000   0.76662628   -7.9898411    674.71225  0.019131004  0.018847359            2 
 2940000   0.78936155   -7.9734713    675.88525  0.019157745  0.018841468            1 
 2941000   0.77708965   -7.9555202     676.4052  0.019165964  0.018835589            2 
 2942000   0.78205589   -7.9733877    675.99473  0.019147823  0.018829684            5 
 2943000   0.77655276    -7.956186    676.13597  0.019145316  0.018823795            2 
 2944000   0.78272629   -7.9584434    677.48141  0.019176897  0.018817924            2 
 2945000    0.7840351   -7.9687635    676.12339  0.019131958   0.01881206            3 
 2946000   0.79735396   -7.9554505    675.88318  0.019118669  0.018806207            2 
 2947000   0.78370474   -7.9614025    674.97357   0.01908646  0.018800351            2 
 2948000   0.78900502   -7.9884849    675.81811  0.019103859  0.018794471            2 
 2949000    0.7908331   -7.9890428    675.96934  0.019101654  0.018788557            4 
 2950000   0.78326233   -7.9756953    676.10698  0.019099067  0.018782642            3 
 2951000   0.78583798   -7.9781381    674.83371  0.019056639  0.018776721            1 
 2952000   0.78515814   -7.9625466     675.6665  0.019073693  0.018770783            4 
 2953000   0.78310755   -7.9738842    673.65579  0.019010492  0.018764864            1 
 2954000   0.77120076   -7.9772858    677.24757  0.019105382  0.018758938            2 
 2955000    0.7839119   -7.9779486    675.23304  0.019042105  0.018753022            2 
 2956000   0.76826713   -7.9881735    676.38626  0.019068174  0.018747115            1 
 2957000   0.79094181    -7.990295    674.65447  0.019012921  0.018741199            2 
 2958000   0.76488761   -7.9674382    674.08965  0.018990581  0.018735299            3 
 2959000   0.79488441   -7.9487597    675.23597  0.019016446  0.018729415            1 
 2960000   0.77815248   -7.9531176    676.46928  0.019044743  0.018723532            1 
 2961000   0.76975244   -7.9230687     678.0844  0.019083767  0.018717662            1 
 2962000   0.79492662   -7.9779687    676.05784  0.019020308  0.018711786            2 
 2963000   0.78896609   -7.9677226    676.18116  0.019017358  0.018705897            1 
 2964000   0.80534937   -7.9768806    676.29583  0.019014165  0.018700002            2 
 2965000   0.76070515   -7.9548232    675.80035  0.018993826  0.018694089            5 
 2966000   0.77319403   -7.9707206    676.59624  0.019009784  0.018688179            1 
 2967000   0.77844764   -7.9573535    676.66495  0.019005307   0.01868229            2 
 2968000   0.77945632    -7.985179    675.47673  0.018965542  0.018676393            5 
 2969000   0.77717027   -7.9561698    676.88715  0.018998741  0.018670506            2 
 2970000   0.76257351   -7.9620046    677.42448  0.019007421  0.018664632            7 
 2971000   0.78349469   -7.9790891    675.52283  0.018947684  0.018658735            2 
 2972000   0.78465053   -7.9719532    676.41534  0.018966334  0.018652845            3 
 2973000   0.78653664   -7.9654447    674.91601  0.018917928  0.018646952            5 
 2974000   0.77885277   -7.9705015    675.21623  0.018919979  0.018641078            2 
 2975000   0.78017926   -7.9728581    677.63608  0.018981403   0.01863521            1 
 2976000   0.77384502   -7.9882228    674.69401  0.018892642  0.018629322            2 
 2977000   0.77662518   -7.9716704    676.89261  0.018947839  0.018623419            2 
 2978000   0.77164026   -8.0001038    675.74593  0.018909389  0.018617516            1 
 2979000   0.78585783   -7.9958022    675.57375  0.018898225  0.018611605            2 
 2980000   0.76488818   -7.9779209    676.33184  0.018913083  0.018605713            3 
 2981000   0.76705837   -7.9895962    676.59313  0.018914043  0.018599796            3 
 2982000   0.76915824    -7.997617    677.61708  0.018936314  0.018593909            3 
 2983000   0.75766745   -7.9835835    678.00554  0.018940818  0.018588056            2 
 2984000   0.77882926   -7.9767352    678.18892  0.018939592  0.018582199            2 
 2985000   0.77839357   -7.9805319    678.02243  0.018928599  0.018576363            1 
 2986000   0.79769942   -7.9911501    677.59696  0.018910386  0.018570544            2 
 2987000   0.77242985   -7.9579572    677.27938  0.018895195  0.018564698            2 
 2988000   0.77863756   -7.9694856    677.35349  0.018890938  0.018558849            3 
 2989000   0.77299258   -7.9501244    678.55322  0.018918067  0.018553004            3 
 2990000   0.81082397   -7.9613446    676.94476  0.018866911  0.018547155            2 
 2991000   0.76404513   -7.9747325    678.15942  0.018894445  0.018541308            2 
 2992000    0.7761162   -7.9994935    677.28244  0.018863704   0.01853546            3 
 2993000   0.76467219   -7.9527624     677.0363  0.018850549  0.018529598            3 
 2994000   0.79029223   -7.9726569    677.77771  0.018864888   0.01852375            2 
 2995000   0.76252041   -7.9852604    677.26017  0.018844189  0.018517872            1 
 2996000   0.78036997   -7.9554041    678.41946  0.018870145  0.018512019            2 
 2997000   0.77904033   -7.9644038    677.27035  0.018831897  0.018506169            3 
 2998000   0.77728605   -7.9706249    678.25467  0.018852976  0.018500332            4 
 2999000   0.78003887   -7.9797745    679.43373  0.018879452  0.018494494            7 
 3000000   0.78738852   -7.9938144    676.79931  0.018799981  0.018488648            1 
 3001000   0.76561101   -7.9589014    677.40442  0.018810519  0.018482798            2 
 3002000   0.76084729   -8.0157794    676.81632  0.018787928  0.018476944            5 
 3003000   0.76415094   -8.0145792    678.58835  0.018830846  0.018471105            7 
 3004000   0.78295815   -7.9907876    678.66295  0.018826646  0.018465262            3 
 3005000   0.78193441   -8.0091603    677.13249  0.018777939  0.018459387            2 
 3006000   0.75862845   -8.0280287    676.54422  0.018755384   0.01845352            3 
 3007000   0.77260921   -8.0048067    676.72323  0.018754108  0.018447615            2 
 3008000   0.76950937   -7.9921512    677.51632  0.018769845  0.018441718            2 
 3009000   0.75558902   -7.9974094    676.39631  0.018732589   0.01843581            4 
 3010000   0.76964486   -7.9881549    676.65125  0.018733423  0.018429926            3 
 3011000    0.7692369   -7.9716678    676.74661  0.018729841  0.018424048            3 
 3012000   0.75905304   -8.0270011    674.61859  0.018664746  0.018418148            1 
 3013000    0.7622211   -7.9963502    677.25678  0.018731518  0.018412251            1 
 3014000   0.77362346   -8.0073273    676.76096  0.018711595  0.018406358            2 
 3015000   0.76756746   -7.9983691    678.10831  0.018742629  0.018400475            1 
 3016000   0.78984029   -7.9924626    677.65908  0.018724002  0.018394595            2 
 3017000   0.76015139   -7.9783347    676.23017  0.018678328  0.018388729            1 
 3018000   0.76765882   -7.9634114    677.09765  0.018696091  0.018382861            1 
 3019000   0.75790778   -8.0081131     678.3152  0.018723507  0.018376978            1 
 3020000   0.76067649   -7.9830088     679.5407  0.018751123  0.018371103            2 
 3021000   0.77085888   -7.9798893    678.17336  0.018707198  0.018365255            1 
 3022000   0.77550093   -7.9784526    676.32972  0.018650169  0.018359402            3 
 3023000   0.77492556   -7.9749505     677.8193  0.018685062  0.018353576            1 
 3024000   0.79485453   -7.9737582    678.67455  0.018702451  0.018347741            3 
 3025000   0.76461893    -7.998903    678.50778  0.018691674  0.018341926            3 
 3026000   0.77402174   -7.9636077    679.54518  0.018714066  0.018336118            1 
 3027000   0.77498891   -7.9907123    678.56662  0.018680944   0.01833032            3 
 3028000   0.76756606   -8.0247859     678.3005  0.018667451  0.018324498            1 
 3029000   0.77032514   -7.9775193    679.18376  0.018685588  0.018318656            2 
 3030000   0.76725659   -7.9933113    677.67954  0.018638051  0.018312818            2 
 3031000   0.78965953   -8.0041946    678.09283  0.018643265  0.018306976            2 
 3032000   0.77530568   -7.9833833    677.11576  0.018610262  0.018301127            2 
 3033000   0.76856117   -8.0136893    678.22286  0.018634544   0.01829528            1 
 3034000   0.77432254   -7.9933883    677.87782  0.018618925  0.018289446            1 
 3035000   0.75676619   -8.0056761     678.3557  0.018625912  0.018283596            1 
 3036000   0.77771471    -7.979207    678.03497  0.018610973  0.018277771            3 
 3037000   0.76847605   -7.9765604    678.67711  0.018622465  0.018271945            3 
 3038000    0.7439025   -8.0005249    677.84918  0.018593625  0.018266126            3 
 3039000   0.76354635   -7.9879175    679.49735  0.018632701  0.018260303            1 
 3040000   0.77068481   -7.9988876    679.73412  0.018633062  0.018254484            1 
 3041000    0.7695455   -8.0258936    677.52232  0.018566325  0.018248653            4 
 3042000   0.75761803   -7.9829986    677.91367  0.018570942  0.018242805            7 
 3043000   0.76693509   -7.9943125    678.67773  0.018585763  0.018236987            3 
 3044000   0.75811611   -8.0051262    678.19597  0.018566469  0.018231181            1 
 3045000   0.75663713   -8.0032074    678.01438  0.018555402  0.018225355            1 
 3046000   0.77683651   -7.9646935    678.52756   0.01856335  0.018219524            2 
 3047000   0.76055855    -8.015403    678.02769  0.018543586  0.018213701            3 
 3048000   0.75340805   -7.9898043     677.3797  0.018519786  0.018207867            2 
 3049000   0.74586233   -7.9877072    680.32378  0.018594178  0.018202042            3 
 3050000   0.77068244   -7.9877048    677.81359  0.018519497  0.018196223            1 
 3051000   0.74929332   -7.9974927    679.05725  0.018547396  0.018190376            1 
 3052000   0.75065872    -8.035334    678.00356  0.018512548  0.018184537            3 
 3053000   0.76620985   -8.0075688    678.91984  0.018531495  0.018178693            2 
 3054000   0.77287393   -8.0282635    677.71509  0.018492553  0.018172846            8 
 3055000   0.76276077   -7.9862833    677.71082  0.018486384  0.018167003            1 
 3056000   0.76132927   -8.0137231    679.09902  0.018518189   0.01816117            2 
 3057000   0.76085647   -7.9875781    678.90781  0.018506919   0.01815535            5 
 3058000   0.75243739   -8.0133852    679.52016  0.018517554  0.018149543            2 
 3059000    0.7433933   -8.0093116    679.52914  0.018511745  0.018143739            1 
 3060000   0.75921652   -8.0385305    679.56622  0.018506705   0.01813793            4 
 3061000   0.75340941   -7.9995291    678.95301  0.018483965  0.018132106            2 
 3062000   0.76082134   -8.0047945    678.02606  0.018452702  0.018126296            2 
 3063000   0.76509493    -7.999875    678.52446  0.018460237  0.018120468            2 
 3064000     0.757987   -7.9909633    678.33985  0.018449191  0.018114633            2 
 3065000   0.76366722   -8.0156599     678.3508  0.018443469  0.018108812            3 
 3066000   0.75387025    -8.032744    676.73819  0.018393623  0.018102956            2 
 3067000   0.75844447   -8.0271698    679.00419  0.018449195  0.018097095            2 
 3068000   0.75136035   -8.0041482    678.66115  0.018433864  0.018091236            2 
 3069000   0.73636336   -8.0333978    678.38248  0.018420291  0.018085394            2 
 3070000   0.74455966   -8.0064186    679.93487   0.01845643  0.018079591            3 
 3071000   0.75725893   -7.9922263    679.52592  0.018439323  0.018073808            5 
 3072000   0.74614244   -7.9891989    679.94906  0.018444799  0.018068031            1 
 3073000   0.75744903   -8.0324184    679.05838  0.018414643   0.01806224            5 
 3074000    0.7647736    -8.009247    677.19031  0.018358011  0.018056429            1 
 3075000   0.76910334   -8.0267555    678.22498  0.018380081    0.0180506            3 
 3076000    0.7676019   -8.0081237    678.05967  0.018369627  0.018044799            3 
 3077000   0.75340498   -8.0217616     679.4798  0.018402118  0.018039041            4 
 3078000   0.74809989   -8.0237038     680.5888  0.018426164  0.018033254            1 
 3079000   0.75777576   -8.0206109     679.5435  0.018391888  0.018027482            4 
 3080000   0.75562081   -8.0197975    679.25674  0.018378159  0.018021718            2 
 3081000   0.76138846   -8.0027037     681.0896  0.018421768  0.018015956            5 
 3082000   0.76310389   -8.0200757    680.25971  0.018393352   0.01801019            2 
 3083000   0.76836194   -8.0121296    679.73205  0.018373123  0.018004443            3 
 3084000   0.76366717   -8.0176402    679.56618  0.018362683  0.017998694            6 
 3085000   0.75424131   -8.0160211    680.13443  0.018372081  0.017992937            3 
 3086000   0.76246844   -8.0240873    680.35209  0.018372005   0.01798719            2 
 3087000   0.74314768   -7.9986607    680.82503  0.018378821  0.017981438            4 
 3088000   0.75894613   -8.0250636    680.27297  0.018357971  0.017975697            3 
 3089000   0.78047314   -8.0099542    679.71693  0.018337027  0.017969931            4 
 3090000   0.75124264   -8.0330598    680.20733  0.018344318  0.017964166            3 
 3091000   0.73598494   -8.0483913    679.49407  0.018319154  0.017958378            1 
 3092000   0.76106376   -8.0536966    678.93867  0.018298261  0.017952574            2 
 3093000   0.75972532   -8.0687504    678.60608  0.018283384  0.017946787            1 
 3094000    0.7490895   -8.0577213    679.84936  0.018310961  0.017940997            2 
 3095000   0.73975838   -8.0384831    680.63328  0.018326152  0.017935232            4 
 3096000   0.76029343   -8.0656769    680.54136  0.018317758  0.017929456            2 
 3097000   0.75374552   -8.0337349    679.82605  0.018292596  0.017923674            4 
 3098000   0.75931184   -8.0550569    678.61161  0.018254024  0.017917897            6 
 3099000   0.76204848   -8.0429744    678.87348  0.018255176  0.017912101            2 
 3100000   0.74405284   -8.0469252    678.83963  0.018248377  0.017906326            3 
 3101000   0.76481485   -8.0173766    679.82363  0.018268935  0.017900549            3 
 3102000   0.73462176    -8.008856    680.27051  0.018275051    0.0178948            3 
 3103000   0.74993303   -8.0194045    682.06294  0.018317299  0.017889039            2 
 3104000   0.76713963   -8.0083445    679.82393  0.018251287  0.017883292            1 
 3105000   0.76086191   -8.0152918    679.86632  0.018246546  0.017877529            2 
 3106000   0.76352378   -8.0275555    679.56942  0.018232706  0.017871754            1 
 3107000   0.75325323   -8.0291944    679.66198   0.01822932     0.017866            1 
 3108000   0.75645737   -8.0458449    680.95952  0.018258245  0.017860226            2 
 3109000   0.76401408   -8.0061304    678.65544  0.018190614  0.017854478            2 
 3110000   0.74808496   -8.0108131    680.78528  0.018241835  0.017848707            2 
 3111000   0.76535227   -8.0273333    680.10276  0.018217689  0.017842939            4 
 3112000   0.72831938   -8.0148619    679.43495  0.018193952  0.017837183            1 
 3113000   0.74354932   -8.0566623    679.60864  0.018192757   0.01783141            4 
 3114000   0.75382623    -8.038628    679.36059  0.018180277  0.017825642            3 
 3115000   0.75846777   -7.9984812    680.51303  0.018205271  0.017819888            2 
 3116000   0.75128952   -8.0611913    679.10418  0.018161751  0.017814138            5 
 3117000   0.75773675   -8.0240017    680.39908  0.018190543  0.017808375            3 
 3118000   0.75450067   -8.0282104    679.26495  0.018154398  0.017802618            2 
 3119000   0.75657272   -8.0275926    678.28419  0.018122373  0.017796857            5 
 3120000   0.75343755   -8.0058218    679.91019  0.018159994  0.017791087            4 
 3121000   0.75609656   -8.0583822    678.45841  0.018115412    0.0177853            3 
 3122000   0.76368487   -8.0581491    678.83132  0.018119563  0.017779498            3 
 3123000   0.73380756   -8.0372904    678.86641  0.018114698  0.017773708            2 
 3124000    0.7630693   -8.0712274     679.0945  0.018114983  0.017767926            2 
 3125000   0.73412992   -8.0251053    678.77955  0.018100788  0.017762125            3 
 3126000   0.74730378   -8.0588383    679.45495  0.018113003   0.01775634            1 
 3127000   0.76339956   -8.0410606     679.0985  0.018097711  0.017750538            5 
 3128000   0.76524465   -8.0634114    679.13307  0.018092846  0.017744742            4 
 3129000   0.75056912   -8.0685135    678.15306  0.018060964  0.017738938            2 
 3130000   0.74270901   -8.0493878    677.91178   0.01804877  0.017733128            1 
 3131000   0.74971682   -8.0789862    678.43188  0.018056848  0.017727316            1 
 3132000   0.76125515   -8.0757718    679.12603  0.018069552  0.017721506            2 
 3133000   0.75686556    -8.063306    679.31224  0.018068737   0.01771569            2 
 3134000   0.74284801   -8.0303949     679.7044  0.018073399  0.017709909            4 
 3135000   0.74923738   -8.0603663    678.97388  0.018048216  0.017704136            4 
 3136000   0.76756994   -8.0325505    678.53221  0.018030724  0.017698359            1 
 3137000   0.74943296   -8.0254551    679.18878  0.018042418   0.01769259            2 
 3138000   0.75269803   -8.0345842    679.57917  0.018047036  0.017686831            3 
 3139000   0.74817613   -8.0184832    681.12511  0.018082327  0.017681061            2 
 3140000    0.7420283   -8.0330147    679.73053  0.018039558  0.017675292            4 
 3141000   0.75525228   -8.0472812      680.009  0.018041202  0.017669554            2 
 3142000   0.74248943   -8.0240565    680.09421   0.01803772  0.017663818            2 
 3143000   0.74477698   -8.0072754    680.88366  0.018052913  0.017658085            2 
 3144000   0.76281357   -8.0170094    681.36363  0.018059893  0.017652356            2 
 3145000   0.75485086   -8.0401613    679.28704  0.017999127  0.017646599            1 
 3146000   0.74094512   -8.0289265    680.01575  0.018012708  0.017640864            3 
 3147000   0.75931217   -8.0687087    681.18438   0.01803793  0.017635141            2 
 3148000   0.73329365   -8.0536442    681.47077  0.018039781  0.017629416            3 
 3149000    0.7587968   -8.0330591    680.67499  0.018012993  0.017623693            3 
 3150000   0.73768655   -8.0366167    681.20011  0.018021167  0.017617989            3 
 3151000   0.75790194   -8.0236932    681.86346  0.018032991  0.017612284            1 
 3152000   0.75880103   -8.0359498    680.08962  0.017980373  0.017606584            2 
 3153000   0.74431949   -8.0027872    681.74789  0.018018498  0.017600883            1 
 3154000   0.72792211   -8.0382483    682.09941  0.018022073  0.017595171            2 
 3155000   0.74817583   -8.0157597    680.58285  0.017976303  0.017589456            1 
 3156000   0.75853114   -8.0247921    681.49996  0.017994824   0.01758372            3 
 3157000   0.74957857   -8.0311913    680.45359  0.017961503  0.017578012            3 
 3158000   0.73456406   -8.0379759    679.88134  0.017940715   0.01757228            3 
 3159000   0.73726079    -8.053577    681.18268  0.017969365  0.017566553            2 
 3160000   0.74730629   -8.0515166    680.21638  0.017938196  0.017560818            2 
 3161000   0.74614954   -8.0461968    679.53298  0.017914504  0.017555084            3 
 3162000   0.75594612   -8.0618416    680.17207  0.017925682  0.017549346            3 
 3163000   0.74740012   -8.0806395    679.02945  0.017889911  0.017543586            4 
 3164000   0.75959571   -8.0715914    680.65782  0.017927144  0.017537836            2 
 3165000   0.73479664   -8.0598866    679.69972  0.017896254  0.017532091            2 
 3166000   0.75022704   -8.0495384    680.56665   0.01791342  0.017526357            3 
 3167000   0.75197237    -8.046725    681.26736  0.017926201  0.017520657            2 
 3168000    0.7476815   -8.0468653    682.05285  0.017941205  0.017514941            2 
 3169000   0.74836102   -8.0713827    680.67678  0.017899358  0.017509211            2 
 3170000   0.76948525   -8.0678465    680.11857  0.017879037  0.017503498            2 
 3171000   0.74746802   -8.0708921    681.50642  0.017909871  0.017497787            2 
 3172000   0.74198504   -8.0887725    679.70137  0.017856804  0.017492065            3 
 3173000   0.75610787   -8.0734007    679.43182  0.017844097  0.017486346            3 
 3174000   0.73655483   -8.0594188    680.07396  0.017855334  0.017480609            1 
 3175000   0.74923476   -8.0807245     679.9114  0.017845443  0.017474887            2 
 3176000   0.73186321   -8.0834677    680.95771  0.017867278   0.01746914            2 
 3177000   0.74314832   -8.0598308    681.83662  0.017884708  0.017463414            2 
 3178000   0.75739478   -8.0492666    680.48229  0.017843568  0.017457692            2 
 3179000   0.76447374    -8.036938    681.04016  0.017852578  0.017451981            2 
 3180000   0.74983131   -8.0798457    679.81528  0.017814866   0.01744626            2 
 3181000   0.74567886   -8.0535165    680.33809  0.017822962  0.017440557            2 
 3182000     0.744212   -8.0584167     679.4921  0.017795205  0.017434861            1 
 3183000   0.72990644   -8.0637255    682.87838  0.017878269   0.01742917            2 
 3184000   0.74218325   -8.0593038    680.86903  0.017820065  0.017423499            3 
 3185000   0.73697145   -8.0436342    682.39724  0.017854454  0.017417841            4 
 3186000   0.72965299   -8.0294615    682.12278  0.017841671  0.017412171            2 
 3187000   0.74050776   -8.0662371    680.55893  0.017795182  0.017406489            2 
 3188000   0.74048674   -8.0513707    680.93515  0.017799434  0.017400828            2 
 3189000    0.7585914   -8.0397767    682.55725   0.01783624  0.017395169            1 
 3190000   0.73542234   -8.0554697    681.17915  0.017794649   0.01738951            2 
 3191000   0.76083848   -8.0530545    680.83584  0.017780107  0.017383854            1 
 3192000   0.72953339   -8.0574882    681.58376  0.017794062  0.017378197            3 
 3193000   0.73476408   -8.0670125    682.09629  0.017801866  0.017372547            2 
 3194000   0.71572562   -8.0565781    681.94732  0.017792406  0.017366906            2 
 3195000   0.73788834   -8.0497163    681.36778  0.017771721  0.017361273            1 
 3196000    0.7369728   -8.0288003    682.52389  0.017796305  0.017355638            1 
 3197000   0.74528075   -8.0455159      680.655  0.017742024  0.017350003            1 
 3198000   0.73110869   -8.0251184    682.50825  0.017784768  0.017344368            2 
 3199000   0.74293481   -8.0731891    681.83201  0.017761593  0.017338725            2 
 3200000   0.74199699   -8.0640355    680.96156  0.017733374  0.017333062            3 
 3201000   0.71994831   -8.0165535     682.6915   0.01777287  0.017327378            2 
 3202000   0.73079913   -8.0502933    681.57158  0.017738174  0.017321709            4 
 3203000   0.74563017   -8.0438345    681.75641  0.017737444  0.017316071            2 
 3204000   0.74060772     -8.05563    681.19302  0.017717255  0.017310407            2 
 3205000   0.74101136   -8.0217168    682.03725  0.017733678  0.017304755            4 
 3206000   0.74613711   -8.0727231    681.73957  0.017720409  0.017299105            2 
 3207000   0.74195187   -8.0368687    680.83368  0.017691344  0.017293464            2 
 3208000   0.73232787   -8.0378296    680.85443  0.017686368  0.017287819            1 
 3209000   0.72705178   -8.0495008    682.15429  0.017714612   0.01728218            2 
 3210000   0.73051812   -8.0460311    682.15998  0.017709241  0.017276531            1 
 3211000   0.73698781   -8.0420037    681.38747  0.017683678  0.017270888            3 
 3212000   0.72695454   -8.0364422    682.35199  0.017703196  0.017265247            2 
 3213000   0.74919206   -8.0521795    681.91982  0.017686477  0.017259604            2 
 3214000   0.72091504   -8.0438176    682.66799  0.017700373  0.017253975            4 
 3215000   0.72544763   -8.0495026    681.88064  0.017674459  0.017248323            2 
 3216000   0.73459107    -8.050739    680.95603  0.017645005  0.017242664            1 
 3217000   0.73526262   -8.0595706    681.21001  0.017646099  0.017237007            3 
 3218000   0.73539567   -8.0593751    681.68764  0.017652984  0.017231348            3 
 3219000   0.72434984   -8.0855209     681.0997   0.01763228  0.017225689            2 
 3220000   0.73070362   -8.0757204    679.14534  0.017576225  0.017220007            2 
 3221000   0.71488374   -8.0703112    679.59125  0.017582305  0.017214316            3 
 3222000   0.71530255   -8.0903239    680.87556  0.017610065   0.01720862            3 
 3223000   0.74337034   -8.1167098    679.67861  0.017573653    0.0172029            2 
 3224000   0.73773322   -8.0754334    679.22623  0.017556509  0.017197187            3 
 3225000   0.74150987    -8.087774    679.56703  0.017559872  0.017191483            4 
 3226000   0.71610112   -8.0753066    680.64965  0.017582394  0.017185774            2 
 3227000   0.74112641   -8.1245858    681.13263  0.017589418  0.017180056            1 
 3228000   0.73221404   -8.1103173    679.30321  0.017536741  0.017174335            4 
 3229000   0.73053906   -8.1171378    680.38026  0.017559106  0.017168626            5 
 3230000   0.73375414   -8.0939411    682.18374    0.0176002  0.017162925            2 
 3231000   0.74910957   -8.1115782    680.28899  0.017545883  0.017157254            1 
 3232000   0.71099623   -8.0871103    681.71506  0.017577224  0.017151591            6 
 3233000   0.75032189   -8.0851861    681.52267  0.017566828  0.017145917            2 
 3234000   0.74823283   -8.1150693    680.26747  0.017529052  0.017140258            4 
 3235000   0.74539191   -8.0872113    680.23656  0.017522838  0.017134609            7 
 3236000   0.74759679   -8.0776587    681.50919  0.017550195  0.017128958            3 
 3237000   0.73318555   -8.0888825    681.90567  0.017554981  0.017123322            3 
 3238000   0.73544505   -8.0405126    682.29769  0.017559648  0.017117686            7 
 3239000   0.71503885   -8.0874207    681.97675   0.01754597  0.017112074            3 
 3240000   0.73011853   -8.0605157     681.0851  0.017517621  0.017106455            2 
 3241000   0.72434613   -8.0945638    682.35145  0.017544777  0.017100851            2 
 3242000    0.7193401   -8.0794451    680.44886   0.01749046  0.017095222            2 
 3243000   0.74195924    -8.059122    682.13326   0.01752835  0.017089616            3 
 3244000   0.70918607   -8.0712972     681.6622  0.017510846  0.017084015            2 
 3245000    0.7588327   -8.0985777    680.83072  0.017484097  0.017078403            2 
 3246000   0.73849311    -8.063274    682.12208  0.017511863  0.017072793            2 
 3247000   0.72553897   -8.1000467    682.17832  0.017507913  0.017067165            3 
 3248000   0.71302065   -8.1040757    681.82144  0.017493366  0.017061533            2 
 3249000   0.73889062   -8.1168204    680.74754  0.017460437  0.017055893            2 
 3250000   0.74933134   -8.0701313    681.48929  0.017474084  0.017050275            2 
 3251000   0.72844962   -8.1056574    681.88038  0.017478734  0.017044644            4 
 3252000   0.75625017   -8.1006443      682.416  0.017487085  0.017039029            4 
 3253000   0.73765199   -8.0752347    680.45529  0.017431481  0.017033394            3 
 3254000   0.72928916   -8.0851457     680.7455  0.017433556  0.017027761            3 
 3255000   0.73004759    -8.069802     682.7691  0.017480008  0.017022142            3 
 3256000   0.72319024    -8.069213    682.25956  0.017461598  0.017016533            1 
 3257000    0.7335342   -8.0622409    682.50942   0.01746263  0.017010922            4 
 3258000   0.73500917   -8.0727808    682.03601  0.017445161   0.01700531            3 
 3259000   0.72419053   -8.0756225    682.01775  0.017439341  0.016999699            3 
 3260000   0.72637357   -8.0661578    681.99438  0.017433394  0.016994106            2 
 3261000   0.74120619   -8.0835865    681.39748  0.017412795  0.016988512            1 
 3262000   0.74026055   -8.0828212    682.15443  0.017426794  0.016982929            4 
 3263000   0.73820156   -8.0904556    683.40818  0.017453473  0.016977345            1 
 3264000   0.72383757   -8.0826625    682.03773  0.017413136   0.01697177            4 
 3265000   0.72819289    -8.092343    683.24665  0.017438659  0.016966178            2 
 3266000   0.72855567   -8.0915665    682.48611  0.017413914    0.0169606            3 
 3267000   0.73180946   -8.0890612    683.19952  0.017426781  0.016955022            3 
 3268000    0.7351422   -8.1053844    681.18187  0.017369999  0.016949436            3 
 3269000   0.74231042   -8.0922962    682.30346  0.017393277  0.016943842            2 
 3270000   0.74169327   -8.0793428    681.31439  0.017362752  0.016938263            2 
 3271000   0.72527336   -8.1082415    681.52736   0.01736287   0.01693266            2 
 3272000   0.72273838    -8.124435    680.97864  0.017343588  0.016927058            1 
 3273000   0.72874973   -8.1034333    680.05378  0.017314741  0.016921448            1 
 3274000   0.72898163   -8.0933822    682.93309   0.01738274  0.016915871            4 
 3275000   0.74114491   -8.1227483    681.11009  0.017331046  0.016910262            2 
 3276000   0.72683269   -8.0886041     680.8447  0.017319004  0.016904671            2 
 3277000    0.7390783   -8.1182888    682.52917  0.017356555  0.016899085            6 
 3278000   0.71823489   -8.0775853    682.21337  0.017343232  0.016893515            2 
 3279000   0.72742805   -8.0811871      682.365  0.017341796   0.01688794            2 
 3280000   0.73632912   -8.0882402    682.18594   0.01733196  0.016882371            5 
 3281000   0.72073925   -8.0727918    682.22574  0.017327688  0.016876793            2 
 3282000   0.73134628   -8.0958467    683.13112  0.017345397  0.016871226            1 
 3283000   0.71971144   -8.1114111    681.01362  0.017286365  0.016865649            4 
 3284000   0.72549991   -8.1005481    682.40275  0.017316351   0.01686008            4 
 3285000   0.72618422   -8.1085872    682.13673  0.017304331   0.01685452            4 
 3286000   0.74312545   -8.1078139    681.73894  0.017288977  0.016848954            2 
 3287000   0.73049622   -8.1029116    682.12167   0.01729342  0.016843381            4 
 3288000   0.72076372   -8.1213085    683.01233  0.017310734  0.016837814            3 
 3289000   0.71134708   -8.1241636    682.82958  0.017300841  0.016832247            2 
 3290000    0.7276334   -8.1022598    682.25106  0.017280928  0.016826677            1 
 3291000   0.72250021   -8.1403706    681.85787  0.017265721    0.0168211            2 
 3292000   0.72937359   -8.1225298    683.77764  0.017309073  0.016815547            3 
 3293000   0.70639505   -8.1329359    683.24194  0.017290261  0.016809992            2 
 3294000   0.72295935   -8.1355798     681.9504  0.017252338  0.016804447            1 
 3295000    0.7290452   -8.1153679    683.80354  0.017293969  0.016798903            2 
 3296000   0.72112288   -8.1120397    681.66428  0.017234635  0.016793362            2 
 3297000   0.71588627   -8.1222426    681.80321  0.017232919  0.016787829            3 
 3298000   0.72584429   -8.1110233    682.50301  0.017245376  0.016782292            2 
 3299000    0.7263291   -8.1237752    683.43767  0.017263758  0.016776772            1 
 3300000   0.72711518   -8.0877178    683.78878  0.017267394  0.016771259            3 
 3301000   0.73755476   -8.0696928    684.30749  0.017275257  0.016765742            3 
 3302000    0.7287612   -8.0878112    683.59122  0.017251949  0.016760222            2 
 3303000    0.7171395   -8.1174878    682.53629   0.01722011  0.016754712            2 
 3304000   0.70906015   -8.1094703    684.03762  0.017252765  0.016749195            3 
 3305000   0.73321441   -8.1042415    683.53214  0.017234799  0.016743701            2 
 3306000   0.72298256   -8.1014449    682.88715  0.017213328  0.016738208            1 
 3307000   0.72074065   -8.1123339     682.4545  0.017197221  0.016732712            4 
 3308000   0.71672603   -8.1100901    682.70745  0.017198394  0.016727214            3 
 3309000   0.73390006   -8.1127349    682.87138  0.017197325  0.016721705            2 
 3310000   0.72411232   -8.0942242    683.93547  0.017218919   0.01671622            4 
 3311000   0.72811203   -8.1176347    683.09091  0.017192462  0.016710738            5 
 3312000   0.72049658   -8.1183402    682.81388  0.017180301  0.016705246            2 
 3313000   0.70853181   -8.1111763    683.36216  0.017188906  0.016699753            5 
 3314000   0.72636796   -8.0841754    685.47538  0.017236858  0.016694264           10 
 3315000   0.71376555   -8.1142883    683.57708  0.017183939   0.01668878            5 
 3316000   0.71869741   -8.1184225    684.00552  0.017189523  0.016683299            3 
 3317000   0.71212759   -8.1177069    684.68345  0.017201373  0.016677821            2 
 3318000   0.70662632   -8.0848784    685.21959  0.017209654  0.016672346            2 
 3319000   0.72186988   -8.1266101    683.41405  0.017159135  0.016666884            7 
 3320000   0.69464189   -8.0866035    683.95615  0.017167574  0.016661418            2 
 3321000   0.71849577   -8.1013119    684.72645  0.017181734  0.016655947            1 
 3322000   0.71306942   -8.1232462    684.06648  0.017160006  0.016650474            2 
 3323000   0.70357341    -8.155741     682.8279  0.017123781  0.016644981            2 
 3324000   0.72478437   -8.1332825    684.59289  0.017162878  0.016639485            1 
 3325000   0.72509352   -8.1377883    682.74693  0.017111452  0.016634005            2 
 3326000   0.71410377   -8.1629293    682.27545  0.017094494  0.016628525            2 
 3327000   0.70434281   -8.1018202    684.19082  0.017137331  0.016623043            2 
 3328000   0.73803852   -8.1185967    683.64631  0.017118547  0.016617576            2 
 3329000   0.71435961   -8.1092957    685.03412  0.017148145  0.016612124            1 
 3330000   0.72629267   -8.1001693    684.63128  0.017132915  0.016606683            2 
 3331000   0.73185796    -8.103586    685.89648  0.017159424  0.016601243            2 
 3332000   0.72283434   -8.1174379    685.25279  0.017138175  0.016595835            2 
 3333000   0.70386827   -8.1058712    685.40543  0.017136849  0.016590413            2 
 3334000   0.73297434   -8.1061402    683.68811  0.017088785  0.016584997            2 
 3335000   0.71842444   -8.0914996    685.49915  0.017128914  0.016579582            2 
 3336000   0.72370605   -8.0952718    684.63917  0.017102297  0.016574175            4 
 3337000     0.716184   -8.0875831    685.36912  0.017115401  0.016568773            3 
 3338000    0.7128219   -8.0902402    685.65112  0.017117314  0.016563371            1 
 3339000   0.73298786    -8.087779    683.70708  0.017063669  0.016557962            1 
 3340000   0.71516363    -8.095733    686.02537  0.017116401  0.016552557            3 
 3341000   0.72688164   -8.1047019    685.48714  0.017097853   0.01654716            1 
 3342000   0.71390334   -8.1397059    684.14161  0.017059186  0.016541756            2 
 3343000   0.70063787   -8.1015499     686.0661  0.017102056  0.016536352            2 
 3344000   0.71210311   -8.1244899    685.50999  0.017083084  0.016530949            1 
 3345000   0.71968758   -8.1356467     684.9431  0.017063854  0.016525553            2 
 3346000   0.69641178   -8.1321452    683.05294  0.017011679  0.016520144            2 
 3347000   0.70813581   -8.1362173    685.42573  0.017065674  0.016514737            3 
 3348000    0.7233865   -8.1352323    684.20111  0.017030095  0.016509327            2 
 3349000   0.71685046   -8.1394674     686.5355  0.017083097  0.016503916            2 
 3350000   0.71177968   -8.1412533    684.45286  0.017026191  0.016498498            5 
 3351000   0.70472076   -8.1436321    684.85604  0.017031136  0.016493087            2 
 3352000   0.70825379   -8.1542659    685.88937  0.017051745  0.016487685            4 
 3353000   0.71421073   -8.1352477    684.73421  0.017017949  0.016482296            1 
 3354000   0.70628665   -8.1211527    684.60908  0.017009766  0.016476901            2 
 3355000   0.69875998    -8.106605    685.05505  0.017015774  0.016471516            2 
 3356000   0.72663535   -8.1471369    683.41665   0.01697002  0.016466108            2 
 3357000   0.71316623   -8.1186186    684.57351  0.016993683  0.016460705            3 
 3358000   0.72467246   -8.1222499    685.57128  0.017013383   0.01645533            3 
 3359000   0.70877418   -8.1307794    684.93568  0.016992549  0.016449961            2 
 3360000   0.71243413   -8.1148639    684.80802  0.016984326  0.016444583            2 
 3361000   0.72232761   -8.1216416     685.8048  0.017003987  0.016439213            2 
 3362000   0.71607351   -8.1108123    686.01875  0.017004232  0.016433841            2 
 3363000   0.70537942   -8.1236657    685.02205  0.016974478  0.016428482            3 
 3364000   0.72369287     -8.13976    684.97446  0.016968254  0.016423137            2 
 3365000    0.7146921   -8.1152238    685.56829  0.016977917  0.016417784            3 
 3366000   0.69988176   -8.1221534    685.04405  0.016959894  0.016412422            3 
 3367000   0.71538916   -8.1295623    684.19722  0.016933898  0.016407063            2 
 3368000   0.71037773    -8.145576    684.84512  0.016944901  0.016401697            2 
 3369000   0.71897888    -8.114975    686.40448  0.016978443   0.01639633            3 
 3370000   0.71509935   -8.1424951    684.43471  0.016924696  0.016390942            6 
 3371000   0.72006371   -8.1413071    685.58561  0.016948126  0.016385553            2 
 3372000   0.69497362   -8.1625677    685.93075   0.01695163  0.016380164            2 
 3373000   0.71122367   -8.1189725      684.594  0.016913578  0.016374779            2 
 3374000   0.71163404    -8.156423    685.45412  0.016929809  0.016369395            3 
 3375000   0.70363907    -8.152503    685.43577   0.01692434  0.016364019            2 
 3376000   0.70482584   -8.1558236    685.17019  0.016912771  0.016358643            4 
 3377000    0.7152546   -8.1669629    685.29664  0.016910883   0.01635327            2 
 3378000   0.71976771   -8.1366159    684.31786  0.016881731   0.01634789            2 
 3379000   0.71441483   -8.1365455    684.35485  0.016877647  0.016342509            2 
 3380000   0.72796292   -8.1240278    684.79502  0.016883507  0.016337139            3 
 3381000   0.71232529    -8.126229    685.74908  0.016902028  0.016331764            1 
 3382000   0.72998202   -8.1552202    683.64609  0.016845212  0.016326384            4 
 3383000   0.70395111   -8.1490098     684.4987  0.016861235  0.016321024            2 
 3384000    0.7220882   -8.1284419    684.57643  0.016858167   0.01631567            2 
 3385000   0.71945049    -8.169479    685.72545  0.016881473   0.01631031            2 
 3386000   0.69309982   -8.1673253    683.26566  0.016815949   0.01630494            2 
 3387000   0.70112531   -8.1305524    687.21917  0.016908256  0.016299587            3 
 3388000   0.69415488   -8.1400997    685.41615  0.016858917  0.016294221            2 
 3389000    0.7097967   -8.1235851    684.56763  0.016833078   0.01628887            5 
 3390000   0.71459596    -8.119794    686.45537  0.016874517  0.016283524            2 
 3391000   0.70493791   -8.1049315    685.57773  0.016847973  0.016278188            2 
 3392000   0.70437584   -8.1548657    684.55364  0.016817847   0.01627284            1 
 3393000   0.71722724   -8.1310918    684.75232   0.01681777  0.016267487            1 
 3394000   0.72495692   -8.1273747    684.12234  0.016797347  0.016262141            2 
 3395000   0.69729497   -8.1489972     686.1501  0.016842172  0.016256791            4 
 3396000    0.6937611   -8.1465674    685.28586  0.016816006  0.016251453            3 
 3397000   0.72233205   -8.1474476    685.12048  0.016806998  0.016246095            2 
 3398000   0.70270166   -8.1796304    684.09766  0.016776968  0.016240741            5 
 3399000   0.70512099    -8.138558    685.65242  0.016810151  0.016235387            3 
 3400000   0.68898959   -8.1537712    686.24175  0.016819651  0.016230022            2 
 3401000   0.70925283   -8.1531257    684.55492  0.016773373  0.016224667            2 
 3402000   0.71726148   -8.1698137    684.28682  0.016761876   0.01621933            3 
 3403000   0.71466481   -8.1520598    684.93452  0.016772811  0.016213977            4 
 3404000   0.70950755   -8.1458554    683.21895  0.016725885  0.016208623            3 
 3405000   0.70345674   -8.1540752    685.58665  0.016778919  0.016203267            3 
 3406000   0.70479153   -8.1764332    684.01741  0.016735599  0.016197923            1 
 3407000   0.70435237   -8.1638473    683.28558  0.016712787  0.016192576            2 
 3408000   0.70615151   -8.1651558     685.0115  0.016750086  0.016187222            3 
 3409000   0.70376623   -8.1844345    684.63872  0.016736059  0.016181853            1 
 3410000   0.70721637   -8.1865505    684.56866  0.016729439  0.016176493            4 
 3411000   0.70307639   -8.1801152    683.53708  0.016699333  0.016171137            4 
 3412000   0.71656459   -8.1949969    684.70355  0.016722928   0.01616579            2 
 3413000   0.70350529   -8.1724659    684.88951  0.016722568  0.016160443            2 
 3414000   0.69037323   -8.1892857    684.81616   0.01671588  0.016155118            1 
 3415000   0.71492154   -8.1772827    684.82788  0.016711271  0.016149792            2 
 3416000   0.70443461   -8.1854325    685.06512  0.016712166  0.016144471            2 
 3417000   0.69416388    -8.184714    685.92742  0.016728305   0.01613915            3 
 3418000   0.70043094   -8.1469641    685.08482  0.016702868  0.016133854            2 
 3419000   0.69480375   -8.1632181    684.87367  0.016692836  0.016128553            1 
 3420000   0.70543053   -8.1774399     684.0441  0.016667741  0.016123239            4 
 3421000   0.70274512   -8.1501981    685.15551  0.016689942   0.01611793            1 
 3422000   0.69649881    -8.170033    685.42178  0.016691549  0.016112618            2 
 3423000   0.69978363   -8.1737387    685.30714  0.016683882  0.016107321            3 
 3424000   0.70880809   -8.1630968    684.00292  0.016647267  0.016102023            3 
 3425000   0.69448386   -8.1665004    685.15414  0.016670417  0.016096721            2 
 3426000   0.69697246   -8.1637662    686.66787  0.016702371  0.016091419            1 
 3427000   0.70042827   -8.1820853    685.45242  0.016667941  0.016086125            1 
 3428000   0.71068524   -8.1439562    686.30633  0.016683837  0.016080831            1 
 3429000   0.70167286   -8.1809089    686.56377  0.016685228  0.016075542            6 
 3430000   0.70784475   -8.1476469    687.25725  0.016697212  0.016070254            1 
 3431000   0.71037553   -8.1568346    687.43614   0.01669669  0.016064977            2 
 3432000   0.71383015   -8.1253238    686.92808  0.016679489   0.01605971            2 
 3433000   0.69909974   -8.1735501    685.53414  0.016640794   0.01605444            3 
 3434000   0.71899296   -8.1615404    685.90147  0.016644862  0.016049166            2 
 3435000   0.69260552    -8.181431    685.88837  0.016639698  0.016043895            3 
 3436000   0.70424869   -8.1687523    686.53436  0.016650523  0.016038607            2 
 3437000   0.71687894   -8.2014659     685.3056  0.016615886  0.016033323            2 
 3438000   0.68804356   -8.1713294    684.70027   0.01659638  0.016028041            4 
 3439000   0.69012226   -8.1713576    685.25643  0.016605031  0.016022755            1 
 3440000   0.69974916    -8.163607    685.69698  0.016610876  0.016017484            2 
 3441000   0.70515548   -8.1787838    685.89749  0.016610905  0.016012214            2 
 3442000   0.69911077   -8.2004707    685.89614  0.016606046  0.016006939            2 
 3443000   0.71044723   -8.1753827    686.17766  0.016608037  0.016001639            2 
 3444000   0.70231839   -8.1720013    686.75955  0.016617295  0.015996355            3 
 3445000   0.70326514   -8.2023148    686.07245   0.01659585  0.015991067            1 
 3446000   0.69730933   -8.2330859    684.57051  0.016554713  0.015985764            1 
 3447000   0.70442548   -8.1711534    685.45449  0.016571281  0.015980462            2 
 3448000   0.71427236   -8.1953646    685.52871  0.016568269  0.015975166            2 
 3449000   0.68438702   -8.1704407    686.39855  0.016584482  0.015969868            4 
 3450000   0.69293419   -8.1891531    686.08745  0.016572161  0.015964577            1 
 3451000    0.7113971   -8.2251112    684.07101  0.016518666  0.015959279            4 
 3452000   0.70452983   -8.1868073    686.44289   0.01657114  0.015953988            2 
 3453000   0.70979695   -8.2218175    685.49964  0.016543577  0.015948706            1 
 3454000   0.69729108   -8.2099108    685.01858  0.016527181  0.015943434            2 
 3455000   0.69033912   -8.1713233    685.89523  0.016543542  0.015938165            4 
 3456000   0.69799879   -8.1997265    683.39023  0.016478352  0.015932892            3 
 3457000   0.68611418   -8.2013812    684.46999  0.016499614  0.015927618            2 
 3458000   0.66626191   -8.2284459    683.40979  0.016469293  0.015922334            3 
 3459000   0.70040417   -8.2034105     683.6522  0.016470372  0.015917045            2 
 3460000   0.69970479   -8.1984824    685.26515  0.016504459  0.015911762            2 
 3461000   0.68867104   -8.2188605    684.31552  0.016476825  0.015906478            2 
 3462000   0.68909556   -8.2084118    685.30272  0.016495829  0.015901188            1 
 3463000    0.7011632   -8.2042185     685.7174  0.016501044  0.015895891            2 
 3464000    0.7096483   -8.2022135    686.24821  0.016509051  0.015890601            2 
 3465000   0.70501674   -8.2032913     684.6026  0.016464709   0.01588532            2 
 3466000   0.68605388   -8.1874758    686.09033  0.016495728  0.015880049            2 
 3467000   0.70761927   -8.1887988    685.80374  0.016484082  0.015874789            2 
 3468000   0.69927002   -8.2286627    685.62212  0.016474964  0.015869526            1 
 3469000   0.68763701    -8.193873    685.61547  0.016470055   0.01586427            2 
 3470000   0.70074515   -8.2232289    683.35983  0.016411139   0.01585901            2 
 3471000   0.70797832   -8.2036884    684.10308  0.016424255  0.015853737            3 
 3472000   0.70414701   -8.2040738    685.02098  0.016441556  0.015848485            2 
 3473000   0.69656719    -8.211846    683.64377  0.016403776  0.015843228            2 
 3474000   0.69419186   -8.1870094     685.6239  0.016446553  0.015837975            3 
 3475000   0.69079862   -8.2264679    685.30805  0.016434246  0.015832718            3 
 3476000   0.68996447   -8.2029215    685.12121  0.016425039  0.015827478            2 
 3477000   0.68762171   -8.2230153    686.08245  0.016443353   0.01582224            4 
 3478000   0.70777963   -8.1839589    686.26158  0.016442917  0.015816994            2 
 3479000   0.70413365   -8.2092868    685.53282  0.016420734  0.015811762            3 
 3480000    0.7003701    -8.222601    685.70562  0.016420154  0.015806527            1 
 3481000   0.68859739   -8.2163236    684.69019  0.016391128  0.015801285            2 
 3482000   0.69021852   -8.2063227    683.42584  0.016356161  0.015796032            3 
 3483000    0.7012356   -8.1944083    686.44026  0.016423587  0.015790781            4 
 3484000   0.68978193   -8.2102126    684.17039  0.016364581  0.015785531            1 
 3485000   0.69184213   -8.1983643     684.5714  0.016369474  0.015780286            5 
 3486000   0.69469684   -8.1861682    685.72986  0.016392471   0.01577505            3 
 3487000   0.69134428   -8.2195439    684.64278  0.016361791  0.015769813            2 
 3488000   0.69911669   -8.2118687     685.7325  0.016383135  0.015764566            3 
 3489000   0.69098692   -8.1860664    687.01814  0.016409146   0.01575933            2 
 3490000    0.6946626   -8.2136994    684.70126  0.016349123  0.015754081            2 
 3491000   0.68394543   -8.2056436    684.69002  0.016344171   0.01574885            4 
 3492000   0.67475223   -8.2007348    685.41005  0.016356674  0.015743618            4 
 3493000   0.68876486   -8.2115761    685.17303  0.016346336  0.015738384            1 
 3494000   0.70286821   -8.2267214    686.52766  0.016373966  0.015733145            3 
 3495000   0.70044651   -8.2001728    685.42583   0.01634301  0.015727915            2 
 3496000   0.68224087   -8.1909384    685.49013  0.016339868  0.015722693            2 
 3497000   0.68516879   -8.1816419    685.97231  0.016346685  0.015717478            3 
 3498000   0.70635454   -8.1980924     685.9316  0.016341042  0.015712272            1 
 3499000   0.69108844   -8.1792852    685.50249  0.016326153  0.015707061            2 
 3500000   0.69061888   -8.1963492    686.40723  0.016343029  0.015701853            2 
 3501000   0.68318108    -8.212773     685.3548  0.016313311  0.015696648            3 
 3502000   0.70596086   -8.2155523    682.77029  0.016247151  0.015691431            3 
 3503000   0.70390553   -8.1951516    685.80639  0.016314739  0.015686209            3 
 3504000   0.71329078   -8.2268462    684.31261  0.016274558   0.01568099            1 
 3505000   0.68505824   -8.2114509    684.96746  0.016285484   0.01567577            2 
 3506000   0.68324691   -8.2099185    686.43115  0.016315629  0.015670556            5 
 3507000   0.69210211   -8.2234479    684.70039  0.016269851  0.015665344            2 
 3508000   0.67981502   -8.2031609    687.24187  0.016325586  0.015660121            1 
 3509000   0.69658963   -8.2186776     685.5291  0.016280258  0.015654911            2 
 3510000    0.6824673   -8.2258095    684.99998  0.016263057  0.015649686            4 
 3511000   0.68839688   -8.2025793    686.18624  0.016286581  0.015644471            1 
 3512000   0.68973191   -8.2165485    684.85826  0.016250433  0.015639257            4 
 3513000   0.70292485   -8.2073775    684.89204  0.016246609  0.015634044            3 
 3514000   0.69087232   -8.2010712    686.11761  0.016271049  0.015628835            2 
 3515000   0.70005789   -8.2148884    684.23118  0.016221697  0.015623633            2 
 3516000    0.7030191   -8.1957668    684.73811  0.016229098  0.015618427            2 
 3517000   0.68849553   -8.2285627    684.25219   0.01621297  0.015613223            2 
 3518000    0.6709394   -8.2255448    684.31827  0.016209927  0.015608008            3 
 3519000   0.68167219   -8.2114453    686.17351  0.016249254  0.015602804            3 
 3520000   0.68148968   -8.2316907    686.25767  0.016246631  0.015597597            7 
 3521000   0.69439153   -8.2008606    685.17655  0.016216429  0.015592398            2 
 3522000   0.68781793    -8.216261     684.5704  0.016197482  0.015587199            2 
 3523000   0.68049277   -8.1972958      684.343  0.016187506  0.015581998            1 
 3524000   0.68052722   -8.2290999    683.93726  0.016173318  0.015576788            2 
 3525000   0.67888568    -8.224708     685.1481  0.016197355  0.015571589            2 
 3526000   0.68560989   -8.1771264    685.62465  0.016204024  0.015566417            3 
 3527000   0.67440773   -8.2324914    685.87086  0.016205247   0.01556124            2 
 3528000   0.69563173   -8.1988178    686.10148  0.016206101  0.015556049            2 
 3529000   0.68227666   -8.1848235    685.86216  0.016195857  0.015550891            2 
 3530000   0.69652233   -8.1852182    685.33834  0.016178903  0.015545714            2 
 3531000   0.68215133   -8.1938663    686.16115   0.01619374  0.015540556            4 
 3532000   0.69114146   -8.2070879    685.59129   0.01617571  0.015535395            4 
 3533000   0.67079491    -8.191479    684.93062  0.016155548  0.015530233            7 
 3534000   0.68434945   -8.1789717    686.73706  0.016193573  0.015525078            2 
 3535000   0.67226809   -8.2102894    685.68407   0.01616417  0.015519916            3 
 3536000   0.69770901   -8.1875472    685.61857  0.016158055   0.01551477            3 
 3537000   0.68177618   -8.2021943    686.23885    0.0161681  0.015509613            4 
 3538000   0.68678898   -8.1922302    685.68895  0.016150578  0.015504443            2 
 3539000   0.68636022   -8.2145426      686.054   0.01615461  0.015499284            2 
 3540000   0.68061346   -8.2439613    686.29105  0.016155627  0.015494116            2 
 3541000   0.68209483   -8.2258523    685.25829   0.01612676  0.015488943            2 
 3542000   0.69198679   -8.2147497    685.52188  0.016128409  0.015483773            2 
 3543000   0.70259027   -8.1815757    687.00106  0.016158648  0.015478612            1 
 3544000   0.69797725   -8.1978837    685.34072  0.016115047  0.015473451            3 
 3545000   0.69099778   -8.2146719    684.43745  0.016089268  0.015468299            2 
 3546000   0.69024435    -8.219692    684.88876  0.016095336  0.015463151            2 
 3547000   0.67653182   -8.2223237    686.16688  0.016120827  0.015458001            1 
 3548000    0.6697961   -8.2195542    683.86124   0.01606213  0.015452848            4 
 3549000   0.66497027   -8.2006541    684.99391    0.0160842    0.0154477            3 
 3550000   0.68390728   -8.2030686    686.21088  0.016108237  0.015442544            2 
 3551000   0.67933122   -8.1993216    685.07154  0.016076963  0.015437392            3 
 3552000   0.67732741   -8.2060726    684.76204  0.016065175  0.015432245            2 
 3553000   0.68960367   -8.2183126    685.50317  0.016078037  0.015427092            2 
 3554000   0.67882597   -8.2161281    685.51384  0.016073763  0.015421941            3 
 3555000   0.66598233   -8.2298551    684.67864  0.016049663  0.015416776            3 
 3556000   0.67275305   -8.2454994    685.36559  0.016061248  0.015411599            4 
 3557000   0.68408408   -8.2308386    685.23127  0.016053586  0.015406427            2 
 3558000   0.66201099   -8.2310231    685.63935  0.016058632  0.015401254            4 
 3559000   0.68129085   -8.2291925    685.28201  0.016045753  0.015396084            4 
 3560000   0.68130675   -8.2173007    686.38868  0.016067151  0.015390923            5 
 3561000   0.67603843   -8.2100994    685.91041  0.016051446  0.015385775            2 
 3562000   0.66548713   -8.1934013    685.84903  0.016045504  0.015380632            3 
 3563000   0.67539286   -8.2359134    685.45973  0.016031896  0.015375489            5 
 3564000   0.70460721   -8.2374128     684.8803  0.016013849  0.015370337            2 
 3565000   0.66934703   -8.1989409    685.30511  0.016019287  0.015365186            3 
 3566000   0.68115569   -8.2276832     685.6439  0.016022712  0.015360059            3 
 3567000   0.68655341    -8.237692    685.85728  0.016023205  0.015354936            2 
 3568000   0.68162291   -8.2098872    685.24635  0.016004446    0.0153498            1 
 3569000   0.67387555   -8.2336823    685.48314   0.01600549  0.015344669            2 
 3570000   0.69251354   -8.2089494    686.92027  0.016034553  0.015339534            2 
 3571000   0.67777317   -8.2327685    684.07948   0.01596377  0.015334383            3 
 3572000   0.66705208    -8.233757    683.87095  0.015954436  0.015329235            3 
 3573000   0.68432697   -8.2349172     684.3191  0.015960423  0.015324089            2 
 3574000   0.68252101    -8.237689     685.2943  0.015978696  0.015318945            1 
 3575000   0.68104254   -8.2377747    684.93304  0.015965805    0.0153138            2 
 3576000   0.68238141   -8.2137015    687.11897   0.01601228  0.015308677            2 
 3577000   0.66579316   -8.2328423    685.27275  0.015964792  0.015303552            1 
 3578000   0.67841979   -8.2354602    684.06277  0.015932149  0.015298419            2 
 3579000   0.67924598   -8.2378564    685.04144  0.015950485  0.015293299            5 
 3580000   0.68772148    -8.227593    684.48195  0.015933006  0.015288176            2 
 3581000   0.68808322    -8.224329    682.88369  0.015891364  0.015283056            3 
 3582000   0.67484407   -8.2716344    684.26075  0.015918964  0.015277929            2 
 3583000   0.67394707   -8.2225333    683.77607  0.015903249  0.015272806            2 
 3584000   0.66976637   -8.2382509    683.43028  0.015890771  0.015267692            7 
 3585000   0.67287035   -8.2243405    684.49769   0.01591115  0.015262569            4 
 3586000   0.67689888   -8.2375429    685.63925  0.015933242  0.015257456            2 
 3587000   0.67516028   -8.2183358    686.08398  0.015939132  0.015252356            5 
 3588000   0.66112441    -8.223722    684.35968  0.015894641  0.015247244            2 
 3589000   0.66898957   -8.2172211    685.45124  0.015915558  0.015242139            2 
 3590000   0.67053114   -8.1996537    686.00912  0.015924074  0.015237043            3 
 3591000   0.67230525   -8.2116676    685.97349  0.015918813  0.015231952            2 
 3592000   0.65172478   -8.2253332     687.0478  0.015939305  0.015226841            7 
 3593000   0.68444955   -8.2322905    684.15729  0.015867828  0.015221742            2 
 3594000   0.67753326   -8.2391116    684.77494  0.015877735  0.015216651            1 
 3595000     0.682653   -8.2148812    684.70182  0.015871623  0.015211555            2 
 3596000   0.68930934   -8.2356753     686.0524  0.015898508  0.015206472            2 
 3597000    0.6694192    -8.226766    684.72222  0.015863271  0.015201399            3 
 3598000   0.66772304   -8.2322211    686.34293  0.015896399  0.015196327            2 
 3599000   0.66837007   -8.2211533    685.94999  0.015882884  0.015191254            2 
 3600000    0.6816708   -8.2451769    686.05374  0.015880874  0.015186185            3 
 3601000   0.66625486   -8.2235555     686.6978  0.015891368  0.015181106            4 
 3602000   0.67336262   -8.2115627    684.52607  0.015836713  0.015176023            4 
 3603000   0.66836308   -8.2639129    684.85869  0.015840011   0.01517094            3 
 3604000   0.66679558   -8.2507798    685.28851  0.015845554  0.015165849            3 
 3605000   0.68748884   -8.2936425    684.91147  0.015832443   0.01516075            1 
 3606000   0.68281701   -8.2487666    684.78966  0.015825237  0.015155648            3 
 3607000   0.68178569   -8.2509422     685.0175  0.015826114  0.015150569            3 
 3608000    0.6672813   -8.2274116    684.03594  0.015799056   0.01514548            4 
 3609000   0.67326825   -8.2404116    684.25107  0.015799646  0.015140396            1 
 3610000   0.68107385   -8.2527231    684.38013  0.015798249  0.015135309            1 
 3611000    0.6600897   -8.2382492    684.07052  0.015786729  0.015130224            3 
 3612000    0.6850905   -8.2197464    686.53774   0.01583928  0.015125144            2 
 3613000   0.67415143   -8.2427856    685.44865  0.015809776  0.015120075            3 
 3614000   0.67513252   -8.2384374    684.34123  0.015779866  0.015114999            3 
 3615000   0.69331239   -8.2311185     685.3075  0.015797776  0.015109924            2 
 3616000   0.68309606   -8.2583912    685.72979  0.015803138  0.015104845            2 
 3617000    0.6682222   -8.2495404    685.17625  0.015786016  0.015099769            2 
 3618000   0.66892149   -8.2477743    685.30203   0.01578455    0.0150947            4 
 3619000   0.67581515   -8.2428415    684.84618  0.015769692  0.015089639            2 
 3620000   0.67723444   -8.2190542    685.24274  0.015774464  0.015084577            3 
 3621000   0.66667143   -8.2209503    686.21138    0.0157924   0.01507952            2 
 3622000   0.67593813   -8.2286648    686.02476  0.015783747  0.015074467            2 
 3623000   0.68185164   -8.2411352    685.49018  0.015767094  0.015069407            1 
 3624000   0.65051677    -8.250907    685.31322  0.015758674  0.015064344            2 
 3625000   0.68245532   -8.2403845    686.25221  0.015775913  0.015059285            2 
 3626000   0.68173823    -8.248249    683.18159  0.015700993  0.015054209            2 
 3627000   0.66507593   -8.2528267    685.02347  0.015738982  0.015049138            2 
 3628000   0.66299083   -8.2463442    686.44247  0.015767238  0.015044056            2 
 3629000   0.68571284   -8.2490482    685.33947  0.015737565   0.01503899            3 
 3630000   0.66223774   -8.2318016    685.04914  0.015726564  0.015033936            2 
 3631000   0.68076347   -8.2411079    686.90289  0.015764778  0.015028879            1 
 3632000   0.66789569   -8.2554158    684.78802  0.015711913   0.01502383            3 
 3633000    0.6668613   -8.2698755    683.50574  0.015678176  0.015018773            1 
 3634000    0.6770694   -8.2533819    685.20242  0.015712769  0.015013708            2 
 3635000   0.67008928   -8.2593213     684.0653  0.015682377   0.01500865            1 
 3636000   0.67144453   -8.2686773    685.36578   0.01570787  0.015003592            2 
 3637000   0.66116202    -8.247652    684.93262  0.015693626  0.014998533            4 
 3638000   0.65796828   -8.2544903    684.96586  0.015690074  0.014993483            4 
 3639000   0.66560733   -8.2308824    685.03986  0.015687457  0.014988433            3 
 3640000    0.6717841   -8.2741848    685.61025  0.015696205  0.014983398            2 
 3641000   0.66758721   -8.2662066    685.99331  0.015700662  0.014978343            2 
 3642000   0.66263907   -8.2652776    684.66872  0.015666042  0.014973305            1 
 3643000   0.67059683   -8.2481348    685.26072  0.015675284  0.014968267            2 
 3644000   0.66739861   -8.2611793    686.04739  0.015688973  0.014963232            2 
 3645000   0.66180664   -8.2415351    684.31539  0.015645071  0.014958193            2 
 3646000    0.6742844   -8.2471723    685.31783  0.015663691  0.014953161            8 
 3647000   0.66010828   -8.2595243    684.65016   0.01564414  0.014948125            6 
 3648000   0.68437555   -8.2591176    686.10566  0.015673101  0.014943096            5 
 3649000   0.68212104   -8.2728857     684.6677  0.015635967  0.014938071            3 
 3650000   0.66743396   -8.2612783    686.63376   0.01567657   0.01493305            1 
 3651000   0.66401592   -8.2435323    685.11671   0.01563765  0.014928027            2 
 3652000   0.65795099   -8.2709206    684.04429  0.015608897  0.014922994            1 
 3653000   0.69044909    -8.254434    685.50175  0.015637872  0.014917965            1 
 3654000   0.67079485   -8.2444362    685.86914  0.015641971  0.014912956            1 
 3655000   0.67358331   -8.2558748    684.88179   0.01561518   0.01490795            1 
 3656000   0.66961117   -8.2716356    686.49586  0.015647699  0.014902951            2 
 3657000   0.66317438   -8.2731746    684.41808  0.015596073  0.014897939            4 
 3658000   0.66946565   -8.2653727    685.31958  0.015612347  0.014892931            2 
 3659000   0.68216447   -8.2610371    685.12448  0.015603637  0.014887931            4 
 3660000    0.6576789   -8.2611256    685.01265  0.015596827  0.014882925            2 
 3661000   0.67779933   -8.2699352     685.2096   0.01559705  0.014877916            4 
 3662000   0.67353191   -8.2355349    683.94899  0.015564104  0.014872911            2 
 3663000   0.67528971   -8.2697135    686.27776  0.015612835  0.014867907            1 
 3664000   0.68636556   -8.2483499    686.88288  0.015622336  0.014862926            1 
 3665000   0.67157553    -8.251858    683.72718  0.015546321  0.014857942            2 
 3666000    0.6720214   -8.2393467    686.49137  0.015604914  0.014852952            2 
 3667000     0.652423   -8.2201555    684.24687  0.015549652  0.014847953            2 
 3668000    0.6581061   -8.2721213    684.29591  0.015546527  0.014842962            3 
 3669000   0.66498435   -8.2500162    685.05923  0.015559626  0.014837957            2 
 3670000   0.67424219   -8.2692903    684.30188   0.01553819  0.014832952            1 
 3671000   0.66622621   -8.2586939    683.82753  0.015523189  0.014827948            4 
 3672000   0.65338487   -8.2573849    684.89944  0.015543288  0.014822953            1 
 3673000   0.65950493   -8.2831083    685.57054  0.015554282  0.014817954            2 
 3674000   0.65609641   -8.2542019    684.85463   0.01553381  0.014812965            3 
 3675000   0.67460912   -8.2554912    684.25603   0.01551601  0.014807969            7 
 3676000   0.66235334   -8.2604893    684.79831  0.015524082  0.014802976            3 
 3677000   0.65647987   -8.2686682    684.36219  0.015509976  0.014797978            1 
 3678000   0.65846366   -8.2593445    685.19587  0.015524648   0.01479298            1 
 3679000   0.66833957   -8.2725028     683.9477  0.015492156  0.014787978            2 
 3680000   0.65216455   -8.2584898    684.66434  0.015504174  0.014782984            1 
 3681000   0.65697139   -8.2656736    685.41255  0.015516901  0.014777997            2 
 3682000   0.66588859   -8.2687944    683.37038  0.015466467  0.014773011            3 
 3683000   0.67445403   -8.2630054    685.53097  0.015511154  0.014768029            2 
 3684000   0.66066398   -8.2723022    685.13331  0.015497949  0.014763056            6 
 3685000   0.66006687   -8.2500593    684.68772  0.015483666  0.014758078            3 
 3686000   0.65299184   -8.2645147    685.30862  0.015493503  0.014753097            3 
 3687000   0.66418377   -8.2446114    684.86123  0.015479189  0.014748124            1 
 3688000   0.66188264   -8.2558907    685.32895   0.01548556  0.014743158            1 
 3689000   0.66898132   -8.2706509    684.03658  0.015452168  0.014738178            1 
 3690000   0.65421274   -8.2599434    684.07055  0.015448748  0.014733193            1 
 3691000   0.65005045   -8.2466734    683.62505  0.015434504  0.014728217            2 
 3692000   0.65908505    -8.256125    684.63146   0.01545304  0.014723246            2 
 3693000    0.6483709   -8.2577761    683.19273   0.01541639  0.014718289            2 
 3694000   0.65788216   -8.2719046     684.4897  0.015441475  0.014713318            3 
 3695000   0.66023725   -8.2635368     684.0688  0.015427803  0.014708339            4 
 3696000   0.67164106   -8.2666606      685.072  0.015446248  0.014703371            5 
 3697000   0.65746333   -8.2935627    683.75799  0.015412451  0.014698398            3 
 3698000   0.65084424   -8.2874557    684.39963  0.015422743  0.014693425            2 
 3699000   0.66024648   -8.2929431    684.87414  0.015429263  0.014688447            2 
 3700000   0.65982132    -8.262196    686.17059  0.015454292  0.014683484            2 
 3701000   0.65421277    -8.278601    684.58902  0.015414506  0.014678525            2 
 3702000   0.65094593    -8.282644    684.74682  0.015413894  0.014673558            3 
 3703000    0.6739923   -8.2793844    683.31198  0.015377441  0.014668603            3 
 3704000   0.65468695     -8.27166    685.25426  0.015416988  0.014663648            2 
 3705000   0.65662821   -8.2914566    685.15163  0.015410518  0.014658688            4 
 3706000   0.65387674   -8.2687757    685.41067  0.015412185  0.014653727            3 
 3707000   0.65066656   -8.2625047     683.8786  0.015373586  0.014648775            2 
 3708000   0.64857593   -8.2667653    684.30541  0.015379032   0.01464382            2 
 3709000   0.65230586   -8.2608815    684.45125  0.015378162  0.014638866            4 
 3710000   0.64460781   -8.2935445    684.85767  0.015383146  0.014633919            3 
 3711000   0.65599518   -8.2826108    684.59491    0.0153731  0.014628976            3 
 3712000   0.65334659   -8.2734225    684.79098  0.015373361  0.014624036            3 
 3713000    0.6744899   -8.2898036    684.80294  0.015369489  0.014619092            4 
 3714000   0.65218383   -8.2498964    684.44067  0.015357222  0.014614155            2 
 3715000   0.64641801   -8.2684857    684.16435   0.01534689  0.014609213            2 
 3716000    0.6525561   -8.2843193    685.01641  0.015361868  0.014604273            5 
 3717000   0.65499668   -8.2806737    685.77099  0.015374652  0.014599342            7 
 3718000   0.65258601   -8.2794593    684.42704  0.015340395  0.014594413            4 
 3719000   0.66699339    -8.282376    684.74941  0.015343493  0.014589499            2 
 3720000   0.65827951   -8.2959845    686.33843  0.015374965  0.014584565            4 
 3721000   0.66345093   -8.2971352    684.87885  0.015338145  0.014579633            2 
 3722000   0.65168906   -8.2697274    685.25602  0.015342469  0.014574715            4 
 3723000   0.65259227   -8.2883102    683.44297  0.015297766  0.014569785            2 
 3724000    0.6442981   -8.2688387    685.78843  0.015346143  0.014564869            2 
 3725000   0.64442012   -8.2988222    683.06535  0.015281104  0.014559958            1 
 3726000   0.65015709   -8.2816002    683.78477  0.015293093  0.014555044            1 
 3727000   0.65002988   -8.2972168    685.22741  0.015321246  0.014550135            3 
 3728000   0.64441066   -8.3029049    684.65165  0.015304266  0.014545212            2 
 3729000   0.65965716   -8.2965362    684.94297  0.015306672  0.014540297            4 
 3730000   0.66360997   -8.3111407    685.25365   0.01530951  0.014535377            1 
 3731000   0.66692072   -8.3070008    684.56351  0.015289992  0.014530454            2 
 3732000    0.6596216   -8.3219046     683.3227  0.015258188  0.014525531            2 
 3733000   0.66693782   -8.2648261    685.84488  0.015310404  0.014520612            1 
 3734000     0.645266   -8.2468727    684.53246  0.015277014    0.0145157            1 
 3735000   0.65981545   -8.3286729    683.19431  0.015243068  0.014510794            2 
 3736000   0.65910476   -8.3109547    684.49305  0.015267957  0.014505874            2 
 3737000   0.65928838   -8.3020902    684.90454  0.015273047   0.01450097            1 
 3738000   0.65481062   -8.3169771    684.62608  0.015262754  0.014496063            3 
 3739000   0.64939773   -8.2929966    685.39053  0.015275709  0.014491155            1 
 3740000   0.65641616   -8.3093704    684.06883  0.015242175  0.014486242            2 
 3741000   0.65349214   -8.2813651     684.3385  0.015244108  0.014481336            1 
 3742000   0.64045089   -8.2956916    684.72893  0.015248729  0.014476432            3 
 3743000   0.63539262   -8.2875115    684.43183   0.01523804  0.014471529            1 
 3744000   0.65878433   -8.2895241    684.25834  0.015230109  0.014466634            5 
 3745000   0.65858592   -8.2971392    685.68437  0.015257774   0.01446174            3 
 3746000   0.66826583   -8.3129985    684.26454  0.015222115  0.014456835            1 
 3747000   0.64700114   -8.2994122     684.3856  0.015220746  0.014451935            3 
 3748000   0.64602564   -8.2748208    684.82993  0.015226564  0.014447035            2 
 3749000   0.65069965   -8.2800065    684.33424  0.015211484  0.014442135            2 
 3750000   0.65451296   -8.3033259    683.52851  0.015189522  0.014437234            3 
 3751000   0.64050099   -8.2931918    683.58047  0.015186627  0.014432326            3 
 3752000   0.66112902   -8.3148039    683.70805  0.015185413  0.014427421            2 
 3753000    0.6531168   -8.2818195    683.93935  0.015186503  0.014422521            1 
 3754000   0.65358142   -8.3079667    684.37802  0.015192196  0.014417633            2 
 3755000   0.64702923   -8.3019001    683.45208  0.015167601  0.014412735            2 
 3756000   0.65269314   -8.3216315    684.71192  0.015191514  0.014407842            2 
 3757000   0.64468511   -8.3193931    683.41746  0.015158758  0.014402941            1 
 3758000   0.64807031   -8.2959582    683.93452   0.01516619  0.014398034            3 
 3759000   0.65490794   -8.3093564     683.3688  0.015149614  0.014393138            4 
 3760000   0.64544501   -8.2969602    684.23356  0.015164751  0.014388243            2 
 3761000   0.64745941   -8.3130207    683.59735  0.015146622  0.014383356            2 
 3762000   0.64882196   -8.3163707    683.59156  0.015142468  0.014378469            1 
 3763000   0.63494229   -8.3176321    683.73393  0.015141596   0.01437358            3 
 3764000   0.64522982   -8.2973011    682.50069   0.01511027  0.014368693            4 
 3765000   0.64075295   -8.3324357    683.53491  0.015129148  0.014363798            1 
 3766000   0.65134996   -8.3108903    683.89949  0.015133198  0.014358905            1 
 3767000   0.64962186   -8.3099679    683.82913  0.015127624  0.014354016            2 
 3768000   0.64515893   -8.3297077    683.26369  0.015111104  0.014349124            2 
 3769000   0.64340178   -8.3032376    682.30025  0.015085793  0.014344243            6 
 3770000   0.64012583   -8.3326675    684.18838  0.015123527  0.014339362            2 
 3771000   0.65217842   -8.3115755     683.8166  0.015111301  0.014334471            3 
 3772000   0.64646805   -8.3085956    683.58376  0.015102151  0.014329594            5 
 3773000    0.6489791   -8.3174377    684.36993  0.015115512  0.014324723            3 
 3774000   0.65243818   -8.3169099    685.12384  0.015128154   0.01431985            1 
 3775000    0.6445087   -8.3111544    685.17715  0.015125323  0.014314977            2 
 3776000   0.64470773   -8.3290815    683.51374  0.015084608  0.014310111            1 
 3777000   0.65860376   -8.3163793    684.05641  0.015092587  0.014305247            3 
 3778000   0.64350283    -8.325133    683.56956  0.015077853  0.014300381            2 
 3779000   0.65696467   -8.3049525    684.00006  0.015083357  0.014295518            3 
 3780000   0.64582419   -8.3280993    683.44646  0.015067162  0.014290661            2 
 3781000   0.64411084   -8.3260077    683.78167  0.015070565  0.014285804            5 
 3782000   0.65385639   -8.3076846    684.96437   0.01509264   0.01428096            1 
 3783000   0.65505091   -8.3007578    685.81602  0.015107411  0.014276113            5 
 3784000   0.64341339   -8.3209313    683.97091  0.015062784  0.014271262            5 
 3785000   0.64573434   -8.3045807     683.8074  0.015055205  0.014266409            4 
 3786000   0.65339712   -8.3176284    683.21005   0.01503808  0.014261551            3 
 3787000   0.65110569   -8.3079811    683.44123  0.015039196    0.0142567            5 
 3788000   0.63799405   -8.3033588    683.17365  0.015029339  0.014251844            4 
 3789000   0.62684945    -8.321132    683.92514  0.015041901  0.014246986            4 
 3790000   0.64871489   -8.3247242    684.47273  0.015049972  0.014242119            3 
 3791000   0.62698758   -8.3431245    682.62953  0.015005485  0.014237253            4 
 3792000    0.6455433   -8.3295591    684.98278  0.015053243  0.014232402            3 
 3793000    0.6558889   -8.3336175    682.97486   0.01500516  0.014227543            2 
 3794000   0.63869702   -8.3246392    682.05502  0.014981001  0.014222695            4 
 3795000   0.64353824   -8.3185317    682.75826  0.014992496  0.014217841            2 
 3796000   0.64524788   -8.3295911    683.72195  0.015009702  0.014212994            2 
 3797000   0.64604038   -8.3035749    683.24542  0.014995291  0.014208149            4 
 3798000   0.63652847   -8.3033895    682.59036  0.014976969  0.014203297            3 
 3799000   0.64558188   -8.3053765    683.43692  0.014991597  0.014198454            3 
 3800000    0.6374062   -8.3179338    683.67096  0.014992784  0.014193618            3 
 3801000     0.633583   -8.3161889    683.48569  0.014984778  0.014188791            1 
 3802000     0.637376   -8.3265875    683.51864  0.014981559  0.014183959            2 
 3803000   0.64342623   -8.3212988    682.88659   0.01496377  0.014179121            4 
 3804000   0.65166646   -8.3022929    683.80279  0.014979907  0.014174296            3 
 3805000   0.65445082   -8.3051502    683.55734  0.014970594  0.014169471            4 
 3806000   0.64600622    -8.333758     683.5073  0.014965565  0.014164647            3 
 3807000   0.64228616     -8.32976    684.64552  0.014986549  0.014159814            1 
 3808000   0.63072633   -8.3120814    684.70006  0.014983807   0.01415499            7 
 3809000   0.65176663   -8.3078338    683.29989  0.014949241  0.014150163            6 
 3810000   0.64449102   -8.3362425    682.83691   0.01493519  0.014145332            2 
 3811000    0.6474419   -8.3199364    683.78848  0.014952079  0.014140507            4 
 3812000   0.63716845   -8.3362203    683.94972  0.014951682  0.014135685            2 
 3813000   0.62925474   -8.3190648    684.00088  0.014948878  0.014130876            3 
 3814000   0.64929036   -8.3203082    683.54505  0.014934999  0.014126065            4 
 3815000   0.63890337   -8.3211717    683.65739  0.014933538  0.014121251            3 
 3816000   0.64185945   -8.3330021    684.00894  0.014937302  0.014116432            5 
 3817000   0.63337567    -8.301806    684.68218  0.014948087  0.014111622            6 
 3818000   0.65555482   -8.3383047    682.97471  0.014906904   0.01410681            5 
 3819000   0.63409447   -8.3248582    683.61507  0.014916974  0.014101995            2 
 3820000   0.64576972   -8.3331872    682.73204  0.014893805   0.01409719            4 
 3821000   0.63012665   -8.3198125    683.68091  0.014910602  0.014092378            2 
 3822000    0.6477498   -8.3299947    682.53157  0.014881641  0.014087573            3 
 3823000   0.64171628   -8.3263348    683.63084   0.01490171  0.014082767            3 
 3824000    0.6456318   -8.3061984    684.02357  0.014906371  0.014077965            1 
 3825000   0.63810126   -8.3310716    684.23898  0.014907167  0.014073168            4 
 3826000   0.63894757   -8.3426755    681.91711  0.014852699  0.014068368            5 
 3827000   0.64522229    -8.333194    681.38607  0.014837254  0.014063562            2 
 3828000   0.64632388   -8.3397349    684.19725  0.014894576  0.014058763            2 
 3829000   0.62311128   -8.3446946    683.41197  0.014873596  0.014053972            3 
 3830000   0.63518188   -8.3246339     683.1028  0.014862985  0.014049172            3 
 3831000   0.64223917   -8.3260232     682.3281  0.014842254  0.014044384            4 
 3832000   0.62673627   -8.3408067    683.06723  0.014854454  0.014039576            2 
 3833000   0.64758862   -8.3587068    681.59332  0.014818535  0.014034771            1 
 3834000   0.65036117   -8.3211913    683.39937  0.014853925  0.014029977            3 
 3835000   0.63120227   -8.3512108    683.22633  0.014846291  0.014025187            3 
 3836000   0.63573834   -8.3336584    684.21942  0.014863995  0.014020391            2 
 3837000   0.65257876   -8.3138627    683.12149  0.014836276  0.014015606            6 
 3838000   0.63707698   -8.3518048    683.05722  0.014831015  0.014010819            4 
 3839000   0.63203054   -8.3347972    683.03654  0.014826703  0.014006027            2 
 3840000   0.64286737   -8.3457126    683.16394  0.014825606  0.014001238            2 
 3841000   0.62732548   -8.3249925    683.55344  0.014830197  0.013996449            6 
 3842000   0.64607506   -8.3525272    683.49436  0.014825056  0.013991673            2 
 3843000   0.64898202   -8.3283244    684.23313  0.014837218   0.01398689            3 
 3844000   0.62303613   -8.3294177    684.24533  0.014833622  0.013982108            5 
 3845000   0.64691294   -8.3317258    683.13218  0.014805639  0.013977325            3 
 3846000   0.63665713   -8.3498414    682.26752  0.014783054  0.013972549            2 
 3847000   0.64639529   -8.3607411    681.89045  0.014771043  0.013967774            4 
 3848000   0.64690349   -8.3544057     683.6367  0.014805022  0.013962997            3 
 3849000   0.64746326   -8.3185351    684.08029   0.01481078  0.013958227            5 
 3850000   0.65579046   -8.3271579    682.56741  0.014774186  0.013953461            1 
 3851000    0.6263609   -8.3381899    682.18469  0.014762068  0.013948704            1 
 3852000   0.63808009   -8.3275971    684.17984  0.014801398  0.013943942            4 
 3853000   0.63486555   -8.3279919    683.30433  0.014778621  0.013939183            2 
 3854000   0.64544735   -8.3269457    682.37994  0.014754799  0.013934423            1 
 3855000   0.63707707    -8.330953    682.91231   0.01476248  0.013929663            3 
 3856000   0.63757889   -8.3613778    682.82665    0.0147568  0.013924896            3 
 3857000   0.62495216   -8.3483244    682.75549  0.014751437  0.013920138            2 
 3858000   0.62312511   -8.3202233    683.42296   0.01476203  0.013915383            2 
 3859000   0.63057717   -8.3561925     682.8055  0.014744871  0.013910616            3 
 3860000   0.64271571   -8.3547174    682.46719  0.014733748  0.013905855            1 
 3861000   0.63569787    -8.338323    682.01998  0.014720279  0.013901092            1 
 3862000   0.63042744   -8.3393649     683.1139  0.014740072  0.013896337            4 
 3863000   0.64418413   -8.3518386    683.08985  0.014735737  0.013891591            3 
 3864000   0.64177232    -8.374124    683.97215  0.014750952  0.013886846            2 
 3865000   0.64078451   -8.3419641    682.68663  0.014719418  0.013882095            3 
 3866000   0.62838098   -8.3383752    683.48355  0.014732789  0.013877362            3 
 3867000   0.62399766   -8.3534513    682.92194  0.014716876  0.013872625            3 
 3868000   0.62966225   -8.3519259    683.37185  0.014722765  0.013867883            1 
 3869000   0.61932068   -8.3493325    683.08791  0.014712844  0.013863144            2 
 3870000   0.62660608   -8.3315502    682.80968  0.014703051  0.013858411            1 
 3871000   0.64291546   -8.3695289    683.98075  0.014724463  0.013853683            1 
 3872000   0.62898822   -8.3376156    683.81634  0.014717122  0.013848953            1 
 3873000   0.62551653   -8.3643651    683.79665  0.014712898  0.013844221            2 
 3874000   0.62516569   -8.3363684    683.37418  0.014700012   0.01383949            2 
 3875000   0.62843666   -8.3343341    683.42177  0.014697242  0.013834767            1 
 3876000   0.64198015   -8.3506157     683.5644  0.014696517  0.013830045            3 
 3877000   0.62971053    -8.343146     682.0336  0.014659823  0.013825317            2 
 3878000   0.63460005   -8.3545374    683.15294  0.014680096  0.013820588            1 
 3879000   0.63988043   -8.3679659    682.58139  0.014664033  0.013815862            2 
 3880000   0.62495958   -8.3537997    683.14986  0.014672463  0.013811138            4 
 3881000   0.62415566   -8.3493918    682.03879  0.014644825  0.013806407            1 
 3882000   0.61861164    -8.350098    681.98555   0.01463991  0.013801695            3 
 3883000   0.63574986   -8.3628413    682.03725  0.014637249  0.013796976            1 
 3884000   0.62421693   -8.3445241    683.27554  0.014660048  0.013792263            4 
 3885000   0.62965888   -8.3666061    684.02495   0.01467235  0.013787556            2 
 3886000   0.61760977   -8.3579401    682.01677   0.01462551  0.013782837            4 
 3887000   0.62480173    -8.343181    682.26699  0.014627112  0.013778126            3 
 3888000   0.62762364   -8.3774689    680.58429  0.014587283  0.013773404            1 
 3889000   0.63714975   -8.3579794    682.12674  0.014616584   0.01376868            2 
 3890000   0.63765226   -8.3655196    681.34034   0.01459598  0.013763966            1 
 3891000   0.63167895   -8.3669884     682.0055  0.014606474  0.013759246            3 
 3892000   0.64915121   -8.3545729    682.05792  0.014603844  0.013754531            2 
 3893000   0.63457434   -8.3771348    681.93312  0.014597421  0.013749821            2 
 3894000   0.62561856    -8.361441    683.65792  0.014630584  0.013745115            2 
 3895000   0.62660857   -8.3511788    682.49649  0.014601979  0.013740399            2 
 3896000   0.62955819   -8.3889007    682.68966  0.014602363  0.013735696            1 
 3897000    0.6245223   -8.3625144    682.83987  0.014601828  0.013730982            1 
 3898000   0.62640398   -8.3799233    681.76855  0.014575178  0.013726268            1 
 3899000    0.6352286   -8.3793903    682.85257  0.014594609  0.013721558            3 
 3900000   0.63585693   -8.3577054    682.03752  0.014573451  0.013716847            2 
 3901000   0.63634011   -8.3765373    682.20969  0.014573393  0.013712147            3 
 3902000   0.63566917   -8.3758668    683.07092  0.014588051  0.013707447            1 
 3903000   0.62159188   -8.3649327    681.99155  0.014561268  0.013702745            1 
 3904000   0.62252877   -8.3472225    682.17191  0.014561388  0.013698048            1 
 3905000   0.63133257   -8.3647548    682.81165  0.014571311  0.013693354            4 
 3906000   0.63295948   -8.3622654    681.39817  0.014537425  0.013688664            2 
 3907000   0.62197168   -8.3922304    682.00812  0.014546714   0.01368397            2 
 3908000   0.61552685   -8.3795638     681.8397    0.0145394  0.013679265            2 
 3909000   0.62461455   -8.3695135    682.56011  0.014551038  0.013674564            1 
 3910000   0.62304544   -8.3781238    680.76454  0.014509048  0.013669879            1 
 3911000   0.62891614   -8.3795746    681.15104  0.014513574  0.013665192            4 
 3912000   0.63344976   -8.3701708    682.28997  0.014534125  0.013660514            2 
 3913000   0.61794529   -8.3805417    682.68656  0.014538857  0.013655827            3 
 3914000   0.62508486    -8.375488    682.19542  0.014524685  0.013651151            2 
 3915000   0.62920049   -8.3761762    682.30304  0.014523266   0.01364647            2 
 3916000   0.62833572   -8.3696879    682.73682  0.014528788  0.013641789            2 
 3917000   0.61452823   -8.3699974    681.08913  0.014490025  0.013637101            3 
 3918000   0.61222665   -8.3996232    681.47537  0.014494542  0.013632419            3 
 3919000   0.62342431   -8.3564466    681.70982  0.014495828  0.013627738            3 
 3920000   0.61623157   -8.3614268    683.28358  0.014525586  0.013623052            3 
 3921000   0.62523359   -8.3937838    681.07841  0.014475015   0.01361838            2 
 3922000   0.61189641   -8.3609861    680.34625  0.014455768  0.013613703            3 
 3923000    0.6198804   -8.3750427    682.50258  0.014497888  0.013609029            3 
 3924000   0.62346658   -8.3759606    680.60246  0.014453841  0.013604356            2 
 3925000   0.63925388   -8.3848062    681.48122  0.014468816  0.013599683            1 
 3926000   0.61333671   -8.3631506    682.78183  0.014492737  0.013595015            2 
 3927000   0.61135833   -8.3693391    682.06445  0.014473823  0.013590357            1 
 3928000   0.63982362   -8.3545862    683.08853  0.014491865  0.013585709            3 
 3929000    0.6238882   -8.3691717    682.28717  0.014471179  0.013581058            3 
 3930000   0.62723907   -8.3859151    680.66299  0.014433058  0.013576402            3 
 3931000   0.62517676   -8.3817646    682.26595  0.014463367  0.013571753            2 
 3932000    0.6142565   -8.3575364    682.07766  0.014455698  0.013567097            4 
 3933000   0.61795872   -8.3797168    681.22066  0.014433864  0.013562444            4 
 3934000   0.61204859   -8.3608579    682.53538  0.014458045  0.013557803            2 
 3935000   0.62652378    -8.378046    681.04839   0.01442288  0.013553159            2 
 3936000   0.63279575   -8.3598858     680.3708   0.01440487  0.013548515            2 
 3937000    0.6325966   -8.3814315    681.58285  0.014426866  0.013543875            3 
 3938000    0.6205954   -8.3769393      681.297  0.014417153  0.013539242            1 
 3939000   0.62149215   -8.3803246    681.53579  0.014418545  0.013534602            1 
 3940000   0.61867412   -8.3583836    682.02568  0.014425247   0.01352996            3 
 3941000   0.61789919   -8.3997174    681.31728  0.014406607  0.013525316            1 
 3942000   0.62463228   -8.3725084    682.45572  0.014427019  0.013520678            2 
 3943000   0.61916294   -8.3673968    681.07985  0.014394282  0.013516049            2 
 3944000   0.62959576    -8.369118    682.55486  0.014421798  0.013511417            2 
 3945000   0.62136848   -8.3680791    681.02459  0.014385817  0.013506784            1 
 3946000   0.62103203   -8.3653396     683.4153   0.01443266  0.013502154            2 
 3947000   0.61977544   -8.3676325    681.94849  0.014398034  0.013497521            3 
 3948000   0.60910266   -8.3945779     682.1745  0.014399158  0.013492892            2 
 3949000   0.62608044   -8.3899676    681.22498  0.014375474  0.013488268            3 
 3950000   0.61029504   -8.3676382    681.79983  0.014383963  0.013483651            3 
 3951000   0.62574241    -8.383226    682.38204  0.014392602  0.013479036            4 
 3952000   0.62615482   -8.3740753    680.74553  0.014354452  0.013474416            4 
 3953000   0.62539243   -8.3711242    681.09871  0.014358266  0.013469799            2 
 3954000    0.6206358   -8.3612109    681.65591  0.014366378  0.013465184            2 
 3955000   0.62472215   -8.3795662    681.26645   0.01435454  0.013460569            3 
 3956000   0.62080874   -8.3926358    682.02235  0.014366834  0.013455956            3 
 3957000   0.61801314   -8.3754401    681.06757  0.014343096  0.013451348            2 
 3958000   0.62387793   -8.3753015    682.67805   0.01437338  0.013446745            4 
 3959000   0.62204302    -8.374675    681.86316  0.014352597   0.01344214            2 
 3960000   0.62095797   -8.3971014    680.80842  0.014326776   0.01343753            2 
 3961000   0.62235619   -8.3929879    681.27922  0.014333065  0.013432919            2 
 3962000   0.62065779   -8.3634637     681.5027  0.014334147  0.013428306            4 
 3963000    0.6237951   -8.3856329    681.15213  0.014323159   0.01342369            4 
 3964000    0.6022424   -8.3972451    681.90126  0.014335294  0.013419075            3 
 3965000   0.61778321   -8.3944957    682.04322  0.014334662  0.013414465            2 
 3966000   0.61643854   -8.3811757    681.59089  0.014321543  0.013409854            3 
 3967000   0.61649295   -8.3713666    681.02124  0.014305967  0.013405242            2 
 3968000    0.6203648   -8.3898496    680.31274  0.014287482  0.013400642            2 
 3969000   0.61376371   -8.3946073    679.73155   0.01427168  0.013396041            3 
 3970000   0.62368532   -8.3824165    681.79197  0.014311334   0.01339144            3 
 3971000   0.62191878   -8.3801818    681.95256  0.014311101  0.013386847            3 
 3972000    0.6042607    -8.374289    681.13466  0.014290338  0.013382254            2 
 3973000   0.61978101    -8.408974    681.69077  0.014298405  0.013377669            1 
 3974000   0.61109158   -8.3925299    681.80509  0.014297205  0.013373075            2 
 3975000   0.62192506   -8.3768527     681.0439   0.01427765  0.013368491            1 
 3976000   0.62233915   -8.4024634    679.80302  0.014248051  0.013363914            2 
 3977000   0.60342477   -8.3883902    680.39774   0.01425693  0.013359322            2 
 3978000    0.6138758   -8.3838176    681.90516  0.014284925  0.013354728            5 
 3979000    0.6136617   -8.4065993    682.43221  0.014292373  0.013350145            1 
 3980000   0.60434651   -8.3929071    681.93972   0.01427847  0.013345561            2 
 3981000    0.5990748   -8.3854476    680.67185  0.014248343  0.013340974            1 
 3982000   0.60740498    -8.386543    681.46013  0.014261262  0.013336391            1 
 3983000    0.6212287   -8.3837038    681.81012  0.014265004  0.013331811            1 
 3984000   0.62227176   -8.3833084    680.99258  0.014244323  0.013327236            2 
 3985000   0.61285111   -8.4000771     681.3882  0.014249021   0.01332266            3 
 3986000   0.62322733   -8.4076001    681.46871   0.01424713  0.013318079            3 
 3987000   0.60559906   -8.3833306    681.12796  0.014236434  0.013313495            3 
 3988000   0.62095821   -8.3862536    682.27806  0.014256897  0.013308917            4 
 3989000   0.61493237   -8.3826761    681.71599  0.014241581  0.013304345            1 
 3990000   0.60847811    -8.416723    680.02832  0.014202763   0.01329976            2 
 3991000   0.60836105   -8.3967225    681.75901  0.014235342  0.013295181            2 
 3992000   0.61003033   -8.3923209    681.60965  0.014228658  0.013290607            3 
 3993000   0.61178702   -8.3884581    680.83891   0.01420901  0.013286032            1 
 3994000   0.61988486   -8.3870157    681.77375  0.014224957  0.013281464            1 
 3995000   0.59914249   -8.3845841    680.63901  0.014197727  0.013276892            1 
 3996000   0.60690145   -8.3959526    680.44603  0.014190149  0.013272325            2 
 3997000   0.60895269   -8.4090836    680.07487   0.01417886  0.013267754            3 
 3998000   0.61238927   -8.4048939    681.44349  0.014203841  0.013263181            2 
 3999000   0.61068193   -8.3948532    679.66226  0.014163171  0.013258616            1 
 4000000   0.61014604   -8.3855812    680.30765  0.014173076  0.013254055            1 
 4001000   0.59659847   -8.4116443     680.2745  0.014168843  0.013249486            2 
 4002000   0.61488881   -8.4046304    680.72935  0.014174774  0.013244918            1 
 4003000   0.61827139   -8.4068911    680.68063  0.014170219  0.013240351            4 
 4004000   0.61228676   -8.4154508    680.59084  0.014164811  0.013235796            4 
 4005000   0.59995664   -8.4213726    679.47905  0.014138141  0.013231235            4 
 4006000   0.60165989   -8.4037686    681.10652  0.014168466  0.013226675            2 
 4007000   0.62092739   -8.4221803    680.06522  0.014143275  0.013222121            4 
 4008000   0.61510892   -8.4100466    680.80502  0.014155128  0.013217566            2 
 4009000   0.61220914   -8.4161278    681.19193  0.014159639  0.013213014            3 
 4010000    0.6162368   -8.4074838    679.74886  0.014126119  0.013208458            2 
 4011000   0.60676048   -8.4204029    680.39579  0.014136038  0.013203901            2 
 4012000   0.60510569   -8.4141137    680.48224   0.01413431  0.013199349            3 
 4013000   0.60832829   -8.4026761    678.80065  0.014095869  0.013194794            2 
 4014000   0.61316557   -8.4229897    681.32413  0.014144746  0.013190242            2 
 4015000   0.60148282   -8.3907378    680.18779  0.014117638  0.013185694            7 
 4016000   0.62026727    -8.412001    679.73311  0.014104688  0.013181148            2 
 4017000   0.60438285   -8.4082982    680.38507  0.014114702  0.013176607            3 
 4018000   0.62093871   -8.3857835    680.39541  0.014111403  0.013172063            3 
 4019000   0.61176234   -8.3974845    680.04052  0.014100533  0.013167529            1 
 4020000   0.62310145   -8.3980992    680.09579  0.014098171  0.013162999            2 
 4021000   0.60069494   -8.3902564    681.46537  0.014123049  0.013158471            2 
 4022000   0.60892429   -8.4013768    680.77397  0.014105212  0.013153946            2 
 4023000   0.60661545    -8.418743    679.89647   0.01408353  0.013149419            2 
 4024000   0.61864313   -8.3887254    680.66467  0.014095938  0.013144891            2 
 4025000   0.61665558   -8.4098115    680.46843  0.014088373  0.013140373            2 
 4026000   0.61161104   -8.3978319    680.74483  0.014090595  0.013135858            3 
 4027000   0.60424939   -8.4018745    679.25719  0.014056311  0.013131337            2 
 4028000   0.58944917   -8.4065458    681.04547  0.014089819  0.013126824            1 
 4029000   0.60583037   -8.4202068    679.21287  0.014048417  0.013122306            4 
 4030000   0.61632414   -8.3970173    680.81161   0.01407799  0.013117781            3 
 4031000   0.61120248   -8.4179103    678.90204  0.014035021  0.013113253            3 
 4032000   0.60266538   -8.4184119    679.34853  0.014040768  0.013108729            3 
 4033000   0.58696741   -8.4210448    680.13215  0.014053479  0.013104205            3 
 4034000   0.61033184    -8.423148    680.56419   0.01405892  0.013099685            6 
 4035000   0.60998643   -8.3939295    680.86703   0.01406169  0.013095167            2 
 4036000    0.6152433   -8.3895274    680.34277  0.014047381  0.013090654            2 
 4037000    0.6070735   -8.4187206    679.87848  0.014034318  0.013086138            5 
 4038000    0.5940485   -8.4253643    678.80882  0.014008767  0.013081625            2 
 4039000   0.60096043   -8.4129524    680.90941  0.014048639  0.013077116            2 
 4040000   0.61593977   -8.4037419    679.68486  0.014019902  0.013072611            2 
 4041000    0.6081508   -8.4181234     680.6461  0.014036256  0.013068111            4 
 4042000   0.60819874   -8.4221253    680.24968   0.01402461  0.013063601            3 
 4043000   0.61348429   -8.4372221    681.02458  0.014037113  0.013059103            2 
 4044000   0.59841189   -8.4079575    680.11003  0.014014796  0.013054601            7 
 4045000   0.60729808   -8.3968631    680.33451  0.014015956  0.013050104            2 
 4046000   0.61143315   -8.4080573    680.13016  0.014008283  0.013045606            3 
 4047000    0.6102265   -8.4263831    679.97922  0.014001714  0.013041111            2 
 4048000   0.60499728   -8.4137268    680.25868  0.014004008  0.013036614            3 
 4049000   0.61294828   -8.4153865    680.64229  0.014008444  0.013032121            2 
 4050000   0.60194066    -8.440807    681.41183   0.01402082  0.013027633            2 
 4051000   0.59952044   -8.4160392    680.32991  0.013995102  0.013023141            1 
 4052000   0.60557365   -8.4183201    680.87546  0.014002868  0.013018661            2 
 4053000   0.59328493   -8.4034172    680.62149  0.013994191  0.013014183            1 
 4054000   0.60809238   -8.4209197    679.38726  0.013965369  0.013009698            2 
 4055000   0.60495579   -8.4235981    679.37921  0.013961759  0.013005213            2 
 4056000   0.60607032   -8.4198564    680.61303  0.013983667  0.013000738            2 
 4057000   0.61216911   -8.4143014    680.29463   0.01397368  0.012996261            6 
 4058000   0.60890353   -8.4262403    681.03321  0.013985404  0.012991789            4 
 4059000   0.58354641    -8.440882    679.10833  0.013942439  0.012987319            2 
 4060000   0.58296062   -8.4330198    680.53254  0.013968238  0.012982846            5 
 4061000   0.60551566   -8.4241693    680.02063  0.013954293  0.012978377            4 
 4062000    0.5964044   -8.4338901     679.6756   0.01394378  0.012973904            4 
 4063000   0.60142316   -8.4150231    680.42937  0.013955808  0.012969438            2 
 4064000    0.6110406   -8.4181122    678.93174  0.013921665  0.012964974            2 
 4065000   0.60426109   -8.4104398    679.41077   0.01392806  0.012960513            2 
 4066000   0.59658563   -8.4257716    680.33749  0.013943628  0.012956051            2 
 4067000    0.5860758    -8.411718    680.03227  0.013933945  0.012951583            2 
 4068000   0.59416572   -8.4141011    679.10305  0.013911485  0.012947128            2 
 4069000   0.59804988   -8.4001697    681.23779  0.013951786  0.012942675            2 
 4070000   0.59170521   -8.4231863    679.86851  0.013920322  0.012938217            2 
 4071000   0.60966411   -8.4126245    680.32067  0.013926158  0.012933763            3 
 4072000   0.61486369   -8.3995392    681.41482   0.01394513  0.012929314            3 
 4073000   0.60165149    -8.438824    680.17027  0.013916243  0.012924863            4 
 4074000   0.60917663   -8.4109317    679.10799  0.013891098  0.012920412            3 
 4075000   0.59160109   -8.4169167     679.5927  0.013897601  0.012915963            5 
 4076000   0.62825672   -8.4350613    681.09926  0.013924993  0.012911515            1 
 4077000    0.6007346   -8.4151298    680.02492  0.013899618  0.012907066            4 
 4078000   0.59867598   -8.4320175    679.19384  0.013879227   0.01290261            1 
 4079000   0.59359827   -8.4288471    679.03355  0.013872549  0.012898157            3 
 4080000   0.59140048    -8.437402    679.20736  0.013872699  0.012893711            2 
 4081000   0.59825311   -8.4207546    679.76728  0.013880733  0.012889265            2 
 4082000   0.60097359   -8.4248361    680.97467  0.013901982  0.012884825            1 
 4083000   0.60599285   -8.4285583    679.71361  0.013872839  0.012880387            5 
 4084000   0.59642774   -8.4390675    678.82711  0.013851353  0.012875949            4 
 4085000   0.59426278   -8.4265054    679.63498  0.013864443  0.012871506            2 
 4086000   0.60556655   -8.4243646    679.36032  0.013855448  0.012867078            4 
 4087000   0.59619088   -8.4469461    679.82367  0.013861505  0.012862648            5 
 4088000    0.5935889   -8.4105539    679.88642  0.013859394  0.012858214            1 
 4089000   0.60361565   -8.4147338     679.9222  0.013856733  0.012853789            1 
 4090000   0.60258738   -8.4270815    679.67554   0.01384832  0.012849368            1 
 4091000   0.59663463   -8.4163948    679.39339  0.013839187  0.012844941            4 
 4092000   0.60017961   -8.4295359    679.23467  0.013832573  0.012840513            3 
 4093000   0.58296028   -8.4394096    679.70355   0.01383874  0.012836093            2 
 4094000   0.59272412   -8.4448279    677.87066  0.013798051  0.012831668            1 
 4095000   0.60775258   -8.4368486    679.10512  0.013819803  0.012827249            5 
 4096000   0.60133361   -8.4161324      679.851  0.013831604   0.01282283            3 
 4097000   0.59148567   -8.4365242    677.97466  0.013790063  0.012818417            5 
 4098000   0.58401203   -8.4331518    679.35042  0.013814674  0.012814005            4 
 4099000   0.58936354   -8.4252069    679.86773  0.013821821  0.012809593            2 
 4100000   0.60791925    -8.415338     679.5691   0.01381238  0.012805192            3 
 4101000   0.58894224   -8.4266958    680.34022  0.013824681  0.012800792            2 
 4102000   0.58545982   -8.4322014    679.93995   0.01381318  0.012796387            2 
 4103000   0.59219119    -8.418515    679.06258  0.013791993  0.012791985            6 
 4104000   0.58139206   -8.4197348    680.09172   0.01380953   0.01278758            3 
 4105000    0.5984668   -8.4472486    679.98304  0.013803959  0.012783181            3 
 4106000   0.59620988   -8.4585086    681.26476  0.013826611   0.01277878            3 
 4107000    0.5936884   -8.4538204    679.24796  0.013782322  0.012774376            3 
 4108000   0.58503592   -8.4405189    679.81146  0.013790398  0.012769977            3 
 4109000   0.59089578   -8.4401813    679.56688  0.013782082   0.01276558            2 
 4110000   0.58880237   -8.4375827    681.27737   0.01381341  0.012761194            2 
 4111000   0.58926701   -8.4361448    679.72935   0.01377867  0.012756798            3 
 4112000    0.5964742   -8.4428849    679.14921  0.013763562  0.012752401            7 
 4113000   0.60625079   -8.4406925    680.31382  0.013783812   0.01274801            4 
 4114000   0.60115621   -8.4677795    680.37714  0.013781744  0.012743619            2 
 4115000   0.60565538    -8.464232    678.45134  0.013739395  0.012739232            2 
 4116000   0.60788097   -8.4405337    679.96373  0.013766677   0.01273485            3 
 4117000    0.5976727   -8.4480257    678.89376  0.013741676  0.012730465            2 
 4118000    0.5959086   -8.4425973     680.4808  0.013770455  0.012726081            2 
 4119000   0.58146539   -8.4544684    679.17748  0.013740744    0.0127217            6 
 4120000   0.59208479   -8.4477431    679.42254  0.013742365   0.01271732            2 
 4121000   0.58238367   -8.4675883    679.21169  0.013734767  0.012712942            2 
 4122000   0.57761904   -8.4505114    678.81269  0.013723368  0.012708558            4 
 4123000   0.59819006   -8.4540974    680.26525  0.013749399  0.012704182            2 
 4124000   0.59267996    -8.450999    680.31852  0.013747141  0.012699807            3 
 4125000   0.58437163   -8.4551752     679.1127  0.013719449  0.012695433            3 
 4126000   0.59739759   -8.4598125    679.36723  0.013721264  0.012691064            8 
 4127000   0.58692445   -8.4402168    679.88823   0.01372846  0.012686695            4 
 4128000   0.58579765   -8.4465608    678.64537  0.013700044   0.01268233            2 
 4129000   0.58250371   -8.4579635    679.47876  0.013713546  0.012677964            3 
 4130000   0.60649617   -8.4615327    680.00742  0.013720892    0.0126736            4 
 4131000   0.59696802   -8.4569241    680.38722  0.013725232  0.012669233            4 
 4132000   0.58299225   -8.4357639    679.73347  0.013708726  0.012664876            2 
 4133000   0.58709916   -8.4277926    680.33245  0.013717486  0.012660517            4 
 4134000   0.58588787   -8.4456438    677.94636  0.013666069  0.012656161            5 
 4135000    0.5920658   -8.4495533    679.09826  0.013685979  0.012651801            2 
 4136000    0.5904329   -8.4528882    680.46329  0.013710173   0.01264744            2 
 4137000   0.58200812   -8.4475266    680.05585  0.013698651  0.012643085            6 
 4138000   0.57461736   -8.4528197    679.41473   0.01368243  0.012638727            3 
 4139000   0.59017933   -8.4618568    679.40793  0.013678987  0.012634379            2 
 4140000   0.58988548   -8.4707435    677.70542  0.013641413  0.012630023            4 
 4141000   0.59796526   -8.4633841    678.93074  0.013662777  0.012625679            4 
 4142000   0.60903212   -8.4385062    679.48118  0.013670553  0.012621332            3 
 4143000   0.58984949   -8.4377987    679.08783  0.013659342  0.012616989            3 
 4144000   0.58766386   -8.4457725    679.89945  0.013672367   0.01261265            6 
 4145000   0.57753644   -8.4401106    679.35986   0.01365822  0.012608308            4 
 4146000   0.57752608   -8.4595191    678.40764  0.013635786  0.012603964            5 
 4147000   0.58830123   -8.4656356    679.44675  0.013653379  0.012599629            3 
 4148000   0.57542866    -8.442375    679.03262  0.013641767  0.012595293            5 
 4149000   0.57832539   -8.4542766    679.42143  0.013646289  0.012590957            7 
 4150000    0.5867064   -8.4548515    677.92353  0.013612922  0.012586628            3 
 4151000   0.58648169   -8.4429579     679.4424  0.013640135  0.012582301            1 
 4152000   0.58238898    -8.452602    678.61609  0.013620265  0.012577973            2 
 4153000   0.58709706   -8.4713807    678.12395   0.01360711  0.012573648            2 
 4154000   0.58194981   -8.4477502    680.24842  0.013646454  0.012569324            3 
 4155000   0.58961743   -8.4376496    679.67123  0.013631593  0.012565002            3 
 4156000   0.58040148   -8.4538641    679.46464  0.013624171  0.012560683            2 
 4157000   0.58264083   -8.4455748    679.78151  0.013627245  0.012556359            5 
 4158000    0.5927819   -8.4449862    679.03727  0.013609052  0.012552043            4 
 4159000   0.59390473   -8.4327693    679.58275   0.01361671  0.012547733            3 
 4160000   0.59099518    -8.457271    678.64818  0.013594715  0.012543425            4 
 4161000   0.59242864    -8.455784    680.41296  0.013626792  0.012539116            2 
 4162000   0.58696814    -8.448026    679.00671  0.013595361  0.012534802            3 
 4163000   0.58590398   -8.4472781    679.05072  0.013592976  0.012530494            7 
 4164000   0.60044968   -8.4503098    677.44459  0.013557569  0.012526191            3 
 4165000   0.58125025   -8.4425807    679.68552   0.01359915  0.012521887            2 
 4166000   0.58288777   -8.4587974    678.05648    0.0135633  0.012517578            2 
 4167000      0.59042    -8.459506    679.00773  0.013579068  0.012513274            3 
 4168000   0.59434124   -8.4639289    678.44987  0.013564657  0.012508976            3 
 4169000   0.58997002   -8.4609695    678.91343  0.013570669   0.01250468            3 
 4170000   0.58135144   -8.4589436    679.10063  0.013571156  0.012500385            3 
 4171000   0.58055237   -8.4643246    679.07337  0.013567357  0.012496096            2 
 4172000   0.57587679   -8.4709677    679.80193  0.013578658  0.012491807            4 
 4173000   0.57789537   -8.4518436    678.94089  0.013558209  0.012487517            4 
 4174000   0.58004443   -8.4526575    678.24593  0.013541086  0.012483227            4 
 4175000   0.58339459   -8.4609327    678.39602  0.013540839  0.012478939            3 
 4176000   0.58236311   -8.4605195    679.25642  0.013554766  0.012474653            3 
 4177000   0.58575869   -8.4503475    679.52459  0.013556871  0.012470373            4 
 4178000   0.58275739   -8.4347994    679.44329  0.013552004  0.012466089            2 
 4179000   0.60670948   -8.4582038     679.0757  0.013541431  0.012461812            2 
 4180000   0.58970652   -8.4438078      679.304  0.013542743  0.012457533            1 
 4181000   0.58685917   -8.4521819    678.63013  0.013526073  0.012453258            1 
 4182000    0.5778957   -8.4618806    679.32668  0.013536719  0.012448982            3 
 4183000   0.58456707   -8.4626581    678.61716  0.013519347  0.012444707            6 
 4184000   0.57972869    -8.454663    678.90497  0.013521848   0.01244043            2 
 4185000   0.57564334   -8.4711755    677.66817   0.01349399  0.012436152            1 
 4186000    0.5889005    -8.468277    678.63362  0.013509986  0.012431878            4 
 4187000   0.58563024   -8.4598389    679.59376  0.013525869  0.012427608            6 
 4188000   0.57476405   -8.4560228    678.07064  0.013492332  0.012423344            6 
 4189000   0.58811169    -8.465282    679.71179  0.013521759  0.012419079            2 
 4190000   0.58872312   -8.4685939    679.99705  0.013524206  0.012414821            7 
 4191000   0.59131683   -8.4723185    679.70085  0.013515089  0.012410561            4 
 4192000   0.58213592   -8.4379179     679.5786  0.013509435  0.012406295            3 
 4193000   0.58328483   -8.4518956    679.37181  0.013502103  0.012402034            1 
 4194000   0.57577004   -8.4617182       679.47  0.013500835  0.012397777            4 
 4195000   0.57617268   -8.4840748    678.05413   0.01346949  0.012393517            4 
 4196000   0.58838302   -8.4488002    678.29305  0.013471025  0.012389255            4 
 4197000   0.58151773   -8.4716437    677.79507  0.013457928     0.012385            6 
 4198000    0.5717772   -8.4554673    678.03147  0.013459415  0.012380746            7 
 4199000   0.58933463    -8.493673    678.04134  0.013456405  0.012376496            4 
 4200000   0.57209729   -8.4742385    677.83773  0.013449161  0.012372241            3 
 4201000   0.58609442   -8.4645209    677.82487  0.013445705   0.01236799            4 
 4202000   0.58554699   -8.4945182    678.87297  0.013463291  0.012363741            3 
 4203000   0.58745812   -8.4690446     679.0172  0.013462947  0.012359497            4 
 4204000   0.58696355   -8.4590563    680.48023  0.013488745  0.012355256            5 
 4205000   0.57808834   -8.4869111    679.13442  0.013458867  0.012351011            1 
 4206000   0.57706757   -8.4643327     678.1966  0.013437086  0.012346765            5 
 4207000   0.59274796   -8.4699532     678.5606  0.013441102  0.012342525            4 
 4208000   0.58042296   -8.4648052    677.90803  0.013424985   0.01233828            2 
 4209000    0.5835994    -8.464806    679.12043  0.013445799  0.012334043            2 
 4210000   0.58106407   -8.4580962    679.03802  0.013440974  0.012329809            2 
 4211000   0.57586559   -8.4541381    678.71409  0.013431372  0.012325573            6 
 4212000   0.57592398   -8.4781292    678.21231  0.013418256  0.012321343            1 
 4213000   0.57683046   -8.4664109    678.42728  0.013419323  0.012317112            3 
 4214000   0.57559028    -8.484449    677.21923  0.013392249  0.012312881            2 
 4215000   0.58120878   -8.4685384    678.68092   0.01341797  0.012308655            3 
 4216000   0.57153911   -8.4753972    677.33307  0.013388146  0.012304426            4 
 4217000   0.58620827   -8.4708535    678.31743  0.013404423  0.012300201            3 
 4218000   0.57668824   -8.4887354    678.92831  0.013413314  0.012295977            2 
 4219000   0.57152005   -8.4711969    679.97189  0.013430748  0.012291753            5 
 4220000   0.56760667   -8.4844249     678.3724  0.013395979  0.012287534            2 
 4221000   0.56817479   -8.4884892    679.31608  0.013411436  0.012283313            2 
 4222000   0.57666637   -8.4892089    677.39551  0.013370352  0.012279096            2 
 4223000   0.58137477   -8.4575252    679.43789  0.013407488  0.012274881            4 
 4224000   0.58132636   -8.4888934    678.76768  0.013391092  0.012270666            2 
 4225000   0.57482683   -8.4798249    678.82809  0.013389114  0.012266457            3 
 4226000   0.57649096    -8.475599    677.78221  0.013365322  0.012262246            4 
 4227000   0.57857747   -8.4810783    678.64703   0.01337921  0.012258037            3 
 4228000   0.57374562     -8.48257    678.72408  0.013377564  0.012253832            2 
 4229000   0.57798164   -8.4842353    676.88608  0.013338182  0.012249619            2 
 4230000   0.56880187   -8.4776789     678.0158  0.013357285  0.012245415            2 
 4231000   0.56273553   -8.4952996    678.47744  0.013363221  0.012241216            2 
 4232000   0.56832178    -8.482022    679.42031  0.013378629  0.012237015            1 
 4233000   0.56575662   -8.4819535    678.42462  0.013355867  0.012232818            1 
 4234000   0.57191743     -8.48271     677.9318  0.013343013  0.012228623            2 
 4235000   0.57205338   -8.4599766    678.11337  0.013343435  0.012224429            2 
 4236000   0.57536144   -8.4940244    677.94921  0.013337056  0.012220237            2 
 4237000   0.58014924    -8.475807    678.47636  0.013344276  0.012216042            5 
 4238000   0.56598129   -8.4649687    678.48481  0.013341293  0.012211847            2 
 4239000   0.57601744    -8.475757    678.56021  0.013339628  0.012207659            2 
 4240000   0.55793431    -8.499525     678.1192  0.013327815   0.01220347            2 
 4241000   0.58546545   -8.4870163    677.90561  0.013320475  0.012199284            4 
 4242000   0.56558126   -8.4766357    678.57374   0.01333046    0.0121951            2 
 4243000   0.57856208   -8.4743542    677.96905  0.013315442  0.012190918            2 
 4244000    0.5740927   -8.4649089    678.84113  0.013329428  0.012186744            2 
 4245000   0.56887364   -8.4869306    678.67525  0.013323032  0.012182575            2 
 4246000   0.57225979   -8.4877647    678.99381  0.013326146  0.012178404            2 
 4247000   0.57109659   -8.4762805    678.97078  0.013322557  0.012174233            2 
 4248000   0.54937919   -8.4673979    680.87659  0.013356807  0.012170065            4 
 4249000   0.57021011   -8.4827659    678.74934  0.013311943  0.012165895            3 
 4250000   0.56877029   -8.4802858    677.97817   0.01329369  0.012161726            3 
 4251000   0.56556381   -8.4887198    678.05186  0.013292007  0.012157561            2 
 4252000   0.56858496   -8.4851788    677.64058   0.01328082  0.012153396            3 
 4253000   0.56658261   -8.4983302    677.82893  0.013281388  0.012149229            2 
 4254000   0.56611847   -8.4770207    678.13672  0.013284296  0.012145072            2 
 4255000   0.56274691   -8.4842029    679.85582  0.013314842  0.012140917            2 
 4256000   0.57358245   -8.4736561    679.04116  0.013295762  0.012136758            3 
 4257000   0.56054365   -8.5181065    678.36003  0.013279305  0.012132604            2 
 4258000   0.57989329   -8.4703983    679.47795  0.013298065  0.012128452            1 
 4259000   0.57481962   -8.4655031    677.46633  0.013255583  0.012124302            6 
 4260000   0.57677161    -8.483927    678.38255  0.013270394   0.01212015            4 
 4261000   0.57487001   -8.5043032    679.47487  0.013288642  0.012116003            3 
 4262000   0.57391447   -8.4731174    679.21468  0.013280437  0.012111861            3 
 4263000   0.57131936   -8.4895265    678.16777  0.013256857   0.01210772            3 
 4264000   0.57677666   -8.4738002     679.3721  0.013277285  0.012103578            4 
 4265000   0.57968471   -8.4827601    678.84789  0.013263929  0.012099438            4 
 4266000    0.5645257   -8.4643139    678.95273  0.013262868  0.012095295            3 
 4267000   0.56604985   -8.4851705    678.62571  0.013253373  0.012091154            2 
 4268000   0.57163008   -8.4774565    678.50056  0.013247824  0.012087022            3 
 4269000   0.57250595   -8.4835315    677.57275  0.013226609  0.012082882            2 
 4270000   0.56349722   -8.4734421    678.19254  0.013235608  0.012078749            5 
 4271000   0.56534603   -8.5019297    678.38393  0.013236243  0.012074621            2 
 4272000   0.57298565   -8.4963326    677.27181  0.013211451   0.01207048            3 
 4273000   0.57232506    -8.498124    677.58081  0.013214385  0.012066346            4 
 4274000   0.58041362   -8.5012911     678.0379  0.013220206  0.012062219            2 
 4275000    0.5602841    -8.488179    678.03463  0.013217049  0.012058089            5 
 4276000   0.58442314    -8.505173    677.02645   0.01319431  0.012053958            1 
 4277000   0.55922529    -8.473307    678.88547  0.013227447  0.012049825            3 
 4278000   0.57419422   -8.4919616    678.33874  0.013213705  0.012045693            2 
 4279000   0.56762027   -8.5096934    676.90179  0.013182632  0.012041564            3 
 4280000   0.56783843   -8.5094907    678.92859  0.013219015  0.012037436            4 
 4281000   0.56710227   -8.5058419    677.59534  0.013189974  0.012033306            3 
 4282000   0.55636949   -8.4730898    677.81234  0.013191117  0.012029182            2 
 4283000   0.55219126   -8.5208041    676.68073  0.013166019  0.012025059            3 
 4284000   0.57709025   -8.5051888    677.94881  0.013187613  0.012020937            3 
 4285000    0.5644261   -8.5097769    678.10176   0.01318751  0.012016812            3 
 4286000   0.56314331   -8.5054771    677.26277   0.01316812   0.01201269            4 
 4287000   0.56039467   -8.4869929    677.39122  0.013167546  0.012008575            2 
 4288000   0.56805265   -8.5032298    677.60024  0.013168537  0.012004454            2 
 4289000   0.56825082   -8.4939715    678.57896  0.013184483  0.012000336            2 
 4290000   0.56740174   -8.4951901    677.99917  0.013170147  0.011996225            4 
 4291000   0.55007315    -8.501515    677.95699  0.013166259  0.011992109            3 
 4292000   0.55949874   -8.4958701    677.45426   0.01315343  0.011988005            2 
 4293000   0.55225663   -8.4914737     677.0564  0.013142643  0.011983898            3 
 4294000   0.57026492   -8.5107437    677.31031   0.01314451  0.011979794            3 
 4295000   0.57227635   -8.4934047    677.28254  0.013140911  0.011975688            5 
 4296000   0.55373413   -8.5167182     678.8216  0.013167706  0.011971586            4 
 4297000   0.56095268    -8.499837    677.65497  0.013142017  0.011967483            2 
 4298000   0.57223054   -8.5130953    677.57935  0.013137493  0.011963381            2 
 4299000   0.57038712   -8.4867996    677.07507  0.013124662  0.011959283            4 
 4300000   0.57286814   -8.5052193    677.57746  0.013131346   0.01195519            3 
 4301000   0.56072113   -8.4933287    677.81805  0.013132955  0.011951096            2 
 4302000   0.55692453   -8.4968034    677.27402  0.013119363   0.01194701            2 
 4303000   0.55116555   -8.5271434    678.38839  0.013137896  0.011942923            4 
 4304000   0.57916509    -8.486585    679.08866  0.013148402  0.011938838            3 
 4305000   0.56236424   -8.4922436    677.96814  0.013123657  0.011934755            3 
 4306000   0.55171636   -8.4943307    678.85398  0.013137753  0.011930671            2 
 4307000   0.54984585     -8.51122    677.91423   0.01311652  0.011926587            7 
 4308000   0.56733996    -8.513881    677.54204  0.013106276  0.011922502            2 
 4309000   0.55137666   -8.5042356    677.34641  0.013099451  0.011918415            2 
 4310000   0.57033979   -8.5045949    677.60821  0.013101474  0.011914334            2 
 4311000   0.55549721   -8.5193168    676.60518  0.013079046  0.011910252            5 
 4312000   0.56827869   -8.4975913    677.83058  0.013099694  0.011906179            4 
 4313000   0.55436193   -8.4983643    677.36985  0.013087755  0.011902107            3 
 4314000   0.57272801   -8.4951595    677.48021  0.013086853  0.011898035            3 
 4315000   0.57701936   -8.5129041    677.19392  0.013078291  0.011893967            4 
 4316000   0.56703529   -8.5036126    678.16983  0.013094104  0.011889898            2 
 4317000   0.55603586   -8.5118784    677.84528  0.013084806  0.011885829            2 
 4318000   0.54351165   -8.5154565    678.23188  0.013089236  0.011881762            1 
 4319000   0.56719249   -8.4980762    677.91438   0.01308008    0.0118777            2 
 4320000    0.5559856   -8.5010379    678.71819  0.013092558  0.011873639            3 
 4321000   0.56387914   -8.5021934    678.07849  0.013077191  0.011869575            1 
 4322000    0.5670098   -8.5137583    677.10659  0.013055426  0.011865513            8 
 4323000    0.5673835   -8.4987679    676.72041  0.013044961  0.011861452            3 
 4324000   0.57114095   -8.5052947    677.63705   0.01305961  0.011857392            1 
 4325000   0.56463683   -8.5129918    677.63588  0.013056568  0.011853337            2 
 4326000   0.56321193   -8.4986985    677.44988  0.013049967  0.011849285            3 
 4327000   0.55381757   -8.5193709    678.12017   0.01305986  0.011845235            2 
 4328000   0.55197002   -8.5042695    677.80688   0.01305081  0.011841187            3 
 4329000   0.54330988   -8.5089996    676.89051  0.013030155   0.01183714            5 
 4330000   0.55146261    -8.509065    677.42104  0.013037357  0.011833092            2 
 4331000   0.56443171   -8.5041899    677.51348  0.013036125  0.011829048            4 
 4332000   0.55735356   -8.5084051    676.55214  0.013014623  0.011825005            3 
 4333000    0.5514399   -8.5215028     677.4321  0.013028543  0.011820963            1 
 4334000   0.55840428   -8.5100431    679.25383  0.013060564  0.011816925            2 
 4335000   0.55003725   -8.5155086    677.16352  0.013017369  0.011812888            3 
 4336000    0.5523776   -8.5067127     676.9985  0.013011195  0.011808853            4 
 4337000   0.56564782   -8.5033874    678.24094  0.013032068  0.011804821            2 
 4338000   0.55874623   -8.5283879    677.31201  0.013011219  0.011800784            2 
 4339000   0.56165509   -8.5135165    678.11851  0.013023709  0.011796754            3 
 4340000   0.54981249   -8.5193105    676.24898  0.012984811  0.011792724            2 
 4341000   0.54713958   -8.4917259     677.7555  0.013010741  0.011788701            3 
 4342000   0.56036848   -8.4988407     676.7604  0.012988646  0.011784673            2 
 4343000   0.55903994    -8.499316    676.98148  0.012989897  0.011780651            2 
 4344000   0.55785329   -8.5296295    677.27649  0.012992566  0.011776625            5 
 4345000    0.5508396    -8.505757    677.62191  0.012996201  0.011772604            3 
 4346000   0.56325343   -8.5221849     677.2031   0.01298518  0.011768588            2 
 4347000   0.56372937   -8.5194044    676.44053  0.012967574   0.01176457            2 
 4348000   0.56851383   -8.5265463    678.49367  0.013003942  0.011760553            3 
 4349000   0.56833621   -8.4984463    677.27331  0.012977568   0.01175654            1 
 4350000   0.55414152   -8.5078395    677.74845  0.012983687  0.011752526            2 
 4351000   0.56720306   -8.5106614    677.05647  0.012967449  0.011748514            3 
 4352000   0.54657218    -8.519371    678.44403  0.012991039  0.011744505            1 
 4353000   0.55991914   -8.5076465    676.99601  0.012960334  0.011740492            4 
 4354000   0.55293649   -8.5137708    677.98613  0.012976308   0.01173648            2 
 4355000    0.5567711   -8.5037155    677.64119  0.012966728  0.011732468            3 
 4356000   0.56556055   -8.5149379    677.06088  0.012952649   0.01172846            3 
 4357000   0.55537403   -8.5292265    677.46588  0.012957422  0.011724455            3 
 4358000   0.55133479    -8.528173    675.91181  0.012924733   0.01172045            2 
 4359000   0.54735927   -8.5231209    676.19483  0.012927178  0.011716445            2 
 4360000   0.55084399   -8.5278399    678.16032   0.01296178  0.011712443            3 
 4361000   0.55068678     -8.51008    677.01625  0.012936946  0.011708443            5 
 4362000   0.55678626   -8.4967885    677.20408  0.012937568  0.011704448            4 
 4363000   0.55508647   -8.5142987    676.65612  0.012924137  0.011700457            3 
 4364000   0.55493947   -8.5098774    677.09919  0.012929636  0.011696465            2 
 4365000   0.54750371   -8.5185675    677.95216  0.012942958  0.011692479            3 
 4366000   0.56662533   -8.5176289    679.23895  0.012964555  0.011688493            2 
 4367000    0.5521258   -8.5093908     678.4932  0.012947355  0.011684513            2 
 4368000   0.54523177   -8.5164915    676.42955   0.01290502  0.011680531            2 
 4369000   0.54107741   -8.5163151    677.98861  0.012931804  0.011676551            4 
 4370000   0.55542691   -8.4904581    678.92013  0.012946608  0.011672573            3 
 4371000    0.5537193    -8.512857    678.13153  0.012928612  0.011668599            4 
 4372000    0.5564224   -8.4829526    678.28467  0.012928573  0.011664623            4 
 4373000   0.54843176   -8.5142797    677.06501  0.012902375  0.011660651            3 
 4374000    0.5532062   -8.5217137    678.65727   0.01292976  0.011656679            5 
 4375000   0.56201476   -8.5057912    677.10563   0.01289725  0.011652708            2 
 4376000   0.55118958   -8.5326365    676.74061  0.012887352  0.011648735            4 
 4377000   0.55449157   -8.5338637    677.93624  0.012907171  0.011644767            3 
 4378000   0.55743556   -8.5153307    676.98716  0.012886157  0.011640804            4 
 4379000   0.55233902   -8.5264719     676.7487  0.012878677  0.011636836            6 
 4380000   0.55202447   -8.5266333    677.08833  0.012882198   0.01163287            2 
 4381000   0.55347827   -8.5129938    675.26001   0.01284448  0.011628907            6 
 4382000   0.55068427   -8.5194826    677.61497  0.012886334  0.011624948            2 
 4383000   0.53682062   -8.5303093    677.74793  0.012885922  0.011620988            3 
 4384000   0.54676492   -8.5265192    676.43607  0.012858046  0.011617033            3 
 4385000   0.55790255   -8.5106392    676.60578  0.012858339  0.011613077            2 
 4386000    0.5418998   -8.5330807    677.80316  0.012878157   0.01160912            2 
 4387000   0.55098909   -8.5084835    677.49344  0.012869338  0.011605168            4 
 4388000   0.56376496    -8.516451    678.15806  0.012879027  0.011601213            3 
 4389000   0.53852361   -8.5224578    677.82884  0.012869842  0.011597262            3 
 4390000   0.54320518   -8.5264685    676.45257  0.012840785  0.011593314            3 
 4391000   0.54403404   -8.5207664    676.82361  0.012844903  0.011589362            2 
 4392000   0.54926367    -8.516224    677.09138  0.012847059  0.011585417            3 
 4393000   0.56143075   -8.5167081    677.79824  0.012857543  0.011581477            4 
 4394000   0.54775816   -8.5236186    676.89648  0.012837515  0.011577534            4 
 4395000   0.54506224   -8.5229979    676.32094  0.012823681  0.011573585            2 
 4396000   0.54633339   -8.5349572    676.56717  0.012825432  0.011569639            4 
 4397000   0.55007522   -8.5333269     677.0114  0.012830934    0.0115657            3 
 4398000   0.55411155   -8.5028085    677.36181  0.012834656  0.011561763            2 
 4399000   0.54743038   -8.5101439     678.0663  0.012845084  0.011557829            4 
 4400000   0.54729858   -8.5288079    676.46212  0.012811783  0.011553893            3 
 4401000   0.55393136   -8.5400591    677.44644   0.01282751  0.011549961            4 
 4402000   0.53343974   -8.5357388    677.68977  0.012829202  0.011546026            5 
 4403000   0.54743631   -8.5243069    676.67954  0.012807168  0.011542096            4 
 4404000   0.53690551   -8.5248516    676.96813  0.012809721  0.011538166            1 
 4405000   0.55209321   -8.5132388    675.71422  0.012783092  0.011534238            2 
 4406000   0.55225942   -8.5475219    677.28617  0.012809921  0.011530313            3 
 4407000   0.54344773   -8.5312289    676.24505  0.012787328  0.011526389            4 
 4408000   0.54481189   -8.5313335    677.58478  0.012809755  0.011522466            1 
 4409000   0.53945625   -8.5349373    676.43096  0.012785041  0.011518539            3 
 4410000   0.54635453   -8.5370691    677.37574  0.012799995  0.011514619            3 
 4411000   0.55096191   -8.5332884    677.17598  0.012793319  0.011510695            4 
 4412000   0.54562048   -8.5238595     677.1689  0.012790286  0.011506777            4 
 4413000   0.54380817   -8.5414801    676.16163  0.012768367  0.011502854            2 
 4414000    0.5497772   -8.5375348     676.3331  0.012768711   0.01149893            3 
 4415000   0.55199166   -8.5354327    675.89271  0.012757507  0.011495011            3 
 4416000   0.54972935   -8.5303367    675.93953  0.012755501  0.011491091            7 
 4417000   0.55054522   -8.5416943    677.00907  0.012772792  0.011487178            4 
 4418000   0.56013414   -8.5214213    676.95326  0.012768848  0.011483268            3 
 4419000   0.56210889   -8.5374487    675.85314  0.012745213  0.011479354            2 
 4420000   0.53181628   -8.5419534    675.59997  0.012737556  0.011475441            1 
 4421000   0.55137317   -8.5356104    676.74293  0.012756219   0.01147153            6 
 4422000   0.54510629   -8.5379438    677.00666  0.012758304   0.01146762            6 
 4423000    0.5329885   -8.5323637    677.48539  0.012764439  0.011463713            3 
 4424000   0.55027488   -8.5409134    677.10038  0.012754302  0.011459805            4 
 4425000   0.53997919   -8.5421302    675.98482  0.012730411  0.011455902            5 
 4426000   0.55010136   -8.5328092    676.27473  0.012732993  0.011452001            4 
 4427000   0.54721947    -8.556461    677.46884  0.012752595  0.011448103            2 
 4428000   0.52900142   -8.5341148    675.03748  0.012703957  0.011444203            2 
 4429000    0.5416751   -8.5308109    675.84537   0.01271629  0.011440309            4 
 4430000   0.53810415   -8.5437787     677.5118  0.012744767  0.011436414            2 
 4431000   0.54777086   -8.5385528    675.48043  0.012703687   0.01143252            6 
 4432000   0.54150994   -8.5355196    675.97447   0.01271011  0.011428626            4 
 4433000    0.5463382   -8.5559339     676.5502  0.012718065  0.011424735            2 
 4434000    0.5321371   -8.5358524    676.99413   0.01272354  0.011420848            2 
 4435000   0.54177933   -8.5384441    674.68455  0.012677275   0.01141696            6 
 4436000   0.54222999    -8.542388    677.34364   0.01272437  0.011413074            5 
 4437000   0.55278836   -8.5595319    676.26031  0.012701155   0.01140919            4 
 4438000   0.54236369   -8.5328396    677.54165  0.012722353  0.011405307            4 
 4439000   0.53501492   -8.5416228    675.89421   0.01268856  0.011401425            3 
 4440000   0.54026976   -8.5373225    676.28227  0.012692986  0.011397549            5 
 4441000   0.54574242   -8.5487004    676.99872  0.012703571   0.01139367            3 
 4442000   0.54127503    -8.541171    675.92246   0.01268052  0.011389793            3 
 4443000    0.5296694   -8.5390894    676.25026  0.012683815  0.011385919            2 
 4444000   0.53802698   -8.5239901    676.64465  0.012688356  0.011382048            6 
 4445000   0.53709487   -8.5375752    675.13613   0.01265722  0.011378177            1 
 4446000   0.54355446   -8.5406404    676.04405  0.012671391  0.011374309            3 
 4447000   0.55478369    -8.537327    676.48518  0.012676808  0.011370444            3 
 4448000   0.54056607   -8.5347817    675.34327  0.012652564  0.011366583            3 
 4449000   0.53885106   -8.5639002    676.86812  0.012678282  0.011362721            1 
 4450000   0.52957904   -8.5557552    677.14811  0.012680676  0.011358857            3 
 4451000    0.5450538   -8.5425595    676.32453  0.012662408  0.011354996            3 
 4452000   0.54610583   -8.5367458    676.61516  0.012665004   0.01135114            3 
 4453000   0.54425446   -8.5260575    676.34956  0.012657189   0.01134728            2 
 4454000   0.53690308   -8.5519003    675.60714  0.012640457  0.011343425            3 
 4455000   0.53790508   -8.5500366    675.88366  0.012642792  0.011339568            2 
 4456000   0.54019736    -8.542671    675.92143  0.012640661  0.011335717            2 
 4457000   0.51900397   -8.5313955    677.38173  0.012665128  0.011331866            3 
 4458000   0.55789281   -8.5545248    676.22661  0.012640695  0.011328017            3 
 4459000   0.55924705   -8.5345672    674.99535  0.012614849  0.011324166            3 
 4460000   0.54562532   -8.5531527    676.12746  0.012633174  0.011320317            4 
 4461000   0.53855211   -8.5522703    676.11693  0.012630145  0.011316471            4 
 4462000    0.5301479   -8.5464838    675.81533  0.012621682  0.011312627            4 
 4463000    0.5425911   -8.5405863    675.87568  0.012619981  0.011308786            2 
 4464000   0.53539165   -8.5398639    677.19482  0.012641779  0.011304947            3 
 4465000   0.54143807   -8.5264997    676.24783  0.012621273  0.011301106            3 
 4466000   0.53702559   -8.5548364    676.82467  0.012629211  0.011297265            2 
 4467000   0.54543303   -8.5529849    676.03257  0.012611607  0.011293428            4 
 4468000   0.54021141   -8.5457382    675.90861  0.012606472  0.011289593            2 
 4469000   0.54173901   -8.5601596    675.70894  0.012599928  0.011285758            1 
 4470000    0.5370051   -8.5555714    676.03364  0.012603163  0.011281923            2 
 4471000   0.54331666   -8.5506657     676.3646  0.012606512  0.011278092            2 
 4472000   0.54521449   -8.5511118     676.2014  0.012600652  0.011274263            6 
 4473000   0.54113691   -8.5635752    674.59686  0.012567942  0.011270435            1 
 4474000   0.53198114   -8.5461192    675.89593   0.01258933  0.011266605            3 
 4475000   0.53877121   -8.5653058    676.13743  0.012591014  0.011262779            7 
 4476000   0.53592034   -8.5583501    676.21367   0.01258962  0.011258955            2 
 4477000   0.53523567    -8.565046    676.67322  0.012595362   0.01125513            4 
 4478000   0.54914896    -8.537724    676.36664  0.012586844  0.011251306            2 
 4479000   0.53722263   -8.5691794    675.83347  0.012574114  0.011247487            2 
 4480000   0.53183468   -8.5588383    675.77231  0.012570169  0.011243668            3 
 4481000   0.53186952   -8.5389853    675.17904  0.012556331  0.011239851            2 
 4482000     0.531385    -8.541196    676.65588  0.012580988  0.011236036            2 
 4483000   0.53472088   -8.5556326    677.27562  0.012589702  0.011232221            4 
 4484000   0.52921552   -8.5619405     676.0181  0.012563524   0.01122841            5 
 4485000   0.53509031   -8.5476819    675.03802  0.012542512  0.011224595            2 
 4486000   0.52967891   -8.5443871    675.91687  0.012556042   0.01122078            2 
 4487000   0.52179508   -8.5771501    676.21617  0.012558803  0.011216971            3 
 4488000   0.53831592   -8.5491502    675.87123    0.0125496  0.011213164            5 
 4489000   0.53493154   -8.5602217      676.007  0.012549324  0.011209355            3 
 4490000   0.53594983   -8.5657082      675.256  0.012532591  0.011205553            3 
 4491000   0.53783423    -8.551108    676.59165  0.012554584  0.011201754            2 
 4492000   0.52746979   -8.5501582    675.19975  0.012525967  0.011197957            3 
 4493000   0.53635457   -8.5734899    676.52926  0.012547838  0.011194161            2 
 4494000   0.52190835   -8.5491688    677.08487  0.012555349  0.011190366            1 
 4495000   0.52463075   -8.5456942    675.44312  0.012522119  0.011186569            3 
 4496000   0.53433228   -8.5630574    676.53143  0.012539506  0.011182778            2 
 4497000   0.53963601   -8.5748085    675.80828  0.012523317  0.011178993            4 
 4498000   0.53584233   -8.5411783    676.69112  0.012536889  0.011175207            2 
 4499000    0.5303752   -8.5727509    675.50974   0.01251222  0.011171421            6 
 4500000   0.53205157   -8.5457634    674.84205  0.012497075  0.011167638            6 
 4501000   0.52823116   -8.5660986    675.31678  0.012503088  0.011163853            4 
 4502000   0.53035402   -8.5475481    675.61416  0.012505815  0.011160071            6 
 4503000    0.5324042   -8.5565228    675.97075  0.012509637   0.01115629            1 
 4504000   0.52828317   -8.5479479    675.84556  0.012504543  0.011152512            5 
 4505000   0.53695706   -8.5727917    675.32502  0.012492139  0.011148735            3 
 4506000    0.5237899   -8.5670936    675.86115  0.012499282  0.011144958            5 
 4507000   0.52406742   -8.5590404    675.86469  0.012496574  0.011141182            4 
 4508000   0.54147989   -8.5577245    676.29978  0.012501845  0.011137404            5 
 4509000   0.53552092   -8.5589825    675.31074  0.012480793   0.01113363            1 
 4510000   0.53256352   -8.5522545    674.51518  0.012463326  0.011129858            2 
 4511000   0.53423067    -8.558391    675.54034  0.012479501  0.011126086            3 
 4512000   0.52962753   -8.5786568    675.22956  0.012470995  0.011122315            2 
 4513000   0.52722206    -8.549209    676.14249  0.012485089  0.011118546            2 
 4514000   0.52020354   -8.5489194    676.41579  0.012487369   0.01111478            3 
 4515000   0.53139359   -8.5630464    676.11487  0.012479049  0.011111013            2 
 4516000   0.52848207    -8.551429    674.94356  0.012454672  0.011107251            2 
 4517000   0.52681598   -8.5720623    675.49449  0.012462078  0.011103488            7 
 4518000   0.53518768   -8.5458534    675.60066  0.012461278  0.011099726            2 
 4519000   0.52271734   -8.5684163    676.53391  0.012475731  0.011095966            1 
 4520000   0.52793393   -8.5586353    675.76856   0.01245886  0.011092209            2 
 4521000   0.52661415   -8.5776845    677.03475  0.012479443  0.011088455            3 
 4522000    0.5224243   -8.5762047    676.71256  0.012470746  0.011084696            2 
 4523000   0.52403102   -8.5745021    676.49233  0.012463931  0.011080948            6 
 4524000   0.52878336   -8.5640371    675.00486  0.012433777  0.011077196            2 
 4525000   0.52403005   -8.5520065    675.73385  0.012444454  0.011073448            2 
 4526000   0.52610097   -8.5598441    676.39047  0.012453794    0.0110697            2 
 4527000   0.54093162   -8.5781116    676.79498  0.012458489  0.011065956            4 
 4528000   0.53095088   -8.5559061    675.18272  0.012426066  0.011062206            2 
 4529000   0.52931035   -8.5604996    675.44516  0.012428151  0.011058465            2 
 4530000   0.53506503   -8.5655922    676.30406  0.012441208  0.011054725            3 
 4531000   0.52852776   -8.5638311    675.56886   0.01242494  0.011050982            3 
 4532000   0.51408152    -8.569267    675.04931  0.012412645  0.011047244            2 
 4533000   0.53614431   -8.5561742    676.56938  0.012437852  0.011043504            4 
 4534000   0.53038124   -8.5652652    675.42716  0.012414115  0.011039769            2 
 4535000   0.51747029   -8.5581885    676.56432  0.012432273  0.011036032            4 
 4536000   0.53240918   -8.5622734     675.1448  0.012403454  0.011032298            1 
 4537000   0.52323682   -8.5645719    674.70789  0.012392695  0.011028567            3 
 4538000   0.52401438   -8.5651414    675.29603  0.012400764  0.011024836            4 
 4539000   0.51720574   -8.5601137     675.1673  0.012395669  0.011021109            3 
 4540000   0.53241438   -8.5736805    676.22887  0.012412424  0.011017381            2 
 4541000   0.52562255    -8.562462    675.18729  0.012390576  0.011013657            1 
 4542000   0.51579769   -8.5648997    675.64555  0.012396256   0.01100993            7 
 4543000   0.52466992   -8.5558883    676.96399  0.012417712  0.011006209            4 
 4544000   0.53967566   -8.5615265    675.68886  0.012391594   0.01100249            3 
 4545000   0.51878901   -8.5635612    675.21991   0.01238027  0.010998775            2 
 4546000   0.52705983   -8.5712788    675.59352  0.012384395  0.010995058            2 
 4547000   0.51633686   -8.5782824    675.29939  0.012376281  0.010991339            5 
 4548000   0.51864147   -8.5660844    676.02864  0.012386922  0.010987623            2 
 4549000   0.52731204    -8.557806    676.21978    0.0123877   0.01098391            2 
 4550000   0.52373958   -8.5695436    674.95486  0.012361811  0.010980195            2 
 4551000   0.51715102   -8.5541971    674.17516  0.012344817  0.010976482            2 
 4552000   0.51375283     -8.58167    675.79172    0.0123717  0.010972773            2 
 4553000   0.54135252   -8.5782546     676.0237  0.012373228  0.010969066            2 
 4554000   0.52172753   -8.5761364    675.31195  0.012357487  0.010965358            2 
 4555000   0.52663795   -8.5842285    674.18047  0.012334074  0.010961654            4 
 4556000   0.53149057   -8.5659773    675.20612  0.012350127   0.01095795            2 
 4557000   0.52338448   -8.5747289    675.17786    0.0123469  0.010954246            4 
 4558000    0.5268829   -8.5697324    675.55238  0.012351038  0.010950547            2 
 4559000   0.52772373   -8.5736954    675.55825  0.012348436  0.010946851            3 
 4560000   0.51767873   -8.5873227    674.75108  0.012330977  0.010943152            3 
 4561000   0.52307013   -8.5616378    675.37441  0.012339663  0.010939454            3 
 4562000   0.53374941   -8.5514198    676.20433  0.012352118  0.010935758            3 
 4563000   0.52792661   -8.5569891    675.64632   0.01233922  0.010932064            1 
 4564000   0.51983275   -8.5765191    675.53829  0.012334544  0.010928371            4 
 4565000   0.52749852   -8.5755317    673.71105  0.012298486  0.010924679            3 
 4566000   0.52364363   -8.5689559    675.49656  0.012328379   0.01092099            4 
 4567000   0.52654448   -8.5738814    675.54008  0.012326474    0.0109173            2 
 4568000   0.51040739   -8.5739337    675.12175  0.012316144  0.010913612            7 
 4569000   0.53087021   -8.5696983    674.68973  0.012305569  0.010909925            4 
 4570000   0.52942479   -8.5739596    674.44779  0.012298464  0.010906239            2 
 4571000   0.52080616   -8.5600977    674.86288  0.012303341  0.010902553            3 
 4572000   0.50816372   -8.5668017      675.103  0.012305027  0.010898873            2 
 4573000   0.51137547    -8.575186    675.36722  0.012307151  0.010895194            2 
 4574000   0.51452384    -8.571422    673.70595  0.012274194  0.010891514            3 
 4575000   0.51645723   -8.5686477    674.43374  0.012284768  0.010887838            4 
 4576000   0.52663191   -8.5691692    675.28107  0.012297514  0.010884163            2 
 4577000   0.51103737   -8.5778155    674.76777  0.012285481  0.010880489            5 
 4578000   0.51846331   -8.5793064    674.92948  0.012285741  0.010876819            3 
 4579000   0.52024184   -8.5837635    675.34811  0.012290677  0.010873146            2 
 4580000   0.51710902   -8.6000699     674.9286   0.01228036  0.010869472            2 
 4581000   0.51352527   -8.5730198    674.24988  0.012265333  0.010865806            4 
 4582000   0.51923248   -8.5675704    673.88572  0.012256033  0.010862134            4 
 4583000   0.53033289    -8.570023    674.51332  0.012264771  0.010858467            6 
 4584000   0.51693052    -8.577463    675.24839  0.012275458  0.010854802            7 
 4585000   0.51479737   -8.5934934    675.55675  0.012278385  0.010851139            2 
 4586000   0.52485256   -8.5624886    675.44288  0.012273639  0.010847481            2 
 4587000   0.51121266   -8.5825586    673.80347  0.012241179  0.010843817            5 
 4588000   0.51709805   -8.5867249    675.66032  0.012272238   0.01084016            3 
 4589000   0.52588584   -8.5904599    675.00495  0.012257662  0.010836506            3 
 4590000   0.51696257   -8.5699522    676.61286  0.012284184  0.010832849            6 
 4591000    0.5165005   -8.5841159    673.62391  0.012227255    0.0108292            3 
 4592000   0.50343921   -8.5903379    674.97366  0.012249086  0.010825549            7 
 4593000    0.5170381    -8.565767    675.76327  0.012260746  0.010821902            2 
 4594000   0.50901457   -8.5967705    674.22936  0.012230253  0.010818256            6 
 4595000   0.52177952    -8.599925    675.02101  0.012241948  0.010814609            2 
 4596000   0.50911366   -8.5890133    674.59146  0.012231496  0.010810962            6 
 4597000   0.51252052    -8.597284    674.33119  0.012224117  0.010807317            2 
 4598000   0.51517723   -8.5917162    673.68341  0.012209718   0.01080367            4 
 4599000   0.50891085   -8.5864542    674.34202  0.012218997  0.010800025            2 
 4600000   0.51104297   -8.5702833    675.36924   0.01223495  0.010796381            4 
 4601000   0.51631393   -8.5854383     675.3336  0.012231645  0.010792745            1 
 4602000   0.51237715   -8.5963073     675.9131  0.012239481  0.010789108            4 
 4603000   0.51573847   -8.5906368    675.09164   0.01222195  0.010785472            2 
 4604000   0.51985718   -8.5816485    675.59668  0.012228437  0.010781838            2 
 4605000   0.51849962   -8.5822232    674.19366  0.012200392  0.010778205            5 
 4606000   0.51160328   -8.5907866    675.67623  0.012224566  0.010774578            2 
 4607000   0.51824345   -8.5924578     674.3827  0.012198515  0.010770946            3 
 4608000   0.50447506   -8.6030236    675.25167  0.012211583  0.010767316            2 
 4609000   0.51279832   -8.5825667    675.06769  0.012205607   0.01076369            1 
 4610000    0.5086341    -8.565195    675.21429  0.012205609  0.010760066            1 
 4611000   0.52971466   -8.5987365    674.68468   0.01219339  0.010756442            2 
 4612000   0.50376049   -8.5929748    673.03325  0.012160907  0.010752821            3 
 4613000   0.51147724   -8.5834132    675.38377  0.012200733    0.0107492            2 
 4614000   0.51055424   -8.5813473    675.02112  0.012191539  0.010745581            3 
 4615000     0.511702   -8.5884402    674.63262  0.012181882  0.010741963            4 
 4616000    0.5136587   -8.6111432    674.90129  0.012184093  0.010738346            4 
 4617000   0.51537748   -8.6000873    675.23973  0.012187563  0.010734731            4 
 4618000    0.5210223   -8.5888961     675.4255  0.012188276  0.010731116            3 
 4619000   0.51322886    -8.578073    675.06144  0.012179069  0.010727506            3 
 4620000   0.51303299   -8.5734533    675.54032  0.012185071  0.010723896            4 
 4621000   0.51807355   -8.5836001    676.36836  0.012197366  0.010720286            3 
 4622000   0.50910416   -8.5859579    674.85354  0.012167416  0.010716681            1 
 4623000   0.51357283   -8.5863692    675.31198  0.012173047  0.010713079            4 
 4624000   0.50943429   -8.5778547    674.72625  0.012159859  0.010709477            5 
 4625000   0.51505156   -8.5774452    674.44702  0.012152198  0.010705876            2 
 4626000   0.50754162   -8.5978359      675.916  0.012176034  0.010702275            2 
 4627000   0.51894003   -8.5796258    674.60674  0.012149822  0.010698677            2 
 4628000   0.50904727   -8.5924387    675.05675    0.0121553  0.010695082            4 
 4629000   0.51069182   -8.6148992    675.08383  0.012153162  0.010691487            3 
 4630000   0.50388519   -8.5813361    674.12093  0.012133206  0.010687892            6 
 4631000   0.51414477   -8.5900693    674.90467  0.012144689    0.0106843            3 
 4632000   0.51563234   -8.5999826     674.3664  0.012132383  0.010680709            2 
 4633000   0.51278354   -8.5970715    675.11155  0.012143168  0.010677121            4 
 4634000   0.51817584   -8.5966601    675.08219  0.012140019  0.010673534            4 
 4635000   0.50439535   -8.5980765    674.45901  0.012126196  0.010669946            1 
 4636000   0.51533664    -8.592448    673.72678  0.012110418  0.010666361            2 
 4637000   0.49189276   -8.5993251      673.874  0.012110452  0.010662776            6 
 4638000    0.5102178   -8.5919633     674.8751  0.012125828  0.010659193            3 
 4639000   0.52822681   -8.5814235    675.56785  0.012135659  0.010655612            5 
 4640000   0.50994535    -8.586032    674.84071  0.012119984  0.010652032            3 
 4641000   0.49973043   -8.6043186    675.06452  0.012121391  0.010648454            1 
 4642000   0.50358374   -8.5877918    674.53883  0.012109343  0.010644877            4 
 4643000    0.5107718   -8.6034115     674.9659    0.0121144  0.010641303            5 
 4644000    0.5173881   -8.5969947    674.08525  0.012095989  0.010637728            5 
 4645000   0.50535636   -8.6059574    675.11157  0.012111797  0.010634155            4 
 4646000   0.51552498   -8.5901675    674.48118  0.012097883  0.010630583            2 
 4647000   0.51000054   -8.5901839     674.4356  0.012094462  0.010627012            6 
 4648000   0.50225451   -8.5819049     675.6979  0.012114492  0.010623448            3 
 4649000   0.51842163   -8.6038184    674.31058  0.012087018  0.010619881            2 
 4650000   0.49595047   -8.6016378    674.26801  0.012083656  0.010616318            1 
 4651000   0.50297916   -8.5888609    673.89024  0.012074289  0.010612753            1 
 4652000   0.51097368   -8.5867535    674.38199  0.012080503  0.010609194            3 
 4653000     0.503481   -8.5867508    674.79841  0.012085364  0.010605631            3 
 4654000   0.51276286   -8.6088803    674.72204    0.0120814  0.010602068            2 
 4655000   0.51247485   -8.5861047    674.87908  0.012081616  0.010598509            2 
 4656000   0.51093207   -8.5906039     673.6584  0.012057174  0.010594953            2 
 4657000   0.51904882   -8.5968816    674.49542  0.012069562  0.010591395            6 
 4658000   0.50790137   -8.6033972    673.96639  0.012057507  0.010587841            2 
 4659000   0.52245493    -8.586552    674.40129  0.012062697  0.010584287            3 
 4660000   0.49383549   -8.6057105    673.83784  0.012050033  0.010580735            2 
 4661000   0.50337079   -8.6129929    674.16088  0.012053223  0.010577185            1 
 4662000   0.50343592    -8.587417    674.76989  0.012061524  0.010573637            1 
 4663000   0.50932018    -8.604046    674.47845  0.012053729  0.010570093            3 
 4664000   0.50956932    -8.600586    674.88755  0.012058454  0.010566548            2 
 4665000   0.50173328   -8.6012409    674.88912  0.012055897  0.010563006            3 
 4666000   0.50459686   -8.5993517    675.25196  0.012059794  0.010559466            4 
 4667000   0.50404176   -8.6094483    674.10046  0.012036648  0.010555926            8 
 4668000   0.51001142   -8.6063192    674.56766   0.01204241  0.010552385            1 
 4669000   0.50852562   -8.5996671    674.52806  0.012039124  0.010548847            5 
 4670000   0.49480872   -8.6065326    673.47858  0.012017819   0.01054531            2 
 4671000   0.49698186     -8.60493    673.98041  0.012024199   0.01054177            3 
 4672000   0.51088214    -8.585206    673.82591   0.01201887  0.010538237            6 
 4673000   0.51717638   -8.6091654      674.236  0.012023611  0.010534706            6 
 4674000    0.5021241   -8.6048792    674.15898  0.012019665  0.010531172            1 
 4675000   0.49618292   -8.6197085    674.25896  0.012018876  0.010527641            4 
 4676000   0.49756477   -8.5989407    674.16799  0.012014685  0.010524112            2 
 4677000   0.50726529   -8.6098945    673.55806  0.012001248  0.010520587            2 
 4678000   0.50305031   -8.6041073    673.82306  0.012003404   0.01051706            2 
 4679000   0.50236747    -8.603756     674.6483  0.012015536  0.010513539            5 
 4680000   0.50469364   -8.6143747    673.63978   0.01199501  0.010510016            1 
 4681000   0.50730074   -8.6099348    674.81957  0.012013451  0.010506496            3 
 4682000   0.50303445    -8.601882    674.75117  0.012009668  0.010502977            7 
 4683000   0.49928887   -8.6074999    673.86114  0.011991265  0.010499461            2 
 4684000   0.50558194   -8.5794059    674.52617  0.012000537  0.010495946            4 
 4685000   0.49610053   -8.6071628    675.31126   0.01201194  0.010492434            2 
 4686000   0.49917369   -8.6055224    673.90015  0.011984282  0.010488916            4 
 4687000   0.50544543   -8.6004658    673.65688    0.0119774  0.010485405            2 
 4688000   0.50870313   -8.5989635    674.33542  0.011986907  0.010481893            6 
 4689000   0.49908141   -8.6067711    673.70107  0.011973076  0.010478384            2 
 4690000   0.50009604   -8.6043374    674.19265  0.011979258  0.010474874            2 
 4691000   0.48802177   -8.6200323    675.45955   0.01199921  0.010471367            4 
 4692000   0.50229482   -8.6044992    673.85842  0.011968216  0.010467863            3 
 4693000   0.48791973   -8.6014711    673.35565  0.011956738  0.010464361            3 
 4694000   0.50747895   -8.6155013    674.55106  0.011975413  0.010460858            2 
 4695000   0.50214449    -8.596142    673.58927  0.011955791  0.010457357            6 
 4696000   0.49510187   -8.6053649    674.45668  0.011968638  0.010453859            2 
 4697000    0.5132423   -8.6206115    675.69224  0.011988011  0.010450365            2 
 4698000   0.47961201   -8.5958033    674.07944  0.011956851  0.010446874            5 
 4699000   0.49696925   -8.6028588    674.16876  0.011955891  0.010443383            6 
 4700000   0.49230249   -8.5946416    673.11988   0.01193475  0.010439892            3 
 4701000   0.49551757   -8.6219681    673.95414  0.011946999  0.010436402            1 
 4702000   0.50486579   -8.5989007    675.75048  0.011976295  0.010432911            6 
 4703000   0.49828121   -8.5823428    675.14533  0.011963026  0.010429425            4 
 4704000   0.50394746   -8.6252557    674.21375  0.011943979  0.010425937            4 
 4705000   0.49811685   -8.6059103      672.961  0.011919253  0.010422446            2 
 4706000   0.49815423   -8.6206473    674.17164  0.011938158  0.010418961            5 
 4707000   0.50783579    -8.611452    673.24617  0.011919237  0.010415477            5 
 4708000   0.50034322   -8.5919694    674.33347  0.011935951  0.010411995            4 
 4709000   0.50669675    -8.631883    673.80638  0.011924088  0.010408516            2 
 4710000   0.49621014   -8.5858325    673.64852  0.011918764  0.010405038            7 
 4711000   0.49970059   -8.6174435    674.35834   0.01192879  0.010401561            6 
 4712000   0.49191639   -8.6211107    674.39884  0.011926974  0.010398086            4 
 4713000   0.49930753   -8.6102752     673.5914  0.011910167  0.010394612            3 
 4714000   0.49981031   -8.6020624    674.58118  0.011925138  0.010391138            1 
 4715000   0.49771514   -8.6003052    673.50444  0.011903578  0.010387664            8 
 4716000   0.50526312   -8.6174069    673.29004  0.011897265  0.010384192            1 
 4717000   0.50921293   -8.6095702    674.29305  0.011912463  0.010380723            3 
 4718000   0.49442279   -8.6314219    673.95538  0.011903974  0.010377252            3 
 4719000   0.50541588   -8.5985757    673.95775  0.011901493  0.010373785            3 
 4720000    0.4877469   -8.6150724    673.91885  0.011898285  0.010370319            4 
 4721000   0.50367323   -8.6191629    674.22623   0.01190119  0.010366853            4 
 4722000    0.4898705   -8.6178078    673.09297   0.01187867   0.01036339            4 
 4723000   0.49400969   -8.5987382    673.62655   0.01188557  0.010359926            2 
 4724000   0.48970247   -8.6006366    673.56939  0.011882045  0.010356465            1 
 4725000   0.49616772    -8.631942    674.00237  0.011887167  0.010353006            2 
 4726000   0.51153508   -8.5997018    673.85648  0.011882079  0.010349546            2 
 4727000   0.49435246   -8.6131538    674.32582   0.01188784   0.01034609            3 
 4728000   0.49253502   -8.6097678    673.74301  0.011875053  0.010342634            2 
 4729000   0.50275722   -8.6321758    673.49595  0.011868188   0.01033918            2 
 4730000   0.49621274   -8.6294789    674.46757  0.011882797  0.010335728            1 
 4731000   0.50413887   -8.6240236    673.55976  0.011864295  0.010332277            4 
 4732000   0.49128588   -8.6214016    674.30554  0.011874921  0.010328828            5 
 4733000   0.50984659   -8.6286091    674.90599  0.011882985  0.010325378            4 
 4734000   0.49276792   -8.6157117    673.18912  0.011850252  0.010321932            4 
 4735000   0.49565266   -8.6112742    673.72386  0.011857161  0.010318484            4 
 4736000   0.50822074   -8.6192685    673.95175  0.011858667  0.010315042            3 
 4737000   0.50139822   -8.6401428    674.01273  0.011857236  0.010311598            3 
 4738000   0.49113351    -8.611972    673.62641  0.011847939  0.010308157            2 
 4739000   0.49021652   -8.6115203    673.42036  0.011841816  0.010304716            2 
 4740000   0.48680553   -8.6265066    672.99652  0.011831866   0.01030128            1 
 4741000   0.49169524   -8.6276787    674.00396  0.011847078  0.010297844            3 
 4742000   0.49280499   -8.6316268    673.74624  0.011840051   0.01029441            2 
 4743000    0.4931649   -8.6226158    674.52188  0.011851182  0.010290979            3 
 4744000   0.50478739   -8.6078394    674.17279  0.011842552  0.010287549            4 
 4745000   0.49698354   -8.6230875    674.19476  0.011840442  0.010284122            4 
 4746000   0.49535864   -8.6184285    674.38624  0.011841309  0.010280693            2 
 4747000   0.50391109   -8.6285345    673.68255  0.011826461  0.010277266            1 
 4748000     0.502947   -8.6360952    674.18952  0.011832868  0.010273839            5 
 4749000   0.49183234   -8.6222634    673.03905  0.011810189  0.010270414            7 
 4750000   0.48630573   -8.6247194     674.4582    0.0118326  0.010266994            3 
 4751000   0.49565485   -8.6234121    674.30075  0.011827348  0.010263572            2 
 4752000   0.49034466    -8.614588    673.76121  0.011815397  0.010260154            3 
 4753000   0.48976376   -8.6420979    674.80979  0.011831296  0.010256739            8 
 4754000   0.48071791   -8.6376521    672.34662   0.01178563  0.010253323            6 
 4755000   0.48227198   -8.6273362    674.00677  0.011812246  0.010249908            4 
 4756000   0.48749761   -8.6132034    673.95598  0.011808873  0.010246495            4 
 4757000   0.48449422   -8.6236821    673.72324  0.011802313  0.010243085            3 
 4758000   0.47950235   -8.6284896    673.45936  0.011795211  0.010239674            3 
 4759000   0.48118237   -8.6113191    674.25165  0.011806606  0.010236267            4 
 4760000   0.48713577   -8.6342489    673.56891  0.011792173   0.01023286            7 
 4761000   0.49398109   -8.6287942    672.88721  0.011777764  0.010229454            3 
 4762000   0.49836041   -8.6381847    674.76273  0.011808112  0.010226051            2 
 4763000   0.49406791   -8.6135672    673.88799  0.011790328  0.010222649            2 
 4764000   0.49054215   -8.6129487    673.84742  0.011787144  0.010219249            3 
 4765000   0.49401149   -8.6351718     674.0934  0.011788972  0.010215848            5 
 4766000   0.49896976   -8.6315028    674.17029  0.011787842  0.010212446            2 
 4767000   0.48256362   -8.6246344    673.32402  0.011770576  0.010209052            2 
 4768000   0.49475369   -8.6179052    673.21134  0.011766138  0.010205658            2 
 4769000   0.49585178   -8.6251224    673.44196    0.0117677  0.010202265            2 
 4770000    0.4901963   -8.6214479    674.15527  0.011777695  0.010198872            1 
 4771000   0.48707386   -8.6248148     672.1558  0.011740303   0.01019548            4 
 4772000   0.48562613   -8.6291554    673.78041  0.011766213  0.010192089            4 
 4773000   0.49202267   -8.6147636    673.76934  0.011763554    0.0101887            5 
 4774000    0.4927187    -8.627485    674.02164  0.011765494  0.010185313            5 
 4775000   0.50119353   -8.6408002    673.65829  0.011756689  0.010181926            3 
 4776000   0.49521865   -8.6214065    674.68096  0.011772071  0.010178543            3 
 4777000   0.48620651   -8.6083111    673.34632  0.011746325   0.01017516            3 
 4778000   0.49375778   -8.6281687    673.53566  0.011747169  0.010171777            2 
 4779000   0.49943693   -8.6170538    672.89157  0.011733479  0.010168398            8 
 4780000   0.47828933    -8.636702    673.28888  0.011737951  0.010165019            2 
 4781000   0.48837699   -8.6289051    673.41369  0.011737672  0.010161636            2 
 4782000   0.48329961   -8.6136717    673.18457  0.011731224  0.010158259            3 
 4783000   0.48201635   -8.6240784    672.51695   0.01171714  0.010154886            7 
 4784000   0.48479232   -8.6303624    672.83369  0.011720208  0.010151509            3 
 4785000   0.49734724   -8.6289897    674.51996  0.011747126  0.010148137            3 
 4786000   0.47777604   -8.6238113    673.09173  0.011719803  0.010144765            2 
 4787000   0.48606835   -8.6437789    673.53824  0.011725128  0.010141394            7 
 4788000   0.48336418     -8.62289    672.90199  0.011711605  0.010138029            8 
 4789000   0.49691539   -8.6181224    673.77525  0.011724355  0.010134663            4 
 4790000   0.47970937   -8.6377308    673.93447  0.011724678  0.010131299            2 
 4791000   0.49257537   -8.6268268    673.67829  0.011717774  0.010127934            2 
 4792000   0.48466238   -8.6141027    673.64731   0.01171479  0.010124573            3 
 4793000   0.49033528   -8.6369111    672.81474  0.011697871  0.010121213            3 
 4794000    0.4930567   -8.6137797    672.86749  0.011696348  0.010117854            5 
 4795000   0.47589206   -8.6247047     673.5582  0.011705912  0.010114497            8 
 4796000   0.48506126   -8.6526763    672.78201  0.011689985  0.010111139            2 
 4797000    0.4845366   -8.6340612     673.1674  0.011694243  0.010107782            2 
 4798000   0.48158341    -8.629946    673.21405  0.011692616  0.010104427            4 
 4799000   0.50131894    -8.621292    673.58227  0.011696573  0.010101075            3 
 4800000   0.48033258   -8.6239797    673.85854  0.011698933  0.010097725            1 
 4801000   0.49171605   -8.6323811    673.09858  0.011683305  0.010094377            2 
 4802000   0.48783543   -8.6151521    673.43074  0.011686636  0.010091031            2 
 4803000   0.49355993   -8.6051527     672.3891  0.011666131  0.010087689            4 
 4804000   0.49540178   -8.6385934    673.65833  0.011685719  0.010084345            4 
 4805000    0.4699453   -8.6276588    673.04202  0.011672598  0.010080998            4 
 4806000   0.48117131   -8.6249252    673.00374  0.011669506  0.010077657            3 
 4807000   0.49002175    -8.628605    674.23055  0.011688346  0.010074318            3 
 4808000   0.48215366   -8.6216704    673.62324  0.011675389  0.010070977            3 
 4809000   0.46741111   -8.6320024    673.70616  0.011674398  0.010067641            4 
 4810000    0.4751099   -8.6385897    672.15028  0.011645015  0.010064304            2 
 4811000   0.47060107   -8.6283215    673.51543  0.011666241  0.010060967            4 
 4812000   0.48157701     -8.64617    673.84892  0.011669592  0.010057633            3 
 4813000   0.47089973   -8.6282935    673.16247  0.011655282  0.010054301            3 
 4814000   0.46666208   -8.6357368    674.14247  0.011669825   0.01005097            4 
 4815000   0.48625648   -8.6313964    674.75772   0.01167805  0.010047642            2 
 4816000   0.48640926   -8.6472266    673.91409  0.011661027  0.010044316            2 
 4817000   0.47592622   -8.6342478    673.47383   0.01165099  0.010040988            3 
 4818000   0.46910594   -8.6442232    673.20797  0.011643973   0.01003766            6 
 4819000   0.48050495   -8.6371608    673.35614   0.01164412  0.010034336            4 
 4820000   0.48077627   -8.6308071     672.7405   0.01163106  0.010031013            3 
 4821000   0.47815515   -8.6262433    673.63159   0.01164405  0.010027697            1 
 4822000   0.47307814   -8.6356423    673.76601  0.011643958  0.010024375            3 
 4823000   0.47527498   -8.6584629    673.24601  0.011632559  0.010021055            3 
 4824000   0.48095133   -8.6289587    673.86057  0.011640764  0.010017739            2 
 4825000   0.49504707   -8.6417666    672.26365  0.011610771  0.010014424            3 
 4826000   0.47930641   -8.6379662     673.0884  0.011622607  0.010011109            4 
 4827000   0.47566654    -8.647987    674.13532  0.011638273  0.010007794            4 
 4828000   0.47233751   -8.6573271    673.61272  0.011626842  0.010004482            6 
 4829000   0.46679246    -8.636397     672.3624  0.011602858  0.010001169            9 
 4830000   0.47710948    -8.655971    673.52956  0.011620593 0.0099978587            5 
 4831000   0.47619505   -8.6309481    672.29438  0.011596881 0.0099945501            3 
 4832000   0.48513809   -8.6451402    672.96304  0.011606013 0.0099912461            2 
 4833000   0.48446511   -8.6206442    673.35214   0.01161032 0.0099879423            4 
 4834000   0.47857626   -8.6198413     674.1335  0.011621388  0.009984643            2 
 4835000   0.48235923    -8.653174    673.84947  0.011614089 0.0099813423            7 
 4836000   0.47681366   -8.6404735    672.65057  0.011591029 0.0099780399            7 
 4837000   0.46996063   -8.6185803    673.14169  0.011597093  0.009974742            4 
 4838000   0.47425605   -8.6349816    673.00013  0.011592258 0.0099714421            2 
 4839000   0.48131543   -8.6264837    673.69694  0.011601862 0.0099681443            3 
 4840000   0.46940849   -8.6421852     672.6046  0.011580658 0.0099648488            8 
 4841000   0.47660536   -8.6589833    674.02764  0.011602762 0.0099615539            6 
 4842000   0.46729091   -8.6293171    672.94325  0.011581703 0.0099582601            3 
 4843000   0.47433153   -8.6491907    671.99276  0.011562956 0.0099549655            4 
 4844000   0.48681709   -8.6359782    672.83687  0.011575091 0.0099516759            2 
 4845000   0.46633904   -8.6444149    672.59729  0.011568581   0.00994839            5 
 4846000   0.47364349   -8.6562357    673.50163  0.011581745 0.0099451026           10 
 4847000   0.47349511   -8.6388929     672.3799   0.01156007 0.0099418174            9 
 4848000   0.47537485   -8.6486525    673.62647  0.011579113 0.0099385295            4 
 4849000   0.48118465   -8.6413376     673.5732  0.011575809 0.0099352457            6 
 4850000   0.46793746   -8.6462003    673.46291  0.011571528 0.0099319627            2 
 4851000   0.47963196   -8.6439966    672.60959  0.011554484 0.0099286803            7 
 4852000    0.4853303     -8.63856    673.52013  0.011567741 0.0099254037            1 
 4853000   0.47908547   -8.6554084    672.61607  0.011549833 0.0099221231            6 
 4854000   0.47484382   -8.6400624    671.70204  0.011531762 0.0099188461            5 
 4855000    0.4764811   -8.6410022    672.92902  0.011550447   0.00991557            4 
 4856000   0.47599518   -8.6400639    672.63616  0.011543042 0.0099122938            3 
 4857000   0.47273004   -8.6469475    671.91005  0.011528208 0.0099090196            4 
 4858000   0.47931102   -8.6412905    671.69404  0.011522129  0.009905749            2 
 4859000   0.46556032   -8.6430114    672.85814  0.011539722  0.009902478            6 
 4860000   0.48384846   -8.6385812    672.25165  0.011526949  0.009899207            5 
 4861000   0.46258815   -8.6540352    672.00814  0.011520403 0.0098959385            2 
 4862000    0.4689309   -8.6236091    672.74562  0.011530674   0.00989267            4 
 4863000   0.46878663   -8.6560946     672.6674  0.011526962 0.0098894044            7 
 4864000   0.46741309   -8.6419193    672.42381  0.011520419 0.0098861395            8 
 4865000   0.47388221   -8.6401047    672.87415  0.011525765 0.0098828785            7 
 4866000   0.48069803   -8.6614131    673.40171  0.011532431 0.0098796198            3 
 4867000   0.48127458   -8.6497144    672.48243  0.011514322 0.0098763586            3 
 4868000   0.49197881   -8.6559884    672.15917  0.011506422 0.0098730984            5 
 4869000   0.46400562   -8.6561129    673.29002  0.011523414 0.0098698409            8 
 4870000   0.46656246   -8.6347133    672.41893  0.011506142 0.0098665869            2 
 4871000   0.46950214   -8.6343329     672.3566  0.011502713 0.0098633305            2 
 4872000   0.47244499   -8.6410668    672.73823   0.01150688 0.0098600781            3 
 4873000   0.47470656   -8.6497648    672.02973  0.011492402 0.0098568275            4 
 4874000   0.46892815   -8.6462595    673.04143  0.011507342 0.0098535766            2 
 4875000   0.48520963   -8.6513617    672.63235  0.011497989 0.0098503268            7 
 4876000   0.47184663   -8.6530318    673.41455  0.011508999 0.0098470788            5 
 4877000   0.46272888    -8.653543    673.32605  0.011505127 0.0098438331            2 
 4878000   0.47696414   -8.6512526    673.31926  0.011502652 0.0098405861            4 
 4879000   0.47050569   -8.6612918    672.71061  0.011489899 0.0098373396            3 
 4880000   0.47761212   -8.6463419    671.62673  0.011469036 0.0098340966            8 
 4881000   0.46675451   -8.6528897    672.48974   0.01148142 0.0098308531            3 
 4882000   0.48136533   -8.6367942    672.16764   0.01147357   0.00982761            2 
 4883000   0.48044082   -8.6530727    671.96752  0.011467805 0.0098243708            3 
 4884000   0.47368319   -8.6534297    672.27086  0.011470633 0.0098211331            3 
 4885000   0.47313484   -8.6589601    672.04403  0.011464415 0.0098178969            4 
 4886000   0.45640931    -8.637268    672.73021  0.011473772 0.0098146629            4 
 4887000    0.4768729   -8.6434211      672.629  0.011469699 0.0098114284            1 
 4888000    0.4702905   -8.6326897    672.50399  0.011465221 0.0098081948            3 
 4889000   0.47553307   -8.6440471    672.52314  0.011463202 0.0098049631            2 
 4890000   0.47853486   -8.6516868    672.88221  0.011466977 0.0098017342            3 
 4891000   0.47574688   -8.6481473    672.91617  0.011465211 0.0097985046            2 
 4892000   0.45958146   -8.6586537    672.49723  0.011455731 0.0097952794            7 
 4893000    0.4673959   -8.6556046    673.02455  0.011462371 0.0097920555            3 
 4894000   0.47082414   -8.6629846    672.51694  0.011451385 0.0097888314            4 
 4895000   0.45597577   -8.6480072    672.40211  0.011447091  0.009785609            2 
 4896000   0.46515418   -8.6567805    673.16313  0.011457706 0.0097823882            4 
 4897000   0.46425362   -8.6490826    672.90067    0.0114509 0.0097791671            4 
 4898000   0.46878778   -8.6503103    671.70695  0.011428252 0.0097759503            3 
 4899000   0.47694446   -8.6683121    672.69138  0.011442665 0.0097727373            2 
 4900000    0.4569714    -8.661777    672.69529  0.011440396 0.0097695193            2 
 4901000    0.4650435   -8.6666679    671.64528  0.011420208 0.0097663024            5 
 4902000   0.45687923   -8.6472794    672.98231  0.011440608 0.0097630903            2 
 4903000   0.47518216   -8.6635224    672.60538  0.011431868 0.0097598781            2 
 4904000   0.45593283   -8.6640922    672.11101  0.011421136 0.0097566701            4 
 4905000   0.47898864   -8.6586538    672.07066  0.011418122 0.0097534614            3 
 4906000   0.47198433   -8.6617211    672.42395  0.011421796 0.0097502535            2 
 4907000   0.47294767   -8.6629107    672.28414  0.011417094 0.0097470461            4 
 4908000   0.47361276   -8.6379145    673.10656  0.011428731 0.0097438424            3 
 4909000   0.45560462   -8.6488002    671.89957  0.011405914 0.0097406379            2 
 4910000   0.46293604   -8.6545817    672.89288  0.011420449 0.0097374356            3 
 4911000   0.47468779   -8.6580764    672.34723  0.011408865 0.0097342334            5 
 4912000   0.46995716   -8.6676916    673.37424  0.011423966 0.0097310327            6 
 4913000   0.46844794     -8.65534    672.81839  0.011412212 0.0097278347            3 
 4914000   0.46050794    -8.671422    673.17173  0.011415882 0.0097246398            4 
 4915000     0.475588   -8.6634128    672.83091  0.011407781 0.0097214449            3 
 4916000   0.46764313   -8.6476651    671.88423  0.011389413 0.0097182509            6 
 4917000   0.46188607   -8.6425117    671.95768  0.011388341 0.0097150586            2 
 4918000    0.4681611   -8.6580735    673.58544  0.011413607 0.0097118686            6 
 4919000     0.461128   -8.6657025    672.14192  0.011386832 0.0097086778            3 
 4920000   0.46116727   -8.6615871    671.91748  0.011380716 0.0097054877            2 
 4921000   0.46710409   -8.6551998     672.2971  0.011384832 0.0097022996            2 
 4922000   0.47032674   -8.6784062    672.53382  0.011386527 0.0096991127            3 
 4923000   0.47578894   -8.6523223    672.87296  0.011389955 0.0096959283            3 
 4924000   0.47239175   -8.6559673    672.40432   0.01137971 0.0096927461            2 
 4925000   0.46216466   -8.6799993    671.43458  0.011360991 0.0096895641            2 
 4926000   0.45990653   -8.6693192    672.61517  0.011378657 0.0096863815            2 
 4927000   0.46949185   -8.6568436    672.96115  0.011382199 0.0096832007            2 
 4928000   0.46337794   -8.6539033    672.00503  0.011363721 0.0096800244            3 
 4929000   0.46102255   -8.6652256    673.31617  0.011383583 0.0096768485            5 
 4930000   0.46242544   -8.6795451    671.80097  0.011355662 0.0096736718            2 
 4931000   0.45836776   -8.6487878    672.22219  0.011360478 0.0096704958            4 
 4932000   0.45760373   -8.6631524    673.02682   0.01137177 0.0096673222            1 
 4933000   0.45909048   -8.6774378    672.92333  0.011367716 0.0096641496            4 
 4934000   0.45279472   -8.6663189    672.30704  0.011355003 0.0096609799            3 
 4935000   0.45373265   -8.6592873    672.65992  0.011358661 0.0096578104            1 
 4936000   0.45033258   -8.6839588    672.02648  0.011345666 0.0096546423            5 
 4937000   0.46058335   -8.6685932    671.68956  0.011337681 0.0096514727            4 
 4938000   0.46357977   -8.6586786    672.71469  0.011352685 0.0096483081            2 
 4939000   0.45022694   -8.6688076    672.20467  0.011341781 0.0096451452            5 
 4940000   0.46370263   -8.6646151    672.21126  0.011339596  0.009641981            3 
 4941000   0.45930462   -8.6560997    671.12187  0.011318928  0.009638819            1 
 4942000   0.46080695   -8.6537895    671.70715  0.011326507 0.0096356617            4 
 4943000   0.45312821   -8.6643773    671.87685  0.011327076 0.0096325035            4 
 4944000   0.46274212   -8.6735151    672.49271  0.011335166  0.009629344            2 
 4945000   0.47358123   -8.6617177    671.52677  0.011316595 0.0096261881            2 
 4946000   0.46433379   -8.6667335    672.29742  0.011327292 0.0096230358            2 
 4947000   0.45462838   -8.6616677    672.01397  0.011320227 0.0096198824            2 
 4948000   0.46430605   -8.6663712    672.21448  0.011321316  0.009616728            5 
 4949000   0.46381323   -8.6561699    671.59087  0.011308528 0.0096135758            2 
 4950000   0.45730856    -8.669254    671.69591  0.011308012 0.0096104254            5 
 4951000   0.45810843   -8.6566753    673.12087  0.011329712 0.0096072741            4 
 4952000   0.45285265   -8.6601145    672.33212  0.011314151 0.0096041262            3 
 4953000   0.45444372   -8.6705533     671.6461  0.011300325 0.0096009788            4 
 4954000   0.45964992   -8.6719527     671.6611  0.011298296 0.0095978305            2 
 4955000   0.45281371   -8.6600176    671.96432  0.011301115 0.0095946871            3 
 4956000   0.46137801   -8.6665419    672.45475  0.011307082 0.0095915426            7 
 4957000   0.45323608   -8.6601959    672.34586   0.01130297 0.0095883995            3 
 4958000   0.45715937   -8.6716923    672.00044  0.011294884 0.0095852575            2 
 4959000    0.4732985   -8.6568092    671.91442  0.011291161 0.0095821171            3 
 4960000   0.46159172    -8.684319    672.87862  0.011305084 0.0095789814            2 
 4961000   0.46126671    -8.673836    672.73935  0.011300466 0.0095758429            3 
 4962000   0.45940776   -8.6667183    672.06394  0.011286846 0.0095727084            2 
 4963000   0.45809482   -8.6671528    671.95924  0.011282813 0.0095695737            3 
 4964000   0.45733797   -8.6639997    671.88285  0.011279258 0.0095664405            3 
 4965000   0.45217815   -8.6611932    672.26848  0.011283459  0.009563308            2 
 4966000   0.45565517   -8.6619076    671.16265   0.01126263 0.0095601777            3 
 4967000    0.4501617   -8.6628198    671.78061   0.01127073 0.0095570469            2 
 4968000   0.45665438    -8.663262      671.838  0.011269424 0.0095539189            1 
 4969000    0.4530113   -8.6769212    672.14637  0.011272328 0.0095507928            4 
 4970000   0.45853089   -8.6796883    672.34022   0.01127331 0.0095476673            5 
 4971000   0.46317378   -8.6814707    672.05915  0.011266331 0.0095445447            4 
 4972000   0.44851425    -8.658713    671.61063  0.011256547 0.0095414217            5 
 4973000   0.45824545    -8.680138    671.92028  0.011259473 0.0095383027            3 
 4974000   0.44279854   -8.6773306    672.24192  0.011262597 0.0095351809            1 
 4975000   0.46029794   -8.6772469     672.3063  0.011261412 0.0095320602            3 
 4976000   0.45295305   -8.6770309    670.95672  0.011236547 0.0095289407            4 
 4977000    0.4452103   -8.6797487    672.16781  0.011254568 0.0095258252            6 
 4978000   0.45701777   -8.6588185      671.744  0.011245212 0.0095227109            3 
 4979000   0.45806003   -8.6821515     672.3076  0.011252387 0.0095195989            3 
 4980000   0.46448265   -8.6655358    671.83939  0.011242292 0.0095164866            3 
 4981000   0.45180116    -8.665132    671.61159  0.011236224 0.0095133771            3 
 4982000   0.45737015   -8.6676958     672.1176  0.011242433 0.0095102678            3 
 4983000    0.4513532    -8.676477    671.70934  0.011233349 0.0095071622            4 
 4984000   0.45930447   -8.6727942    671.33267  0.011224797 0.0095040539            4 
 4985000   0.44462852    -8.678704    671.59791  0.011226979 0.0095009501            6 
 4986000   0.45029016   -8.6727409    671.48626  0.011222862 0.0094978469            2 
 4987000   0.45700637   -8.6685341    671.51827  0.011221146 0.0094947459            4 
 4988000   0.45424564   -8.6676365    671.25225  0.011214452 0.0094916454            8 
 4989000   0.45205991   -8.6734351    672.27184  0.011229235 0.0094885436            3 
 4990000   0.44417635   -8.6756665    672.05821  0.011223417 0.0094854438            3 
 4991000    0.4414952    -8.660215     671.1951  0.011206757 0.0094823425            2 
 4992000   0.45639263   -8.6789296    671.63169    0.0112118 0.0094792472            2 
 4993000   0.45294727   -8.6577658    671.54544  0.011208115 0.0094761538            2 
 4994000    0.4562885   -8.6694982    671.20201   0.01120014 0.0094730605            2 
 4995000   0.45274856   -8.6761795    671.72443  0.011206614 0.0094699693            6 
 4996000   0.46407346   -8.6579795    672.02012  0.011209303 0.0094668808            5 
 4997000   0.44387191   -8.6793233    671.52588  0.011198817  0.009463792            2 
 4998000   0.44280468   -8.6813933    671.74021   0.01120015 0.0094607062            3 
 4999000   0.45087802   -8.6692176    672.32149    0.0112076 0.0094576198            1 
 5000000   0.45015604    -8.678808     671.7505  0.011195842 0.0094545315            3 
 5001000   0.44914043   -8.6775922    671.36131  0.011187118 0.0094514477            2 
 5002000   0.44721673   -8.6867584    671.24783  0.011182991  0.009448363            3 
 5003000   0.44487557   -8.6840136    671.52149  0.011185314  0.009445283            3 
 5004000   0.45590628    -8.692293    671.73171  0.011186579 0.0094422038            5 
 5005000   0.45590787   -8.6805139     671.8291  0.011185966 0.0094391221            3 
 5006000     0.448663   -8.6796591    671.87662  0.011184522 0.0094360431            2 
 5007000    0.4464686   -8.6921464    671.92366  0.011183071 0.0094329671            1 
 5008000   0.44362766   -8.6752385    671.50955  0.011173948 0.0094298922            5 
 5009000    0.4506457   -8.6624041    670.88945    0.0111614 0.0094268161            3 
 5010000   0.44102439   -8.6775886    671.72251  0.011173029 0.0094237415            2 
 5011000   0.44765738    -8.701841    672.34529  0.011181156 0.0094206679            2 
 5012000   0.44697617    -8.674747    671.33932  0.011162199 0.0094175945            2 
Loop time of 12180.9 on 48 procs for 5000000 steps with 4000 atoms

Performance: 70930.975 tau/day, 410.480 timesteps/s
99.4% CPU use with 48 MPI tasks x no OpenMP threads

MPI task timing breakdown:
Section |  min time  |  avg time  |  max time  |%varavg| %total
---------------------------------------------------------------
Pair    | 768.96     | 824.94     | 880.46     | 103.9 |  6.77
Neigh   | 78.446     | 82.623     | 86.507     |  25.2 |  0.68
Comm    | 743.49     | 801.99     | 854.55     | 106.8 |  6.58
Output  | 13.613     | 13.618     | 13.695     |   0.3 |  0.11
Modify  | 10312      | 10349      | 10388      |  18.8 | 84.96
Other   |            | 108.3      |            |       |  0.89

Nlocal:        83.3333 ave          91 max          77 min
Histogram: 2 5 10 2 3 15 4 4 1 2
Nghost:        2058.81 ave        2089 max        2030 min
Histogram: 2 3 4 8 10 6 7 5 2 1
Neighs:        13395.4 ave       14936 max       12173 min
Histogram: 5 4 7 7 5 3 10 3 2 2
FullNghs:      26790.3 ave       29435 max       24389 min
Histogram: 3 3 4 10 2 12 8 3 2 1

Total # of neighbors = 1285935
Ave neighs/atom = 321.48375
Neighbor list builds = 267717
Dangerous builds = 0

#clear
#
#next RN
#
#jump SELF
Total wall time: 3:23:04
