
units lj                  # Use reduced LJ style units
atom_style atomic         # Uncharged point particles
atom_modify map hash      # Needed for indexing of clusters etc
                          # Used to be able to find where atoms are in relation to each other.

lattice fcc 1.0 spacing 1 1 1
Lattice spacing in x,y,z = 1.5874011 1.5874011 1.5874011
region box block 0 10 0 10 0 10 units lattice
create_box 2 box
Created orthogonal box = (0.0000000 0.0000000 0.0000000) to (15.874011 15.874011 15.874011)
  3 by 4 by 4 MPI processor grid
create_atoms 1 box
Created 4000 atoms
  using lattice units in orthogonal box = (0.0000000 0.0000000 0.0000000) to (15.874011 15.874011 15.874011)
  create_atoms CPU = 0.002 seconds
set type 1 type/fraction 2 0.67 78393
Setting atom values ...
  2693 settings made for type/fraction
mass 1 1.0
mass 2 1.0
pair_style lj/cut  3.5
pair_modify tail  yes
pair_coeff 1  1  1.0  1.0   # Intearaction between 1 and 1 set with epsilon = 1 and sigma = 1
pair_coeff 1  2  1.5  0.8
pair_coeff 2  2  0.5  0.88

write_data data.0
System init for write_data ...
Neighbor list info ...
  update every 1 steps, delay 10 steps, check yes
  max neighbors/atom: 2000, page size: 100000
  master list distance cutoff = 3.8
  ghost atom cutoff = 3.8
  binsize = 1.9, bins = 9 9 9
  1 neighbor lists, perpetual/occasional/extra = 1 0 0
  (1) pair lj/cut, perpetual
      attributes: half, newton on
      pair build: half/bin/atomonly/newton
      stencil: half/bin/3d
      bin: standard
WARNING: Not all mixed pair coeffs generated from mixing. Use write_data with 'pair ij' option to store all pair coeffs. (../write_data.cpp:312)


#############################
#   M E L T   S Y S T E M   #
#############################

velocity all create 2.4 1741580 mom yes dist gaussian # Assign velocities
                                                    # Temperature 2.4, random number seed, zero linear momentum
                                                                                # Gaussian distribution

timestep 0.002   # simulation timestep
thermo 1000       # output thermodynamic data every 1000 steps bf 100

# Define a fix  in this case with index 1 applied to all
# particles in the simulation. This fix is for simulations
# in the anisotropic NPT ensemble. Note that we use the MTK
# correction.
fix 1 all npt temp 2.4 2.4 0.1 iso 5.68 5.68 0.5 mtk yes tchain 5 pchain 5 # Use NPT ensemble
                                                                         # Set temperature and pressure and damping
                                                                         # Numbers of thermostats in chain and in barostat
run 10000          # run for 10000 steps
Per MPI rank memory allocation (min/avg/max) = 3.642 | 3.644 | 3.648 Mbytes
Step Temp E_pair E_mol TotEng Press Volume 
       0          2.4   -4.3445498            0  -0.74544977   -3.8717164         4000 
    1000    2.4275106   -4.0281621            0  -0.38780651     5.882075    3607.4053 
    2000    2.4177296   -4.0550216            0  -0.42933378    5.7587812    3605.4446 
    3000    2.4402477   -3.9857763            0  -0.32631985    5.7546776    3644.1325 
    4000    2.4508863   -4.0248986            0  -0.34948819    5.8121217    3631.1848 
    5000    2.3457121   -4.0342655            0  -0.51657697    5.3949496     3637.938 
    6000    2.3827059   -3.9844162            0  -0.41125083    5.8332223     3631.032 
    7000    2.4150727   -4.0404833            0  -0.41878001    5.8820025    3599.7396 
    8000    2.3695685    -4.064358            0  -0.51089382    5.5243939    3617.4682 
    9000    2.4687952   -4.0276643            0  -0.32539729    6.0655204    3613.9485 
   10000    2.4067197   -4.0281454            0  -0.41896836    5.7736788    3609.7861 
Loop time of 2.64815 on 48 procs for 10000 steps with 4000 atoms

Performance: 652530.369 tau/day, 3776.217 timesteps/s
99.7% CPU use with 48 MPI tasks x no OpenMP threads

MPI task timing breakdown:
Section |  min time  |  avg time  |  max time  |%varavg| %total
---------------------------------------------------------------
Pair    | 1.2096     | 1.2698     | 1.3601     |   2.6 | 47.95
Neigh   | 0.21498    | 0.22345    | 0.24686    |   1.0 |  8.44
Comm    | 0.78264    | 0.89369    | 0.96628    |   3.6 | 33.75
Output  | 0.00024767 | 0.00025433 | 0.00031439 |   0.0 |  0.01
Modify  | 0.21943    | 0.24531    | 0.27488    |   3.1 |  9.26
Other   |            | 0.01565    |            |       |  0.59

Nlocal:        83.3333 ave          93 max          74 min
Histogram: 1 3 3 14 6 6 6 3 5 1
Nghost:        1756.96 ave        1791 max        1728 min
Histogram: 1 5 5 12 8 3 8 3 0 3
Neighs:        10571.8 ave       12020 max        8972 min
Histogram: 1 4 1 8 9 9 6 2 4 4

Total # of neighbors = 507447
Ave neighs/atom = 126.86175
Neighbor list builds = 902
Dangerous builds = 174

# Equilibrate just above the melting temperature to avoid step fn in T

fix 1 all npt temp 1.25 1.25 0.1 iso 5.68 5.68 0.5 mtk yes tchain 5 pchain 5
run 2000
Per MPI rank memory allocation (min/avg/max) = 3.644 | 3.646 | 3.650 Mbytes
Step Temp E_pair E_mol TotEng Press Volume 
   10000    2.4067197   -4.0281454            0  -0.41896836    5.7736788    3609.7861 
   11000    1.2330194   -5.9369532            0   -4.0878865    5.7272278    2773.6928 
   12000    1.2372081   -5.9530643            0   -4.0977161    5.5458046     2769.932 
Loop time of 0.653438 on 48 procs for 2000 steps with 4000 atoms

Performance: 528895.047 tau/day, 3060.735 timesteps/s
99.7% CPU use with 48 MPI tasks x no OpenMP threads

MPI task timing breakdown:
Section |  min time  |  avg time  |  max time  |%varavg| %total
---------------------------------------------------------------
Pair    | 0.30184    | 0.32462    | 0.34581    |   1.7 | 49.68
Neigh   | 0.041178   | 0.04329    | 0.04469    |   0.4 |  6.62
Comm    | 0.21325    | 0.23621    | 0.26276    |   2.4 | 36.15
Output  | 5.1945e-05 | 5.3114e-05 | 6.8396e-05 |   0.0 |  0.01
Modify  | 0.04076    | 0.044341   | 0.047631   |   1.0 |  6.79
Other   |            | 0.004933   |            |       |  0.75

Nlocal:        83.3333 ave          96 max          77 min
Histogram: 4 4 9 15 10 4 1 0 0 1
Nghost:        2106.94 ave        2129 max        2089 min
Histogram: 5 4 7 3 6 7 8 2 3 3
Neighs:        13779.6 ave       15731 max       12409 min
Histogram: 3 5 8 8 8 9 3 0 3 1

Total # of neighbors = 661422
Ave neighs/atom = 165.35550
Neighbor list builds = 141
Dangerous builds = 14

#############################
# L I N E A R  Q U E N C H  #
#############################

# Define solid atoms. This closely follows ten Wolde  Ruiz-Montero and Frenkel  Faraday Discuss  1996  104  93-110
# Compute components of the per-atom q6 vector
compute q6 all orientorder/atom degrees 1 6 components 6 nnn NULL cutoff 1.3 # compute the Q6 parameter.
                                                                             # Use all neighbours within 1.3 unit cell.

# get number of connections
compute coord_number all coord/atom orientorder q6 0.5

# An atom is solid if it has 8 or more connections (of a possible 14)
variable is_solid atom c_coord_number>=8
group solid dynamic all var is_solid    # Must be dynamic to update
dynamic group solid defined

# do clustering
compute cluster solid cluster/atom 1.3 # Create a cluster where all atoms within are solid and max 1.3 units from another member

# define chunks one chunk per cluster
compute clus_chunks solid chunk/atom c_cluster nchunk every compress yes  # Says which atoms are in which chunk

# count the size of each chunk
compute size_chunks solid property/chunk clus_chunks count


# Find the maximum entry in the vector of chunk sizes
variable max_n equal max(c_size_chunks)


# Thermo style which includes this variable
# thermo_style custom step temp pe vol v_max_n

thermo ${N}  # Print the thermo information every 100 steps
thermo 1000  

# Reset the npt fix at a lower temperature (below freezing)
fix 1  all npt temp  ${temp} ${temp}  0.1  iso  5.68  5.68  0.5  mtk yes tchain  5  pchain  5
fix 1  all npt temp  0.45 ${temp}  0.1  iso  5.68  5.68  0.5  mtk yes tchain  5  pchain  5
fix 1  all npt temp  0.45 0.45  0.1  iso  5.68  5.68  0.5  mtk yes tchain  5  pchain  5

dump dmp2 all dcd ${N} traj.dcd
dump dmp2 all dcd 1000 traj.dcd


compute msd all msd com yes
variable twopoint equal c_msd[4]/6/(step*dt+1.0e-6)
fix 9 all vector 10 c_msd[4]
variable fit equal slope(f_9)/6/(10*dt)
thermo_style custom step temp pe c_msd[4] v_twopoint v_fit v_max_n

fix 1 all npt temp 1.25 ${temp} 0.1 iso 5.68 5.68 0.5 mtk yes tchain 5 pchain 5
fix 1 all npt temp 1.25 0.45 0.1 iso 5.68 5.68 0.5 mtk yes tchain 5 pchain 5
run 2000000 # 5000000  # Run for this many steps
Neighbor list info ...
  update every 1 steps, delay 10 steps, check yes
  max neighbors/atom: 2000, page size: 100000
  master list distance cutoff = 3.8
  ghost atom cutoff = 3.8
  binsize = 1.9, bins = 8 8 8
  4 neighbor lists, perpetual/occasional/extra = 1 3 0
  (1) pair lj/cut, perpetual
      attributes: half, newton on
      pair build: half/bin/atomonly/newton
      stencil: half/bin/3d
      bin: standard
  (2) compute orientorder/atom, occasional
      attributes: full, newton on
      pair build: full/bin/atomonly
      stencil: full/bin/3d
      bin: standard
  (3) compute coord/atom, occasional
      attributes: full, newton on
      pair build: full/bin/atomonly
      stencil: full/bin/3d
      bin: standard
  (4) compute cluster/atom, occasional
      attributes: full, newton on
      pair build: full/bin/atomonly
      stencil: full/bin/3d
      bin: standard
Per MPI rank memory allocation (min/avg/max) = 9.847 | 9.851 | 9.857 Mbytes
Step Temp PotEng c_msd[4] v_twopoint v_fit v_max_n 
   12000    1.2372081   -5.9530643 1.0527349e-30 7.3106586e-33 8.3333333e+20            3 
   13000    1.2610801   -5.9671122    0.5720135 0.0036667531  0.046279961            7 
   14000    1.2628813   -5.9737234    1.0762909  0.006406493  0.044025112            3 
   15000    1.2511212   -5.9992592    1.5389806 0.0085498918  0.042926132            3 
   16000    1.2347557   -5.9896578    2.0479289  0.010666296  0.041880331            2 
   17000    1.2545921   -5.9470794    2.6021058   0.01275542  0.041859397            4 
   18000     1.273879   -5.9880137    3.1047944  0.014374048  0.042403494            1 
   19000    1.2450025   -6.0195091    3.7317879   0.01636749  0.042939018            2 
   20000    1.2470973   -6.0234868    4.2487933  0.017703305  0.043697682            2 
   21000    1.2512329   -5.9794479    4.8175183  0.019117136  0.044037754            3 
   22000     1.225026   -5.9773763    5.4317465  0.020574797  0.044487928            3 
   23000    1.2177975   -6.0061221    6.0179424  0.021804139   0.04509224            2 
   24000    1.2345344   -6.0111322    6.5527412  0.022752573  0.045466038            4 
   25000    1.2516846   -5.9986199     7.057026  0.023523419  0.045612297            3 
   26000    1.2655368   -5.9659806    7.6663893   0.02457176  0.045698497            4 
   27000    1.2280934   -5.9983513    8.2042436  0.025321739  0.045799687            2 
   28000    1.2369751   -6.0089646    8.7095516  0.025921284  0.045850931            1 
   29000     1.240097   -6.0215489    9.2730064   0.02664657    0.0459094            2 
   30000    1.2613105   -5.9769341    9.8691162  0.027414211  0.045965826            2 
   31000    1.2620855   -5.9713784    10.418641  0.028007098  0.045987104            2 
   32000    1.2604607   -6.0290353    10.847534  0.028248785  0.045929245            6 
   33000     1.253621   -5.9982419     11.33902  0.028633889  0.045819943            1 
   34000    1.2391629   -6.0136727    11.886245  0.029132952   0.04571501            2 
   35000    1.2592595   -5.9808674    12.329769  0.029356591   0.04558687            2 
   36000    1.2388297   -5.9864354      12.8483  0.029741435  0.045421124            3 
   37000    1.2349308   -6.0371715    13.382389  0.030140515  0.045265634            2 
   38000    1.2470637   -6.0172113    13.857902  0.030390135  0.045136327            2 
   39000    1.2437939   -6.0525111    14.408933  0.030788319  0.045027586            1 
   40000    1.2407359   -5.9947661    14.916663  0.031076381  0.044939743            2 
   41000    1.2376085   -6.0486258      15.4381  0.031378252  0.044812897            5 
   42000    1.2367923   -6.0182701    15.904596  0.031556738  0.044691839            7 
   43000    1.2508271   -6.0223316      16.4833   0.03194438  0.044595632            1 
   44000    1.2461636   -5.9913393    16.937416  0.032078438  0.044526812            3 
   45000    1.2334425     -6.02528    17.438626  0.032293751   0.04442594            3 
   46000    1.2139353   -5.9822675    18.019082  0.032643264   0.04434551            2 
   47000    1.2144953   -6.0260635    18.431876  0.032680631  0.044243213            3 
   48000    1.2435422   -6.0337876     19.00254  0.032990521  0.044148908            3 
   49000    1.2674739   -6.0602775    19.467825  0.033108546  0.044054925            3 
   50000    1.2450799   -6.0800142    19.940466  0.033234109  0.043987103            3 
   51000    1.2256522   -5.9935136    20.601938  0.033663298  0.043933904            3 
   52000    1.2250595   -5.9886025    20.944365  0.033564688  0.043873258            3 
   53000    1.2705329    -6.021311    21.581223   0.03393274  0.043817736            2 
   54000     1.233654   -6.0174666      22.1026   0.03410895  0.043784759            4 
   55000    1.2312988   -6.0056572    22.572786  0.034201191  0.043771359            3 
   56000    1.2301043   -5.9907998    23.166691  0.034474243  0.043729181            2 
   57000    1.2546274   -6.0637825    23.761379  0.034738858  0.043710789            3 
   58000    1.2352909   -6.0993045    24.272795  0.034874705  0.043709068            1 
   59000    1.2566741   -6.0118282    25.015841  0.035333109  0.043729783            3 
   60000    1.2275333    -6.015218    25.665809  0.035646957  0.043777417            1 
   61000    1.2418876   -6.0269186    26.072543  0.035618227  0.043820838            3 
   62000    1.2293995   -6.0264756     26.58954  0.035738629  0.043834033            1 
   63000    1.2349243   -5.9911951    27.085451  0.035827315  0.043850149            1 
   64000    1.2324919   -6.0100256    27.513853   0.03582533  0.043865891            5 
   65000    1.1914061   -6.0944542    27.920307  0.035795265  0.043858747            4 
   66000    1.2162494   -6.0154872    28.420379  0.035884317  0.043835116            2 
   67000    1.2287681   -5.9821856    29.143225  0.036247792  0.043824172            3 
   68000    1.2207483    -6.037589    29.394269  0.036022388  0.043806746            4 
   69000    1.2120365   -6.0558296    29.894107  0.036103993  0.043781823            3 
   70000    1.2347038   -6.0561427     30.65559   0.03649475  0.043773073            2 
   71000    1.2274939   -6.0379909    31.130211  0.036537807  0.043765589            2 
   72000    1.2416835   -6.0610944    31.652368  0.036634685  0.043760907            5 
   73000    1.2596235   -6.0866952    32.263883  0.036830917  0.043761633            3 
   74000    1.2247709    -6.055567    32.812561  0.036951082  0.043773952            2 
   75000    1.2320828   -6.0101178    33.734566  0.037482851  0.043803643            2 
   76000    1.2113603   -6.0020649    34.176171  0.037473871   0.04384644            4 
   77000    1.2319433    -6.063838    34.560366  0.037402993  0.043868011            2 
   78000    1.2267306   -6.0501793     35.12429   0.03752595   0.04389742            3 
   79000    1.1886103    -6.063147    35.679937  0.037637064  0.043929278            9 
   80000    1.2198225   -6.0759931    36.102141  0.037606397  0.043949453            3 
   81000    1.2226211   -6.0635524    36.658961  0.037714981  0.043974903            5 
   82000    1.2103506   -6.0723703    37.293969  0.037900375  0.043988014            1 
   83000    1.1946621   -6.0879637    37.655603   0.03780683  0.044006608            3 
   84000    1.2168727   -6.0560275    38.563179  0.038257122  0.044033779            2 
   85000    1.1806923   -6.0383915    38.895052  0.038132403  0.044062276            4 
   86000    1.2418173   -6.0833709     39.24109  0.038024312      0.04407            2 
   87000    1.2235207   -6.0522213    39.632561  0.037962223  0.044062068            1 
   88000    1.2371347   -6.0957761    40.016943  0.037894832  0.044059888            1 
   89000    1.2441222   -6.0328031    40.717306  0.038124818   0.04404868            4 
   90000    1.2142317   -6.0815241    41.026335  0.037987347  0.044030372            4 
   91000    1.2300987   -6.0726649    41.636542  0.038128701  0.044011559            4 
   92000    1.2229306   -6.0554079    42.180211  0.038206713  0.043996849            3 
   93000    1.2055556   -6.0928111    42.521727  0.038101906  0.043980117            1 
   94000    1.2006766   -6.0509511     43.14724  0.038251099  0.043968281            5 
   95000    1.2313551   -6.0595558    43.792617  0.038414576  0.043955073            2 
   96000    1.1902346   -6.0613465    44.048986  0.038236967  0.043935975            3 
   97000    1.2097452   -6.0597198    44.769403  0.038461686  0.043917384            2 
   98000    1.2151032   -6.0793463    45.196823  0.038432672  0.043905137            2 
   99000    1.2099739   -6.0773562    45.713072  0.038479016  0.043891829            2 
  100000    1.2013163    -6.066925    46.054453  0.038378711  0.043876768            3 
  101000    1.2213027   -6.0472093    46.699951  0.038531312  0.043854374            3 
  102000    1.2131885   -6.0832125    47.114231  0.038492019   0.04383741            2 
  103000     1.207729   -6.0637195    47.542226  0.038464584  0.043821504            3 
  104000    1.2361835   -6.0962511    48.381502  0.038767229  0.043810055            4 
  105000    1.2115785    -6.084733    48.810401  0.038738413   0.04380373            1 
  106000     1.208221   -6.0907138    49.325228  0.038777695  0.043788715            1 
  107000    1.2140092   -6.0432062    49.704362  0.038710562  0.043764663            2 
  108000      1.19303   -6.0521724    49.912078  0.038512406  0.043735557            5 
  109000    1.2307755    -6.082106    50.367955  0.038507611  0.043700568            4 
  110000    1.2310219   -6.0954829    50.856495  0.038527648  0.043668333            1 
  111000    1.2260607   -6.0680905     51.44894   0.03862533  0.043637567            2 
  112000    1.2127597   -6.1116976     51.92466  0.038634419  0.043610029            1 
  113000    1.2075954   -6.0511657    52.394106  0.038638721  0.043578864            4 
  114000    1.2442685   -6.0613311    52.835165  0.038622197   0.04354465            3 
  115000       1.2344    -6.056568    53.272228  0.038603063  0.043506647            3 
  116000    1.2089218    -6.058455    53.888665  0.038713121  0.043464453            3 
  117000    1.2119209   -6.0516088     54.12709  0.038552059  0.043423688            3 
  118000    1.2251162   -6.0965082    54.410958  0.038425818   0.04338449            5 
  119000    1.2051826    -6.112094    55.307548  0.038730776  0.043346221            4 
  120000    1.1776455   -6.0574195    55.859246  0.038791143   0.04331547            3 
  121000    1.1793418   -6.1159545    56.041928  0.038596369  0.043286452            2 
  122000    1.2004337   -6.0889909    56.660794  0.038702728  0.043251397            2 
  123000    1.2232896    -6.077799    57.151832  0.038720753   0.04322185            1 
  124000    1.1683983   -6.1103588    57.744019  0.038806464  0.043188801            3 
  125000    1.2126102   -6.0502412    58.194086  0.038796057  0.043152739            5 
  126000    1.1900086   -6.0961575    58.617196  0.038767987  0.043117731            3 
  127000    1.1962229   -6.0780857    59.165886   0.03882276   0.04307838            2 
  128000    1.1945899   -6.1444273    59.249972    0.0385742   0.04303748            3 
  129000    1.2001109   -6.0861231    59.735467  0.038588803  0.042994491            2 
  130000    1.2019759   -6.0702581    60.453594  0.038752304  0.042957204            3 
  131000    1.1957718   -6.1374845    60.885824   0.03873144  0.042925984            5 
  132000    1.2154521   -6.1023893    61.304617   0.03870241  0.042893814            5 
  133000    1.2106857   -6.0726141    62.341623  0.039061167  0.042871173            3 
  134000    1.1937073   -6.0675895    62.573431  0.038913825  0.042847715            1 
  135000    1.2128491   -6.1205546    62.807043  0.038769779   0.04281328            2 
  136000     1.220995   -6.0708108    63.234127  0.038746401  0.042781401            2 
  137000    1.2298974   -6.1315301    63.565068  0.038664883  0.042745719            3 
  138000    1.2073308   -6.0879835    64.401632  0.038889874  0.042714405            5 
  139000    1.1885435   -6.1097726    64.657118   0.03876326  0.042682765            2 
  140000    1.2082125    -6.062326    65.507339  0.038992464  0.042650145            4 
  141000    1.1967391   -6.0887293    65.968705  0.038988596  0.042625788            3 
  142000    1.2105228   -6.0627059    66.454497  0.038999118  0.042603432            4 
  143000    1.1858589   -6.0587883    67.103307  0.039104491  0.042584206            1 
  144000     1.200903   -6.0937644    67.599411  0.039120029   0.04256293            1 
  145000    1.2012942   -6.1368393     67.68757  0.038900902  0.042542684            3 
  146000     1.181236   -6.1276439    68.664079  0.039191826  0.042524573            2 
  147000    1.1919188   -6.1262341    68.957679  0.039091654  0.042511352            3 
  148000    1.2028746   -6.1047588    69.599504   0.03918891  0.042495401            4 
  149000    1.1630398   -6.1083521    70.216063  0.039270728  0.042482373            2 
  150000    1.1782855   -6.1210721    70.317166  0.039065092   0.04246736            4 
  151000    1.1942316   -6.1587419    70.745142  0.039042573  0.042451469            3 
  152000    1.1997844   -6.1316062     71.47217  0.039184303  0.042435087            2 
  153000     1.197011   -6.1534137    71.911832  0.039167664  0.042419461            3 
  154000    1.1534656   -6.0682379    72.829037  0.039409652   0.04240899            2 
  155000    1.1902582   -6.1129534    72.999393  0.039246985  0.042394632            3 
  156000     1.191894    -6.105977     73.29546  0.039153558  0.042377929            6 
  157000    1.1747696   -6.1398929    73.609767  0.039071001  0.042357478            2 
  158000    1.1846476   -6.1019374    74.264801  0.039169199  0.042337216            4 
  159000    1.1945739     -6.10495    74.808475  0.039207796  0.042319754            1 
  160000    1.2345745   -6.1044697    75.016624  0.039071158   0.04230016            2 
  161000    1.1938424   -6.1382923    75.497081  0.039077164  0.042277219            3 
  162000    1.2040022   -6.1288842    76.074879  0.039133168  0.042252652            3 
  163000    1.1641997   -6.1637345    76.524459  0.039122934  0.042231577            1 
  164000    1.1814957   -6.1065448    77.366216  0.039312101  0.042212256            2 
  165000    1.1846844   -6.1540724    77.568499  0.039176009  0.042197428            5 
  166000     1.194353   -6.1305012    78.035976  0.039174687  0.042180802            1 
  167000    1.1699723   -6.1282548    78.472311   0.03915784   0.04216669            1 
  168000    1.2065214   -6.1646817    78.810619  0.039092569  0.042150951            3 
  169000    1.2060495   -6.1387638     79.71386  0.039306637  0.042137162            3 
  170000    1.1787197   -6.0935156    80.361623  0.039392952  0.042123883            5 
  171000    1.1905977   -6.1516158    80.455591  0.039208378  0.042107388            3 
  172000    1.1843429   -6.0816768     80.95465  0.039222214  0.042091368            4 
  173000    1.1699166   -6.1497012    81.337521  0.039179923  0.042074035            3 
  174000    1.1921399   -6.1230201    81.934373    0.0392406  0.042056305            1 
  175000    1.1795067   -6.1409395    82.251791  0.039167519  0.042039812            1 
  176000    1.2061741   -6.1734392    82.328263  0.038981185  0.042019773            3 
  177000    1.1635234   -6.1641261    83.066018  0.039108295  0.041999009            2 
  178000    1.1776751   -6.1545359    83.682237  0.039177077  0.041978606            2 
  179000     1.178193   -6.1629625    83.895779  0.039057625  0.041956443            4 
  180000    1.1856444   -6.1479731    84.309402   0.03903213  0.041933642            3 
  181000    1.1812439   -6.1519409    84.739151  0.039014342  0.041909657            3 
  182000    1.1963706    -6.108729    85.175013  0.038999548  0.041879951            1 
  183000    1.1944979   -6.1061208     85.52171  0.038944312  0.041854218            2 
  184000    1.1553162   -6.1454866    86.137508  0.039011552  0.041826502            3 
  185000     1.193218   -6.1347841    86.439881  0.038936883  0.041798771            4 
  186000    1.1756677   -6.1521594    86.749954  0.038866467  0.041772147            6 
  187000     1.181605   -6.0866642    87.064888   0.03879897  0.041742961            4 
  188000     1.169113   -6.1358472    87.188575  0.038647418  0.041710975            6 
  189000    1.1776588   -6.2002644    87.505908  0.038582852  0.041677757            3 
  190000    1.2112488   -6.1761578    88.159094  0.038666269   0.04164424            3 
  191000     1.162012   -6.1454435    88.157288   0.03846304  0.041613084            2 
  192000    1.1813695   -6.1625206    89.239261  0.038732318  0.041581792            2 
  193000    1.2113457   -6.1900172    89.404675  0.038603055  0.041549378            4 
  194000    1.1636508   -6.1588474    90.193046  0.038742717  0.041517281            2 
  195000    1.1952379   -6.1687639    90.449189    0.0386535  0.041485942            3 
  196000    1.1780811   -6.1653228    90.579843  0.038511838  0.041453327            2 
  197000    1.1441148   -6.1405951    91.455068  0.038686577  0.041422135            3 
  198000    1.1833972   -6.1927036    91.534743  0.038524723  0.041390064            2 
  199000    1.1732621   -6.1585077    92.402938  0.038694698  0.041362448            5 
  200000    1.1828714   -6.1235097    92.686038  0.038619182  0.041333484            2 
  201000    1.1735275   -6.1285165    93.540751  0.038781406  0.041305836            1 
  202000    1.1633825    -6.185769    93.589775  0.038609643  0.041276343            1 
  203000    1.1700207   -6.1446094    94.311313  0.038715646   0.04125002            3 
  204000    1.1547346   -6.2098457    94.568064  0.038630745  0.041226541            3 
  205000    1.1938082   -6.1239172     95.81765  0.038950264  0.041205138            3 
  206000      1.15925   -6.1781747    95.928675  0.038806098   0.04118373            4 
  207000    1.1647133   -6.1482332    96.352137  0.038789105  0.041161352            3 
  208000    1.1838177    -6.149317    96.682073  0.038734805  0.041137818            3 
  209000     1.159578   -6.1691227    97.111559  0.038720717  0.041113335            4 
  210000     1.169715   -6.1898442    97.286205  0.038605637  0.041092148            3 
  211000    1.1804182   -6.1563406    97.882248  0.038658076  0.041068175            1 
  212000    1.1547476   -6.1848306    98.168641  0.038588302  0.041042905            5 
  213000    1.1785287   -6.2191308    98.790958   0.03865061  0.041015872            6 
  214000    1.1725434   -6.1778604    99.235654  0.038643167  0.040990917            6 
  215000    1.1760663   -6.1384681    100.20729  0.038840036   0.04096673            5 
  216000    1.1455558   -6.1885057    100.24189  0.038673568  0.040946465            5 
  217000    1.1604666   -6.1740722    100.75013  0.038690526  0.040921696            6 
  218000    1.1643156   -6.1849372    100.86986  0.038558815  0.040897278            7 
  219000    1.1521668    -6.157902     101.1831  0.038501939  0.040869154            1 
  220000    1.1699044   -6.2042168     101.1677    0.0383211   0.04083851            3 
  221000    1.1860686   -6.1512797    101.59578  0.038309118   0.04080853            2 
  222000    1.1670642   -6.1721581    101.52662  0.038110592  0.040775809            1 
  223000    1.1853596   -6.1763613     102.1049  0.038155792  0.040741976            4 
  224000    1.1830977   -6.1706991    102.50823  0.038135503  0.040708284            3 
  225000    1.1739441   -6.2023944    102.72855  0.038047612  0.040674591            2 
  226000    1.1631624    -6.183119    103.00108   0.03797975   0.04063991            4 
  227000    1.1748487   -6.1958117    103.55379  0.038015341   0.04060601            3 
  228000    1.1522172   -6.1986516    103.97857  0.038003864  0.040572021            3 
  229000    1.1502128   -6.1888622    104.87432  0.038163872  0.040538614            2 
  230000    1.1373616   -6.1465265    105.10703  0.038082256  0.040504818            3 
  231000    1.1350991   -6.1919573    105.15489  0.037934666  0.040470974            2 
  232000    1.1468349   -6.1618721    105.65453  0.037950621  0.040434201            2 
  233000    1.1497233   -6.2325436    106.09444   0.03794508  0.040401026            2 
  234000    1.1806176   -6.1576901    107.02783  0.038115326  0.040369362            5 
  235000    1.1726887   -6.1608503      107.797  0.038225888  0.040338122            4 
  236000    1.1524177   -6.2014949    108.11524  0.038176286  0.040308649            4 
  237000    1.1382917   -6.2085727    108.10624  0.038012038  0.040278611            2 
  238000    1.1549744   -6.2197298    108.65919  0.038045935  0.040248258            6 
  239000    1.1413688   -6.1923735      108.976   0.03799721  0.040217458            2 
  240000    1.1762081   -6.2540582    109.36877  0.037975267  0.040188575            6 
  241000    1.1830435   -6.2257004    110.15835  0.038090714  0.040159544            3 
  242000    1.1646257   -6.1831004    110.49193  0.038048186  0.040132831            3 
  243000    1.1480602   -6.2248129     110.3982  0.037859467  0.040106988            2 
  244000    1.1739273   -6.1807966    111.76516  0.038171162  0.040080033            2 
  245000     1.174347   -6.2093444    111.40116  0.037891552  0.040051474            1 
  246000    1.1488333   -6.1914367    111.60483  0.037806515  0.040021815            2 
  247000    1.1407412   -6.1820731    112.42463  0.037930037  0.039992478            5 
  248000    1.1581949   -6.2216307    111.73315  0.037544743  0.039960917            5 
  249000    1.1724327   -6.1983672    112.88721  0.037780192  0.039929463            5 
  250000    1.1542949   -6.2010709    113.11224  0.037704081  0.039897708            4 
  251000    1.1724036   -6.2239255    113.49711  0.037681644  0.039866586            2 
  252000    1.1426351   -6.2090359     113.9747  0.037690045  0.039833611            5 
  253000    1.1669858   -6.2005129    114.57849   0.03773995  0.039801293            3 
  254000    1.1467066    -6.189181    114.88945  0.037693389  0.039770745            5 
  255000    1.1441085   -6.2098806    115.23689  0.037659115  0.039739673            3 
  256000     1.151462   -6.2565527    115.39635  0.037563916  0.039709314            3 
  257000     1.157614   -6.2052388    116.29447  0.037708972  0.039679873            1 
  258000    1.1500272   -6.1962472    116.51837  0.037635131  0.039648528            6 
  259000    1.1437292   -6.2135854    116.84037  0.037593426  0.039617236            1 
  260000      1.16418   -6.2369594     116.9545  0.037485415   0.03958527            2 
  261000    1.1557718   -6.2597346    117.45314  0.037501002   0.03955268            4 
  262000     1.170554   -6.2104784    117.96431  0.037520454  0.039520457            2 
  263000    1.1283793   -6.2702576    117.63586   0.03727372  0.039489431            2 
  264000    1.1489752   -6.2565889    118.20908  0.037313472  0.039458823            2 
  265000    1.1682941   -6.1862757    119.43563  0.037558375  0.039429265            2 
  266000    1.1501064   -6.2839628    119.09604   0.03731079  0.039398815            3 
  267000    1.1673815   -6.2609587    119.19849  0.037203025  0.039367079            2 
  268000    1.1482812   -6.1727485    120.27321  0.037398387  0.039337118            2 
  269000    1.1557965   -6.2289672    120.76783  0.037412586  0.039308055            3 
  270000    1.1641613   -6.2086771    121.39439  0.037467403  0.039280153            2 
  271000    1.1621227   -6.1975836    121.83928  0.037465953  0.039251611            8 
  272000    1.1554077   -6.2513218    121.93674   0.03735807  0.039224892            5 
  273000    1.1446639   -6.2631905    122.06803  0.037261303   0.03919527            2 
  274000    1.1412123   -6.2367552    122.42114  0.037232705  0.039164911            4 
  275000    1.1359592   -6.2310607     122.5327  0.037131121  0.039135074            3 
  276000    1.1537807    -6.222526    124.06481  0.037459181  0.039106707            2 
  277000    1.1498335   -6.2229138    123.82763  0.037252598  0.039079181            2 
  278000    1.1411879   -6.2309199    124.20331  0.037231208  0.039051273            3 
  279000     1.126334   -6.2119606    125.03833  0.037347171  0.039023107            2 
  280000    1.1178859   -6.1979447    125.54653  0.037365037  0.038995033            2 
  281000    1.1329874   -6.2094068    125.43668   0.03719949  0.038966725            4 
  282000    1.1599746   -6.2165549    125.57706   0.03710906  0.038938169            5 
  283000    1.1537502   -6.2996531    125.31533  0.036900862  0.038908439            5 
  284000    1.1392319   -6.2582334    126.18865  0.037027185  0.038878602            2 
  285000    1.1487454   -6.2367423    126.56132  0.037006234  0.038848385            3 
  286000    1.1475365   -6.2658089     126.8899   0.03697258  0.038817943            3 
  287000    1.1370258   -6.2336381    127.39541  0.036990536  0.038787865            3 
  288000    1.1309352    -6.302427     127.0701   0.03676797  0.038758008            2 
  289000    1.1133546   -6.2481267    128.54528  0.037066114  0.038729193            4 
  290000    1.1311612   -6.2582162    129.68394  0.037265501  0.038704092            2 
  291000    1.1503134   -6.2002747    129.98079  0.037222447  0.038678783            3 
  292000    1.1417338   -6.2889343    129.56458  0.036976192   0.03865237            2 
  293000     1.139187   -6.2335525    130.01069  0.036976873  0.038624665            4 
  294000    1.1093689   -6.2582936    130.58257    0.0370132  0.038598813            2 
  295000    1.1282831   -6.2730116    130.72778  0.036928752  0.038572305            2 
  296000     1.145144   -6.2743514    131.15783  0.036925064  0.038544371            2 
  297000    1.1413881   -6.2484948    131.34538  0.036853362  0.038516627            1 
  298000    1.1211958   -6.2247253    131.90449  0.036886044  0.038490056            3 
  299000    1.1343772   -6.2641728    131.86262  0.036751008  0.038461479            6 
  300000    1.0905648   -6.2558688    132.75603  0.036876676  0.038433887            2 
  301000    1.1146513   -6.3112876    132.65945  0.036727422  0.038405512            4 
  302000    1.1269339   -6.2407069    133.66697  0.036883822  0.038379191            1 
  303000     1.144131   -6.2645241    133.73708  0.036781376  0.038352648            2 
  304000    1.1244369   -6.2920498    133.87763  0.036698911  0.038325841            4 
  305000    1.1413511   -6.2921102     134.4535   0.03673593  0.038298905            4 
  306000    1.1466169   -6.2830979    135.44496  0.036885881  0.038270965            1 
  307000    1.1314994   -6.2160668    135.74168  0.036846275  0.038245677            6 
  308000    1.1138302   -6.2602946    135.75807   0.03673108  0.038220289            2 
  309000    1.1299052    -6.260215    136.40163  0.036785769  0.038195602            6 
  310000    1.1320739   -6.2460993    137.29713  0.036907831  0.038171768            2 
  311000    1.1310809    -6.256836     137.3535  0.036804259  0.038148432            9 
  312000    1.1311691   -6.2795245    137.36074  0.036688231  0.038124745            3 
  313000    1.1595599   -6.2733057    138.10047  0.036767963  0.038102007            3 
  314000     1.134614   -6.2820894    138.48654  0.036753327  0.038079537            2 
  315000    1.1393073   -6.2855901    138.91308  0.036749492  0.038057322            4 
  316000    1.1347929    -6.269428    139.67062  0.036832969  0.038035515            3 
  317000     1.146811   -6.2747253    139.61502  0.036702162   0.03801278            2 
  318000    1.1310045   -6.2545666    139.74403  0.036620554  0.037988439            2 
  319000    1.1302203   -6.2972685    140.45418   0.03669127  0.037964719            6 
  320000    1.1345297   -6.2737257    140.19705  0.036509648  0.037940064            4 
  321000    1.1410152   -6.2778625    140.25871  0.036411919  0.037914782            5 
  322000    1.1272479   -6.3001045    140.93455  0.036473745      0.03789            3 
  323000    1.1135851   -6.2501581    141.41202   0.03648401  0.037865516            2 
  324000    1.1241926   -6.2153945    141.94761  0.036509159  0.037840074            3 
  325000     1.109752   -6.3022762     141.7478   0.03634559  0.037813092            4 
  326000    1.1262125   -6.2975175    142.00432  0.036299673  0.037786283            2 
  327000    1.1289324   -6.3008756    142.59405  0.036338953  0.037759739            2 
  328000    1.1263781   -6.2921911    143.62877  0.036491048  0.037734291            4 
  329000    1.1213808   -6.2854018    143.73597  0.036407288  0.037710549            3 
  330000    1.1089638   -6.2504237    144.06462  0.036379955  0.037687703            2 
  331000    1.1355093   -6.2901468    144.99482  0.036504235  0.037665635            4 
  332000    1.1305761   -6.3084449    144.45538   0.03625888  0.037642308            4 
  333000    1.1122086   -6.2471814    145.37553  0.036380262  0.037618275            2 
  334000    1.1268701    -6.323877    145.24578  0.036238967  0.037595446            1 
  335000    1.1163259   -6.2845884    146.04808  0.036330367  0.037571215            4 
  336000    1.1093551   -6.3048587    145.84082  0.036170838  0.037547597            3 
  337000    1.1112467   -6.2903648    147.21744  0.036403916  0.037522672            2 
  338000    1.1099568   -6.2959376    146.81689  0.036197458  0.037499592            9 
  339000    1.0856584   -6.2740392    147.66097  0.036298173  0.037477582            4 
  340000    1.1158667   -6.3133956    147.19527  0.036077271  0.037452994            4 
  341000    1.1148698    -6.320288    147.86398  0.036134893  0.037428658            3 
  342000    1.0929352   -6.2831748    148.12572  0.036093012  0.037404428            1 
  343000    1.1310971   -6.2839878    148.76452  0.036142984  0.037378801            3 
  344000     1.127423   -6.3185809     149.1849  0.036139754  0.037354558            2 
  345000    1.1279142    -6.270901    149.39059  0.036084685  0.037330384            2 
  346000    1.0973933   -6.3094543    149.81139  0.036081741  0.037305811            3 
  347000    1.1072358   -6.2910625    149.57596  0.035921221  0.037280444            5 
  348000     1.137461   -6.2614254    150.41539   0.03601901  0.037256013            4 
  349000    1.1008736   -6.2859262    150.80354  0.036008487  0.037231095            3 
  350000    1.1405385   -6.2788413    151.21101  0.036002621   0.03720667            4 
  351000    1.1398968   -6.3066109    151.53487  0.035976939  0.037182757            7 
  352000    1.1169633   -6.3086753    151.67052  0.035906847  0.037157262            2 
  353000    1.1175273   -6.2942891    152.42217   0.03598257  0.037132725            4 
  354000    1.0776222   -6.3237614    152.36431  0.035867305  0.037108379            3 
  355000    1.1283203   -6.3075544    152.94294  0.035902098  0.037083274            3 
  356000    1.1176577   -6.3106717    152.84454  0.035778217  0.037057587            7 
  357000    1.1070703   -6.3258421    153.25602  0.035774047  0.037032913            1 
  358000    1.0988927   -6.2731306    153.94656  0.035834859  0.037008094            2 
  359000    1.1075446   -6.2928148    153.83303  0.035708687  0.036981815            2 
  360000    1.1029892   -6.2673403    154.50468  0.035764972  0.036955293            3 
  361000    1.1255702   -6.3143761    154.71021  0.035713345  0.036928907            2 
  362000    1.0752307   -6.3302669    154.78199  0.035631212  0.036902239            4 
  363000    1.1094306    -6.290052    154.94599  0.035570706  0.036874876            4 
  364000    1.1083933   -6.3359733    154.95371  0.035474749  0.036847444            2 
  365000    1.1267601   -6.2855177    155.87279  0.035587395  0.036819746            7 
  366000    1.0968055   -6.2803877    156.15069  0.035553436  0.036792964            4 
  367000    1.1010675   -6.2767676    156.14617  0.035455533  0.036766069            1 
  368000    1.1055187   -6.2955191    156.54504   0.03544951  0.036738878            4 
  369000    1.1213515   -6.3036763    156.44037  0.035329803  0.036711821            4 
  370000    1.1229005   -6.3424821    156.83476  0.035323144  0.036684236            3 
  371000    1.1017305   -6.3321234    156.90781  0.035244342  0.036656086            2 
  372000    1.1025069   -6.3099393    157.24266  0.035224611  0.036627582            6 
  373000     1.101504   -6.3086124    158.14231  0.035331169  0.036599545            2 
  374000    1.0957582   -6.3215249    158.33541  0.035279725  0.036572092            4 
  375000    1.0957378   -6.3287235    159.03957  0.035342126   0.03654425            3 
  376000    1.1006061   -6.3500663    158.42669  0.035112298   0.03651594            6 
  377000    1.0910774   -6.3666943    159.13764  0.035176314  0.036487681            2 
  378000    1.0805743   -6.3162817     160.2167  0.035321141  0.036461439            2 
  379000    1.0875949   -6.3628696    159.72062   0.03511887   0.03643513            5 
  380000    1.0933951   -6.2910369    160.89884  0.035284834  0.036408236            2 
  381000    1.1119135   -6.3556844    160.92849  0.035198708   0.03638141            3 
  382000    1.1076676   -6.3410471    161.11357   0.03514694  0.036354853            4 
  383000    1.1201456   -6.3031394    161.58605  0.035157973  0.036329823            7 
  384000    1.0938155   -6.3950525     161.8223  0.035117687  0.036303581            3 
  385000    1.1090106   -6.3499313    162.11926  0.035090749  0.036276923            3 
  386000    1.1071951   -6.3344877    163.15893  0.035224294  0.036250466            3 
  387000    1.1082668   -6.3463922    162.85972  0.035068846  0.036225224            4 
  388000     1.117421   -6.3249977    163.29366  0.035071662  0.036199097            2 
  389000    1.1052994    -6.343068    164.09038  0.035152181  0.036173749            2 
  390000    1.1065414   -6.3542918    164.11373  0.035067036  0.036148152            8 
  391000    1.1061265   -6.3461356    164.54756  0.035069813  0.036122305            4 
  392000    1.0811899   -6.3586378    164.55817  0.034982605  0.036097633            1 
  393000    1.1017357   -6.3584595    165.32685  0.035056584  0.036072424            3 
  394000    1.1155561   -6.3237812    165.35995  0.034974608  0.036046882            4 
  395000    1.0977271   -6.3432825    165.34198  0.034882275   0.03602156            4 
  396000    1.0929735   -6.3867412    165.80099  0.034890781   0.03599673            6 
  397000    1.0935058   -6.3802336    166.32603  0.034913105  0.035972645            2 
  398000      1.10317   -6.3762005    166.21041  0.034801175  0.035947157            4 
  399000    1.1192559    -6.332927    167.05435  0.034890215  0.035922474            4 
  400000    1.0996378   -6.3716617    167.45076  0.034885575  0.035897348            3 
  401000    1.0916409   -6.3326326    167.74572  0.034859875  0.035872253            5 
  402000    1.0890463   -6.3997894    167.19791  0.034659601  0.035846455            7 
  403000    1.1217123   -6.3627609    167.99818  0.034739077  0.035820898            7 
  404000    1.1088126   -6.3740955    168.53299  0.034763405  0.035797064            5 
  405000    1.0901248   -6.3547821    169.02651  0.034779117  0.035773704            3 
  406000    1.0853916   -6.3502753    169.56808  0.034804614  0.035749632           13 
  407000    1.0747399   -6.3321316    169.92526  0.034792231  0.035726566            3 
  408000    1.0748977   -6.3516278    169.85121  0.034691833  0.035703073            6 
  409000    1.0980808   -6.3339822    170.39949  0.034718723  0.035679187            2 
  410000    1.0879827   -6.3596989    170.95988  0.034747943  0.035655077            2 
  411000    1.1200239   -6.3718125    171.55234  0.034783524  0.035631795            3 
  412000    1.0697459   -6.3690197    171.49092  0.034686675  0.035608629            3 
  413000     1.108563   -6.3947725    172.02357  0.034710164  0.035585502            3 
  414000     1.073478   -6.3816035    172.49377  0.034720968  0.035562164            5 
  415000     1.084739   -6.3686182    172.92242  0.034723378  0.035539206            3 
  416000    1.0945079    -6.390897    173.49582  0.034754771  0.035516376            2 
  417000    1.1008719   -6.3729496    173.66505  0.034705246  0.035493968            5 
  418000    1.1101909   -6.3813953    174.07562  0.034704071   0.03547189            2 
  419000    1.0697912   -6.3966456    173.43976  0.034494782  0.035449326            2 
  420000    1.0734127   -6.3671088     173.9092  0.034505794  0.035426454            3 
  421000    1.0903868    -6.385821    174.06525  0.034454721  0.035403885            1 
  422000    1.0511815   -6.3846309    174.59955  0.034478583  0.035381303            4 
  423000    1.0814493   -6.3958903    175.42741  0.034560167  0.035358623            1 
  424000    1.0712165   -6.3917977    175.73166  0.034538455  0.035337014            4 
  425000    1.0785798   -6.3271292    176.65808  0.034638839  0.035315148            3 
  426000    1.1196533    -6.399686    176.49001   0.03452465  0.035293493            2 
  427000    1.0831833   -6.3972504    176.42996  0.034432077  0.035271335            5 
  428000    1.0798195   -6.4090496    176.83972   0.03443141  0.035248622            3 
  429000    1.0742205   -6.4000443    177.64185  0.034506963  0.035226503            4 
  430000    1.0980599   -6.3761249    177.58709  0.034416103  0.035204518            3 
  431000    1.0747238   -6.3980293    178.38226  0.034489996   0.03518263            2 
  432000    1.0897936   -6.3493883    179.37391  0.034601449  0.035162109            3 
  433000    1.0626489   -6.3656948    179.57548  0.034560331  0.035141689            3 
  434000     1.084427   -6.3488185    179.69567  0.034503777  0.035121373            7 
  435000    1.0717333   -6.3880492    179.50181  0.034387319  0.035101466            3 
  436000    1.1070075   -6.3738678    180.45114  0.034489898  0.035081392            4 
  437000    1.0789311    -6.386307    180.34813  0.034391328  0.035060869            3 
  438000    1.0622311   -6.3713505    181.09403  0.034454724  0.035040625            3 
  439000     1.106725   -6.3584234    181.14759  0.034386407  0.035020613            6 
  440000    1.0923894   -6.4080475    181.71852  0.034416386  0.034999974            5 
  441000    1.0874294   -6.3882943    182.22628  0.034434294  0.034979675            3 
  442000    1.0879314   -6.3492252    182.36528  0.034382594  0.034959686            1 
  443000    1.0922476   -6.3893421    182.65901  0.034360235  0.034939536            8 
  444000    1.0817348   -6.4049805    182.99503  0.034345913  0.034919861            2 
  445000    1.0759229   -6.3833292    183.51788  0.034366644  0.034900203            8 
  446000    1.0814179   -6.4260882    183.17441  0.034225413  0.034880115            6 
  447000    1.0798272   -6.4070877    183.78188  0.034262095  0.034859882            3 
  448000    1.0718912   -6.4377597    183.60381  0.034152495  0.034838737            4 
  449000    1.0716717   -6.4687738    184.07938  0.034164696  0.034817166           16 
  450000    1.0794075   -6.4054251    184.91307  0.034243161  0.034796855            3 
  451000    1.0543945   -6.3952824    184.59748  0.034108921  0.034776026            3 
  452000    1.0620494   -6.4332017     184.6787  0.034048433  0.034754863            2 
  453000     1.057506   -6.3796383     185.8556  0.034189772   0.03473374            2 
  454000    1.0785006   -6.4466767    184.63922  0.033891194   0.03471241            9 
  455000    1.0748508   -6.3578204    186.43431  0.034145478  0.034691644            2 
  456000     1.051794   -6.4095167    186.55579  0.034092797  0.034670428            2 
  457000    1.0790259    -6.427843     185.9916  0.033915318  0.034649556            3 
  458000     1.048873   -6.4035838     185.7641  0.033799873  0.034627002            5 
  459000    1.0757824   -6.4318672    186.41727   0.03384482  0.034604604            2 
  460000    1.0659816   -6.4137116    187.48484  0.033964645  0.034582478            2 
  461000    1.0643221   -6.4108587    187.60272  0.033912277  0.034561262            3 
  462000    1.0504048   -6.4115236    187.66155  0.033849486  0.034539755            4 
  463000    1.0658219   -6.4399661    187.49495  0.033746391  0.034518199            3 
  464000    1.0640051   -6.3650706    188.75901  0.033900684  0.034496489            5 
  465000    1.0671734   -6.4067279    188.66279  0.033810535  0.034474776            5 
  466000    1.0702778   -6.4308936    189.06051  0.033809103  0.034452668            2 
  467000    1.0480756   -6.4606554    188.48064  0.033633234  0.034430351            4 
  468000    1.0604542   -6.4298416    189.25874  0.033699918  0.034408244            3 
  469000    1.0495103   -6.4363615    189.93473  0.033748175  0.034386395            6 
  470000    1.0678599   -6.4587167    189.92884  0.033675327  0.034364782            4 
  471000    1.0732979   -6.4187327    190.81309  0.033760278  0.034342826            3 
  472000    1.0625344   -6.3993582    190.93431  0.033710153  0.034321704            3 
  473000    1.0573797   -6.3710137    192.06069  0.033837331  0.034300852            4 
  474000    1.0432025   -6.3671595    192.06998  0.033767578  0.034280273            6 
  475000    1.0638092   -6.4204451    191.86296  0.033660168  0.034259052            3 
  476000    1.0676753   -6.4155507    192.07007  0.033625713  0.034237809            4 
  477000    1.0532183   -6.4104356    192.42797  0.033617744   0.03421642            3 
  478000    1.0789197   -6.4374619     192.9597  0.033640116  0.034195489            2 
  479000    1.0394639   -6.4182799     193.2933  0.033627923  0.034175625            6 
  480000    1.0835486   -6.4296613    193.16105  0.033534904  0.034155163            9 
  481000    1.0522292   -6.4129102    194.36582  0.033673912  0.034135455            3 
  482000    1.0462879   -6.4676805    193.75229  0.033497975  0.034115128            5 
  483000    1.0602606   -6.4564072    194.11883  0.033491862  0.034094303            5 
  484000    1.0551004   -6.4490788    194.68394  0.033519962  0.034074249            4 
  485000    1.0659434   -6.4751142    194.36811  0.033396583  0.034053111            4 
  486000    1.0971306   -6.4519415     194.5966  0.033367044   0.03403142            5 
  487000    1.0852215   -6.4053832    195.48042  0.033449764  0.034010438            2 
  488000    1.0372791   -6.4740313    196.00099  0.033470114  0.033989011            7 
  489000    1.0571873   -6.4127101    196.07444  0.033414186  0.033967465            3 
  490000    1.0746728   -6.4761476    195.27462   0.03320997  0.033946306            4 
  491000      1.04376   -6.4902809    195.67741  0.033210694  0.033924128            4 
  492000    1.0586923   -6.4510715    196.40244  0.033265997  0.033901765            4 
  493000    1.0456711   -6.4885473    196.64339  0.033239248  0.033879896            2 
  494000    1.0377346   -6.4471957    197.74467  0.033357737  0.033858594            4 
  495000    1.0578341   -6.4510208    197.00788  0.033166311  0.033837525            2 
  496000    1.0452734   -6.4563902    197.86153  0.033242864  0.033816488            2 
  497000     1.068594   -6.4881904    197.83873  0.033172155  0.033794252            4 
  498000    1.0750658   -6.4210413    198.11291  0.033151425  0.033771803            1 
  499000    1.0680667   -6.4448239    198.50682  0.033150771  0.033749937            3 
  500000    1.0477496   -6.4415211    198.31501  0.033052502  0.033727654            3 
  501000    1.0662743   -6.4661622     198.4238  0.033004624  0.033705071            6 
  502000    1.0467733   -6.4650064    198.96531   0.03302877  0.033683063            5 
  503000    1.0485839   -6.4395079    199.01174  0.032970799  0.033660695            3 
  504000    1.0543448   -6.4710179    199.90174  0.033052537  0.033638387            3 
  505000    1.0629841   -6.4346364      200.514  0.033088118  0.033616319            7 
  506000    1.0565912   -6.4515952    200.07178  0.032949898  0.033594504            1 
  507000    1.0409278    -6.448599    201.10395  0.033054561  0.033572729            3 
  508000    1.0467625   -6.4567717    200.77067  0.032934821   0.03355056            2 
  509000    1.0761472   -6.4646524    201.16648  0.032934917  0.033528168            6 
  510000    1.0587372   -6.4722681    201.36874  0.032903389   0.03350626            3 
  511000    1.0586559   -6.5029017    201.67082  0.032888262  0.033484277            3 
  512000     1.060207   -6.4662916    202.15405  0.032902677  0.033462995            6 
  513000    1.0589018   -6.5027621    201.77874  0.032777573  0.033441688            6 
  514000    1.0631592   -6.4447314    202.83081  0.032884373  0.033420158            5 
  515000    1.0628663   -6.4893933    202.05627  0.032695189  0.033398714            4 
  516000     1.042281   -6.4680843    202.52056  0.032706808  0.033376344            8 
  517000    1.0510098   -6.4931574    202.68528  0.032670097  0.033353709            5 
  518000    1.0639826   -6.4613479    203.17608  0.032685985  0.033330559            3 
  519000    1.0489962   -6.5157875    203.25223  0.032635232  0.033308146            3 
  520000    1.0556817    -6.438633     204.5426  0.032779263  0.033286747            5 
  521000    1.0801969   -6.4358916    204.91437   0.03277581  0.033265596            3 
  522000    1.0493035   -6.4832321    205.03758  0.032732692  0.033244306            3 
  523000    1.0568893   -6.4654772    205.47397  0.032739638  0.033223345            2 
  524000     1.031128   -6.5125706    205.73355   0.03271844  0.033201891            2 
  525000    1.0605348   -6.4742315    206.46069  0.032771537  0.033181338           10 
  526000    1.0562515   -6.4615938    206.83281  0.032768189  0.033161503            5 
  527000    1.0313713   -6.4932826      206.663  0.032679159  0.033141869            4 
  528000    1.0856839   -6.4811088    207.27174  0.032713343  0.033122217            1 
  529000    1.0613852   -6.4977206    207.18037  0.032637109  0.033102647            5 
  530000    1.0482195   -6.4415249    207.97446  0.032700386  0.033083043            2 
  531000    1.0458284   -6.4929476    208.09834  0.032658246  0.033063211            6 
  532000    1.0301421   -6.5241697    207.51644  0.032505707  0.033042145            5 
  533000    1.0522127   -6.4989185     208.3474   0.03257464   0.03302146            4 
  534000    1.0432202   -6.4962167    208.52776  0.032541785  0.033001005            2 
  535000    1.0391279   -6.5090869    208.49279  0.032475512  0.032980104            6 
  536000    1.0415649   -6.5458475    208.68098  0.032444182  0.032959321            2 
  537000    1.0569038   -6.4647206    210.32151  0.032638348  0.032939136            3 
  538000    1.0381726   -6.4700624    209.62355   0.03246957  0.032919319            3 
  539000    1.0317228   -6.5322959    209.24056  0.032350118  0.032899437            3 
  540000    1.0565461   -6.5642754    209.48967  0.032328653  0.032879303            6 
  541000    1.0468744   -6.4749645    210.65279  0.032448057  0.032858874            4 
  542000    1.0220694   -6.5312668    211.10645  0.032457942   0.03283904            3 
  543000    1.0490338   -6.4958948    210.72209  0.032339179  0.032819201            5 
  544000    1.0144558   -6.5129436    211.77676  0.032441293  0.032799274            5 
  545000    1.0220292   -6.5057511    211.23394  0.032298767  0.032778952            3 
  546000    1.0520123   -6.5002676    212.21967  0.032390059  0.032758545            5 
  547000    1.0521248   -6.5063435    211.80633  0.032267875  0.032738294            4 
  548000    1.0224949   -6.5138627    212.58261  0.032327039  0.032717771            3 
  549000    1.0312419   -6.5101783    212.50886  0.032256961  0.032697377            6 
  550000    1.0259968   -6.4821692    213.23597   0.03230848  0.032677116            3 
  551000    1.0326458   -6.5247524    213.05327  0.032222213  0.032656244            5 
  552000    1.0213269   -6.5016397    213.31282  0.032203023  0.032635337            2 
  553000    1.0467372   -6.5052928    213.59407  0.032187171  0.032614977            3 
  554000    1.0027487    -6.509428    214.13969  0.032211145  0.032594762            4 
  555000    1.0478991    -6.518353    214.24535  0.032168971  0.032574619            2 
  556000    1.0376929   -6.4973164    214.83732  0.032199839  0.032554494            2 
  557000    1.0246892   -6.5233722    214.33445  0.032066794  0.032534587            2 
  558000    1.0448721   -6.5018649    215.58804  0.032196541  0.032514824            2 
  559000    1.0289846   -6.5404201     215.1064  0.032067143  0.032494778            3 
  560000    1.0258568   -6.5220478    215.48514  0.032066241  0.032474498            2 
  561000    1.0332062   -6.4915559     215.8237  0.032059373  0.032454093            2 
  562000    1.0536256   -6.5421552    215.80052  0.031998891  0.032433947            3 
  563000    1.0182864   -6.5132452    216.40597  0.032031671  0.032413526            5 
  564000    1.0149958    -6.545158    215.88601  0.031898052  0.032392754            4 
  565000    1.0118663   -6.5220385    216.64384  0.031953369  0.032371809            4 
  566000    1.0277077   -6.5591641    216.79386  0.031919002  0.032351106            6 
  567000    1.0384229   -6.5216954     217.3116  0.031938801   0.03232992            5 
  568000    1.0424175   -6.5281105    216.45627  0.031757082  0.032308765            4 
  569000    1.0376873   -6.5264551    217.06698  0.031790711   0.03228782            7 
  570000   0.98346196    -6.512311    217.92401  0.031860235  0.032267243            4 
  571000    1.0537994   -6.5286929    218.66671   0.03191283  0.032247186            3 
  572000    1.0200516   -6.5737489    218.15998  0.031783214   0.03222647            4 
  573000    1.0284134    -6.503419    218.76306  0.031815453  0.032206136            3 
  574000    1.0119257   -6.5011984    219.43161  0.031857086  0.032185943            9 
  575000    1.0074675   -6.5630483    219.39973  0.031797062  0.032165697            7 
  576000    1.0298474   -6.5016057    219.67673  0.031781935   0.03214505            6 
  577000   0.99821856   -6.5001919    219.97022   0.03176924  0.032124195            5 
  578000    1.0066101   -6.5405147    219.53633   0.03165172  0.032103696            5 
  579000    1.0092379   -6.5373701    220.08069  0.031675401  0.032083159            3 
  580000    1.0154545   -6.5160872     220.5599  0.031689641  0.032063104            2 
  581000      1.01215   -6.4938921    221.57865  0.031781217  0.032042803            9 
  582000    1.0309328    -6.539492    221.47417  0.031711651  0.032022746            3 
  583000    1.0037624   -6.5803608    220.84057  0.031566691  0.032002724            2 
  584000    1.0210003   -6.5580783    221.70414  0.031635865    0.0319822            4 
  585000    1.0285219   -6.5458493    221.86042  0.031604049  0.031961721            3 
  586000    1.0237196   -6.5351594    222.08514  0.031582073  0.031942054            2 
  587000    1.0082077   -6.5466884    221.27748  0.031413612  0.031921602            6 
  588000    1.0282875   -6.4798622    222.96407  0.031599216  0.031900852            8 
  589000    1.0304603   -6.5570721    222.09092  0.031422032  0.031880273            3 
  590000    1.0108265   -6.5392646    222.31539  0.031400479  0.031859592            4 
  591000    1.0155219    -6.551145     223.0277  0.031447786  0.031838147            5 
  592000    1.0153629   -6.5880968    222.18983  0.031276721  0.031816517            5 
  593000    1.0067378   -6.5587656    222.92838  0.031327766  0.031795062            5 
  594000    1.0165209   -6.5380867    223.50856   0.03135642  0.031774101            2 
  595000    1.0347155    -6.586733    222.94017  0.031224114  0.031752761            2 
  596000    1.0148589   -6.5787204    222.97638  0.031176787  0.031731662            5 
  597000    1.0223794   -6.5282033     223.8656  0.031248687  0.031710492           10 
  598000    1.0282616   -6.5785339     225.0372  0.031359699  0.031689743            6 
  599000   0.99918411   -6.5591705    223.86259  0.031143933  0.031668615            6 
  600000    1.0140436   -6.5165723      224.963  0.031244861  0.031647605            4 
  601000    1.0329233   -6.5646857     224.7346  0.031161204  0.031626433            6 
  602000    1.0240996    -6.565649    224.77286  0.031114738  0.031605622            2 
  603000    1.0175427   -6.5548809    226.01616  0.031234959  0.031585209            5 
  604000   0.99155803   -6.5752773    225.52879  0.031116003  0.031564275            4 
  605000   0.99327354   -6.5257201     225.3709  0.031042824  0.031543101            2 
  606000    1.0172244   -6.5593126    225.95565  0.031072009  0.031521755            2 
  607000   0.99907395   -6.5420544    225.70724  0.030986715  0.031500576            3 
  608000    1.0373571   -6.5761558    225.47108  0.030903383  0.031478777            4 
  609000    1.0213173   -6.5309766    227.05581  0.031069487  0.031457088            2 
  610000    1.0262507   -6.5582653    226.37359  0.030925354  0.031434915            4 
  611000    1.0025947   -6.5701819    226.45294  0.030885561  0.031413017            4 
  612000    1.0067415    -6.593695    227.09377  0.030922354  0.031390328            7 
  613000     1.015522   -6.5760442    226.27714  0.030760894  0.031367704            8 
  614000    1.0049778   -6.5683739    227.21682   0.03083833  0.031345419            4 
  615000   0.99477672   -6.5806744    227.27016  0.030795414  0.031323207            5 
  616000    1.0013236    -6.557085    227.18099  0.030733359  0.031301283            5 
  617000    1.0056619   -6.6302629    227.20254  0.030686459  0.031279186            2 
  618000    1.0062314   -6.5689923    228.42655  0.030801854  0.031257039            3 
  619000   0.98702636    -6.572662    228.66112  0.030783672   0.03123492            4 
  620000   0.99946509   -6.5582872    228.73278  0.030743653  0.031213279            3 
  621000    1.0011801   -6.5508491    228.75294  0.030696852  0.031191697            7 
  622000    1.0099737   -6.5734475    228.96113  0.030675393   0.03116986            5 
  623000    1.0258409   -6.5537663    229.67206  0.030721249  0.031147982            3 
  624000    1.0077658   -6.5891924    229.28752  0.030620662  0.031126661            6 
  625000     1.018737   -6.5734091    229.71452  0.030628603  0.031105297            4 
  626000     1.000753   -6.5905228    229.75145  0.030584591  0.031083352            7 
  627000     1.001195   -6.5512898    230.82603  0.030678632  0.031061743            3 
  628000     1.028982   -6.5475564    231.03922  0.030658071  0.031040523            3 
  629000    1.0263746   -6.5993412    230.91819  0.030593294  0.031019254            4 
  630000    1.0049151   -6.6094755     230.5435  0.030495172  0.030997479            3 
  631000   0.99430681   -6.5905855    232.02799  0.030642893  0.030975776            8 
  632000    1.0261468   -6.5913556    230.98753  0.030457216   0.03095444            3 
  633000   0.96794524   -6.5884743    230.68634   0.03036945  0.030933047            3 
  634000    1.0134315   -6.5829278     231.4792  0.030425762  0.030911564            3 
  635000     1.026316   -6.6104143    231.52327  0.030383631  0.030889883            5 
  636000    0.9873045   -6.5750205    232.34466  0.030443483  0.030867926            2 
  637000    1.0003627   -6.6218946    231.66435  0.030306692  0.030845797            8 
  638000    1.0110856   -6.6211923    232.32812  0.030345888  0.030823588            2 
  639000   0.99728881    -6.602752    232.72163  0.030349717  0.030801331            5 
  640000    1.0093679   -6.6308919    232.61494  0.030288404  0.030779459            5 
  641000   0.99751581   -6.5618541    234.08653  0.030432467  0.030758107            4 
  642000    0.9778745   -6.6425965    233.16496  0.030265442  0.030736773            2 
  643000    1.0104597   -6.5839833    234.01869  0.030329016   0.03071506            4 
  644000    1.0018442   -6.5845955    234.25799  0.030312888  0.030693749            4 
  645000   0.99455292   -6.6417844    233.48308  0.030165773  0.030671682            7 
  646000   0.97952677   -6.5959623    234.85704  0.030296316  0.030650073            6 
  647000   0.97874528     -6.60913    234.51529  0.030205473  0.030629068            3 
  648000    1.0003758   -6.6276969    235.33714  0.030264549  0.030608175            3 
  649000   0.98407234   -6.6170117    235.72688  0.030267961  0.030587581            3 
  650000   0.99457901   -6.6248188     235.8313  0.030234782    0.0305671            2 
  651000    1.0016264   -6.5951367    236.15927  0.030230321  0.030546574            3 
  652000   0.99207503   -6.6208022    235.93377  0.030155135  0.030525793            8 
  653000    1.0069128    -6.622765    236.41144  0.030169914  0.030504872            6 
  654000    1.0048224   -6.6021532     237.1023  0.030211811  0.030484346            3 
  655000   0.98831633    -6.635429    236.77954  0.030124623  0.030463866            5 
  656000   0.98283645   -6.6371045     236.5711  0.030052223  0.030443185           13 
  657000   0.99651543   -6.6064771    236.86671  0.030043976  0.030422118            3 
  658000    1.0147869   -6.6115603    237.29358  0.030052378  0.030401155            3 
  659000    1.0036544    -6.641011    237.08376  0.029980242  0.030380306            3 
  660000   0.97847132   -6.6445047    237.55384  0.029994172  0.030359546            7 
  661000    1.0167605   -6.6233621    237.82117  0.029982498  0.030338541            3 
  662000    0.9955632   -6.5701991    239.25986   0.03011831   0.03031792            7 
  663000   0.96548708   -6.6560982     238.4329  0.029968941  0.030297271           10 
  664000   0.99573807   -6.5991176    239.13878  0.030012397  0.030276535            4 
  665000   0.97973554   -6.6363937    238.01021   0.02982584   0.03025523            4 
  666000   0.98685725   -6.5679846    239.53694  0.029972089  0.030234164            8 
  667000   0.97488018   -6.6156545    239.54734  0.029928453  0.030213291            5 
  668000   0.98828455   -6.6317464     238.7134  0.029779616  0.030192341            5 
  669000   0.99209402   -6.6667995    238.77286  0.029742509   0.03017117            4 
  670000   0.98233389    -6.675075    239.87429   0.02983511  0.030149955            4 
  671000   0.98356814   -6.6418287    240.30316   0.02984391  0.030128987            3 
  672000   0.99807705   -6.6054637    240.21808  0.029788948  0.030108488            5 
  673000   0.97601728   -6.6174246     240.0153  0.029719577  0.030087852            6 
  674000   0.99827248   -6.6676086    239.99905  0.029673473   0.03006666            6 
  675000   0.97719774   -6.6696113    240.88563  0.029738967  0.030045893            6 
  676000   0.98168615   -6.6003864    241.59476  0.029782392  0.030025048            4 
  677000   0.98920829   -6.6232414    241.26825  0.029698209  0.030004315            3 
  678000   0.97620642    -6.642668    241.82528  0.029722872  0.029983965            4 
  679000   0.96182549   -6.6548069    241.62073  0.029653992  0.029963398            4 
  680000   0.96696496   -6.6245089    242.58216  0.029728205  0.029942704            4 
  681000    0.9684924   -6.6338574    242.74096  0.029703984  0.029922634            5 
  682000   0.99208157   -6.6560912     243.0127  0.029693634  0.029902548            2 
  683000   0.96937862   -6.6623357    242.77836  0.029621567  0.029882176           10 
  684000   0.97538024    -6.662993    242.89537  0.029592516  0.029861845            4 
  685000   0.98658248   -6.6739007    243.10483  0.029574797  0.029841403            5 
  686000   0.99248919   -6.6275132    243.74429  0.029609365  0.029821077            3 
  687000   0.98983954   -6.6389355    243.21369  0.029501903  0.029800627            3 
  688000   0.98497983   -6.6585161    244.31185  0.029592036  0.029779796            5 
  689000    0.9662804   -6.6408249    243.54893  0.029456813  0.029759025            7 
  690000   0.95645669   -6.6792732    244.27302  0.029501572   0.02973824            4 
  691000   0.96578869   -6.6150915    243.91656   0.02941589  0.029717733            4 
  692000    0.9721821   -6.6546813    243.69691   0.02934693  0.029697083            5 
  693000   0.99176145    -6.692332    243.87432  0.029325916  0.029675838           14 
  694000   0.96092093   -6.6796793    244.20911  0.029323861  0.029654638            5 
  695000   0.98614414   -6.6676335    244.69365  0.029339766  0.029633798            5 
  696000   0.98616192   -6.6042193    245.27406  0.029367104  0.029613123            2 
  697000    0.9672684   -6.6798567    244.70521   0.02925696  0.029592225            4 
  698000   0.98189688   -6.6747133    244.59535  0.029201928  0.029570955            9 
  699000   0.95798091   -6.6719411    244.83662  0.029188915  0.029549437            4 
  700000   0.97605294   -6.6650241    244.77829  0.029140273  0.029527892            5 
  701000   0.97376607   -6.7147878    244.54873  0.029071413  0.029506179           11 
  702000   0.96403143   -6.6424025    245.08976  0.029094225  0.029484778            3 
  703000   0.95844799   -6.6568264    245.53566  0.029105697  0.029463719            4 
  704000   0.97911805   -6.7004335    246.01651  0.029121273  0.029442549            5 
  705000   0.96620032   -6.6555909    246.40983  0.029126458  0.029421144            3 
  706000   0.96610474   -6.6579829    246.20467  0.029060985  0.029399949            8 
  707000   0.98490044   -6.6414142    247.28587  0.029147321  0.029379255            3 
  708000   0.97497894   -6.6743887    246.81253  0.029050439   0.02935838            8 
  709000   0.96704641   -6.6736783    246.55088  0.028978712  0.029337093            4 
  710000     0.978878   -6.6624212    246.79373  0.028966401  0.029316085            3 
  711000   0.97365534   -6.7193382    246.78826  0.028925019  0.029294729            3 
  712000      0.94939   -6.6988422    246.94096  0.028902266  0.029273231            3 
  713000   0.96431792   -6.6810362    247.33774  0.028908104  0.029252075            5 
  714000   0.96452962   -6.6714898    248.36446  0.028987449   0.02923103            6 
  715000   0.95132132   -6.6594796    248.48978  0.028961513   0.02920995            5 
  716000   0.95576214   -6.6590689    248.62903   0.02893727  0.029189055            5 
  717000   0.95354088   -6.6887114    248.65511  0.028899943  0.029168433            6 
  718000   0.94284041    -6.654617    248.58453  0.028851501  0.029147826            8 
  719000   0.97693316   -6.6834251    248.76133  0.028831865  0.029126865            2 
  720000   0.98314371   -6.6682976    248.62792   0.02877638  0.029106194            3 
  721000   0.97012503   -6.6888945    248.93827  0.028772338  0.029085361            2 
  722000   0.96101246   -6.6323309     249.6986  0.028820245  0.029064713            3 
  723000   0.95010961   -6.7154416     248.5297  0.028645655  0.029043546            4 
  724000   0.95409315   -6.6949673    249.84193  0.028757128  0.029022476            9 
  725000   0.94260831   -6.7212209    249.32442  0.028657979  0.029001684            8 
  726000   0.97643581   -6.6965045     249.8667  0.028680751   0.02898059            4 
  727000   0.97664987   -6.6872993    250.67243  0.028733657  0.028959561            4 
  728000   0.97477255    -6.665884     251.3833   0.02877556  0.028938689            7 
  729000   0.98300693   -6.6978691    250.84876  0.028674984  0.028918524            5 
  730000   0.97695449   -6.6661637    251.76027  0.028739757   0.02889812            5 
  731000   0.96115023   -6.6536104    252.54356  0.028789736  0.028877928            6 
  732000   0.95285204   -6.7154639    251.17978  0.028595148  0.028857973            8 
  733000    0.9595264   -6.6871984    251.49366  0.028591821  0.028837591            2 
  734000   0.95221632   -6.7313601    251.87748  0.028596444  0.028816968            5 
  735000   0.95270712   -6.7072019    251.22519  0.028483582  0.028796283            8 
  736000   0.96797218   -6.7225666    251.75296  0.028504638  0.028775261            2 
  737000   0.95998516   -6.7344771    251.69202  0.028459071  0.028754467            9 
  738000   0.97837113   -6.6910773    252.64793  0.028528447  0.028734032            4 
  739000   0.95780023   -6.6985479     252.3088  0.028451602  0.028713367            4 
  740000      0.95707   -6.7147556    252.29339  0.028411418  0.028692464            3 
  741000   0.98165429   -6.6958873    252.75109  0.028424549  0.028671633            5 
  742000   0.95343154   -6.6867914    253.01893  0.028416322  0.028651284            6 
  743000   0.97257506   -6.7160823    253.14357  0.028392056  0.028631064            4 
  744000   0.96409434   -6.7186653    253.00878  0.028338797  0.028610338            4 
  745000   0.95613423     -6.68913     253.2648  0.028329396  0.028589561            2 
  746000   0.96189847   -6.7211074    253.39566  0.028306038  0.028569005            6 
  747000   0.96192048   -6.6995539    253.81378  0.028314791  0.028548547            4 
  748000   0.96953067   -6.7282048    254.04468   0.02830266  0.028527985            7 
  749000   0.94951019   -6.6937337    254.03183  0.028263444  0.028507464            7 
  750000   0.95545998   -6.6880607    254.22387  0.028247097  0.028487079            3 
  751000   0.96152666    -6.727614    254.45231  0.028234833  0.028466647            4 
  752000   0.95039068   -6.6780745    255.02783  0.028261062  0.028446468            8 
  753000   0.95512816   -6.7205377    254.45004  0.028159588  0.028426099            3 
  754000   0.94843914    -6.750907    254.51234  0.028129127  0.028405595            3 
  755000   0.94686277   -6.7493677    254.80705  0.028124399  0.028384849            8 
  756000    0.9594461   -6.7439937    255.32654  0.028144459  0.028364139            4 
  757000    0.9482058   -6.7294497    254.88803  0.028059009  0.028343531            3 
  758000   0.94378637   -6.7319381    254.94412  0.028028158  0.028322593           11 
  759000   0.94754349   -6.7408182    255.73447  0.028078005  0.028301888            4 
  760000   0.95297837   -6.7398316    255.94595  0.028064249  0.028280951            4 
  761000   0.94782116   -6.7131463    255.78289  0.028009515  0.028260308            5 
  762000    0.9210973   -6.7105433    255.96174  0.027992317  0.028239552            4 
  763000   0.93054862   -6.6947712    256.43588  0.028007414  0.028219004            5 
  764000   0.94452595   -6.7546844    256.03079  0.027926569  0.028198483            4 
  765000   0.94624248   -6.7349719     255.9117  0.027877091  0.028177641            3 
  766000   0.94117144   -6.7435828    256.59608  0.027915152  0.028156871            6 
  767000   0.93426907   -6.7333815    256.75677  0.027896215  0.028136119            4 
  768000   0.94560076    -6.754259    256.50714  0.027832806  0.028115346            6 
  769000   0.95651294    -6.708406    257.67248  0.027922896  0.028094744            4 
  770000    0.9506039   -6.7335754      257.582   0.02787684  0.028074144            4 
  771000   0.95252752   -6.7678419    256.28756  0.027700774  0.028053533            7 
  772000   0.94964178   -6.7670566    257.11645  0.027754366  0.028032829            7 
  773000   0.95257206    -6.726681    257.11587  0.027718399  0.028012212            5 
  774000   0.96338065   -6.7462555    257.95205  0.027772615  0.027991594            5 
  775000   0.92182646   -6.7449785    258.29662  0.027773831  0.027970821            4 
  776000   0.94688834   -6.7841843    257.91909  0.027697497  0.027950077            5 
  777000   0.93080291   -6.7761012    256.94369  0.027557238  0.027929034           12 
  778000   0.92560706   -6.7006551    258.94434  0.027736111  0.027908384           12 
  779000   0.92704568   -6.7318104    258.84108   0.02768946   0.02788812            5 
  780000   0.94619015   -6.7440376    259.05974  0.027677323  0.027867593            6 
  781000    0.9489008    -6.747988    259.10056   0.02764624  0.027846805            6 
  782000   0.93657179   -6.7640679    258.92986  0.027592696  0.027826133            6 
  783000   0.93571868    -6.762855    258.46004  0.027507454  0.027805394           11 
  784000   0.93628342   -6.7347421    258.63225  0.027490673  0.027784399            5 
  785000   0.97336163   -6.7608104    259.78706  0.027578245  0.027763415            7 
  786000   0.94073468   -6.7543705    259.39332  0.027501413  0.027742588            4 
  787000   0.91560304   -6.7799536     258.7791   0.02740143  0.027721592            4 
  788000   0.94792711   -6.7703049     260.1657  0.027513293  0.027700589            7 
  789000   0.94749459   -6.7928215    259.07171  0.027362876  0.027679656            4 
  790000   0.94194073    -6.788117     259.1326  0.027334662  0.027658406            5 
  791000   0.94485525   -6.7797174    258.39954  0.027222877  0.027637015            5 
  792000   0.93751163   -6.7404699    260.40971  0.027400011  0.027615628            8 
  793000    0.9463494   -6.7892953    259.35601   0.02725473  0.027594259            4 
  794000   0.93290251   -6.7490229    259.92542  0.027280166  0.027573069            9 
  795000   0.94165072   -6.6965615    259.85352  0.027238315  0.027552026            9 
  796000   0.91440415   -6.7555712      260.289  0.027249686  0.027531088            5 
  797000   0.92854998   -6.7604034    259.94571  0.027179602  0.027510008            2 
  798000   0.93502635   -6.7529256    260.94823  0.027250232  0.027488836            5 
  799000    0.9309572   -6.7966269    260.47723  0.027167003  0.027467488            6 
  800000   0.93757946   -6.7849516    259.91018  0.027073977  0.027445817            7 
  801000   0.92536285   -6.7302888    261.03264  0.027156954  0.027424532            3 
  802000   0.91784839   -6.7515275    260.92538  0.027111947  0.027403268            6 
  803000   0.91782041   -6.7867572    260.62658  0.027047175  0.027382082           10 
  804000   0.93108071   -6.7844147    261.46759  0.027100703  0.027360637            7 
  805000   0.92814434   -6.7774683    261.46307   0.02706657  0.027339369            3 
  806000    0.9531588   -6.7782623    262.08933  0.027097738  0.027318276            4 
  807000   0.92314681   -6.7778011     261.6336    0.0270171  0.027297203            7 
  808000   0.93733683   -6.7635629    261.71668  0.026992232  0.027276195            3 
  809000   0.92338774   -6.7664565    262.16421  0.027004966  0.027255025            7 
  810000   0.93715604   -6.7576955    262.66912  0.027023572   0.02723414            9 
  811000   0.93079199   -6.7574847    262.99293  0.027023523  0.027213385           10 
  812000   0.95001029   -6.8003125    262.34039  0.026923275  0.027192425            3 
  813000   0.91924428   -6.7513862    263.34069  0.026992691  0.027171722            3 
  814000    0.9450366   -6.7837374    262.53469  0.026877016  0.027150859            3 
  815000   0.92414669   -6.7862628     262.8458  0.026875848  0.027130312            4 
  816000   0.93211317   -6.7839478    263.00277  0.026858943  0.027109254            3 
  817000   0.93397485   -6.7679161    263.62925  0.026889968  0.027088418            6 
  818000   0.92755617   -6.7683742    264.36296  0.026931842  0.027067746            5 
  819000   0.92040743   -6.7698223    263.91391  0.026853268  0.027047323            5 
  820000   0.92863634   -6.7876234    263.98123  0.026827361  0.027026689            4 
  821000   0.92730185   -6.7666336    264.24914  0.026821878  0.027006184            4 
  822000    0.9325179   -6.8030035    264.00857  0.026764859  0.026985672            4 
  823000   0.92008217   -6.7715842    265.73263  0.026906909  0.026965532            5 
  824000   0.91694613   -6.7868573    265.16058  0.026816402  0.026945245            3 
  825000   0.91482225   -6.8092313    264.82976   0.02675048  0.026924695            4 
  826000   0.90346696   -6.8028804    264.98976  0.026734237  0.026904177            6 
  827000   0.92974802    -6.771878    264.97896  0.026700822  0.026883775            6 
  828000   0.92564575   -6.7785349    266.04484   0.02677585  0.026863565            4 
  829000   0.93129343   -6.8159166    265.48903  0.026687679  0.026843361            6 
  830000   0.92908712   -6.8151528    265.61853  0.026668527  0.026823237            5 
  831000   0.90276134   -6.7875389    266.56244  0.026731091  0.026803016            7 
  832000   0.90219612   -6.7936082    265.81995  0.026624594    0.0267829            9 
  833000   0.91636677   -6.7963548    265.68696  0.026579328   0.02676259            5 
  834000   0.91773427   -6.7945658    265.75577  0.026554334  0.026742179            4 
  835000   0.91180811   -6.7918299    266.64649  0.026611426  0.026721634            6 
  836000   0.91564276   -6.7793174    265.97736  0.026512894  0.026700974            3 
  837000   0.91162815   -6.8029232    266.12608  0.026496026  0.026680691            4 
  838000   0.93345989   -6.8170334     266.4969  0.026501283   0.02666033            5 
  839000   0.91715535   -6.8006083     266.7016  0.026490027   0.02663988            2 
  840000   0.90341632   -6.7900677    266.03747  0.026392606  0.026619601            8 
  841000   0.91736719   -6.8310407    265.63668   0.02632151  0.026599315            4 
  842000   0.92571563   -6.7809568    266.55987  0.026381618  0.026578804            5 
  843000   0.91841699   -6.8263459     266.2372  0.026318426  0.026558234            5 
  844000   0.92295137   -6.8240402     267.2784  0.026390047  0.026537489            5 
  845000   0.92380438   -6.8394628    267.52104  0.026382746  0.026516954            6 
  846000   0.91538421   -6.8443015    266.73606  0.026274237  0.026496365            5 
  847000    0.9301085   -6.8295418     267.6345  0.026331611  0.026475834            5 
  848000   0.90663041   -6.8399915    267.29173  0.026266876  0.026455235            9 
  849000   0.92109427   -6.8444585    267.24516  0.026231366  0.026434851            5 
  850000   0.92967938   -6.8414691    267.46201  0.026221765    0.0264143            6 
  851000    0.9097479   -6.8559827    267.48404   0.02619311  0.026393796            8 
  852000   0.91000083   -6.8762766    267.73428  0.026186843  0.026373376           15 
  853000   0.92471384   -6.9006748    266.71609  0.026056672  0.026352908            9 
  854000   0.89628399   -6.8430999    268.75187  0.026224812  0.026332468           15 
  855000   0.91488572   -6.8512544    268.59353  0.026178706  0.026312337            3 
  856000   0.93021438   -6.8360327    269.43986  0.026230516  0.026292222            3 
  857000   0.89392765   -6.8418112    268.19871  0.026079221  0.026272121            5 
  858000   0.91419038   -6.8279805    268.67698  0.026095278  0.026251991            4 
  859000   0.92510955   -6.8432096    268.86538  0.026083176  0.026231835            6 
  860000   0.90982724   -6.8252582    269.56755  0.026120887  0.026211605           10 
  861000    0.8950055   -6.8093235    269.63342  0.026096924  0.026191647            3 
  862000   0.90101738   -6.8976915    268.97448  0.026002947  0.026171825            6 
  863000   0.89993968   -6.8276784    270.58887  0.026128705  0.026152161            6 
  864000   0.92058649   -6.8513424    269.95351  0.026037183  0.026132421            6 
  865000   0.90124225   -6.8135769    270.26957  0.026037531  0.026112907            4 
  866000   0.90784824   -6.8655105    270.77497  0.026056098   0.02609337            7 
  867000   0.91737499   -6.8422115    271.37578  0.026083793  0.026073694            7 
  868000   0.91425072   -6.8520186    270.52607  0.025972165  0.026054144           11 
  869000   0.90816978   -6.8499152    270.62581  0.025951842  0.026034364            8 
  870000   0.90931348   -6.8654102    271.53097  0.026008714  0.026014855            4 
  871000   0.92580413   -6.8786218    271.26635  0.025953535  0.025995276            6 
  872000   0.89921701   -6.8648428    271.23017  0.025920315  0.025975568            9 
  873000   0.90900086   -6.8572634    270.99429  0.025868107  0.025955965            6 
  874000   0.89986803   -6.8560847    271.12168  0.025850656  0.025936163            6 
  875000   0.90324622   -6.8327371    271.38622  0.025846307  0.025916416            6 
  876000   0.90220458   -6.8562834    271.61778   0.02583883  0.025896589           14 
  877000   0.90982984   -6.8418012    272.41419  0.025885043   0.02587691            6 
  878000   0.91080011   -6.8967195    271.22168  0.025742376  0.025856959            4 
  879000   0.91047144    -6.869605     271.4454    0.0257343  0.025837135            5 
  880000   0.89794208   -6.8697463    272.36369  0.025792016  0.025817152            5 
  881000   0.90203735   -6.8449287    273.05035  0.025827691  0.025797247            5 
  882000   0.89136793   -6.8397065    271.90595  0.025690282  0.025777529            6 
  883000   0.91140125    -6.881345     272.5426  0.025721273  0.025757638            9 
  884000   0.90928014   -6.8540932    272.31982  0.025671174   0.02573776            5 
  885000   0.91678488   -6.8508805     272.0284  0.025614727  0.025717928           10 
  886000   0.89042986   -6.8886725    272.22498  0.025604306  0.025697958           11 
  887000   0.90781496   -6.8766094    271.96662  0.025551166  0.025678082            6 
  888000   0.89245209   -6.8763218    272.79259  0.025599905  0.025658233            5 
  889000   0.90142811    -6.841628    273.19989  0.025609288   0.02563818           13 
  890000   0.88422048   -6.8791602    273.18318  0.025578949  0.025618036           15 
  891000   0.90997092   -6.8911448    273.30311  0.025561458  0.025598132           17 
  892000    0.9125338   -6.8736441    272.32422  0.025441351  0.025578092            6 
  893000   0.87474253    -6.831572    273.57233  0.025529332    0.0255582            8 
  894000   0.89448891   -6.8747757    274.08207  0.025548292  0.025538212            7 
  895000   0.91251321   -6.8949223     273.9947   0.02551161  0.025518572           10 
  896000   0.89815874   -6.8533935    273.90271  0.025474582  0.025498607            6 
  897000   0.89691194   -6.8571087    273.90151  0.025446071  0.025478898           12 
  898000   0.89411871   -6.8637183    273.19608  0.025352272  0.025459039            4 
  899000   0.91346001    -6.930265    273.12965  0.025317913  0.025438976            9 
  900000   0.89491279   -6.9082774     273.5829   0.02533175  0.025418928           10 
  901000   0.88173079   -6.8983862    274.36299  0.025375785  0.025399194            4 
  902000   0.89385739   -6.8576515    274.05439  0.025319142  0.025379675            4 
  903000   0.88074644    -6.853407    274.98068  0.025376585  0.025360242            7 
  904000   0.88051532   -6.8930364    273.76115  0.025236094  0.025340548            4 
  905000   0.87370589   -6.8678812    275.08321  0.025329945  0.025320867            5 
  906000   0.88807263   -6.8682155    275.55289  0.025345189  0.025301403            7 
  907000   0.87856664   -6.8858253    275.02634  0.025268866  0.025281938            9 
  908000   0.89819817   -6.8934315    275.20641  0.025257564  0.025262053            4 
  909000   0.90217844   -6.9185137    274.77313  0.025190056  0.025242202            6 
  910000   0.89472999   -6.9075771     275.1439  0.025196328  0.025222553            7 
  911000   0.87534513   -6.8502743    275.97526  0.025244719  0.025202966            7 
  912000   0.90388693   -6.8927237     276.0498  0.025223849  0.025183585            5 
  913000   0.87422624   -6.8718176    276.68359   0.02525407  0.025164235            9 
  914000   0.88546267   -6.9041742    276.02522  0.025166413  0.025144838            5 
  915000   0.87374045    -6.943068    275.43536  0.025085188   0.02512522           10 
  916000   0.88064161   -6.8791224    276.58132  0.025162056  0.025105762            7 
  917000   0.87569939   -6.9124972    276.53155  0.025130094  0.025086389            5 
  918000   0.88036076   -6.9172395    275.98943  0.025053506  0.025066847           12 
  919000   0.86660091   -6.9027634    276.40943   0.02506433  0.025047421            8 
  920000   0.90869043   -6.9219552     276.1189   0.02501077  0.025028057            7 
  921000   0.86753468   -6.9041164    276.45104  0.025013666  0.025008826            4 
  922000   0.90609213   -6.9106987    276.70208  0.025009226  0.024989421            6 
  923000    0.8827972   -6.9023416    276.74281  0.024985808  0.024969908            6 
  924000   0.88164326   -6.9260897      277.142  0.024994769  0.024950267            6 
  925000   0.91125477    -6.927552    276.63173  0.024921777  0.024930802            5 
  926000   0.87830627   -6.9303012    276.42591  0.024876342  0.024911394            7 
  927000   0.87899365   -6.9432288    276.58568  0.024863869  0.024891906            7 
  928000    0.8835856   -6.8885299    277.60633   0.02492873   0.02487245            7 
  929000   0.87797196   -6.9266455    278.03246   0.02494012  0.024853089            6 
  930000   0.87043296   -6.9168796    277.87413  0.024899116  0.024833642            5 
  931000   0.89079182    -6.906527    277.83072  0.024868485  0.024814356            8 
  932000   0.88700033   -6.8924801    278.18306  0.024873306  0.024795137            3 
  933000   0.87377745   -6.9269397    277.34594  0.024771877  0.024775926            9 
  934000   0.88223186   -6.9445171    277.65498  0.024772929  0.024756458            8 
  935000   0.88437078   -6.9658247    276.43534  0.024637731  0.024736952            5 
  936000   0.87156697   -6.9328276    279.09604  0.024848294  0.024717491            4 
  937000   0.89864242   -6.9057231    277.92467  0.024717598  0.024698315            5 
  938000   0.87241966   -6.9172224    278.32023  0.024726388  0.024679387            9 
  939000   0.86945029   -6.9057082    279.17086  0.024775546  0.024660432            9 
  940000   0.88119052   -6.9212668    278.73631  0.024710666  0.024641494           13 
  941000   0.88150916   -6.9745557    278.18093  0.024635222  0.024622625           18 
  942000   0.90088721   -6.9304869    279.75217  0.024748069  0.024603578            3 
  943000   0.90362723   -6.9653345    278.64477  0.024623963  0.024584614           10 
  944000   0.89613415   -6.9376805    279.52535  0.024675614  0.024565524            6 
  945000   0.89990111   -6.9380864     279.5205  0.024649074  0.024546811            8 
  946000   0.87303927   -6.9653707    278.85171  0.024564104  0.024527858            6 
  947000   0.89814241   -6.9275856    280.18262  0.024655281  0.024508992            6 
  948000   0.87179162   -6.9386502    280.39983  0.024648368  0.024490106            6 
  949000   0.87602022    -6.965164    279.70359  0.024561257   0.02447106            7 
  950000   0.88143727   -6.9824771    279.38031  0.024507045  0.024452176            6 
  951000   0.88736633   -6.9422163     279.5525  0.024496363  0.024433276            9 
  952000   0.88759679   -6.9626634    280.69343  0.024570504  0.024414316           11 
  953000   0.88917749   -6.9713541    279.88079  0.024473661  0.024395544           24 
  954000   0.86017248   -6.9491296    279.44698  0.024410113  0.024376624           10 
  955000   0.85722884   -6.9065984    280.18099  0.024448603  0.024357834            7 
  956000   0.87721212   -6.9378764    280.79333  0.024476406   0.02433925            8 
  957000    0.8784534   -6.9329239    281.14017  0.024481032  0.024320552            4 
  958000   0.86039872   -6.9330628    280.38928   0.02439016     0.024302            6 
  959000   0.88249234   -6.9224886     280.9551  0.024413894  0.024283098            8 
  960000   0.87573842   -6.9609569    280.42662  0.024342589  0.024264326            9 
  961000    0.8518728   -6.9450103    280.23399  0.024300554  0.024245303            8 
  962000   0.86721024   -6.9526667    280.65185  0.024311491  0.024226508            6 
  963000   0.86393517   -6.9765959    280.55714  0.024278049  0.024207686           10 
  964000     0.869322   -6.9687724    280.65902  0.024261672  0.024188701            7 
  965000   0.87307224   -6.9783516    280.98822  0.024264959  0.024169497            4 
  966000   0.86161332   -6.9488167    281.05041  0.024245204  0.024150616            5 
  967000   0.88477261   -6.9652089    281.11965  0.024226099  0.024131693            9 
  968000   0.86447334   -6.9892923    281.12509  0.024201541  0.024112846            6 
  969000   0.87469063   -6.9304838       282.11  0.024261266  0.024094227           12 
  970000   0.85575153    -6.935693    281.51538   0.02418517  0.024075626            5 
  971000   0.85962687   -6.9642406    282.31569  0.024228947  0.024057064            6 
  972000    0.8813018   -6.9838806    281.76169  0.024156524  0.024038227            8 
  973000   0.86919961   -7.0086352    281.49378  0.024108751  0.024019169           11 
  974000   0.87173077   -6.9563736     281.8512  0.024114579   0.02400038            5 
  975000   0.83861194   -6.9739414    282.05999  0.024107691  0.023981536            4 
  976000   0.86243861   -7.0072487    281.62484  0.024045837  0.023962893           16 
  977000   0.85600157   -6.9834046    281.84411  0.024039927   0.02394414            4 
  978000   0.87388746   -6.9969675    282.22683  0.024047957  0.023925338            5 
  979000   0.86037891   -6.9620723    282.81779  0.024073697   0.02390667            4 
  980000   0.86392078   -6.9834609     282.8805  0.024054464  0.023887942            7 
  981000     0.851709   -6.9905811    282.90212   0.02403178  0.023869376            9 
  982000   0.87758618   -6.9743566    282.22796  0.023950098  0.023850809            5 
  983000   0.84612258   -6.9857818    282.93598  0.023985756  0.023832137            4 
  984000   0.85299181   -6.9825986    282.77346  0.023947617  0.023813428            3 
  985000   0.85017797   -6.9732748    282.75046  0.023921359  0.023794588           12 
  986000   0.87513823   -6.9715142    283.31894  0.023945144   0.02377568           15 
  987000   0.86019614   -6.9917667    282.05883  0.023814491   0.02375686            4 
  988000   0.84757767   -6.9990501    282.60564  0.023836508  0.023738047            7 
  989000   0.86969248   -6.9467608    283.89883  0.023921371    0.0237193           10 
  990000   0.86020727   -6.9814413    283.38783  0.023854195  0.023700543            6 
  991000   0.86237651   -6.9851033    282.66601  0.023769426  0.023681639            7 
  992000   0.87129205   -6.9569659     283.2145   0.02379154  0.023662805            8 
  993000   0.85824064   -6.9782446    282.57332  0.023713773  0.023643907            7 
  994000   0.85953683   -6.9900084    282.66817  0.023697868  0.023625107            4 
  995000   0.87248012   -6.9805568    283.34068  0.023730375  0.023606247            3 
  996000   0.86355032   -7.0398668    282.79126  0.023660581  0.023587385           10 
  997000   0.86777725   -6.9897581    283.16242  0.023667872  0.023568438           15 
  998000   0.85820442   -6.9794922    283.02541  0.023632716   0.02354958            8 
  999000   0.85415048   -6.9873988     283.4443  0.023644003  0.023530664            5 
 1000000      0.86399   -6.9429458    284.22205  0.023685171  0.023511923            4 
 1001000   0.86526174   -6.9916832    283.87677  0.023632764  0.023493244            7 
 1002000   0.84164288   -7.0372689    282.11281  0.023462476  0.023474336            7 
 1003000   0.85165499   -6.9715629    284.21264  0.023613546  0.023455285            5 
 1004000    0.8612629   -7.0055137    283.89362  0.023563547  0.023436352            6 
 1005000   0.86608972   -6.9993228    283.59329  0.023515198  0.023417524           15 
 1006000   0.85400425   -6.9804826    284.54644  0.023570779   0.02339888            7 
 1007000   0.84316025   -6.9806349    283.51008  0.023461609  0.023380103           27 
 1008000   0.85695339   -6.9902637    283.18487  0.023411447  0.023361272            4 
 1009000   0.83170585   -6.9933155    284.73879  0.023516583  0.023342462           11 
 1010000   0.85589486   -7.0021654    283.84485  0.023419542  0.023323642           12 
 1011000   0.84762852   -6.9792128    284.42858  0.023444492  0.023304761            6 
 1012000   0.85854232   -7.0014435    283.49628  0.023344555  0.023285711            7 
 1013000   0.85108586   -7.0266413    283.55908  0.023326677  0.023266635            8 
 1014000   0.83150149    -7.035599    282.93791  0.023252623   0.02324742            8 
 1015000   0.85911589   -7.0417434      283.581  0.023282513  0.023228446            8 
 1016000   0.85255715   -7.0350425     283.5879  0.023260162  0.023209444            7 
 1017000   0.83817268   -7.0332887    284.02009  0.023272705  0.023190499           12 
 1018000   0.84004483   -7.0135891    284.04235  0.023251665  0.023171626           12 
 1019000   0.84809523   -7.0108509    284.31015  0.023250748  0.023152719           12 
 1020000    0.8322972   -7.0181936    284.55552     0.023248  0.023133681            3 
 1021000   0.85560815   -7.0570968    284.48826   0.02321974  0.023114674            7 
 1022000   0.83919732   -7.0120346    285.01855   0.02324026   0.02309569            9 
 1023000   0.83428371   -7.0286186     284.5731  0.023181256  0.023076744            4 
 1024000   0.86225181   -7.0096059    284.52756  0.023154912  0.023057855           16 
 1025000   0.84214118   -7.0266306    285.62002   0.02322114   0.02303896            8 
 1026000   0.83055923   -7.0481997    285.08473   0.02315503  0.023020192           10 
 1027000   0.84380778   -7.0437265    284.47186  0.023082754  0.023001292           10 
 1028000   0.84392813   -7.0376304    284.71312  0.023079857  0.022982306           15 
 1029000    0.8566238   -7.0346427    286.05975  0.023166484  0.022963472            8 
 1030000   0.83278051   -7.0307585    285.49529  0.023098324  0.022944721           10 
 1031000   0.82980345    -7.014467    285.08453   0.02304272  0.022925992            6 
 1032000   0.86267856   -7.0000199    285.44939  0.023049854  0.022907571            9 
 1033000   0.84971164   -7.0037641    286.36033  0.023101027  0.022889003           14 
 1034000   0.86267898   -7.0745959    285.09679  0.022976853  0.022870458            7 
 1035000   0.85959076   -7.0447363    285.61987  0.022996769  0.022851879            4 
 1036000   0.83881394   -6.9948625    286.73831  0.023064536  0.022833508            6 
 1037000   0.84278921   -7.0477833    286.00016  0.022982977  0.022815182            5 
 1038000   0.85048879   -7.0430633    286.42502  0.022994944   0.02279669           13 
 1039000   0.84537552   -7.0385921    286.30697  0.022963344  0.022778112            7 
 1040000   0.84698806   -7.0503299    286.44501  0.022952325  0.022759542            7 
 1041000   0.85095047   -7.0682191    286.19114  0.022909954  0.022740754           18 
 1042000    0.8397352   -7.0213436    285.60683  0.022841237  0.022722217            9 
 1043000   0.83251253   -7.0343968    286.44676  0.022886446  0.022703677            4 
 1044000   0.85732673   -7.0859606    285.51884  0.022790457  0.022685014            4 
 1045000   0.83410968   -7.0732127    286.42402  0.022840831  0.022666297            5 
 1046000   0.83818206   -7.0463084    286.64942  0.022836952  0.022647728            4 
 1047000   0.83281559   -7.0219808    286.32003  0.022788923  0.022629236           14 
 1048000   0.82641317    -7.066247    286.35443  0.022769913  0.022610821           11 
 1049000   0.84338421    -7.082019    285.96784  0.022717496  0.022592283           14 
 1050000   0.84268305   -7.0492603    286.34516  0.022725806  0.022573763            6 
 1051000   0.85787502   -7.0552747    285.77257  0.022658783  0.022555152            6 
 1052000    0.8257607    -7.052562    286.84299  0.022722036  0.022536659           14 
 1053000   0.81389887   -7.0801903    286.46518  0.022670559  0.022518115            6 
 1054000   0.82054803   -7.0666972    286.43104   0.02264635  0.022499618            8 
 1055000   0.81081768   -7.0839701    286.79895  0.022653946  0.022481198            7 
 1056000   0.84526316   -7.0923965     286.8323  0.022635124  0.022462694            9 
 1057000   0.82822215   -7.0845771    286.74459  0.022606795  0.022444162            5 
 1058000   0.84007259   -7.0768348    287.75685  0.022665159  0.022425903           16 
 1059000   0.81887992   -7.0950102    288.00587  0.022663351  0.022407645           14 
 1060000   0.84780553   -7.1101192    286.43161  0.022518209  0.022389372           12 
 1061000   0.82701332   -7.0649432    288.07483  0.022626047  0.022371053            8 
 1062000   0.83429272    -7.049575    287.72336  0.022577163  0.022352864           11 
 1063000   0.81837698   -7.0508179    287.98244  0.022576234  0.022334739            5 
 1064000   0.83574762   -7.0888381    287.79845  0.022540605  0.022316695            3 
 1065000   0.82328288   -7.1101477    288.23221  0.022553381  0.022298581            7 
 1066000   0.83642303   -7.0646182    288.25622  0.022534101  0.022280558            9 
 1067000   0.83927722   -7.0745418    287.85571  0.022481701  0.022262547           18 
 1068000   0.83673641    -7.053691    288.94707  0.022545807  0.022244768            8 
 1069000   0.84955886   -7.1125667    288.19033  0.022465726  0.022226916            9 
 1070000   0.82282296   -7.0814835    288.58057  0.022475123  0.022209118            8 
 1071000   0.83668992   -7.0668805    288.81544  0.022472412  0.022191352            9 
 1072000   0.81155053   -7.0937012     289.1243  0.022475459  0.022173603           11 
 1073000   0.81811388   -7.0889351    288.47765  0.022404291  0.022155709            5 
 1074000   0.81151855   -7.0867004    288.84089  0.022411614  0.022137849           21 
 1075000   0.83415068   -7.1050452    289.24981  0.022422466   0.02211996           15 
 1076000   0.82934717   -7.1068843    289.86085   0.02244895  0.022102072            9 
 1077000   0.81993411    -7.107925    288.20683  0.022300126   0.02208415            8 
 1078000   0.81983418   -7.0709641     289.5075  0.022379986  0.022066337           10 
 1079000   0.81473568   -7.0962086    289.54607  0.022362224  0.022048518            9 
 1080000   0.83153872   -7.1112032    289.57626  0.022343847  0.022030558           11 
 1081000   0.82696811   -7.1156434    289.40927  0.022310304  0.022012715           10 
 1082000   0.83441871    -7.137709      289.146  0.022269409  0.021994877            8 
 1083000   0.82688263   -7.0941232    289.41017  0.022269173  0.021977012           13 
 1084000   0.82768065   -7.1177008    289.99682  0.022293729  0.021959217            8 
 1085000   0.82358894   -7.1281502    289.55346  0.022239129  0.021941437           11 
 1086000   0.81883012   -7.0892419    289.34664  0.022202781  0.021923649           14 
 1087000   0.83902628    -7.080291    289.02616  0.022157786  0.021905863           17 
 1088000   0.81964226   -7.1107633    289.84749  0.022200328  0.021888199           15 
 1089000   0.81817978   -7.1366114    289.73329  0.022171204  0.021870412            7 
 1090000   0.82252333   -7.1263263    289.51377  0.022134081  0.021852651            4 
 1091000   0.82587943   -7.1349069     289.2994  0.022097419  0.021834996           12 
 1092000   0.82598175   -7.1311467    288.78418  0.022037865  0.021817274           21 
 1093000     0.822243   -7.1450062    289.33215  0.022059481  0.021799451           13 
 1094000   0.81382741   -7.1454448    289.67051  0.022065091  0.021781723            8 
 1095000   0.81031873   -7.1520893    288.90397  0.021986603   0.02176396            7 
 1096000   0.83183786   -7.1133598    290.03452  0.022052503  0.021746121           13 
 1097000   0.82651239   -7.0999954     289.9958  0.022029459  0.021728373           10 
 1098000   0.81918908    -7.145101    290.20139     0.022025  0.021710547           11 
 1099000   0.81337543   -7.1237879    289.67808  0.021965277  0.021692623            6 
 1100000   0.80351456   -7.1261979    289.83437  0.021957149  0.021674868            9 
 1101000   0.80208747   -7.1362025    290.56623    0.0219926  0.021657094           13 
 1102000   0.80200653   -7.1169819    290.41744  0.021961391  0.021639545            8 
 1103000   0.80152081   -7.1032626    290.04182  0.021913102  0.021621926           17 
 1104000   0.82818296   -7.1157429    289.89916  0.021882485   0.02160423           13 
 1105000   0.80063969   -7.1283204    289.90639  0.021863227  0.021586441           11 
 1106000   0.81937941   -7.1368279    289.45184   0.02180921  0.021568752           21 
 1107000   0.82235964   -7.1288787    290.97852  0.021904435  0.021551094            6 
 1108000   0.82141009   -7.1052804    290.44732  0.021844714  0.021533306           13 
 1109000   0.81038878   -7.1320458    290.24548   0.02180985  0.021515321            8 
 1110000   0.79882478    -7.144053    290.26111  0.021791375  0.021497375            8 
 1111000   0.79158644   -7.1623674    289.27968  0.021698146  0.021479257            6 
 1112000   0.81942121   -7.1122171    290.46176  0.021767218  0.021461235           10 
 1113000   0.81833447   -7.1313063    289.61378  0.021684171  0.021443281            8 
 1114000   0.82226667   -7.1299242     290.2212  0.021710143  0.021425397            6 
 1115000   0.81199749   -7.1003565    290.16033  0.021686123  0.021407539           18 
 1116000    0.8104032   -7.1235781    289.38767  0.021608996  0.021389771            7 
 1117000   0.81908297   -7.1126098    291.24065  0.021727891  0.021372114           16 
 1118000   0.82032158   -7.1481118    290.45342  0.021649778  0.021354327            6 
 1119000   0.82735839   -7.1339362     289.9555   0.02159335  0.021336506            4 
 1120000    0.8095686    -7.146122    290.57559  0.021620208  0.021318772           14 
 1121000   0.79747057    -7.159368    289.47078  0.021518791  0.021300987            5 
 1122000   0.81231087   -7.1428514    291.25394  0.021632051  0.021283241            9 
 1123000    0.7996732   -7.1222712     290.5453  0.021560203   0.02126558           11 
 1124000   0.80896404   -7.1072222    291.26591  0.021594448  0.021247918            5 
 1125000   0.79413362    -7.115276    291.49595  0.021592293  0.021230455            9 
 1126000   0.81403931   -7.1328464    291.29868  0.021558517  0.021212897           12 
 1127000   0.80888428   -7.0970178    290.97935  0.021515776  0.021195397           16 
 1128000   0.81609213    -7.115993    291.23516    0.0215156  0.021177944            6 
 1129000   0.81544196   -7.1517079    290.90357  0.021472067  0.021160412           10 
 1130000   0.79519084   -7.1354497    291.71741  0.021513083  0.021142893            9 
 1131000   0.80335096   -7.1467192    291.34857  0.021466886  0.021125421            9 
 1132000    0.7851195   -7.1789092    290.94077  0.021417901  0.021107831           17 
 1133000   0.79093981   -7.1524164     291.3409  0.021428427   0.02109019           24 
 1134000   0.78639597    -7.162735     291.1354  0.021394429  0.021072663           11 
 1135000   0.80440272   -7.1381526    291.64867  0.021413265  0.021055087           11 
 1136000   0.81141222   -7.1473211     291.4291  0.021378308  0.021037572            7 
 1137000   0.81074173   -7.1693639    291.75745  0.021383571  0.021020043           16 
 1138000   0.77672718   -7.1372079    291.97599  0.021380784  0.021002491           10 
 1139000   0.80380835   -7.1599808    291.83416  0.021351636  0.020984852           20 
 1140000    0.8062928   -7.1856723    291.26134  0.021291034  0.020967176            8 
 1141000   0.79063949   -7.1809079    291.35232  0.021279018  0.020949578            6 
 1142000   0.79245879   -7.1756535    290.62418  0.021207252  0.020931919            8 
 1143000   0.79913402   -7.1537909    291.59674  0.021259605  0.020914385            8 
 1144000   0.79813702   -7.1744428    291.03969  0.021200444  0.020896895           10 
 1145000   0.78746822   -7.1494205    291.72341  0.021231689  0.020879502           10 
 1146000   0.77484743   -7.1653259    291.21617  0.021176277  0.020862102           17 
 1147000   0.79865839   -7.1249115    292.41869  0.021245182  0.020844768            4 
 1148000   0.79727997   -7.1700867     292.2363  0.021213436  0.020827401           11 
 1149000   0.79796078   -7.1862065    291.24764  0.021123269  0.020810061           15 
 1150000   0.78475249    -7.178237    291.80706  0.021145439  0.020792646            8 
 1151000   0.80484666   -7.1823289    291.79871  0.021126463  0.020775212            4 
 1152000   0.78644026   -7.1591156    291.24244  0.021067885  0.020757816            8 
 1153000   0.79059092   -7.1886839    292.42954   0.02113541  0.020740443           13 
 1154000    0.7964876   -7.1587887    291.82266  0.021073271  0.020723125            7 
 1155000   0.80560412   -7.2113746    291.65971  0.021043269  0.020705775            9 
 1156000   0.79407369   -7.1989701    291.57987   0.02101931   0.02068834            7 
 1157000    0.7925189   -7.1914773    292.52743  0.021069391  0.020671019           17 
 1158000   0.78936579   -7.1847197    292.97484  0.021083394  0.020653689           14 
 1159000   0.79687906   -7.1662085     293.1818  0.021080083    0.0206365           11 
 1160000   0.77005711   -7.1601498    293.30629  0.021070854  0.020619493            9 
 1161000   0.77050335   -7.2074423    292.41815  0.020988957  0.020602286           15 
 1162000   0.77974838   -7.1751214    292.50738  0.020977293  0.020585097           17 
 1163000   0.79872015   -7.1953167     292.2002  0.020937246  0.020567898           13 
 1164000   0.79071264   -7.1843416    292.66453  0.020952501  0.020550705           13 
 1165000   0.79062456   -7.2064742    292.44032  0.020918478  0.020533521           15 
 1166000   0.79913108   -7.2089673    292.68658  0.020918138  0.020516373            8 
 1167000   0.78737011   -7.1936057    292.72467  0.020902932  0.020499134           13 
 1168000   0.78616992   -7.2123225    292.33992  0.020857585  0.020481836           17 
 1169000   0.77882233   -7.2204339     292.8729  0.020877737  0.020464638            6 
 1170000   0.79909824   -7.2067548    292.88981  0.020861097  0.020447487            8 
 1171000   0.78054079   -7.1816863     292.8441   0.02084003  0.020430358           20 
 1172000   0.76855339   -7.2060733    293.21709   0.02084877  0.020413245            8 
 1173000   0.80282807   -7.1878035    293.29122  0.020836262  0.020396257           15 
 1174000   0.79265144   -7.2078495    292.80442  0.020783959   0.02037924           13 
 1175000   0.78414525   -7.2188815    293.23896  0.020797089  0.020362269            8 
 1176000   0.77331067   -7.1813767    294.07742  0.020838819  0.020345303           10 
 1177000   0.77973839   -7.2032674    293.51268   0.02078113  0.020328256           41 
 1178000    0.7707794   -7.2347762    292.51824  0.020693141  0.020311122           20 
 1179000   0.77063763   -7.2337125    293.66003  0.020756293  0.020294081           23 
 1180000   0.79038466   -7.2371838    293.42338   0.02072199  0.020277016           13 
 1181000   0.77305199   -7.2559973    292.94302  0.020670549  0.020259893           15 
 1182000   0.78332054   -7.2555343    292.35383  0.020611522  0.020242807           11 
 1183000   0.77322561   -7.2274472    292.44282  0.020600368  0.020225776           14 
 1184000   0.78322207   -7.2206671    293.76961  0.020676352  0.020208817           16 
 1185000   0.80301693   -7.2329956    293.14366  0.020614885   0.02019183           13 
 1186000   0.78884296   -7.2588479    292.81084  0.020574117   0.02017482           28 
 1187000   0.79434111   -7.2678522    293.28404  0.020590005  0.020157732           20 
 1188000   0.79564412   -7.2700979    292.82636   0.02054057  0.020140626           28 
 1189000   0.78050318   -7.2364505    293.41483  0.020564538  0.020123532           10 
 1190000   0.77509993   -7.2477065    292.95816  0.020515277  0.020106562           11 
 1191000   0.77840685   -7.2444829    293.32458   0.02052369  0.020089634           14 
 1192000   0.75307992   -7.2659292    292.63049  0.020457948   0.02007269           27 
 1193000   0.76957926    -7.271736    293.47059  0.020499482  0.020055769           36 
 1194000   0.76623084   -7.2585088    292.60864  0.020422155  0.020038761           10 
 1195000   0.76955428    -7.257341    293.51914   0.02046856  0.020021735           28 
 1196000   0.76561982    -7.262645    293.43556  0.020445621  0.020004775           12 
 1197000   0.77990154   -7.2672323    293.51647  0.020434174  0.019987819           18 
 1198000   0.76865643   -7.2797392    293.35197  0.020405674  0.019970892           38 
 1199000   0.76190796   -7.2530294    293.49863  0.020398849  0.019953928           23 
 1200000   0.78038335   -7.2345696    293.56631  0.020386549  0.019937008           12 
 1201000   0.77466585   -7.2420868    293.53809  0.020367616  0.019920093           16 
 1202000   0.77824245   -7.2782831    292.99633  0.020313112   0.01990321           18 
 1203000   0.76724767   -7.2591318    293.58103  0.020336729  0.019886331           10 
 1204000   0.78172186   -7.2380563    293.40934  0.020307956  0.019869411            9 
 1205000   0.77726892   -7.2517439    293.60466   0.02030461  0.019852522           10 
 1206000   0.78343544   -7.2494486    293.30658  0.020267176  0.019835663           12 
 1207000   0.76523354   -7.2469375    293.94352  0.020294361  0.019818897           25 
 1208000   0.77990463   -7.2526222    294.14184  0.020291241  0.019802135            5 
 1209000   0.76754554   -7.2458097    294.75138  0.020316472  0.019785426           15 
 1210000   0.77120416   -7.2312559    293.93834  0.020243687  0.019768718            8 
 1211000   0.76628416   -7.2628108     293.8395  0.020220169  0.019752017           11 
 1212000   0.76159575   -7.2800349    293.59725   0.02018683   0.01973537            6 
 1213000   0.76783125   -7.2523135    294.01982  0.020199218  0.019718678           12 
 1214000   0.77183916    -7.260451    294.38173  0.020207422  0.019702022            6 
 1215000   0.76669486    -7.272344    294.25619  0.020182181  0.019685391           23 
 1216000   0.75565915    -7.245541    294.88289  0.020208531  0.019668883            5 
 1217000   0.76496515   -7.2744713    295.04942  0.020203329   0.01965236            7 
 1218000   0.75012414   -7.2597695    294.48685  0.020148252  0.019635842           10 
 1219000    0.7788275   -7.2794156     294.4875  0.020131768  0.019619304           14 
 1220000   0.74847759   -7.2487809    295.73778  0.020200668  0.019602809           19 
 1221000   0.77228686    -7.248015    295.15534  0.020144372  0.019586351           17 
 1222000   0.76826772   -7.2649613    293.99525  0.020048776  0.019569857           14 
 1223000   0.75327143   -7.2400255    294.77957  0.020085825  0.019553431           11 
 1224000   0.77241539   -7.2588432    295.32337  0.020106439  0.019536941           29 
 1225000   0.75204718    -7.249422    294.78406  0.020053337  0.019520422           11 
 1226000   0.73655738   -7.2926865    294.40998  0.020011554  0.019503855           10 
 1227000   0.77360135   -7.2830648    294.00046  0.019967432  0.019487361           14 
 1228000    0.7597886   -7.2735178    294.18057  0.019963394  0.019470854           32 
 1229000   0.76416227   -7.2980202    293.72902  0.019916532  0.019454297           12 
 1230000    0.7685419    -7.293009     294.4786  0.019951125  0.019437782           14 
 1231000   0.74515362   -7.2919385    294.96938  0.019968141  0.019421316           16 
 1232000   0.77766016   -7.3072474    294.36485  0.019911042  0.019404798           21 
 1233000      0.77147   -7.2679875    295.77203  0.019989999  0.019388429           39 
 1234000   0.77479212   -7.2852796    294.73735  0.019903927  0.019372057           33 
 1235000   0.76452169   -7.2835323    295.02029  0.019906902  0.019355684           21 
 1236000   0.75650716   -7.2670753    295.02382  0.019891034  0.019339368           21 
 1237000   0.75047708   -7.2766926    294.27567  0.019824553  0.019323016           24 
 1238000   0.75198399   -7.2715691     294.7955  0.019843531   0.01930657           20 
 1239000   0.75541409    -7.281843    294.50986  0.019808304  0.019290158           26 
 1240000   0.75637334   -7.2803109     294.6953  0.019804792  0.019273794            7 
 1241000   0.75271135   -7.2853992    295.47351   0.01984109  0.019257426            7 
 1242000   0.77439755   -7.2816939     294.9452  0.019789667  0.019241129           15 
 1243000   0.77097291    -7.285614    295.16087  0.019788205  0.019224743           15 
 1244000   0.76563816   -7.3059392    294.60256  0.019734898  0.019208355           24 
 1245000   0.78240158   -7.3203306    294.51094  0.019712914  0.019191975           13 
 1246000   0.76150907   -7.3432462    294.51754  0.019697535  0.019175513            9 
 1247000   0.74435794   -7.3161154    295.09761  0.019720503  0.019159059           15 
 1248000    0.7686452   -7.3235457    294.54031  0.019667489  0.019142645           13 
 1249000   0.76626372   -7.3240614    294.78203   0.01966787  0.019126288            9 
 1250000   0.75857925   -7.3321695     294.2435  0.019616234  0.019109901           21 
 1251000   0.73457114   -7.3330547    294.96614   0.01964869  0.019093518           12 
 1252000   0.74212425   -7.3401153    294.17203   0.01958014  0.019077089           12 
 1253000    0.7559799   -7.3407031     294.4065  0.019580108  0.019060684            8 
 1254000   0.74878692   -7.3244188    295.39833  0.019630404  0.019044241           22 
 1255000   0.76754682   -7.3444475    294.66595  0.019566132  0.019027778           19 
 1256000   0.76337559    -7.331633    295.38851  0.019598494  0.019011312           16 
 1257000   0.76024977   -7.3508246    294.32576  0.019512447  0.018994891           23 
 1258000   0.73989054   -7.3370865     294.8284  0.019530233   0.01897847           23 
 1259000    0.7612059   -7.3311778    294.52051  0.019494341  0.018962026           19 
 1260000   0.74890703   -7.3485331    294.21744  0.019458825  0.018945604           18 
 1261000   0.73511076    -7.324334    294.29679  0.019448638  0.018929204           35 
 1262000   0.75004212    -7.348691    293.92715  0.019408819  0.018912821           22 
 1263000   0.75142541   -7.3501542    294.50215   0.01943139  0.018896505           14 
 1264000   0.75522355   -7.3305677    295.22715  0.019463815    0.0188802           18 
 1265000   0.74170201   -7.3277055    294.60544  0.019407473  0.018863998           25 
 1266000   0.74166075    -7.299269    296.06829  0.019488434  0.018847876           26 
 1267000   0.74980247   -7.3206709    295.06321  0.019406946  0.018831802           10 
 1268000   0.74123809   -7.3187346    295.05426  0.019391053  0.018815706           19 
 1269000    0.7308686    -7.317254    295.44319  0.019401313    0.0187996           16 
 1270000   0.74781477   -7.3027563     295.8645  0.019413681  0.018783538            7 
 1271000   0.73966098   -7.3503582    295.39057  0.019367333  0.018767538           16 
 1272000   0.73675101   -7.3176874    295.79184  0.019378396  0.018751427           23 
 1273000   0.75415845   -7.3431777    295.34697  0.019334051  0.018735435           23 
 1274000   0.74166814   -7.3365715    295.55621  0.019332562  0.018719464           22 
 1275000   0.72766173   -7.3044197    295.69693  0.019326597  0.018703422           20 
 1276000   0.73618828   -7.3435615    295.60113  0.019305194  0.018687437           15 
 1277000     0.752714   -7.3264621    295.42495  0.019278579  0.018671455           24 
 1278000   0.74159308   -7.3311362    295.12336  0.019243829  0.018655451           14 
 1279000   0.74281497   -7.3166917    296.15975  0.019296309  0.018639491           15 
 1280000   0.76117143    -7.350677    295.81374  0.019258707  0.018623576           27 
 1281000   0.74492028   -7.3177684    295.70579   0.01923665  0.018607613           18 
 1282000    0.7438912   -7.3380457    295.70905  0.019221857  0.018591701           20 
 1283000   0.74827834   -7.3196668    295.90425  0.019219554  0.018575763           37 
 1284000   0.74546346   -7.3477643    295.61817  0.019186018  0.018559785           14 
 1285000   0.73575764   -7.3719414    295.36155  0.019154445  0.018543827           26 
 1286000   0.75055219   -7.3243348    295.86417  0.019172121  0.018527956           14 
 1287000   0.75113733   -7.3356914    296.08677  0.019171637   0.01851208            8 
 1288000   0.72518212   -7.3570086    294.85713  0.019077195   0.01849617           18 
 1289000   0.73687971   -7.3140343    295.66943   0.01911491  0.018480339           14 
 1290000   0.73018697   -7.3483081    296.27149  0.019138985  0.018464552           17 
 1291000   0.73590669   -7.3416242    295.70175  0.019087384  0.018448764           16 
 1292000   0.74256645   -7.3631588    296.14109  0.019100947  0.018432897           12 
 1293000   0.72606608   -7.3440739    295.74925  0.019060921  0.018417044           20 
 1294000   0.73301729   -7.3529264    295.78644  0.019048586  0.018401172           43 
 1295000   0.74557716   -7.3409134    295.79358  0.019034336  0.018385313           29 
 1296000   0.74747611   -7.3623076    295.37084  0.018992467  0.018369526           60 
 1297000   0.73391796   -7.3308297    295.97438  0.019016601  0.018353753           29 
 1298000   0.74590474   -7.3639485    295.93924  0.018999694  0.018338013           22 
 1299000   0.74203632   -7.3354276    295.56218  0.018960879  0.018322243           25 
 1300000   0.72336787   -7.3366551    296.21792  0.018988329  0.018306524           21 
 1301000   0.73328077   -7.3510993    295.63721  0.018936537  0.018290844           29 
 1302000   0.74510546   -7.3787143      295.608  0.018920123  0.018275087           26 
 1303000   0.72184206   -7.3665108     296.0679  0.018935015   0.01825935           22 
 1304000   0.72991103    -7.345618    295.60053  0.018890627  0.018243646           10 
 1305000   0.73785942   -7.3892961    295.30397  0.018857214   0.01822791           32 
 1306000   0.72901261   -7.3754795    295.88004  0.018879533  0.018212152           28 
 1307000   0.74267827   -7.3668299    295.68074   0.01885238  0.018196496           11 
 1308000    0.7460299   -7.3705242    296.42808  0.018885581  0.018180922            9 
 1309000   0.72967147   -7.3703968    295.94018  0.018840093  0.018165392           21 
 1310000   0.73823324   -7.4052462    295.21197  0.018779387  0.018149759           23 
 1311000   0.72307572   -7.3803114    295.82303  0.018803905  0.018134177           25 
 1312000   0.73433115   -7.4016088    295.68357  0.018780714  0.018118566           30 
 1313000   0.73851548   -7.3992208    296.06608  0.018790688  0.018102932           33 
 1314000   0.73539036   -7.4000079    295.82058  0.018760818  0.018087291           53 
 1315000   0.70818245   -7.3966847    295.77123  0.018743424   0.01807171           46 
 1316000   0.73202877   -7.3900462    296.16777  0.018754292  0.018056122           29 
 1317000     0.725714   -7.3996243    295.53608  0.018700081   0.01804046           19 
 1318000   0.71518974   -7.4201459    295.61907   0.01869114  0.018024813           27 
 1319000   0.72500266   -7.3961674    295.98765  0.018700256  0.018009207           48 
 1320000   0.73043456   -7.4218698    295.66715  0.018665856  0.017993598           31 
 1321000   0.72916876   -7.4296756    295.71373  0.018654664  0.017977927           54 
 1322000   0.72317598   -7.4234467    295.44866  0.018623844  0.017962324           36 
 1323000   0.73638914   -7.4027652    296.14056  0.018653349  0.017946733           34 
 1324000   0.72510157   -7.4054967    296.05293  0.018633744   0.01793119           36 
 1325000   0.72022225   -7.4088792    296.13202  0.018624655  0.017915665           36 
 1326000   0.71595918   -7.4110232    295.37274  0.018562892  0.017900163           16 
 1327000   0.72096635   -7.4016684    295.34368  0.018547079  0.017884664           25 
 1328000   0.71255843   -7.4018475    296.09416  0.018580206  0.017869173           53 
 1329000   0.72499125   -7.4121138    296.94342  0.018619477  0.017853696           60 
 1330000   0.73532981   -7.4274322    296.01925  0.018547572  0.017838205           29 
 1331000   0.71214888   -7.4342322    295.45798  0.018498496  0.017822706           27 
 1332000    0.7375562   -7.4158111    296.61625  0.018557073  0.017807295           13 
 1333000   0.73148342   -7.3976202    296.24267  0.018519797  0.017791897           23 
 1334000   0.72095721   -7.4244412    295.71948  0.018473231  0.017776508           11 
 1335000   0.71739969   -7.4222117    294.87125  0.018406445  0.017761038           20 
 1336000   0.72587966   -7.4137497     296.2599  0.018479285  0.017745637           15 
 1337000   0.71456693   -7.3766218    296.68844  0.018492174  0.017730283           15 
 1338000    0.7193292   -7.4199968    296.20121  0.018448007  0.017714962           12 
 1339000   0.72978492   -7.4046252    296.98551  0.018483041  0.017699574           48 
 1340000   0.72881589    -7.433256    295.40948  0.018371236  0.017684224           16 
 1341000   0.71355732   -7.3925885    296.10942  0.018401033  0.017668906           26 
 1342000    0.7098974   -7.4057918    296.36914  0.018403449  0.017653577           15 
 1343000   0.71663983   -7.3974459    295.69169   0.01834771  0.017638269           10 
 1344000   0.71334459   -7.3975683    296.28982  0.018371145  0.017623009           10 
 1345000   0.72431926   -7.4154535    295.98307   0.01833848  0.017607729           18 
 1346000   0.72190473   -7.4065146    295.89046  0.018319122  0.017592505           10 
 1347000    0.7059055    -7.424388    296.02714  0.018313978  0.017577232           15 
 1348000   0.71478375   -7.4370303    296.22632  0.018312705   0.01756195           22 
 1349000   0.70637905   -7.4188125    296.16388  0.018295273  0.017546698           22 
 1350000   0.73027485   -7.4101424     296.7153   0.01831576  0.017531469           22 
 1351000     0.707891   -7.4236776     296.0685  0.018262306  0.017516283           50 
 1352000    0.7168721   -7.4448296    294.90683  0.018177196  0.017501091           27 
 1353000   0.70801234   -7.4602991    296.11067  0.018237908   0.01748582           39 
 1354000   0.69389444   -7.4240331    296.04629  0.018220475  0.017470582           24 
 1355000   0.72030103   -7.4666907    295.40842    0.0181678  0.017455282           44 
 1356000   0.71130193   -7.4464337    295.56533  0.018164044  0.017440052           30 
 1357000   0.70898714   -7.4218389    295.80368  0.018165296  0.017424808           27 
 1358000   0.72801233   -7.4337995    295.88785  0.018157084   0.01740961           50 
 1359000   0.70603834   -7.4522074    295.86395  0.018142258  0.017394439           21 
 1360000   0.71262134   -7.4280326    296.29985  0.018155628  0.017379247           15 
 1361000   0.70065816   -7.4469273    296.25017  0.018139246   0.01736403           34 
 1362000   0.70874603   -7.4566053    295.72047  0.018093519  0.017348889           27 
 1363000   0.72458682   -7.4310586    295.66392  0.018076786  0.017333761           28 
 1364000   0.70101555   -7.4498068    296.37858  0.018107196  0.017318602           29 
 1365000   0.70946443   -7.4488904    295.59804  0.018046278  0.017303461           29 
 1366000   0.70870865   -7.4327976    295.87958  0.018050243  0.017288303           17 
 1367000   0.70063271   -7.4305693    296.32002  0.018063888  0.017273153           26 
 1368000   0.70391552   -7.4332714    295.23286  0.017984458  0.017257976           28 
 1369000   0.69752078   -7.4685229    295.84842  0.018008791  0.017242834           41 
 1370000   0.72396535   -7.4846038    295.88497  0.017997869  0.017227672           24 
 1371000   0.69754938    -7.462195     294.9458  0.017927656  0.017212503           23 
 1372000   0.71264995   -7.4581688    295.79732   0.01796631  0.017197303           30 
 1373000   0.70000737   -7.4642785    295.33924  0.017925421  0.017182123           36 
 1374000   0.68884792   -7.4452211    295.78759  0.017939568  0.017166979           15 
 1375000   0.70347168   -7.5013202    295.21928  0.017892078  0.017151789           42 
 1376000   0.70653409   -7.4586082    295.67191  0.017906487  0.017136615           30 
 1377000   0.70136718   -7.4569217     295.3591  0.017874552  0.017121495           32 
 1378000   0.70759943   -7.4721612    295.26122  0.017855662  0.017106409           13 
 1379000   0.71225176   -7.4510465    296.08307  0.017892378   0.01709136           22 
 1380000   0.67759852   -7.4592019    295.72613  0.017857858  0.017076287           27 
 1381000   0.69659838   -7.4769289    294.92518  0.017796596  0.017061206           22 
 1382000   0.69246669   -7.4589049    295.26683  0.017804319  0.017046161           55 
 1383000   0.70292875   -7.4636996    295.45743   0.01780293  0.017031129           59 
 1384000   0.69158325   -7.4535004    295.33371  0.017782617  0.017016057          100 
 1385000   0.70537846   -7.4577658    295.60467  0.017786081  0.017000955           30 
 1386000   0.69759532   -7.4675246    295.28829  0.017754226  0.016985883           32 
 1387000   0.71089839   -7.4822884    295.57205  0.017758475   0.01697077           10 
 1388000   0.70479571   -7.4974072    295.07337   0.01771574  0.016955693           46 
 1389000   0.70102947   -7.4833185    295.46591  0.017726536  0.016940642           32 
 1390000   0.70711207    -7.467499    295.73761  0.017730073  0.016925618           30 
 1391000   0.70261627   -7.4738933    295.17365   0.01768354  0.016910632           31 
 1392000   0.70927001   -7.4695969    295.59257  0.017695915  0.016895666           14 
 1393000   0.70266696    -7.493608    295.53025  0.017679484   0.01688069           15 
 1394000   0.69377048   -7.4857632    295.71315  0.017677735  0.016865717           35 
 1395000   0.70125082   -7.4729911    295.46146  0.017650027  0.016850796           18 
 1396000   0.69457898   -7.4704413    295.16552  0.017619718  0.016835882           24 
 1397000   0.69476278   -7.4700023    294.66326  0.017577145  0.016820965           38 
 1398000   0.68956994   -7.4746347    295.49827  0.017614346  0.016806075           21 
 1399000   0.68959521   -7.4903644       295.24  0.017586371  0.016791191           13 
 1400000   0.69088316   -7.4684446    295.37318  0.017581737  0.016776337           32 
 1401000    0.6902199   -7.5278448     294.6131  0.017523977  0.016761498           37 
 1402000   0.68834039   -7.4810807    295.44323   0.01756082  0.016746655           19 
 1403000   0.69204433   -7.4849532    295.56227  0.017555374    0.0167318           47 
 1404000   0.69075983   -7.5005425    295.29896  0.017527241  0.016716984           50 
 1405000    0.6931695   -7.4894464    294.78253  0.017484136  0.016702141           54 
 1406000   0.68278354   -7.5063472    295.18206  0.017495381  0.016687254           40 
 1407000   0.70823898   -7.4829052     295.6934  0.017513232  0.016672454           42 
 1408000   0.70311176   -7.4809435      295.314  0.017478338  0.016657676           31 
 1409000   0.70726768   -7.4822446    296.09917  0.017512371  0.016642921           37 
 1410000   0.70172292   -7.4685519    296.24031  0.017508293  0.016628208           48 
 1411000   0.67867473   -7.4555006    295.11189   0.01742924  0.016613526           31 
 1412000   0.68623773   -7.4822931    295.39961  0.017433877   0.01659882           88 
 1413000   0.68674245   -7.4779587    296.02681  0.017458529  0.016584174           49 
 1414000   0.68795256   -7.4756819    295.84691  0.017435579  0.016569487           73 
 1415000   0.69263957   -7.5016154    295.00203    0.0173735    0.0165548           50 
 1416000   0.68151032   -7.4901931    296.04341  0.017422517   0.01654011           61 
 1417000   0.68484348   -7.5250753    294.65414  0.017328519  0.016525393           85 
 1418000   0.68778133    -7.498722    295.54533  0.017368672  0.016510687           83 
 1419000   0.68780001   -7.4813037    295.55517   0.01735701  0.016496029           50 
 1420000   0.68356425   -7.5148343    295.01787  0.017313255  0.016481354           71 
 1421000   0.68968922   -7.5036835    295.54677  0.017332088  0.016466675           94 
 1422000     0.706334   -7.5273501     295.3281  0.017307085  0.016451998           50 
 1423000   0.67723529   -7.5125616    295.29169   0.01729279   0.01643728           50 
 1424000   0.68484187   -7.5074521    295.28088  0.017280014  0.016422617           66 
 1425000   0.67941257   -7.5050699    294.88216  0.017244571  0.016407994           51 
 1426000   0.69684349   -7.5343199    294.80822  0.017228157  0.016393376           99 
 1427000   0.68382673   -7.5461428    295.18111   0.01723786  0.016378769           76 
 1428000   0.67649223    -7.524797    295.11727  0.017222063  0.016364154           63 
 1429000   0.68212998   -7.5262339    296.07799  0.017266036  0.016349636           62 
 1430000   0.68213665   -7.5528918    294.36704  0.017154256  0.016335076           91 
 1431000   0.67819119   -7.5700669    294.52975  0.017151744  0.016320469          101 
 1432000   0.70207571    -7.528257     295.0259   0.01716864  0.016305899          115 
 1433000   0.67895557   -7.5581704    295.22514  0.017168245  0.016291336           67 
 1434000   0.69496438   -7.5418688    294.89734  0.017137223  0.016276784           76 
 1435000   0.67695169   -7.5400717    294.83765  0.017121815   0.01626223           55 
 1436000    0.6869565   -7.5520288    294.17785  0.017071602  0.016247656           30 
 1437000   0.68122609   -7.5514351     294.5153  0.017079291  0.016233122           99 
 1438000   0.68362692   -7.5578444    294.03439  0.017039545  0.016218554           84 
 1439000   0.68373318   -7.5254062    295.43979  0.017109091  0.016204093           79 
 1440000   0.70074007   -7.5454808    295.36165  0.017092688   0.01618959          186 
 1441000   0.68949229   -7.5554035    294.91998  0.017055284  0.016175152           94 
 1442000   0.66279109   -7.5515431    294.84288  0.017039001  0.016160669          125 
 1443000   0.66859988   -7.5490005    294.76079  0.017022453  0.016146198          127 
 1444000   0.66990091   -7.5779591    294.35981  0.016987524  0.016131741           62 
 1445000     0.667452    -7.535217    294.07568  0.016959382  0.016117313          122 
 1446000   0.67362456   -7.5195042    295.29836  0.017018116  0.016102901          171 
 1447000    0.6927609   -7.5539095    294.51128  0.016961027  0.016088507          104 
 1448000    0.6924644   -7.5517722    294.63555  0.016956466  0.016074099          104 
 1449000    0.6696306   -7.5494826    294.88842  0.016959306    0.0160597           89 
 1450000   0.66565918   -7.5613793    294.83983  0.016944818  0.016045283          126 
 1451000   0.66535449   -7.5865968    294.56078  0.016917114  0.016030874          110 
 1452000   0.67247635   -7.5803666    293.84363  0.016864304  0.016016466          105 
 1453000   0.66924291   -7.5460348    294.87202  0.016911678  0.016002087           48 
 1454000   0.67892287   -7.5796425    293.99797  0.016849953  0.015987726          101 
 1455000   0.68025309   -7.5807505    295.02487  0.016897186  0.015973358           65 
 1456000   0.68499616   -7.5853395    294.28829  0.016843423  0.015958989           65 
 1457000   0.65086743   -7.5728548    294.37284  0.016836698  0.015944629          189 
 1458000   0.66931473   -7.5734411    294.96235  0.016858845  0.015930291           93 
 1459000   0.66110709   -7.5618204     295.3754  0.016870882  0.015915975          101 
 1460000   0.68237845   -7.5811253    294.88151  0.016831136  0.015901664          104 
 1461000   0.65069619   -7.5469626    294.80024  0.016814981  0.015887381           70 
 1462000   0.67138514   -7.5583076    294.60388  0.016792287  0.015873124           81 
 1463000   0.67138393   -7.5799038    294.05059  0.016749293  0.015858849           80 
 1464000   0.68222059   -7.5597804    295.19982  0.016803269  0.015844585           71 
 1465000   0.66651819   -7.5814298    294.60693  0.016758073  0.015830334           87 
 1466000   0.67854867    -7.585607    294.18197  0.016722486  0.015816102           92 
 1467000   0.66627461   -7.6173972    294.59872   0.01673476   0.01580187          112 
 1468000   0.67484706   -7.5948201    294.42227  0.016713344  0.015787643           80 
 1469000   0.67383575   -7.5969807    294.40833  0.016701176  0.015773462          112 
 1470000   0.67297279   -7.5799761    294.68016  0.016705224  0.015759252           88 
 1471000   0.67007306   -7.5727087    294.64673  0.016691974  0.015745049          104 
 1472000   0.65846354   -7.5932184    294.15452   0.01665277  0.015730863          239 
 1473000   0.67784011   -7.5928215    294.02311   0.01663403  0.015716638          159 
 1474000   0.66594665   -7.6090004    294.64577  0.016657947   0.01570247          150 
 1475000   0.66691403   -7.6241432    294.73325  0.016651596  0.015688293           91 
 1476000   0.66695423   -7.6066437    294.46465  0.016625149  0.015674118          125 
 1477000   0.66973932   -7.6169799    293.59362  0.016564749  0.015659999           67 
 1478000   0.65486407     -7.58957    294.14203  0.016584463  0.015645879           81 
 1479000   0.67229204   -7.6099443    293.70847  0.016548821  0.015631774          131 
 1480000    0.6546675   -7.5921926    294.84276  0.016601507  0.015617704           65 
 1481000   0.65387353    -7.606675    294.79971  0.016587875  0.015603607          229 
 1482000   0.64462067   -7.5938662    294.14232  0.016539716  0.015589559          249 
 1483000   0.66908568   -7.6098573    294.58194  0.016553267  0.015575511          192 
 1484000   0.67591725   -7.6336855    294.37864  0.016530697   0.01556148          212 
 1485000   0.66868714   -7.6240524    294.41876  0.016521816  0.015547455          284 
 1486000   0.65015087   -7.5946555    294.63802  0.016522994  0.015533424          177 
 1487000   0.66255341   -7.6370955    293.78451   0.01646405  0.015519393          111 
 1488000    0.6677283   -7.6453965    293.62511  0.016444059  0.015505366          185 
 1489000   0.66337444   -7.6204459    293.81763   0.01644379  0.015491346          215 
 1490000   0.67771993   -7.6531926    293.62396  0.016421922  0.015477293          152 
 1491000   0.65604478     -7.63202    294.16293  0.016441031  0.015463233          119 
 1492000    0.6652425   -7.6499576    293.75032  0.016406966  0.015449216          110 
 1493000   0.66385097   -7.6296878    294.12441  0.016416857  0.015435197          239 
 1494000    0.6673418   -7.6407024     293.7177  0.016383183  0.015421178           72 
 1495000   0.65616576   -7.6312125    293.52853   0.01636168  0.015407216          292 
 1496000   0.64623392   -7.6327155    293.97065   0.01637537  0.015393277          103 
 1497000   0.65357693   -7.6368427     294.2088  0.016377689   0.01537931          272 
 1498000   0.66348986   -7.6488447    293.70713  0.016338848  0.015365392          330 
 1499000   0.63870677   -7.6405096    293.89854  0.016338589  0.015351481          302 
 1500000   0.65392807   -7.6348771    293.19913  0.016288841  0.015337544          399 
 1501000   0.65239551   -7.6498534    293.77774  0.016310112  0.015323636          248 
 1502000   0.65454242   -7.6394798     294.2233  0.016323973  0.015309742          334 
 1503000   0.64503734   -7.6611842    293.13177  0.016252593   0.01529585          326 
 1504000   0.65268265   -7.6645861      293.281  0.016250055  0.015281932          157 
 1505000   0.64292584    -7.641109     294.0159   0.01627995  0.015268067          112 
 1506000   0.64874867   -7.6475221    293.82169  0.016258394  0.015254228          249 
 1507000   0.66094898   -7.6484204    293.44099  0.016226554  0.015240361          296 
 1508000   0.65604141   -7.6530068    293.90923  0.016241669  0.015226524          293 
 1509000   0.65006567   -7.6384161    293.92346  0.016231691  0.015212691          159 
 1510000   0.65267623    -7.666119    293.49704  0.016197408  0.015198863          238 
 1511000   0.64688701    -7.631623    294.22155  0.016226646  0.015185068          226 
 1512000   0.63202786   -7.6625666    293.21993  0.016160711  0.015171277          329 
 1513000   0.64880794   -7.6527034    294.04058  0.016195229  0.015157494          122 
 1514000   0.64829803   -7.6504452     293.6631  0.016163755  0.015143729          268 
 1515000   0.66615157   -7.6515199    293.65663   0.01615273  0.015129981          251 
 1516000   0.65183491   -7.6537656    293.27359   0.01612102  0.015116279          205 
 1517000   0.63950485   -7.6486587     293.5446   0.01612528  0.015102566          172 
 1518000   0.65300943   -7.6754291    293.43003  0.016108368  0.015088842          225 
 1519000   0.62736775   -7.6664111    293.48115  0.016100568  0.015075106          423 
 1520000   0.65291122   -7.6701093    293.39987  0.016085519    0.0150614          359 
 1521000   0.63946067   -7.6504937    293.26163   0.01606737  0.015047681          151 
 1522000   0.64615132   -7.6652222    293.06129  0.016045844  0.015033982          452 
 1523000   0.66313947   -7.6515621    293.57643  0.016063494  0.015020291          388 
 1524000   0.65379599   -7.6636576    293.48181  0.016047781  0.015006654          218 
 1525000   0.65254548   -7.6450084    294.17282  0.016075018  0.014993054          349 
 1526000   0.63972182   -7.6399409    293.41777  0.016023251  0.014979463          272 
 1527000   0.64158271   -7.6827769    293.49754  0.016017111  0.014965831          258 
 1528000   0.62274296   -7.6583868    293.73499  0.016019578  0.014952252          345 
 1529000   0.64675007    -7.657473    292.95616  0.015966653  0.014938657          277 
 1530000   0.64473776   -7.6707877    293.54143  0.015988095   0.01492509          291 
 1531000   0.64381572   -7.6775733     292.8823  0.015941776  0.014911504          112 
 1532000   0.66193836   -7.6584856    293.68686  0.015975134  0.014897943          173 
 1533000   0.64615515    -7.648392    293.43502  0.015951023  0.014884375          219 
 1534000   0.63933187   -7.6575861    293.62385  0.015950883  0.014870872          329 
 1535000   0.64943764   -7.6777544    293.35603  0.015925952  0.014857371          197 
 1536000   0.64846698   -7.6692488    293.58498  0.015928005   0.01484389           96 
 1537000   0.63687637   -7.6627476    293.74614  0.015926379  0.014830435          287 
 1538000   0.63651049    -7.678645    292.92774  0.015871681  0.014816966          125 
 1539000   0.64002188   -7.6689417    293.78528  0.015907801  0.014803527          345 
 1540000   0.65812893   -7.6753219    293.03174  0.015856696  0.014790078          213 
 1541000   0.63984096    -7.665093    293.35932  0.015864121  0.014776642          144 
 1542000   0.65672491    -7.665106    293.14068  0.015842017  0.014763238          203 
 1543000   0.64433863   -7.6573432    292.29703  0.015786186  0.014749857          270 
 1544000   0.64946316   -7.6683201    293.36693  0.015833708  0.014736465          220 
 1545000   0.63406576   -7.6757134    293.89711  0.015852055  0.014723088          163 
 1546000   0.63872833   -7.6556731    292.95581  0.015791063   0.01470971          301 
 1547000   0.63471919   -7.6882257    293.36269  0.015802774  0.014696363          116 
 1548000   0.64485478   -7.6534729    293.90825  0.015821934  0.014683036          144 
 1549000    0.6278239   -7.6697315    293.60689  0.015795507  0.014669722          243 
 1550000   0.63139577   -7.6706387    293.60614  0.015785276  0.014656437          159 
 1551000   0.63530484   -7.6778269    293.54248  0.015771679  0.014643144          401 
 1552000    0.6240373   -7.6800121    293.07536  0.015736435  0.014629841          287 
 1553000   0.63014695    -7.700421    292.93306  0.015718666  0.014616571          386 
 1554000   0.63421823   -7.6776092    293.55386  0.015741841  0.014603325          263 
 1555000   0.63258126   -7.6628201    293.53534  0.015730726  0.014590085          237 
 1556000   0.63381192   -7.6710405    292.76144  0.015679169  0.014576847          341 
 1557000    0.6331938   -7.6947274    292.64121  0.015662664  0.014563609          147 
 1558000   0.63592676    -7.685002    293.70829  0.015709686  0.014550378          286 
 1559000   0.64196488   -7.6906975    292.66783  0.015643993  0.014537165          334 
 1560000   0.63505312   -7.7090768     293.4118  0.015673707  0.014523986          302 
 1561000   0.62944392   -7.6906879    293.39432  0.015662733  0.014510807          327 
 1562000   0.61803015   -7.6900411    292.69504  0.015615399  0.014497636          370 
 1563000   0.62698407   -7.6866431    293.03576  0.015623575  0.014484492          171 
 1564000   0.62945118   -7.6816792    293.05789  0.015614764  0.014471367          384 
 1565000    0.6375066   -7.6701684      293.586  0.015632907  0.014458264          522 
 1566000   0.62187067   -7.6930892    293.28581   0.01560695  0.014445177          337 
 1567000   0.62427951   -7.6777306    293.05937  0.015584949  0.014432093          477 
 1568000   0.62284308   -7.6790799    292.72066  0.015557008  0.014418986          517 
 1569000   0.61245317   -7.6856833    293.67016  0.015597523  0.014405937          497 
 1570000   0.63781989   -7.7005278    293.25214    0.0155654  0.014392892          241 
 1571000   0.61772139   -7.6945688    293.28198  0.015557075   0.01437987          313 
 1572000   0.62628624   -7.6922254    293.71518  0.015570143  0.014366883          160 
 1573000   0.63021882   -7.7020712    293.42617  0.015544934  0.014353896          257 
 1574000   0.62782064   -7.6979897    292.61327   0.01549202   0.01434089          138 
 1575000   0.62024297   -7.6970492    293.12129  0.015509063  0.014327912          194 
 1576000    0.6182051   -7.6843498    292.84984  0.015484869  0.014314943          156 
 1577000   0.62759132   -7.6893074    292.77608  0.015471152  0.014301987          157 
 1578000   0.61420225   -7.6978962      293.085  0.015477662  0.014289046          482 
 1579000   0.62585135   -7.7082821    292.47732  0.015435789  0.014276064          468 
 1580000   0.62619565   -7.7215518    293.04661  0.015456045  0.014263118          294 
 1581000   0.64741272   -7.7223375    292.39573  0.015411961  0.014250165          359 
 1582000   0.61389218    -7.702582    293.24638  0.015447028   0.01423723          263 
 1583000   0.61191155   -7.7137332    292.64241  0.015405475  0.014224318          407 
 1584000      0.61979   -7.6976965    292.58242  0.015392593  0.014211427          501 
 1585000   0.61457299   -7.7053185    293.23364  0.015417121  0.014198524          297 
 1586000   0.61647049   -7.7115986     292.9637  0.015393217  0.014185653          350 
 1587000   0.62321648   -7.7121865    292.51441  0.015359925    0.0141728          372 
 1588000   0.61360019   -7.7296985    292.41203   0.01534488  0.014159955          183 
 1589000   0.61980623   -7.7043286    292.93406    0.0153626  0.014147114          219 
 1590000   0.61757291    -7.717491     292.4942  0.015329885  0.014134292          332 
 1591000   0.61504596    -7.706355    292.57982  0.015324734  0.014121459          213 
 1592000   0.62298025   -7.7126564    292.72116  0.015322506  0.014108645          527 
 1593000   0.61458344   -7.6799256    293.50395  0.015353837  0.014095824          433 
 1594000   0.61941709   -7.7183803    292.85922  0.015310498  0.014083051          171 
 1595000   0.62317734   -7.7083165    293.63395  0.015341376  0.014070291          151 
 1596000   0.61776122   -7.7128833    292.50429  0.015272781  0.014057521          301 
 1597000   0.61736721   -7.7126975    292.53593  0.015264868  0.014044766          462 
 1598000    0.6196387   -7.7275133    292.47252  0.015252009  0.014032009          317 
 1599000   0.62490849   -7.7213397    293.06982  0.015273599  0.014019284          376 
 1600000   0.62455612   -7.7353123    292.36768  0.015227483  0.014006549          543 
 1601000   0.61451289   -7.7216013    292.57518  0.015228772  0.013993816          574 
 1602000   0.61378872   -7.7342406    292.62362  0.015221786  0.013981089          389 
 1603000    0.6288473   -7.7317618    292.77014  0.015219907  0.013968378          221 
 1604000   0.62320497   -7.6977359    292.73662  0.015208677  0.013955692          548 
 1605000   0.60798033    -7.726364    291.94199  0.015157943  0.013943022          332 
 1606000   0.61611149   -7.7216128     292.1651  0.015160082  0.013930326          474 
 1607000   0.61153816    -7.731562     292.5152  0.015168803  0.013917668          191 
 1608000   0.60937012   -7.7513494    292.22472  0.015144316  0.013905005          479 
 1609000   0.60686764   -7.7288938    292.11418  0.015129179  0.013892347          500 
 1610000   0.60535552   -7.7526009    291.77502  0.015102227  0.013879702          209 
 1611000   0.61331476   -7.7216617    292.27072  0.015118494  0.013867074          325 
 1612000   0.59213848   -7.7434226    291.92219  0.015091098  0.013854446          178 
 1613000    0.6084191    -7.739112    292.23518  0.015097912  0.013841862          298 
 1614000   0.61314841   -7.7367036    291.57649  0.015054548  0.013829306          206 
 1615000   0.60918233   -7.7217696    292.62421  0.015099289   0.01381674          354 
 1616000    0.5950671   -7.7503435    292.06556  0.015061137  0.013804183          198 
 1617000    0.6152859   -7.7498132    291.95529   0.01504614  0.013791636          357 
 1618000   0.60242633   -7.7656501    291.72534  0.015024997   0.01377909          438 
 1619000   0.59535762   -7.7311264    292.72634   0.01506724   0.01376658          292 
 1620000   0.60000206    -7.763753    292.62872  0.015052918  0.013754102          350 
 1621000   0.61555349   -7.7446755    292.31354  0.015027429  0.013741628          190 
 1622000   0.60392696   -7.7546376    292.00386  0.015002253  0.013729182          179 
 1623000   0.60289126   -7.7380494    292.44123  0.015015467  0.013716741          410 
 1624000   0.61646552   -7.7603653    292.59985   0.01501436  0.013704315          602 
 1625000   0.60082715   -7.7408439     292.9436  0.015022749  0.013691913          407 
 1626000   0.61693765   -7.7580862    291.94177  0.014962165  0.013679502          212 
 1627000   0.60806989   -7.7484933    291.94954  0.014953367  0.013667094          416 
 1628000   0.59528682   -7.7628289    292.26475  0.014960317  0.013654708          445 
 1629000   0.60811125   -7.7364981    292.34036  0.014955001  0.013642347          468 
 1630000    0.5927008   -7.7189005    292.08417  0.014932729  0.013630013          202 
 1631000   0.61237047   -7.7403631    292.20437  0.014929714  0.013617665          419 
 1632000   0.60401009   -7.7563731    291.87695  0.014903847  0.013605336          470 
 1633000   0.60503591   -7.7429854    291.85862  0.014893786  0.013592987          161 
 1634000   0.60379897   -7.7352384    292.13832  0.014898935  0.013580663          462 
 1635000   0.59732222   -7.7573123    291.81586  0.014873387  0.013568351          308 
 1636000   0.58016509   -7.7719287     292.0748  0.014877486  0.013556056          569 
 1637000   0.59963432   -7.7625164    291.43514  0.014835835  0.013543773          244 
 1638000   0.59162048   -7.7660733    291.81768  0.014846239  0.013531472          311 
 1639000   0.60324823   -7.7633408    292.00692  0.014846803  0.013519182          476 
 1640000   0.59423238   -7.7827177    291.93444  0.014834067   0.01350694          321 
 1641000   0.60625329   -7.7555407    291.88328   0.01482243  0.013494703          474 
 1642000   0.58815145   -7.7476198    292.43533   0.01484142  0.013482496          225 
 1643000   0.60512152   -7.7833792    291.64427  0.014792264  0.013470278          368 
 1644000   0.59061908   -7.7663244    291.33223  0.014767449   0.01345806          344 
 1645000   0.60522029   -7.7588261    291.46786  0.014765342  0.013445859          361 
 1646000   0.59831362   -7.7535225    292.26228  0.014796592  0.013433707          611 
 1647000   0.60054898   -7.7447541     291.8557  0.014767036  0.013421557          280 
 1648000    0.6091948    -7.755686      292.462  0.014788734  0.013409439          333 
 1649000   0.58170938   -7.7692346    291.75431  0.014744002  0.013397306          342 
 1650000   0.59645395   -7.7720855    291.94486   0.01474469  0.013385179          362 
 1651000   0.59258955   -7.7613112     291.5548  0.014716071  0.013373072          430 
 1652000   0.58889391   -7.7595549    292.04888  0.014732086  0.013360998          269 
 1653000   0.60073096   -7.7681718    292.03597  0.014722523  0.013348929          420 
 1654000    0.5848039   -7.7621043    292.24287  0.014724046  0.013336858          544 
 1655000    0.6023573   -7.7685539    291.93639  0.014699717  0.013324788          307 
 1656000   0.59021446   -7.7842264    291.70678  0.014679287  0.013312727          574 
 1657000   0.59030225   -7.7793719    291.29755  0.014649847  0.013300669          498 
 1658000   0.57452142   -7.7722896    291.56715  0.014654561  0.013288625          424 
 1659000   0.58949244   -7.7670593     292.3607  0.014685588  0.013276608          495 
 1660000   0.60176733   -7.7876402    291.78509  0.014647846  0.013264614          289 
 1661000   0.59471469   -7.7733728    292.16467  0.014658071   0.01325263          478 
 1662000   0.59187426   -7.7924755    292.12243  0.014647134  0.013240667          495 
 1663000   0.59300484   -7.7657339    291.21744  0.014592977  0.013228717          593 
 1664000   0.59874238   -7.7752263    291.67887  0.014607315  0.013216793          555 
 1665000   0.59298358   -7.7938052    291.16535   0.01457284  0.013204876          330 
 1666000   0.59525938   -7.7547368    291.71296  0.014591484  0.013192959          537 
 1667000   0.60126317   -7.7908555    292.23547  0.014608852  0.013181047          317 
 1668000   0.59504575   -7.7860943    292.23143  0.014599891  0.013169144          420 
 1669000   0.59502132   -7.7809168    291.58729  0.014558982  0.013157258          465 
 1670000   0.58258343   -7.7656363     291.6378  0.014552784  0.013145386          377 
 1671000    0.5898119   -7.7897813    291.26492   0.01452548   0.01313351          495 
 1672000   0.58734281   -7.7796205    292.09753   0.01455829   0.01312166          531 
 1673000     0.591739   -7.7741529    291.92495  0.014540992  0.013109823          472 
 1674000   0.57954635    -7.775635    291.88397  0.014530265   0.01309801          563 
 1675000    0.5981415   -7.7799021    291.33404  0.014494231  0.013086187          610 
 1676000   0.58263628   -7.7681842    291.92783  0.014515107  0.013074389          326 
 1677000   0.57856013   -7.8002541    291.48453  0.014484423  0.013062616          384 
 1678000   0.57968562    -7.770681    291.76373  0.014489657  0.013050834          493 
 1679000   0.59928909   -7.7704423    291.83327  0.014484478   0.01303908          598 
 1680000   0.58411682   -7.7906199    291.40149  0.014454439  0.013027323          576 
 1681000   0.58062231   -7.7763951    291.40876  0.014446201  0.013015568          485 
 1682000   0.59224976   -7.7921957    291.30241  0.014432343  0.013003837          628 
 1683000   0.59500476   -7.7760018    291.71137  0.014444017  0.012992118          562 
 1684000   0.58539849   -7.8089773    291.42659  0.014421348  0.012980426          376 
 1685000   0.58822181   -7.7851233    291.80123  0.014431317  0.012968745          550 
 1686000   0.59156836   -7.7976099    291.61522  0.014413564  0.012957065          426 
 1687000   0.58931631    -7.784577    291.74696  0.014411527  0.012945414          471 
 1688000   0.59005376     -7.77125    291.23461  0.014377696  0.012933769          621 
 1689000    0.5790485   -7.7797073    291.26605  0.014370734   0.01292214          602 
 1690000   0.57507095   -7.8049978    291.93097  0.014395018  0.012910523          679 
 1691000   0.57946053   -7.8062906    291.29979  0.014355401  0.012898899          354 
 1692000   0.56898563   -7.7980232    290.93733  0.014329065  0.012887279          546 
 1693000   0.58559259   -7.7950035    291.64085   0.01435523  0.012875694          668 
 1694000   0.58635413   -7.7921312    291.72474  0.014350883  0.012864098          576 
 1695000   0.57964194   -7.8012046    291.57729  0.014335167  0.012852526          452 
 1696000   0.58808875   -7.8078529    291.36521  0.014316294  0.012840966          574 
 1697000   0.58176436   -7.7996298    291.52698  0.014315801  0.012829419          644 
 1698000   0.57558668   -7.7851846    291.93135  0.014327216  0.012817882          585 
 1699000   0.57175078   -7.8069701    291.09414  0.014277719  0.012806353          590 
 1700000   0.57168928   -7.7974495    291.34966  0.014281846  0.012794846          539 
 1701000   0.57594919   -7.8018915    291.70672  0.014290942   0.01278335          443 
 1702000   0.56135213    -7.806932    291.11891  0.014253766  0.012771859          430 
 1703000   0.57141406   -7.8310736    290.76465  0.014228061  0.012760387          524 
 1704000   0.58592279   -7.8111023    290.96581  0.014229549  0.012748921          562 
 1705000   0.56432429   -7.7875417    291.32244  0.014238634  0.012737487          425 
 1706000   0.56146612   -7.8280101     291.0192  0.014215475  0.012726049          616 
 1707000   0.57324822   -7.8087981    291.19613  0.014215784  0.012714634          719 
 1708000   0.56462199   -7.8328604    291.33343  0.014214161  0.012703235          605 
 1709000   0.57328125    -7.812675    291.56101   0.01421694  0.012691833          383 
 1710000    0.5753275   -7.8003999    291.51096  0.014206187  0.012680456          312 
 1711000   0.57532725   -7.8064668    291.41831  0.014193372  0.012669094          517 
 1712000   0.56157169   -7.8080807    290.88975  0.014159353  0.012657741          655 
 1713000   0.56551389   -7.8213666    291.34625  0.014173295  0.012646403          419 
 1714000   0.57530577   -7.7933749    291.28158  0.014161882   0.01263507          469 
 1715000   0.57927329   -7.8132925    291.03542  0.014141663  0.012623757          329 
 1716000   0.58432672   -7.8239272    290.96852  0.014130173  0.012612433          563 
 1717000   0.55977594   -7.8262153    291.15246  0.014130871  0.012601134          530 
 1718000   0.57097032   -7.8199997    291.53554  0.014141227  0.012589837          633 
 1719000   0.56790341   -7.8345137    290.69914  0.014092454  0.012578556          451 
 1720000   0.57592273   -7.8175061    291.60419   0.01412811  0.012567265          605 
 1721000   0.57838089   -7.8018467    291.17716  0.014099223  0.012555999          562 
 1722000   0.56543949   -7.8314328    290.42021  0.014054404  0.012544741          570 
 1723000   0.56035283   -7.8112429     291.2152  0.014084697  0.012533517          557 
 1724000   0.56483577   -7.8348435    290.55446  0.014044589  0.012522296          545 
 1725000   0.54701807     -7.81581     291.2298  0.014069073  0.012511087          656 
 1726000   0.56249011   -7.8213639    290.79054  0.014039713  0.012499896          500 
 1727000   0.56227127   -7.8286098    290.93325   0.01403847  0.012488691          564 
 1728000   0.54960426   -7.8432484    291.26099  0.014046151  0.012477511          581 
 1729000   0.56291031   -7.8333772    291.03048  0.014026917  0.012466345          584 
 1730000   0.56404849   -7.8377929    291.29375  0.014031491  0.012455194          472 
 1731000   0.55758637   -7.8000805     290.9755  0.014008064  0.012444039          526 
 1732000   0.56560206   -7.8204451    291.02499  0.014002357  0.012432898          529 
 1733000   0.56214939   -7.8194696    290.74222   0.01398068  0.012421769          588 
 1734000   0.56098895   -7.8207329    290.76125  0.013973532  0.012410642          598 
 1735000   0.55811545    -7.834083    290.36247  0.013946324  0.012399553          626 
 1736000   0.56415987    -7.821429    291.38271  0.013987265  0.012388466          421 
 1737000   0.55837491   -7.8538762    290.55855  0.013939673  0.012377381          338 
 1738000   0.55579407   -7.8468177    291.06629  0.013955998  0.012366314          535 
 1739000   0.56426176   -7.8372171    290.26052   0.01390936  0.012355256          451 
 1740000   0.57437637   -7.8267888    290.88744  0.013931391    0.0123442          428 
 1741000   0.55963525    -7.845115    290.65127  0.013912084  0.012333169          591 
 1742000   0.55434992   -7.8279048    290.88492  0.013915276  0.012322146          697 
 1743000   0.56015415    -7.827646    291.03763  0.013914593  0.012311108          325 
 1744000   0.56107156   -7.8454748    290.72795  0.013891817  0.012300108          633 
 1745000   0.54846477   -7.8417825    291.05304  0.013899381  0.012289113          526 
 1746000   0.55481974   -7.8446247    290.70357  0.013874741  0.012278133          646 
 1747000   0.54708311   -7.8325115    290.48672  0.013856455  0.012267172          484 
 1748000    0.5615678   -7.8444547    290.68311  0.013857891  0.012256231          410 
 1749000    0.5465666   -7.8450048     290.1992  0.013826911  0.012245282          579 
 1750000   0.55249106    -7.847952     290.5067  0.013833652  0.012234344          299 
 1751000   0.55556644   -7.8518447    290.68219  0.013834104  0.012223427          649 
 1752000   0.55015241   -7.8582272    290.19375  0.013802975  0.012212525          515 
 1753000   0.55556776   -7.8289958    290.52836  0.013811008  0.012201631          536 
 1754000   0.55113518   -7.8286977    290.93332  0.013822373   0.01219076          291 
 1755000   0.55356673   -7.8441859    290.83492  0.013809825  0.012179904          268 
 1756000   0.55721545   -7.8507301    290.69793   0.01379546  0.012169068          512 
 1757000   0.54794853   -7.8486185    290.19752  0.013763874  0.012158214          664 
 1758000   0.55315481   -7.8768166    290.20138  0.013756228  0.012147381          655 
 1759000   0.54504008   -7.8551664    290.19302  0.013748011  0.012136556          673 
 1760000   0.55288037   -7.8502439    290.15213  0.013738264   0.01212573          632 
 1761000   0.53970785   -7.8572028    290.61524  0.013752377  0.012114936          601 
 1762000   0.55197437   -7.8646656    290.60892  0.013744274  0.012104145          647 
 1763000   0.54882293   -7.8401148    290.58714  0.013735448  0.012093385          546 
 1764000   0.55946697   -7.8537215     290.5256  0.013724754  0.012082628          589 
 1765000   0.54483483    -7.840617     290.5867  0.013719863  0.012071874          526 
 1766000   0.54853676   -7.8715908    289.90471  0.013679913  0.012061125          645 
 1767000   0.56049185   -7.8566146    290.01118  0.013677192  0.012050396          620 
 1768000   0.54117533   -7.8579485    290.55713  0.013695189  0.012039692          597 
 1769000   0.54772373   -7.8770498    289.99335  0.013660889  0.012028975          625 
 1770000   0.55066591   -7.8511515    291.15359  0.013707796  0.012018289          650 
 1771000   0.53819521    -7.859568     290.2431  0.013657213  0.012007608          664 
 1772000   0.55077976   -7.8535921    291.10303  0.013689947   0.01199694          623 
 1773000   0.55601941   -7.8572073    290.16981  0.013638363  0.011986275          551 
 1774000   0.54712759   -7.8494931    290.68302  0.013654783  0.011975628          444 
 1775000   0.54990113   -7.8582597    290.63907  0.013645027  0.011964992          562 
 1776000   0.54379653   -7.8515127    290.03901  0.013609188  0.011954373          608 
 1777000   0.54881982   -7.8452348    290.52175  0.013624167  0.011943765          600 
 1778000   0.54112636   -7.8650552    290.33996  0.013607985  0.011933165          672 
 1779000   0.53976746     -7.85696    290.77905  0.013620904  0.011922583          552 
 1780000   0.54209599   -7.8658817    290.11721  0.013582266  0.011912004          725 
 1781000    0.5491699   -7.8613508    290.24024  0.013580397  0.011901443          573 
 1782000   0.53980599   -7.8501191    290.43199  0.013581743   0.01189089          709 
 1783000   0.54411583   -7.8486235    290.10697  0.013558935  0.011880332          600 
 1784000   0.55482205   -7.8712446    290.28091  0.013559459  0.011869792          620 
 1785000   0.54593461   -7.8616581    290.40806  0.013557799   0.01185925          657 
 1786000   0.54697998   -7.8628608    290.75345  0.013566324  0.011848742          743 
 1787000   0.53939766   -7.8646996     289.6962  0.013509429  0.011838236          731 
 1788000   0.54255875   -7.8695482    290.21651  0.013526124  0.011827746          717 
 1789000   0.54136522   -7.8588067    290.36618  0.013525535  0.011817258          663 
 1790000   0.53516501   -7.8802719    290.28526  0.013514211  0.011806783          763 
 1791000   0.53325346   -7.8661214    290.22604   0.01350391  0.011796307          624 
 1792000    0.5434924   -7.8886741    289.99018  0.013485406  0.011785866          730 
 1793000   0.54312785   -7.8749219    290.58247  0.013505413  0.011775429          662 
 1794000   0.54503708   -7.8708841      289.622   0.01345327  0.011765002          723 
 1795000   0.53300622   -7.8759153    289.64345  0.013446771   0.01175458          711 
 1796000   0.53329938   -7.8579547     290.3863  0.013473752  0.011744168          681 
 1797000   0.51824266   -7.8880624    289.97382  0.013447126  0.011733769          608 
 1798000   0.54229967   -7.8617275    289.90787   0.01343659  0.011723382          571 
 1799000   0.52839858   -7.8902473    290.09082  0.013437596  0.011713018          626 
 1800000   0.53301571   -7.8786181    290.34924  0.013442094  0.011702651          659 
 1801000   0.53625837   -7.8722337    289.85924  0.013411958  0.011692307          644 
 1802000   0.53632598   -7.8702076    290.28168  0.013424051  0.011681965          612 
 1803000   0.55012563    -7.889282    290.39331  0.013421765  0.011671635          620 
 1804000   0.53475707   -7.8804295    289.90634   0.01339183   0.01166132          649 
 1805000   0.53498944      -7.8916    289.62755   0.01337154  0.011651012          730 
 1806000   0.54339919   -7.8825353    290.25134  0.013392919  0.011640715          621 
 1807000    0.5311381   -7.8806688    290.42449  0.013393493  0.011630425          651 
 1808000    0.5390102    -7.884849    290.05725  0.013369158  0.011620149          671 
 1809000   0.52759012   -7.8846131    289.84874  0.013352163  0.011609889          680 
 1810000   0.53275481   -7.8721617    289.87966  0.013346209  0.011599646          589 
 1811000   0.53518731   -7.8820774    290.15072  0.013351312  0.011589424          667 
 1812000   0.53460431   -7.8901182    289.63564  0.013320256  0.011579201          604 
 1813000   0.53186239   -7.8803328     289.9804  0.013328755   0.01156899          653 
 1814000   0.53324962   -7.8850894     289.9615  0.013320539   0.01155879          428 
 1815000   0.53094749   -7.9073923    289.78455  0.013305076  0.011548596          690 
 1816000   0.51986935   -7.8983223    289.94071  0.013304915   0.01153842          685 
 1817000    0.5261682   -7.8764888    289.93728  0.013297435  0.011528247          746 
 1818000   0.52528361   -7.8885873    290.21831  0.013303003  0.011518092          649 
 1819000   0.52899933   -7.8768254    289.98147  0.013284839  0.011507936          708 
 1820000    0.5342832   -7.8722689    289.93303  0.013275322  0.011497785          591 
 1821000   0.52152948   -7.8874491    289.71277  0.013257952  0.011487647          539 
 1822000   0.53047249    -7.910018    289.88462  0.013258536  0.011477525          653 
 1823000   0.52378461   -7.8917025    289.74476  0.013244869  0.011467421          763 
 1824000   0.53171711   -7.8760727    289.79468  0.013239889  0.011457327          720 
 1825000   0.52582318   -7.8886243    289.74708   0.01323046  0.011447245          740 
 1826000   0.53134463   -7.8896542    289.82169   0.01322662  0.011437171          708 
 1827000   0.52823004   -7.8863565    289.98027  0.013226613  0.011427114          736 
 1828000   0.51365884    -7.915094    289.35506  0.013190876  0.011417051          675 
 1829000    0.5383782   -7.8870928    290.07359  0.013216402  0.011407011          561 
 1830000   0.52694436   -7.8986023    290.14018  0.013212212  0.011396975          584 
 1831000    0.5232157   -7.9025907    289.54967  0.013178121  0.011386939          730 
 1832000   0.52329903   -7.9013658    290.01894  0.013192273  0.011376928          736 
 1833000   0.53407788   -7.9160332      289.564  0.013164393  0.011366913          688 
 1834000    0.5239781   -7.9229763    289.21024  0.013141141   0.01135691          747 
 1835000   0.52128376   -7.9234002     289.7166  0.013156975  0.011346921          583 
 1836000   0.51354149   -7.9303697    289.51906  0.013140843  0.011336941          701 
 1837000   0.52612544   -7.9150571    290.12588  0.013161217  0.011326974          670 
 1838000   0.51576686   -7.9226385    289.77931  0.013138344  0.011317014          807 
 1839000   0.52191507   -7.9140616    289.37589  0.013112919  0.011307072          756 
 1840000   0.53322596   -7.9217272    289.97907   0.01313311  0.011297124          712 
 1841000   0.51700607   -7.9161639    289.46838   0.01310286  0.011287196          747 
 1842000   0.52018754   -7.9237869    289.20749  0.013083944  0.011277274          745 
 1843000   0.52309405   -7.9114228    289.08381  0.013071252  0.011267365          812 
 1844000   0.51339821   -7.9231488    289.67874  0.013091049  0.011257469          738 
 1845000    0.5156275   -7.9378446    289.56652  0.013078885  0.011247584          744 
 1846000   0.51898687   -7.9026022    289.52034  0.013069716  0.011237714          705 
 1847000   0.51867573   -7.9248487    288.91988  0.013035548  0.011227847          800 
 1848000   0.52394769   -7.9470497    289.22321  0.013042172   0.01121799          785 
 1849000   0.51900709   -7.9268194    289.42901  0.013044394  0.011208135          750 
 1850000    0.5105093   -7.9090363    289.47945  0.013039615  0.011198298          715 
 1851000    0.5074166   -7.9305723    289.28571  0.013023848  0.011188477          758 
 1852000   0.52038892   -7.9372713    289.82602  0.013041128  0.011178664          700 
 1853000   0.52130458   -7.9271989    289.45816  0.013017546  0.011168865          694 
 1854000   0.50998048   -7.9183681     289.7321  0.013022838  0.011159066          728 
 1855000   0.51633578   -7.9273793    289.16209  0.012990211   0.01114931          724 
 1856000   0.50720046   -7.9271481    289.76627  0.013010339  0.011139548          714 
 1857000   0.50777543   -7.9375235    289.47656  0.012990332   0.01112979          745 
 1858000   0.50854024   -7.9207887    289.02017  0.012962871   0.01112005          663 
 1859000   0.49705468   -7.9158578    289.46002  0.012975615  0.011110315          771 
 1860000   0.51772014   -7.9320545     289.0328  0.012949498  0.011100593          812 
 1861000   0.51249989   -7.9227408    289.37523  0.012957873  0.011090885          723 
 1862000   0.50012583   -7.9125247    289.35308  0.012949923  0.011081187          750 
 1863000   0.51131741   -7.9366046    289.75794  0.012961082  0.011071483          727 
 1864000   0.50795341   -7.9297924    289.26891  0.012932265   0.01106179          635 
 1865000    0.5124049   -7.9258765    289.38497  0.012930517  0.011052099          743 
 1866000   0.50841791     -7.94121    289.43748  0.012925933  0.011042422          703 
 1867000    0.5080861   -7.9231985    289.21757  0.012909193  0.011032755          744 
 1868000   0.49335846   -7.9342273    289.09228  0.012896693  0.011023106          756 
 1869000    0.5130438    -7.927262    289.51556  0.012908666  0.011013465          671 
 1870000    0.5051806   -7.9204161    289.33548  0.012893738  0.011003838          726 
 1871000   0.50000523   -7.9342809    289.44891  0.012891899  0.010994214          833 
 1872000   0.50898893   -7.9312989    289.60443  0.012891935  0.010984597          715 
 1873000   0.50506938   -7.9338837    289.04497   0.01286016  0.010975001          725 
 1874000   0.49767575   -7.9229857    289.68529  0.012881772  0.010965412          769 
 1875000   0.50266817   -7.9144721    288.75718  0.012833653  0.010955839          785 
 1876000   0.49185812   -7.9341608    289.31092  0.012851409   0.01094627          885 
 1877000   0.51194508   -7.9528264    288.81304  0.012822458  0.010936713          791 
 1878000   0.50870994   -7.9472459    288.72521  0.012811733  0.010927159          718 
 1879000   0.49730084   -7.9553027    289.38129  0.012834012  0.010917621          737 
 1880000   0.49840229   -7.9386682    289.08359  0.012813989  0.010908093          762 
 1881000   0.50818864   -7.9345529    289.68629  0.012833878  0.010898574          751 
 1882000   0.49954447   -7.9382086     289.4965  0.012818655  0.010889073          844 
 1883000   0.49622791   -7.9341557    289.24415  0.012800679  0.010879571          758 
 1884000   0.50422321   -7.9379131    289.26108  0.012794634  0.010870085          789 
 1885000   0.49835223   -7.9247183    288.76662  0.012765987  0.010860605          866 
 1886000   0.50523234    -7.941083    289.20894  0.012778762  0.010851138          669 
 1887000   0.49471767   -7.9484293    289.25484  0.012774017  0.010841681          709 
 1888000   0.50233951   -7.9556461    288.92746  0.012752801   0.01083224          761 
 1889000   0.50598849   -7.9414559    289.50456  0.012771509  0.010822813          783 
 1890000   0.49629866    -7.957937     288.7148  0.012729929  0.010813381          734 
 1891000   0.49263411   -7.9478986     288.8376  0.012728609  0.010803967          817 
 1892000   0.49441819   -7.9390197    289.04216  0.012730891  0.010794554          780 
 1893000   0.49183323   -7.9521936    288.79473  0.012713274  0.010785152          730 
 1894000   0.50275049   -7.9951773    289.27825  0.012727836  0.010775762          869 
 1895000   0.48483762    -7.950534    289.13328  0.012714744  0.010766391          729 
 1896000   0.48634717   -7.9493054    289.11822  0.012707376  0.010757018          845 
 1897000   0.49624597   -7.9436842    289.05914  0.012698082  0.010747657          803 
 1898000   0.50291694   -7.9608005    288.75878  0.012678204  0.010738319          768 
 1899000   0.49326733    -7.961345     288.9683  0.012680722  0.010728988          808 
 1900000   0.49846353   -7.9528172    288.38233  0.012648348  0.010719656          855 
 1901000   0.49946577   -7.9533039    288.90691   0.01266469  0.010710339          801 
 1902000   0.49542595     -7.95584    289.33289  0.012676695  0.010701031          831 
 1903000   0.49429707   -7.9561165    288.72097  0.012643237  0.010691737          761 
 1904000   0.49786736   -7.9772848    288.50067  0.012626955  0.010682449          824 
 1905000   0.49446513   -7.9403308    289.03562  0.012643728  0.010673166          700 
 1906000   0.49604385   -7.9730326    288.79905  0.012626751  0.010663905          802 
 1907000   0.49123441   -7.9539341    289.07065  0.012631998  0.010654648          807 
 1908000    0.4915151   -7.9568508    288.69175  0.012608829  0.010645409          830 
 1909000    0.4948825   -7.9742665    288.79599  0.012606775  0.010636186          831 
 1910000   0.48325101   -7.9643352    288.77309  0.012599175  0.010626964          762 
 1911000   0.47935085   -7.9713298    288.98825  0.012601965  0.010617749          709 
 1912000   0.49438591   -7.9750882    288.40714  0.012570046  0.010608541          693 
 1913000   0.48535926   -7.9550425    288.90513  0.012585169  0.010599352          750 
 1914000   0.49076161   -7.9710491    288.17383  0.012546753  0.010590168          691 
 1915000   0.49401422   -7.9602243    288.60263  0.012558861  0.010581002          802 
 1916000   0.48835386   -7.9698133    288.86829  0.012563861  0.010571833          778 
 1917000   0.48814324   -7.9626111     288.8602  0.012556955  0.010562668          837 
 1918000   0.47287368   -7.9622889    288.81449  0.012548422  0.010553512          814 
 1919000   0.49461014   -7.9706636    288.83804  0.012542906   0.01054438          726 
 1920000   0.47721338   -7.9798182    288.64534   0.01252801  0.010535254          776 
 1921000   0.48622527   -7.9586224    288.70011  0.012523864  0.010526131          752 
 1922000   0.48490788   -7.9738525    288.81489  0.012522325   0.01051703          824 
 1923000   0.47971614   -7.9794498    288.84325  0.012517042   0.01050794          803 
 1924000   0.49134494   -7.9734925    288.49679   0.01249553  0.010498859          813 
 1925000   0.47904612   -7.9757085    288.63654  0.012495088  0.010489774          861 
 1926000   0.49221488   -7.9835357    288.52992  0.012483988  0.010480716          805 
 1927000   0.47158772   -7.9798709    288.77072  0.012487923  0.010471655          789 
 1928000   0.48529514   -7.9801557    288.29466  0.012460869  0.010462613          746 
 1929000   0.49699574   -7.9789639    287.88606  0.012436757  0.010453583          825 
 1930000   0.47408748   -7.9594831    288.42579  0.012453618  0.010444551          829 
 1931000    0.4731397   -7.9742463    288.38863  0.012445565   0.01043553          884 
 1932000   0.49526962   -7.9862939    288.53591  0.012445476  0.010426524          771 
 1933000    0.4792927   -7.9839341    287.98241  0.012415175  0.010417523          784 
 1934000   0.47620291    -7.967182    288.34774  0.012424498   0.01040853          776 
 1935000   0.47828286   -7.9845634    288.41057  0.012420783  0.010399547          838 
 1936000   0.47550276   -7.9847363    288.59288  0.012422214  0.010390574          819 
 1937000   0.47414004   -7.9745407    288.95675  0.012431455  0.010381617          785 
 1938000   0.48445792   -7.9836753    288.31676  0.012397521  0.010372673          763 
 1939000   0.48953542   -7.9690249    288.35563  0.012392798  0.010363732          783 
 1940000   0.49111323    -7.980415    288.50364  0.012392768  0.010354805          781 
 1941000   0.48143121   -8.0098044    288.25126  0.012375548  0.010345887          821 
 1942000   0.48494954   -7.9743032    288.25804  0.012369466  0.010336974          863 
 1943000   0.46934619   -7.9911995    288.10226  0.012356419  0.010328075          778 
 1944000   0.47928839   -7.9939465    288.37156  0.012361607  0.010319183          787 
 1945000   0.47203117   -7.9904663    288.40334  0.012356613  0.010310299          742 
 1946000   0.49048617   -7.9761963    288.59984  0.012358678  0.010301423          779 
 1947000   0.46816497   -7.9960621    288.46404  0.012346518  0.010292557          824 
 1948000   0.46878827   -7.9926586    288.41815  0.012338217  0.010283705          863 
 1949000   0.47461807   -7.9926192    288.26058  0.012325149  0.010274858          795 
 1950000   0.47429853   -7.9881715    288.49624  0.012328899  0.010266016          846 
 1951000   0.46502577   -8.0022129    287.77917  0.012291952  0.010257188          905 
 1952000   0.46605915   -7.9856919    288.13638  0.012300904  0.010248374          818 
 1953000    0.4697065   -7.9731603    288.60176  0.012314463  0.010239562          792 
 1954000   0.46660746   -7.9803771    288.01771  0.012283253   0.01023077          886 
 1955000   0.46871058   -7.9916181    288.26121  0.012287349  0.010221982          875 
 1956000   0.48237181    -7.990494    287.92945  0.012266933  0.010213207          845 
 1957000   0.48338763   -8.0048575    288.42502  0.012281767  0.010204443          858 
 1958000   0.48151642    -7.990589    287.98135  0.012256612  0.010195682          858 
 1959000   0.47332346   -7.9800159    288.39851  0.012268101  0.010186943          830 
 1960000   0.47619847   -7.9746094    288.38856  0.012261419  0.010178207          822 
 1961000   0.45956506    -7.986209    288.29659  0.012251257  0.010169481          872 
 1962000    0.4620668   -7.9969892    288.04717  0.012234419  0.010160752          833 
 1963000   0.47413916   -7.9774618    287.61475   0.01220983  0.010152039          805 
 1964000   0.46099269   -8.0100748    288.15257  0.012226433  0.010143338          816 
 1965000   0.46489028   -7.9935843    288.21635  0.012222916  0.010134646          851 
 1966000   0.46108007   -8.0083735    288.04118  0.012209273  0.010125962          851 
 1967000   0.46281123   -8.0042806    288.02772  0.012202496  0.010117283          803 
 1968000   0.46522284   -8.0104545    288.10531  0.012199581  0.010108614          789 
 1969000   0.47237002   -7.9913038    287.98548  0.012188314  0.010099949          815 
 1970000   0.47195778   -8.0070252    288.22384   0.01219221  0.010091303          602 
 1971000   0.45916874   -7.9953662    287.99266   0.01217625  0.010082669          890 
 1972000   0.46732604   -8.0017155     288.3633  0.012185738  0.010074041          797 
 1973000   0.46772446    -7.995841     287.8655  0.012158536  0.010065417          894 
 1974000   0.47240689   -7.9860693     288.3629  0.012173375  0.010056805          749 
 1975000   0.46050825   -7.9977713    288.32191  0.012165482  0.010048209          842 
 1976000   0.46545276   -8.0074405    288.13172  0.012151304  0.010039634          843 
 1977000   0.46299416   -7.9935019     288.0663    0.0121424  0.010031068          751 
 1978000   0.46051074   -7.9987954    287.59838  0.012116548  0.010022498          843 
 1979000   0.47049402    -8.004172    288.07008  0.012130288  0.010013936          836 
 1980000   0.46077136   -7.9846896     287.9835  0.012120517  0.010005386          849 
 1981000   0.46179666   -7.9998809    287.98793  0.012114586 0.0099968435          832 
 1982000   0.46934992   -8.0264237    287.69807  0.012096286 0.0099883045          978 
 1983000   0.45930128   -7.9975817    288.03553  0.012104368 0.0099797848          869 
 1984000   0.45844921   -7.9898144    287.95921  0.012095061 0.0099712704          874 
 1985000   0.46916437   -8.0007197    288.14824  0.012096903 0.0099627792          913 
 1986000   0.45853347   -7.9992927    287.95898  0.012082871 0.0099542889          815 
 1987000   0.46075445   -8.0002937    287.75475  0.012068225 0.0099458158          843 
 1988000   0.46454464   -7.9947241    288.07766   0.01207569 0.0099373326          829 
 1989000   0.45936645   -8.0085781    287.77434   0.01205691  0.009928873          788 
 1990000   0.45686142   -8.0135966    287.77372  0.012050826 0.0099204065          879 
 1991000   0.46533891   -7.9970141    287.99237  0.012053925 0.0099119515          858 
 1992000    0.4471146   -8.0036461    288.36227  0.012063348 0.0099035091          849 
 1993000   0.47147096   -8.0143441     288.0417  0.012043891 0.0098950825          830 
 1994000   0.45150745   -7.9989666    288.03209  0.012037449 0.0098866714          807 
 1995000   0.45899561   -8.0163148    288.25104  0.012040561 0.0098782644          803 
 1996000   0.45415238    -8.019171    288.02352   0.01202503 0.0098698567          802 
 1997000   0.46173422   -8.0228383    287.72025  0.012006353 0.0098614596          888 
 1998000    0.4534264   -8.0075804    287.46476  0.011989688 0.0098530722          896 
 1999000   0.44599395   -8.0092358    288.20404  0.012014509 0.0098446994          890 
 2000000   0.44716599   -8.0103993    287.60703  0.011983626 0.0098363328          779 
 2001000   0.46029902   -8.0151406    288.25218  0.012004505 0.0098279827          853 
 2002000   0.45474831   -8.0012169    288.07274   0.01199104 0.0098196326          855 
 2003000   0.45001733   -8.0113842    288.21079  0.011990797 0.0098112916          847 
 2004000   0.44233621   -8.0136895    287.67344  0.011962468 0.0098029568          797 
 2005000   0.45839705    -8.017698    287.80367  0.011961915 0.0097946312          798 
 2006000   0.45854888   -8.0180875    287.91794  0.011960699 0.0097863244          686 
 2007000   0.45923581   -8.0124418    288.21475  0.011967063 0.0097780205          807 
 2008000   0.46004526   -8.0268559    287.58451  0.011934948 0.0097697279          888 
 2009000   0.45947134   -8.0322399    287.99869  0.011946188 0.0097614388          819 
 2010000   0.45373788   -8.0116314     287.7114  0.011928333 0.0097531566          873 
 2011000   0.44490695   -8.0186368    287.91273  0.011930745 0.0097448981          752 
 2012000    0.4530141   -8.0261289     287.6167  0.011912554 0.0097366452          827 
Loop time of 5231.47 on 48 procs for 2000000 steps with 4000 atoms

Performance: 66061.717 tau/day, 382.302 timesteps/s
99.4% CPU use with 48 MPI tasks x no OpenMP threads

MPI task timing breakdown:
Section |  min time  |  avg time  |  max time  |%varavg| %total
---------------------------------------------------------------
Pair    | 366.7      | 401.34     | 426.12     |  72.3 |  7.67
Neigh   | 36.694     | 38.131     | 39.75      |  12.2 |  0.73
Comm    | 334.51     | 359.88     | 393.45     |  77.0 |  6.88
Output  | 5.1595     | 5.1615     | 5.2065     |   0.3 |  0.10
Modify  | 4361.3     | 4377.9     | 4390.5     |  12.1 | 83.68
Other   |            | 49.09      |            |       |  0.94

Nlocal:        83.3333 ave          88 max          75 min
Histogram: 1 0 1 6 4 8 10 3 6 9
Nghost:        2427.58 ave        2453 max        2412 min
Histogram: 4 10 6 7 8 3 4 5 0 1
Neighs:        16858.0 ave       19351 max       14484 min
Histogram: 1 5 9 6 7 3 4 6 4 3
FullNghs:      33715.4 ave       35788 max       30354 min
Histogram: 1 1 1 5 6 10 6 4 11 3

Total # of neighbors = 1618337
Ave neighs/atom = 404.58425
Neighbor list builds = 106723
Dangerous builds = 0

#clear
#
#next RN
#
#jump SELF
Total wall time: 1:27:15
