
units lj                  # Use reduced LJ style units
atom_style atomic         # Uncharged point particles
atom_modify map hash      # Needed for indexing of clusters etc
                          # Used to be able to find where atoms are in relation to each other.

lattice fcc 1.0 spacing 1 1 1
Lattice spacing in x,y,z = 1.5874011 1.5874011 1.5874011
region box block 0 10 0 10 0 10 units lattice
create_box 2 box
Created orthogonal box = (0.0000000 0.0000000 0.0000000) to (15.874011 15.874011 15.874011)
  3 by 4 by 4 MPI processor grid
create_atoms 1 box
Created 4000 atoms
  using lattice units in orthogonal box = (0.0000000 0.0000000 0.0000000) to (15.874011 15.874011 15.874011)
  create_atoms CPU = 0.002 seconds
set type 1 type/fraction 2 0.53 78393
Setting atom values ...
  2126 settings made for type/fraction
mass 1 1.0
mass 2 1.0
pair_style lj/cut  3.5
pair_modify tail  yes
pair_coeff 1  1  1.0  1.0   # Intearaction between 1 and 1 set with epsilon = 1 and sigma = 1
pair_coeff 1  2  1.5  0.8
pair_coeff 2  2  0.5  0.88

write_data data.0
System init for write_data ...
Neighbor list info ...
  update every 1 steps, delay 10 steps, check yes
  max neighbors/atom: 2000, page size: 100000
  master list distance cutoff = 3.8
  ghost atom cutoff = 3.8
  binsize = 1.9, bins = 9 9 9
  1 neighbor lists, perpetual/occasional/extra = 1 0 0
  (1) pair lj/cut, perpetual
      attributes: half, newton on
      pair build: half/bin/atomonly/newton
      stencil: half/bin/3d
      bin: standard
WARNING: Not all mixed pair coeffs generated from mixing. Use write_data with 'pair ij' option to store all pair coeffs. (../write_data.cpp:312)


#############################
#   M E L T   S Y S T E M   #
#############################

velocity all create 2.4 6229865 mom yes dist gaussian # Assign velocities
                                                    # Temperature 2.4, random number seed, zero linear momentum
                                                                                # Gaussian distribution

timestep 0.002   # simulation timestep
thermo 1000       # output thermodynamic data every 1000 steps bf 100

# Define a fix  in this case with index 1 applied to all
# particles in the simulation. This fix is for simulations
# in the anisotropic NPT ensemble. Note that we use the MTK
# correction.
fix 1 all npt temp 2.4 2.4 0.1 iso 5.68 5.68 0.5 mtk yes tchain 5 pchain 5 # Use NPT ensemble
                                                                         # Set temperature and pressure and damping
                                                                         # Numbers of thermostats in chain and in barostat
run 10000          # run for 10000 steps
Per MPI rank memory allocation (min/avg/max) = 3.642 | 3.644 | 3.648 Mbytes
Step Temp E_pair E_mol TotEng Press Volume 
       0          2.4   -5.1225569            0   -1.5234569   -4.1795691         4000 
    1000     2.413113   -4.7296971            0   -1.1109324     5.926222     3670.147 
    2000     2.391822    -4.760683            0    -1.173847    5.7680944    3668.6893 
    3000    2.3836323   -4.7832361            0   -1.2086815    5.6219623    3667.5668 
    4000    2.4598082   -4.8525773            0   -1.1637875    5.5824975    3641.8827 
    5000    2.3719377   -4.7276294            0   -1.1706124    5.8001815    3682.5848 
    6000    2.3907083   -4.7558968            0   -1.1707309    5.7830109    3672.7882 
    7000    2.4052048    -4.904634            0   -1.2977286    5.7357171    3606.5158 
    8000    2.3718399   -4.8181888            0   -1.2613184    5.5055989    3657.8623 
    9000    2.4289302   -4.8301132            0   -1.1876288    6.3788284    3600.5696 
   10000    2.3733483   -4.7767222            0   -1.2175898    5.7287947    3667.8607 
Loop time of 2.63429 on 48 procs for 10000 steps with 4000 atoms

Performance: 655965.227 tau/day, 3796.095 timesteps/s
99.6% CPU use with 48 MPI tasks x no OpenMP threads

MPI task timing breakdown:
Section |  min time  |  avg time  |  max time  |%varavg| %total
---------------------------------------------------------------
Pair    | 1.2239     | 1.2636     | 1.4074     |   2.6 | 47.97
Neigh   | 0.21697    | 0.22301    | 0.24307    |   0.9 |  8.47
Comm    | 0.73633    | 0.87638    | 0.93995    |   4.1 | 33.27
Output  | 0.00024674 | 0.00025207 | 0.00032939 |   0.0 |  0.01
Modify  | 0.21163    | 0.25534    | 0.30123    |   5.3 |  9.69
Other   |            | 0.01571    |            |       |  0.60

Nlocal:        83.3333 ave          91 max          74 min
Histogram: 2 5 4 1 5 9 4 11 4 3
Nghost:        1731.85 ave        1759 max        1711 min
Histogram: 4 8 5 4 9 3 4 7 3 1
Neighs:        10401.4 ave       11629 max        9074 min
Histogram: 3 5 2 3 7 6 11 5 4 2

Total # of neighbors = 499266
Ave neighs/atom = 124.81650
Neighbor list builds = 904
Dangerous builds = 200

# Equilibrate just above the melting temperature to avoid step fn in T

fix 1 all npt temp 1.25 1.25 0.1 iso 5.68 5.68 0.5 mtk yes tchain 5 pchain 5
run 2000
Per MPI rank memory allocation (min/avg/max) = 3.644 | 3.646 | 3.649 Mbytes
Step Temp E_pair E_mol TotEng Press Volume 
   10000    2.3733483   -4.7767222            0   -1.2175898    5.7287947    3667.8607 
   11000    1.2553444    -6.887344            0   -5.0047981    5.6228226    2847.0834 
   12000    1.2425071   -7.0241641            0   -5.1608693    5.6334704    2805.7404 
Loop time of 0.648114 on 48 procs for 2000 steps with 4000 atoms

Performance: 533239.254 tau/day, 3085.875 timesteps/s
99.6% CPU use with 48 MPI tasks x no OpenMP threads

MPI task timing breakdown:
Section |  min time  |  avg time  |  max time  |%varavg| %total
---------------------------------------------------------------
Pair    | 0.2959     | 0.32005    | 0.34597    |   1.8 | 49.38
Neigh   | 0.040543   | 0.042966   | 0.045717   |   0.5 |  6.63
Comm    | 0.20737    | 0.2356     | 0.26451    |   2.5 | 36.35
Output  | 5.2541e-05 | 5.3783e-05 | 7.0349e-05 |   0.0 |  0.01
Modify  | 0.041132   | 0.044446   | 0.047076   |   0.8 |  6.86
Other   |            | 0.005      |            |       |  0.77

Nlocal:        83.3333 ave          90 max          75 min
Histogram: 3 0 3 3 8 8 10 2 9 2
Nghost:        2089.92 ave        2106 max        2068 min
Histogram: 3 1 4 2 6 8 9 4 7 4
Neighs:        13608.5 ave       15366 max       12205 min
Histogram: 7 2 2 11 6 6 5 4 3 2

Total # of neighbors = 653209
Ave neighs/atom = 163.30225
Neighbor list builds = 141
Dangerous builds = 4

#############################
# L I N E A R  Q U E N C H  #
#############################

# Define solid atoms. This closely follows ten Wolde  Ruiz-Montero and Frenkel  Faraday Discuss  1996  104  93-110
# Compute components of the per-atom q6 vector
compute q6 all orientorder/atom degrees 1 6 components 6 nnn NULL cutoff 1.3 # compute the Q6 parameter.
                                                                             # Use all neighbours within 1.3 unit cell.

# get number of connections
compute coord_number all coord/atom orientorder q6 0.5

# An atom is solid if it has 8 or more connections (of a possible 14)
variable is_solid atom c_coord_number>=8
group solid dynamic all var is_solid    # Must be dynamic to update
dynamic group solid defined

# do clustering
compute cluster solid cluster/atom 1.3 # Create a cluster where all atoms within are solid and max 1.3 units from another member

# define chunks one chunk per cluster
compute clus_chunks solid chunk/atom c_cluster nchunk every compress yes  # Says which atoms are in which chunk

# count the size of each chunk
compute size_chunks solid property/chunk clus_chunks count


# Find the maximum entry in the vector of chunk sizes
variable max_n equal max(c_size_chunks)


# Thermo style which includes this variable
# thermo_style custom step temp pe vol v_max_n

thermo ${N}  # Print the thermo information every 100 steps
thermo 1000  

# Reset the npt fix at a lower temperature (below freezing)
fix 1  all npt temp  ${temp} ${temp}  0.1  iso  5.68  5.68  0.5  mtk yes tchain  5  pchain  5
fix 1  all npt temp  0.45 ${temp}  0.1  iso  5.68  5.68  0.5  mtk yes tchain  5  pchain  5
fix 1  all npt temp  0.45 0.45  0.1  iso  5.68  5.68  0.5  mtk yes tchain  5  pchain  5

dump dmp2 all dcd ${N} traj.dcd
dump dmp2 all dcd 1000 traj.dcd


compute msd all msd com yes
variable twopoint equal c_msd[4]/6/(step*dt+1.0e-6)
fix 9 all vector 10 c_msd[4]
variable fit equal slope(f_9)/6/(10*dt)
thermo_style custom step temp pe c_msd[4] v_twopoint v_fit v_max_n

fix 1 all npt temp 1.25 ${temp} 0.1 iso 5.68 5.68 0.5 mtk yes tchain 5 pchain 5
fix 1 all npt temp 1.25 0.45 0.1 iso 5.68 5.68 0.5 mtk yes tchain 5 pchain 5
run 2000000 # 5000000  # Run for this many steps
Neighbor list info ...
  update every 1 steps, delay 10 steps, check yes
  max neighbors/atom: 2000, page size: 100000
  master list distance cutoff = 3.8
  ghost atom cutoff = 3.8
  binsize = 1.9, bins = 8 8 8
  4 neighbor lists, perpetual/occasional/extra = 1 3 0
  (1) pair lj/cut, perpetual
      attributes: half, newton on
      pair build: half/bin/atomonly/newton
      stencil: half/bin/3d
      bin: standard
  (2) compute orientorder/atom, occasional
      attributes: full, newton on
      pair build: full/bin/atomonly
      stencil: full/bin/3d
      bin: standard
  (3) compute coord/atom, occasional
      attributes: full, newton on
      pair build: full/bin/atomonly
      stencil: full/bin/3d
      bin: standard
  (4) compute cluster/atom, occasional
      attributes: full, newton on
      pair build: full/bin/atomonly
      stencil: full/bin/3d
      bin: standard
Per MPI rank memory allocation (min/avg/max) = 9.844 | 9.847 | 9.851 Mbytes
Step Temp PotEng c_msd[4] v_twopoint v_fit v_max_n 
   12000    1.2425071   -7.0241641 1.8218743e-30 1.2651904e-32 8.3333333e+20            2 
   13000    1.2662715   -7.0452758   0.46259857 0.0029653753  0.038068343            2 
   14000    1.2217213   -6.9839493   0.90793786 0.0054043918  0.036119754            3 
   15000     1.235453   -7.0530656    1.3079284 0.0072662685  0.035983161            4 
   16000    1.2690188   -7.0135452    1.7583348 0.0091579935  0.035827278            2 
   17000    1.2551464   -7.0482915    2.1885218  0.010728048  0.035967181            4 
   18000    1.2628425   -7.0739325     2.591816  0.011999148  0.035798597            1 
   19000    1.2428593   -7.0576551    2.9721372  0.013035689  0.035385164            3 
   20000     1.241508   -7.0383728    3.3782011  0.014075838  0.035189716            2 
   21000    1.2418012   -7.0573757    3.7791081   0.01499646  0.034825323            3 
   22000    1.2292643   -7.0480199    4.2186967  0.015979912  0.034627558            2 
   23000    1.2389372   -7.0657814    4.5687035  0.016553273  0.034438706            1 
   24000    1.2371541   -7.0507004    4.9539317  0.017201151  0.034222909            1 
   25000    1.2720556   -7.0110718    5.3716257  0.017905419  0.034127975            4 
   26000    1.2424934   -7.0295647    5.7945738  0.018572352   0.03402024            4 
   27000     1.226983   -6.9887642    6.1179938  0.018882697  0.033934463            1 
   28000    1.2261518   -6.9825986    6.5527713  0.019502295  0.033787733            3 
   29000      1.24696    -7.033846    7.0069846  0.020135013  0.033734794            2 
   30000     1.222916   -7.1064697    7.3827202  0.020507556  0.033715748            2 
   31000    1.2422736   -7.0852279    7.7638515  0.020870568  0.033707067            2 
   32000    1.2576205   -7.0158655    8.2304659  0.021433505  0.033737442            2 
   33000    1.2304511   -7.0902248    8.6365816  0.021809549   0.03377567            2 
   34000    1.2302433   -7.0059826     8.851415  0.021694644  0.033711142            2 
   35000    1.2170899   -7.0592202    9.1887585  0.021877996  0.033539264            1 
   36000    1.2173381   -7.0572631    9.6545391   0.02234847  0.033395516            1 
   37000    1.2493736   -7.0632044     10.03641  0.022604526  0.033283868            2 
   38000    1.2480393    -7.044863    10.487671  0.022999277  0.033218408            1 
   39000    1.2564706    -7.037507    10.881632   0.02325135  0.033217696            4 
   40000    1.2450304   -7.0421165    11.231467  0.023398889  0.033167479            1 
   41000    1.2739838   -7.0973817    11.571144  0.023518585  0.033117791            2 
   42000    1.2457588   -7.0407393    12.101894  0.024011695  0.033115813            1 
   43000    1.2367001   -7.0577447    12.716744  0.024644852  0.033165123            1 
   44000     1.232951   -7.0627237    13.087843  0.024787582  0.033249206            1 
   45000    1.2052304    -7.103986    13.500648    0.0250012  0.033327636            2 
   46000    1.2356183   -7.0395715    13.869527  0.025125955  0.033397935            1 
   47000    1.2261761   -7.0482431    14.276814    0.0253135  0.033438717            3 
   48000    1.2335902   -7.0449004    14.596975   0.02534197  0.033446003            4 
   49000    1.2074102   -7.0079293    14.988079  0.025489931  0.033446312            5 
   50000    1.2250907   -7.0110903    15.380654  0.025634423  0.033460035            7 
   51000    1.2087662   -7.0362144    15.759063  0.025750103  0.033445626            2 
   52000    1.2361371   -7.0385337    16.204937   0.02596945  0.033434929            4 
   53000    1.2245479   -7.0801578     16.50861  0.025956933   0.03342493            2 
   54000    1.2415312   -7.0683409    16.857175  0.026014158  0.033396917            2 
   55000    1.2275046   -7.0633967    17.322979  0.026246937  0.033375921            1 
   56000     1.239343   -7.0232705      17.5905  0.026176339  0.033356232            3 
   57000    1.2541537   -7.0711791    18.067601  0.026414621  0.033324414            1 
   58000     1.231139   -7.0880643     18.41067  0.026452112  0.033307359            3 
   59000    1.2345823   -7.0977441    18.862731  0.026642275  0.033288031            2 
   60000    1.2359201   -7.0557428    19.305599  0.026813332   0.03327746            2 
   61000    1.2399018   -7.0699288    19.659553  0.026857313  0.033267031            4 
   62000    1.2588725    -7.054147    19.923575  0.026778998  0.033240248            1 
   63000    1.2570805   -7.0984529    20.350978  0.026919283   0.03320706            2 
   64000    1.2271399   -7.0853643    20.884969   0.02719397  0.033200491            6 
   65000    1.2125184   -7.0900747    21.232885  0.027221647  0.033195994            2 
   66000    1.2098436   -7.0493632    21.466237  0.027103834  0.033168247            1 
   67000    1.2048958   -7.1039238     21.85936  0.027188259  0.033136774            2 
   68000    1.2355665   -7.1032037    22.120511  0.027108469  0.033096122            4 
   69000    1.2404716   -7.0583838    22.512874  0.027189461  0.033046987            4 
   70000    1.2262966   -7.1248193    22.792253  0.027133634  0.032992261            2 
   71000     1.221182   -7.0922129    23.132152  0.027150413   0.03293531            3 
   72000    1.2236761   -7.1374723    23.420918  0.027107544  0.032864614            2 
   73000    1.2181481   -7.0561608    23.848861  0.027224727  0.032797714            1 
   74000    1.2379466   -7.0785427    24.053605  0.027087393  0.032724532            2 
   75000    1.2269673   -7.0712408    24.551439  0.027279376  0.032651196            3 
   76000    1.2023917   -7.1116094    24.966497  0.027375544  0.032591638            3 
   77000    1.2511237   -7.1005042     25.27487  0.027353756  0.032550284            1 
   78000     1.214428   -7.0521896    25.801138  0.027565318  0.032506483            1 
   79000    1.2183998   -7.0939551    26.216342  0.027654369  0.032472989            2 
   80000     1.209468   -7.1302134    26.536599  0.027642291  0.032440717            3 
   81000     1.240673   -7.0836702    27.006628  0.027784597   0.03240772            4 
   82000     1.241952    -7.115758    27.170884  0.027612687  0.032375852            3 
   83000    1.2310496   -7.0830991    27.580588  0.027691353  0.032340624            2 
   84000    1.1831471   -7.1223616    27.770845  0.027550441  0.032303069            2 
   85000    1.2342414   -7.0558648    28.316362   0.02776114  0.032258003            2 
   86000    1.2252371    -7.089505    28.678779  0.027789514  0.032217737            1 
   87000    1.2216577   -7.1061275    28.887565  0.027670081  0.032179413            1 
   88000    1.2230375    -7.116117     29.12031  0.027576051  0.032126995            3 
   89000    1.2123411   -7.1057766     29.59662  0.027712191  0.032081484            2 
   90000     1.207489   -7.0922475    29.975842  0.027755409  0.032037233            5 
   91000    1.1988752   -7.0729889    30.426401  0.027863004  0.032001556            3 
   92000    1.2351483   -7.1121158    30.819522  0.027916233  0.031973665            2 
   93000     1.223574   -7.1127621     31.19088  0.027948817  0.031945351            2 
   94000    1.2648244   -7.0898465    31.562461  0.027980905  0.031916393            1 
   95000    1.2131198   -7.1128136    31.905141  0.027986966   0.03189264            1 
   96000    1.2580739   -7.0863053    32.229832  0.027977285  0.031860688           10 
   97000    1.2230468   -7.0822725    32.551978  0.027965616  0.031829316            3 
   98000    1.1921286   -7.1355138    32.863008  0.027944734  0.031796457            2 
   99000    1.2158297   -7.1172817    33.345432  0.028068545  0.031762969            1 
  100000    1.2026955   -7.0917447    33.610307  0.028008589  0.031729323            1 
  101000    1.2190021    -7.110912    33.855399  0.027933497  0.031692839            2 
  102000    1.2327108   -7.0815781    34.325207   0.02804347   0.03165502            2 
  103000    1.1984668   -7.1397432    34.410834   0.02784048  0.031619537            2 
  104000    1.1883083   -7.1247739    34.772588  0.027862651  0.031581056            4 
  105000     1.234604   -7.1053422    35.365687  0.028068006  0.031546942            2 
  106000    1.2165904   -7.0701806    35.708309   0.02807257  0.031516025            4 
  107000    1.2209761   -7.0987574    36.068017  0.028090355  0.031487663            5 
  108000    1.1904128   -7.0910296    36.349187  0.028047212  0.031456931            1 
  109000    1.1963031   -7.1229618    36.660426  0.028027848  0.031423749            4 
  110000    1.2170851   -7.0936669    36.847806  0.027915005  0.031387414            2 
  111000    1.2292492   -7.1441545     37.00218  0.027779414  0.031342915            3 
  112000    1.2214398   -7.1003436    37.450453  0.027864921  0.031297311            3 
  113000     1.181677   -7.1056312    37.843769  0.027908384  0.031255927            3 
  114000    1.2248142    -7.112456    38.171472  0.027903123  0.031219401            4 
  115000    1.2086778   -7.1211654    38.408771  0.027832443  0.031178616            2 
  116000    1.2215097   -7.1336251    38.755586  0.027841657  0.031137171            4 
  117000    1.2187403      -7.1405    39.344916  0.028023444  0.031098986            4 
  118000    1.2044558   -7.1005004    39.552968  0.027932887  0.031062783            2 
  119000    1.2119968   -7.1295158    39.951901  0.027977522  0.031029814            5 
  120000    1.2207846   -7.1276974    40.247874  0.027949912  0.030994895            2 
  121000    1.2341539   -7.1483472    40.534153  0.027916083  0.030957288            5 
  122000    1.2037909   -7.1013867    40.883007  0.027925551  0.030922483            3 
  123000    1.1991563   -7.1378831    41.238483  0.027939352  0.030891681            3 
  124000    1.2311076   -7.1027845    41.566964  0.027934787  0.030856186            3 
  125000    1.1992311   -7.1612898    41.704211  0.027802807  0.030818263            1 
  126000    1.2107914   -7.1274758    42.318558  0.027988464  0.030781875            2 
  127000    1.2123389    -7.136784    42.386607  0.027812734  0.030749847            2 
  128000     1.191567   -7.1766801    42.757579  0.027836965  0.030712568            4 
  129000    1.2263426    -7.142072    43.108117  0.027847621  0.030677932            3 
  130000    1.1982747   -7.1994188    43.443449  0.027848365   0.03064307            3 
  131000    1.2060934   -7.0795085    44.066689  0.028032245  0.030614021            2 
  132000    1.2027614   -7.1758102     44.21894  0.027915997  0.030589713            5 
  133000    1.1906786   -7.1709097    44.643299  0.027971992  0.030562874            2 
  134000    1.2082235   -7.1079819    44.994424  0.027981607  0.030535276            5 
  135000    1.2205171    -7.151384    45.281866  0.027951769  0.030507192            4 
  136000    1.2047268   -7.1535639    45.558231  0.027915583  0.030479432            1 
  137000    1.2323251   -7.1335164    45.972595  0.027963866  0.030452255            3 
  138000    1.1900055   -7.1434538    46.045328   0.02780515  0.030425641            1 
  139000    1.2117923   -7.1826279     46.58501  0.027928663  0.030396214            3 
  140000    1.2041885    -7.181441    47.036073  0.027997663  0.030373034            6 
  141000     1.194316   -7.1655193    47.384867   0.02800524  0.030347415            3 
  142000     1.199551   -7.1336208    47.642676  0.027959317  0.030320374            5 
  143000    1.2072464   -7.1444125    47.827207  0.027871332  0.030299821            1 
  144000    1.2136127   -7.1190611    48.428201  0.028025579  0.030276494            1 
  145000    1.1858976   -7.1478886    48.695972  0.027986191  0.030255112            3 
  146000    1.2060897   -7.1322133    49.122483  0.028037947  0.030231754            2 
  147000    1.2038024   -7.1583097    49.587216  0.028110667  0.030213403            3 
  148000    1.2178977   -7.2224755    49.922214  0.028109355  0.030197652            2 
  149000    1.1864843   -7.1804699    50.273059  0.028116923  0.030184203            2 
  150000     1.219261   -7.2020704    50.843015  0.028246119  0.030172133            3 
  151000    1.1932024   -7.1178482    51.355537  0.028341908  0.030164817            3 
  152000    1.2084777   -7.1131568    51.609833  0.028294864  0.030158134            2 
  153000     1.194777   -7.1363097    51.700958  0.028159563  0.030148426            2 
  154000    1.1808494   -7.1732591    52.199529  0.028246498  0.030138271            4 
  155000    1.1985438   -7.1403843    52.654949  0.028309112  0.030127896            1 
  156000    1.1619521   -7.1417275    52.885828  0.028250976  0.030116251            2 
  157000    1.1815223   -7.1590931    53.213682  0.028245054  0.030107098            2 
  158000    1.1874753    -7.178389    53.510116  0.028222635   0.03009236            3 
  159000    1.1892898   -7.1571101    53.512051  0.028046148  0.030072669            2 
  160000    1.1750178   -7.2023785     53.78332  0.028012146  0.030053655            2 
  161000    1.1610376   -7.1666193     54.40222  0.028158499  0.030035935            1 
  162000    1.1919105   -7.2175594    54.571966  0.028071999  0.030017677            3 
  163000    1.1691184   -7.1428946    54.806008  0.028019432  0.029995019            3 
  164000    1.1573322   -7.1902429    54.909791  0.027901316  0.029970656            1 
  165000    1.2057991   -7.2110627    55.105537  0.027831079  0.029945877            2 
  166000     1.186499   -7.2159075    55.281333  0.027751673  0.029921382            2 
  167000    1.2003008   -7.1635439    55.959687  0.027923995  0.029900174            1 
  168000    1.2120042   -7.2127792     56.26465  0.027909053  0.029876866            5 
  169000    1.1468994   -7.1767632    56.539306  0.027879342  0.029853676            3 
  170000    1.1905321   -7.1870029    56.912322  0.027898197  0.029832118            3 
  171000    1.1854495   -7.1926349    57.094455  0.027823808  0.029808512            2 
  172000    1.1720911   -7.1808665    57.813769  0.028010547   0.02978668            2 
  173000     1.201431   -7.2017993    57.969669  0.027923732   0.02976833            3 
  174000    1.1805495   -7.1663924    58.492166  0.028013489  0.029749896            3 
  175000    1.1845883   -7.2062574    58.751404  0.027976859  0.029730614            5 
  176000     1.169476   -7.1799729    59.174115  0.028018047  0.029710046            2 
  177000    1.1823681   -7.1911659    59.261147  0.027900728  0.029690707            2 
  178000    1.1943372   -7.2090347    59.742192  0.027969191  0.029672521            2 
  179000    1.1816392    -7.197719    60.023656  0.027943974  0.029655149            2 
  180000    1.1882565   -7.1944966    60.373378  0.027950638  0.029637374            1 
  181000    1.1607383   -7.1987607    60.593228  0.027897435  0.029618881            3 
  182000    1.1928783   -7.2063868    60.762692  0.027821745  0.029599874            2 
  183000     1.179179   -7.2210412    60.857288   0.02771279  0.029577208            4 
  184000    1.1741634    -7.182304    61.304432  0.027764688  0.029553531            7 
  185000    1.1727032   -7.2171663     61.76942  0.027824063  0.029532315            2 
  186000    1.1828536   -7.2473119    61.673685  0.027631579  0.029509875            5 
  187000    1.1843977   -7.2024812    61.999041  0.027628806  0.029485707            6 
  188000    1.1398534   -7.2547635      62.0623  0.027509885   0.02945921            2 
  189000    1.1968498   -7.2404059    62.436509  0.027529325  0.029431609            2 
  190000     1.185967   -7.2465399    62.861507  0.027570836  0.029404397            3 
  191000     1.164396   -7.2306984    62.976581  0.027476693  0.029374671            3 
  192000     1.165589   -7.2190059    63.328001  0.027486112  0.029346946            2 
  193000    1.1532528   -7.2357996    63.743269     0.027523  0.029320343            1 
  194000    1.1648874   -7.2135695    64.060341  0.027517329  0.029291904            3 
  195000    1.2003128   -7.1858984    64.558551  0.027589124  0.029267538            5 
  196000    1.1835322   -7.2247538    64.584011  0.027459188  0.029241796            4 
  197000    1.1652481   -7.1856753    64.849756  0.027432215  0.029214299            2 
  198000    1.1686422   -7.2251961    65.251375    0.0274627  0.029188306            3 
  199000    1.1837305   -7.2167047    65.508359  0.027432311  0.029162323            2 
  200000    1.1594086   -7.2462457    65.930892  0.027471205  0.029136448            2 
  201000    1.1644327   -7.1977021    66.495475  0.027568605  0.029112751            1 
  202000    1.1727155   -7.2621945      66.3424  0.027368977  0.029088181            3 
  203000    1.1850465    -7.220768    66.828961  0.027433892  0.029063962            1 
  204000     1.195177   -7.2790558    66.930644  0.027340949  0.029038617            1 
  205000    1.1399222    -7.239172    67.128528  0.027288019  0.029012341            3 
  206000    1.1613472   -7.2079878    67.752549  0.027407989  0.028987485            3 
  207000    1.1832287   -7.2361366    68.101754  0.027416165   0.02896377            3 
  208000    1.1821742   -7.2166979    68.251537  0.027344366  0.028941248            2 
  209000     1.188189   -7.2235009    68.889645  0.027467961  0.028917554            2 
  210000    1.1780484    -7.234143    69.022267  0.027389789  0.028894785            4 
  211000    1.1854493   -7.1790931    69.520102  0.027456596  0.028871568            3 
  212000    1.1743506   -7.2667254    69.332692  0.027253416  0.028849327            2 
  213000    1.1542637   -7.2612373    69.971512  0.027375396   0.02882883            5 
  214000    1.1729536   -7.2116003    70.675307  0.027521537  0.028809959            1 
  215000    1.1700495   -7.2512136    70.613734  0.027369664  0.028791088            4 
  216000    1.1554236   -7.2006936    71.145811   0.02744823  0.028771153            4 
  217000    1.1799961   -7.2299008    71.256861  0.027364386  0.028753055            2 
  218000    1.1855615   -7.2562039    71.339388  0.027270408  0.028733064            2 
  219000    1.1645002   -7.2555334     71.60488   0.02724691  0.028711546            2 
  220000    1.1912445   -7.2323124    72.086782  0.027305599  0.028690082            6 
  221000    1.1726679   -7.1821748    72.511571  0.027342221  0.028670227            2 
  222000    1.1596022   -7.3036946    72.819804  0.027334761  0.028651522            1 
  223000     1.150439   -7.2626757    72.921192  0.027250072  0.028632488            2 
  224000    1.2019543   -7.2535675    73.190535  0.027228622   0.02861183            3 
  225000    1.1766052   -7.2491767    73.829419  0.027344229   0.02859193            2 
  226000    1.1664338   -7.2478061    74.266097  0.027384254  0.028572799            3 
  227000    1.1602621   -7.2236513    74.571035  0.027375563  0.028555451            3 
  228000    1.1551382   -7.2635407    74.764763  0.027326302  0.028537983            7 
  229000    1.1576887   -7.2332917    75.233492  0.027377544  0.028520271            2 
  230000    1.1295557   -7.2784398    75.325332  0.027291787  0.028502707            4 
  231000    1.1644846   -7.2504415    75.788503   0.02734073   0.02848661            3 
  232000      1.16476    -7.227873    76.200094  0.027370723   0.02847132            4 
  233000    1.1748877   -7.1827201    76.487655    0.0273561  0.028455316            2 
  234000    1.1621622   -7.2310794    76.812258  0.027354793  0.028439664            1 
  235000    1.1464554   -7.3142352    76.791191  0.027230919  0.028423421            1 
  236000    1.1574522   -7.2846367    76.991322  0.027186201   0.02840493            2 
  237000    1.1536854   -7.2685692    77.585523  0.027280423  0.028387722            1 
  238000     1.158188   -7.2388758    78.013921  0.027315799  0.028371137            2 
  239000    1.1304112   -7.2410838    78.184023  0.027260817  0.028355529            1 
  240000    1.1729908   -7.2261636    78.545567  0.027272766  0.028339883            1 
  241000    1.1387207   -7.2850263    78.763731  0.027235038    0.0283232            4 
  242000    1.1813745   -7.2578899    79.125591  0.027247104  0.028306233            3 
  243000    1.1484376   -7.2622937    79.429364  0.027239151  0.028290447            3 
  244000    1.1493362   -7.2899913    79.231632  0.027059984  0.028273284            4 
  245000    1.1456456   -7.2072037    79.885518  0.027171945  0.028255427            2 
  246000    1.1593179   -7.3048016    79.695318  0.026997059  0.028236926            3 
  247000    1.1727799   -7.3127467    79.818183  0.026929212  0.028216535            2 
  248000    1.1534284    -7.262809    80.233494   0.02696018  0.028195383            1 
  249000    1.1452166   -7.2845071    80.569082  0.026964217   0.02817484            3 
  250000    1.1776319   -7.3484814    80.686009  0.026895336   0.02815459            4 
  251000     1.129656   -7.2725625    81.378473  0.027018085   0.02813467            1 
  252000    1.1489894   -7.2916322    81.664437  0.027005435   0.02811537            2 
  253000    1.1603491    -7.247074    82.240634  0.027088483  0.028097964            4 
  254000    1.1547539   -7.2427187    82.445147  0.027048933  0.028079867            2 
  255000    1.1645828    -7.300156    82.230321  0.026872654  0.028061058            2 
  256000    1.1128485   -7.2577354    82.775175  0.026945044   0.02804268            2 
  257000    1.1502199   -7.2574768    83.516308  0.027080515  0.028025334            2 
  258000    1.1626522   -7.2710135    83.252893  0.026890469  0.028007879            4 
  259000     1.127729   -7.2706393    84.036683   0.02703883  0.027990168            4 
  260000    1.1513305   -7.2912225    84.314501  0.027023879  0.027974848            3 
  261000     1.173754   -7.2496505    84.699931  0.027043401  0.027960163            3 
  262000    1.1709185   -7.3112096      84.9187  0.027009765  0.027945346            7 
  263000    1.1242767   -7.2627124    85.415816   0.02706458   0.02793266            1 
  264000    1.1625572   -7.2700323    85.731998  0.027061868  0.027918328            6 
  265000     1.166373   -7.3040189    85.798994  0.026980816  0.027904719            1 
  266000    1.1312733   -7.2230552    86.727977  0.027170419  0.027890559            2 
  267000    1.1633096   -7.2899033    86.620375  0.027035073  0.027875616            2 
  268000    1.1726948   -7.2659289    87.034071  0.027062833  0.027861612            5 
  269000    1.1384486   -7.2775059    87.083877  0.026977657  0.027846407            4 
  270000    1.1345812   -7.2654977    87.726539  0.027076092  0.027832699            2 
  271000     1.142842   -7.2962099    88.061934  0.027079315  0.027819377            3 
  272000    1.1147093   -7.2655133    88.190717  0.027019215  0.027806543            2 
  273000    1.1255472    -7.277542    88.195432  0.026921683  0.027792669            1 
  274000    1.1490117   -7.2571724        88.86  0.027025547  0.027779595            2 
  275000    1.1565395   -7.3029493     88.73887  0.026890567  0.027765175            2 
  276000    1.1584106   -7.2734416    89.352583  0.026978437  0.027751104            3 
  277000     1.149508   -7.2507862    89.837666  0.027026975   0.02773829            4 
  278000    1.1330638    -7.302107    89.906713  0.026950454  0.027725581            1 
  279000    1.1422729   -7.3227072    90.271314  0.026962758  0.027712485            4 
  280000    1.1719497   -7.2830973     90.56909  0.026955086  0.027699777            9 
  281000     1.149909   -7.2821607    90.573865  0.026860577  0.027686003            4 
  282000    1.1439129   -7.2649583    91.029914  0.026900093  0.027672151            4 
  283000    1.1412696   -7.2766392    91.344004  0.026897528  0.027658894            4 
  284000     1.142476   -7.2747787    91.505291  0.026850144  0.027644567            2 
  285000     1.127663   -7.3040701    91.753449  0.026828494  0.027630171            2 
  286000    1.1229554    -7.283621     91.98649   0.02680259  0.027615815            2 
  287000    1.1367483   -7.3075308    91.893006  0.026682057  0.027600082            1 
  288000    1.1311984   -7.3064988    92.070008  0.026640627  0.027582699            2 
  289000    1.1453411   -7.3075605    92.456213  0.026659808  0.027566417            1 
  290000    1.1218829    -7.293186    92.745113  0.026650895  0.027550051            3 
  291000      1.14473   -7.3052424    93.400416  0.026746969  0.027535304            3 
  292000    1.1427629   -7.3422003    93.539467  0.026695053  0.027520307            3 
  293000     1.119219   -7.3308028    93.652759  0.026636166  0.027504026            4 
  294000    1.1040556   -7.3410987    93.786568  0.026583494  0.027487975            1 
  295000    1.1337858   -7.3393487    94.201644  0.026610634  0.027471722            5 
  296000     1.138102   -7.2962913    94.645895  0.026645804  0.027456688            2 
  297000    1.1380711   -7.2968879    94.831451  0.026608151  0.027440849            3 
  298000    1.1526589   -7.3060878    95.152299  0.026608585  0.027424801            2 
  299000    1.1375206   -7.3220604    95.297034  0.026559931  0.027410978            3 
  300000    1.1243569   -7.3283863    95.427695  0.026507693  0.027395725            3 
  301000       1.1489    -7.341936     95.68205  0.026490047  0.027379692            5 
  302000    1.1181082     -7.31383    96.054936  0.026505225  0.027363504            3 
  303000    1.1265458   -7.3492511    96.094277  0.026428569  0.027347166            3 
  304000    1.1541762   -7.2990088    96.459678  0.026441798  0.027330483            3 
  305000    1.1326539   -7.3505877    96.654685  0.026408384  0.027313859            5 
  306000    1.1190833   -7.3281819    96.834649  0.026371092  0.027295791            4 
  307000    1.1426639   -7.3570871    97.088996  0.026354233  0.027276355            5 
  308000    1.1282295   -7.3453012     97.41097  0.026355782  0.027258261            4 
  309000    1.1283341   -7.3495815    97.627997  0.026329018  0.027239473            3 
  310000     1.125716    -7.324471    97.935071  0.026326632  0.027221652            3 
  311000    1.1315897   -7.3303534    98.403406  0.026367472   0.02720386            2 
  312000    1.1455579    -7.377795    98.409048  0.026284468  0.027186051            3 
  313000    1.1541431   -7.3481362    98.401001   0.02619835  0.027166929            2 
  314000    1.1396273    -7.372059    98.685331  0.026190374   0.02714842            3 
  315000     1.122887    -7.301807    99.327076  0.026277004  0.027130317            3 
  316000    1.1011661   -7.3157214    99.271931  0.026179307  0.027110671            3 
  317000    1.1338812   -7.2851416     99.84219  0.026246632  0.027092084            6 
  318000    1.1292996   -7.2892955    100.06917  0.026223578  0.027074567            3 
  319000    1.1163078   -7.3328861    100.22448  0.026181945  0.027055543            2 
  320000    1.1013287   -7.3401435    100.37658  0.026139734  0.027037371            3 
  321000    1.1276487   -7.2973649    100.68072  0.026137259  0.027018852            2 
  322000    1.1105031   -7.3270737    101.22068  0.026195829  0.026999865            3 
  323000    1.1407797   -7.3542781    101.02356  0.026063871  0.026980884            2 
  324000    1.0948295   -7.3309958    101.61153  0.026134654  0.026961964            2 
  325000    1.1285063    -7.355093    101.53472  0.026034545  0.026943428            5 
  326000    1.1504178   -7.3364261    102.16976  0.026117014  0.026925428            7 
  327000    1.1282845   -7.3572945    102.30385  0.026071317  0.026906952            1 
  328000    1.1203622   -7.3845332    102.30622  0.025992434  0.026888901            1 
  329000    1.1154937   -7.3741953    102.40682   0.02593891  0.026870305            4 
  330000    1.1239563   -7.3330921     102.9902  0.026007627  0.026851382            4 
  331000    1.1252997   -7.4358696    102.38183  0.025775889  0.026831715            2 
  332000    1.1191224   -7.3468132    103.48304  0.025974659  0.026811887            6 
  333000    1.1351002   -7.3751352    103.50885  0.025903116  0.026792186            5 
  334000    1.1299315   -7.3915514    103.70525  0.025874564  0.026772413            3 
  335000    1.1105626   -7.3353315    104.09109  0.025893305  0.026753401            2 
  336000    1.1052992   -7.3588241    104.24151   0.02585355  0.026734268            4 
  337000    1.1203564   -7.3547687    104.43318  0.025824228  0.026715099            2 
  338000    1.1492024   -7.3361822    104.69501  0.025812378  0.026695853            2 
  339000    1.1113529   -7.3279825     104.9149  0.025790291  0.026676102            2 
  340000    1.1422423   -7.3845036    104.71829  0.025666247  0.026655971            3 
  341000    1.1049923   -7.3415695    105.25033     0.025721  0.026636121            4 
  342000    1.1090679   -7.3993223    105.16202  0.025624274  0.026615403            2 
  343000    1.1244117   -7.3490094    106.17143  0.025794809  0.026595648            3 
  344000    1.0816247   -7.3980005     105.6897  0.025603125  0.026574933            3 
  345000    1.1258157   -7.4022973    106.26489  0.025667849  0.026554562            2 
  346000    1.1293417   -7.3694557    106.82137  0.025727689  0.026535046            2 
  347000    1.1164002    -7.396184    107.03678  0.025705279  0.026515272            7 
  348000    1.1094711    -7.332263     107.3485  0.025706059  0.026496901            1 
  349000    1.1099428   -7.3653437    107.80772  0.025742053  0.026479263            1 
  350000    1.1309762   -7.3757424    107.71344  0.025646058  0.026460567            3 
  351000    1.1088543   -7.3804732    108.13419  0.025672885  0.026442303            4 
  352000    1.1045281   -7.3405373    108.52843  0.025693283  0.026424157            3 
  353000    1.0974792   -7.3990833    108.55764  0.025627394  0.026405685            2 
  354000    1.1021455   -7.3911397    108.53524  0.025549727  0.026386168            3 
  355000    1.1256196   -7.3646699    109.05287  0.025599265    0.0263673            3 
  356000    1.1018014     -7.33929    109.31767  0.025589343  0.026348872            5 
  357000    1.1246555   -7.4042325    109.57601  0.025577967  0.026330084            3 
  358000    1.1178244   -7.3638448    109.68356  0.025531554  0.026311263            5 
  359000    1.1149658   -7.3927057    109.70349  0.025465063  0.026292473            5 
  360000    1.1192825   -7.4323842    109.97978  0.025458283  0.026273067            3 
  361000    1.0935098   -7.3711839    110.21735  0.025442601  0.026253227            2 
  362000    1.1291544   -7.3930729    110.34431  0.025401545  0.026233407            5 
  363000     1.113566   -7.4351423    110.32962  0.025328195  0.026213592            2 
  364000    1.0888968   -7.4252532     111.2266  0.025463966  0.026194618            3 
  365000    1.1079283   -7.3998216    111.56953  0.025472496  0.026176176            2 
  366000    1.1002197   -7.3761742    111.75132  0.025444289  0.026157881            3 
  367000    1.1113008   -7.3669444    112.09911  0.025453929  0.026139488            1 
  368000    1.1115546   -7.4156975    112.18611  0.025404464  0.026121995            3 
  369000    1.1126655   -7.3380847    113.00559  0.025520684  0.026104366            1 
  370000    1.1310044   -7.3789321    112.70126  0.025383167  0.026086122            5 
  371000    1.0937814    -7.405966    112.64559  0.025302243  0.026067354            5 
  372000     1.079492   -7.4073161     113.2095  0.025360552  0.026048393            6 
  373000    1.0973217   -7.3624651    113.77431  0.025418748  0.026030179            5 
  374000    1.1415094   -7.4098642    113.75979  0.025347548  0.026013012            8 
  375000    1.1129154   -7.3536931    114.38568   0.02541904  0.025995933            2 
  376000    1.0993014   -7.4121573    114.26806  0.025325367  0.025979727            4 
  377000    1.0985263   -7.4207466    114.67106  0.025347273  0.025962531            2 
  378000    1.1017177   -7.4235533    114.84249  0.025318008  0.025945396            3 
  379000    1.1103868   -7.4204991    114.99553  0.025284857  0.025928627            4 
  380000    1.1021206   -7.4259492    115.04615  0.025229418  0.025911705            1 
  381000    1.1330158   -7.4184686    115.47631  0.025257285  0.025894521            1 
  382000    1.1050602   -7.3769347    115.89478  0.025282455  0.025877446            3 
  383000    1.0986241   -7.3922112    115.81768   0.02519967   0.02586035            2 
  384000    1.1214467   -7.3985604    116.73237  0.025332545  0.025843385            2 
  385000    1.1207935   -7.4263948    115.97038  0.025101814  0.025826179            3 
  386000    1.1186171   -7.4190803    116.45814  0.025142086  0.025808052            2 
  387000    1.1327517   -7.4255198    116.44411  0.025074097  0.025789431            5 
  388000    1.1084908   -7.4174413    117.13494  0.025157848   0.02577138            3 
  389000    1.0890296   -7.4163259    117.52987  0.025177779  0.025754117            4 
  390000    1.1087622   -7.4242739    117.72262  0.025154406  0.025736382            5 
  391000    1.0863284   -7.4985015    117.18906  0.024976355  0.025717966            5 
  392000    1.1024933   -7.4422133    118.04217  0.025093998  0.025699999            9 
  393000    1.0965384   -7.3899019    118.43798  0.025114074  0.025682613            5 
  394000    1.0796362    -7.417427    118.29626   0.02502036  0.025664959            2 
  395000    1.1029823   -7.4381487    118.55249  0.025011075  0.025647526            4 
  396000    1.1137968   -7.4346338    118.74539  0.024988508  0.025629718            3 
  397000    1.0806311   -7.4409709    119.01236  0.024981603  0.025612238            3 
  398000    1.0948097   -7.4520344    119.53452  0.025028165  0.025594307            4 
  399000    1.1047619   -7.4704447    119.67785  0.024995373  0.025576681            7 
  400000    1.0995127   -7.3889918    119.98328  0.024996518  0.025559221            4 
  401000    1.0735642   -7.4130639    119.76023  0.024887829  0.025541594            6 
  402000     1.095645   -7.4758992    120.11337  0.024899124  0.025523767            3 
  403000    1.0957749   -7.4215737    120.30748  0.024877477  0.025505964            9 
  404000    1.1025682   -7.4371213    120.78282  0.024913948  0.025487728            3 
  405000    1.1111068   -7.4472924    120.38304  0.024770172  0.025469759            2 
  406000    1.1113518   -7.3794561    121.65065  0.024969344  0.025452745            2 
  407000    1.0790116   -7.4302028    121.72961  0.024924163  0.025436171            5 
  408000    1.1133244   -7.4220454    121.93533  0.024905092  0.025419457            2 
  409000    1.0949607   -7.4391839     122.1468  0.024887286  0.025402172            2 
  410000    1.0827859   -7.4196331    122.51036  0.024900479  0.025385661            3 
  411000    1.0935412   -7.4307671    123.10665  0.024960797   0.02536993            3 
  412000    1.1082582   -7.4408147    122.81141  0.024840495  0.025354018            4 
  413000     1.090613   -7.4079297     122.8433  0.024786784  0.025337628            1 
  414000     1.087084    -7.448493    122.76331  0.024710811  0.025321149            3 
  415000    1.1010257   -7.4523839    123.10194  0.024719265  0.025304014            4 
  416000    1.1029906   -7.4426789    123.61435  0.024762491  0.025287015            3 
  417000    1.0680672   -7.4763608    123.67977  0.024716181  0.025269945            7 
  418000    1.0868669    -7.452322     124.4881  0.024818202   0.02525255            1 
  419000    1.0974981   -7.4287216    124.28451  0.024718478  0.025235559            3 
  420000    1.0917035   -7.4621537    124.17883  0.024638658  0.025218798            4 
  421000    1.0689049    -7.418946    125.17938  0.024778183  0.025202158            7 
  422000    1.1104105   -7.4488331    125.24963  0.024733339   0.02518568            5 
  423000    1.0874489   -7.4326727    125.30356  0.024685492  0.025169426            3 
  424000    1.0942855   -7.4493103     126.0399  0.024771993  0.025154356            7 
  425000    1.0743302   -7.4683819    126.06252  0.024718142   0.02513862            4 
  426000    1.0824015    -7.439536    126.29645  0.024705878  0.025123229            3 
  427000    1.0965115   -7.5014344    125.72169  0.024535849  0.025106945            2 
  428000    1.0796056   -7.4956833    126.09783  0.024551758  0.025090577            6 
  429000    1.0752483    -7.468088    126.35293   0.02454408  0.025073379            9 
  430000    1.0585089   -7.4708123    126.49559   0.02451465  0.025056372            3 
  431000    1.0837512    -7.460535    127.01017  0.024557264  0.025039023            4 
  432000    1.0804913   -7.4370717    127.07707  0.024513324  0.025021372            3 
  433000    1.0881079   -7.4688366    127.12055  0.024465078  0.025004049            2 
  434000     1.065174    -7.504908    127.21688  0.024427205  0.024986526            9 
  435000    1.1050291   -7.4557686    127.35949  0.024398369  0.024968917            2 
  436000    1.0806463    -7.459057    127.80179  0.024426947  0.024951446            1 
  437000    1.0991425   -7.4696064    128.06657  0.024421543  0.024933611            3 
  438000    1.0672013   -7.4358135    128.15236  0.024382108  0.024915789            3 
  439000    1.0936351   -7.4855912    128.57546  0.024406884  0.024898281            3 
  440000    1.0940393    -7.486346    128.61702  0.024359285  0.024880972            3 
  441000    1.0771693   -7.4489133     129.0395  0.024383882   0.02486371            3 
  442000    1.0904244   -7.5363906    129.17633  0.024354511  0.024846381            4 
  443000    1.1031473   -7.4900781    129.72088  0.024401971   0.02482938            5 
  444000    1.1036308    -7.441929    129.38417  0.024283815  0.024812438            5 
  445000    1.0786929   -7.4434491    130.10314  0.024363883  0.024795236            1 
  446000    1.0902993   -7.4648535     129.9437  0.024279465  0.024778094            2 
  447000    1.0866034   -7.5259479    130.06256  0.024247307  0.024761267            1 
  448000    1.0615165   -7.4733053    130.55891  0.024285511  0.024744395            8 
  449000    1.0813675   -7.4834084    130.67673  0.024253291  0.024727587            3 
  450000    1.0636082    -7.499335    130.92646  0.024245641  0.024709976            3 
  451000    1.0567627   -7.4601316     131.1409  0.024231504  0.024692852            2 
  452000    1.0785785      -7.4626     131.3196  0.024210841  0.024675625            3 
  453000    1.0661747    -7.476292    131.16727  0.024129373  0.024658346            3 
  454000    1.0461001   -7.5393821    131.09596  0.024063134  0.024641213            4 
  455000     1.031088   -7.4666957    132.00482  0.024176706  0.024623921            3 
  456000    1.0945302   -7.5016749    132.04858  0.024131686  0.024607076            3 
  457000    1.0716993   -7.4967087    131.93692  0.024058519  0.024590418            3 
  458000    1.0725766   -7.5259797    132.45529  0.024100307  0.024573744            3 
  459000    1.0630441    -7.490841    133.19056  0.024181293  0.024557323            5 
  460000    1.0662737   -7.5336424    132.86411  0.024069585  0.024541141            4 
  461000    1.0639927   -7.5013006    133.50376  0.024133001  0.024525316            9 
  462000    1.0441752   -7.5021563     133.7139   0.02411867  0.024509051            4 
  463000    1.0711686   -7.4692264    134.15438  0.024145857  0.024492883            5 
  464000    1.0455796   -7.4632687    134.61799  0.024177082  0.024477057            6 
  465000    1.0666318   -7.4728544    134.86455  0.024169274  0.024462196            2 
  466000    1.0489079   -7.5134303    134.46148  0.024045329  0.024446827            4 
  467000    1.0512738   -7.5198797    135.06608  0.024101727  0.024431223            5 
  468000    1.0648759   -7.5003519    135.36441   0.02410335  0.024416024            4 
  469000     1.077756   -7.4862777    135.55791  0.024086338  0.024401029            2 
  470000    1.0675468   -7.5488032    135.06924  0.023948447  0.024385553            2 
  471000    1.0740758   -7.5023491    136.22678  0.024102403  0.024370301            3 
  472000    1.0703081   -7.5150996       136.46  0.024092513  0.024355535            4 
  473000    1.0591893   -7.4591625    136.90943  0.024120759  0.024341363            3 
  474000      1.09172   -7.5443497    136.46054  0.023990953  0.024326106            7 
  475000    1.0753691   -7.4853013    136.59717  0.023964415   0.02431062            2 
  476000    1.0659387   -7.4923356    137.29334  0.024035948  0.024295473            2 
  477000    1.0705606   -7.4978554    137.32007  0.023990229  0.024280324            7 
  478000    1.0445158   -7.5583683    137.20954  0.023920771  0.024265203            3 
  479000    1.1003375   -7.5314624     137.4813  0.023918111  0.024249628            2 
  480000    1.0612821   -7.5013775    137.93665  0.023947335  0.024234239            4 
  481000    1.0878999    -7.493642    137.50148  0.023822155  0.024218763            5 
  482000    1.0374237   -7.4845187    138.17528  0.023889225  0.024203102            1 
  483000    1.0352663   -7.4919807    138.20473  0.023844846  0.024187133            3 
  484000     1.071348   -7.5382998     138.0679  0.023772021   0.02417102            2 
  485000    1.0484603   -7.5176009    138.42647  0.023784617  0.024155238            4 
  486000    1.0483961   -7.5513259    138.72592  0.023787024  0.024140093            4 
  487000    1.0387882   -7.4977526    139.08475  0.023799581  0.024124641            2 
  488000    1.0643798   -7.5578891    138.61142  0.023669983  0.024109148            2 
  489000    1.0614219   -7.4975053    139.43931  0.023762664  0.024093259            3 
  490000    1.0487217   -7.4696453    140.29839   0.02386027  0.024077499            6 
  491000    1.0559993   -7.5099966    139.79633  0.023726465  0.024062068            2 
  492000    1.0774647   -7.5173384    139.86996  0.023690712    0.0240463            5 
  493000    1.0592778   -7.4985911    139.99017  0.023662977  0.024030725            3 
  494000    1.0606707   -7.5272854    139.79741   0.02358256   0.02401487            2 
  495000    1.0526183   -7.5308399    139.61637  0.023504439  0.023998118            3 
  496000    1.0724669   -7.5828215    139.74042  0.023477893  0.023981077            7 
  497000    1.0647405   -7.5540815     140.3611  0.023534726  0.023964597            6 
  498000    1.0555116   -7.5587923    140.19655  0.023459932  0.023947831            3 
  499000    1.0793125   -7.5216027    141.02904  0.023551944   0.02393107            2 
  500000    1.0485203   -7.5391286    140.69068  0.023448446  0.023914417            1 
  501000    1.0632031   -7.5415516    140.52961  0.023374852  0.023896936            3 
  502000    1.0651701   -7.5378504    141.41491  0.023475251   0.02387962            3 
  503000    1.0513188   -7.5160085    140.98412   0.02335721  0.023862425            4 
  504000    1.0648159   -7.5621136    141.51995  0.023399462  0.023844956            2 
  505000    1.0668723   -7.5556562    141.89278  0.023414651  0.023827604            5 
  506000    1.0510316   -7.5161224    142.07468  0.023398334  0.023810217            3 
  507000    1.0540807   -7.5577338    141.51978  0.023260976  0.023792368            5 
  508000    1.0601739   -7.5680615    141.93858  0.023283887  0.023774478            4 
  509000     1.040956   -7.5322308    142.60674  0.023347534  0.023756658            2 
  510000    1.0378293   -7.5520436    142.41261  0.023270034  0.023739385            5 
  511000     1.044383   -7.5319696    142.77079  0.023282907  0.023721765            2 
  512000    1.0327753   -7.5033313    142.82791   0.02324673   0.02370428            5 
  513000    1.0424315   -7.5452659    142.73712  0.023186667  0.023686621            3 
  514000    1.0564424    -7.515609     143.5532  0.023273865  0.023668981            6 
  515000    1.0723474   -7.5410329    143.01009  0.023140792  0.023651068            4 
  516000    1.0429044   -7.5561726    143.16459  0.023120897   0.02363317            2 
  517000    1.0361116   -7.5854581    143.55609  0.023139279  0.023614912            4 
  518000    1.0525856   -7.5389327     143.8141  0.023136117   0.02359751            6 
  519000    1.0369461   -7.5662408    143.79343   0.02308822  0.023580047            2 
  520000    1.0504692   -7.5966301    143.97272  0.023072551  0.023562253            3 
  521000    1.0425552    -7.561103    144.14715  0.023056166  0.023544449            4 
  522000    1.0553666   -7.5326813    144.87454  0.023128119  0.023526831            4 
  523000    1.0417398   -7.5605215    144.79904  0.023071868  0.023509138            3 
  524000    1.0653029   -7.5272622    145.02418  0.023063642  0.023491749            4 
  525000    1.0425262   -7.5563461    145.40004  0.023079371  0.023474187            3 
  526000    1.0361163   -7.5705897    145.19981  0.023003772  0.023456532            4 
  527000    1.0387274   -7.6069423    145.08247  0.022941566  0.023438605            4 
  528000    1.0442714   -7.6121635     144.9112  0.022871085  0.023419901            5 
  529000    1.0404248   -7.5687974    145.66682  0.022946884  0.023401632            4 
  530000     1.013847   -7.5758037    145.13945  0.022820668  0.023383281            4 
  531000    1.0257838   -7.5713353    145.70632  0.022866653  0.023364897            3 
  532000    1.0340283   -7.5706106     146.3215  0.022920034  0.023347079            4 
  533000    1.0411896   -7.5531904    146.35267  0.022881907  0.023329016            6 
  534000    1.0235592   -7.5494904    146.53616  0.022867691   0.02331108            5 
  535000    1.0490733   -7.5527571    147.01278  0.022899187  0.023293323            4 
  536000    1.0462116   -7.5939262    146.32817  0.022750027   0.02327533            5 
  537000    1.0270943   -7.5539076    147.02711  0.022816126  0.023257486            3 
  538000     1.043222   -7.5690269    147.41304  0.022833495   0.02323954            4 
  539000    1.0370593   -7.5449997    147.57409  0.022816031  0.023221792            1 
  540000    1.0572729   -7.5833149    147.11444  0.022702845  0.023203939            4 
  541000    1.0225719   -7.5845165    147.36088  0.022698841  0.023185848            3 
  542000    1.0277281   -7.5622874    147.52373     0.022682  0.023168118            2 
  543000    1.0360125   -7.6110058    147.69842  0.022667037   0.02314985            4 
  544000    1.0476383   -7.6288864    147.76544  0.022635637  0.023131221            3 
  545000    1.0230811   -7.5971889    147.95774  0.022623507  0.023113144            5 
  546000     1.033417   -7.5804874    148.28973  0.022632742  0.023095399            2 
  547000    1.0373224   -7.5612931    148.60401  0.022639246  0.023077611            2 
  548000    1.0571799   -7.5975612    149.08472  0.022671035  0.023059923            1 
  549000    1.0535753   -7.6144386    148.67265   0.02256719  0.023041825            6 
  550000    1.0434453   -7.6076378    148.97863   0.02257252  0.023023707            5 
  551000    1.0413863   -7.6089068    149.19065  0.022563619   0.02300559            3 
  552000    1.0404376     -7.54767    149.09104  0.022507705  0.022987345            3 
  553000    1.0042187   -7.5984675    149.03498  0.022458556  0.022969432            6 
  554000    1.0295137   -7.6163629    149.47763  0.022484602  0.022950874            3 
  555000    1.0332355    -7.679001    149.44328  0.022438931  0.022932631            6 
  556000    1.0504688   -7.5611456    150.12703  0.022501053  0.022914617            9 
  557000    1.0192484   -7.5871161     149.5918  0.022380581  0.022896683            4 
  558000     1.008432   -7.5987612    150.13703  0.022421898  0.022878816            4 
  559000    1.0186928   -7.5633749    150.66218  0.022460075  0.022860744            8 
  560000    1.0238507   -7.6354185    150.35463    0.0223742  0.022842678            5 
  561000    1.0325054   -7.6149604    150.59326  0.022369765  0.022824363            4 
  562000    1.0067039   -7.5921162    150.89051  0.022374037  0.022806131            5 
  563000    1.0442818   -7.6381816    151.17927  0.022377038  0.022787762            3 
  564000    1.0267156     -7.55327    151.68731  0.022412427  0.022770127            5 
  565000    1.0144281   -7.5875144    151.58009  0.022356946  0.022752361            2 
  566000    1.0412672   -7.6229998    151.65296  0.022328175  0.022734265            6 
  567000    1.0420489   -7.6199886    151.19904   0.02222208  0.022716432            3 
  568000    1.0397378   -7.6196371    152.18194  0.022327163  0.022698472            3 
  569000    1.0343335    -7.634959    151.42982  0.022177771  0.022680488            6 
  570000    1.0353209   -7.6167577    152.05982  0.022230967  0.022662738            2 
  571000    1.0256527   -7.6037211    152.82256  0.022303351  0.022644824            6 
  572000    1.0057006   -7.6602875    152.36815  0.022198157  0.022626897            4 
  573000    1.0482011   -7.6091844    152.86424  0.022231564   0.02260938            1 
  574000     1.010375   -7.6461016    152.83911  0.022189185  0.022591799            2 
  575000   0.99408313   -7.6160979    152.84295  0.022151152  0.022574044            4 
  576000    1.0097288   -7.6194957    153.06802  0.022145258  0.022555997            4 
  577000    1.0113172   -7.6170724    153.01294  0.022098923  0.022537739            4 
  578000    1.0244604   -7.6347246    152.94538  0.022050949  0.022519528            9 
  579000    1.0105661    -7.596091    153.50439   0.02209332  0.022501161            7 
  580000    1.0173441   -7.6243651    153.35494  0.022033756  0.022482942            2 
  581000    1.0351019   -7.6425087     153.5644  0.022025875  0.022464599            4 
  582000     1.016469   -7.6251729    153.83102  0.022026206  0.022446242            4 
  583000     1.024417   -7.6675801    153.76694  0.021979265  0.022427345            6 
  584000    1.0256836    -7.655524    153.75112  0.021939371  0.022408641            3 
  585000    1.0546678   -7.6435999    153.80087  0.021908956  0.022390075            8 
  586000    1.0181614   -7.6451203    154.67265  0.021995542  0.022371479            4 
  587000    1.0088138   -7.6383268    154.55702  0.021941656  0.022353175            3 
  588000    1.0356793   -7.6125627    154.41268  0.021883884  0.022334925            6 
  589000    1.0025393   -7.6373482    154.46366  0.021853941  0.022316627            4 
  590000    1.0259314   -7.6548637    154.44992  0.021814961  0.022298061            7 
  591000    1.0101079   -7.6623204    154.99051  0.021854274  0.022279516            3 
  592000    1.0130958   -7.6278644    155.57086  0.021899052   0.02226127            4 
  593000    1.0252946    -7.665589    155.12475   0.02179943  0.022242993            3 
  594000     1.004186   -7.6518632    155.05457  0.021752886   0.02222444            5 
  595000    1.0178471   -7.6489594    155.45554  0.021772485  0.022205637            3 
  596000    1.0085992   -7.6246639    155.99396  0.021811236  0.022187261            3 
  597000    1.0118669   -7.6540568    155.67633  0.021730364  0.022168855            4 
  598000    1.0169043    -7.573325    156.27347  0.021777239  0.022150663            2 
  599000    1.0130904   -7.6307698    156.34077  0.021750247  0.022132487            6 
  600000    1.0078854   -7.6443634    156.24794  0.021701103  0.022114212            5 
  601000   0.99790144   -7.6295203    156.37254  0.021682271  0.022095734            3 
  602000    1.0234203   -7.6450761    156.55496  0.021671506  0.022077384            3 
  603000    1.0180598   -7.6001511    156.77788  0.021666373  0.022059291            5 
  604000    1.0108777   -7.6369761    156.97812  0.021658129  0.022041073            2 
  605000     1.010363    -7.687864     157.0009  0.021625469  0.022022858            5 
  606000    1.0070117   -7.6716402    157.19108  0.021615935  0.022004711            4 
  607000   0.99186878   -7.6835802    157.07248  0.021564041  0.021986929            3 
  608000   0.99460528    -7.652219    157.67883  0.021611681  0.021969291            3 
  609000    1.0012391   -7.6410458    158.03465  0.021624884  0.021951822            4 
  610000    1.0151249   -7.6342402    158.36527  0.021634599  0.021934636            3 
  611000    1.0175053   -7.6775085     158.1128  0.021564757  0.021917175            5 
  612000   0.99810257   -7.6386179     158.9197  0.021639393  0.021899957            4 
  613000    1.0148486    -7.617679     159.1113  0.021630139  0.021883143            6 
  614000     1.021341    -7.665877    158.85289  0.021559838  0.021866193            4 
  615000     1.001571   -7.6623809    159.31217  0.021587015  0.021848945            2 
  616000    1.0170011   -7.6649498    159.31727   0.02155266  0.021831653            4 
  617000    0.9965627   -7.6681233    159.45448  0.021536262   0.02181462            2 
  618000   0.99095533   -7.6625472    159.55834  0.021515418  0.021797379            5 
  619000   0.98597114   -7.6724673    159.24648  0.021438675   0.02178005            4 
  620000   0.99784503   -7.6667502    159.85641  0.021486077  0.021762749           10 
  621000   0.99773241   -7.6557435    159.95674   0.02146494  0.021745696            2 
  622000    1.0103503   -7.6223766    160.75996  0.021538044  0.021728922            5 
  623000    1.0025156   -7.7010839    159.50383   0.02133545  0.021711911           11 
  624000    1.0005137   -7.6858118    160.44757  0.021427293  0.021694627            5 
  625000   0.97620439   -7.6420076    160.95302  0.021460403  0.021677549            2 
  626000    1.0105911   -7.6950979    160.67091  0.021388567  0.021660521            2 
  627000    1.0139511   -7.6880043     160.4485  0.021324894   0.02164339            9 
  628000     1.014221   -7.6781875    160.50758  0.021298777  0.021625881            3 
  629000   0.99522716   -7.7265363    161.02485  0.021333446  0.021608439            4 
  630000    1.0183945   -7.6538545    160.90152  0.021283269   0.02159095            3 
  631000    0.9932179    -7.697585    160.97714  0.021259527  0.021573504            8 
  632000    1.0015401   -7.6867173    160.97112  0.021225095   0.02155588            4 
  633000    1.0037078   -7.6792163    161.15269  0.021215467  0.021538525            3 
  634000    1.0182399   -7.6923571    161.27097  0.021197551  0.021521111            4 
  635000   0.98952393   -7.6787509    161.92022  0.021249373  0.021503874            2 
  636000    1.0073003   -7.6705764    162.03643  0.021231189  0.021486627            3 
  637000    1.0076633   -7.6975149     162.1018   0.02120641  0.021469431            5 
  638000    1.0060377   -7.6759855    162.06226  0.021168006  0.021452352            6 
  639000   0.99908398   -7.6537252    162.81893  0.021233559  0.021435248            9 
  640000    1.0013213   -7.7020027    161.98134   0.02109132  0.021417708            4 
  641000    1.0001982    -7.744559    162.21796  0.021089178  0.021400601            3 
  642000    1.0166588   -7.7039532    163.07842  0.021168019  0.021383556            4 
  643000   0.98288292   -7.7018125    162.65219  0.021079859  0.021366614            6 
  644000    1.0036847   -7.6800158    163.41622  0.021145991  0.021349629            3 
  645000   0.99562141   -7.7286178    163.19214  0.021084255  0.021332724            3 
  646000   0.99403691   -7.6892149      163.311   0.02106695  0.021315805            4 
  647000   0.99596293   -7.7157537    163.12549  0.021010496  0.021298725           16 
  648000   0.99863751   -7.6935985    163.39519  0.021012755  0.021281715            3 
  649000   0.98939748   -7.6912647     163.7721  0.021028775   0.02126446            4 
  650000    1.0062263   -7.7402227    163.59752  0.020974041  0.021247325            3 
  651000   0.98229177   -7.7291761    163.79912  0.020967629   0.02123042            3 
  652000    1.0002772   -7.7205756    164.17769  0.020983856  0.021213302            8 
  653000   0.99054001   -7.7556772    163.93468  0.020920709  0.021196348            4 
  654000    1.0030614   -7.7217366    164.23293  0.020926724  0.021179311            3 
  655000   0.99386833   -7.7058481    164.61006  0.020942755  0.021162251            6 
  656000    1.0121065   -7.6996497    164.83792  0.020939776   0.02114512            5 
  657000   0.98551811   -7.7356413    164.76812  0.020899051   0.02112802            7 
  658000    1.0120052   -7.7137873    164.36659  0.020816438  0.021110889            2 
  659000    1.0061263    -7.709646    164.63859  0.020819245  0.021094107            5 
  660000   0.99209617   -7.7554773     164.8241  0.020811124  0.021077039            2 
  661000    1.0032615   -7.7506615    165.18747   0.02082545  0.021059879            2 
  662000   0.98579103   -7.7336041    164.89037  0.020756592  0.021042764            6 
  663000    1.0115098   -7.7379504    165.21542  0.020766142  0.021025608            9 
  664000   0.98135095    -7.739064    165.39051  0.020756841  0.021008471            3 
  665000   0.98222204   -7.7199083    165.21882  0.020704113  0.020991242            2 
  666000   0.97239685   -7.7751702    165.50095  0.020708327  0.020973931            2 
  667000    1.0031278   -7.7293965    165.10089  0.020627298  0.020956376            5 
  668000     0.979947   -7.7549771    165.73442  0.020675452  0.020938647            6 
  669000   0.96896819   -7.7509928    165.13353  0.020569697  0.020921059            6 
  670000    0.9644834   -7.7484017    165.86038  0.020629401   0.02090357            3 
  671000   0.98549637   -7.7346563    165.65416  0.020573045  0.020886208            4 
  672000    1.0012237   -7.7574371    166.14781  0.020603647  0.020868968            3 
  673000   0.97616093   -7.7592687    166.07335  0.020563812  0.020851587            5 
  674000   0.98504578   -7.7581302    166.39655  0.020573263  0.020834223            2 
  675000   0.99455524   -7.7555877    166.65069  0.020574159  0.020817033            8 
  676000    0.9743755   -7.7415797    167.01142  0.020588193   0.02079992            3 
  677000   0.99071241   -7.6848863    167.19134  0.020579929  0.020782954            3 
  678000   0.95743133   -7.7566181    166.72233  0.020491928  0.020765926            4 
  679000   0.97582373   -7.7467875    167.41268  0.020546475  0.020748864            4 
  680000   0.98279158    -7.731664    167.27071  0.020498862  0.020731892            4 
  681000    1.0090902   -7.7610074    167.27198  0.020468916  0.020714885            3 
  682000    0.9873309   -7.7481786    167.53422  0.020470946  0.020698043            3 
  683000   0.97042363   -7.6986264    168.26404   0.02053002  0.020681382            7 
  684000   0.96726477   -7.7248535    168.11735  0.020482134  0.020665067            4 
  685000    0.9674646   -7.7703329    167.96054  0.020433155  0.020648509            9 
  686000   0.97656673   -7.7373361    168.43234  0.020460682   0.02063231            8 
  687000    0.9886424   -7.7822987    168.97018  0.020496141  0.020616294            9 
  688000   0.99652935   -7.7440261    168.93241  0.020461774  0.020600265            7 
  689000   0.98874808   -7.7485485    169.20363  0.020464881  0.020584153            3 
  690000     0.970226   -7.7368408    169.19827  0.020434573  0.020568107            4 
  691000   0.99561274   -7.8037082    168.90497  0.020369629  0.020551817            3 
  692000   0.99570454   -7.7641837    169.37148  0.020396373  0.020535544            3 
  693000   0.99182989   -7.7323771    170.11429  0.020456264  0.020519552            4 
  694000   0.97231025   -7.7417083    169.83674  0.020393461  0.020503465            3 
  695000   0.98761849   -7.7785667      169.525  0.020326739  0.020487474            6 
  696000   0.97612123   -7.7722807    170.10672  0.020367184  0.020471473            4 
  697000   0.96890256    -7.768598    170.27955  0.020358626  0.020455489            6 
  698000    1.0057647    -7.770719    170.48511  0.020354001  0.020439749            5 
  699000   0.98746866    -7.786551    170.85198  0.020368619   0.02042412            3 
  700000   0.97474548   -7.7635972    171.35842  0.020399812  0.020408418            4 
  701000   0.98820696   -7.7781687    171.06577  0.020335921  0.020392825            4 
  702000   0.96204286   -7.7908603    171.24186  0.020327856  0.020377529            4 
  703000   0.96767662   -7.7831312    171.12045  0.020284548  0.020361963            3 
  704000   0.96668983   -7.8262895    171.25317  0.020271445  0.020346527            2 
  705000    0.9912122    -7.787304    171.47455  0.020268859  0.020331001            2 
  706000     0.963807   -7.8287839    171.19627  0.020207303  0.020315406            7 
  707000   0.99528044   -7.8073509    171.33866  0.020195505  0.020299828            7 
  708000    0.9724182   -7.7854315    171.94729  0.020238617  0.020284182            4 
  709000   0.98219134   -7.7713615    171.92592   0.02020756  0.020268498            6 
  710000   0.96051472   -7.8478368    171.15816  0.020088986  0.020252715            2 
  711000   0.96777658   -7.7676969    171.92064  0.020150099  0.020236896            6 
  712000    0.9769178   -7.7942257    172.32466  0.020169085  0.020221092            6 
  713000   0.96833744   -7.7617679      172.002  0.020103085  0.020205506            3 
  714000   0.97264985   -7.8037519    172.38056  0.020119113  0.020189722            7 
  715000   0.97063117   -7.7464823    172.69463  0.020127579  0.020173984            7 
  716000    0.9755882   -7.7762373    172.85062  0.020117623  0.020158352            2 
  717000   0.97396861   -7.7461451    172.99166  0.020105958  0.020142738            3 
  718000    0.9820009   -7.7705403    172.63281  0.020036305   0.02012719            4 
  719000   0.96597368   -7.7866778    173.46622  0.020105032  0.020111591           10 
  720000   0.97999453   -7.8062033    173.23948  0.020050866  0.020096176            4 
  721000   0.97584073   -7.8111612    173.35234    0.0200361  0.020080718           13 
  722000   0.94138684   -7.7800578    172.68344  0.019931145  0.020065093            2 
  723000   0.99005784   -7.7457431    173.21822  0.019965217  0.020049416            2 
  724000   0.96692982   -7.8156788    173.13107   0.01992761  0.020033805            5 
  725000   0.97032191   -7.8195855    173.64738  0.019959469  0.020018113            5 
  726000   0.95852429   -7.8192872    174.27927  0.020004507  0.020002471            6 
  727000   0.96375592    -7.797749    174.56779  0.020010063  0.019986945            3 
  728000   0.95995259   -7.8131309    173.69448  0.019882609  0.019971259            4 
  729000   0.97043869   -7.7867734    174.03125  0.019893832  0.019955645            4 
  730000   0.95771743   -7.7760724    173.98567  0.019861378  0.019940214            2 
  731000   0.95991857    -7.830375    174.20323  0.019859009  0.019924578            5 
  732000   0.94932385   -7.8474847    173.85368  0.019792086  0.019908831            6 
  733000   0.95435945   -7.7890891    174.59826  0.019849734   0.01989302            3 
  734000   0.98203964   -7.8256917     173.9097  0.019744516  0.019877209            2 
  735000   0.96567981   -7.7832447    174.71285  0.019808713  0.019861401            4 
  736000   0.96300979   -7.7708371    174.72713  0.019783416  0.019845685            3 
  737000   0.98193303   -7.7946001    175.62252  0.019857816  0.019830149           13 
  738000   0.97083496   -7.8085907    175.14491  0.019776977  0.019814783            5 
  739000   0.96564947   -7.8045909    175.14886  0.019750661  0.019799117            3 
  740000   0.95491348   -7.8405951    175.12431  0.019721206  0.019783327            1 
  741000   0.96617956   -7.8011007    175.23874  0.019707461  0.019767696           13 
  742000   0.94265797   -7.7877752    175.49369  0.019709534  0.019751868            4 
  743000   0.97896991   -7.8314663     175.7648  0.019713414  0.019736168            3 
  744000   0.96807303    -7.829968    175.01772  0.019603239  0.019720096           11 
  745000   0.94539969   -7.8296752    175.23036  0.019600711  0.019704178            2 
  746000   0.98045294   -7.8255215    175.18866  0.019569778  0.019688149           10 
  747000   0.96996864   -7.8247603     175.6251   0.01959227  0.019672226            7 
  748000   0.97708559    -7.797308    175.78055  0.019583395   0.01965636           10 
  749000   0.95211294    -7.823999    175.86876  0.019567063  0.019640384            4 
  750000    0.9606232   -7.8135597    176.31405   0.01959045  0.019624654            3 
  751000   0.99233154   -7.8160851    176.44714  0.019579132  0.019608997            4 
  752000    0.9546998   -7.8492494    175.89593  0.019492014  0.019593242            3 
  753000    0.9516604   -7.8523473     175.8018  0.019455711  0.019577241            4 
  754000   0.95771818   -7.8296427    176.11782  0.019464834  0.019561184           10 
  755000   0.94162704   -7.8075739    176.39901   0.01947009  0.019545276            3 
  756000   0.95035502   -7.8317683    176.45707  0.019450735  0.019529344            3 
  757000   0.94479012   -7.8253588    176.96215  0.019480642  0.019513433            5 
  758000   0.96018697   -7.8819658    176.31559   0.01938386  0.019497464            3 
  759000   0.92685545   -7.8414227    176.85179  0.019417193  0.019481454            3 
  760000    0.9544781   -7.8486245    176.49104  0.019352088  0.019465548            3 
  761000    0.9472488   -7.8252052    176.73693  0.019353584  0.019449606            4 
  762000   0.94470142   -7.8214443    176.79499  0.019334535  0.019433881            4 
  763000   0.94073431   -7.8419885    177.33324  0.019367982  0.019418214            3 
  764000    0.9455705   -7.8401691    177.34082  0.019343458  0.019402414           14 
  765000   0.95658153   -7.8488346    176.88791  0.019268835  0.019386401            6 
  766000    0.9529777   -7.8413017    177.59778  0.019320907  0.019370283            5 
  767000   0.95109889   -7.8548231    177.56202  0.019291832  0.019354347            3 
  768000   0.94025522   -7.8631515    177.63126  0.019274226  0.019338608            9 
  769000   0.95709056   -7.8596544    178.10751  0.019300771  0.019322791           16 
  770000   0.94973884   -7.8372802    178.06264  0.019270848  0.019307144           19 
  771000   0.91797644   -7.8697266    177.59805  0.019195638  0.019291604            4 
  772000   0.94430724   -7.8414208    178.26055  0.019242288  0.019275915            3 
  773000   0.95374776   -7.8440361    178.60521  0.019254551  0.019260283            4 
  774000   0.96384008   -7.8425749    178.57642  0.019226574  0.019244722            8 
  775000   0.96988884   -7.8687476    178.15855  0.019156833   0.01922902            5 
  776000   0.96081235   -7.8897168    178.01333  0.019116552  0.019213316            5 
  777000   0.95050964   -7.8956493    178.35759  0.019128871  0.019197698            5 
  778000   0.93977017   -7.8107495    179.25319  0.019200213  0.019182151            6 
  779000   0.95757901   -7.8698155    179.23201    0.0191733  0.019166629            4 
  780000   0.94002099    -7.899711    178.84483  0.019107354  0.019151101            4 
  781000   0.94201883   -7.8968239    179.53123  0.019156127  0.019135613            5 
  782000   0.93115264   -7.8962668    179.45275  0.019123268  0.019120379            4 
  783000   0.95027693   -7.8665437    179.17991  0.019069807  0.019104973            8 
  784000   0.94604183   -7.8436022    180.39127  0.019174243  0.019089716            3 
  785000   0.95241909   -7.8624182    179.28303  0.019032169  0.019074529            3 
  786000   0.91809774   -7.8564313    180.15202  0.019100086  0.019059359            5 
  787000   0.95161509   -7.8559625      180.222  0.019083228  0.019044327           13 
  788000   0.94453095   -7.8799297    180.31613  0.019068965  0.019029359           18 
  789000    0.9327763   -7.8459515    180.83098  0.019099174  0.019014419            2 
  790000   0.92707741   -7.8493505    180.65965  0.019056925  0.018999746            6 
  791000   0.91615592   -7.8603763    180.86123   0.01905407  0.018984964            6 
  792000   0.93508033   -7.8960397    180.34181  0.018975359    0.0189699            6 
  793000   0.94827152   -7.8679294    181.45087  0.019067977  0.018955084            3 
  794000   0.94892652   -7.9236391     180.8548  0.018981402  0.018940134            7 
  795000   0.93490055   -7.9165647    181.45619  0.019020565  0.018925258            3 
  796000   0.93629015   -7.9448943    180.68725  0.018916169  0.018910254            2 
  797000   0.95708412   -7.8634399    181.17792  0.018943739  0.018895351            6 
  798000   0.93739293   -7.8737663    181.91957  0.018997449  0.018880453            6 
  799000   0.91670528   -7.8994749    181.54943  0.018935068  0.018865535            3 
  800000   0.92657319   -7.8547691    181.42735  0.018898683   0.01885063            2 
  801000   0.93928592    -7.932168    181.20355  0.018851805  0.018835733            3 
  802000   0.92839806   -7.9580194    181.60389  0.018869897  0.018820753            9 
  803000   0.91628346   -7.9116943     181.7366   0.01886017  0.018805809           13 
  804000   0.93462761   -7.8779789    181.50282  0.018812481  0.018790984            6 
  805000   0.94721083   -7.9028318    181.78997  0.018818837  0.018776005            7 
  806000   0.92374212   -7.8569866    181.83595  0.018800243  0.018761022           10 
  807000   0.92188898   -7.9169307     181.7875  0.018771944  0.018746014            9 
  808000   0.92857437   -7.9155108    182.03337  0.018774069   0.01873104            7 
  809000    0.9343845   -7.9098866    182.24873  0.018773046  0.018716042            6 
  810000   0.95080254   -7.8803186    182.43653  0.018769191  0.018701113            4 
  811000   0.92573102   -7.8748195    182.34619  0.018736764  0.018686417            6 
  812000   0.93999204   -7.8870412    182.83248  0.018763596  0.018671673            4 
  813000   0.94200774   -7.9175309    182.23157  0.018678923   0.01865681            4 
  814000   0.93912481   -7.8787108    182.19603  0.018652337  0.018641851            3 
  815000   0.92800451    -7.878394    182.75711  0.018686821  0.018626962            2 
  816000   0.92766493    -7.901891    182.73756  0.018661924  0.018612206            4 
  817000   0.92421144   -7.8937222    183.32659  0.018699163  0.018597286            8 
  818000   0.93695827   -7.8694985    183.30766  0.018674374  0.018582538            5 
  819000   0.92230094   -7.8795728    183.39447  0.018660406   0.01856791            2 
  820000    0.9055803   -7.8852732    183.44306  0.018642587  0.018553284            3 
  821000   0.90585609   -7.8844954    183.76436  0.018652492  0.018538694            5 
  822000   0.94209194   -7.8862164    183.43855  0.018596771  0.018524031            6 
  823000   0.91435697   -7.8927084     183.9043  0.018621334  0.018509291            4 
  824000   0.92003264    -7.899056    183.80355  0.018588547  0.018494605            5 
  825000   0.94621368   -7.9114965    183.39307  0.018524553  0.018479756            4 
  826000   0.93089274   -7.8795855    184.18643  0.018582166  0.018464971            7 
  827000   0.92749327    -7.870093    184.16247  0.018557283  0.018450427            8 
  828000   0.93984121   -7.9100817    184.23244  0.018541912  0.018435854            4 
  829000   0.93485027   -7.9163471    184.21374  0.018517665  0.018421072            7 
  830000   0.93265371   -7.9204742    184.49578  0.018523672  0.018406316           13 
  831000   0.90785235   -7.9460583    183.87441   0.01843907  0.018391663            2 
  832000   0.92892477   -7.9249977    184.51456  0.018481026  0.018377034            4 
  833000   0.91363622     -7.94921    184.53464  0.018460849  0.018362478            8 
  834000   0.93416818   -7.9321942    184.41109  0.018426368  0.018347904            5 
  835000   0.90501706   -7.9160355    184.47818  0.018410996  0.018333405            9 
  836000   0.92676364     -7.95012    184.92673  0.018433685  0.018318949            6 
  837000   0.93236717   -7.9319847    185.18018  0.018436895  0.018304509            8 
  838000   0.90610614   -7.9313881    185.10831  0.018407748  0.018290113            3 
  839000   0.88919507   -7.9283837      185.159  0.018390843  0.018275656            7 
  840000   0.93316906   -7.9421659    185.15613  0.018368663  0.018261232            3 
  841000    0.9307053   -7.9461344    185.02346  0.018333676   0.01824697            4 
  842000   0.92757886    -7.948785    185.64859  0.018373772  0.018232589           11 
  843000     0.927477    -7.928117    185.42646  0.018330018  0.018218164            9 
  844000   0.92045134   -7.9511521    185.52883  0.018318407   0.01820345            4 
  845000    0.9235565   -7.9496682    186.00659  0.018343845  0.018188824            9 
  846000   0.93539226   -7.9552905      184.784  0.018201734  0.018174224           13 
  847000   0.91915277   -7.9160926     186.1411  0.018313764  0.018159666           21 
  848000   0.90725448   -7.9973573    185.63808  0.018242736  0.018145238           13 
  849000   0.93112268   -7.9650562    185.79786  0.018236932   0.01813071           21 
  850000   0.91604465   -7.9570219    185.81414  0.018217072  0.018116166            7 
  851000   0.92869963   -7.9634165    186.45472  0.018258394  0.018101731            5 
  852000   0.93034171    -7.988133    185.99868  0.018192359  0.018087375            8 
  853000   0.91176708   -7.9971246    186.02159   0.01817327  0.018072904            8 
  854000   0.90421282   -8.0021805    186.31773  0.018180887  0.018058443            8 
  855000   0.89087003   -7.9269574    186.81563  0.018208151  0.018044027            4 
  856000   0.92930338   -7.9480082    186.68485  0.018174148  0.018029754            6 
  857000   0.92160147   -7.9123439    187.34921  0.018217543  0.018015444            8 
  858000   0.90302049   -7.9242308    187.16444  0.018178364  0.018001153            3 
  859000   0.92655482   -7.9321226    187.10139  0.018151085  0.017986872            7 
  860000   0.93357131   -7.9427661    186.80415  0.018101177  0.017972603           10 
  861000   0.91014662   -7.9767771    187.32793  0.018130848   0.01795827            6 
  862000   0.89425654   -8.0039038    186.43775  0.018023757  0.017943942           23 
  863000   0.89503562    -7.952988     187.3633  0.018092246  0.017929554           10 
  864000   0.91010766   -7.9931045    186.98812  0.018035119  0.017915289           18 
  865000   0.91657457   -7.9147658    187.43758   0.01805757  0.017901147            6 
  866000   0.89728077   -7.9637484    187.62336  0.018054596   0.01788706            7 
  867000   0.91114973   -7.9525585    187.71554  0.018042632   0.01787294           17 
  868000   0.89254948   -8.0040701    187.67215   0.01801768  0.017858814            7 
  869000   0.91609949   -8.0045378    187.02122  0.017934525   0.01784459           11 
  870000   0.91634475   -7.9706276    187.62984  0.017972207  0.017830317            4 
  871000    0.9255068   -7.9658187    187.80631  0.017968457  0.017816131            4 
  872000   0.89913931   -7.9721735    187.76696   0.01794409  0.017801883            3 
  873000   0.91115721   -7.9917063    188.14538  0.017959658  0.017787523            4 
  874000   0.91198891   -7.9772895    187.98922   0.01792422  0.017773282           13 
  875000   0.90610856   -7.9499999    188.38816   0.01794173  0.017759204            3 
  876000   0.88519773   -7.9710444    188.77021  0.017957593  0.017745084            4 
  877000   0.89924615   -7.9607549    188.80078  0.017940021  0.017731155           13 
  878000   0.90039731   -7.9796718    188.59811  0.017900352  0.017717096            5 
  879000   0.89062054   -7.9710135     188.9115  0.017909698  0.017703008            7 
  880000   0.90374995   -7.9647223    189.02675   0.01790026  0.017689219            4 
  881000   0.88671614   -7.9942917    189.23837  0.017899959  0.017675298            9 
  882000   0.88751336   -7.9491739    189.46113  0.017900711  0.017661415           10 
  883000   0.88216919    -7.968704    189.65004  0.017898267  0.017647627            9 
  884000   0.90383959   -8.0027013     189.3011  0.017845126  0.017633878            8 
  885000   0.89363921   -7.9714218    189.75543  0.017867743  0.017620116            5 
  886000   0.91072409   -7.9747223    189.53554  0.017826894  0.017606594           10 
  887000   0.89106575    -7.939485    189.82114  0.017833629  0.017593058            4 
  888000   0.92197678   -7.9888997    190.55328  0.017882252  0.017579543            5 
  889000   0.89058783   -7.9757304    190.28509  0.017836997   0.01756603            9 
  890000   0.87802364   -7.9736731    190.53208  0.017840082  0.017552508            5 
  891000   0.89822302   -7.9768064     190.4974  0.017816817   0.01753896            8 
  892000   0.87284433   -7.9846822    189.98705  0.017749163  0.017525415            4 
  893000   0.87623635   -7.9995601    189.71297  0.017703711  0.017511757           12 
  894000   0.89801186   -8.0264974    190.11963  0.017721815  0.017498017           27 
  895000   0.90638094    -7.978679    190.25064  0.017714213  0.017484232           29 
  896000   0.89330889   -8.0059711    190.22884  0.017692414  0.017470493           11 
  897000   0.91546482   -8.0189751    190.38649  0.017687336  0.017456681           18 
  898000   0.89598424   -8.0186212    190.18496  0.017648938  0.017442988           15 
  899000   0.90171961    -8.014676    190.10719  0.017622098  0.017429209           12 
  900000   0.88783209   -7.9938989    189.99446  0.017592079  0.017415337            6 
  901000   0.90099614   -8.0129624    190.33038  0.017603623  0.017401504            6 
  902000   0.89570548    -8.011001    190.48961  0.017598818  0.017387688            9 
  903000   0.89391258    -8.017999    190.73856  0.017602304  0.017373897            6 
  904000    0.9084291   -7.9935425    190.24298  0.017537148  0.017360026            4 
  905000   0.88030901   -8.0758219    189.90353  0.017486513  0.017346047           14 
  906000   0.86545741   -8.0225563    190.14566  0.017489483  0.017332133            6 
  907000   0.89661993   -8.0416217    190.72999  0.017523887  0.017318085            6 
  908000   0.87150743   -8.0332258     190.6167   0.01749419  0.017304109           10 
  909000   0.91213989   -8.0370615    190.81198  0.017492847  0.017290213            6 
  910000   0.85809272   -7.9724725    191.06237  0.017496554  0.017276363           23 
  911000   0.87107449   -8.0398204     190.9829  0.017470079  0.017262558            7 
  912000   0.88263785   -8.0513808    190.68263  0.017423486   0.01724865           11 
  913000   0.87743766   -8.0380873    191.27304  0.017458292  0.017234673            4 
  914000   0.89455323   -8.0165921    190.73999   0.01739059  0.017220639            4 
  915000   0.89740082    -8.019822    191.25194   0.01741821  0.017206594           15 
  916000     0.876946   -8.0408171     190.9751  0.017374008  0.017192633            8 
  917000   0.88134124   -8.0340065    191.14398  0.017370409  0.017178562           13 
  918000   0.89443868   -8.0515549    190.96514  0.017335252  0.017164439            9 
  919000    0.8804967   -8.0262651    191.15937  0.017334002  0.017150453           20 
  920000   0.86498197   -8.0667449    191.07703  0.017307702  0.017136458            7 
  921000   0.88405663   -8.0414877    191.19748  0.017299809  0.017122468           12 
  922000   0.90029159   -8.0285535    191.42581  0.017301682  0.017108696           27 
  923000   0.90878581   -7.9976367    191.54247  0.017293469  0.017094922           19 
  924000    0.8661843    -8.069399    192.20982  0.017334941  0.017081154           28 
  925000   0.89176714   -8.0496091    191.89621  0.017287947   0.01706739           19 
  926000    0.8874561   -8.0458203    192.27246  0.017303137  0.017053576           21 
  927000   0.88234237   -8.0578079    191.56381  0.017220767   0.01703983           10 
  928000   0.89024407   -8.0905761    191.67146  0.017211877  0.017026021           19 
  929000   0.86295805   -8.0511215    191.97142  0.017220256    0.0170121           17 
  930000   0.88406315   -8.0508455    192.03389  0.017207338  0.016998236           10 
  931000   0.90200268   -8.0353196    192.25034   0.01720823   0.01698435           12 
  932000   0.88520918   -8.0497713     192.4261  0.017205481  0.016970565           25 
  933000   0.89391416   -8.0730021    191.64776  0.017117521  0.016956815           10 
  934000   0.87546675   -8.0774299    192.19531  0.017148047  0.016943037           20 
  935000   0.87963722   -8.0771645    192.07527  0.017119008  0.016929262           17 
  936000   0.88235709   -8.0587397    192.02616  0.017096346  0.016915441            9 
  937000   0.87983862   -8.0706378    192.50027  0.017120266  0.016901774           21 
  938000   0.89726433    -8.043293    192.71385  0.017120989  0.016888025            8 
  939000   0.87457353   -8.0534126    192.95686  0.017124322   0.01687434           14 
  940000   0.88545346   -8.0701652    193.01987  0.017111691  0.016860658            8 
  941000   0.87953019   -8.0669061    192.15302  0.017016739  0.016846966           11 
  942000   0.88697307   -8.0902738    192.69622  0.017046729  0.016833132            7 
  943000   0.85834039   -8.0742477    193.05771  0.017060596  0.016819357           18 
  944000   0.87543904   -8.1031052    192.27302  0.016973254  0.016805506           21 
  945000   0.88631515   -8.0924887     192.4578  0.016971587  0.016791755           19 
  946000   0.87790976   -8.0947957    192.48009   0.01695561  0.016777904           13 
  947000   0.86849587   -8.0840375    193.42255  0.017020639   0.01676402           10 
  948000   0.86648002   -8.0643019    192.99396  0.016965011   0.01675031            8 
  949000   0.85761053   -8.0800489    193.24958   0.01696958  0.016736617           16 
  950000   0.85455039   -8.0246109    193.12745  0.016941005  0.016722932           10 
  951000   0.88255299    -8.081271    192.69801   0.01688556  0.016709135           11 
  952000   0.86465562   -8.0889385    193.29587  0.016920157  0.016695406            5 
  953000   0.88945803   -8.0497566    193.73203  0.016940541  0.016681632            9 
  954000   0.87069719   -8.0691675    193.43138  0.016896521  0.016667963            4 
  955000   0.87586084   -8.0709356    193.72563  0.016904505  0.016654317            4 
  956000   0.85813265      -8.0463    193.91819  0.016903608  0.016640696            5 
  957000   0.87416614   -8.1029782     193.5148  0.016850818  0.016627145            8 
  958000   0.85025586   -8.0833489    193.51965  0.016833651  0.016613419            5 
  959000   0.87345223   -8.0734497    193.44613  0.016809709  0.016599767            5 
  960000   0.87488081   -8.0883553    194.00084  0.016840351  0.016586153            8 
  961000   0.87953535   -8.0843783    193.77268  0.016803042  0.016572598            9 
  962000   0.86350866   -8.1111886    193.88307  0.016795137  0.016559077           11 
  963000   0.86972777   -8.1118228    193.61076  0.016754133  0.016545569           11 
  964000   0.86686759   -8.1143681    194.07205  0.016776629  0.016532009           12 
  965000   0.88354275   -8.0632344    194.53262  0.016799017  0.016518611           21 
  966000   0.88027687   -8.1138758    193.99546  0.016735288  0.016505251            8 
  967000   0.85566579   -8.0786848     194.5064  0.016762013  0.016491859            6 
  968000   0.86528186    -8.088661    194.97636  0.016785155  0.016478535            8 
  969000   0.88418215   -8.0928451    194.43909  0.016721628  0.016465196           10 
  970000    0.8710035   -8.0794235    194.83895  0.016738741  0.016451814            8 
  971000   0.88131111   -8.0800636    194.68136  0.016707978   0.01643853           16 
  972000   0.87670362   -8.1208994    194.47135  0.016672784  0.016425217           19 
  973000   0.84979038   -8.0986004    194.76051  0.016680414  0.016411874            4 
  974000   0.85362591    -8.103185     194.7753  0.016664553  0.016398473            4 
  975000    0.8602794   -8.1283109    194.27024  0.016604294   0.01638503            3 
  976000   0.87662067   -8.1142811    194.32032  0.016591557  0.016371548            6 
  977000   0.85305552   -8.1387484    194.72696   0.01660926   0.01635814            3 
  978000   0.86619933   -8.0901459    194.86644  0.016604161  0.016344702            5 
  979000   0.86134518   -8.0857856    195.04575  0.016602464  0.016331222           14 
  980000   0.84764123   -8.0962185    195.58009   0.01663096  0.016317967            5 
  981000   0.86606752   -8.0781203     195.3403  0.016593637   0.01630469           12 
  982000    0.8646862   -8.0872807    195.71279   0.01660835   0.01629153            4 
  983000   0.86271023   -8.0484016    195.97388  0.016613588   0.01627839            9 
  984000   0.86651452   -8.0878368     195.4877   0.01655553  0.016265223            4 
  985000   0.86864293   -8.0912509    195.88195  0.016572077  0.016252035            7 
  986000   0.86873106   -8.1056501    195.31219  0.016507116  0.016238796           11 
  987000   0.87850397   -8.1060867    195.05331  0.016468533  0.016225479            7 
  988000   0.85773001   -8.0991309    196.42442  0.016567512  0.016212259            9 
  989000   0.84733368   -8.0993068    195.48464  0.016471574  0.016198952           13 
  990000   0.86246359   -8.1165997    195.67393   0.01647087  0.016185637           20 
  991000    0.8565939   -8.1403473    195.85112  0.016469149  0.016172376            5 
  992000    0.8544933   -8.1466929    195.85223   0.01645264  0.016159125           14 
  993000   0.87317937   -8.1259732    195.35663   0.01639448  0.016145826            8 
  994000   0.84111134   -8.1417741    195.93914  0.016426823  0.016132518            7 
  995000    0.8629817   -8.0797516    196.05225  0.016419786  0.016119219           10 
  996000   0.86044229   -8.1158299    195.92467  0.016392626  0.016105876            7 
  997000   0.87984208   -8.1264737    196.31108  0.016408482  0.016092577            5 
  998000   0.87173378   -8.1093839    196.26936  0.016388557  0.016079358            8 
  999000   0.86776826   -8.1327032    196.47689  0.016389464  0.016066159           12 
 1000000   0.84749389   -8.1235229    195.97518  0.016331265  0.016052994           15 
 1001000    0.8545951   -8.1248634    195.68402  0.016290711   0.01603975            5 
 1002000    0.8518081   -8.1094875    195.90964  0.016293217  0.016026418           10 
 1003000   0.86765073   -8.1308837    196.17867  0.016299325  0.016013147           10 
 1004000    0.8440313   -8.1262784    196.02851  0.016270627  0.015999872            6 
 1005000   0.85790713   -8.1221601     196.1093  0.016261136  0.015986606            7 
 1006000   0.82828499   -8.1218625    196.70364  0.016294205  0.015973338            3 
 1007000   0.87497289   -8.1418217    196.10263  0.016228288  0.015959976            7 
 1008000    0.8561055    -8.175951    196.42364  0.016238727  0.015946562            8 
 1009000   0.86396363   -8.1254422     195.8767  0.016177461  0.015933208           15 
 1010000   0.83705041   -8.1532363    196.23183  0.016190745  0.015919861           14 
 1011000   0.84950608   -8.1617964    195.95609  0.016152002  0.015906636           15 
 1012000    0.8388463   -8.1541785     196.4802    0.0161792   0.01589326           24 
 1013000   0.84108032   -8.1516673    196.07875  0.016130203  0.015879891           25 
 1014000   0.85684053   -8.1436117    197.16816  0.016203826  0.015866509            8 
 1015000   0.87004098   -8.1475955    196.56834  0.016138616  0.015853217           27 
 1016000   0.86677267   -8.1584706    196.63526   0.01612822  0.015839895           24 
 1017000   0.83967427   -8.1686447      196.616  0.016110783  0.015826569           28 
 1018000   0.84260411   -8.1890362      196.481  0.016083906  0.015813232           28 
 1019000   0.83240393   -8.1642241    197.32799  0.016137388  0.015799888           28 
 1020000   0.86790431   -8.1815112    196.72745  0.016072504  0.015786624           32 
 1021000   0.86727091   -8.1895683     197.0502  0.016083104  0.015773394           35 
 1022000   0.85042888   -8.1854685     196.7138  0.016039938  0.015760102           43 
 1023000   0.84095518   -8.2199154    196.54476  0.016010488  0.015746805           43 
 1024000   0.85677247   -8.2196163    196.36809  0.015980476   0.01573345          106 
 1025000   0.81338567   -8.1714726    196.50796  0.015976257  0.015720181           26 
 1026000   0.86561172   -8.1899073    196.73297  0.015978961   0.01570694           28 
 1027000   0.85953652   -8.2069824    196.92559  0.015979032  0.015693739           65 
 1028000   0.83926117   -8.1561486    197.09505  0.015977225   0.01568046           47 
 1029000   0.84586009   -8.2100357     197.3927  0.015985803  0.015667224           68 
 1030000   0.85793417    -8.215046    196.78697  0.015921276  0.015653925           63 
 1031000   0.84762078    -8.205446    196.98373  0.015921737  0.015640615           77 
 1032000   0.82066469   -8.1943249    196.69023  0.015882609  0.015627226           89 
 1033000   0.85146895    -8.212617    196.14138  0.015822957   0.01561381           85 
 1034000   0.83987423   -8.1707077     196.8445  0.015864322  0.015600425          162 
 1035000   0.84927044   -8.1831819    196.96787  0.015858927  0.015587016           58 
 1036000    0.8440517   -8.2174004    196.86656  0.015835469  0.015573597           81 
 1037000   0.83770826   -8.2211783    196.81526  0.015816077  0.015560167           92 
 1038000   0.84136214   -8.1733591    197.00811  0.015816322  0.015546702           89 
 1039000   0.83589593   -8.2134094     196.7184  0.015777863  0.015533235          131 
 1040000   0.84903866    -8.188052    196.84586  0.015772905  0.015519802          110 
 1041000   0.84116556    -8.220375    197.15553  0.015782543   0.01550634           72 
 1042000   0.84348912   -8.2044222     196.4126  0.015707981  0.015492899           90 
 1043000   0.82158429   -8.1907474     197.0733  0.015745709  0.015479493          111 
 1044000    0.8244929   -8.2086709     196.7367   0.01570376   0.01546613           80 
 1045000   0.84771662   -8.1855691    197.10223  0.015717881  0.015452765           59 
 1046000   0.83189811   -8.1938551    197.02017  0.015696317  0.015439437           72 
 1047000   0.84243974   -8.1922806     197.4749  0.015717518  0.015426112          109 
 1048000   0.84072443   -8.1947821    197.50394   0.01570483  0.015412805          108 
 1049000   0.82145998   -8.1810163    197.42341  0.015683461  0.015399514          120 
 1050000   0.83058165   -8.2015875    197.23435   0.01565352  0.015386163           70 
 1051000   0.82400367   -8.1847766     197.2329  0.015638511  0.015372811          108 
 1052000   0.83030262   -8.1957527    197.50681  0.015645343   0.01535946          179 
 1053000    0.8611672   -8.2427009    197.27721  0.015612315  0.015346046          116 
 1054000   0.83930925   -8.2244344    196.70975  0.015552636  0.015332653          110 
 1055000   0.83781776   -8.2314249     197.0375  0.015563784  0.015319283          162 
 1056000   0.81342306   -8.2198485    196.84377  0.015533757  0.015305873          199 
 1057000   0.82993716   -8.2289047    197.29519   0.01555465  0.015292516          170 
 1058000   0.83000481   -8.2508328    197.14556  0.015528163   0.01527912          214 
 1059000   0.83321973   -8.2400341    197.62658  0.015551352  0.015265706          241 
 1060000   0.83533468   -8.2193668    197.21251  0.015504129   0.01525233          261 
 1061000   0.81808545   -8.2730041    196.99086  0.015472107  0.015238961          276 
 1062000   0.84113032   -8.2601872    197.39797  0.015489483  0.015225547          305 
 1063000   0.84726554    -8.235874    197.29975  0.015467212  0.015212115          294 
 1064000   0.83194736   -8.2283955    197.43647  0.015463382  0.015198727          316 
 1065000   0.82028036   -8.2822557    196.91936  0.015408401  0.015185314          321 
 1066000   0.80674072   -8.2519845    197.17285  0.015413763  0.015171994          324 
 1067000   0.81737155   -8.2685496    197.30978  0.015410011  0.015158652          378 
 1068000   0.82819441   -8.2707443    197.33937  0.015397891  0.015145273          382 
 1069000   0.82975013   -8.2584724    197.09438  0.015364389  0.015131792          353 
 1070000   0.82478647   -8.2543082    197.23442  0.015360936  0.015118276          318 
 1071000   0.82310012   -8.2671834    197.21521  0.015345099  0.015104803          334 
 1072000   0.82278393   -8.2608172    197.48612  0.015351844  0.015091345          368 
 1073000   0.81493011   -8.3284202    197.14042  0.015310688  0.015077845          355 
 1074000   0.84127797   -8.3061974    196.98141  0.015284095  0.015064341          375 
 1075000   0.82760599   -8.2821664    197.37678  0.015300525  0.015050881          343 
 1076000   0.80484275   -8.2906113    197.04328  0.015260477  0.015037346          323 
 1077000   0.83872351   -8.2878333    197.25206  0.015262462  0.015023828          432 
 1078000   0.82009988   -8.3155174    197.16528  0.015241596  0.015010294          409 
 1079000   0.82486593   -8.3236952    196.67052  0.015189259  0.014996717          467 
 1080000   0.81371998    -8.327111     197.2894  0.015222947  0.014983071          498 
 1081000   0.83228805   -8.3289696     197.1486  0.015198011  0.014969483          493 
 1082000   0.83482815   -8.3372855    196.59749   0.01514152  0.014955852          458 
 1083000   0.80899217   -8.3561503    196.48829  0.015119136  0.014942177          477 
 1084000   0.82504082   -8.3383278    197.35944  0.015172159  0.014928511          523 
 1085000    0.8123491   -8.3339884    196.53041  0.015094501  0.014914864          506 
 1086000   0.81943989   -8.3425335    196.79203  0.015100677  0.014901249          541 
 1087000   0.82757485   -8.3671689    196.71841  0.015081142  0.014887603          587 
 1088000    0.8353377   -8.3383967     196.7415  0.015069049  0.014874032          614 
 1089000   0.81232352    -8.362276     196.7005  0.015052074  0.014860428          628 
 1090000   0.81816061   -8.3834695    196.90265   0.01505372  0.014846739          577 
 1091000   0.83218575   -8.3854257    196.42552  0.015003477  0.014833104          619 
 1092000   0.82341599   -8.3587775    196.41162  0.014988677  0.014819401          741 
 1093000   0.82175346   -8.3598063    196.97971  0.015018277  0.014805771          610 
 1094000   0.82398263   -8.3879064    196.74156  0.014986408  0.014792134          700 
 1095000   0.82224878    -8.376805    197.11847  0.015001406  0.014778469          711 
 1096000   0.80883089   -8.3887165    197.04774   0.01498234  0.014764805          694 
 1097000   0.82094963   -8.3987783    196.84675  0.014953414  0.014751117          719 
 1098000   0.80942719     -8.35968    197.41496  0.014982921  0.014737472          747 
 1099000   0.80668307   -8.3897735    196.85702   0.01492698  0.014723832          715 
 1100000   0.80949493    -8.398837    196.99156  0.014923603  0.014710102          774 
 1101000    0.8222745   -8.4074988    196.90054  0.014903159  0.014696373          840 
 1102000   0.79902421   -8.4101156    197.01429  0.014898237  0.014682652          805 
 1103000   0.79585798   -8.4428772    196.55249  0.014849841  0.014668887          824 
 1104000   0.80905875   -8.4414088    196.93638  0.014865367  0.014655152          871 
 1105000   0.80911795   -8.4333057     196.7544   0.01483819   0.01464142          937 
 1106000   0.79503701   -8.4182708    196.33479  0.014793158  0.014627667          928 
 1107000   0.80420013   -8.4039226    196.94207   0.01482551  0.014613908          895 
 1108000   0.80407633   -8.4310842    196.58195  0.014785044  0.014600209          942 
 1109000   0.79910306    -8.469434    196.55406  0.014769617  0.014586486          975 
 1110000   0.79100947   -8.4318852    196.92039  0.014783813  0.014572787          996 
 1111000   0.79356397     -8.42353    197.28153  0.014797595  0.014559093         1033 
 1112000   0.80956879   -8.4798993    196.23103  0.014705563  0.014545293         1162 
 1113000   0.82003954   -8.4886177    196.29377  0.014697048   0.01453149         1268 
 1114000   0.80863997   -8.5020098    196.33751  0.014687127  0.014517578         1267 
 1115000   0.81509237   -8.4819701    196.71738  0.014702346  0.014503721         1334 
 1116000   0.80595939   -8.4804225    196.37408  0.014663537  0.014489773         1324 
 1117000   0.80226524    -8.509219    196.03152  0.014624852  0.014475819         1373 
 1118000   0.78590819   -8.5333286    196.01861  0.014610809  0.014461829         1409 
 1119000   0.80263059   -8.5556911    196.12256  0.014605493  0.014447777         1553 
 1120000     0.795395   -8.5522412    195.74021  0.014564004  0.014433748         1605 
 1121000   0.80635522   -8.5701244    195.75694  0.014552255  0.014419666         1606 
 1122000   0.81286531   -8.5988799    195.27274  0.014503323  0.014405531         1714 
 1123000   0.79315699   -8.5976228    195.14989  0.014481292  0.014391338         1802 
 1124000   0.80883491   -8.6321496    195.08153   0.01446334  0.014377141         1800 
 1125000   0.81147486   -8.6609981    194.69322   0.01442172  0.014362847         1967 
 1126000   0.78918077   -8.6487758    194.76922  0.014414537  0.014348439         2000 
 1127000   0.79305851   -8.6496786    194.96535  0.014416249  0.014334091         2086 
 1128000   0.79309658   -8.6711808    194.70952  0.014384568  0.014319684         2122 
 1129000   0.79980978    -8.683741    194.57337  0.014361778  0.014305237         2137 
 1130000   0.78589331   -8.7040623    194.39135  0.014335645  0.014290792         2193 
 1131000     0.803842    -8.710339    194.16316  0.014306156  0.014276305         2165 
 1132000   0.79965836   -8.7214952    194.54795  0.014321846  0.014261796         2294 
 1133000   0.80394644   -8.7244333    194.44581  0.014301692  0.014247271         2307 
 1134000   0.80711877   -8.7569079    194.32685  0.014280339  0.014232635         2487 
 1135000   0.80484566     -8.75391    193.79797  0.014228926  0.014217932         2417 
 1136000   0.79740467   -8.7389588    193.94013  0.014226829   0.01420325         2541 
 1137000   0.80728034   -8.7933795    193.68243  0.014195429  0.014188551         2580 
 1138000   0.78345282   -8.8311581    192.92295  0.014127339  0.014173751         2613 
 1139000   0.80637665   -8.8535509    193.81375  0.014180111  0.014158904         2749 
 1140000    0.8049605   -8.8410813     192.7864  0.014092573  0.014144006         2803 
 1141000   0.80466054   -8.8394157    192.95958   0.01409287  0.014129035         2897 
 1142000   0.79670618   -8.8610135    192.35821  0.014036647  0.014114022         2958 
 1143000   0.78341819   -8.8807725    192.66579  0.014046791  0.014098965         2985 
 1144000   0.79966388   -8.9025785     192.6222  0.014031338  0.014083919         3045 
 1145000    0.7855398   -8.9023107    191.90427  0.013966832    0.0140688         3089 
 1146000   0.78732247   -8.9006039    192.27608  0.013981681  0.014053636         3136 
 1147000   0.79142275   -8.9170813    192.65731  0.013997189  0.014038455         3168 
 1148000   0.79448604   -8.9433234    192.60745  0.013981377  0.014023248         3180 
 1149000    0.7923805   -8.9483078    192.36764  0.013951816  0.014008026         3167 
 1150000   0.78880046   -8.9557158    191.76934  0.013896329  0.013992819         3303 
 1151000   0.79334141   -8.9603893    192.20247  0.013915614  0.013977619         3302 
 1152000   0.78696141   -8.9430858    192.27244  0.013908597  0.013962429         3347 
 1153000   0.77929148   -8.9565755    192.32184  0.013900104  0.013947262         3272 
 1154000   0.79540758   -8.9513251    191.92813  0.013859628  0.013932087         3349 
 1155000   0.79570892    -8.964618    192.12832  0.013862072  0.013916884         3389 
 1156000   0.79451131   -8.9640475    191.73923  0.013822032  0.013901634         3396 
 1157000    0.8126526    -8.969116    191.59827  0.013799933  0.013886403         3409 
 1158000    0.7873532   -8.9785491    191.59439  0.013787737  0.013871175         3394 
 1159000   0.79898259   -8.9765876    191.96274  0.013802325  0.013855944         3496 
 1160000   0.77995461   -8.9940271    191.43091  0.013752221  0.013840717         3431 
 1161000   0.79692961   -9.0132036    191.41835  0.013739474  0.013825507         3466 
 1162000   0.80674861   -8.9585337     192.1827  0.013782466  0.013810303         3437 
 1163000   0.79097567   -9.0111844    191.28415  0.013706231   0.01379509         3554 
 1164000   0.78742721   -9.0365541    191.20744  0.013688964  0.013779823         3605 
 1165000    0.7899815    -9.046078    191.14594  0.013672814  0.013764533         3604 
 1166000   0.78777889   -9.0468654    191.61213  0.013694406  0.013749226         3596 
 1167000   0.78415142   -9.0535926    191.26014  0.013657536  0.013733941         3600 
 1168000   0.79447092   -9.0642359    191.02244  0.013628884  0.013718634         3654 
 1169000   0.78117876   -9.0767941    190.28886  0.013564932  0.013703318         3688 
 1170000   0.79170849   -9.0941286    190.84027  0.013592612  0.013688021         3699 
 1171000   0.78001993   -9.0788033    190.86201  0.013582551  0.013672717         3691 
 1172000   0.77807011   -9.0681154    190.94871  0.013577127  0.013657406         3705 
 1173000   0.79202871   -9.0880209    190.73119  0.013550099  0.013642129         3699 
 1174000   0.77451112   -9.0591992     190.9321  0.013552818  0.013626862         3712 
 1175000   0.77243398   -9.0883954    190.62751  0.013519682  0.013611549         3676 
 1176000    0.7785802    -9.079718    190.73035  0.013515472  0.013596293         3664 
 1177000   0.78526314   -9.0959839    190.82936     0.013511  0.013581051         3711 
 1178000   0.77834774    -9.104904    190.59249  0.013482774  0.013565814         3759 
 1179000    0.7945524   -9.1090671    190.51004   0.01346551  0.013550546         3782 
 1180000   0.78630534   -9.1079022    190.29026  0.013438578  0.013535287         3756 
 1181000   0.77499338   -9.1068731    190.61977   0.01345045  0.013520047         3748 
 1182000    0.7849695   -9.1063153    190.61091  0.013438445  0.013504808         3730 
 1183000   0.78238527   -9.0954887    190.57638  0.013424654  0.013489598         3759 
 1184000   0.79001054   -9.1052632    190.41114  0.013401685  0.013474422         3734 
 1185000   0.77805161   -9.1418162    190.57791  0.013402103  0.013459262         3761 
 1186000   0.77435565   -9.0815352    190.71244  0.013400256  0.013444104         3771 
 1187000    0.7962756   -9.1194173    190.38466  0.013365955  0.013428973         3742 
 1188000   0.76058414   -9.1183163    190.63403  0.013372197  0.013413837         3754 
 1189000   0.76040863   -9.1247371    190.13852  0.013326221  0.013398704         3752 
 1190000   0.77210832   -9.1150385      190.712  0.013355182  0.013383609         3755 
 1191000   0.77423126   -9.0936914    190.75283  0.013346825   0.01336853         3709 
 1192000   0.77078157   -9.1368423    190.37447  0.013309177  0.013353471         3758 
 1193000    0.7799461   -9.1378541    190.81573  0.013328844  0.013338418         3786 
 1194000   0.78806982   -9.0885904    190.95277  0.013327245    0.0133234         3698 
 1195000   0.77816946   -9.1184209    190.67096  0.013296441  0.013308376         3753 
 1196000   0.78878843    -9.136624    190.72043   0.01328877  0.013293391         3775 
 1197000   0.78062658   -9.1099656    190.54827  0.013265683  0.013278408         3765 
 1198000   0.76486571   -9.1263341    190.73238  0.013267417  0.013263435         3786 
 1199000    0.7735542   -9.1230695    190.54283  0.013243177  0.013248472         3760 
 1200000   0.76933439   -9.1209818    190.36419  0.013219735  0.013233533         3741 
 1201000   0.77646528   -9.1401638    190.15442  0.013194173  0.013218601         3768 
 1202000   0.76757235    -9.130904    190.62686   0.01321595  0.013203704         3744 
 1203000   0.78058627   -9.1119336      190.617  0.013204281  0.013188799         3764 
 1204000   0.77656987   -9.1380497    190.30239  0.013171539  0.013173917         3779 
 1205000   0.74759527   -9.1271103    190.21757  0.013154742  0.013159049         3750 
 1206000   0.78651947   -9.1224533    190.81795   0.01318532  0.013144195         3780 
 1207000   0.77709584   -9.1253507    190.48188  0.013151193  0.013129357         3789 
 1208000   0.77167262   -9.1266844    190.53852  0.013144214  0.013114536         3834 
 1209000   0.77090096   -9.1289398    190.47874  0.013129221  0.013099742         3798 
 1210000   0.74625395   -9.1078034    190.76176  0.013137862  0.013084966         3811 
 1211000   0.77507836   -9.1537165    190.40139  0.013102215  0.013070195         3790 
 1212000   0.77667852   -9.1333927    190.27853  0.013082957  0.013055427         3783 
 1213000   0.77382728   -9.1359803    190.47794  0.013085871  0.013040691         3772 
 1214000   0.77485267   -9.1351103    190.32392  0.013064519  0.013025958         3800 
 1215000   0.77081313   -9.1463883    190.55365  0.013069523  0.013011231         3784 
 1216000   0.75853428   -9.1546326    190.41142  0.013049028  0.012996549         3781 
 1217000   0.77547485   -9.1259188    190.52264  0.013045922  0.012981885         3785 
 1218000   0.76706683   -9.1507979     190.4989  0.013033586  0.012967214         3792 
 1219000   0.76874268   -9.1521099    190.06842  0.012993466  0.012952595         3785 
 1220000   0.77877837   -9.1326196    190.56457  0.013016705  0.012937971         3815 
 1221000   0.76514312   -9.1818795    189.92001  0.012962054  0.012923367         3810 
 1222000   0.78545778   -9.1488617    190.46245  0.012988438  0.012908764         3857 
 1223000    0.7610959   -9.1580041    190.18875  0.012959168  0.012894188         3802 
 1224000   0.77223078   -9.1249809    190.23232  0.012951547  0.012879636         3826 
 1225000   0.75873819     -9.13302    190.34329  0.012948523  0.012865082         3806 
 1226000   0.76317746   -9.1377608    190.26863  0.012932887  0.012850556         3811 
 1227000   0.74649292   -9.1513865    190.16326   0.01291519  0.012836041         3828 
 1228000   0.78024274   -9.1414173    189.98292  0.012892435   0.01282153         3827 
 1229000   0.75725271   -9.1697491    190.33939  0.012906116  0.012807023         3854 
 1230000   0.76881464   -9.1842222    190.08957  0.012878697  0.012792547         3791 
 1231000    0.7668569   -9.1836434    190.13319  0.012871188  0.012778108         3813 
 1232000   0.75966717   -9.1687588    190.19507  0.012864926  0.012763667         3825 
 1233000   0.77209076   -9.1748934    190.09719  0.012847877  0.012749259         3802 
 1234000   0.75553704   -9.1394267    189.99299  0.012830429  0.012734844         3815 
 1235000   0.76046255   -9.1668832    189.82058  0.012808407  0.012720408         3863 
 1236000   0.76299875   -9.1818506    190.09018   0.01281622  0.012705992         3861 
 1237000   0.75728724    -9.160676    190.02054  0.012801168  0.012691594         3848 
 1238000   0.75909348   -9.2050945    189.80188  0.012776109  0.012677225         3872 
 1239000   0.76195647   -9.1944068    189.95002  0.012775762  0.012662853         3852 
 1240000   0.77423784   -9.1942118    190.00654  0.012769257  0.012648512         3857 
 1241000   0.75132875   -9.2099085    189.69877    0.0127383  0.012634166         3856 
 1242000   0.74432568   -9.1645774    190.08393  0.012753887  0.012619864         3845 
 1243000   0.76481982     -9.19317    189.92269  0.012732816  0.012605548         3845 
 1244000   0.76789506   -9.1834928    190.07672  0.012732899  0.012591265         3847 
 1245000   0.74366078   -9.1779397    189.92682  0.012712638  0.012576995         3838 
 1246000   0.77463065   -9.1970814    189.65477  0.012684241  0.012562747         3841 
 1247000   0.74264437   -9.1908409    190.00107  0.012697211   0.01254852         3871 
 1248000   0.75232604   -9.1975119    189.97009  0.012684969  0.012534305         3869 
 1249000   0.75949277   -9.1635793    189.90821  0.012670684  0.012520112         3881 
 1250000    0.7514664   -9.2067063     189.5489  0.012636593  0.012505951         3876 
 1251000    0.7311528   -9.1767357    190.01428  0.012657493  0.012491783         3871 
 1252000   0.74035818   -9.2145565    189.81503  0.012634121  0.012477626         3883 
 1253000   0.73991086   -9.2089791    189.88929  0.012628976  0.012463495         3857 
 1254000   0.75437004   -9.1967236    190.01481  0.012627247  0.012449377         3892 
 1255000   0.74863615   -9.1878332     189.5806  0.012588353  0.012435269         3860 
 1256000   0.76611913   -9.2087524    189.50448   0.01257328  0.012421181         3886 
 1257000   0.75208407   -9.2026309    189.90342  0.012589725   0.01240712         3861 
 1258000   0.75504089   -9.2056429    189.92339  0.012581041  0.012393062         3881 
 1259000   0.73154673   -9.1686914    189.90858  0.012570068  0.012379029         3883 
 1260000   0.76367599   -9.2036751    189.51555  0.012534097  0.012365017         3880 
 1261000   0.74314355   -9.2228238    189.44979  0.012519812  0.012351028         3887 
 1262000   0.74799439   -9.2225026    189.63987  0.012522442  0.012337058         3878 
 1263000   0.74872459   -9.1926886    189.66642   0.01251428  0.012323086         3878 
 1264000   0.75679416   -9.1972345    189.96968  0.012524373  0.012309129         3844 
 1265000   0.76143013   -9.2113018     189.6512  0.012493491  0.012295202         3846 
 1266000   0.75888645    -9.225797    189.75578  0.012490507   0.01228127         3887 
 1267000   0.75762807    -9.207911    189.73949  0.012479577  0.012267351         3881 
 1268000   0.75640969   -9.2110813    189.43971  0.012450033  0.012253455         3903 
 1269000   0.74902179   -9.2170418    189.43753  0.012440079  0.012239571         3883 
 1270000   0.74853573   -9.2293856    189.47635  0.012432831  0.012225687         3881 
 1271000   0.73439541   -9.2139043    189.51466  0.012425561  0.012211846         3877 
 1272000   0.74004726   -9.2282606    189.68341  0.012426848  0.012198011         3917 
 1273000   0.74032453   -9.2298361    189.60005  0.012411629  0.012184189         3921 
 1274000   0.75766459   -9.2519075    189.65382  0.012405404  0.012170375         3915 
 1275000   0.73739848   -9.2392175    189.47856   0.01238422  0.012156592         3876 
 1276000    0.7493326   -9.2556716    189.33196   0.01236494  0.012142819         3898 
 1277000   0.74245851   -9.2288692    189.63967  0.012375337  0.012129063         3910 
 1278000     0.756054   -9.2619173    189.19883  0.012336909  0.012115322         3897 
 1279000   0.75204705   -9.2601769    189.53471  0.012349147  0.012101604         3923 
 1280000   0.74216117   -9.2201715    189.59319  0.012343307  0.012087893         3873 
 1281000   0.74437432    -9.261034    189.28313  0.012313501  0.012074191         3910 
 1282000   0.74454374   -9.1970948    189.59695  0.012324295  0.012060527         3890 
 1283000   0.74462203   -9.2224004    189.37211  0.012300085  0.012046883         3920 
 1284000   0.75413445   -9.2546707    189.36972  0.012290351  0.012033262         3913 
 1285000    0.7360691   -9.2306578    189.37666  0.012281236  0.012019666         3921 
 1286000    0.7334782   -9.2451265    189.57126  0.012284296  0.012006078         3898 
 1287000   0.73214161   -9.2647742    189.54949  0.012273342  0.011992502         3903 
 1288000   0.73701469   -9.2231936    189.51965  0.012261882  0.011978942         3898 
 1289000   0.74590936   -9.2186107    189.63402  0.012259764  0.011965407         3864 
 1290000   0.74447897   -9.2605849    189.81914  0.012262218  0.011951882         3889 
 1291000    0.7439215   -9.2357517    189.82246  0.012252934  0.011938395         3915 
 1292000   0.74817341   -9.2349732     189.4546  0.012219724  0.011924915         3902 
 1293000   0.75838132   -9.2627971    189.42786   0.01220855  0.011911443         3911 
 1294000   0.74287346   -9.2721641     189.0492   0.01217473  0.011897992         3904 
 1295000   0.74265587   -9.2462685    189.39135  0.012187345  0.011884546         3917 
 1296000   0.73599774   -9.2506153    189.23745  0.012168046  0.011871109         3883 
 1297000   0.72620444   -9.2816736     189.2273  0.012158012  0.011857687         3905 
 1298000   0.75815619   -9.2701506    189.31135  0.012154041  0.011844276         3905 
 1299000   0.72672993   -9.2608761    189.44676  0.012153372  0.011830917         3896 
 1300000   0.73036647   -9.2452641    189.41697  0.012142113  0.011817577         3916 
 1301000    0.7457556   -9.2416952    189.54306  0.012140857  0.011804246         3891 
 1302000   0.72702514   -9.2757425    189.04019  0.012099347  0.011790928         3914 
 1303000   0.73402709   -9.2324716    189.81959  0.012139907   0.01177762         3890 
 1304000   0.73249418    -9.280824    189.29222  0.012096895  0.011764327         3900 
 1305000   0.73504294   -9.2665596    189.47253   0.01209914  0.011751054         3913 
 1306000   0.73453572   -9.2687728    189.28337  0.012077806  0.011737795         3923 
 1307000   0.71755899   -9.2662797    189.35521  0.012073145  0.011724577         3883 
 1308000   0.72222018   -9.2725983    189.39026  0.012066148  0.011711359         3900 
 1309000   0.74115802   -9.2739763    189.06833  0.012036435  0.011698159         3905 
 1310000    0.7231487   -9.2840178    188.78269  0.012009077  0.011684954         3894 
 1311000   0.72677737   -9.2604203    189.25625  0.012030019  0.011671781         3907 
 1312000   0.73426556    -9.269225    189.18672  0.012016433  0.011658624         3902 
 1313000   0.73768293   -9.2757427    188.78646  0.011981878  0.011645478         3926 
 1314000   0.72869303   -9.2814085    189.30739  0.012005796  0.011632367         3923 
 1315000   0.72171452   -9.2887284    188.96235    0.0119748  0.011619264         3898 
 1316000   0.73115354   -9.3068907    189.09989  0.011974411  0.011606167         3934 
 1317000   0.72755762   -9.2622094    188.99137  0.011958452  0.011593093         3882 
 1318000   0.74173589    -9.262109    189.69977  0.011994169  0.011580044         3915 
 1319000    0.7199179   -9.2717366    189.16317  0.011951173  0.011567006         3913 
 1320000   0.72209919   -9.2621802    188.91423  0.011926404  0.011553991         3909 
 1321000   0.73333039   -9.3000917    189.25937  0.011939148  0.011540986         3908 
 1322000   0.72625621   -9.2991426    189.24126  0.011928975  0.011527997         3905 
 1323000   0.72999798     -9.28605    189.33501  0.011925863  0.011515023         3935 
 1324000   0.73392077   -9.2920655     189.0477  0.011898773  0.011502063         3921 
 1325000   0.74453796   -9.2949833    188.83651   0.01187651   0.01148911         3899 
 1326000   0.72728146   -9.2791617    189.46941  0.011907328  0.011476176         3909 
 1327000   0.71985078   -9.3108776    189.37124   0.01189219  0.011463246         3906 
 1328000   0.73224443   -9.2685161    189.13995  0.011868722  0.011450342         3927 
 1329000   0.71916763   -9.3056568      189.488  0.011881615  0.011437457         3901 
 1330000   0.72249166    -9.301822    188.96373  0.011839832  0.011424577         3903 
 1331000   0.71359446   -9.2897598    189.07459  0.011837878  0.011411701         3928 
 1332000   0.72221364   -9.2863106    189.12835  0.011832354  0.011398851         3918 
 1333000   0.73881539   -9.3181432    188.89086  0.011808631     0.011386         3934 
 1334000   0.73174972   -9.2939791    188.99785  0.011806462  0.011373196         3938 
 1335000   0.72829049   -9.3152107    188.78331  0.011784227  0.011360384         3948 
 1336000   0.71961979   -9.3040182    188.60279  0.011764146   0.01134757         3922 
 1337000   0.72837867   -9.2963091    188.93753  0.011776211  0.011334791         3924 
 1338000   0.72935821    -9.307507    188.89761  0.011764924  0.011322026         3946 
 1339000   0.70940167   -9.3160039    188.88081  0.011755092  0.011309274         3948 
 1340000   0.71053279   -9.3510473    188.92028  0.011748773  0.011296559         3933 
 1341000    0.7048629   -9.3128258    188.75673  0.011729849  0.011283831         3946 
 1342000    0.7238193   -9.3420021    188.85824  0.011727412  0.011271127         3926 
 1343000   0.71371453   -9.3188326    189.22238  0.011741275  0.011258444         3923 
 1344000   0.71529875   -9.3150526    188.93755  0.011714878  0.011245764         3937 
 1345000   0.72875948   -9.3309121    188.97362  0.011708403  0.011233103         3926 
 1346000    0.7298418   -9.3159988    189.02759  0.011703045  0.011220457         3928 
 1347000   0.71224822   -9.3346628    188.88007  0.011685231  0.011207834         3938 
 1348000   0.70644008   -9.3284642    188.64673  0.011662137  0.011195208         3945 
 1349000   0.70458054   -9.3424952    189.11211  0.011682241  0.011182613         3942 
 1350000   0.71767213   -9.3579339    188.68686  0.011647337   0.01117003         3942 
 1351000   0.70303436   -9.3422307    188.68505  0.011638604  0.011157455         3936 
 1352000   0.71715599   -9.3495809    188.50973  0.011619189  0.011144898         3939 
 1353000   0.72061535   -9.3227828    188.88339  0.011633616  0.011132362         3931 
 1354000   0.73260617   -9.3410313    188.54484  0.011604188  0.011119842         3931 
 1355000   0.70629425    -9.334005    188.76839  0.011609372  0.011107348         3954 
 1356000   0.71952029   -9.3013696    188.64131  0.011593001  0.011094875         3921 
 1357000   0.71602298   -9.3053903    188.72231  0.011589432  0.011082424         3919 
 1358000   0.72463912   -9.3393399    188.65053  0.011576493  0.011069989         3951 
 1359000   0.70437858   -9.3454006    188.46686  0.011556712  0.011057562         3931 
 1360000   0.72514898   -9.3471586    188.73874  0.011564874  0.011045156         3951 
 1361000   0.71039297   -9.3446883    188.66153  0.011551649  0.011032755         3931 
 1362000   0.70229994    -9.364013     188.5657  0.011537304  0.011020381         3945 
 1363000   0.71580683   -9.3363806    188.52138   0.01152613  0.011008023         3955 
 1364000   0.71663339   -9.3416757    188.31845  0.011505282  0.010995671         3948 
 1365000   0.69403589    -9.358515    188.28247  0.011494656  0.010983344         3942 
 1366000   0.70739757   -9.3400391    188.55513  0.011502875  0.010971028         3950 
 1367000   0.70279872   -9.3455272    188.71751  0.011504359  0.010958743         3947 
 1368000   0.71381756   -9.3413715    188.60889  0.011489333  0.010946478         3955 
 1369000   0.71903468   -9.3397425    188.42945  0.011470018   0.01093423         3957 
 1370000   0.72182198   -9.3559525    188.49344  0.011465538  0.010921987         3937 
 1371000   0.70761174   -9.3435497    188.51442   0.01145845  0.010909765         3953 
 1372000   0.69663347   -9.3492728    188.71321  0.011462173  0.010897557         3950 
 1373000   0.71279188   -9.3514852    188.72232  0.011454377  0.010885372         3947 
 1374000   0.71316669   -9.3698269    188.49132   0.01143203  0.010873199         3947 
 1375000   0.70307475   -9.3559229    188.61317  0.011431101  0.010861051         3942 
 1376000   0.71156963   -9.3488449    188.41899  0.011411034  0.010848902         3936 
 1377000     0.702054   -9.3467798    188.54253  0.011410223  0.010836784         3948 
 1378000   0.70669193   -9.3642761    188.50783  0.011399845  0.010824684         3955 
 1379000   0.68535269   -9.3355192     188.5875  0.011396393  0.010812604         3934 
 1380000   0.70275327   -9.3438873    188.70154   0.01139502  0.010800523         3935 
 1381000    0.6938514   -9.3400237    188.54743   0.01137747   0.01078847         3956 
 1382000   0.70964963   -9.3244962    188.60038   0.01137243  0.010776435         3929 
 1383000   0.70304707    -9.358964    188.55148   0.01136126  0.010764417         3945 
 1384000   0.68964168    -9.361486    188.29381  0.011337537  0.010752409         3953 
 1385000   0.68962475   -9.3707705    188.58193  0.011346686  0.010740417         3938 
 1386000    0.6834014   -9.3464956    188.78883   0.01135094  0.010728444         3936 
 1387000   0.71259676   -9.3413247    188.59229  0.011330948   0.01071649         3960 
 1388000   0.69953809   -9.3535167     188.6715   0.01132754  0.010704555         3934 
 1389000   0.72241401   -9.3373198    188.44299  0.011305675  0.010692637         3936 
 1390000   0.70510908   -9.3627533    188.25879  0.011286498  0.010680735         3957 
 1391000    0.7189284   -9.3820962    188.73227   0.01130675  0.010668843         3944 
 1392000   0.68311346   -9.3601088    188.49092  0.011284179  0.010656964         3923 
 1393000   0.69719739   -9.3537002    188.68624  0.011287763  0.010645096         3928 
 1394000   0.67525846   -9.3502228    188.59032  0.011273931  0.010633249         3940 
 1395000   0.71493119   -9.3744593    188.19787  0.011242405  0.010621427         3962 
 1396000   0.68930173   -9.3679417    188.06522  0.011226434  0.010609617         3933 
 1397000   0.70850996   -9.3686517     188.3377  0.011234651  0.010597821         3953 
 1398000   0.69301774    -9.384782    188.01266   0.01120724  0.010586044         3937 
 1399000   0.68788387   -9.3597183    188.04329  0.011201054  0.010574287         3928 
 1400000   0.68326463   -9.3651316    188.41953  0.011215448  0.010562544         3943 
 1401000   0.69719773    -9.364885    188.15261  0.011191566  0.010550809         3946 
 1402000   0.69176241   -9.3838833    188.05984   0.01117807  0.010539092         3949 
 1403000   0.69098774   -9.3776473    188.40249  0.011190454  0.010527401         3928 
 1404000   0.68942264   -9.3664479    188.37114  0.011180623  0.010515727         3942 
 1405000   0.69641939   -9.3707569    188.53942  0.011182646  0.010504059         3948 
 1406000   0.69328256   -9.3615539    188.16732  0.011152639   0.01049241         3931 
 1407000   0.68672496    -9.373247    188.37022  0.011156729  0.010480792         3947 
 1408000   0.70537158   -9.3779483    188.32318  0.011146021  0.010469184         3949 
 1409000   0.69736632   -9.3543211    188.62666   0.01115606  0.010457585         3931 
 1410000   0.69195259   -9.3515568    188.66559  0.011150449  0.010446005         3910 
 1411000    0.6926664      -9.3643     188.4767   0.01113139  0.010434438         3956 
 1412000   0.70517777   -9.3784948    188.68473  0.011135784  0.010422893         3942 
 1413000   0.68961074   -9.3447386    188.45202  0.011114179  0.010411367         3936 
 1414000   0.68610627    -9.385862    188.13827  0.011087828  0.010399852         3944 
 1415000   0.66898172   -9.3942551    188.29215  0.011089055  0.010388348         3929 
 1416000   0.67912212   -9.3718752    188.25283   0.01107891  0.010376855         3956 
 1417000   0.68253393   -9.3747821    188.66567   0.01109537  0.010365393         3928 
 1418000   0.68327071   -9.3967212    187.74146  0.011033231  0.010353942         3952 
 1419000   0.70247632    -9.382996    188.16983  0.011050613  0.010342504         3949 
 1420000   0.66885152   -9.3920341    188.03424  0.011034873  0.010331081         3945 
 1421000   0.70772041   -9.3768253    188.15356  0.011034105  0.010319667         3947 
 1422000   0.69623161   -9.3846315    188.20102  0.011029127  0.010308272         3939 
 1423000   0.68466352   -9.3981817    187.83344   0.01099985  0.010296893         3957 
 1424000   0.67600827   -9.3740974    188.39517  0.011024998  0.010285538         3956 
 1425000   0.69148368   -9.4007486     188.2044  0.011006105  0.010274202         3952 
 1426000    0.6847381   -9.3791749    188.35985  0.011007472  0.010262881         3940 
 1427000   0.67307613   -9.3714085    188.37729  0.011000776  0.010251576         3959 
 1428000   0.69568033   -9.3858497     188.4696   0.01099846  0.010240278         3932 
 1429000   0.66915034   -9.3536859    188.39167  0.010986218   0.01022901         3944 
 1430000   0.67721127    -9.400187    188.03835  0.010957946  0.010217748         3940 
 1431000   0.68292724   -9.3724392    188.29405  0.010965179  0.010206501         3960 
 1432000    0.6995583   -9.3825045    188.06931  0.010944443  0.010195273         3950 
 1433000   0.67209342   -9.3981438    188.42064  0.010957237   0.01018406         3956 
 1434000   0.67161297   -9.3866637    188.34408  0.010945147  0.010172863         3954 
 1435000   0.67765876   -9.3840805    188.25588  0.010932397  0.010161682         3948 
 1436000   0.66988706    -9.385949    188.29121  0.010926835  0.010150522         3950 
 1437000   0.67985462     -9.39469    188.16259  0.010911772  0.010139371         3938 
 1438000   0.69232928   -9.3994546    188.13871    0.0109028  0.010128227         3936 
 1439000   0.69142588   -9.3741507    188.32123  0.010905793  0.010117104         3947 
 1440000   0.68010955   -9.3950948    188.21575  0.010892115  0.010106006         3957 
 1441000   0.66300664   -9.3843996    188.02365  0.010873448  0.010094918         3943 
 1442000   0.67718647   -9.3876997    188.43341  0.010889587  0.010083832         3951 
 1443000   0.67012301    -9.373761    188.20127  0.010868634  0.010072759         3952 
 1444000   0.67332349   -9.4015596    188.22152  0.010862276   0.01006171         3932 
 1445000   0.67242879   -9.3996125    187.90427  0.010836463  0.010050677         3945 
 1446000    0.6870721   -9.3761659    188.50411  0.010863538  0.010039665         3935 
 1447000   0.66325464   -9.3952612    188.20396  0.010838744  0.010028669         3947 
 1448000   0.66196571   -9.4225275    187.75951  0.010805681   0.01001769         3947 
 1449000   0.67733157   -9.4119378    188.25894  0.010826946  0.010006725         3946 
 1450000   0.67352917   -9.4029876    188.22235  0.010817376 0.0099957653         3947 
 1451000   0.66676947   -9.4012339    188.13773  0.010805061 0.0099848322         3962 
 1452000   0.67154155   -9.3984331     187.9667  0.010787804 0.0099739009         3961 
 1453000   0.66452988   -9.4074089    188.00525  0.010782591 0.0099629932         3967 
 1454000   0.66000518   -9.3892625    188.19327  0.010785951 0.0099520947         3952 
 1455000   0.65991084   -9.4032542    188.37022  0.010788672 0.0099412003         3963 
 1456000   0.66825433    -9.413284    187.87828  0.010753107  0.009930332         3949 
 1457000   0.67242169   -9.3845567    188.23538   0.01076615 0.0099194802         3960 
 1458000   0.66064306   -9.3968861    187.91412  0.010740405 0.0099086423         3949 
 1459000   0.66834622   -9.4165044    187.87698  0.010730922 0.0098978177         3968 
 1460000   0.67649534   -9.3972565    188.11496  0.010737155 0.0098870156         3940 
 1461000   0.68560513   -9.4256144    187.93451  0.010719513 0.0098762104         3950 
 1462000   0.67815241   -9.4342742    187.71601  0.010699727 0.0098654257         3962 
 1463000   0.66950412    -9.406099    187.85331  0.010700234 0.0098546477         3960 
 1464000   0.68668672   -9.4427273    187.63376  0.010680428 0.0098438881         3960 
 1465000   0.67948532    -9.424806    187.66948   0.01067517 0.0098331378         3948 
 1466000   0.66751907   -9.4259477    187.88857  0.010680342 0.0098224108         3959 
 1467000   0.65653227    -9.419861    187.74731  0.010665037 0.0098116974         3955 
 1468000   0.68223079   -9.4405809    188.03719  0.010674228 0.0098009862         3967 
 1469000   0.66431371   -9.4073451    187.93511   0.01066117 0.0097903002         3959 
 1470000   0.65910806   -9.4423163    187.59048  0.010634381  0.009779618         3946 
 1471000   0.67023865     -9.44171    187.66339  0.010631282 0.0097689608         3938 
 1472000   0.65504106   -9.4457657    187.42641  0.010610644 0.0097582986         3957 
 1473000   0.66245708    -9.428238    187.81553  0.010625454 0.0097476484         3958 
 1474000   0.65129697   -9.4585962    187.84403  0.010619857 0.0097370199         3968 
 1475000   0.66425953   -9.4144259    187.90979  0.010616372 0.0097264102         3957 
 1476000    0.6754485    -9.450528    187.89192  0.010608171 0.0097158034         3958 
 1477000   0.64866509   -9.4488342     187.9423  0.010603831  0.009705212         3951 
 1478000   0.65185313   -9.4361431    187.76129  0.010586451 0.0096946476         3957 
 1479000   0.65927331   -9.4239689    187.91262   0.01058782  0.009684092         3947 
 1480000   0.63955999   -9.4478141    188.09073  0.010590694 0.0096735522         3973 
 1481000   0.66977417   -9.4111217    187.85504  0.010570281  0.009663028         3943 
 1482000   0.64140373    -9.468854    187.66513   0.01055247 0.0096525192         3962 
 1483000    0.6450082   -9.4401457    187.69763  0.010547181 0.0096420192         3964 
 1484000   0.66364282   -9.4381265    187.53005  0.010530663 0.0096315387         3970 
 1485000   0.66546792   -9.4388525    187.72465  0.010534492 0.0096210754         3942 
 1486000   0.65833497   -9.4445899     187.8263  0.010533103 0.0096106208         3965 
 1487000   0.65497567   -9.4299425    187.78632  0.010523779 0.0096001804         3961 
 1488000   0.66329635   -9.4516951    187.80283  0.010517631 0.0095897583         3949 
 1489000   0.66687691   -9.4251406     188.0475  0.010524261 0.0095793579         3960 
 1490000   0.64956861   -9.4211889    188.09807  0.010520026 0.0095689649         3959 
 1491000   0.65868859   -9.4409366     187.5199  0.010480656 0.0095585691         3964 
 1492000   0.65639362   -9.4709232    187.65723  0.010481302  0.009548209         3955 
 1493000   0.66549272   -9.4468683    188.04841  0.010496116 0.0095378464         3951 
 1494000   0.66381874   -9.4374609    187.66859  0.010467905 0.0095275005         3955 
 1495000   0.65493406   -9.4473891    187.71258  0.010463354 0.0095171692         3947 
 1496000   0.66816601    -9.470194    187.81413  0.010462017 0.0095068565         3949 
 1497000   0.64889423    -9.474438    187.66967  0.010446987 0.0094965521         3957 
 1498000   0.66019444   -9.4654686    187.45238  0.010427925 0.0094862583         3951 
 1499000   0.64661569   -9.4486128    187.34499  0.010414998 0.0094759819         3972 
 1500000   0.65167564    -9.459353    187.85767  0.010436537 0.0094657267         3967 
 1501000   0.64938398   -9.4746829    187.48184  0.010408718 0.0094554812         3940 
 1502000   0.65507032   -9.4797576    187.55476  0.010405834 0.0094452515         3958 
 1503000   0.65262001   -9.4505801    187.54197  0.010398202  0.009435044         3965 
 1504000   0.64420791   -9.4329761    187.53186  0.010390728 0.0094248443         3969 
 1505000   0.63741025   -9.4757313    187.45511  0.010379574 0.0094146539         3965 
 1506000    0.6627808   -9.4487956    187.75754  0.010389417 0.0094044849         3964 
 1507000   0.65491256   -9.4605724    187.56511  0.010371882 0.0093943238         3972 
 1508000   0.64529218   -9.4481721    187.47508  0.010360029 0.0093841792         3960 
 1509000   0.66235252   -9.4606343    187.43424  0.010350908 0.0093740487         3963 
 1510000   0.64256072   -9.4603391    187.57179  0.010351644 0.0093639325         3967 
 1511000   0.63205956   -9.4607299    187.53253  0.010342628 0.0093538304         3959 
 1512000   0.65310044   -9.4525576    187.41974  0.010329571 0.0093437505         3960 
 1513000   0.64535993   -9.4684509    187.58416    0.0103318 0.0093336781         3954 
 1514000   0.63614216   -9.4500593    187.64645  0.010328405 0.0093236205         3973 
 1515000   0.63469703   -9.4688567    187.85895  0.010333275 0.0093135783         3971 
 1516000   0.64464691   -9.4664246    187.44674  0.010303801 0.0093035534         3954 
 1517000   0.66045708   -9.4483833    187.34866  0.010291621 0.0092935407         3953 
 1518000    0.6568719   -9.4572154    187.49951  0.010293122 0.0092835358         3973 
 1519000   0.64170888   -9.4593503    187.51093  0.010286972 0.0092735435         3952 
 1520000   0.64004088   -9.4848483    187.45879  0.010277346 0.0092635695         3968 
 1521000   0.64473041   -9.4750803    187.67925  0.010282668 0.0092536148         3959 
 1522000   0.64783294    -9.462737    187.52519  0.010267477 0.0092436695         3967 
 1523000   0.64489085   -9.4590772     187.7256  0.010271701 0.0092337343         3945 
 1524000   0.64810783   -9.4731796    187.55748  0.010255767 0.0092238143         3959 
 1525000   0.64547684   -9.4705718    187.48003   0.01024481 0.0092139144         3966 
 1526000   0.64218366   -9.4706008    187.55995  0.010242461 0.0092040234         3952 
 1527000   0.65591543   -9.4466197    187.57244  0.010236435 0.0091941514         3956 
 1528000   0.63936413   -9.4752618     187.3997  0.010220315  0.009184291         3965 
 1529000   0.64132982   -9.4696723    187.45394  0.010216587 0.0091744452         3947 
 1530000   0.64252122   -9.4971838    187.54667   0.01021496 0.0091646093         3963 
 1531000   0.63971875   -9.4682253    187.43277  0.010202088 0.0091547897         3952 
 1532000   0.64458406   -9.4706544     187.4272  0.010195126 0.0091449871         3963 
 1533000   0.64523776   -9.4834707    187.36959  0.010185344 0.0091351953         3947 
 1534000   0.64266578   -9.4719958    187.52949  0.010187391 0.0091254212         3957 
 1535000   0.64454914   -9.4754073    187.48543  0.010178362 0.0091156554         3954 
 1536000   0.64267191    -9.485829    187.28542  0.010160884 0.0091059028         3975 
 1537000   0.64723464   -9.4858311    187.32646  0.010156499  0.009096166         3962 
 1538000   0.64366066   -9.4977329    187.16715  0.010141263 0.0090864442         3954 
 1539000   0.62786907   -9.4665512    187.13182   0.01013276 0.0090767297         3942 
 1540000   0.63770887   -9.4801428    187.14399  0.010126839 0.0090670325         3954 
 1541000   0.62768221   -9.4804565    187.33857   0.01013079 0.0090573402         3956 
 1542000     0.631556   -9.4920573    187.39517  0.010127279 0.0090476633         3972 
 1543000    0.6502732   -9.4757831    187.50175  0.010126471 0.0090380039         3958 
 1544000   0.63505361   -9.4601118    187.49078  0.010119321 0.0090283479         3962 
 1545000   0.63716626   -9.4924672    187.50711  0.010113652 0.0090187151         3977 
 1546000   0.64008283    -9.479569    187.61147  0.010112736  0.009009099         3964 
 1547000   0.62957567   -9.4923954    187.23979  0.010086177 0.0089994911         3976 
 1548000   0.62546232   -9.4822943     187.3051  0.010083177 0.0089898969         3964 
 1549000   0.65644431   -9.4872999     187.2353  0.010072913 0.0089803187         3972 
 1550000   0.63189844   -9.4833442    187.08143  0.010058142   0.00897076         3969 
 1551000   0.64613689    -9.483692    187.03318  0.010049064 0.0089612003         3961 
 1552000   0.61644646   -9.5109951    187.25747  0.010054632 0.0089516541         3969 
 1553000   0.63642736   -9.4654256    187.55763  0.010064264 0.0089421242         3957 
 1554000   0.64129837   -9.4863949    187.19233  0.010038199 0.0089326034         3970 
 1555000    0.6341295    -9.474435    187.40946  0.010043379 0.0089231037         3943 
 1556000   0.63092103   -9.4953573    187.24267  0.010027992 0.0089136201         3971 
 1557000   0.62565311   -9.4843683     187.4178  0.010030925 0.0089041448         3961 
 1558000   0.63825042   -9.4934571      187.132    0.0100092 0.0088946782         3963 
 1559000   0.62365989   -9.5038284    187.40435  0.010017338 0.0088852282         3967 
 1560000   0.63007807    -9.504229    187.50507  0.010016297 0.0088757966         3959 
 1561000   0.64030528   -9.4769928    187.51389  0.010010351 0.0088663761         3968 
 1562000   0.63691232   -9.4928933    187.13279 0.0099836102 0.0088569718         3977 
 1563000   0.63173534   -9.4954273    187.24196  0.009983043 0.0088475738         3965 
 1564000   0.63146175   -9.4715407    186.90533  0.009958724 0.0088381876         3960 
 1565000   0.63426552   -9.5076306      187.235 0.0099699147 0.0088288212         3955 
 1566000   0.62806073   -9.4906196    186.95027 0.0099483968 0.0088194717         3973 
 1567000   0.63746915   -9.4755552     187.2169 0.0099562276 0.0088101317         3969 
 1568000   0.62110945   -9.5182293    186.87876 0.0099319071 0.0088007976         3968 
 1569000   0.61829052   -9.4887071    187.19256 0.0099422434 0.0087914682         3962 
 1570000     0.629207    -9.503005    187.28689 0.0099409175 0.0087821688         3959 
 1571000   0.64397127   -9.4959273    187.09903  0.009924625 0.0087728743         3970 
 1572000   0.62316077   -9.4994046    187.11414 0.0099191124 0.0087635942         3966 
 1573000   0.62706268    -9.506937    187.15546 0.0099149958 0.0087543346         3970 
 1574000   0.64505461   -9.5027464    186.85379 0.0098927249 0.0087450831         3964 
 1575000   0.62947105   -9.4971735    187.14464 0.0099018327 0.0087358457         3958 
 1576000   0.62337663   -9.5046512    186.97038 0.0098863355 0.0087266214         3973 
 1577000   0.63429745    -9.498162    187.19475 0.0098919229 0.0087174092         3968 
 1578000   0.62997951   -9.5090618    187.09909 0.0098806027 0.0087082095         3963 
 1579000   0.63222648   -9.4910267    187.20855  0.009880122 0.0086990162         3963 
 1580000   0.61614136   -9.4893362    187.06535 0.0098663161 0.0086898367         3969 
 1581000   0.62363701   -9.5159511    187.02112 0.0098577441 0.0086806783         3960 
 1582000   0.62386472   -9.5004637    187.28519 0.0098654231 0.0086715287         3965 
 1583000   0.62604742    -9.510459    187.08395 0.0098485972 0.0086623892         3974 
 1584000   0.62255941   -9.5075098    187.19265 0.0098480979 0.0086532662         3952 
 1585000   0.62740049   -9.4954645    186.98854 0.0098311534 0.0086441583         3961 
 1586000   0.62987404   -9.5034519    187.27599 0.0098400585 0.0086350559         3962 
 1587000   0.60443118    -9.499374     187.0384 0.0098213822 0.0086259702         3970 
 1588000   0.62668134   -9.5065843    187.09275 0.0098180494  0.008616901         3964 
 1589000   0.62177518   -9.4913002    187.37872 0.0098268679  0.008607839         3968 
 1590000   0.61511888   -9.5029547    187.02844 0.0098023292 0.0085987896         3970 
 1591000    0.6245301   -9.5140638    187.45944 0.0098187427 0.0085897569         3970 
 1592000   0.61777575   -9.4951482    186.89583  0.009783073 0.0085807287         3967 
 1593000   0.61037281   -9.5176043    187.17904 0.0097917473  0.008571717         3963 
 1594000   0.59656542   -9.5098685    187.12746 0.0097829077 0.0085627179         3962 
 1595000   0.60931621   -9.5127271    187.19514 0.0097803102 0.0085537339         3965 
 1596000   0.61366493   -9.5051719    187.02034 0.0097650552 0.0085447558         3972 
 1597000    0.6227754   -9.5218821    187.06731 0.0097613918  0.008535796         3961 
 1598000   0.62558041   -9.5291475    187.14695 0.0097594363 0.0085268458         3969 
 1599000   0.61239724   -9.5194834    186.91755 0.0097413773 0.0085179091         3962 
 1600000   0.60479661   -9.5046449    187.49216 0.0097652167 0.0085089841         3969 
 1601000   0.62353707   -9.5255316    187.12779 0.0097401512 0.0085000789         3957 
 1602000   0.60858966   -9.4976653    187.19457 0.0097375452  0.008491171         3959 
 1603000   0.60481508   -9.5221376    187.24984 0.0097343442 0.0084822853         3973 
 1604000   0.60976503   -9.5321343    186.90928 0.0097105819 0.0084734154         3960 
 1605000   0.61064977   -9.5268256    187.10138 0.0097145055 0.0084645526         3969 
 1606000   0.61683914   -9.5016886    187.03606 0.0097050676 0.0084557068         3968 
 1607000   0.60984535   -9.4993184    187.27709 0.0097115271  0.008446873         3962 
 1608000    0.6069206     -9.51925    187.21508 0.0097022741 0.0084380418         3962 
 1609000   0.62059159   -9.5242994    187.24107 0.0096975901 0.0084292348         3961 
 1610000   0.62226429   -9.5055111    187.10627 0.0096845894 0.0084204339         3979 
 1611000   0.60288053   -9.5185844    186.97354 0.0096717123 0.0084116498         3954 
 1612000   0.60586974   -9.5334905    186.91294 0.0096625795 0.0084028757         3973 
 1613000   0.61739325   -9.4994519    187.00687 0.0096614418 0.0083941088         3966 
 1614000   0.61577542    -9.530271    187.02608 0.0096564475 0.0083853576         3973 
 1615000   0.61234215   -9.5467199     186.7622 0.0096368522 0.0083766184         3975 
 1616000   0.60908965   -9.5167086      187.065 0.0096465038 0.0083678894         3970 
 1617000   0.60152108   -9.5091066    186.86499 0.0096302306 0.0083591748         3968 
 1618000   0.61346358    -9.521218    187.11113 0.0096369557   0.00835047         3958 
 1619000   0.61363272   -9.5209774    186.86356 0.0096182602 0.0083417791         3978 
 1620000    0.6056576   -9.5475265    186.93163 0.0096158247 0.0083330925         3977 
 1621000   0.59256178    -9.543611    186.95101 0.0096108888 0.0083244218         3973 
 1622000   0.61229255   -9.5190457    187.22967 0.0096192801 0.0083157667         3960 
 1623000   0.61487227   -9.5391273    186.67556 0.0095849026  0.008307124         3966 
 1624000   0.59293596   -9.5262401    186.78883 0.0095848128 0.0082984977         3973 
 1625000   0.60867573   -9.5338574    186.85464 0.0095822894  0.008289878         3966 
 1626000   0.61109556   -9.5010523    187.23049 0.0095956586 0.0082812699         3972 
 1627000   0.58586938    -9.547148    186.81127 0.0095682886  0.008272672         3969 
 1628000   0.60669001   -9.5419135    186.95948 0.0095699979 0.0082640855         3971 
 1629000   0.60329526   -9.5242267    187.13788 0.0095732492 0.0082555148         3963 
 1630000   0.59905816   -9.5325008    187.00657 0.0095606631 0.0082469586         3975 
 1631000   0.60756606   -9.5382727     186.7886 0.0095436643 0.0082384041         3957 
 1632000   0.60786666   -9.5517938     186.8165 0.0095392413  0.008229867         3968 
 1633000   0.59513709   -9.5394225    187.20601 0.0095532766 0.0082213383         3951 
 1634000    0.6133142   -9.5332461    186.94976 0.0095343616 0.0082128237         3966 
 1635000   0.60452706   -9.5289737    186.86531  0.009524226 0.0082043235         3967 
 1636000   0.60124013   -9.5260338    187.13861 0.0095323254 0.0081958311         3979 
 1637000   0.61000125   -9.5279395    186.96043 0.0095174319 0.0081873555         3967 
 1638000   0.60219686   -9.5539162    186.98694   0.00951297 0.0081788891         3953 
 1639000   0.60060411   -9.5407343    186.94114 0.0095048375 0.0081704295         3961 
 1640000   0.59303683   -9.5446593    187.02603 0.0095033551 0.0081619802         3980 
 1641000   0.59722939   -9.5556518    187.13528 0.0095031119 0.0081535509         3970 
 1642000   0.59049634    -9.530152    187.01207 0.0094910713 0.0081451273         3968 
 1643000   0.61259955   -9.5463811    187.07802 0.0094886399 0.0081367161         3962 
 1644000   0.59912973   -9.5388306    186.42237 0.0094496335 0.0081283173         3972 
 1645000       0.6124   -9.5512459    186.83069 0.0094645738 0.0081199245         3980 
 1646000   0.60984992   -9.5387353    187.00733 0.0094677667 0.0081115525         3966 
 1647000   0.60012511    -9.537516    186.92459 0.0094578317 0.0081031902         3978 
 1648000   0.58379855   -9.5409032    186.64224 0.0094378156 0.0080948389         3973 
 1649000   0.59176486   -9.5293891    186.76581 0.0094383368 0.0080864943         3979 
 1650000   0.59043005   -9.5238731    186.95851 0.0094423489 0.0080781645         3966 
 1651000   0.58690225   -9.5437612     186.7142 0.0094242982 0.0080698458         3974 
 1652000   0.57627018   -9.5716112    186.84673  0.009425279 0.0080615359         3966 
 1653000   0.59613395   -9.5503396    186.74964 0.0094146824  0.008053242         3975 
 1654000    0.5952295   -9.5499207    186.60227 0.0094015655 0.0080449593         3965 
 1655000   0.58682492   -9.5624755    186.69597 0.0094006026 0.0080366829         3964 
 1656000   0.59123158   -9.5603177    186.82713 0.0094015262 0.0080284199         3985 
 1657000   0.58761841    -9.547594    186.82075 0.0093955316 0.0080201698         3965 
 1658000   0.59300033   -9.5317917    186.79353 0.0093884965 0.0080119348         3972 
 1659000   0.59478584   -9.5531077    186.60304 0.0093732689   0.00800371         3961 
 1660000   0.58675973   -9.5597193    186.73737 0.0093743657 0.0079954905         3984 
 1661000   0.58896626   -9.5502569    186.89941  0.009376852 0.0079872807         3964 
 1662000   0.59713689   -9.5592448    186.76432 0.0093644363 0.0079790884         3973 
 1663000   0.59081917   -9.5469211      186.564 0.0093487672 0.0079709034         3963 
 1664000   0.59816397   -9.5377361    186.55228 0.0093425618 0.0079627332         3961 
 1665000   0.59949462   -9.5473234    186.72752 0.0093457215 0.0079545717         3982 
 1666000   0.57634173    -9.556886    186.84519  0.009345998 0.0079464259         3974 
 1667000    0.5931352   -9.5597934     186.6357  0.009329919 0.0079382908         3970 
 1668000    0.5830348   -9.5508465    186.36297 0.0093107001  0.007930166         3977 
 1669000   0.58450392   -9.5458687    186.60721 0.0093173161 0.0079220478         3964 
 1670000   0.59806253   -9.5549034    186.56125 0.0093094437 0.0079139465         3961 
 1671000    0.5910439   -9.5752428    186.31673  0.009291678 0.0079058479         3970 
 1672000   0.58630478   -9.5589584    186.68985 0.0093047176 0.0078977691         3966 
 1673000    0.5882995   -9.5769246     186.6989 0.0092996065  0.007889698         3978 
 1674000   0.59225428   -9.5617514    186.90427 0.0093042744 0.0078816335         3977 
 1675000   0.59706011   -9.5540511    186.57881 0.0092825278 0.0078735829         3969 
 1676000   0.59479352   -9.5608024    186.53542  0.009274832 0.0078655495         3970 
 1677000   0.57521271   -9.5703501    186.32752 0.0092589702  0.007857529         3973 
 1678000   0.56756428   -9.5559129    186.84008 0.0092789073  0.007849512         3973 
 1679000   0.56849439    -9.559775    186.83519 0.0092731383 0.0078415018         3967 
 1680000   0.58623785   -9.5489841    186.71128  0.009261472 0.0078335083         3972 
 1681000   0.59167248   -9.5686686    186.39419 0.0092402434 0.0078255316         3973 
 1682000   0.58627703   -9.5731271    186.35718 0.0092329161 0.0078175544         3975 
 1683000   0.58219286   -9.5567959    186.42548 0.0092308123  0.007809589         3977 
 1684000   0.57362023   -9.5821539    186.22447 0.0092153835 0.0078016249         3960 
 1685000   0.57978852   -9.5782641    186.54181 0.0092256087 0.0077936807         3970 
 1686000   0.58634671   -9.5797583    186.25121 0.0092057733 0.0077857442         3971 
 1687000   0.58327654   -9.5898436    186.56715 0.0092159234 0.0077778272         3970 
 1688000   0.57629794   -9.5945686    186.53259 0.0092087574 0.0077699133         3972 
 1689000   0.57945268   -9.5693225    186.84146 0.0092185445 0.0077620108         3977 
 1690000   0.58083529   -9.5726685    186.67028  0.009204649   0.00775412         3962 
 1691000   0.57401958    -9.577775    186.47005  0.009189338 0.0077462388         3978 
 1692000   0.58903526   -9.5627139    186.45185 0.0091830107 0.0077383702         3977 
 1693000   0.57987908   -9.5684411    186.57708 0.0091837507 0.0077305117         3964 
 1694000   0.58442377   -9.5908728     186.6804 0.0091834121 0.0077226653         3978 
 1695000   0.58533658   -9.5456827    186.67568 0.0091777623 0.0077148266         3975 
 1696000   0.58228385   -9.5958198    186.48932 0.0091631939 0.0077070001         3979 
 1697000   0.57745577   -9.5637302    186.68776 0.0091675387 0.0076991813         3980 
 1698000   0.56755367   -9.5624807    186.62746 0.0091591802 0.0076913776         3969 
 1699000   0.56797302   -9.5714925    186.69002 0.0091568578  0.007683583         3967 
 1700000   0.58827273   -9.5874794    186.49715 0.0091420173 0.0076758003         3970 
 1701000   0.57437994   -9.5705017    186.30647 0.0091273012 0.0076680307         3979 
 1702000   0.57716391   -9.5858451    186.42073 0.0091275329 0.0076602662         3969 
 1703000   0.57839478   -9.5780203    186.33336 0.0091178976 0.0076525121         3961 
 1704000   0.57684816   -9.5927003    186.33134 0.0091124481 0.0076447638         3968 
 1705000   0.57927297   -9.5837366    186.32332 0.0091067116 0.0076370284         3975 
 1706000   0.56202776   -9.5778889    186.45436 0.0091077743 0.0076293075         3980 
 1707000   0.56566773   -9.6021951    186.25839 0.0090928722 0.0076215945         3982 
 1708000   0.55893039   -9.5819416    186.18605 0.0090840189 0.0076138909         3967 
 1709000   0.57185035   -9.6081858     186.2579 0.0090822069 0.0076061996         3974 
 1710000   0.56597795   -9.5902031    186.36361  0.009082047 0.0075985212         3972 
 1711000   0.57861007   -9.5917428    186.25202 0.0090713042 0.0075908569         3974 
 1712000   0.57512102   -9.5985556     186.5226 0.0090791766 0.0075831961         3974 
 1713000   0.56233663   -9.5992843    186.30378 0.0090632312 0.0075755486         3973 
 1714000   0.57571117   -9.5955125     186.4828 0.0090666472 0.0075679085         3968 
 1715000   0.57136383   -9.5910529    186.45589 0.0090600532 0.0075602769         3964 
 1716000   0.57138121   -9.6051061    186.51068 0.0090574338  0.007552659         3964 
 1717000   0.57217562   -9.5709391    186.51839 0.0090525328 0.0075450543         3960 
 1718000   0.55800168   -9.5996173    186.48997 0.0090458851 0.0075374548         3971 
 1719000   0.56997326   -9.6057615    186.38315 0.0090354447 0.0075298637         3968 
 1720000   0.55732765   -9.5954689    186.45126 0.0090334915 0.0075222888         3958 
 1721000   0.56344887   -9.5733167    186.53676 0.0090323824 0.0075147234         3960 
 1722000   0.56681734   -9.5885638    186.58592  0.009029516 0.0075071637         3961 
 1723000   0.56131634   -9.5929079     186.5734 0.0090236698 0.0074996204         3987 
 1724000   0.55405047   -9.5987722    186.26986 0.0090037637 0.0074920813         3963 
 1725000   0.57595838   -9.5870069    186.42807  0.009006187 0.0074845614         3971 
 1726000   0.55110597   -9.6095994    186.22785 0.0089913021 0.0074770394         3976 
 1727000   0.56422913   -9.6077699    186.27485 0.0089883636 0.0074695332         3974 
 1728000   0.58295136   -9.5966503     186.1092 0.0089751735 0.0074620418         3965 
 1729000    0.5637956   -9.6108029    186.36175 0.0089821551 0.0074545559         3970 
 1730000   0.55982688   -9.6044995    186.10476  0.008964584 0.0074470794         3971 
 1731000   0.54487273    -9.615544    186.51255 0.0089790366 0.0074396091         3972 
 1732000   0.56093546   -9.5941403    186.28131 0.0089627267 0.0074321533         3973 
 1733000   0.55086739   -9.5950073    186.35641 0.0089611663 0.0074247071         3977 
 1734000   0.57011811   -9.5925662    186.48019 0.0089619468 0.0074172746         3974 
 1735000   0.55379799   -9.6216714    186.03075 0.0089351945 0.0074098479         3975 
 1736000   0.56157591   -9.5831634    186.41863 0.0089486671 0.0074024282         3970 
 1737000   0.55717276   -9.6033138    186.20606 0.0089333172 0.0073950212         3971 
 1738000   0.53994685   -9.5965037    186.25333 0.0089304437 0.0073876284         3978 
 1739000    0.5427268   -9.6080802    186.15589 0.0089206385 0.0073802449         3978 
 1740000   0.55172387   -9.6246944    186.28469 0.0089216805 0.0073728665         3972 
 1741000   0.56807712   -9.6073307    185.94542 0.0089003168 0.0073654996         3975 
 1742000   0.55589849   -9.6326943    186.18026 0.0089064418 0.0073581441         3975 
 1743000   0.56760103   -9.6245273     186.2437  0.008904365 0.0073507978         3967 
 1744000   0.55063187   -9.5808369    186.30837 0.0089023495 0.0073434589         3976 
 1745000   0.55858548   -9.5931364    186.56985 0.0089097349 0.0073361348         3970 
 1746000   0.56239582   -9.6137082     186.3977 0.0088964155 0.0073288238         3962 
 1747000   0.56772794   -9.6124824    186.13301 0.0088786972 0.0073215107         3968 
 1748000   0.55707144   -9.6127122    186.41689 0.0088871514 0.0073142117         3954 
 1749000   0.55822912   -9.6181765      186.299 0.0088764534 0.0073069248         3974 
 1750000   0.54336773   -9.6124901     185.8929 0.0088520429 0.0072996468         3961 
 1751000   0.54871264   -9.6056071    186.51069  0.008876389 0.0072923827         3965 
 1752000   0.57472444   -9.5992706    186.32575 0.0088625263   0.00728513         3968 
 1753000    0.5613147   -9.6148407    186.20016 0.0088515002 0.0072778793         3960 
 1754000   0.56194522   -9.6282474    186.06066 0.0088398261  0.007270646         3977 
 1755000   0.54033734    -9.618382    186.31912 0.0088470616 0.0072634159         3968 
 1756000    0.5377688   -9.6184438    186.46505  0.008848949 0.0072561984         3974 
 1757000   0.55521255   -9.6189006    186.36535 0.0088391838 0.0072489864         3975 
 1758000   0.56194234   -9.6194412    186.11535 0.0088223052 0.0072417885         3973 
 1759000   0.55617527   -9.6044828    185.89782 0.0088069839  0.007234598         3983 
 1760000   0.54385341   -9.6161163    186.21657 0.0088170724 0.0072274195         3965 
 1761000   0.55323463    -9.617223    185.98298 0.0088010119 0.0072202486         3965 
 1762000   0.55407182   -9.6235923    186.24468 0.0088083939 0.0072130945         3972 
 1763000   0.55830233   -9.6056056    186.01085 0.0087923447 0.0072059424         3971 
 1764000   0.54264253   -9.6152098    186.01498 0.0087875558 0.0071988058         3969 
 1765000   0.55331105   -9.6231402    186.23821 0.0087931168 0.0071916722         3971 
 1766000   0.53756441   -9.6260749    186.15032 0.0087839901 0.0071845458         3977 
 1767000   0.56004011   -9.6261571    186.37728 0.0087897225 0.0071774318         3984 
 1768000   0.54422331    -9.610368    185.92427 0.0087633986 0.0071703314         3973 
 1769000   0.55071869    -9.614288    186.10466 0.0087669428 0.0071632345         3978 
 1770000   0.55187168   -9.6163545    186.15783 0.0087644929 0.0071561547         3972 
 1771000   0.54337143   -9.6076593    186.10117 0.0087568781 0.0071490816         3970 
 1772000   0.56332803   -9.6408973    185.81221 0.0087383471 0.0071420156         3976 
 1773000   0.54971839   -9.6132134    186.27228 0.0087550424 0.0071349607         3964 
 1774000    0.5445907   -9.6256091    185.96836 0.0087358307 0.0071279116         3973 
 1775000    0.5506436   -9.6115865    186.31791 0.0087473197 0.0071208767         3967 
 1776000   0.54139878    -9.611177    186.11671 0.0087329535 0.0071138477         3966 
 1777000   0.55045772    -9.623153    186.08834 0.0087267088 0.0071068334         3973 
 1778000   0.54924444   -9.6272549    186.02189 0.0087186863 0.0070998231         3975 
 1779000   0.54977082   -9.6298222    186.22368 0.0087232378 0.0070928174         3967 
 1780000   0.54323206   -9.6195729    186.09073 0.0087121126 0.0070858217         3974 
 1781000   0.54390229   -9.6154945    186.04461 0.0087050632 0.0070788425         3974 
 1782000   0.53505452   -9.6302279    185.96272 0.0086963486 0.0070718741         3968 
 1783000   0.54382499   -9.6233635    185.98747 0.0086926283 0.0070649147         3977 
 1784000   0.54988525   -9.6151362     186.1895 0.0086971928 0.0070579677         3979 
 1785000   0.53059476   -9.6141157    186.32395 0.0086985973 0.0070510234         3966 
 1786000   0.54306562   -9.6472941    186.01517 0.0086793194 0.0070440867         3978 
 1787000   0.52398714   -9.6340378    186.17364 0.0086818523 0.0070371594         3962 
 1788000    0.5425444   -9.6249298    186.03205 0.0086703976 0.0070302428         3971 
 1789000   0.54063372    -9.632157    186.11771 0.0086695411 0.0070233322         3966 
 1790000   0.52466777   -9.6201279    185.99407 0.0086589416 0.0070164307         3983 
 1791000   0.52873211   -9.6397567    186.05192 0.0086567987 0.0070095384         3966 
 1792000   0.52076912   -9.6388073    186.13811 0.0086559762 0.0070026535         3968 
 1793000     0.544433   -9.6482104    186.04916 0.0086470144 0.0069957817         3967 
 1794000   0.54437187   -9.6335993     185.9301  0.008636664 0.0069889222         3975 
 1795000   0.53799287   -9.6401663    186.00364 0.0086352663 0.0069820724         3974 
 1796000   0.52521733   -9.6329046    185.89091  0.008625228 0.0069752292         3973 
 1797000   0.54257407   -9.6365939    185.77818 0.0086152005 0.0069683987         3980 
 1798000   0.52472606   -9.6383391    185.89377 0.0086157661 0.0069615738         3967 
 1799000   0.54100837   -9.6371267    185.75041  0.008604336 0.0069547532         3977 
 1800000    0.5304679   -9.6407283    186.37458 0.0086284527 0.0069479453         3979 
 1801000   0.53167189   -9.6540414    185.98264 0.0086055266 0.0069411463         3978 
 1802000   0.52989664   -9.6437159    186.26204  0.008613672 0.0069343566         3967 
 1803000   0.53977334   -9.6292639    185.86561 0.0085905716 0.0069275699         3973 
 1804000   0.52696795    -9.636789    186.06299 0.0085949275 0.0069207976         3970 
 1805000    0.5438442   -9.6366152    185.95148 0.0085850175 0.0069140348         3975 
 1806000   0.53925506   -9.6368204    186.19774  0.008591627 0.0069072813         3969 
 1807000   0.52916763   -9.6329924    186.17417 0.0085857852 0.0069005369         3970 
 1808000   0.53222209   -9.6408639    185.79395 0.0085635117 0.0068937984         3980 
 1809000   0.54179865   -9.6465686    185.87273 0.0085624069 0.0068870691         3975 
 1810000   0.53975439   -9.6349848    185.99496  0.008563304 0.0068803509         3966 
 1811000   0.52896204   -9.6384857    185.72863 0.0085463203 0.0068736416         3973 
 1812000   0.53392324   -9.6347456    186.04688 0.0085562398 0.0068669348         3973 
 1813000   0.52610573   -9.6436179    186.43839 0.0085695158 0.0068602424         3977 
 1814000   0.52928628   -9.6431209     185.8742 0.0085388735 0.0068535577         3955 
 1815000   0.54225027   -9.6322455    185.90934 0.0085357823 0.0068468821         3978 
 1816000   0.54118168   -9.6588752     186.0845 0.0085391201 0.0068402179         3971 
 1817000   0.52694664   -9.6488094    185.69605 0.0085166046 0.0068335615         3972 
 1818000   0.53045268   -9.6720444    185.79511 0.0085164607 0.0068269165         3975 
 1819000   0.52392624   -9.6455156    185.87961 0.0085156503 0.0068202738         3974 
 1820000    0.5307243   -9.6454316    185.82805 0.0085086103 0.0068136456         3978 
 1821000   0.53796584   -9.6348859    185.86508 0.0085056323 0.0068070203         3974 
 1822000   0.52515484   -9.6395282    185.85064 0.0085003036 0.0068004073         3961 
 1823000   0.51359119   -9.6560711    185.96916 0.0085010585 0.0067938028         3966 
 1824000   0.52593882   -9.6642138    186.15316 0.0085048047  0.006787209         3976 
 1825000   0.52965228   -9.6406336    185.94629 0.0084906984 0.0067806217         3972 
 1826000   0.53717714     -9.64277    185.45222 0.0084635004 0.0067740444         3988 
 1827000   0.52420839   -9.6567085     185.7331 0.0084716795 0.0067674759         3977 
 1828000    0.5337035   -9.6582217    185.93394 0.0084762006 0.0067609169         3975 
 1829000   0.54185122   -9.6602792    185.83437 0.0084670298  0.006754365         3965 
 1830000    0.5098284   -9.6724352    185.77927 0.0084598938  0.006747822         3979 
 1831000   0.51923152   -9.6833308    185.79533 0.0084560044  0.006741282         3968 
 1832000   0.51550359   -9.6487089    185.71205 0.0084476004 0.0067347528         3979 
 1833000   0.53006308   -9.6494543    185.94656 0.0084536535  0.006728236         3968 
 1834000   0.52558904   -9.6759177    185.92233 0.0084479429 0.0067217273         3958 
 1835000    0.5220518   -9.6618376    185.83027 0.0084391586 0.0067152238         3975 
 1836000   0.51785512   -9.6616747    185.49877 0.0084195159 0.0067087268         3974 
 1837000   0.52463439   -9.6696619    185.61086 0.0084200172 0.0067022416         3970 
 1838000   0.51671502   -9.6719722    185.62297 0.0084159853 0.0066957653         3981 
 1839000   0.53150218   -9.6634893     185.8709 0.0084226438 0.0066892988         3985 
 1840000   0.51204212   -9.6686144    185.50921 0.0084016854 0.0066828358         3980 
 1841000   0.50747487   -9.6590958    185.51985 0.0083976034 0.0066763812         3976 
 1842000   0.52261915   -9.6592594    185.75754 0.0084037973 0.0066699374         3976 
 1843000   0.51776433   -9.6631613    185.79457 0.0084009122 0.0066635039         3970 
 1844000    0.5210789    -9.652433    185.62758 0.0083888096 0.0066570788         3977 
 1845000   0.51770557    -9.663292    185.88059 0.0083956907 0.0066506597         3982 
 1846000   0.52418314    -9.673923    185.69144 0.0083826038 0.0066442489         3976 
 1847000   0.52363491   -9.6739569    185.85515 0.0083854515 0.0066378481         3974 
 1848000   0.51085807   -9.6712609    185.89273 0.0083826087 0.0066314583         3972 
 1849000   0.50893037   -9.6829363    185.95492 0.0083808779 0.0066250728         3974 
 1850000   0.52171338   -9.6869389    185.58614 0.0083597358 0.0066186982         3975 
 1851000   0.50620148   -9.6883002    185.59135 0.0083554541 0.0066123303         3975 
 1852000   0.52086298    -9.669853    185.67292 0.0083546132 0.0066059711         3974 
 1853000   0.52242063   -9.6792926    185.52651   0.00834352 0.0065996191         3967 
 1854000   0.51206201   -9.6657226     185.5445 0.0083398283 0.0065932755         3976 
 1855000   0.51193446   -9.6699081    185.73905 0.0083440722 0.0065869418         3980 
 1856000   0.52733448    -9.673539    185.43364 0.0083258641 0.0065806194         3966 
 1857000   0.51425801   -9.6770506    185.81754 0.0083386082 0.0065742998         3974 
 1858000   0.50736707   -9.6748453    185.68255 0.0083280654 0.0065679906         3983 
 1859000   0.51676801    -9.668469    185.78001 0.0083279545 0.0065616888         3968 
 1860000   0.50934374   -9.6701482    185.75533 0.0083223712 0.0065553942         3978 
 1861000   0.50920102   -9.6706257    185.66873 0.0083140217 0.0065491052         3974 
 1862000   0.50661528   -9.6780454    185.67715 0.0083099331 0.0065428283         3981 
 1863000   0.50902623   -9.6767234    185.48693 0.0082969643 0.0065365604         3985 
 1864000   0.49878686   -9.6817973    185.61634 0.0082982984 0.0065302989         3980 
 1865000   0.50396337   -9.6698398     185.8564 0.0083045754 0.0065240483         3978 
 1866000   0.51122745   -9.6802872    185.55918 0.0082868515 0.0065177952         3976 
 1867000    0.4983998   -9.6916372    185.58218 0.0082834396 0.0065115551         3978 
 1868000   0.50543207   -9.6825906    185.81574 0.0082894244 0.0065053237         3984 
 1869000   0.50964666    -9.677457    185.43433 0.0082679832 0.0064991026         3966 
 1870000   0.50575074    -9.688329    185.67319 0.0082742063 0.0064928904         3971 
 1871000   0.51068899   -9.6899373    185.56034 0.0082647579 0.0064866841         3977 
 1872000   0.50473844   -9.6869218    185.44789  0.008255337  0.006480488         3987 
 1873000   0.50697062   -9.7111793    185.48059 0.0082523845    0.0064743         3979 
 1874000   0.49843235   -9.6839479    185.49341 0.0082485507 0.0064681194         3976 
 1875000   0.50300023   -9.6792581    185.44562 0.0082420275 0.0064619421         3976 
 1876000   0.50728034   -9.6932966    185.62011 0.0082453853 0.0064557785         3968 
 1877000   0.50177771   -9.6810038    185.68851 0.0082440292 0.0064496212         3979 
 1878000   0.50625708   -9.6901249       185.43 0.0082281682 0.0064434686         3987 
 1879000   0.49848106    -9.695578    185.43955 0.0082242129 0.0064373285         3980 
 1880000   0.50140602     -9.69155    185.37404 0.0082169343 0.0064311945         3978 
 1881000   0.49812524    -9.702738    185.45776 0.0082162751 0.0064250732         3986 
 1882000   0.50516355   -9.6964185     185.6302  0.008219545 0.0064189534         3975 
 1883000   0.51206168   -9.6778078    185.48558 0.0082087794 0.0064128455         3962 
 1884000   0.50040225   -9.6893005    185.32929 0.0081975094 0.0064067467         3975 
 1885000   0.49897726   -9.6937477    185.73305 0.0082110104 0.0064006505         3971 
 1886000   0.50390671   -9.6910303    185.64851 0.0082029209 0.0063945648         3974 
 1887000   0.49470969   -9.6869467    185.70216 0.0082009434 0.0063884848         3970 
 1888000   0.49278713   -9.6954132    185.35219 0.0081811524 0.0063824114         3975 
 1889000   0.49730629   -9.7090431     185.6859 0.0081915433 0.0063763507         3982 
 1890000   0.49312412   -9.7047246    185.61145 0.0081839264 0.0063702938         3986 
 1891000   0.49332337   -9.6840889    185.40881 0.0081706684 0.0063642502         3969 
 1892000   0.49542781   -9.7117904    185.37304 0.0081647747 0.0063582101         3980 
 1893000   0.48287433   -9.6828021    185.32425 0.0081583134  0.006352178         3991 
 1894000   0.49834278   -9.6926301    185.45133 0.0081595974 0.0063461562         3985 
 1895000   0.48272806   -9.7096211    185.62961 0.0081631315 0.0063401397         3979 
 1896000   0.50213183   -9.6864597    185.49183 0.0081527704 0.0063341307         3976 
 1897000   0.50431901   -9.7114966    185.59587  0.008153043 0.0063281297         3973 
 1898000   0.48783501   -9.7103508      185.299 0.0081357131 0.0063221338         3989 
 1899000   0.48296241   -9.6982709    185.52596 0.0081413885 0.0063161485         3969 
 1900000   0.48830811   -9.6960294    185.36356 0.0081299806 0.0063101748         3977 
 1901000   0.50488259   -9.6912097     185.2944 0.0081226722 0.0063042058         3980 
 1902000    0.4922132   -9.6963373    185.41016 0.0081234736 0.0062982439         3980 
 1903000    0.4952512   -9.7049726    185.51929 0.0081239838 0.0062922904         3982 
 1904000   0.48666777   -9.6973425    185.21896 0.0081065723 0.0062863407         3984 
 1905000   0.48073213   -9.7083391    185.62685 0.0081201598 0.0062803996         3972 
 1906000   0.48288487   -9.7134373    185.37813 0.0081050251 0.0062744676         3981 
 1907000   0.48207429    -9.691229    185.37774 0.0081007578 0.0062685423         3964 
 1908000   0.50067961   -9.7087032    185.30363 0.0080932751 0.0062626265         3977 
 1909000   0.48928376   -9.6999802     185.5357 0.0080991663 0.0062567165         3972 
 1910000   0.50012301   -9.7039551    185.49734 0.0080932524 0.0062508134         3980 
 1911000   0.49328812    -9.705088    185.54219 0.0080909728 0.0062449179         3986 
 1912000   0.48726502   -9.7068566    185.45755 0.0080830522 0.0062390289         3973 
 1913000   0.49321711   -9.7087871     185.4842 0.0080799876 0.0062331523         3982 
 1914000   0.49172609   -9.7058702    184.98702 0.0080541198 0.0062272831         3972 
 1915000   0.49846711   -9.7115286    185.41562 0.0080685651 0.0062214162         3977 
 1916000   0.47711735   -9.7148977    185.62504 0.0080734621  0.006215556         3968 
 1917000    0.4816707   -9.7087329     185.4599  0.008062072 0.0062097059         3971 
 1918000   0.48643255   -9.7154666    185.32243 0.0080518957 0.0062038671         3970 
 1919000   0.49413738   -9.7184686    185.37052 0.0080497881 0.0061980313         3981 
 1920000   0.48243782   -9.7079355    185.26636 0.0080410748 0.0061922076         3974 
 1921000   0.48357588   -9.7082189    185.79612 0.0080598697 0.0061863886         3976 
 1922000   0.49278006   -9.7245171    185.15552 0.0080279016 0.0061805749         3975 
 1923000   0.48751981   -9.7069091    184.92872 0.0080138986 0.0061747693         3977 
 1924000   0.48326355   -9.7032195    185.31395 0.0080264183 0.0061689732         3971 
 1925000   0.48535675   -9.7100747    185.22255  0.008018292 0.0061631846         3975 
 1926000   0.48933845   -9.7167804    185.33358 0.0080189329 0.0061574039         3988 
 1927000   0.49784002   -9.7287643    184.93556 0.0079975594 0.0061516261         3981 
 1928000   0.48064089   -9.7277956     185.2516 0.0080070711 0.0061458576         3975 
 1929000   0.48811991   -9.7134242    185.41781 0.0080101006 0.0061400976         3969 
 1930000   0.47335669   -9.7175861    185.29348  0.008000582 0.0061343445         3972 
 1931000   0.48012451   -9.7182833    185.43135 0.0080023888 0.0061285958         3968 
 1932000   0.48089363   -9.7205077    185.19209 0.0079879266 0.0061228553         3982 
 1933000   0.47416162   -9.7273301    185.47991 0.0079962024 0.0061171243         3979 
 1934000   0.48467772   -9.7226761    185.32051 0.0079851994 0.0061114003         3971 
 1935000   0.49040193   -9.7225606    185.03776 0.0079688956 0.0061056814         3971 
 1936000   0.48418901   -9.7199443    185.19199 0.0079714184 0.0060999748         3982 
 1937000   0.46834891   -9.7130501    185.42802 0.0079774573  0.006094271         3969 
 1938000   0.47438538   -9.7181432    185.12722 0.0079604066 0.0060885792         3978 
 1939000   0.47997208   -9.7388527    185.18333 0.0079587128 0.0060828893         3975 
 1940000   0.47831413   -9.7029841    185.34241 0.0079614437 0.0060772088         3976 
 1941000   0.48028824    -9.714285    185.45748 0.0079622823 0.0060715346         3984 
 1942000   0.47863618   -9.7306281     185.3833 0.0079549991 0.0060658711         3973 
 1943000   0.49208266    -9.723741    185.10212 0.0079388455  0.006060214         3988 
 1944000   0.47840911   -9.7217817    185.16711 0.0079375477 0.0060545636         3982 
 1945000   0.48166657    -9.724716    184.94592 0.0079239896 0.0060489192         3975 
 1946000   0.48332141   -9.7371474    185.28532 0.0079344517 0.0060432814         3977 
 1947000   0.48308626   -9.7359672    185.39082 0.0079348921 0.0060376514         3975 
 1948000   0.46687333   -9.7259192    185.32215 0.0079278813 0.0060320289         3973 
 1949000   0.47902674   -9.7300686    185.13619 0.0079158622 0.0060264136         3976 
 1950000   0.46501506   -9.7509127    185.07546 0.0079092079 0.0060208049         3969 
 1951000   0.47274569   -9.7397448    185.16257 0.0079088745 0.0060152005         3973 
 1952000   0.47075127   -9.7493637      185.093 0.0079018528  0.006009604         3977 
 1953000   0.47135487   -9.7382335    185.42675 0.0079120476 0.0060040136         3986 
 1954000   0.46241818   -9.7357926    185.05741 0.0078922469 0.0059984317         3983 
 1955000     0.472354   -9.7518441    184.91538  0.007882156 0.0059928538         3976 
 1956000   0.47113356   -9.7351075    185.02089 0.0078826215 0.0059872843         3977 
 1957000   0.47458236    -9.731001    185.20878 0.0078865942 0.0059817275         3984 
 1958000   0.46233457   -9.7399553    185.14105 0.0078796839 0.0059761721         3961 
 1959000   0.47845333   -9.7409477     184.9472 0.0078674155 0.0059706302         3987 
 1960000   0.47030306    -9.726229    184.95694 0.0078638153 0.0059650914         3980 
 1961000   0.46885499    -9.737433    185.05435 0.0078639449 0.0059595607         3981 
 1962000   0.47822342   -9.7396193    185.19965 0.0078661083 0.0059540328         3986 
 1963000   0.47087663   -9.7403086    185.10555 0.0078581062 0.0059485137         3971 
 1964000   0.45892407   -9.7255172      185.098 0.0078537846 0.0059430047         3979 
 1965000   0.46818192   -9.7381155    185.30262 0.0078584656 0.0059375007         3984 
 1966000   0.46630597   -9.7362219    184.96227 0.0078400418 0.0059320038         3974 
 1967000   0.46734673   -9.7439384    185.02832 0.0078388546 0.0059265157         3971 
 1968000   0.47654909   -9.7206386    185.20593 0.0078423919 0.0059210364         3959 
 1969000   0.48156621   -9.7436134    185.20273 0.0078382736  0.005915562         3970 
 1970000   0.47247231    -9.731664    185.03675 0.0078272737 0.0059100929         3973 
 1971000   0.46779425   -9.7395416    185.28613 0.0078338462 0.0059046307         3988 
 1972000   0.46862186    -9.736918    185.04335  0.007819614 0.0058991706         3987 
 1973000   0.45995663   -9.7415363    185.17411 0.0078211737 0.0058937214         3971 
 1974000   0.46533328   -9.7541232    185.00209 0.0078099496 0.0058882803         3969 
 1975000    0.4580062    -9.748147    185.29282 0.0078182624 0.0058828457         3974 
 1976000   0.46916973   -9.7478232    185.03462 0.0078034168  0.005877416         3968 
 1977000   0.45973053   -9.7351798    185.17287 0.0078052972 0.0058719967         3976 
 1978000   0.46644193   -9.7376052    185.26134 0.0078050783 0.0058665799         3982 
 1979000   0.47054638    -9.741764     185.1972 0.0077984337 0.0058611731         3978 
 1980000   0.46423339   -9.7736008    185.02771 0.0077873613 0.0058557734         3983 
 1981000   0.45320738   -9.7369246     184.9719 0.0077810827 0.0058503763         3973 
 1982000   0.45554098   -9.7371774    185.16372 0.0077852222 0.0058449901         3972 
 1983000   0.46274263   -9.7472559    185.05573  0.007776758 0.0058396087         3969 
 1984000   0.45847802   -9.7558075    184.91577 0.0077669595 0.0058342344         3980 
 1985000   0.47722002   -9.7490783    185.03285  0.007767962 0.0058288671         3979 
 1986000   0.47328857   -9.7560335    185.17824 0.0077701511 0.0058235029         3979 
 1987000    0.4645952   -9.7419675    185.06146  0.007761343 0.0058181477         3988 
 1988000   0.45885481   -9.7520581    184.97797  0.007753939 0.0058127993         3979 
 1989000   0.45869267   -9.7335774     185.4062 0.0077679822 0.0058074587         3980 
 1990000   0.46018612   -9.7464449    184.84352 0.0077405159 0.0058021244         3982 
 1991000    0.4541262   -9.7325525    184.99535  0.007742983 0.0057967981         3979 
 1992000   0.45453558   -9.7430094     184.7228 0.0077276941 0.0057914781         3978 
 1993000   0.45711826   -9.7594093    185.21914   0.00774457 0.0057861614         3971 
 1994000    0.4488126   -9.7475544    184.73883 0.0077206132 0.0057808498         3976 
 1995000   0.45680086   -9.7522588    184.74044 0.0077168104 0.0057755486         3982 
 1996000   0.45255807   -9.7605127    184.84997 0.0077175172 0.0057702528         3977 
 1997000    0.4555782   -9.7441258    185.12347 0.0077250657  0.005764965         3970 
 1998000   0.45753629   -9.7586255    185.16976 0.0077231298 0.0057596841         3978 
 1999000   0.46099949   -9.7406128    185.27935  0.007723835 0.0057544092         3977 
 2000000   0.44899535   -9.7545474    184.94338 0.0077059743 0.0057491442         3976 
 2001000    0.4602633   -9.7587786    185.02229 0.0077054095 0.0057438828         3986 
 2002000   0.45071727   -9.7454679     184.8813 0.0076956918 0.0057386255         3979 
 2003000   0.45169996   -9.7530714    184.76585 0.0076870466 0.0057333755         3977 
 2004000   0.44509497   -9.7627513    184.94663 0.0076907282   0.00572813         3983 
 2005000    0.4577056   -9.7511228    184.99933 0.0076890826 0.0057228929         3990 
 2006000   0.44900016   -9.7623385    184.85339 0.0076791871  0.005717662         3979 
 2007000   0.45777533   -9.7686888    184.97291 0.0076803233  0.005712435         3971 
 2008000   0.45103456   -9.7682362    184.77742 0.0076683857 0.0057072204         3976 
 2009000   0.45195148   -9.7699195    184.94693    0.0076716 0.0057020105         3975 
 2010000   0.44192415   -9.7627993    184.95638  0.007668175 0.0056968085         3983 
 2011000   0.44142947   -9.7559896    185.12378 0.0076712986  0.005691614         3983 
 2012000   0.45168292   -9.7724456    184.90446 0.0076584021 0.0056864214         3981 
Loop time of 5217.44 on 48 procs for 2000000 steps with 4000 atoms

Performance: 66239.333 tau/day, 383.329 timesteps/s
99.4% CPU use with 48 MPI tasks x no OpenMP threads

MPI task timing breakdown:
Section |  min time  |  avg time  |  max time  |%varavg| %total
---------------------------------------------------------------
Pair    | 384.72     | 425.87     | 477.6      | 109.5 |  8.16
Neigh   | 36.83      | 38.396     | 40.62      |  12.9 |  0.74
Comm    | 322.05     | 377.52     | 418.96     | 116.5 |  7.24
Output  | 5.8979     | 5.8999     | 5.9513     |   0.3 |  0.11
Modify  | 4306.4     | 4323       | 4337.3     |  10.5 | 82.86
Other   |            | 46.78      |            |       |  0.90

Nlocal:        83.3333 ave          87 max          79 min
Histogram: 1 4 4 8 0 10 7 5 5 4
Nghost:        2432.25 ave        2451 max        2415 min
Histogram: 3 4 3 7 8 8 8 2 2 3
Neighs:        16773.3 ave       19197 max       14754 min
Histogram: 4 6 6 7 4 5 6 6 2 2
FullNghs:      33546.8 ave       35207 max       31770 min
Histogram: 4 2 3 8 7 7 5 4 3 5

Total # of neighbors = 1610247
Ave neighs/atom = 402.56175
Neighbor list builds = 106360
Dangerous builds = 0

#clear
#
#next RN
#
#jump SELF
Total wall time: 1:27:01
