
units lj                  # Use reduced LJ style units
atom_style atomic         # Uncharged point particles
atom_modify map hash      # Needed for indexing of clusters etc
                          # Used to be able to find where atoms are in relation to each other.

lattice fcc 1.0 spacing 1 1 1
Lattice spacing in x,y,z = 1.5874011 1.5874011 1.5874011
region box block 0 10 0 10 0 10 units lattice
create_box 2 box
Created orthogonal box = (0.0000000 0.0000000 0.0000000) to (15.874011 15.874011 15.874011)
  3 by 4 by 4 MPI processor grid
create_atoms 1 box
Created 4000 atoms
  using lattice units in orthogonal box = (0.0000000 0.0000000 0.0000000) to (15.874011 15.874011 15.874011)
  create_atoms CPU = 0.003 seconds
set type 1 type/fraction 2 0.91 78393
Setting atom values ...
  3634 settings made for type/fraction
mass 1 1.0
mass 2 1.0
pair_style lj/cut  3.5
pair_modify tail  yes
pair_coeff 1  1  1.0  1.0   # Intearaction between 1 and 1 set with epsilon = 1 and sigma = 1
pair_coeff 1  2  1.5  0.8
pair_coeff 2  2  0.5  0.88

write_data data.0
System init for write_data ...
Neighbor list info ...
  update every 1 steps, delay 10 steps, check yes
  max neighbors/atom: 2000, page size: 100000
  master list distance cutoff = 3.8
  ghost atom cutoff = 3.8
  binsize = 1.9, bins = 9 9 9
  1 neighbor lists, perpetual/occasional/extra = 1 0 0
  (1) pair lj/cut, perpetual
      attributes: half, newton on
      pair build: half/bin/atomonly/newton
      stencil: half/bin/3d
      bin: standard
WARNING: Not all mixed pair coeffs generated from mixing. Use write_data with 'pair ij' option to store all pair coeffs. (../write_data.cpp:312)


#############################
#   M E L T   S Y S T E M   #
#############################

velocity all create 2.4 2750902 mom yes dist gaussian # Assign velocities
                                                    # Temperature 2.4, random number seed, zero linear momentum
                                                                                # Gaussian distribution

timestep 0.002   # simulation timestep
thermo 1000       # output thermodynamic data every 1000 steps bf 100

# Define a fix  in this case with index 1 applied to all
# particles in the simulation. This fix is for simulations
# in the anisotropic NPT ensemble. Note that we use the MTK
# correction.
fix 1 all npt temp 2.4 2.4 0.1 iso 5.68 5.68 0.5 mtk yes tchain 5 pchain 5 # Use NPT ensemble
                                                                         # Set temperature and pressure and damping
                                                                         # Numbers of thermostats in chain and in barostat
run 10000          # run for 10000 steps
Per MPI rank memory allocation (min/avg/max) = 3.642 | 3.644 | 3.648 Mbytes
Step Temp E_pair E_mol TotEng Press Volume 
       0          2.4    -3.140535            0     0.458565   -2.4974117         4000 
    1000    2.3754097    -2.139595            0    1.4226288    5.9422453    3993.5391 
    2000    2.4080947   -2.1057512            0    1.5054878    5.8445286    4060.4991 
    3000    2.3974571   -2.1657783            0    1.4295083    5.7252009    4011.5663 
    4000    2.4473739   -2.1289231            0      1.54122    5.8349546    4030.8326 
    5000    2.3711605    -2.165793            0    1.3900585    5.8684668     3985.305 
    6000    2.4146019   -2.1855846            0    1.4354128     5.502372    4032.1293 
    7000    2.4534741   -2.1568874            0    1.5224037    5.8393501    4017.7051 
    8000     2.354179   -2.1343931            0    1.3959926    5.5908412    4035.3901 
    9000     2.379176   -2.1521437            0     1.415728    5.3835658    4067.0267 
   10000    2.4201844   -2.1632725            0    1.4660965    5.6858505     4026.576 
Loop time of 2.43034 on 48 procs for 10000 steps with 4000 atoms

Performance: 711010.917 tau/day, 4114.647 timesteps/s
99.6% CPU use with 48 MPI tasks x no OpenMP threads

MPI task timing breakdown:
Section |  min time  |  avg time  |  max time  |%varavg| %total
---------------------------------------------------------------
Pair    | 1.0936     | 1.1386     | 1.1946     |   2.4 | 46.85
Neigh   | 0.2075     | 0.21457    | 0.22487    |   0.9 |  8.83
Comm    | 0.764      | 0.82702    | 0.87599    |   3.0 | 34.03
Output  | 0.00023867 | 0.00024248 | 0.00030483 |   0.0 |  0.01
Modify  | 0.19849    | 0.23526    | 0.27383    |   4.0 |  9.68
Other   |            | 0.01468    |            |       |  0.60

Nlocal:        83.3333 ave          92 max          75 min
Histogram: 3 3 7 3 12 3 5 5 4 3
Nghost:        1637.60 ave        1664 max        1608 min
Histogram: 2 4 3 5 5 8 7 6 7 1
Neighs:        9472.92 ave       10882 max        8314 min
Histogram: 4 4 5 11 5 6 4 2 3 4

Total # of neighbors = 454700
Ave neighs/atom = 113.67500
Neighbor list builds = 914
Dangerous builds = 256

# Equilibrate just above the melting temperature to avoid step fn in T

fix 1 all npt temp 1.25 1.25 0.1 iso 5.68 5.68 0.5 mtk yes tchain 5 pchain 5
run 2000
Per MPI rank memory allocation (min/avg/max) = 3.643 | 3.645 | 3.649 Mbytes
Step Temp E_pair E_mol TotEng Press Volume 
   10000    2.4201844   -2.1632725            0    1.4660965    5.6858505     4026.576 
   11000    1.2553035   -3.2047837            0   -1.3222992     5.481831    3146.0448 
   12000    1.2312851   -3.2202968            0    -1.373831     5.805276    3115.9812 
Loop time of 0.599666 on 48 procs for 2000 steps with 4000 atoms

Performance: 576320.353 tau/day, 3335.187 timesteps/s
99.7% CPU use with 48 MPI tasks x no OpenMP threads

MPI task timing breakdown:
Section |  min time  |  avg time  |  max time  |%varavg| %total
---------------------------------------------------------------
Pair    | 0.26219    | 0.28676    | 0.32746    |   2.3 | 47.82
Neigh   | 0.037975   | 0.040334   | 0.04475    |   0.6 |  6.73
Comm    | 0.18347    | 0.22561    | 0.2563     |   3.0 | 37.62
Output  | 4.8559e-05 | 5.0013e-05 | 6.3584e-05 |   0.0 |  0.01
Modify  | 0.037062   | 0.042262   | 0.047289   |   1.6 |  7.05
Other   |            | 0.004649   |            |       |  0.78

Nlocal:        83.3333 ave          92 max          77 min
Histogram: 4 3 8 9 4 6 7 3 3 1
Nghost:        1948.65 ave        1971 max        1918 min
Histogram: 1 0 5 7 7 3 10 5 6 4
Neighs:        12262.2 ave       13961 max       10769 min
Histogram: 2 2 7 9 8 6 6 5 1 2

Total # of neighbors = 588587
Ave neighs/atom = 147.14675
Neighbor list builds = 141
Dangerous builds = 11

#############################
# L I N E A R  Q U E N C H  #
#############################

# Define solid atoms. This closely follows ten Wolde  Ruiz-Montero and Frenkel  Faraday Discuss  1996  104  93-110
# Compute components of the per-atom q6 vector
compute q6 all orientorder/atom degrees 1 6 components 6 nnn NULL cutoff 1.3 # compute the Q6 parameter.
                                                                             # Use all neighbours within 1.3 unit cell.

# get number of connections
compute coord_number all coord/atom orientorder q6 0.5

# An atom is solid if it has 8 or more connections (of a possible 14)
variable is_solid atom c_coord_number>=8
group solid dynamic all var is_solid    # Must be dynamic to update
dynamic group solid defined

# do clustering
compute cluster solid cluster/atom 1.3 # Create a cluster where all atoms within are solid and max 1.3 units from another member

# define chunks one chunk per cluster
compute clus_chunks solid chunk/atom c_cluster nchunk every compress yes  # Says which atoms are in which chunk

# count the size of each chunk
compute size_chunks solid property/chunk clus_chunks count


# Find the maximum entry in the vector of chunk sizes
variable max_n equal max(c_size_chunks)


# Thermo style which includes this variable
# thermo_style custom step temp pe vol v_max_n

thermo ${N}  # Print the thermo information every 100 steps
thermo 1000  

# Reset the npt fix at a lower temperature (below freezing)
fix 1  all npt temp  ${temp} ${temp}  0.1  iso  5.68  5.68  0.5  mtk yes tchain  5  pchain  5
fix 1  all npt temp  0.45 ${temp}  0.1  iso  5.68  5.68  0.5  mtk yes tchain  5  pchain  5
fix 1  all npt temp  0.45 0.45  0.1  iso  5.68  5.68  0.5  mtk yes tchain  5  pchain  5

dump dmp2 all dcd ${N} traj.dcd
dump dmp2 all dcd 1000 traj.dcd


compute msd all msd com yes
variable twopoint equal c_msd[4]/6/(step*dt+1.0e-6)
fix 9 all vector 10 c_msd[4]
variable fit equal slope(f_9)/6/(10*dt)
thermo_style custom step temp pe c_msd[4] v_twopoint v_fit v_max_n

fix 1 all npt temp 1.25 ${temp} 0.1 iso 5.68 5.68 0.5 mtk yes tchain 5 pchain 5
fix 1 all npt temp 1.25 0.45 0.1 iso 5.68 5.68 0.5 mtk yes tchain 5 pchain 5
run 2000000 # 5000000  # Run for this many steps
Neighbor list info ...
  update every 1 steps, delay 10 steps, check yes
  max neighbors/atom: 2000, page size: 100000
  master list distance cutoff = 3.8
  ghost atom cutoff = 3.8
  binsize = 1.9, bins = 8 8 8
  4 neighbor lists, perpetual/occasional/extra = 1 3 0
  (1) pair lj/cut, perpetual
      attributes: half, newton on
      pair build: half/bin/atomonly/newton
      stencil: half/bin/3d
      bin: standard
  (2) compute orientorder/atom, occasional
      attributes: full, newton on
      pair build: full/bin/atomonly
      stencil: full/bin/3d
      bin: standard
  (3) compute coord/atom, occasional
      attributes: full, newton on
      pair build: full/bin/atomonly
      stencil: full/bin/3d
      bin: standard
  (4) compute cluster/atom, occasional
      attributes: full, newton on
      pair build: full/bin/atomonly
      stencil: full/bin/3d
      bin: standard
Per MPI rank memory allocation (min/avg/max) = 9.819 | 9.829 | 9.835 Mbytes
Step Temp PotEng c_msd[4] v_twopoint v_fit v_max_n 
   12000    1.2312851   -3.2202968 1.1588367e-30 8.0474765e-33 8.3333333e+20            2 
   13000    1.2341519    -3.246178   0.99554997 0.0063817303  0.085404054            1 
   14000    1.2356896   -3.2151821    2.0842446  0.012406217   0.08716747            2 
   15000    1.2277103   -3.2172172    3.1635307   0.01757517  0.089024217            1 
   16000    1.2398321   -3.2165115    4.2546593  0.022159683  0.089309742            1 
   17000    1.2623176   -3.2465068    5.3689512  0.026318387  0.089888017            2 
   18000    1.2407383   -3.2482747    6.3376066   0.02934077  0.089727419            3 
   19000    1.2529049   -3.2295569    7.2728694  0.031898549  0.088506397            2 
   20000    1.2513053   -3.2235262    8.2761754  0.034484063  0.087638451            1 
   21000    1.2340354   -3.2419433    9.2451638  0.036687157  0.086993167            1 
   22000    1.2286192   -3.2357444    10.416184  0.039455243  0.086767635            1 
   23000    1.2556426   -3.2457852    11.714619  0.042444272  0.087303243            2 
   24000    1.2410639   -3.2210527    13.036464    0.0452655  0.088321189            3 
   25000    1.2735178   -3.2374169    14.161246  0.047204153  0.089419276            6 
   26000    1.2319725   -3.1997071     15.18957  0.048684519  0.090191814            2 
   27000    1.2684664    -3.212919    16.333124  0.050410876  0.090698213            2 
   28000    1.2328961   -3.2212579    17.271282  0.051402624  0.090865667            1 
   29000    1.2477033   -3.2335154    18.084399  0.051966663  0.090769764            2 
   30000    1.2500205    -3.225374    19.345898  0.053738606  0.090434137            1 
   31000    1.2658365   -3.2284275    20.292314  0.054549229  0.090198363            1 
   32000    1.2475351   -3.2568758    21.629983  0.056328079  0.090145309            2 
   33000    1.2760938   -3.2653181    22.626669  0.057138052  0.090230202            1 
   34000    1.2253848   -3.2372708    23.773863   0.05826927  0.090212561            2 
   35000     1.252674   -3.2319518    24.625582  0.058632337  0.090162542            2 
   36000    1.2475954   -3.2468303    25.600112  0.059259517  0.090067391            1 
   37000    1.2420624   -3.2349748    26.532097  0.059756974  0.089825564            4 
   38000    1.2284375   -3.2288023    27.564394  0.060448232  0.089526631            2 
   39000    1.2500875   -3.2352933    28.675833  0.061273147  0.089288788            1 
   40000     1.242514   -3.2068337    29.959086  0.062414761  0.089127427            1 
   41000    1.2386219   -3.2306052    30.905282  0.062815614  0.089129109            2 
   42000     1.220089   -3.2470455    31.648345  0.062794334  0.089072804            2 
   43000    1.2064346   -3.2409361    32.726242  0.063422949  0.088900044            1 
   44000    1.2481063   -3.2637165    33.713321  0.063850986  0.088715976            2 
   45000    1.2586819   -3.2676789    34.688794  0.064238507  0.088554418            1 
   46000    1.2460051   -3.2523752    36.012287   0.06523965    0.0884342            2 
   47000    1.2329456   -3.2277464    36.963157  0.065537512  0.088395638            2 
   48000    1.2218301   -3.2053665    38.143977  0.066222182    0.0883524            2 
   49000    1.2366062   -3.2292538    39.153564  0.066587693  0.088317525            1 
   50000    1.2403027   -3.2385274    40.267538  0.067112563  0.088294301            1 
   51000    1.2448004   -3.2384514    41.220774  0.067354206  0.088247679            1 
   52000    1.2479233    -3.233432    41.996079  0.067301408   0.08818935            1 
   53000    1.2120136   -3.2310202    43.271115  0.068036343  0.088141625            2 
   54000    1.2036007   -3.2679454    44.055434   0.06798678  0.088095819            2 
   55000    1.2405243   -3.2472514    45.193238  0.068474602  0.088038544            2 
   56000    1.2040684   -3.2452339    46.447694  0.069118591  0.088000984            2 
   57000    1.2285038   -3.2103293    47.774726   0.06984609  0.087988818            2 
   58000    1.2210795   -3.2460041    48.894348  0.070250499  0.087980771            2 
   59000     1.232327    -3.242046    49.523379  0.069948275  0.087973672            3 
   60000     1.229045   -3.2581656    50.699905  0.070416535  0.087968753            2 
   61000     1.221635   -3.2233765    52.197945  0.071308667  0.088027116            1 
   62000    1.2213181     -3.24234    53.326844  0.071675865   0.08807599            1 
   63000     1.234497   -3.2538817    54.382056  0.071933935  0.088109043            2 
   64000    1.2178281   -3.2449882     55.61951  0.072421236  0.088179911            3 
   65000    1.2527804   -3.2079687    56.484349  0.072415832  0.088222177            7 
   66000    1.2451336   -3.2542577    57.328585  0.072384577  0.088246099            2 
   67000     1.221075   -3.2246502    58.205643  0.072395078  0.088259582            1 
   68000    1.2141261   -3.2413902    59.050605  0.072365937  0.088216847            1 
   69000    1.2229663   -3.2340159    60.215157  0.072723619  0.088215039            1 
   70000    1.2288227   -3.2668951    61.270988  0.072941651  0.088181435            2 
   71000    1.2550008   -3.2396687    62.312702  0.073136974  0.088147417            1 
   72000    1.2352171   -3.2594975    63.490324  0.073484171   0.08813054            2 
   73000    1.2206298    -3.256428    64.426598  0.073546344  0.088116077            2 
   74000    1.2423831    -3.238562    65.265526  0.073497213  0.088080674            3 
   75000    1.2214254    -3.245072    66.252791  0.073614211  0.088022911            1 
   76000    1.2540323   -3.2871815    66.967313   0.07342907  0.087975143            1 
   77000    1.2329208   -3.2387299    68.259346  0.073873751  0.087925308            3 
   78000    1.1766681   -3.2372058    69.321303   0.07406122  0.087883344            3 
   79000    1.2007211     -3.24291    70.360095  0.074219509  0.087847006            1 
   80000    1.2543629    -3.268114    71.460144  0.074437649  0.087803454            1 
   81000    1.2282513   -3.2748898    72.585099  0.074676027  0.087776608            3 
   82000    1.2224521   -3.2471164    73.939587  0.075141857  0.087757978            2 
   83000    1.2139739   -3.2619066    74.638049  0.074937799  0.087740504            1 
   84000    1.2327864   -3.2742778     75.08541  0.074489494  0.087710881            2 
   85000     1.255324   -3.2281431    76.731838  0.075227292  0.087668602            1 
   86000    1.2334056   -3.2414714    77.487747  0.075085026  0.087616789            2 
   87000    1.2241554   -3.2217654    78.401665   0.07509738  0.087566479            3 
   88000    1.2081618   -3.2688855    79.550794  0.075332191  0.087512978            3 
   89000    1.2246112   -3.2804029    81.073697  0.075911701  0.087483219            2 
   90000    1.2181926   -3.2749709     81.90778  0.075840537  0.087487868            2 
   91000    1.2479717   -3.2642699    82.587035  0.075629152  0.087462226            5 
   92000    1.2272679   -3.3013438    83.440095  0.075579795  0.087413141            2 
   93000    1.1954173   -3.2719435    84.355884  0.075587709  0.087363595            1 
   94000     1.203769   -3.2366871    85.794383   0.07605885  0.087313048            1 
   95000     1.220774   -3.2522155    86.572776  0.075941031  0.087261644            1 
   96000    1.2285388   -3.2373782    87.629677  0.076067427  0.087206508            2 
   97000    1.1958815   -3.2220036     88.65844  0.076167044  0.087146241            7 
   98000    1.2293592    -3.277144    89.431011  0.076046778  0.087086402            2 
   99000    1.2227975    -3.238891    90.895159  0.076511076  0.087033883            3 
  100000    1.2415577   -3.2569902    91.968948  0.076640789  0.087009764            2 
  101000    1.2207775   -3.2736116    92.974464  0.076711604  0.087002743            1 
  102000    1.2137499   -3.2524529    94.418528   0.07713932  0.086984812            3 
  103000    1.1950329   -3.2920203    94.960345  0.076828758  0.086967653            2 
  104000    1.1805665   -3.2593867    96.591537  0.077397065  0.086941016            2 
  105000    1.2171146   -3.2974304    96.706195  0.076750948  0.086909083            3 
  106000    1.2180851   -3.2885882    97.362537  0.076542875  0.086852283            3 
  107000    1.1973956   -3.2738262    98.232741   0.07650525  0.086793475            3 
  108000    1.2361067   -3.2474802    99.230343  0.076566622  0.086722172            1 
  109000    1.2347624   -3.2726741    99.601072  0.076147608   0.08664574            1 
  110000    1.2030636   -3.2423263    101.58195  0.076956025  0.086576367            1 
  111000    1.2235257   -3.2517562    101.95412  0.076542132  0.086501362            1 
  112000    1.2195461   -3.2888939     102.4823  0.076251712  0.086421086            1 
  113000    1.2015768   -3.2652285    103.49048  0.076320411  0.086343027            2 
  114000    1.2081642   -3.2700936     105.0381  0.076782233  0.086261491            2 
  115000    1.1891217   -3.2607341    105.59628  0.076519041  0.086190678            3 
  116000    1.2121912   -3.2728384    106.50786  0.076514269  0.086122008            5 
  117000    1.2226378   -3.2866247    107.75161  0.076746159  0.086056184            2 
  118000    1.1960704   -3.2504921    109.00984  0.076984349  0.085993257            2 
  119000    1.2085509   -3.2714778    109.61908  0.076764058    0.0859229            1 
  120000    1.1877048   -3.2730793    110.61673  0.076817174  0.085860055            2 
  121000    1.1971257   -3.2991134    111.52425  0.076807333  0.085798265            1 
  122000    1.1975164   -3.2136069    113.09678  0.077251896  0.085748516            2 
  123000    1.1935668   -3.2686524     114.0512   0.07727046   0.08570728            1 
  124000    1.2063292   -3.2990836    114.84382  0.077179989  0.085664011            2 
  125000    1.1930087   -3.2544663    115.89478  0.077263188  0.085624381            2 
  126000     1.207765   -3.2474407    117.33164  0.077600288   0.08559599            1 
  127000    1.2240936   -3.2785408    118.59602   0.07781891   0.08556515            3 
  128000    1.2080032   -3.2929519    119.62301  0.077879563  0.085543336            2 
  129000    1.2174311   -3.2905542    120.55655  0.077878908  0.085527438            1 
  130000    1.1997779   -3.2908162    121.02345  0.077579132   0.08550552            2 
  131000    1.1896794   -3.2543681    121.66146  0.077392783  0.085476245            3 
  132000    1.2027841   -3.2982349    122.86274  0.077564861  0.085441816            1 
  133000     1.205721   -3.2724334    124.10757  0.077761636  0.085404946            4 
  134000    1.1951536   -3.3004299     124.6343  0.077508892  0.085359616            6 
  135000     1.193164   -3.2827062    125.89339  0.077711968  0.085320026            1 
  136000    1.2163744   -3.2933768    126.57515  0.077558304   0.08527651            3 
  137000    1.2043822   -3.2921346    127.18697  0.077364334  0.085218316            1 
  138000    1.2171573   -3.2903962    128.28869  0.077469018  0.085163919            2 
  139000    1.2209855   -3.3143729     129.9093  0.077883276  0.085116177            1 
  140000    1.2071348    -3.245781    130.61412  0.077746499  0.085076745            2 
  141000    1.1804273   -3.2843072    132.17651  0.078118502  0.085043171            1 
  142000    1.2188911   -3.2710419    133.40688  0.078290423  0.085014944            1 
  143000    1.1700732   -3.2659839    134.17649   0.07819143  0.084990567            2 
  144000    1.1965191   -3.3005003    135.61124  0.078478727  0.084970946            3 
  145000    1.1872359   -3.2738602     136.0703  0.078201322  0.084938856            1 
  146000    1.2197149   -3.2748011    136.58152  0.077957491  0.084899584            2 
  147000    1.1763085   -3.2865161    137.01328  0.077671927   0.08485794            2 
  148000     1.205962   -3.3044887     138.2462  0.077841328  0.084821493            2 
  149000    1.1940675   -3.3207138    139.19062  0.077847103  0.084776751            2 
  150000    1.1893758   -3.2950469    140.05849  0.077810272  0.084728586            3 
  151000     1.212271   -3.2687416     141.3864  0.078027813  0.084688888            1 
  152000    1.1821375   -3.3020865    142.13435  0.077924535  0.084656914            2 
  153000    1.2145649   -3.2742166    143.29001   0.07804467  0.084625532            2 
  154000     1.200196   -3.3126198    144.14883  0.078002611  0.084603825            1 
  155000    1.2107168   -3.2318472    145.85549  0.078416929  0.084578536            2 
  156000    1.2046526   -3.2883372    145.87582  0.077925116  0.084543965            1 
  157000    1.1865409   -3.2836668    146.76274  0.077899543  0.084508544            2 
  158000    1.1733426   -3.3207868    148.08977  0.078106418  0.084465442            2 
  159000    1.1731697   -3.2999993    149.05808  0.078122686  0.084433996            3 
  160000    1.1969358   -3.3094935    150.10276  0.078178523  0.084396085            2 
  161000    1.1978807   -3.2929088    150.49572  0.077896335  0.084364101            1 
  162000    1.1744813   -3.3143425    150.89628  0.077621541  0.084324731            2 
  163000    1.1867294   -3.3147735    152.23588  0.077830206  0.084275981            2 
  164000    1.1829728   -3.2819692    153.74028  0.078120059  0.084233082            2 
  165000    1.1894428   -3.2882723    155.20677  0.078387256  0.084195583            2 
  166000    1.1668302   -3.2907185     154.8813  0.077751654  0.084160185            1 
  167000    1.2052744   -3.2939683    155.86499   0.07777694   0.08411979            3 
  168000    1.1737523   -3.2776451    157.81744  0.078282459  0.084079998            1 
  169000    1.1862112   -3.3041841    158.22251  0.078018987  0.084047269            1 
  170000    1.1751798   -3.3048771    158.96963  0.077926291  0.084009287            1 
  171000    1.2039306    -3.323533    159.55154  0.077754162   0.08396558            1 
  172000    1.1625365   -3.3043158     160.8613  0.077936677  0.083923157            2 
  173000    1.1607902    -3.275401    162.29811  0.078178281   0.08388749            3 
  174000    1.1761175   -3.3204906    163.33462  0.078225391  0.083849254            2 
  175000    1.1971168   -3.3237786    163.93634  0.078064924  0.083810739            2 
  176000    1.1952006   -3.2953969     165.0177   0.07813338  0.083771123            1 
  177000    1.1549419   -3.2906899    165.99534  0.078152233  0.083736665            2 
  178000    1.2026521   -3.3361292    166.93107  0.078151252  0.083699325            1 
  179000    1.1760762   -3.2939928    167.61855  0.078034707  0.083664652            1 
  180000    1.1895189   -3.2771044    169.09179  0.078283234  0.083632665            3 
  181000    1.1897774   -3.3199643    169.25184  0.077924422  0.083598727            2 
  182000     1.200285   -3.2792944    171.53116  0.078539907  0.083563325            2 
  183000    1.1782711   -3.3208087    171.76194   0.07821582  0.083533437            4 
  184000    1.1756586   -3.3362867    172.39494   0.07807742   0.08350149            2 
  185000    1.1831373   -3.3211441    173.06846  0.077958765   0.08346388            1 
  186000    1.2052099   -3.3005285    174.74993  0.078292977  0.083436115            1 
  187000    1.1886158   -3.3112711    176.22634  0.078532238  0.083409812            2 
  188000    1.1558664   -3.3023354    176.26564  0.078131934  0.083385075            2 
  189000    1.2035445   -3.3183304    177.69038  0.078346729  0.083358528            5 
  190000    1.2100878   -3.3213742    178.36659  0.078230959  0.083335198            1 
  191000    1.1920561   -3.2884989    179.46343  0.078299924   0.08330801            5 
  192000    1.1963866   -3.3410378    180.69082  0.078424835  0.083280019            4 
  193000    1.1539237   -3.3131988     180.2553  0.077830442   0.08324201            2 
  194000    1.1743385    -3.331515    181.21875  0.077843107  0.083202324            2 
  195000    1.1766594   -3.3334098    182.07583  0.077810182  0.083162008            3 
  196000    1.1584324   -3.3170327    183.03123  0.077819402  0.083118043            2 
  197000    1.2068392   -3.3340151    184.33176  0.077974518  0.083077302            2 
  198000    1.1802855   -3.3211025    184.72239  0.077745114  0.083032111            2 
  199000    1.1804982   -3.3112508    186.04406  0.077907899  0.082985207            2 
  200000    1.1644483    -3.342993    186.02662   0.07751109   0.08293991            2 
  201000    1.1657212   -3.3047657    187.42006  0.077703177  0.082897535            2 
  202000     1.179934   -3.3142148    188.29092  0.077677773   0.08284645            1 
  203000    1.1731422   -3.3283228    189.13011  0.077639617  0.082798732            2 
  204000    1.1687897   -3.3533851    188.88194  0.077157657  0.082749433            3 
  205000    1.1796467   -3.3106875    191.37975  0.077796647   0.08269959            3 
  206000    1.1600072   -3.3380872    191.65276  0.077529433  0.082650238            2 
  207000    1.1778501   -3.3068753     192.5507  0.077516384  0.082601598            2 
  208000    1.1684047   -3.3505692     193.6928  0.077601283  0.082552632            2 
  209000    1.1719906   -3.3338366    194.66146  0.077616211  0.082506859            3 
  210000    1.1513008   -3.3187956    196.00869  0.077781225  0.082467864            3 
  211000    1.1896214    -3.319328    197.22635  0.077893502  0.082430249            1 
  212000    1.1778986   -3.3333994    197.75295  0.077733078  0.082391108            2 
  213000    1.1591195   -3.3068311    199.85825  0.078191802  0.082357131            2 
  214000    1.1677716   -3.3296136    199.59075  0.077722256  0.082328355            2 
  215000    1.1645752   -3.3725674    201.01445  0.077912577  0.082295133            4 
  216000    1.1534851   -3.3220039    202.33829  0.078062611  0.082261878            2 
  217000    1.1800002   -3.3425307    202.63955  0.077818569   0.08223414            2 
  218000    1.1712146   -3.3116693     204.6669  0.078236581  0.082207437            4 
  219000    1.1512165   -3.3296665    205.85741  0.078332347  0.082186584            1 
  220000    1.1591909   -3.3218677    205.14687  0.077707146  0.082157781            2 
  221000    1.1818933   -3.3606004     206.2975  0.077789406  0.082124243            3 
  222000    1.1923161   -3.2798122     207.9439   0.07805702  0.082094888            1 
  223000    1.1387026   -3.3295866    207.86875  0.077678906  0.082063696            1 
  224000    1.1483516   -3.3567171    208.87147  0.077705159  0.082035499            4 
  225000    1.1786447   -3.3424107    209.94764  0.077758385  0.082002535            1 
  226000    1.1474519    -3.325031    211.74059  0.078075437  0.081975414            4 
  227000    1.1793537   -3.3401149    211.72287  0.077724989  0.081944397            1 
  228000     1.169242   -3.3192434    212.16624   0.07754614  0.081910265            2 
  229000    1.1578303   -3.3278829    213.75344  0.077785095  0.081879974            2 
  230000    1.1841067   -3.3266926    214.61778  0.077760065  0.081848978            1 
  231000    1.1605981   -3.3210075    215.66535  0.077801353  0.081817806            1 
  232000    1.1452926    -3.324938    216.89743  0.077908559   0.08178619            1 
  233000    1.1562687    -3.309215     217.8245  0.077905758  0.081758044            4 
  234000    1.1542447    -3.339586    217.78201  0.077557696  0.081728462            4 
  235000    1.1475144   -3.3356748    219.66249  0.077894498  0.081698675            2 
  236000    1.1757121   -3.3369926    219.84141  0.077627617  0.081668654            3 
  237000     1.183737    -3.339626    221.45828  0.077868593  0.081636715            1 
  238000    1.1495334   -3.3193195    222.04185  0.077745745  0.081597875            3 
  239000    1.1680892   -3.3513765    221.16439    0.0771145  0.081559382            2 
  240000    1.1848117   -3.3533513    223.09109  0.077462186   0.08152565            2 
  241000    1.1481404   -3.3410998     224.8597  0.077752318  0.081492217            2 
  242000    1.1287639   -3.3434063    225.07235  0.077504252  0.081460072            2 
  243000    1.1881929   -3.3063172    226.52425  0.077683214  0.081427069            2 
  244000    1.1463566   -3.3690108    227.20313  0.077596699  0.081395338            2 
  245000    1.1633989   -3.3421942    228.04145   0.07756512   0.08136697            2 
  246000    1.1347605   -3.3181693    230.25136  0.077998428  0.081339411            2 
  247000    1.1352719   -3.3277081    230.44358  0.077747495  0.081311983            2 
  248000    1.1564483   -3.3365416     231.7974  0.077888911  0.081285237            1 
  249000    1.1434521   -3.3130833    232.16463  0.077699007  0.081257256            3 
  250000    1.1694324   -3.3380267    233.22531   0.07774177  0.081229566            1 
  251000    1.1831161   -3.3394921    233.11434    0.0773952  0.081197982            2 
  252000    1.1449968   -3.3148283    234.24106  0.077460667  0.081164511            4 
  253000    1.1554623    -3.337226    235.75166  0.077652061  0.081133016            8 
  254000    1.1255053   -3.3385025    234.57124  0.076959067  0.081097679            1 
  255000    1.1386304    -3.309723    237.74907  0.077695774   0.08106504            2 
  256000    1.1502001   -3.3303154    237.08643  0.077176573  0.081034035            1 
  257000    1.1531968   -3.3152665     239.9332  0.077799351   0.08100403            3 
  258000    1.1716422   -3.3741577    238.02021  0.076879913  0.080972826            4 
  259000    1.1389168   -3.3453686    239.63377  0.077102241  0.080939442            1 
  260000    1.1641297   -3.3427206     240.7204  0.077153973  0.080905663            2 
  261000    1.1620326   -3.3731676    241.06731   0.07696913  0.080872056            2 
  262000    1.1535137   -3.3339656    243.26089  0.077373058  0.080837559            5 
  263000    1.1630567    -3.354505    242.20573  0.076744528  0.080800098            1 
  264000    1.1312084   -3.3452934      242.804  0.076642677  0.080762044            1 
  265000    1.1571708   -3.3862734    245.15345  0.077092279  0.080722751            4 
  266000    1.1416262    -3.359538    245.06744  0.076775514  0.080682114            3 
  267000    1.1465696   -3.3441135    247.28815  0.077181072  0.080647413            2 
  268000    1.1574842   -3.3603852    247.17013  0.076856383  0.080611434            2 
  269000    1.1516735   -3.3393579    249.77006  0.077376103  0.080580672            2 
  270000    1.1256027   -3.3523537    249.33225  0.076954398  0.080547259            2 
  271000    1.1522509    -3.341388     251.6842  0.077393665  0.080515697            2 
  272000    1.1311641   -3.3407275    251.89041  0.077172308  0.080484421            1 
  273000    1.1277115   -3.3249195    252.00149  0.076923533  0.080450984            3 
  274000    1.1457278   -3.3647636    252.05858  0.076660152  0.080413554            1 
  275000    1.1260896   -3.3493998    254.56973  0.077142341  0.080380373            2 
  276000    1.1298997   -3.3429958    254.48917  0.076838518  0.080346494            2 
  277000    1.1310208   -3.3696464    254.78389  0.076649786  0.080311925            2 
  278000    1.1720275   -3.3471152    256.78583  0.076974169  0.080273615            1 
  279000    1.1258058   -3.3294026    256.96404  0.076751505  0.080234924            3 
  280000    1.1552556   -3.3437078    257.14231   0.07653045  0.080192211            1 
  281000    1.1410608   -3.3900946     257.8733  0.076474881  0.080153216            1 
  282000    1.1402038   -3.3875184    259.34172  0.076637625  0.080117563            4 
  283000    1.1424222   -3.3567428    261.82938  0.077099345  0.080083666            1 
  284000    1.1528434   -3.3518527    262.05668  0.076894566  0.080054956            1 
  285000    1.1713996    -3.347279     262.2518  0.076681812  0.080025413            2 
  286000    1.1461815   -3.3539033    263.86205  0.076882882  0.079992392            3 
  287000     1.135528   -3.3823949    263.26682  0.076442167  0.079958672            2 
  288000    1.1538209   -3.3652635    263.94961   0.07637431  0.079922986            2 
  289000     1.132602   -3.3638686    265.70985  0.076617604  0.079890852            2 
  290000    1.1149949   -3.3584773    265.48553  0.076288946  0.079856619            7 
  291000     1.143563   -3.3700919    266.65729  0.076362339  0.079820464            2 
  292000     1.126246   -3.3907752    267.63645  0.076380265  0.079783432            2 
  293000    1.1553905   -3.3782259    269.91419  0.076767402  0.079749043            2 
  294000    1.1384555   -3.3870871    270.44626  0.076657103  0.079715243            1 
  295000    1.1380871    -3.374335    271.35545  0.076654082  0.079682748            2 
  296000    1.1345346   -3.3722705    271.95171  0.076562982  0.079649165            1 
  297000    1.1241566   -3.3401098    271.57825  0.076200406  0.079612439            3 
  298000     1.135506   -3.3949314    272.58947  0.076227481  0.079575638            1 
  299000    1.1406831   -3.3537952    273.92373  0.076344407  0.079538976            2 
  300000    1.1525448   -3.3692117    273.71645  0.076032347  0.079502564            1 
  301000     1.119366   -3.3745565    275.58185  0.076296193   0.07947033            3 
  302000    1.1355478    -3.369227     277.1577  0.076478393  0.079439085            2 
  303000    1.1472183    -3.380336    276.66269  0.076089849  0.079409876            3 
  304000    1.1292941   -3.3778759    278.83858  0.076436014  0.079378889            3 
  305000     1.146076   -3.3661182    280.65386  0.076681381  0.079350638            2 
  306000    1.1374493   -3.3668789    280.17437  0.076300211  0.079319622            2 
  307000    1.1265574   -3.3747055    281.51517  0.076415628   0.07928866            1 
  308000    1.1404586   -3.3585344    282.71852  0.076493105  0.079257773            3 
  309000    1.1350889   -3.3673839     283.4779  0.076450352   0.07922664            3 
  310000    1.1202998   -3.3773637    283.16819   0.07612048  0.079195452            3 
  311000    1.1412359   -3.3846361    285.23617  0.076429841  0.079165118            2 
  312000    1.1420816   -3.3908811    286.02971  0.076396823  0.079135357            1 
  313000    1.1176266   -3.3762658    286.11659  0.076175876  0.079103806            1 
  314000     1.140463    -3.376489    287.02827   0.07617523  0.079076068            2 
  315000    1.1312939   -3.3791631    288.54268  0.076334043  0.079046074            2 
  316000    1.1348697    -3.387733    288.58288   0.07610308   0.07901407            2 
  317000     1.115286   -3.3930013    289.55829  0.076119424  0.078981395            4 
  318000    1.1441624   -3.3768022     290.6875   0.07617597  0.078949576            1 
  319000    1.1472017   -3.3722148    292.73307  0.076471543  0.078916606            2 
  320000    1.1201084   -3.3697475    292.59778   0.07619734   0.07888458            2 
  321000    1.1220238   -3.3814585     292.6352  0.075969677  0.078853837            2 
  322000    1.1540055   -3.3802625    295.25641  0.076412115   0.07882379            1 
  323000    1.1203593   -3.3864036    294.19041  0.075900517  0.078793203            2 
  324000    1.1046493   -3.3689523    295.98692  0.076128324  0.078759334            2 
  325000    1.0999712   -3.3988662    295.26792  0.075709723  0.078728064            2 
  326000      1.13135   -3.3657655    298.11479  0.076205211  0.078695513            3 
  327000     1.126454   -3.3947021    297.06148   0.07570374  0.078662749            2 
  328000    1.1374132   -3.3903042    297.73736  0.075644654  0.078628989            3 
  329000    1.1284827   -3.3891789    299.33018  0.075818182  0.078596969            2 
  330000    1.1140788   -3.3843561    300.17415  0.075801554  0.078564266            2 
  331000    1.1026316   -3.3521709    299.89419  0.075502062  0.078530045            1 
  332000    1.1112399    -3.376194    302.25509  0.075867242  0.078495512            4 
  333000     1.126876   -3.3923064    302.03409  0.075584107  0.078464404            2 
  334000    1.1107224   -3.3865643    304.08726  0.075870074  0.078431764            1 
  335000    1.1085675   -3.3648181    304.16446  0.075662802  0.078398658            1 
  336000    1.1201257   -3.3899356    306.07646  0.075911821  0.078370165            1 
  337000     1.107181   -3.3915777    306.37847  0.075761244  0.078340855            2 
  338000    1.1079107   -3.3996835    308.16086  0.075976544  0.078315143            4 
  339000    1.1252596   -3.3799806    309.81686  0.076159502  0.078289662            2 
  340000    1.0893928   -3.3998055    310.35822  0.076068191  0.078265699            1 
  341000    1.1227131   -3.4111844    310.51032  0.075882286   0.07824311            2 
  342000    1.1156205   -3.4236073    311.02143  0.075784948  0.078217404            4 
  343000     1.137152   -3.3861443    312.11456  0.075829581  0.078191773            2 
  344000    1.1165045     -3.38469    314.34651  0.076149833  0.078168563            1 
  345000    1.1199832   -3.3842265    314.18769  0.075890746  0.078146755            2 
  346000    1.1229465   -3.3646307    316.99665  0.076347941  0.078125572            3 
  347000     1.108085   -3.4003079    316.97904  0.076123689  0.078103762            2 
  348000    1.1086395   -3.3937439    316.44475  0.075776999  0.078081076            1 
  349000    1.1127901   -3.4065489    318.04357  0.075941635  0.078056969            5 
  350000    1.1343614   -3.3897185    318.84592  0.075915695  0.078031011            1 
  351000    1.1038196   -3.3786511     319.6919   0.07590026  0.078005452            3 
  352000    1.1381719   -3.3950708    319.74555  0.075697336  0.077978633            5 
  353000    1.1304863   -3.4028204    321.14143  0.075812425  0.077950385            1 
  354000    1.1141475   -3.3882969    322.08536  0.075820471  0.077924958            1 
  355000     1.124386   -3.4116447    321.68608  0.075513165  0.077901198            1 
  356000    1.1142084   -3.3890527    324.28014  0.075908272  0.077877376            2 
  357000    1.1461797    -3.369806    325.02516  0.075869551  0.077853919            1 
  358000    1.1075788   -3.4047256    326.18042  0.075926541  0.077831437            2 
  359000    1.1214278   -3.3744626    325.67856  0.075598551  0.077806456            4 
  360000    1.1127034   -3.4180269    326.10286  0.075486774  0.077781748            2 
  361000    1.1271099   -3.4040128    328.15274  0.075750864  0.077751877            1 
  362000    1.1057081   -3.3952321    328.26888  0.075568342  0.077727032            2 
  363000    1.1355217   -3.3969421    328.78773  0.075479278  0.077702759            2 
  364000     1.123138   -3.3755925    330.21628  0.075598966  0.077679811            3 
  365000    1.1056772    -3.416921    333.48534  0.076138206  0.077657668            2 
  366000    1.1053572   -3.4171953    332.64682  0.075739257  0.077634982            4 
  367000    1.1212606   -3.3876086    333.87055  0.075810752  0.077614189            5 
  368000    1.1095342   -3.3975009    333.33924  0.075484428   0.07759241            2 
  369000    1.0717038   -3.4037081    334.14232  0.075461228  0.077569399            2 
  370000     1.109923   -3.4037015     336.7391  0.075842141  0.077547154            3 
  371000    1.1237217   -3.3897242    335.57324   0.07537584  0.077523399            3 
  372000    1.0941072   -3.3987778    335.31222  0.075114744   0.07749777            6 
  373000    1.1126474   -3.4139934    336.72148  0.075228213  0.077469405            1 
  374000    1.0899375   -3.4215519    338.11988  0.075338654  0.077440542            1 
  375000    1.1142836   -3.4165787    338.71974  0.075271054  0.077414128            2 
  376000    1.0985946   -3.4139518    340.90208   0.07555454  0.077388148            2 
  377000    1.1129401   -3.4104393    340.24158   0.07520813  0.077360752            2 
  378000    1.1392315   -3.4082442    342.05522  0.075408999   0.07733431            2 
  379000    1.0725802   -3.3778253    342.33585  0.075271736  0.077307667            1 
  380000    1.1085115   -3.4023277    343.54687  0.075339225  0.077280981            1 
  381000    1.0954902   -3.4092011     344.4846  0.075346587  0.077255553            5 
  382000    1.1161889   -3.3968846    345.29175  0.075325426   0.07722988            3 
  383000    1.1046019   -3.3908215    344.09431  0.074868213  0.077204794            2 
  384000    1.0937871   -3.4188582    346.10968  0.075110608  0.077176544            3 
  385000    1.0847124   -3.4601279    345.06722  0.074689874  0.077147557            2 
  386000     1.068313   -3.4147855    348.69642  0.075279884  0.077119559            1 
  387000    1.0839816   -3.4112741     349.0274  0.075156633  0.077091674            2 
  388000    1.0784647   -3.4091092    348.81154  0.074916567  0.077063532            4 
  389000    1.0954989   -3.4186504    349.18955   0.07480496  0.077034221            1 
  390000    1.0875197   -3.4166512    351.23478  0.075050167  0.077006349            2 
  391000    1.0992778   -3.4276447     351.9392  0.075008354  0.076979704            1 
  392000    1.0947467   -3.4334067    352.16817  0.074865682  0.076955801            2 
  393000    1.1040607   -3.4127603    352.76214  0.074801132  0.076930229            2 
  394000    1.1040545   -3.4396302     355.0544  0.075096108   0.07690498            2 
  395000    1.1101578   -3.3900976    355.74861  0.075052449  0.076880912            2 
  396000     1.095448   -3.4159901     358.6271  0.075468665  0.076858938            3 
  397000    1.0971685   -3.4192098    357.16499   0.07497166  0.076836507            2 
  398000    1.0702951   -3.4153344    357.96381  0.074950547  0.076814179            1 
  399000    1.0681378   -3.4215175    357.83768  0.074736358   0.07679059            1 
  400000    1.1026997    -3.433919    360.90713  0.075188986  0.076767134            2 
  401000    1.1197759   -3.4197256    361.21016  0.075064456  0.076743145            2 
  402000    1.0960184   -3.4259493     361.0848  0.074851742  0.076719979            1 
  403000     1.079381   -3.4193971    363.93989  0.075256388  0.076697979            1 
  404000    1.0954192   -3.4050971    362.73973  0.074822552    0.0766764            5 
  405000    1.0913736   -3.4572648    363.97316  0.074891597  0.076652857            2 
  406000    1.1017884   -3.4174951    366.55414  0.075236892  0.076630556            2 
  407000    1.0713977   -3.3867161    367.58529  0.075263164  0.076610915            5 
  408000    1.0939106   -3.3979903    367.86799  0.075136436  0.076589813            2 
  409000    1.0974196   -3.4605679      368.043  0.074988387  0.076566465            2 
  410000     1.066583   -3.4221301    368.43955  0.074886088  0.076544115            2 
  411000    1.0784643   -3.4552723    369.37239  0.074893023  0.076522575            2 
  412000    1.0945899   -3.4297089    370.81219  0.075002465  0.076500066            2 
  413000    1.0947516   -3.4580814    370.46429  0.074750665  0.076476643            1 
  414000    1.1050168   -3.4623654     371.1494  0.074708012  0.076452163            3 
  415000    1.0758826   -3.4192885    372.89529  0.074878573  0.076429007            2 
  416000    1.0823038   -3.4219054    373.00345  0.074720243  0.076405681            2 
  417000    1.0944462   -3.4356483    372.78902  0.074498205  0.076382515            2 
  418000    1.0927764   -3.4213975     374.0739  0.074576136  0.076360977            1 
  419000      1.08779   -3.4381727     375.5505  0.074691827  0.076340722            3 
  420000     1.072289   -3.4163001    378.23319  0.075046267  0.076322211            6 
  421000    1.1008982   -3.4297711    379.08494  0.075036608  0.076303828            9 
  422000    1.0870683   -3.4373997    379.75867  0.074991839  0.076284165            2 
  423000    1.0505413   -3.4111425    380.91612  0.075042577  0.076265757            1 
  424000     1.125732   -3.4197384     381.1214  0.074905936   0.07624814            3 
  425000    1.0976779   -3.4586761    381.60525  0.074824559  0.076231038            2 
  426000    1.0824867   -3.4481927    382.69405  0.074861903  0.076213007            2 
  427000    1.0544536   -3.4422083    383.37027  0.074818554  0.076194892            2 
  428000    1.0594601   -3.4323896    384.00231  0.074766805  0.076176778            4 
  429000    1.0607382   -3.4272376    386.10222  0.075000432   0.07616035            3 
  430000    1.0629033   -3.4144502    387.21554  0.075041771  0.076144452            5 
  431000    1.0904199   -3.4492752    387.64443  0.074950586  0.076129733            2 
  432000    1.0800529   -3.4515935    387.34528  0.074719383  0.076112684            3 
  433000    1.0829655   -3.4521027    388.24425  0.074719832  0.076095432            4 
  434000     1.079427   -3.4081572    390.23371  0.074929668  0.076077195            2 
  435000    1.1014237   -3.4001587    390.85195  0.074875852  0.076059729            4 
  436000    1.0907779   -3.4314022    391.28556  0.074786995  0.076041796            5 
  437000    1.0850233   -3.4617629    390.96534  0.074554795  0.076022089            2 
  438000    1.0736923   -3.4550018    389.38074  0.074083093  0.076001142            1 
  439000    1.0904114   -3.4303454    392.71963  0.074548145  0.075978901            1 
  440000    1.0893509   -3.4174639    394.08395  0.074637111  0.075958883            3 
  441000    1.0699716   -3.4374944    394.74487  0.074592758  0.075939256            1 
  442000    1.0838648   -3.4637033    394.83298  0.074440607  0.075919212            3 
  443000    1.0728053   -3.4561617    396.57405  0.074600085  0.075899027            4 
  444000    1.0834366   -3.4183573    397.33585  0.074575046  0.075879202            1 
  445000    1.0897678   -3.4618892    397.30783  0.074402215  0.075857378            5 
  446000    1.0702578   -3.4790565    394.94722  0.073794323  0.075833737            4 
  447000    1.0544929   -3.4676903    396.42322  0.073904403  0.075808516            2 
  448000    1.0763252   -3.4563465    399.21943  0.074259567   0.07578623            2 
  449000    1.0871987   -3.4258971    401.18107  0.074458253  0.075765053            2 
  450000    1.0759002   -3.4891837     400.8217  0.074226241  0.075744885            2 
  451000    1.0661717   -3.4425797    401.47105  0.074181643  0.075723642            2 
  452000    1.0433648   -3.4466472    403.12508  0.074322471  0.075703129            2 
  453000    1.0690953   -3.4505001    403.42344  0.074213289  0.075684139            2 
  454000    1.0667399   -3.4274653    406.47922  0.074610724  0.075663202            5 
  455000    1.0620301   -3.4582521    405.61489  0.074288441  0.075642227            5 
  456000    1.0711235    -3.439368    406.39412  0.074267931   0.07562139            3 
  457000     1.044182   -3.4496346    407.71651  0.074346555  0.075600178            1 
  458000    1.0833728   -3.4414384    406.90965  0.074037419  0.075578816            2 
  459000    1.0879847   -3.4351004    407.55581   0.07399343  0.075556176            3 
  460000    1.0741606     -3.45997     410.4243  0.074352227  0.075535028            1 
  461000    1.0897649   -3.4440813    409.55572  0.074033934  0.075513339            2 
  462000    1.0797356   -3.4538939    410.39548  0.074025159   0.07549221            2 
  463000    1.0767913   -3.4441673    412.78554  0.074295454  0.075470724            3 
  464000    1.0441835   -3.4509107    411.52189  0.073908386  0.075448992            3 
  465000    1.0401298   -3.4695773    411.48644   0.07374309    0.0754272            1 
  466000    1.0628862   -3.4712125    411.40092   0.07356955  0.075404763            4 
  467000     1.071101   -3.4560364    415.44477  0.074133614  0.075381813            2 
  468000    1.0489431   -3.4500621    414.07603  0.073731487  0.075359728            3 
  469000    1.0531811   -3.4843796    414.54212  0.073657093  0.075335524            2 
  470000    1.0589591   -3.4685112    417.80004  0.074078021  0.075311896            2 
  471000    1.0828324   -3.4445534    416.34683  0.073663629  0.075288328            8 
  472000    1.0801601   -3.4472177    418.66824  0.073917416  0.075266363            3 
  473000     1.078474   -3.4637517    418.72556  0.073771241  0.075242787            1 
  474000    1.0926058    -3.459544    418.53052  0.073581315  0.075220866            3 
  475000    1.0612228   -3.4391504    420.65395  0.073798938  0.075198193            3 
  476000    1.0619004   -3.4444697    421.21111  0.073741441  0.075175016            3 
  477000    1.0451109   -3.4462526    423.04117  0.073906563  0.075151546            3 
  478000    1.0632767    -3.476579    423.30219  0.073797453  0.075129017            1 
  479000    1.0575382   -3.4590746    422.95141   0.07358236  0.075105765            1 
  480000    1.0861102   -3.4469906    424.64568  0.073723208  0.075082841            1 
  481000    1.0619559   -3.4509926    423.99496  0.073457201  0.075059566            3 
  482000    1.0353169   -3.4634893    424.27472  0.073353168  0.075035612            3 
  483000    1.0491425   -3.4675414     425.7156  0.073449896  0.075009321            3 
  484000    1.0569969   -3.4518632    426.16301  0.073375175  0.074981164            2 
  485000    1.0847524   -3.4696292    428.86939  0.073688899  0.074955883            6 
  486000    1.0571176   -3.4820453    425.61935  0.072979998  0.074929792            2 
  487000    1.0707351   -3.4801074    428.16787  0.073266234  0.074902421            2 
  488000    1.0655397   -3.4635666    429.87423  0.073407484  0.074876239            2 
  489000    1.0471865   -3.5177113    428.53001   0.07302829  0.074849047            3 
  490000    1.0494328   -3.4631265    428.45395  0.072866318   0.07482182            1 
  491000    1.0402245   -3.4621805    428.88011  0.072790243  0.074794883            2 
  492000    1.0821536   -3.4777075    430.58569   0.07293118  0.074767249            3 
  493000    1.0593301   -3.4824563    430.43055  0.072757023  0.074739009            3 
  494000    1.0669481   -3.4807251    431.39832  0.072772995  0.074712676            2 
  495000    1.0414955   -3.4852528    433.13742  0.072918758  0.074684217            3 
  496000     1.063578   -3.4945715    431.95694  0.072573411  0.074656342            4 
  497000    1.0628597   -3.4338939    435.34792  0.072995962  0.074629773            5 
  498000    1.0615137   -3.5039249     434.6124  0.072726304  0.074602971            2 
  499000     1.049019   -3.4806101    434.25914  0.072521567  0.074574386            2 
  500000    1.0483609   -3.4689357     436.6081  0.072768017  0.074545349            2 
  501000    1.0359324   -3.4859704    438.71385  0.072973028  0.074517086            1 
  502000    1.0594867   -3.5006707    438.01799   0.07271215  0.074489375            1 
  503000    1.0789159   -3.4982581    439.33749  0.072786198  0.074461854            3 
  504000    1.0489249      -3.4662    440.61135  0.072852406   0.07443302            3 
  505000    1.0502976   -3.4584164    440.49208  0.072688462  0.074405127            4 
  506000       1.0606   -3.4798104    441.72395  0.072747687  0.074376508            3 
  507000    1.0527454   -3.4896858    441.28589  0.072532198  0.074347051            2 
  508000    1.0571905   -3.4787144    443.34131  0.072726593  0.074318749            2 
  509000    1.0564275    -3.483062    443.62793  0.072630636  0.074290235            1 
  510000    1.0503358   -3.4872181    444.52293  0.072634466     0.074261            3 
  511000    1.0617017   -3.5275576    444.23857   0.07244595  0.074232969            2 
  512000    1.0398747   -3.4957182    445.55725  0.072519084  0.074205462            2 
  513000    1.0526956   -3.4373104    446.35122  0.072506696  0.074179437            1 
  514000    1.0605464   -3.4536628    447.09788  0.072486685  0.074152487            2 
  515000    1.0345374   -3.5006275    447.50839  0.072412361  0.074125293            2 
  516000    1.0370224   -3.4954043     447.7655   0.07231355   0.07409819            1 
  517000    1.0822498   -3.4597485    450.10524  0.072550813    0.0740725            2 
  518000    1.0412095   -3.4679431    449.69567  0.072344863  0.074045737            2 
  519000    1.0365154    -3.521054    452.36004  0.072633276  0.074019601            2 
  520000    1.0286475   -3.4986301    453.32143  0.072647664  0.073993748            5 
  521000    1.0447971   -3.5004201    453.72086  0.072572114  0.073969858            2 
  522000    1.0538117   -3.5156186    454.28007  0.072522361  0.073945744            2 
  523000    1.0385438    -3.505969    454.17955  0.072367679  0.073921298            3 
  524000    1.0364941    -3.472694    458.10562  0.072853947  0.073897925            6 
  525000    1.0388989   -3.5017174    457.84952  0.072674527  0.073873917            2 
  526000     1.052506    -3.494338    456.69956  0.072354177  0.073850742            3 
  527000    1.0353446   -3.4864666    458.85368  0.072557507  0.073827521            2 
  528000    1.0676743   -3.4865209    460.29475   0.07264753  0.073804408            1 
  529000    1.0369066   -3.4743594    460.28086  0.072508012  0.073781829            4 
  530000    1.0546859   -3.4958266     462.7232   0.07275522  0.073760051            2 
  531000    1.0588956   -3.5050532     462.0313   0.07250962  0.073738633            3 
  532000     1.041699   -3.4669345    463.31502  0.072574408  0.073716087            3 
  533000    1.0419328   -3.4977478    463.54146  0.072473649  0.073694084            5 
  534000    1.0457587   -3.4956386    463.30742  0.072301408  0.073672332            3 
  535000    1.0395092    -3.510691    466.49011  0.072662012  0.073649937            1 
  536000    1.0586825   -3.4849485    465.51519  0.072374874  0.073628081            3 
  537000    1.0494658   -3.4897307    467.27328  0.072512923  0.073605377            4 
  538000    1.0185154   -3.4753059    468.15721  0.072515057  0.073583093            2 
  539000    1.0629101   -3.5069639    469.48087  0.072585168  0.073561179            4 
  540000    1.0424098   -3.4783969    469.88168  0.072512605  0.073539473            2 
  541000    1.0475065   -3.5279241    468.82482  0.072215776  0.073516647            3 
  542000    1.0441864   -3.4879904    472.12585  0.072590076  0.073494572            2 
  543000     1.031226   -3.4785192    470.88209  0.072265514  0.073473135            6 
  544000    1.0113185   -3.4992468    472.78074   0.07242352  0.073451691            2 
  545000    1.0407715   -3.4737015    474.17015  0.072503081  0.073429165            3 
  546000    1.0492976   -3.4963531    473.01838  0.072194503  0.073406971            5 
  547000    1.0145827   -3.5165169    471.69579  0.071861028  0.073385173            2 
  548000    1.0402965   -3.5068779    476.59706  0.072475222  0.073363699            2 
  549000    1.0297009   -3.5111945    476.17695   0.07227944  0.073342573            2 
  550000    1.0132823   -3.5067222    478.07439  0.072435514   0.07332231            2 
  551000     1.048092   -3.5432281    477.97637  0.072289227   0.07330268            4 
  552000    1.0510566   -3.4962999    480.32596  0.072512977  0.073281902            2 
  553000    1.0315517   -3.5086833    480.55253  0.072415993  0.073262092            2 
  554000    1.0305368   -3.5346908    480.64747   0.07229956  0.073240746            3 
  555000    1.0331909   -3.5244424    479.73831  0.072032779  0.073220133            7 
  556000    1.0266295   -3.5108524    484.36146  0.072596143  0.073199617            2 
  557000      1.05583   -3.4907637     481.7948  0.072081808  0.073180003            3 
  558000    1.0439883   -3.4803319    484.75936  0.072395364  0.073160974            3 
  559000    1.0306587   -3.4964928    484.22796  0.072186636   0.07314029            3 
  560000    1.0613301   -3.4776884    485.78536  0.072289488  0.073121022            2 
  561000    1.0246233   -3.4938005    488.92191  0.072626546  0.073101032            2 
  562000    1.0183582   -3.5251095    484.76383  0.071880758  0.073080552            2 
  563000    1.0353856   -3.4760988     488.2199  0.072264639   0.07306059            3 
  564000     1.014041   -3.5302852    486.96765  0.071951485   0.07303969            1 
  565000    1.0447948    -3.506144     489.7071  0.072228186  0.073018293            3 
  566000    1.0072935   -3.5323179    489.13089  0.072015738  0.072997556            3 
  567000    1.0505362   -3.5479436    489.52594  0.071946787  0.072977511            1 
  568000    1.0273011   -3.5261391     491.5864  0.072122418  0.072957574            2 
  569000    1.0257386   -3.4634955     491.6863  0.072010295  0.072938529            2 
  570000    1.0271223   -3.5530357    490.29515  0.071680577  0.072918499            2 
  571000    1.0255126   -3.5464933     493.5924  0.072036252  0.072898102            4 
  572000    1.0323678   -3.5060531    492.05702  0.071686628  0.072877073            3 
  573000     1.024139   -3.5252319    495.28377  0.072030799  0.072856176            3 
  574000    1.0252393   -3.5384258    495.18067  0.071890341  0.072835947            3 
  575000    1.0236028   -3.5455371    495.48357  0.071809212  0.072815557            2 
  576000    1.0166512   -3.4982606    498.28431  0.072089743  0.072795896            3 
  577000    1.0253692   -3.5038346    497.67975  0.071877491  0.072776332            3 
  578000    1.0164378   -3.5336837    497.05103  0.071662491  0.072756393            1 
  579000    1.0397793   -3.5203095    498.07156  0.071685602  0.072736843            5 
  580000    1.0188419   -3.4830372    501.45218  0.072047727  0.072717555            3 
  581000    1.0230666   -3.5385201    500.33492  0.071763471  0.072697833            3 
  582000   0.99980851    -3.504294    503.49523  0.072092673  0.072678354            2 
  583000    1.0183427   -3.4962183     502.3579  0.071806446  0.072658935            1 
  584000    1.0267487   -3.5260996    501.06839  0.071499485  0.072638926            3 
  585000    1.0215066   -3.5082361    504.66964  0.071890262  0.072619678            3 
  586000    1.0018378    -3.548638    502.93053  0.071520269  0.072600066            4 
  587000    1.0215331   -3.5433643    506.26622  0.071871979  0.072579615            3 
  588000    1.0217225   -3.5444372    505.75199  0.071676869   0.07255874            3 
  589000    1.0081448   -3.5082775    507.39623  0.071787808  0.072539686            3 
  590000      1.00924   -3.5339112    508.27095  0.071789683  0.072519301            3 
  591000   0.99959473   -3.5379881     506.5349   0.07142342  0.072498725            5 
  592000    1.0112624   -3.5296988    509.05367  0.071657329  0.072477902            2 
  593000    1.0277291   -3.5411699    507.84609  0.071366792  0.072457184            4 
  594000     1.026216   -3.5222239    509.23855  0.071441996  0.072436139            2 
  595000    1.0210727    -3.551027    508.29944  0.071190398  0.072413621            3 
  596000    1.0345621   -3.5465678    510.80153  0.071420796  0.072390927            3 
  597000   0.99972973   -3.5269758     509.4875  0.071117741  0.072368592            4 
  598000    1.0571011    -3.508346    513.17238  0.071512316  0.072345646            2 
  599000    1.0046999   -3.5390393    509.46928  0.070877751  0.072322892            3 
  600000    1.0216545   -3.5185376    513.94906  0.071381813   0.07230086            2 
  601000    1.0209844   -3.5457766    513.62895  0.071218657  0.072279047            3 
  602000    1.0232831   -3.5305973    513.84655  0.071130475   0.07225756            4 
  603000    1.0152208   -3.5410444    513.60458  0.070979074   0.07223606            3 
  604000     1.012618   -3.5828425    514.16982  0.070939544  0.072212532            2 
  605000    1.0072708   -3.5211675    515.66316  0.071027984   0.07218882            6 
  606000    1.0174109   -3.5565301    515.75363  0.070923216  0.072164136            1 
  607000   0.99374019   -3.5386449    518.39507   0.07116901  0.072141691            2 
  608000    1.0128789    -3.551256    518.24891  0.071031922  0.072119419            4 
  609000    1.0179058   -3.5251556    519.31379  0.071061001  0.072097102            3 
  610000     1.008407   -3.5318446    521.62931  0.071260834  0.072074854            4 
  611000    1.0052602    -3.532519    519.92748  0.070912095  0.072053069            3 
  612000    1.0151408   -3.5348061    522.25504  0.071113159  0.072030592            2 
  613000    1.0163828   -3.5399804     520.8271  0.070803031  0.072008377            3 
  614000   0.99751899   -3.5556192    523.30795  0.071024424  0.071985898            3 
  615000   0.99975207   -3.5594646    522.71873  0.070829096  0.071964363            3 
  616000    1.0040811   -3.5735682    525.01201  0.071024352  0.071942627            2 
  617000   0.98828404   -3.5720404    522.66987  0.070592905  0.071919678            3 
  618000   0.99606048     -3.54117    526.23615  0.070959567  0.071897542            1 
  619000    1.0145734    -3.550133    528.60412  0.071163721  0.071875386            5 
  620000    1.0080799   -3.5588041    527.74199  0.070933064  0.071853124            3 
  621000     1.028076   -3.5334467    526.46825  0.070647914  0.071830151            4 
  622000   0.99723528   -3.5457096     528.1216  0.070755841  0.071807384            2 
  623000   0.99619613   -3.5511737     529.5089  0.070827836  0.071785092            3 
  624000   0.98142228   -3.5507568     529.5528  0.070720193  0.071761689            2 
  625000    1.0018598   -3.5267704     529.8487  0.070646493  0.071738065            3 
  626000    1.0081757   -3.4804108    531.29074  0.070725605  0.071714023            4 
  627000    1.0032766   -3.5381342    529.38868  0.070360006  0.071690247            5 
  628000    1.0068996   -3.5587581     532.3366  0.070639145  0.071666864            2 
  629000   0.98157911   -3.5470834    533.06967  0.070623962  0.071643086            3 
  630000    1.0116344    -3.529416     534.6572  0.070721852  0.071619964            1 
  631000   0.98239767   -3.5745243    533.27067   0.07042666  0.071596433            4 
  632000    1.0013202   -3.5640654    534.30382  0.070451453  0.071573562            3 
  633000    1.0163621   -3.5212579    538.04723  0.070832969   0.07155143            3 
  634000   0.99557742   -3.5264746     536.1438  0.070471057  0.071529051            4 
  635000     1.033626   -3.5415447    539.45713  0.070794899  0.071506223            2 
  636000    1.0212145   -3.5518332    537.72484  0.070456608  0.071482834            3 
  637000   0.99301993   -3.5498196    541.26584  0.070809241  0.071459961            5 
  638000    0.9830044   -3.5772826    541.28378  0.070700598  0.071437116            1 
  639000    1.0197942   -3.5746758    540.67964  0.070511168  0.071415193            5 
  640000   0.97045602   -3.5679259    539.99194   0.07031145   0.07139353            6 
  641000    1.0017552   -3.5807567    542.19687  0.070488412  0.071372359            3 
  642000    1.0230235   -3.5740197    542.14806  0.070372281  0.071350609            2 
  643000    0.9807041   -3.5484955    544.66505  0.070589042  0.071329073            1 
  644000   0.99637965   -3.5639759    544.33705  0.070436989  0.071308108            2 
  645000   0.99644367   -3.5834616    545.94602  0.070535661  0.071285672            2 
  646000   0.99026533   -3.5620415    545.19734  0.070329895  0.071263579            2 
  647000   0.98507367   -3.5572814    547.26842  0.070487947  0.071241038            2 
  648000    1.0105825   -3.5595689    546.40976  0.070268745  0.071218249            5 
  649000    1.0112918   -3.5757321    546.42954  0.070163012  0.071195656            3 
  650000    1.0055228    -3.549958    545.43219  0.069927204  0.071171605            3 
  651000   0.97629498   -3.5688642    549.74555  0.070371935  0.071148472            2 
  652000   0.98711377    -3.558464     547.8698  0.070024259  0.071124903            2 
  653000      1.00905   -3.5366017    549.70134  0.070150757  0.071101965            4 
  654000    1.0031225   -3.5531842    551.12104  0.070224394  0.071079627            3 
  655000    1.0023736   -3.5833407    553.15908  0.070376474   0.07105762            3 
  656000    0.9818049   -3.5598505    551.78088  0.070094115  0.071035815            2 
  657000   0.99431259    -3.570838    550.62469  0.069840777    0.0710145            3 
  658000   0.97720809   -3.5792446     552.7152  0.069999392  0.070993411            4 
  659000   0.98997988   -3.5687923    555.14674  0.070200649   0.07097313            2 
  660000    1.0036696   -3.5826733    556.52389  0.070268167  0.070953616            2 
  661000   0.98435188   -3.5501604    557.05565  0.070228902   0.07093346            4 
  662000    0.9839909   -3.6017116    556.43377  0.070044533  0.070914246            3 
  663000   0.98469554   -3.5759177    557.95509  0.070130102  0.070894859            2 
  664000    1.0017027   -3.5695459    559.76044  0.070251059  0.070875884            3 
  665000   0.98122355   -3.5498982    561.73064  0.070392311  0.070857118            4 
  666000   0.99506689   -3.6012656    560.18399  0.070093092  0.070838138            2 
  667000    0.9873332   -3.5828059    561.65947  0.070172348  0.070819268            3 
  668000   0.98085605   -3.5966588    562.06108    0.0701174  0.070800265            2 
  669000   0.99205159   -3.5522234    563.35048  0.070173204  0.070780569            2 
  670000    0.9869584   -3.5736159    563.33567  0.070066625  0.070760977            2 
  671000   0.97008623   -3.6031441     563.1576   0.06994009  0.070740792            2 
  672000   0.96701564   -3.5816978    565.86628   0.07017191  0.070721431            2 
  673000   0.98722489   -3.5738859    564.82491  0.069938696  0.070700943            4 
  674000   0.97567422   -3.5738985    565.65849  0.069937993  0.070681621            2 
  675000   0.96123043   -3.5669657    568.54093  0.070190238   0.07066208            3 
  676000    1.0020059   -3.5811579    569.00926  0.070144139  0.070643054            5 
  677000   0.97083455   -3.5516675    570.38213  0.070209519  0.070623424            2 
  678000   0.99590324    -3.567981    569.75345  0.070028693   0.07060409            2 
  679000   0.97837502   -3.5627966     572.4387  0.070255118  0.070584199            3 
  680000   0.97540147   -3.5711752    570.18619  0.069875758  0.070564628            3 
  681000   0.97771814   -3.5996526    572.30806  0.070032802  0.070544416            2 
  682000   0.98082702   -3.5861193    570.84487  0.069751329  0.070523659            6 
  683000   0.96450379   -3.5801603    570.07054  0.069554727  0.070503132            3 
  684000    0.9786091   -3.5857233    574.66168  0.070012388  0.070483082            2 
  685000   0.97305293   -3.5896306    573.75847  0.069800301   0.07046388            2 
  686000    1.0038097   -3.5805112    574.09734  0.069739715  0.070444285            2 
  687000    0.9809636   -3.5887482    576.10116  0.069881266  0.070424017            3 
  688000   0.99138155   -3.5773175    576.57348  0.069836904   0.07040438            3 
  689000    1.0185123   -3.5600513    577.33492   0.06982764  0.070384658            4 
  690000   0.97891394   -3.6125677    575.17696  0.069465817  0.070364804            2 
  691000   0.95651898   -3.5808251    579.53557  0.069890927  0.070344535            3 
  692000    0.9877305    -3.573085    579.80709  0.069822627  0.070325595            4 
  693000    0.9884045   -3.5905184    577.45068  0.069438514  0.070307234            6 
  694000   0.96847766   -3.5929026    581.10736  0.069777541  0.070287194            4 
  695000   0.97359359   -3.6018088    580.16889  0.069564616  0.070267391            4 
  696000   0.97562733   -3.5673187    583.10936  0.069816734  0.070248053            1 
  697000   0.97543907    -3.610688    583.36364  0.069746968  0.070229542            5 
  698000   0.98540503   -3.5932276    583.33174  0.069643236  0.070210223            4 
  699000   0.94888464   -3.5888091    584.58562  0.069693088   0.07019181            4 
  700000   0.97292011   -3.5774726    584.56617   0.06959121  0.070172569            2 
  701000   0.99315311   -3.5937514    586.97972  0.069778853  0.070153313            6 
  702000   0.96251088   -3.5836305    583.93177  0.069317636  0.070133421            5 
  703000   0.96423352   -3.5946467    583.92949  0.069218764  0.070112853            3 
  704000   0.95690363   -3.6055932    586.96967  0.069480312  0.070093259            1 
  705000   0.98745712   -3.6149144    588.68876   0.06958496  0.070072771            4 
  706000   0.96648854   -3.5878281    590.01474   0.06964291  0.070053319            3 
  707000   0.96684086   -3.5900428    589.92245  0.069533528   0.07003307            2 
  708000   0.95653392   -3.5962929    591.74097  0.069649361  0.070013517            3 
  709000    0.9539709   -3.5841772    591.17637  0.069484763  0.069993917            2 
  710000    0.9626214   -3.6005318    590.07539  0.069257675  0.069974081            2 
  711000   0.95460249   -3.5893114    590.45092   0.06920428  0.069953855            4 
  712000   0.95398454     -3.59547    591.07471  0.069180093  0.069933243            3 
  713000   0.99259614   -3.6175795    592.87355  0.069293308  0.069912488            3 
  714000   0.94394031   -3.5867272    594.03326  0.069331612  0.069891771            6 
  715000   0.96881441   -3.5849611    594.82316  0.069326709  0.069871204            3 
  716000   0.97451572   -3.6203564    592.70408   0.06898325  0.069850763            5 
  717000   0.96324721   -3.6217987    595.17268  0.069173951  0.069830384            1 
  718000   0.98340535   -3.6244515    592.51378  0.068769009  0.069808527            2 
  719000   0.97085497    -3.598669     596.7996  0.069170098  0.069786979            1 
  720000   0.95200539   -3.6258361    594.76503  0.068838545  0.069765018            3 
  721000    0.9540463    -3.588992    596.61481  0.068956866  0.069742764            2 
  722000   0.96174735   -3.6151263    598.89866  0.069124961  0.069720519            5 
  723000   0.96723653   -3.6261854    595.58834  0.068647803  0.069697618            1 
  724000   0.95599999    -3.619576    597.62791  0.068787742  0.069674051            2 
  725000    0.9564912    -3.582406    597.82276   0.06871526  0.069651409            3 
  726000   0.96872528   -3.6159241    597.00869  0.068527168  0.069628554            2 
  727000   0.95764711   -3.5948869    598.39345  0.068591638  0.069605021            3 
  728000   0.97384769   -3.6016645    599.51388  0.068625673  0.069581332            2 
  729000    0.9537398   -3.6112756    599.05387  0.068478952  0.069558187            2 
  730000   0.98308324   -3.6100335    601.33002  0.068644979  0.069534646            3 
  731000   0.94737349   -3.6039514     599.0737  0.068293856  0.069510977            3 
  732000   0.95524433   -3.6138256    602.46502  0.068586637  0.069486972            6 
  733000   0.95996136   -3.6133542    602.75535  0.068526075  0.069463635            3 
  734000   0.96389822   -3.6253838     603.7605  0.068546833  0.069439954            2 
  735000   0.96105334   -3.6158341    601.75022  0.068225649  0.069416129            4 
  736000   0.97090709    -3.608861    604.10637  0.068399724   0.06939213            4 
  737000   0.96637466   -3.6311318    602.50504  0.068125853  0.069367554            3 
  738000   0.95997755   -3.5944228    604.93165  0.068307548  0.069343621            2 
  739000   0.94576597   -3.6214612    606.24984  0.068363762  0.069320012            3 
  740000   0.95792501   -3.6461199    606.52127  0.068301945  0.069296035            4 
  741000    0.9785053   -3.6035276    607.69693  0.068341984    0.0692717            3 
  742000   0.98558304   -3.6374419    607.02413  0.068174318  0.069247834            4 
  743000   0.95632547   -3.6476057    606.13699  0.067983063  0.069223665            7 
  744000   0.95234748   -3.6205618    609.26365  0.068241896  0.069199507            2 
  745000   0.96492154   -3.6042434    612.14683    0.0684728  0.069175397            6 
  746000   0.98285556   -3.6099114    610.81613  0.068232365  0.069151251            2 
  747000   0.95505486   -3.6438832     607.9375   0.06781989  0.069127874            3 
  748000   0.95926828   -3.6208647     611.1889  0.068091455  0.069103515            6 
  749000   0.94507642    -3.601663    614.47433   0.06836608  0.069079377            4 
  750000    0.9443576   -3.6137008    610.55403  0.067839337  0.069055424            7 
  751000   0.97165377   -3.6229628    611.82617  0.067890165   0.06903074            2 
  752000   0.94319142   -3.6174078     612.0365  0.067823194  0.069005464            5 
  753000   0.95214265   -3.5813233    616.57396  0.068235276  0.068981477            3 
  754000   0.93536967   -3.6413251    611.90702  0.067628981  0.068956458            2 
  755000   0.94334184   -3.6283808    614.42947  0.067817822  0.068930546            3 
  756000    0.9484467   -3.6346994    615.02581   0.06779385  0.068904288            3 
  757000    0.9755255   -3.6113022    614.59383   0.06765674  0.068877875            3 
  758000     0.954244   -3.6279362    614.28055  0.067533042  0.068850713            2 
  759000   0.94531588   -3.6601214    612.86799  0.067288975  0.068823866            5 
  760000   0.95672184   -3.6270986    615.41866  0.067480116  0.068796437            3 
  761000   0.93206954   -3.6306461    613.77706   0.06721168   0.06876891            3 
  762000   0.94100362   -3.6453998    616.28045   0.06739725  0.068741269            2 
  763000    0.9500166   -3.5874666    616.84502  0.067370579  0.068714094            3 
  764000   0.92887333   -3.6350495    618.10825  0.067420184  0.068686007            2 
  765000   0.95501335   -3.6602438    617.14321  0.067226929  0.068658539            3 
  766000   0.95458435   -3.6339839    617.31415  0.067157762  0.068630785            3 
  767000   0.95021197   -3.6133644    618.42875  0.067191302  0.068602604            2 
  768000   0.95190624   -3.6470434      620.069  0.067281793  0.068574977            3 
  769000   0.93482301   -3.6245754    621.10952  0.067307057  0.068547023            2 
  770000    0.9569195   -3.6290143    620.46057  0.067149412  0.068520115            2 
  771000   0.95690226   -3.6575178    622.86708  0.067322425  0.068493482            2 
  772000   0.95173213   -3.6402467     621.5749  0.067095737  0.068466388            4 
  773000   0.93311749   -3.6445629    624.80303  0.067356946  0.068439792            2 
  774000   0.94327187   -3.6621218    621.64077  0.066929454  0.068413343            2 
  775000   0.92894748   -3.6510522    624.62203   0.06716366  0.068387376            5 
  776000   0.94726818   -3.6319666    627.23939  0.067358181  0.068361482            2 
  777000   0.94291842   -3.6354892    624.15982  0.066941208  0.068335514            4 
  778000   0.95163493   -3.6564454    625.08011  0.066953739  0.068308645            3 
  779000   0.94200785   -3.6575659    627.39878   0.06711583  0.068281706            8 
  780000   0.93468067   -3.6465242    628.00288  0.067094325  0.068254525            6 
  781000   0.95578505   -3.6453529    628.80576  0.067094084  0.068228449            2 
  782000    0.9393076    -3.645987    629.29261  0.067060168  0.068202076            3 
  783000   0.94975414   -3.6237773    627.94248  0.066830831  0.068175877            3 
  784000   0.95438714   -3.6605692    626.36686   0.06657811  0.068148793            5 
  785000   0.93908858   -3.6214377    632.35237  0.067128702  0.068121633            2 
  786000   0.94567607   -3.6583774    628.34191  0.066618099  0.068094232            2 
  787000    0.9323044   -3.6417314    629.26184   0.06663086  0.068067314            3 
  788000   0.95625238   -3.6308495    632.53006  0.066891926  0.068040556            3 
  789000   0.96396414   -3.6566831    632.48015  0.066801875  0.068013958            6 
  790000   0.93900872   -3.6649383    632.67456  0.066737823  0.067987471            4 
  791000   0.94605048   -3.6755467    633.37709  0.066727464  0.067960498            2 
  792000   0.93096554   -3.6443277    633.99555  0.066708286   0.06793306            7 
  793000   0.92253885   -3.6192016    633.90264  0.066614401   0.06790602            4 
  794000   0.93282501   -3.6532398    634.77143  0.066621686  0.067878594            3 
  795000   0.93099953   -3.6422905    634.62868  0.066522922  0.067851288            3 
  796000    0.9455546   -3.6510273     633.7324  0.066345519  0.067824111            2 
  797000   0.91905391   -3.6386161     636.7679  0.066579663  0.067796616            3 
  798000   0.94492682   -3.6297621    635.64514  0.066378983  0.067769869            2 
  799000   0.96345974   -3.6603637    638.17281  0.066559534  0.067743104            3 
  800000   0.94080131   -3.6553838    636.65541  0.066318272  0.067716458            3 
  801000   0.96536518   -3.6743465    636.83177  0.066253826   0.06769006            3 
  802000   0.94150012   -3.6655432    634.38757  0.065917246  0.067662677            2 
  803000   0.92356008   -3.6600442    638.90225  0.066303679  0.067635054            7 
  804000   0.92390485   -3.6587223    638.61918  0.066191872  0.067607128            6 
  805000   0.94424287   -3.6704422    640.15992  0.066269143  0.067579374            2 
  806000   0.92055635   -3.6548309    641.08109  0.066282164  0.067551223            5 
  807000    0.9470726   -3.6473872    639.64481  0.066051716  0.067523871            3 
  808000   0.95021768   -3.6594692    639.17354  0.065921363  0.067495367            3 
  809000   0.93950214   -3.6311121    641.42134  0.066071419  0.067467059            3 
  810000   0.94482129   -3.6348945    642.43139  0.066093764  0.067439163            5 
  811000   0.92461661     -3.67594    641.22037  0.065887831  0.067410838            4 
  812000   0.93434625   -3.6670985    642.68149  0.065956639  0.067382461            3 
  813000   0.93434498   -3.6368202    645.88429  0.066203801  0.067354606            3 
  814000   0.93057015   -3.6617687     642.0432  0.065729238   0.06732557            4 
  815000   0.95421739   -3.6695754    642.09262  0.065653642  0.067295782            4 
  816000     0.930104   -3.6621484    642.86157  0.065651712  0.067266627            6 
  817000   0.93414265   -3.6827449     642.8726  0.065572481  0.067237154            2 
  818000   0.92275504   -3.6756277    644.34054  0.065641864   0.06720781            6 
  819000   0.93513939   -3.6712224    644.67819  0.065596071  0.067178578            5 
  820000   0.94010058   -3.6607365    644.85788  0.065534337  0.067149787            3 
  821000   0.93975452   -3.6535278    649.12498  0.065887635  0.067121284            3 
  822000   0.93511421   -3.6659597    648.39082  0.065733052  0.067092646            5 
  823000   0.91802739   -3.6700787    649.43122  0.065758527  0.067063736            2 
  824000   0.90913311   -3.6938526    647.91711  0.065525598   0.06703465            3 
  825000   0.93295556    -3.667869    647.13159  0.065366827   0.06700532            2 
  826000   0.93872094   -3.6735098    651.29178  0.065707403  0.066977024            3 
  827000   0.92156507   -3.6488333    652.13313   0.06571273  0.066948908            4 
  828000   0.92603018   -3.6647424    653.11081  0.065731764  0.066920482            3 
  829000   0.91522628   -3.6842828    650.56593  0.065396655  0.066891973            4 
  830000   0.93252243   -3.6717376    650.62779  0.065324075  0.066863122            3 
  831000   0.93722567   -3.6777254    653.80981  0.065564561  0.066834298            2 
  832000   0.92025616   -3.6632968    653.00638  0.065405286  0.066805209            2 
  833000   0.96000455   -3.7016278    652.54031  0.065280143  0.066775943            4 
  834000   0.90185965   -3.6689335    653.17112    0.0652649  0.066746918            2 
  835000   0.93664645   -3.6684143    653.32277  0.065201873  0.066717997            2 
  836000   0.92540908   -3.6718372     651.8376  0.064975838  0.066688683            7 
  837000   0.91549206   -3.6915405    654.41946  0.065155263  0.066658794            2 
  838000   0.90874518   -3.6828921    656.44154  0.065278594   0.06662935            2 
  839000   0.91443871   -3.6786253    652.90973  0.064849993  0.066599412            3 
  840000   0.91800352   -3.6832129    654.34643   0.06491532  0.066569147            3 
  841000   0.90834817   -3.6553091     657.9954  0.065199703   0.06653942            2 
  842000   0.93034509   -3.7044803    656.42749  0.064967092   0.06650891            4 
  843000   0.90739589   -3.6735977      655.534  0.064801701   0.06647894            2 
  844000   0.92631346   -3.6668707    656.27102  0.064797692  0.066449296            3 
  845000   0.91033517   -3.6984688    656.24987  0.064718922  0.066419305            3 
  846000   0.89230953    -3.651345    658.35178  0.064849466  0.066389043            2 
  847000   0.90731066   -3.7410693    656.42298  0.064583135  0.066359498            5 
  848000   0.91228729   -3.6836339    656.17782  0.064482883  0.066328866            3 
  849000   0.91819262   -3.6804525    659.42111  0.064725276  0.066298713            4 
  850000   0.92747943   -3.6471196    662.03942  0.064905826  0.066268395            2 
  851000   0.91316906     -3.72269     658.0796  0.064441794  0.066237821            4 
  852000   0.91507134   -3.6933037    661.10051   0.06466163  0.066206715            3 
  853000   0.93985464   -3.6750538     659.5379  0.064433168  0.066176165            4 
  854000   0.91670668   -3.7016761    659.58809  0.064362617  0.066145168            2 
  855000   0.89066451   -3.6599416    662.43181  0.064564504  0.066114551            2 
  856000   0.91183338   -3.6673512    662.62113  0.064507508  0.066083677            6 
  857000   0.90460298   -3.6876216    662.74422  0.064444207  0.066053499            4 
  858000   0.91932865   -3.6809527     664.5855  0.064547932  0.066022995            7 
  859000   0.89111649   -3.6751753     662.1146  0.064233081  0.065992384            4 
  860000    0.9010435   -3.6896281    666.36986  0.064570723  0.065962065            3 
  861000   0.92364554   -3.6724348    664.41241  0.064306273  0.065931796            4 
  862000   0.90195006   -3.6948326    665.55411  0.064342045  0.065901667            2 
  863000   0.92515311   -3.6884958    665.28812  0.064241804  0.065871647            6 
  864000   0.90227947    -3.690343    663.30888  0.063976551  0.065840708            3 
  865000   0.91660265   -3.6980932    665.70391  0.064133325  0.065809839            6 
  866000   0.91540258   -3.7047027    665.66919  0.064055927  0.065778902            3 
  867000   0.90418375    -3.695283    664.90558  0.063908648   0.06574805            3 
  868000   0.90629256   -3.7179309    665.47631  0.063889815  0.065717197            3 
  869000   0.91268104   -3.6977765    667.77302  0.064036539  0.065686857            4 
  870000   0.88886071   -3.6975856    670.81671  0.064254474  0.065656425            2 
  871000   0.88685168   -3.6849383    667.68933   0.06388149  0.065625724            2 
  872000   0.90670953   -3.7179715    669.66341  0.063996885  0.065594315            5 
  873000   0.88953805   -3.6938457    669.37583  0.063896128  0.065563073            3 
  874000   0.90682934   -3.6820744    670.44958  0.063925399  0.065532607            2 
  875000   0.91525079   -3.7162727    671.29997   0.06393333  0.065502553            3 
  876000   0.91186204   -3.6977975    671.99053  0.063926039  0.065471783            4 
  877000   0.91849974   -3.7033462    673.92238  0.064036714  0.065440873            2 
  878000   0.91020654   -3.7141469    671.41806  0.063726088  0.065409659            5 
  879000   0.89731802   -3.7006572    672.07218  0.063715603  0.065378802            6 
  880000   0.91759984   -3.6815902    674.26195  0.063850564    0.0653488            3 
  881000   0.89014547    -3.693727    674.67119  0.063816798  0.065318611            3 
  882000   0.90176376   -3.7158507    675.79846   0.06385095  0.065288274            5 
  883000   0.90259503    -3.695009    676.92592  0.063885043  0.065258315            5 
  884000   0.89190363   -3.7003881    676.99637  0.063819417  0.065228671            2 
  885000   0.90504346   -3.7311654    674.28025  0.063491549  0.065198901            4 
  886000   0.90975775   -3.6961188    678.89083   0.06385354  0.065168948            4 
  887000    0.8920124   -3.7117679    676.79419  0.063584573  0.065138976            5 
  888000    0.9008951   -3.7085964    679.33461  0.063751371  0.065109251            6 
  889000   0.92177345   -3.6828594    681.42286  0.063875409  0.065080024            4 
  890000   0.90564949   -3.7168367    680.19438  0.063688612  0.065050744            4 
  891000   0.89950195   -3.7499283    679.84566  0.063584517   0.06502108            3 
  892000   0.88428144   -3.6912338    680.23214   0.06354934  0.064991427            4 
  893000    0.8925761   -3.6871475    680.36448  0.063490526  0.064962078            2 
  894000     0.908036   -3.7093745    683.03364  0.063668311  0.064932896            2 
  895000   0.89328507   -3.7167281    681.97964  0.063499035  0.064903515            4 
  896000   0.89639688   -3.6962322    685.40107   0.06374638   0.06487417            3 
  897000   0.90867277   -3.7241448    683.65276  0.063512891  0.064844717            3 
  898000   0.90967355   -3.7149399    684.96626  0.063564055  0.064815197            3 
  899000   0.88549889   -3.7082918    681.21227  0.063145371  0.064785232            3 
  900000   0.88995565   -3.7282123    682.86533  0.063228271  0.064755182            2 
  901000   0.88558267   -3.6942513    684.32113  0.063292743  0.064725334            3 
  902000   0.89490085   -3.7353507    687.58322  0.063523948  0.064695796            2 
  903000    0.8909294   -3.6853723    686.87656  0.063388387  0.064666226            3 
  904000   0.89382036   -3.7342458    684.92761  0.063138607  0.064636766            5 
  905000   0.89795454   -3.7380317    685.95968  0.063163875  0.064607113            4 
  906000   0.87611614   -3.7177686    686.46341   0.06314049  0.064577369            2 
  907000   0.89116603   -3.7272526    686.24473  0.063050784  0.064547248            4 
  908000   0.87900904   -3.7179407    687.37311  0.063084904  0.064517009            3 
  909000   0.86713775    -3.716272    685.65442  0.062857941  0.064486595            4 
  910000   0.89589552   -3.7450681     685.0559  0.062734057  0.064455861            3 
  911000   0.89696287   -3.7259593    688.42043  0.062972963   0.06442586            5 
  912000    0.9035244   -3.7260029    688.55921  0.062916594  0.064395358            4 
  913000   0.87317226   -3.7349546    689.67801    0.0629498  0.064365237            4 
  914000   0.90080646   -3.7058914    692.43958  0.063132711   0.06433532            2 
  915000    0.8845192   -3.7242053     689.6518  0.062809818  0.064305353            3 
  916000   0.88213561   -3.7489999    691.11428  0.062874298  0.064275174            3 
  917000    0.8798413   -3.7086229    691.39496  0.062831239  0.064245304            2 
  918000   0.88832743    -3.751752    691.70877  0.062791283  0.064215607            3 
  919000   0.89675171   -3.7093772    693.31933     0.062869  0.064185668            8 
  920000   0.87779592   -3.7190657    693.31291  0.062800082  0.064155976            4 
  921000   0.87733182   -3.7372798     694.8598   0.06287186  0.064126373            3 
  922000   0.88286406   -3.7419936    695.43429  0.062855594  0.064096656            3 
  923000   0.90102748   -3.7411136     695.7338  0.062814536  0.064067231            6 
  924000   0.89110329   -3.7315696    693.75996  0.062568539  0.064038112            4 
  925000   0.90296971    -3.729854    694.36748  0.062555629  0.064008185            3 
  926000   0.89436066   -3.7385478    696.69264  0.062697322  0.063978198            4 
  927000   0.89906822   -3.7115837     694.0832   0.06239511  0.063948348            2 
  928000   0.89327885   -3.6896288    697.11258  0.062599908  0.063918525            4 
  929000   0.89922291   -3.7494141    695.02597   0.06234535  0.063888173            2 
  930000   0.87958759   -3.7397285    693.09815  0.062105569  0.063857644            2 
  931000   0.88077631   -3.7263563    698.75625  0.062545314  0.063827331            3 
  932000   0.89405125   -3.7332596    696.94764  0.062316492  0.063797539            5 
  933000   0.88857337   -3.7636051    699.01283  0.062434158  0.063767142            2 
  934000   0.87276243   -3.7366849    697.09891  0.062196548   0.06373656            4 
  935000   0.87609707   -3.7842535    694.87589  0.061931897  0.063705503            3 
  936000     0.871671   -3.7330433    697.46321  0.062096083   0.06367408            5 
  937000   0.88098682   -3.7444076    697.42531  0.062026442  0.063642753            3 
  938000   0.89456468       -3.749    698.98198  0.062098613  0.063611275            5 
  939000   0.89514295   -3.7280624    700.84557  0.062197868  0.063580087            4 
  940000   0.88971591   -3.7277037    698.34445  0.061909969   0.06354845            2 
  941000   0.88915394   -3.7474421    698.33996  0.061843779  0.063516897            2 
  942000   0.87078738   -3.7446827    699.81802  0.061908884  0.063485536            3 
  943000   0.87894717   -3.7170693    702.34501  0.062066544  0.063454662            3 
  944000   0.86704296   -3.7378491    703.00772  0.062059298  0.063423673            5 
  945000   0.89798362    -3.744034    703.43245  0.062031081   0.06339297            3 
  946000   0.86432381   -3.7441473      701.471  0.061792724  0.063362116            3 
  947000   0.88532944   -3.7449739    702.15892  0.061788008  0.063330843            5 
  948000   0.86936232   -3.7453052    705.87576  0.062049557  0.063300076            4 
  949000   0.84200277    -3.719805    705.09281  0.061915421  0.063269786            2 
  950000   0.87033452   -3.7283896    704.54252  0.061801975  0.063239167            2 
  951000   0.87404249   -3.7205207    706.49653  0.061908214  0.063209018            5 
  952000   0.86553828   -3.7572902    703.14843  0.061550108  0.063178627            6 
  953000   0.87100515   -3.7550599    704.34423  0.061590087  0.063148457            7 
  954000   0.87791638   -3.7605218    706.23953  0.061691084  0.063117948            3 
  955000   0.88094058   -3.7628366    706.85148  0.061679885  0.063087272            4 
  956000   0.84790424   -3.7588029    707.19224   0.06164507  0.063057024            3 
  957000   0.85760624   -3.7724563    706.79381   0.06154596  0.063026598            6 
  958000   0.84740884   -3.7520315     705.5444  0.061373034  0.062996003            4 
  959000   0.87319283   -3.7665655    707.89902  0.061513645  0.062965512            6 
  960000   0.85609405   -3.7218443    708.77184  0.061525333  0.062934922            4 
  961000   0.87041046   -3.7676341    706.78088  0.061288664  0.062904344            3 
  962000   0.87218961   -3.7513106    708.09132  0.061338472  0.062873408            2 
  963000   0.85645709    -3.783925    707.56923  0.061229598  0.062842471            5 
  964000   0.87976485   -3.7648151     711.6411  0.061518076  0.062811681            4 
  965000   0.87312712    -3.772478    710.22394  0.061331946  0.062780805            2 
  966000   0.86153799   -3.7411153    712.01867   0.06142328  0.062749842            4 
  967000    0.8512399   -3.7649191    710.89956  0.061263319  0.062719044            5 
  968000   0.85599085   -3.7524256    708.64887  0.061006273  0.062688074            6 
  969000   0.87041391   -3.7583465    711.58161  0.061195529  0.062656832            5 
  970000   0.86154094   -3.7610948    708.97858  0.060908813  0.062625854            3 
  971000   0.85717264   -3.7303954    713.62067  0.061244479   0.06259465            4 
  972000    0.8738955   -3.7943936    711.39148  0.060990353  0.062563587            8 
  973000   0.86438887    -3.769711    713.94578  0.061146435  0.062532368            1 
  974000   0.86510737   -3.7479194    714.57202  0.061137236  0.062500871            3 
  975000   0.86772108   -3.7838432    713.24572  0.060961173  0.062469491            5 
  976000   0.84441034   -3.7429604     715.4093  0.061083444  0.062437929            4 
  977000    0.8713607   -3.7751757    715.05065  0.060990331  0.062406639            3 
  978000    0.8553051   -3.7708434      716.823  0.061078988  0.062375184            5 
  979000   0.87133512   -3.7789426    713.96539  0.060773356  0.062343994            3 
  980000   0.87249279    -3.789643    716.42919   0.06092085  0.062312632            4 
  981000   0.85677976   -3.7730451    716.43313  0.060859083   0.06228142            2 
  982000   0.85251907   -3.7537227    716.75128  0.060824107  0.062250261            4 
  983000    0.8683846    -3.768768    718.71777   0.06092894  0.062219089            2 
  984000   0.87203505   -3.7899555    717.68039  0.060779166  0.062188374            3 
  985000   0.85250644   -3.7998542    716.49098  0.060616834  0.062157435            3 
  986000   0.86516185   -3.7891636    718.06864  0.060688695  0.062126552            3 
  987000   0.88493565   -3.7589817     718.4893  0.060662724   0.06209619            5 
  988000   0.85765588    -3.771815    718.36356  0.060590719  0.062065681            4 
  989000   0.86786142   -3.7665831    718.66564  0.060554907   0.06203506            2 
  990000   0.84605795   -3.7768066    722.24438  0.060794982  0.062004581            4 
  991000   0.85739603   -3.7572773    721.16103  0.060642535  0.061974156            3 
  992000   0.85485932   -3.7804802    720.17606  0.060498661  0.061943612            3 
  993000   0.86424251   -3.7778311    722.32604  0.060618164  0.061913297            4 
  994000   0.87789134   -3.7705855    721.87056  0.060518994   0.06188281            3 
  995000   0.86337344   -3.7761435    722.53982  0.060514223  0.061852636            4 
  996000   0.86881772   -3.7643197    726.46663  0.060782014  0.061822809            4 
  997000   0.84586829   -3.7849536    723.85136  0.060502454  0.061792811            6 
  998000   0.85574263   -3.8012831    725.26232  0.060559646  0.061762627            4 
  999000   0.87108464   -3.7549269    727.04843  0.060648017  0.061732405            2 
 1000000   0.87614074   -3.7775205     724.4418   0.06037015  0.061702868            3 
 1001000   0.84709889   -3.7887187    726.07815  0.060446066   0.06167294            8 
 1002000   0.85971578   -3.7904572    725.03415  0.060298915  0.061643131            3 
 1003000   0.84326586   -3.7836452    725.68737  0.060293068   0.06161316            5 
 1004000   0.83378155   -3.7733824    728.88792  0.060498666  0.061583269            4 
 1005000   0.87494516   -3.7776277    727.05668  0.060286623  0.061553868            5 
 1006000   0.85942892   -3.7807118    730.53734  0.060515022  0.061524567            2 
 1007000   0.85230827   -3.7893054    727.20416  0.060179093  0.061495273            5 
 1008000    0.8530782   -3.7704744     727.4144  0.060136772  0.061465597            4 
 1009000   0.85900107   -3.7844952    728.19802  0.060141891  0.061436247            2 
 1010000   0.85657393   -3.7741964     732.1034  0.060404571  0.061407171            7 
 1011000    0.8573355   -3.7702966    731.32059  0.060280299  0.061377734            5 
 1012000   0.85601112   -3.7641519    731.79237  0.060259582  0.061348158            4 
 1013000   0.83425645   -3.7917316    732.48782  0.060257307  0.061318697            7 
 1014000   0.86416986   -3.7993933    733.03202  0.060242605  0.061289582            8 
 1015000   0.86317365   -3.7906542    731.61925  0.060067262  0.061260334            5 
 1016000    0.8607476   -3.7711798    733.57386   0.06016846  0.061231106            4 
 1017000   0.83838277   -3.7720323    732.70791   0.06003834  0.061202158            6 
 1018000   0.84743661   -3.7980966    732.30623  0.059946482  0.061173247            5 
 1019000   0.86999195   -3.7810045    736.56507  0.060235939   0.06114403            6 
 1020000   0.84371538   -3.7740481    736.28226   0.06015378  0.061115248            5 
 1021000   0.81926466   -3.8063348    736.13158  0.060082564  0.061086257            2 
 1022000   0.83961605   -3.7949555    732.84172  0.059755522   0.06105743            3 
 1023000   0.83282079    -3.806261    735.91457  0.059947424  0.061028846            7 
 1024000   0.85055107   -3.8072878    734.70072  0.059790098  0.060999977            4 
 1025000   0.85037428   -3.7982504    738.70317  0.060057169  0.060971331            3 
 1026000   0.84701978   -3.8021031    737.68942  0.059916294  0.060943027            4 
 1027000   0.82872079   -3.7740872    738.71974  0.059941556  0.060914149            3 
 1028000   0.84441038   -3.8046532    739.22834  0.059924476   0.06088568            4 
 1029000   0.83580216   -3.7803972    740.27042  0.059950633  0.060856886            3 
 1030000   0.85193912    -3.786134    740.01754  0.059871969   0.06082852            4 
 1031000   0.84119691      -3.8175    740.89339   0.05988469  0.060800405            3 
 1032000   0.82915941   -3.7855998    742.51056  0.059957248  0.060771845            3 
 1033000    0.8476233   -3.8114679    740.64456  0.059748673  0.060743523            4 
 1034000   0.83596261   -3.7873676    743.43011  0.059915386  0.060715389            5 
 1035000   0.83141929   -3.8089222    742.59667  0.059790392    0.0606874            3 
 1036000   0.83430162   -3.7905958    743.26467  0.059786412  0.060659337            8 
 1037000   0.85511482   -3.8086281    743.10926   0.05971627  0.060631541            6 
 1038000   0.84253686   -3.7706331    744.48704  0.059769352   0.06060394            3 
 1039000   0.84179655   -3.8065273    743.77209  0.059654482  0.060575933            7 
 1040000   0.83184763   -3.7832732    743.44223  0.059570692  0.060548007            4 
 1041000   0.83933646   -3.7863522    745.43463  0.059672961   0.06052003            4 
 1042000   0.83623273   -3.8078653    745.06185  0.059585881  0.060491839            8 
 1043000   0.84804446   -3.8050977    744.52204  0.059485621  0.060463653            2 
 1044000   0.83883775   -3.7909691    747.63187  0.059676873  0.060435523            4 
 1045000   0.84152509   -3.8257913    745.87116  0.059479359  0.060406701            2 
 1046000   0.84284794   -3.7977786    744.45864  0.059309962  0.060378522            4 
 1047000    0.8224436   -3.8095281      747.845  0.059522843  0.060350673            3 
 1048000   0.82990946    -3.800667    749.75757  0.059618127  0.060322602            4 
 1049000   0.83487762    -3.810689    748.96159   0.05949806   0.06029457            6 
 1050000    0.8313092   -3.8197201    747.66873  0.059338788  0.060266588            2 
 1051000    0.8227768   -3.8197278      751.163  0.059559388  0.060238537            6 
 1052000    0.8697861    -3.797101    751.86258  0.059558189  0.060210687            2 
 1053000   0.85069043   -3.8294232    748.94122  0.059270436   0.06018287            4 
 1054000   0.82962931   -3.8362105      750.711  0.059354127  0.060154954            4 
 1055000   0.82779496   -3.8275177    748.46125  0.059120162  0.060126987            2 
 1056000   0.82132727   -3.8087175    747.11905  0.058958258  0.060099074            5 
 1057000   0.84139964   -3.8271386    750.91913  0.059202075  0.060070945            5 
 1058000   0.83729341    -3.836954    751.43067  0.059186411   0.06004276            5 
 1059000   0.84177112    -3.834766    751.13256  0.059107063  0.060014982            4 
 1060000     0.822668   -3.8199948    753.43302  0.059232156  0.059987371            8 
 1061000   0.83741397   -3.8151568    751.96888  0.059061332  0.059960021            4 
 1062000   0.83790473   -3.8440681    752.50133  0.059047499   0.05993221            3 
 1063000   0.81385058   -3.8343341    751.57846  0.058919603  0.059904284            3 
 1064000   0.84090327   -3.8330811    755.94896  0.059206529  0.059876178            4 
 1065000   0.83911145   -3.8203178    751.88534  0.058832969  0.059847804            4 
 1066000   0.83738394   -3.8146912    753.25585  0.058884917  0.059819466            7 
 1067000   0.82019003   -3.8107129    752.28914  0.058754228   0.05979104            3 
 1068000   0.82511345   -3.8215446    750.59353  0.058566911  0.059762706            2 
 1069000   0.82713598   -3.7883172    755.29422  0.058878564  0.059734123            3 
 1070000   0.81239722   -3.8256957    754.38831  0.058752983  0.059705973            5 
 1071000      0.81847   -3.8350769    754.38946  0.058698215  0.059677321            6 
 1072000   0.82415464   -3.8230025     755.2616  0.058711256  0.059648351           10 
 1073000   0.81889527   -3.8089463    757.04107   0.05879474  0.059619781            2 
 1074000   0.82896675   -3.8502457    755.14701  0.058593033   0.05959094            3 
 1075000   0.83650873   -3.8116016    757.40209   0.05871334  0.059562209            2 
 1076000   0.82138554   -3.8244312    756.67542  0.058602495  0.059533567            5 
 1077000   0.82750889   -3.8158635    755.98295  0.058494502  0.059504126            5 
 1078000   0.80136373   -3.8188937     759.2843  0.058695447  0.059475525            3 
 1079000   0.83802363   -3.8326727    755.69575  0.058363898  0.059446535            6 
 1080000   0.84049469   -3.8434427    757.37084  0.058439108  0.059417287            2 
 1081000   0.83043483   -3.8532182    755.20486  0.058218074  0.059388223            9 
 1082000   0.84593181   -3.8370078    757.64555  0.058352245  0.059358995            5 
 1083000   0.82608112   -3.8281258    757.74238  0.058305816  0.059329947            6 
 1084000   0.81981756   -3.8096698    760.88857  0.058493894  0.059300973            4 
 1085000   0.80624174   -3.8440341    754.96908  0.057985337  0.059271706            3 
 1086000   0.81259208   -3.8439694     758.0524  0.058168539   0.05924221            7 
 1087000   0.81203133   -3.8271319    758.97132  0.058185474  0.059213355            2 
 1088000   0.83406291     -3.83559    761.32949  0.058312614  0.059184253            3 
 1089000   0.82842761   -3.8373501    757.70807  0.057981946  0.059155003            4 
 1090000   0.80696199   -3.8340994    759.78811  0.058087776  0.059125424            8 
 1091000    0.8303326    -3.829359    758.10663  0.057906097  0.059096014            2 
 1092000   0.82544798   -3.8335882    760.41373  0.058029131  0.059066715            5 
 1093000   0.80544555   -3.8363021    759.52758  0.057908477  0.059037129            5 
 1094000    0.8081388   -3.8483293    759.60265  0.057861262  0.059007413            5 
 1095000   0.83063147   -3.8178479    761.15259  0.057926377  0.058977666            6 
 1096000   0.81981049   -3.8552218    760.84375  0.057850042  0.058947567            8 
 1097000   0.81970355   -3.8704887    762.93994  0.057956544  0.058917871            3 
 1098000   0.81252846   -3.8516203    763.74736  0.057965039   0.05888799            4 
 1099000   0.82684272    -3.843607    764.26752  0.057951738  0.058858104            2 
 1100000   0.82542158   -3.8499668    762.28073   0.05774854  0.058828512            3 
 1101000   0.81302328   -3.8249717    763.42544  0.057782731  0.058799013            2 
 1102000   0.80463188    -3.828274    761.12518   0.05755635  0.058769313            7 
 1103000   0.82786426   -3.8415291    763.55406  0.057687675  0.058739432            2 
 1104000   0.81252674   -3.8187042    764.97766  0.057742879  0.058709838            2 
 1105000   0.81499971   -3.8432435    762.78201  0.057525038  0.058680253            4 
 1106000   0.81252389   -3.8466638    763.92657  0.057559266  0.058650444            2 
 1107000   0.80713487   -3.8389794    765.52658  0.057627716  0.058620683            2 
 1108000   0.81805352   -3.8514413    764.71765  0.057514865  0.058590859            3 
 1109000   0.81692397   -3.8309613    765.21429  0.057500322  0.058561385            2 
 1110000   0.81399237   -3.8524189    767.65474  0.057631738  0.058531635            4 
 1111000   0.81477227   -3.8501699    763.26626  0.057250695  0.058502045            9 
 1112000   0.80168941    -3.859314    764.36308  0.057281406  0.058472131            3 
 1113000   0.80032276   -3.8579638    768.12465  0.057511579  0.058442343            4 
 1114000   0.80168309   -3.8599579    765.05593  0.057230396  0.058412965            3 
 1115000   0.79242933   -3.8792286    766.81742  0.057310719  0.058383498            4 
 1116000   0.80822233   -3.8445977    770.54528   0.05753773  0.058354568            6 
 1117000   0.78936218   -3.8276232    770.07424  0.057451077  0.058325715           12 
 1118000   0.79826733   -3.8789353    769.65479  0.057368425  0.058296875            5 
 1119000   0.81822417   -3.8290336    768.06496  0.057198761  0.058267844            6 
 1120000   0.80119815   -3.8610822    770.01708  0.057292937  0.058239152            5 
 1121000   0.80379999   -3.8390283    773.79488  0.057522664  0.058210681            5 
 1122000   0.81351339   -3.8349295    772.35148  0.057364192   0.05818243            3 
 1123000   0.80474083   -3.8508402    774.30082  0.057457764  0.058153807            3 
 1124000   0.81040319   -3.8851702    774.32769  0.057408636  0.058125278            4 
 1125000   0.79927595   -3.8591213    772.78927   0.05724365  0.058096486            4 
 1126000    0.7994211   -3.8735949    775.71163  0.057409091  0.058067922            7 
 1127000   0.79801233   -3.8534607    775.74163  0.057360369  0.058039178            4 
 1128000   0.81332211   -3.8558203    772.27295  0.057053262  0.058010847            4 
 1129000    0.8132058   -3.8495992    774.38372  0.057158527  0.057982466            4 
 1130000   0.81113153   -3.8617518    775.49181  0.057189661  0.057954124            5 
 1131000   0.79584537   -3.8757847    775.86672  0.057166719  0.057925926            9 
 1132000   0.80958334   -3.8603357    774.03217  0.056981167  0.057897786            9 
 1133000   0.80625817   -3.8716958    774.04114  0.056931534  0.057869405            7 
 1134000   0.78817425   -3.8634326    775.75484  0.057007263  0.057841036            3 
 1135000   0.81611264   -3.8501814    778.45875  0.057155562   0.05781274            4 
 1136000   0.80391917   -3.8522468    777.83419  0.057059433  0.057783866            5 
 1137000   0.80014539   -3.8863817    778.07088  0.057026596  0.057755249            7 
 1138000   0.80428582   -3.8739564    777.31005  0.056920771  0.057726346            4 
 1139000   0.80161151   -3.8471552    778.44848  0.056954088   0.05769778            6 
 1140000   0.80653376   -3.8519152       777.56  0.056839181  0.057669287            5 
 1141000   0.80108242   -3.8655196    778.85169  0.056883705  0.057641056            4 
 1142000   0.79546932   -3.8728003    780.04812    0.0569212  0.057612644            3 
 1143000   0.80543406   -3.8735185    779.53032  0.056833648  0.057584295            4 
 1144000   0.81892689    -3.867181    779.06916  0.056750376  0.057555838            4 
 1145000   0.79582128   -3.8643164    779.91717  0.056762531  0.057527212            5 
 1146000   0.79677532   -3.8775334    779.17147  0.056658774  0.057498548            4 
 1147000    0.7884464   -3.8778839     778.6598  0.056572203  0.057469912            4 
 1148000   0.79373604   -3.8565052    779.31893   0.05657077  0.057441456            7 
 1149000   0.78704239   -3.8890259     781.1435  0.056653866  0.057412398            7 
 1150000   0.79369787   -3.8808124    779.30588  0.056471441  0.057383425            5 
 1151000   0.79201192    -3.865117    781.11623  0.056553449  0.057354485            4 
 1152000   0.78877768   -3.8684694    781.71359  0.056547569  0.057325558            3 
 1153000   0.81817706   -3.8802387     780.5718  0.056416001  0.057296458            5 
 1154000   0.78693378   -3.8728134    780.07747  0.056331418  0.057267794            4 
 1155000   0.80244889   -3.8781448    780.32117  0.056300229  0.057238861            3 
 1156000   0.79736957   -3.8499687    783.71913  0.056496477  0.057210221            5 
 1157000   0.78535622   -3.9005746    782.74808  0.056377706  0.057181406            4 
 1158000   0.77810387   -3.8599991    780.98634  0.056202241  0.057152602           10 
 1159000   0.82499638   -3.8744892    779.99843  0.056082717  0.057123705            3 
 1160000   0.77820883    -3.895676    782.39614  0.056206619   0.05709473            6 
 1161000   0.78418345    -3.888837    783.67038  0.056249668  0.057065818            6 
 1162000    0.7899602   -3.8652001    783.60064  0.056196259   0.05703717            7 
 1163000   0.79428155   -3.8708104    782.96008  0.056102041  0.057008642            8 
 1164000   0.79599091   -3.8822204    784.58077  0.056169872  0.056980204            2 
 1165000   0.78661843   -3.8597797      786.611  0.056266881  0.056951668            6 
 1166000   0.78842952   -3.8881317    783.96725  0.056029677  0.056923222            4 
 1167000   0.79539674   -3.8920153    783.52459  0.055950056  0.056894364            4 
 1168000   0.77880753   -3.9133371    783.14971  0.055875407  0.056865471            4 
 1169000   0.78668255   -3.8917741    785.36153  0.055985282  0.056836724            6 
 1170000   0.78931156   -3.8851258     784.9068  0.055905042   0.05680778            5 
 1171000   0.78548717   -3.8980188     784.4612  0.055825591  0.056778845            3 
 1172000   0.77495498   -3.8822453    788.40771  0.056058569  0.056750212            6 
 1173000   0.79406036   -3.8792155    788.23728   0.05599867  0.056722278            8 
 1174000   0.77844153   -3.9081077    787.47568  0.055896911  0.056693556            3 
 1175000    0.7865066   -3.8835352    789.56185  0.055997294  0.056664818            7 
 1176000   0.77538376   -3.9001278    786.42363  0.055727298  0.056636189            7 
 1177000   0.77730039   -3.8895223    788.22603  0.055807564  0.056607336            2 
 1178000   0.78105938   -3.9023338    788.94076   0.05581075   0.05657848            4 
 1179000   0.78007728   -3.9039895    787.22929  0.055642443  0.056549961            3 
 1180000   0.79896484   -3.9079629    786.37747  0.055535132  0.056521264           10 
 1181000   0.77452523   -3.9116589    786.68406  0.055509742  0.056492385            5 
 1182000   0.80160071   -3.8902075    791.17958  0.055779723  0.056463587            5 
 1183000   0.78360275   -3.9083619    788.51036  0.055544545  0.056434769            5 
 1184000   0.79351642   -3.9071621    789.71426  0.055582366  0.056406254           13 
 1185000   0.77183356   -3.9144594     791.7593  0.055679276  0.056377374            9 
 1186000   0.77364963   -3.9211352    790.64322  0.055553908  0.056348948            3 
 1187000   0.77414772   -3.8982405    790.95781  0.055529192   0.05632054            7 
 1188000    0.7964803   -3.9216124    792.12926  0.055564622   0.05629223            5 
 1189000   0.77622006   -3.9117061     792.7114   0.05555869  0.056264117            6 
 1190000   0.77459102   -3.9259757    791.11396  0.055400138  0.056235668           12 
 1191000   0.78783189   -3.9084841    792.70788  0.055465147  0.056207433            6 
 1192000   0.77364596    -3.914677    795.75408  0.055631577  0.056179477            3 
 1193000   0.77571213   -3.9249053    795.38788  0.055559366  0.056151743            3 
 1194000   0.77861258   -3.8871012    797.33073  0.055648432  0.056124287            6 
 1195000   0.76919242   -3.9288892    794.14608  0.055379783  0.056096601            6 
 1196000   0.75260704   -3.9170646    794.51996  0.055359529  0.056068612            5 
 1197000   0.77222291   -3.9025489    794.42537  0.055306695  0.056041016            3 
 1198000   0.78819274    -3.893021    797.26359  0.055457957  0.056013322            3 
 1199000   0.77517715   -3.9044974    797.39999  0.055421184  0.055985983            5 
 1200000   0.77943843   -3.9188256    796.93895  0.055342982  0.055958333            4 
 1201000   0.77955487   -3.9190461    796.58147  0.055272098  0.055931147            8 
 1202000   0.78196224   -3.9192316     797.6954  0.055303341  0.055903675            4 
 1203000   0.76131214   -3.9091808    800.27859  0.055436311  0.055876048            3 
 1204000   0.75324983   -3.8806282    800.61453   0.05541352  0.055848476            8 
 1205000   0.77028738    -3.921638    798.71146  0.055235924  0.055820836           21 
 1206000   0.77289818   -3.9009771    800.52164  0.055315205  0.055793258            1 
 1207000   0.77055798   -3.9253958    797.87878  0.055086909  0.055765358            6 
 1208000   0.76741359   -3.8736635    801.62362  0.055299643  0.055737955            3 
 1209000   0.76233623   -3.9180068    799.94221  0.055138007  0.055710213            5 
 1210000   0.78042403   -3.9025554    801.33666  0.055188475  0.055682584            4 
 1211000   0.75274165   -3.9285974     800.7729  0.055104108  0.055655231            6 
 1212000   0.76704144    -3.933287    799.59503  0.054977656   0.05562776            9 
 1213000   0.77042037   -3.9198404    798.60608  0.054864391  0.055600083            4 
 1214000   0.76740465   -3.9245115     803.6266  0.055163825  0.055572417            4 
 1215000   0.77148792   -3.9196742    803.16171  0.055086537  0.055544922            3 
 1216000   0.78458531   -3.9102582    803.20459  0.055044174  0.055517607            4 
 1217000   0.76534099   -3.9420399    800.49818  0.054813625  0.055490111            5 
 1218000   0.75502988   -3.9174804    804.14312  0.055018002  0.055462517            5 
 1219000   0.77828468   -3.9139365    802.99071  0.054894087  0.055435274           10 
 1220000     0.752875   -3.8965118     805.1399  0.054995895  0.055408017            2 
 1221000   0.75805382   -3.9475987    804.71552  0.054921889  0.055380595            4 
 1222000   0.77487584   -3.9178896    803.39704  0.054787032  0.055353046            7 
 1223000   0.75654845   -3.9294541     804.9288  0.054846606  0.055325698            2 
 1224000   0.75996999   -3.9156346    804.61501  0.054780433  0.055298432            4 
 1225000   0.77204186   -3.9351904    801.71887  0.054538699  0.055271138            6 
 1226000   0.76453587   -3.9450278    804.48026   0.05468191  0.055243698            5 
 1227000   0.77635171   -3.9164668    805.09366  0.054679004   0.05521633            4 
 1228000   0.76977016   -3.9294833     802.2937   0.05444447  0.055188953            6 
 1229000     0.747819   -3.9192835    804.52544  0.054551494  0.055161587            7 
 1230000   0.76131314   -3.9614275    805.60589  0.054580345  0.055134191            5 
 1231000   0.76659148   -3.9443941    807.83924  0.054687194  0.055106889           10 
 1232000   0.76074014   -3.9352549    805.57533  0.054489673  0.055079496            5 
 1233000   0.75359968    -3.940498    808.39127  0.054635798  0.055052515           13 
 1234000   0.76037057   -3.9364321    809.21401  0.054647083  0.055025877            2 
 1235000   0.75939424   -3.9204405    809.17309  0.054600073  0.054998916            4 
 1236000   0.76829691   -3.9476346    808.62327  0.054518829  0.054971957            6 
 1237000    0.7552202   -3.9124396    807.94143  0.054428822  0.054944903            3 
 1238000   0.75821612   -3.9310495    809.61371  0.054497423  0.054917683            5 
 1239000   0.75530177   -3.9279608    810.96494  0.054544319  0.054890849            6 
 1240000   0.75518012   -3.9392697    810.64265  0.054478673  0.054863919            4 
 1241000   0.75145694   -3.9506678    809.69531   0.05437116  0.054836768            4 
 1242000   0.76000788   -3.9287489    811.96536  0.054479694  0.054809918            8 
 1243000   0.73400342   -3.9127226     810.0025   0.05430427  0.054782982            4 
 1244000   0.76813176   -3.9324296    809.98631  0.054259533  0.054756194            3 
 1245000   0.76367826   -3.9402682    812.86257  0.054408472  0.054729013            4 
 1246000    0.7537865   -3.9665619    809.26261  0.054124038  0.054701905            6 
 1247000   0.76175631   -3.9464072    811.10149  0.054203521  0.054674452            5 
 1248000   0.76527905   -3.9525788    809.92536  0.054081554  0.054646931            7 
 1249000    0.7463775   -3.9476693    810.47088  0.054074651  0.054619605            4 
 1250000   0.75964626   -3.9399581    812.90078  0.054193385  0.054592508            5 
 1251000   0.76525965   -3.9663794     809.8327   0.05394569  0.054565146            2 
 1252000   0.75255996   -3.9415549    809.71774  0.053894951  0.054537846            6 
 1253000   0.75826619    -3.955651    813.04461  0.054073198  0.054510465            3 
 1254000   0.74010614   -3.9410006    813.39304  0.054053232  0.054483223            4 
 1255000   0.74734268   -3.9595554    811.15705   0.05386169  0.054455807            8 
 1256000   0.74538433   -3.9551848    813.74809  0.053990717  0.054428538            4 
 1257000   0.75779935   -3.9571643    811.99261  0.053831385   0.05440132            4 
 1258000    0.7584859   -3.9313469    814.23604  0.053937204  0.054373973            8 
 1259000   0.73993707    -3.936578    814.30349  0.053898828  0.054346547            4 
 1260000   0.75440724   -3.9535071    812.89103  0.053762634  0.054318949            4 
 1261000   0.77189154    -3.936018    815.62207   0.05390048  0.054291393            9 
 1262000   0.74096295    -3.961393    814.91855  0.053811314  0.054263964            5 
 1263000   0.75645885   -3.9659071      812.275  0.053594286  0.054236933            8 
 1264000   0.76776594   -3.9436087    814.51306  0.053699437  0.054209384            4 
 1265000   0.72830496   -3.9589085    813.48291  0.053589124  0.054182009            6 
 1266000   0.74130097   -3.9593026    813.45482  0.053544946  0.054154634           12 
 1267000    0.7467241   -3.9544747    815.23966  0.053620078  0.054127091            3 
 1268000   0.75657914   -3.9617319    811.28778  0.053318072  0.054099372            6 
 1269000   0.76029342   -3.9835018    812.97407  0.053386792  0.054071962            4 
 1270000   0.75030647   -3.9814339    814.71876  0.053459237  0.054044574            4 
 1271000   0.74588357   -3.9373866    813.46052  0.053334679  0.054016938            9 
 1272000   0.75272779   -3.9757216    816.09393  0.053465273  0.053989141            7 
 1273000   0.73814286   -3.9690899     814.7925  0.053338079  0.053961696            8 
 1274000   0.73766448   -3.9858436    818.46176  0.053536222   0.05393422            6 
 1275000   0.74777178   -3.9560043    816.39916  0.053359422  0.053906678            5 
 1276000   0.74875102   -3.9689547    814.27155  0.053178654  0.053879143           10 
 1277000   0.75644873   -3.9835652    814.53217  0.053154018  0.053851473            4 
 1278000   0.73546121   -3.9396879    817.36527  0.053297161  0.053823969            4 
 1279000    0.7438128   -3.9641642    815.61781  0.053141634  0.053796435            9 
 1280000   0.73682899   -3.9705372    814.78768  0.053046073  0.053768819            9 
 1281000    0.7584948   -3.9551044      818.505  0.053246487  0.053740737            4 
 1282000   0.73677418   -3.9644767    816.82971  0.053096055  0.053712929            4 
 1283000   0.74938347   -3.9644921    815.82799  0.052989607  0.053685186            9 
 1284000   0.74462873   -3.9936259    817.93482  0.053085074  0.053657562            5 
 1285000   0.72981939    -3.964282     817.3066  0.053003022  0.053629586            4 
 1286000   0.74671469   -3.9709126    818.46908  0.053037136  0.053601792            5 
 1287000   0.72915461   -3.9710033    818.36419  0.052989134  0.053573992            6 
 1288000   0.74017423    -3.990762    816.75968  0.052844182  0.053546056            3 
 1289000   0.73411133   -4.0017151     815.6989  0.052734607  0.053518221            3 
 1290000   0.73736176   -3.9823503    821.38775  0.053061224  0.053490188            4 
 1291000   0.74233181   -3.9684176    820.15443  0.052940513  0.053462301            5 
 1292000   0.72373611    -3.980298    820.81866   0.05294238  0.053434494            4 
 1293000   0.75132331   -3.9737292    824.48189  0.053137529  0.053407356           10 
 1294000    0.7258123   -3.9772937    820.12887   0.05281613   0.05338007            4 
 1295000   0.73007495   -3.9899344    819.03667  0.052705062  0.053352896            8 
 1296000   0.73923572   -3.9884998    824.30327   0.05300304  0.053326014            9 
 1297000   0.73471156    -3.961238     824.1377  0.052951536  0.053299154            4 
 1298000   0.71673951   -3.9814248    822.30158  0.052792859  0.053272249            7 
 1299000    0.7271352   -3.9901265    820.62698   0.05264479   0.05324483            5 
 1300000   0.73868051   -3.9723481    821.35439  0.052650922   0.05321773            6 
 1301000   0.71817259   -3.9990388    823.64237  0.052757006  0.053190646            6 
 1302000   0.73206477   -3.9815572    824.68192  0.052783021  0.053163543           12 
 1303000   0.73870175   -3.9732582    825.50743  0.052795308  0.053136225            4 
 1304000   0.74299982   -3.9952246    821.51151  0.052499457  0.053109183            4 
 1305000   0.74666205   -3.9952094    823.06162  0.052558213  0.053081888           12 
 1306000   0.72963479   -4.0029301    824.00911  0.052578427  0.053054421            7 
 1307000   0.73433113   -3.9887882    826.27851  0.052682894  0.053026784            5 
 1308000   0.72342298   -3.9845387      823.326  0.052454511  0.052999537            3 
 1309000   0.73521914   -4.0021353    821.70068  0.052310968  0.052972196            5 
 1310000   0.73736117   -3.9897871    826.11505  0.052551848   0.05294507            4 
 1311000   0.74457541   -3.9798385    826.91137   0.05256238  0.052918045            4 
 1312000   0.72741237   -3.9897207    828.90472  0.052648928  0.052890979            6 
 1313000   0.73140879    -4.008836     826.9887  0.052487224  0.052863965            4 
 1314000   0.72561196   -3.9786776    829.69804  0.052619104  0.052837161            4 
 1315000   0.71982255   -3.9743581    828.57856  0.052508147  0.052810154            3 
 1316000   0.73848418   -3.9984063    827.49352  0.052399539  0.052783045            4 
 1317000   0.72831808   -4.0012683    827.30143  0.052347598  0.052756073            4 
 1318000   0.72409198   -3.9903957     827.2886  0.052307069  0.052729234            4 
 1319000   0.72334241   -4.0051468     827.1336  0.052257619  0.052702291            6 
 1320000   0.74058371   -3.9915255    828.08436  0.052278053  0.052675593            6 
 1321000   0.72288772   -4.0105158    828.11993  0.052240722   0.05264862            6 
 1322000   0.72068142    -3.985982    829.94369  0.052316168   0.05262172            5 
 1323000   0.70831628   -4.0141109    826.79862  0.052078523  0.052594538            8 
 1324000   0.70056813   -3.9990632    828.81251  0.052165944   0.05256766           10 
 1325000   0.72149747   -3.9954588    828.04951  0.052078586  0.052540937            7 
 1326000   0.72357573   -4.0149293    828.87662  0.052091291    0.0525142            7 
 1327000   0.73534457   -3.9856868    832.08928  0.052253786  0.052487206            6 
 1328000   0.74613101   -3.9871886    832.32236  0.052229064  0.052460402            3 
 1329000   0.71753939   -3.9915592    829.02381  0.051982933  0.052433768            6 
 1330000   0.72227222   -4.0066326    830.67369  0.052047224  0.052406926            7 
 1331000   0.70316297   -4.0077442     831.1201  0.052036069  0.052380093            6 
 1332000   0.71380738   -3.9908197    833.81899  0.052165853  0.052353406            4 
 1333000   0.72376797   -4.0066743    832.58899  0.052049824  0.052326676            7 
 1334000   0.72207312   -4.0000685    830.57343  0.051884897  0.052299761            4 
 1335000   0.72582334   -4.0097964    830.06692  0.051814414  0.052272705            9 
 1336000   0.71592564   -4.0041345    828.97068  0.051707253  0.052245835            3 
 1337000   0.72841563   -3.9916072    832.29103  0.051875532  0.052218962           13 
 1338000   0.72213964   -4.0182603    831.82878  0.051807971  0.052192286            6 
 1339000   0.71858479    -4.013001    833.33747  0.051863173  0.052165347           11 
 1340000   0.72948297   -3.9912918    833.86871  0.051857507  0.052138611            6 
 1341000    0.7153726    -4.032633    832.27171  0.051719594  0.052111992            3 
 1342000   0.72168597   -4.0260823    833.04367  0.051728991  0.052085345            3 
 1343000   0.72102365   -3.9939338    835.57511   0.05184755  0.052058868            6 
 1344000   0.73535306   -4.0075406    835.13548  0.051781714  0.052032349            7 
 1345000   0.72501347   -4.0167829    832.88698  0.051603902  0.052006053            3 
 1346000   0.71537184   -4.0199634    835.36326  0.051718874  0.051979625            6 
 1347000   0.71359037   -4.0450935    834.83789  0.051647976  0.051952908            7 
 1348000   0.70387171   -4.0270873    837.87655  0.051797512  0.051926159            6 
 1349000   0.72078398   -4.0198768    834.49631  0.051550303  0.051899502            8 
 1350000   0.70361234    -3.996077    839.65902  0.051830804  0.051873056           12 
 1351000   0.71183682   -4.0227851    836.94716  0.051625164  0.051846686            6 
 1352000   0.70760976   -4.0443549    835.38273  0.051490553  0.051820165           15 
 1353000   0.71993338   -4.0111708    837.02144  0.051553427  0.051793591            8 
 1354000   0.72313405   -3.9988723    839.56666     0.051672  0.051767258            6 
 1355000   0.71610009   -4.0283184    834.68811  0.051333832  0.051740886            6 
 1356000    0.7226359   -4.0099052      836.024  0.051378073  0.051714304            8 
 1357000   0.70765866   -3.9936011    838.03331  0.051463603  0.051688103            3 
 1358000   0.70993088   -4.0279101    837.82906  0.051413173  0.051661571            5 
 1359000   0.70880688   -4.0359337    837.01046  0.051325145  0.051635082            7 
 1360000   0.71863791   -4.0123572    839.60128  0.051446157  0.051608655            6 
 1361000   0.70103064   -4.0225431    836.63034  0.051226447  0.051581993            9 
 1362000   0.71578219   -4.0339187    836.30479  0.051168917  0.051555787            8 
 1363000    0.6926629   -4.0084471    837.58681  0.051209758  0.051528976            7 
 1364000   0.69561696   -4.0187573    838.36248  0.051219604  0.051502387            7 
 1365000   0.71466988   -4.0211055    839.14176  0.051229655  0.051476002           13 
 1366000   0.71442644   -3.9991046    839.96204  0.051242194  0.051449585            5 
 1367000   0.71078494   -4.0521603    840.94978  0.051264922  0.051422982           10 
 1368000   0.71489866   -4.0349823    839.81395  0.051158257  0.051396563            8 
 1369000   0.69737173   -4.0066741    841.22839  0.051206987  0.051370075            7 
 1370000   0.71308259   -4.0081588    840.35142  0.051116266  0.051343944           11 
 1371000   0.70809547   -4.0197989    842.00743   0.05117964  0.051317871            6 
 1372000   0.71440433   -4.0261163    843.45508  0.051230265  0.051291558            6 
 1373000   0.69435973   -4.0387125    839.16588  0.050932622  0.051265051            3 
 1374000   0.70684294   -4.0440296    838.88917  0.050878771  0.051238577            4 
 1375000   0.70346631   -4.0209848    841.19651  0.050981606  0.051212167            7 
 1376000   0.70591206   -4.0578465    840.20871  0.050884733  0.051185853            6 
 1377000   0.70640892   -4.0401473     840.6857  0.050876646  0.051159363            4 
 1378000   0.70762477   -4.0145954    839.95041  0.050795259  0.051133006            7 
 1379000   0.69331146   -4.0038031     844.2644   0.05101912  0.051106536           14 
 1380000   0.69816698   -4.0361897    842.48347  0.050874605  0.051079967            6 
 1381000   0.70296259    -4.041018    841.31508  0.050767263   0.05105345            7 
 1382000   0.70239546   -4.0579821    840.30804  0.050669805  0.051026897            5 
 1383000   0.70564679   -4.0402238    846.06363  0.050979973  0.051000407            5 
 1384000   0.70372724   -4.0528862    840.64149   0.05061666  0.050974025            6 
 1385000   0.70172452   -4.0052244    843.41179  0.050746798  0.050947727            9 
 1386000   0.70566668   -4.0449759    843.15779  0.050694913  0.050921299            6 
 1387000   0.69483276   -4.0187908    844.17623  0.050719552  0.050894846            8 
 1388000   0.70560598   -4.0538321    845.42962  0.050758262  0.050868393            7 
 1389000   0.70897273    -4.081476    841.97031  0.050514178  0.050841801           17 
 1390000   0.69842913   -4.0607272    842.85537  0.050530897  0.050815231            3 
 1391000   0.71075679   -4.0296016    843.91919  0.050558302  0.050788818            5 
 1392000   0.70675562   -4.0322643    842.55621  0.050440386  0.050762482            3 
 1393000   0.70746783   -4.0404179    842.61405  0.050407636  0.050735789            2 
 1394000   0.71151003   -4.0555016    844.11037  0.050460926  0.050709337            6 
 1395000   0.69810739   -4.0368871    845.26508  0.050493732  0.050682615            5 
 1396000   0.69186058   -4.0643498    846.77011  0.050547404  0.050656054            6 
 1397000   0.70647076    -4.065439    844.28978  0.050363266  0.050629338            7 
 1398000   0.70108761   -4.0802665    842.51672   0.05022155  0.050602679            7 
 1399000   0.70946473   -4.0369977    843.50099  0.050244281  0.050575975            9 
 1400000   0.70497143   -4.0882516    843.09045  0.050183955  0.050549371            5 
 1401000   0.69827961   -4.0541401    843.79118  0.050189816  0.050522765            9 
 1402000   0.69682122   -4.0772083    846.45887  0.050312582  0.050496167           11 
 1403000   0.68956677   -4.0758644    844.84579  0.050180909  0.050469611           10 
 1404000    0.7048552   -4.0589311    845.44613  0.050180801  0.050443027           15 
 1405000   0.70351882   -4.0636972    846.19309  0.050189389  0.050416643            4 
 1406000   0.67882556   -4.0668369    846.99915  0.050201467  0.050390191            7 
 1407000   0.69335392   -4.0527584    843.64518   0.04996714  0.050363529            5 
 1408000   0.69406703   -4.0516411    846.84757  0.050121187  0.050336925            7 
 1409000   0.69681725   -4.0538837    843.67554  0.049898009  0.050310212            4 
 1410000    0.7031814   -4.0577434    845.68906  0.049981623  0.050283788            7 
 1411000   0.69333952   -4.0611386    848.93181  0.050137716  0.050256998            4 
 1412000   0.68260992   -4.0630703    844.64634  0.049849288  0.050230469            8 
 1413000   0.69198913    -4.076322    848.18353  0.050022619  0.050203806            6 
 1414000   0.67672994   -4.0612866    846.87058  0.049909865  0.050177201            5 
 1415000   0.67856676   -4.0708784    846.22173   0.04983638  0.050150623            9 
 1416000   0.67872402   -4.0772903    848.52024  0.049936455  0.050123857           14 
 1417000   0.66381464   -4.0557258    848.72897  0.049913489  0.050097009           13 
 1418000   0.68467027   -4.0717547    846.69463  0.049758735  0.050070173            8 
 1419000   0.68651204   -4.0844319    846.39372  0.049705997  0.050043328            5 
 1420000   0.69344463   -4.0773587    847.91211    0.0497601  0.050016699            4 
 1421000   0.69039874   -4.0470678    849.47115  0.049816511  0.049990086           10 
 1422000   0.68682736   -4.0585831    847.61988  0.049672989  0.049963598           12 
 1423000   0.68884517   -4.0679068    848.34531  0.049680564  0.049936859            5 
 1424000   0.71505872   -4.0559711    846.44537  0.049534491  0.049910263            8 
 1425000   0.69137858    -4.064716    847.38316  0.049554571  0.049883639            9 
 1426000   0.70231853   -4.0523027    847.56092  0.049530208  0.049856939           14 
 1427000   0.66421646   -4.0735799    847.70249  0.049503766  0.049830194            7 
 1428000   0.68556584   -4.0834905    846.75201  0.049413633  0.049803359            6 
 1429000   0.69046119   -4.0933146    846.01573  0.049336117  0.049776556            9 
 1430000   0.67828528   -4.0758786    847.68097  0.049398658  0.049749784           11 
 1431000   0.68175514   -4.0900293    847.77933  0.049369866  0.049722812           15 
 1432000   0.68674305    -4.073705     849.6019  0.049441452  0.049695811            4 
 1433000   0.68202622   -4.0910505      847.763  0.049300011  0.049668886            6 
 1434000   0.67685986   -4.0866792    849.64372  0.049374925  0.049641871            4 
 1435000   0.69157619   -4.0862489    848.35596  0.049265735  0.049614878            4 
 1436000   0.67362376   -4.0624025    851.84453  0.049433875  0.049588142            9 
 1437000    0.6864623   -4.0811139    851.63656  0.049387414  0.049561647            6 
 1438000   0.68774037      -4.0868    848.87933  0.049193285  0.049534851            5 
 1439000   0.68642929    -4.056761    851.19281  0.049293074  0.049508368            8 
 1440000   0.67862309   -4.0781407    850.72021  0.049231493  0.049481756           10 
 1441000   0.67183782    -4.101491    849.27902  0.049113984  0.049455129            6 
 1442000   0.69375841   -4.0778703    851.88808  0.049230703  0.049428456            8 
 1443000   0.67229624   -4.0824346    851.38515  0.049167542  0.049401804            4 
 1444000   0.66657859   -4.1076296    848.27693  0.048954117  0.049374963            6 
 1445000   0.69229376   -4.0859641    848.54061  0.048935445  0.049347986            3 
 1446000   0.67058538   -4.1000056    847.31553  0.048831001  0.049321074            5 
 1447000   0.67112654   -4.0958603    850.25873  0.048966755  0.049294087            3 
 1448000   0.67182806   -4.0799493    850.40907   0.04894159  0.049267107           12 
 1449000   0.68380835   -4.0923113    849.07314  0.048830983  0.049240363            6 
 1450000   0.66257461   -4.0983133    850.29069  0.048867281   0.04921354            8 
 1451000   0.67379698   -4.0615103    852.46532  0.048958495  0.049186662           12 
 1452000   0.67706832   -4.0687283    851.91805  0.048893368  0.049159794           13 
 1453000   0.68741931   -4.0938793    851.02819  0.048808682   0.04913318            8 
 1454000   0.66879393   -4.0773027    850.49908  0.048744789  0.049106414            6 
 1455000   0.66046506   -4.0682685    850.23489  0.048696156  0.049079678            8 
 1456000   0.68136712   -4.0883049    851.96114  0.048761512  0.049052886            9 
 1457000   0.65750159   -4.1016945    850.79543  0.048661372  0.049026214           12 
 1458000   0.66796224   -4.1025825    851.37174  0.048660936  0.048999386            4 
 1459000   0.66642408   -4.1096784      849.906  0.048543866   0.04897259            7 
 1460000   0.67726056   -4.1216422    849.11967  0.048465735  0.048945682            8 
 1461000   0.66671337   -4.1038716    853.59471  0.048687812  0.048918801            6 
 1462000   0.66938916   -4.1109155    851.22858  0.048519641   0.04889183            7 
 1463000   0.67048551   -4.0853634    854.21629  0.048656658  0.048864921            8 
 1464000   0.65447097   -4.0944187    852.09859   0.04850288  0.048838114           11 
 1465000   0.66053133     -4.09596    853.96899  0.048576165  0.048811304            5 
 1466000   0.65374032   -4.0854577    852.42644  0.048455346  0.048784415            6 
 1467000   0.66376921   -4.1086935    852.10476  0.048404042  0.048757739            6 
 1468000   0.65922732   -4.0925638     854.6165  0.048513653  0.048730911           11 
 1469000   0.66336572    -4.096733    853.77487  0.048432884  0.048704195            8 
 1470000   0.65676509   -4.0903806    853.05515  0.048359135  0.048677244           13 
 1471000   0.67678522   -4.1137188    855.40032  0.048459116  0.048650377            5 
 1472000   0.66931621   -4.0848931    855.02194  0.048404775  0.048623613            8 
 1473000   0.65317144   -4.1031128    852.21539  0.048213136  0.048596868           11 
 1474000   0.66906076   -4.1176108    854.54031  0.048311867  0.048569874            6 
 1475000    0.6413167   -4.1041996    851.69593  0.048118414  0.048543115            9 
 1476000   0.66409886   -4.1245123    853.15809  0.048168365  0.048516252            3 
 1477000    0.6618506   -4.0918837    854.06612  0.048186985  0.048489377            8 
 1478000    0.6605794   -4.1241335    854.15214  0.048159232  0.048462471            5 
 1479000   0.67021936   -4.1021148    854.32274  0.048136282  0.048435459            8 
 1480000   0.65689811   -4.1173674    854.89487  0.048135972   0.04840871            9 
 1481000   0.66320349    -4.112203    853.87037  0.048045823  0.048381758            6 
 1482000   0.66825484   -4.1345475    852.54355  0.047938796  0.048354711            7 
 1483000   0.67493448   -4.1273655    856.74997   0.04814284  0.048327838            4 
 1484000   0.66936586   -4.1180789    854.86582  0.048004594  0.048301139            7 
 1485000   0.67719131   -4.1190102    854.86128  0.047972013  0.048274408           12 
 1486000   0.64860509   -4.1187597    853.35897  0.047855483  0.048247501            6 
 1487000   0.66609071   -4.1245562    855.49674  0.047943104  0.048220435            9 
 1488000   0.65544624    -4.109667    854.83464  0.047873804  0.048193414            3 
 1489000    0.6486284   -4.1201713    852.70875  0.047722675  0.048166385            8 
 1490000   0.65385753   -4.0893674     855.6797  0.047856807  0.048139287            8 
 1491000   0.66062744   -4.1399281    856.15951  0.047851526  0.048112262           12 
 1492000   0.64902786   -4.1329247    855.37127  0.047775428  0.048085329            9 
 1493000   0.65339768    -4.119565    856.76887  0.047821437  0.048058391            8 
 1494000   0.66725136   -4.1228401    856.56304  0.047777947  0.048031398            9 
 1495000    0.6593201   -4.1446995    852.28288  0.047507407  0.048004435            5 
 1496000   0.66205741   -4.1247342    855.56014  0.047658207  0.047977254            7 
 1497000   0.65550026   -4.1108332    856.94884  0.047703676  0.047950371            6 
 1498000   0.65313732   -4.1302205    854.74798  0.047549398  0.047923564           21 
 1499000    0.6489219    -4.135466    856.59915  0.047620589  0.047896695            5 
 1500000   0.65639667   -4.1292941    856.51251  0.047584028  0.047869874            7 
 1501000   0.64839263   -4.1292354    853.78014   0.04740063   0.04784297           11 
 1502000   0.65556264   -4.1338895    856.24207  0.047505663  0.047815907            8 
 1503000    0.6684096    -4.141426    853.84467  0.047341133  0.047788931            8 
 1504000    0.6459859    -4.129693    856.68814  0.047467206  0.047761911           10 
 1505000   0.66562563    -4.125408    857.66495  0.047489753  0.047735003            6 
 1506000    0.6523406   -4.1491102    853.64083  0.047235548   0.04770805            5 
 1507000   0.65199979   -4.1407148    856.49882  0.047362244  0.047681043            6 
 1508000   0.65135573   -4.1323682    855.83988  0.047294423  0.047653978           11 
 1509000   0.64071015   -4.1485525    853.73188  0.047146669   0.04762703            4 
 1510000   0.63794189    -4.118893    856.39414  0.047262369  0.047600076           12 
 1511000   0.66102156   -4.1519283    856.89224  0.047258562  0.047573378            9 
 1512000   0.66139264   -4.1351279    858.07167   0.04729231  0.047546464            5 
 1513000   0.65576545   -4.1348108    857.73807  0.047242678  0.047519529            6 
 1514000   0.64666568   -4.1154487    858.75537  0.047267469  0.047492711            4 
 1515000   0.64233072   -4.1417281    857.47313  0.047165739   0.04746586            6 
 1516000   0.64823524   -4.1593774    858.14146  0.047171364  0.047439121            6 
 1517000   0.66444748   -4.1435934    856.77429  0.047065167  0.047412223            6 
 1518000   0.64183537   -4.1150071    859.33503  0.047174738   0.04738525           11 
 1519000   0.64908987   -4.1438769    858.51171  0.047098514  0.047358401            5 
 1520000   0.63050488   -4.1428008    856.15271  0.046938197  0.047331485            6 
 1521000   0.64368143   -4.1533611    857.48794  0.046980492  0.047304572           14 
 1522000   0.63473151   -4.1482655    859.80178  0.047076313    0.0472776           11 
 1523000    0.6377585   -4.1468171    857.87426  0.046939936  0.047250854            5 
 1524000   0.63750788   -4.1575454     862.0111   0.04713534  0.047224339           34 
 1525000    0.6498505   -4.1594321    859.73008  0.046979786  0.047197604           12 
 1526000   0.65479209   -4.1386238    858.22297  0.046866698  0.047170928            6 
 1527000   0.63428536   -4.1399036    859.36011  0.046898063  0.047144222            7 
 1528000   0.64308724   -4.1541277    859.88452  0.046895971   0.04711765            8 
 1529000   0.66488139    -4.150088    861.46596  0.046951491  0.047091111            5 
 1530000   0.64187176   -4.1716508    859.78505  0.046829251  0.047064599           11 
 1531000   0.66465637   -4.1439764    859.63973  0.046790754  0.047037996            7 
 1532000   0.64018487   -4.1587855    858.94579  0.046722465  0.047011355            8 
 1533000   0.64161617   -4.1525176    859.74519  0.046735442  0.046984633            5 
 1534000   0.63686137   -4.1542707    859.45653  0.046689294   0.04695797            6 
 1535000   0.63607773   -4.1593243    862.14223  0.046804681  0.046931306            7 
 1536000   0.63076182   -4.1541657    860.90888  0.046707296  0.046904679           16 
 1537000   0.64921857   -4.1701012    861.50765  0.046709371  0.046878169           11 
 1538000   0.64939513   -4.1600769    866.66743  0.046958573  0.046851688           15 
 1539000   0.63737866   -4.1627725    860.54314  0.046596445  0.046825222            6 
 1540000   0.65318985   -4.1499885    863.05082  0.046701884  0.046798722            6 
 1541000   0.61410876   -4.1803163    864.21664  0.046734622  0.046772447            7 
 1542000   0.62455742   -4.1398616    860.47304  0.046502001  0.046746154            6 
 1543000   0.62898335   -4.1378526    861.99074  0.046553831  0.046719745           10 
 1544000   0.65118234   -4.1575127    863.54458  0.046607544  0.046693414           14 
 1545000   0.63237841   -4.1632618    861.32827  0.046457836  0.046667149            9 
 1546000   0.64631471   -4.1776665    861.23276  0.046422637  0.046640987            8 
 1547000   0.65130151   -4.1628977    864.18778  0.046551809  0.046614979            4 
 1548000   0.64564266    -4.160324    862.79736  0.046446886  0.046588831            9 
 1549000   0.63365067   -4.1467628    867.00829  0.046643441  0.046562848            3 
 1550000    0.6390881   -4.1639129    865.89049  0.046553252  0.046536872           14 
 1551000   0.64039147   -4.1511324    866.41137  0.046551223    0.0465109            7 
 1552000   0.62678395   -4.1711091    864.81621  0.046435578   0.04648484            8 
 1553000   0.63085887   -4.1644623    867.06519  0.046526357  0.046459103            8 
 1554000   0.64222541    -4.172641    865.89395   0.04643361  0.046433251           13 
 1555000   0.62886547   -4.1756591    864.23803  0.046315007  0.046407408           13 
 1556000   0.63946054   -4.1917936    866.93989  0.046429943  0.046381654            7 
 1557000   0.63677236   -4.1596814    866.90849  0.046398442  0.046355896            8 
 1558000   0.63873725   -4.1826648     864.4886  0.046239228  0.046329872            9 
 1559000   0.63099797   -4.1560202    866.16926  0.046299404  0.046303953           10 
 1560000   0.63822726   -4.1621394    866.70797  0.046298503  0.046278174           11 
 1561000   0.62844598   -4.1893481     864.9432  0.046174632  0.046252352           17 
 1562000   0.62455067   -4.2026915    865.45189  0.046172209  0.046226242            6 
 1563000   0.63127761   -4.1489316    866.76611  0.046212738  0.046200257            7 
 1564000   0.61996264   -4.1715027    867.21857  0.046207298  0.046174252            9 
 1565000   0.63244465   -4.1788794    865.43256  0.046082671  0.046148232           26 
 1566000   0.63017164   -4.1835805    865.41657  0.046052393  0.046122217            6 
 1567000   0.64491522   -4.1842405    864.30782   0.04596404  0.046096197            9 
 1568000   0.62844404    -4.171604     865.7565  0.046011719  0.046070036           14 
 1569000   0.62585872   -4.1866679    863.02937  0.045837549  0.046043847            5 
 1570000   0.63293178   -4.1942447    865.52606  0.045940874  0.046017771           10 
 1571000   0.60497802   -4.1553038    865.68672  0.045920153  0.045991799            7 
 1572000   0.61684181   -4.1613648    868.26922  0.046027842  0.045965997            8 
 1573000   0.61662416   -4.1925577    866.96097  0.045929274  0.045940257            6 
 1574000   0.61996773   -4.1977281    866.57073  0.045879433  0.045914399            6 
 1575000   0.62101786   -4.1716962    866.55885  0.045849675  0.045888626            7 
 1576000   0.60960724   -4.1806491    867.51384  0.045871079  0.045863006           19 
 1577000   0.61176105   -4.1925809    868.88274  0.045914328  0.045837272            6 
 1578000   0.62086769   -4.1841842    865.10751  0.045685864  0.045811464           10 
 1579000   0.63175847   -4.1773447    866.88238    0.0457506  0.045785695            9 
 1580000   0.62400735   -4.1763957    869.03367  0.045835109   0.04575984            7 
 1581000   0.62365609   -4.1797804    868.30883  0.045767912  0.045733932           16 
 1582000   0.61163121   -4.1900214    868.33355  0.045740284  0.045707944           12 
 1583000   0.63629679   -4.2017388    867.44488  0.045664608  0.045681834           14 
 1584000   0.62739241   -4.1919764    868.45241  0.045688784  0.045655803            8 
 1585000   0.61355717   -4.1737997    866.84312  0.045575348   0.04562972            7 
 1586000   0.61410753   -4.1811912    866.86482  0.045547752  0.045603831            7 
 1587000   0.62638154   -4.1801467    867.72073  0.045563995   0.04557778            7 
 1588000   0.61591254   -4.1690493    866.20919  0.045455982  0.045551785            5 
 1589000   0.62056142   -4.1874509     866.2018  0.045426987  0.045525613           10 
 1590000   0.62361448   -4.2129818    868.17025  0.045501585  0.045499434            9 
 1591000   0.61079327   -4.1795107    868.61043  0.045496042  0.045473527           11 
 1592000   0.61987842   -4.1949298    867.05752  0.045386177  0.045447532           10 
 1593000   0.61030462   -4.1969322    868.11861  0.045413194  0.045421467            4 
 1594000   0.61669119   -4.1968515    867.52863   0.04535386  0.045395522            7 
 1595000   0.62329522   -4.2285149    866.55829  0.045274728   0.04536943           10 
 1596000   0.61816993   -4.1964955    867.40619  0.045290633  0.045343349            9 
 1597000   0.61430334   -4.2056462    868.64245  0.045326782  0.045317267           12 
 1598000   0.62539274   -4.2023953    868.35242  0.045283293  0.045291274            4 
 1599000   0.61227018   -4.2099362    867.92716   0.04523281  0.045265228            6 
 1600000   0.60712217    -4.191375    868.08819  0.045212926  0.045239242           30 
 1601000   0.62024139   -4.2139959    867.88517  0.045174119  0.045213239           17 
 1602000   0.62080975   -4.2141761    867.11177  0.045105689  0.045187066           18 
 1603000   0.60604312    -4.192608    867.20911  0.045082611  0.045161061           10 
 1604000   0.61772861   -4.2069428    867.76625   0.04508345  0.045134979            8 
 1605000   0.61403164   -4.1970481    870.08203  0.045175599  0.045109028           15 
 1606000   0.61106733   -4.2044296    868.43703  0.045062113  0.045082994            8 
 1607000   0.61548042   -4.2263015     866.1069  0.044913239   0.04505698            9 
 1608000   0.60521521   -4.1961411    867.30706  0.044947505  0.045030866           10 
 1609000   0.60577857   -4.2169504    870.00379  0.045059239  0.045005118            9 
 1610000   0.61202708   -4.2010718    868.76713  0.044967243  0.044979314            6 
 1611000   0.60682979   -4.1959845    868.13297  0.044906526  0.044953507           22 
 1612000   0.60779822   -4.2217642    870.61019   0.04500673  0.044927714            4 
 1613000   0.61223414   -4.2172585    871.43324   0.04502135  0.044901987            6 
 1614000   0.61808081   -4.2088577    869.94178  0.044916449  0.044876432            9 
 1615000    0.6197957   -4.2044028    868.74226  0.044826742  0.044850808           10 
 1616000   0.61038577   -4.2122123    868.54106  0.044788627   0.04482512            8 
 1617000   0.59873957   -4.2147481    871.10309  0.044892965  0.044799375            9 
 1618000   0.61929965   -4.2301092     871.1207  0.044866126  0.044773548           11 
 1619000   0.61557027   -4.2321688    870.71108   0.04481733  0.044747772           10 
 1620000   0.59387687   -4.2115325    870.97451  0.044803216  0.044722104           11 
 1621000   0.59618801   -4.2303695    870.56146  0.044754342  0.044696299            5 
 1622000   0.61044259   -4.2226553    871.82146  0.044791485  0.044670685            7 
 1623000   0.59720742   -4.2063171    869.99574  0.044670145   0.04464513            4 
 1624000   0.60500942    -4.236494    869.84313  0.044634808  0.044619304            9 
 1625000   0.59007657   -4.2428122    871.63912  0.044699442  0.044593506            8 
 1626000   0.60544977   -4.2208217     870.7153  0.044624605  0.044567839            5 
 1627000   0.60847965   -4.2225082    867.33261   0.04442392  0.044542215           10 
 1628000   0.59608336   -4.2164432    872.61247  0.044666895  0.044516646           13 
 1629000   0.59762083   -4.2323676    872.36558  0.044626846  0.044491215            7 
 1630000   0.60985517   -4.2322831    870.35897   0.04449688  0.044465655           12 
 1631000   0.60138183   -4.2414628    869.93487  0.044447929  0.044440007            9 
 1632000   0.59090498   -4.2423812    869.78354  0.044412967  0.044414238           14 
 1633000   0.60930405   -4.2401533    870.99446  0.044447564  0.044388618            7 
 1634000   0.60174484   -4.2404943    869.81008  0.044359959   0.04436306           12 
 1635000   0.60479064   -4.2331388    870.47997  0.044366971  0.044337567           15 
 1636000   0.59567783   -4.2356648    868.86416  0.044257547  0.044312042           10 
 1637000   0.59827316   -4.2519988    870.87753  0.044333004  0.044286539            6 
 1638000   0.59971423   -4.2350136    873.54781  0.044441789  0.044261158           26 
 1639000   0.59875149   -4.2329637    871.14308  0.044292408  0.044235604           23 
 1640000   0.58645506   -4.2254503    871.80936  0.044299256  0.044210206            7 
 1641000   0.59715973   -4.2102565    871.96278  0.044280052  0.044184743            8 
 1642000   0.60528023   -4.2410676    871.75886  0.044242736  0.044159214           15 
 1643000   0.59139182   -4.2380021    873.70403  0.044314467  0.044133675           10 
 1644000   0.59512972   -4.2493556    872.21475  0.044212021  0.044108155           12 
 1645000   0.58028245   -4.2444333     871.0632  0.044126808  0.044082446           12 
 1646000   0.59141799   -4.2272172    873.35224  0.044215889  0.044056855           15 
 1647000   0.59332878   -4.2330939    872.35065  0.044138365  0.044031305            6 
 1648000   0.59375068   -4.2273469    873.22413  0.044155751  0.044005742           10 
 1649000   0.59134434   -4.2647781    871.44276  0.044038951  0.043980069            8 
 1650000    0.5935468   -4.2561426    871.05229   0.04399254  0.043954448            7 
 1651000   0.58553409   -4.2400499     870.4507  0.043935529  0.043928965           11 
 1652000   0.58206147   -4.2492611    872.61217  0.044017967  0.043903343            9 
 1653000   0.60422462   -4.2625481    871.19392  0.043919839  0.043877805           13 
 1654000   0.59459961   -4.2552523    871.41314   0.04390433  0.043852157           12 
 1655000   0.59991605   -4.2487465    875.22953  0.044069966  0.043826551            8 
 1656000   0.57845047   -4.2495292    872.02807   0.04388225  0.043801001            7 
 1657000   0.57812213   -4.2315027    872.77515  0.043893339  0.043775402           18 
 1658000   0.59204473   -4.2417316    872.57895  0.043857004  0.043749929            7 
 1659000    0.5878836   -4.2488231    872.91567  0.043847482  0.043724507            9 
 1660000   0.60728606   -4.2375771    873.79138  0.043865029  0.043699174            6 
 1661000   0.58661279   -4.2296207    873.18698  0.043808297  0.043673942            9 
 1662000   0.60067755   -4.2449492    871.85518  0.043715161  0.043648721            8 
 1663000   0.59576688   -4.2554088    872.72303  0.043732363   0.04362327           15 
 1664000   0.58237161     -4.24516    872.63503  0.043701674  0.043597975            7 
 1665000   0.59634384   -4.2585764    871.50593  0.043618915  0.043572561           14 
 1666000   0.57147281   -4.2662364    872.54555  0.043644735  0.043547062           13 
 1667000   0.57784673   -4.2413623     873.5769  0.043670111  0.043521671           12 
 1668000   0.59136199   -4.2688119    876.21676  0.043775817  0.043496388           12 
 1669000   0.58197651   -4.2338157    874.76295     0.043677  0.043471026            9 
 1670000   0.58398563   -4.2799148    873.19243  0.043572477  0.043445676            5 
 1671000   0.58848541    -4.272523    871.46944  0.043460475   0.04342016            8 
 1672000   0.59699529   -4.2374138    874.70105  0.043595547  0.043394737            8 
 1673000   0.57483035   -4.2724684    874.83053  0.043575938  0.043369464           13 
 1674000   0.58031811    -4.251596     875.5215  0.043584304  0.043344259            9 
 1675000   0.58168789    -4.243772    873.09781  0.043437702  0.043318893           11 
 1676000   0.58123786   -4.2827825    874.70857  0.043491874  0.043293492           22 
 1677000     0.590668   -4.2543406     874.1651  0.043438933  0.043268105            9 
 1678000   0.58991574    -4.262792    873.35586  0.043372858  0.043242871           11 
 1679000   0.58104115   -4.2630363    873.65521  0.043361882  0.043217481           15 
 1680000   0.58067873   -4.2420963     875.0607  0.043405789  0.043192187            9 
 1681000   0.58285258   -4.2647061    873.18909  0.043287185  0.043166881            8 
 1682000   0.58049692   -4.2562538    872.06383  0.043205699  0.043141568            8 
 1683000   0.58552309   -4.2475666    873.50316  0.043251295  0.043116281            8 
 1684000   0.58350838   -4.2589744    876.63434  0.043380559   0.04309097           11 
 1685000    0.5705816   -4.2764648    873.15068  0.043182526   0.04306568            4 
 1686000   0.57860081   -4.2707758     873.9089   0.04319439  0.043040399           11 
 1687000   0.57479654   -4.2656223    873.59311  0.043153186  0.043015106           11 
 1688000   0.57124949   -4.2525299    874.97562  0.043195874  0.042989941            7 
 1689000   0.58198861   -4.2661637    873.72736  0.043108711  0.042964753           20 
 1690000   0.56787182   -4.2585201     874.1338  0.043103245  0.042939524            7 
 1691000   0.58008297   -4.2667282    872.81122  0.043012578  0.042914445            8 
 1692000   0.57883748   -4.2584861    875.72054  0.043130444  0.042889314            7 
 1693000   0.56283301   -4.3052065    876.60323  0.043148416  0.042864051           12 
 1694000   0.57800071   -4.2879722    872.86981  0.042939286  0.042838671           12 
 1695000   0.57387545   -4.2734555    875.64634  0.043050459  0.042813404            8 
 1696000   0.58212138   -4.2770893    875.36048   0.04301103    0.0427882            8 
 1697000    0.5876979   -4.2654855    873.15497   0.04287738  0.042762956           11 
 1698000   0.57603741   -4.2795839    873.19476  0.042854081   0.04273774           13 
 1699000   0.56951137   -4.2803798    874.15936   0.04287617  0.042712367            6 
 1700000    0.5798917    -4.282507     875.3132   0.04290751  0.042687142            9 
 1701000   0.56170148   -4.2750648    875.61692  0.042897165  0.042661843           10 
 1702000   0.57237702   -4.2882677    875.92243  0.042886919  0.042636566           14 
 1703000   0.57502107   -4.2713272    874.16854  0.042775912  0.042611345           11 
 1704000   0.57936961    -4.285533    873.89232    0.0427373  0.042586175            7 
 1705000   0.57466491   -4.2995573    876.61042  0.042845084   0.04256097           21 
 1706000   0.57658021   -4.2991701    872.62833  0.042625456  0.042535671           22 
 1707000   0.55782735    -4.305578    875.10293  0.042721291  0.042510388           15 
 1708000   0.56169769   -4.2696152    874.61875  0.042672656   0.04248506           31 
 1709000   0.57986645   -4.2835646    876.25081  0.042727268  0.042459859           18 
 1710000   0.56889082   -4.2860792    872.51849  0.042520394  0.042434603            9 
 1711000   0.57640248   -4.2790905    875.13643  0.042623048  0.042409327           17 
 1712000   0.57137387   -4.2842838     875.4184  0.042611877  0.042384023           12 
 1713000   0.56788835   -4.2799342    873.95081  0.042515607  0.042358824           16 
 1714000   0.56849332   -4.2819997    874.44421   0.04251479   0.04233365            8 
 1715000   0.56271806   -4.2795049    875.85098  0.042558357  0.042308367           10 
 1716000   0.56669991    -4.281839    872.53096  0.042372327  0.042283145           16 
 1717000   0.57198889   -4.2826025    873.06736  0.042373683  0.042257797           10 
 1718000    0.5646294   -4.2985279    874.97362  0.042441483  0.042232643            9 
 1719000   0.56435496   -4.2799995    873.40879  0.042340934   0.04220741            8 
 1720000   0.57342279   -4.2926793    872.43332  0.042269056   0.04218211           10 
 1721000   0.54724381   -4.3052071    873.63524  0.042302694  0.042156792           14 
 1722000   0.55694067   -4.2980954    873.23183  0.042258606  0.042131501           42 
 1723000   0.56916469   -4.3125455    875.10572  0.042324711  0.042106239           31 
 1724000   0.57469116   -4.3219339    874.64036  0.042277666  0.042080874           18 
 1725000   0.56505048   -4.3147011     873.1437  0.042180855  0.042055594           13 
 1726000   0.56586531    -4.304105     872.9343  0.042146306   0.04203026            8 
 1727000   0.57483892   -4.3023383    873.98229  0.042172471  0.042004839            8 
 1728000   0.56705063   -4.3037531    872.82213  0.042092117  0.041979545           12 
 1729000   0.56248929   -4.3096789    873.19945  0.042085957  0.041954201           20 
 1730000   0.56404094   -4.2928556    873.29216  0.042066096  0.041928939           11 
 1731000   0.55947375   -4.3027226    875.84465  0.042164676   0.04190378           17 
 1732000     0.562187    -4.310026    876.19902  0.042157382  0.041878555            9 
 1733000    0.5652655   -4.2984867    874.31694  0.042042553  0.041853368            7 
 1734000   0.56588131   -4.3161279    874.64939  0.042034284  0.041828165           14 
 1735000   0.55981948   -4.3247421    873.53733  0.041956644  0.041802905           12 
 1736000   0.56769964   -4.3191277    873.61445  0.041936177  0.041777562            9 
 1737000   0.56637293   -4.3093004    873.33634  0.041898692  0.041752318            7 
 1738000   0.54981854   -4.3060136    874.56692  0.041933588  0.041727181           16 
 1739000   0.56120177   -4.3032645    874.43826   0.04190331  0.041702008           12 
 1740000   0.55929235   -4.3141626    875.03754  0.041907928  0.041676707           16 
 1741000   0.55772751    -4.320088    873.90395  0.041829597  0.041651406           11 
 1742000   0.56807357    -4.308119    873.34067  0.041778639  0.041626149           33 
 1743000   0.56052536   -4.3130418    872.67674  0.041722927   0.04160084           13 
 1744000   0.57154909   -4.3116706    871.45044  0.041640407  0.041575602           15 
 1745000   0.56383486   -4.3048302    873.42014  0.041710608   0.04155036            8 
 1746000   0.56239626   -4.3367773    874.40225  0.041733594  0.041525054           23 
 1747000   0.55657034   -4.3244609    872.82466  0.041634452  0.041499826           11 
 1748000   0.53656482   -4.3186958     874.1038  0.041671615  0.041474571           10 
 1749000   0.55306119   -4.3185287    870.97412  0.041498672  0.041449446           12 
 1750000    0.5607031    -4.299503    875.09526  0.041671203  0.041424254           17 
 1751000   0.56012141   -4.3300198    874.25491  0.041607411  0.041399101           22 
 1752000   0.54595227   -4.3144684    873.71598  0.041558028  0.041373934           12 
 1753000   0.55444627   -4.3146225    875.66467  0.041626957  0.041348861           14 
 1754000   0.56006621   -4.3415098    874.14363  0.041530959  0.041323788           12 
 1755000   0.54696401   -4.3260475    874.04755  0.041502733  0.041298724            5 
 1756000   0.54674123   -4.3242757    875.39466  0.041543027  0.041273658           12 
 1757000   0.56450283    -4.350107    874.15503  0.041460588  0.041248631           21 
 1758000   0.53966122   -4.3408385    873.30232  0.041396583  0.041223454           13 
 1759000   0.56652685   -4.3175559     875.3563  0.041470357  0.041198446           16 
 1760000   0.54257372   -4.3187465    874.36938  0.041400065  0.041173434            6 
 1761000   0.54304673   -4.3227018    873.85038  0.041351996   0.04114844           13 
 1762000   0.55166338   -4.3120776    875.98653  0.041429556   0.04112344           30 
 1763000   0.54587359   -4.3212017    874.62694  0.041341791  0.041098634           14 
 1764000      0.54861   -4.3232791    878.32964  0.041493275  0.041073804           11 
 1765000   0.54567385   -4.3228914    876.56534  0.041386466  0.041048928           30 
 1766000   0.55072151   -4.3270271     875.6059  0.041317757  0.041024095           18 
 1767000   0.55327557   -4.3394824    875.98156   0.04131209   0.04099939           31 
 1768000   0.54070436   -4.3392587     875.9643   0.04128791  0.040974623           11 
 1769000   0.53512903   -4.3196107    875.40505  0.041238225  0.040949926            7 
 1770000   0.53840697   -4.3215419     874.2331   0.04115975  0.040925088            9 
 1771000    0.5419694     -4.33359    876.77728  0.041256224  0.040900294           16 
 1772000   0.54741238   -4.3488808    875.50384  0.041173055  0.040875454           12 
 1773000   0.54474685   -4.3554588    873.62042  0.041061309  0.040850572           27 
 1774000   0.53640769   -4.3430916    876.31964  0.041164959  0.040825703           16 
 1775000   0.55581386    -4.337622    874.39464  0.041051391  0.040800941            9 
 1776000   0.53460425   -4.3610466    875.21402  0.041066724  0.040776047           13 
 1777000   0.54792461   -4.3384977    875.87876  0.041074787  0.040751282            6 
 1778000   0.55388231   -4.3387152    877.15565  0.041111532  0.040726562           14 
 1779000   0.55038812   -4.3326269    875.83739  0.041026672  0.040701866            9 
 1780000   0.54052283   -4.3316852     876.6147  0.041040014  0.040677225           27 
 1781000   0.54114085   -4.3556238    875.79986  0.040978844  0.040652583           20 
 1782000    0.5365714   -4.3315575    876.79677  0.041002468  0.040627948           15 
 1783000   0.54390855   -4.3601645    874.43247   0.04086897  0.040603204           12 
 1784000   0.54408849   -4.3350771    876.52251   0.04094369  0.040578616            7 
 1785000   0.53364384    -4.333942    875.05978  0.040852464  0.040553963           11 
 1786000   0.54015976   -4.3420284    874.11902  0.040785695  0.040529238           13 
 1787000   0.54419806   -4.3634708    874.99209  0.040803586  0.040504605            5 
 1788000   0.53649784   -4.3427619    875.71964  0.040814674  0.040479987            4 
 1789000   0.53990922   -4.3534034    876.37659  0.040822461  0.040455475            6 
 1790000   0.54045748    -4.343325    876.54828  0.040807648  0.040430929           10 
 1791000   0.54320478   -4.3584702    877.27398  0.040818629  0.040406304           18 
 1792000   0.52456304   -4.3643974    875.91274  0.040732549  0.040381627           10 
 1793000   0.54253044   -4.3626601     876.0318  0.040715365  0.040357093           13 
 1794000   0.53857985   -4.3465382    878.04673  0.040786266  0.040332482           26 
 1795000   0.54564382   -4.3637975    877.49964  0.040738145  0.040307936            6 
 1796000   0.53989087   -4.3640269    875.98261  0.040645073  0.040283342           17 
 1797000   0.53210915   -4.3756506    876.06432  0.040626244  0.040258741            8 
 1798000   0.52898909   -4.3611382    874.12215  0.040513633  0.040234084           12 
 1799000   0.52895562   -4.3827475    875.04034  0.040533645   0.04020939           13 
 1800000   0.52416764   -4.3610168    873.95624  0.040460937  0.040184714           16 
 1801000   0.53920243   -4.3348942    875.75826  0.040521852  0.040160038           14 
 1802000   0.53700927   -4.3563987    875.80183  0.040501379  0.040135398           20 
 1803000   0.52317484   -4.3699801    877.95418  0.040578396  0.040110841           13 
 1804000   0.53991469   -4.3723699    877.02103  0.040512797  0.040086339           18 
 1805000   0.52860716   -4.3554945    874.55633  0.040376562  0.040061883           15 
 1806000    0.5314603    -4.366152    876.97907  0.040465996  0.040037399           15 
 1807000    0.5303403   -4.3623079    876.34513  0.040414367  0.040012923           20 
 1808000   0.52725502    -4.339415    876.02749  0.040377373  0.039988454           13 
 1809000   0.52079647   -4.3593387    875.86542  0.040347587   0.03996394           20 
 1810000   0.51685609   -4.3845708    874.57571  0.040265917  0.039939406           27 
 1811000   0.53617922   -4.3561181    875.12222  0.040268831  0.039914879           13 
 1812000    0.5311125   -4.3741304    874.97282  0.040239736  0.039890412           13 
 1813000   0.54168053   -4.3651335    877.27688  0.040323446  0.039865936           23 
 1814000   0.52248799   -4.3539487    877.51524  0.040312167  0.039841535           27 
 1815000   0.53011103   -4.3511376    877.79196  0.040302661  0.039817238           11 
 1816000    0.5291473   -4.3701446    877.19755  0.040253192  0.039792909           19 
 1817000   0.52559898   -4.3754529    876.21112  0.040185797  0.039768647           10 
 1818000   0.52625322   -4.3837568    876.45087  0.040174682  0.039744289           15 
 1819000   0.52318775   -4.3587431    876.96328  0.040176071  0.039719974           17 
 1820000   0.52876782   -4.3522091    877.71909  0.040188603  0.039695812           11 
 1821000   0.51962577     -4.36305    876.42662  0.040107387  0.039671528           13 
 1822000   0.53439631   -4.3858849    874.32022  0.039989033  0.039647173           16 
 1823000   0.52720127    -4.369961    876.81788  0.040081271  0.039622911            9 
 1824000   0.53901954   -4.3788206    877.38787  0.040085338  0.039598625            9 
 1825000   0.52780984   -4.3815505    876.19838  0.040009058  0.039574279           14 
 1826000   0.52106983   -4.3843491    875.60941  0.039960269  0.039549916           17 
 1827000   0.53727082   -4.3706991    877.98364   0.04004669   0.03952573           10 
 1828000   0.50901479   -4.3596874    877.34802  0.039995807  0.039501506           23 
 1829000   0.52396119   -4.3914327    876.45538  0.039933268  0.039477186           26 
 1830000   0.52587647   -4.3673958    876.21785  0.039900631  0.039452905           17 
 1831000   0.52296001   -4.3862738    876.75545  0.039903306  0.039428664           16 
 1832000   0.52633647   -4.3613416    876.09276  0.039851381  0.039404483           21 
 1833000   0.51461097   -4.3692544    877.43815  0.039890805  0.039380254           21 
 1834000   0.51269133   -4.3905186    876.78757  0.039839493  0.039356003           10 
 1835000   0.52655607    -4.369638    874.33375  0.039706346  0.039331662           12 
 1836000   0.51970515   -4.3701072    878.34943  0.039866986  0.039307527           10 
 1837000   0.51055369   -4.3949524     878.3447  0.039845069  0.039283403           11 
 1838000   0.52737293   -4.3731899    875.94144  0.039714429   0.03925925            9 
 1839000   0.51848145   -4.3934203    876.74324  0.039729166   0.03923501           17 
 1840000   0.51325258   -4.3977268    874.52129  0.039606943  0.039210759            8 
 1841000   0.52924085   -4.4067884     877.4097  0.039716173  0.039186481            9 
 1842000   0.51912246   -4.3892566    877.25615  0.039687665  0.039162237           11 
 1843000   0.52371651   -4.4022714    874.96601   0.03956258  0.039137999           22 
 1844000   0.51624153   -4.3902112    877.55516  0.039658132  0.039113828           15 
 1845000   0.51751664   -4.3978233    875.17132  0.039528967  0.039089649           10 
 1846000   0.52087573   -4.4056557    875.43249  0.039519343  0.039065473           19 
 1847000   0.50994846   -4.3830114    877.14972  0.039575425  0.039041262           28 
 1848000   0.51686202   -4.3968823    876.62723  0.039530449  0.039017152           20 
 1849000   0.50736237    -4.411174     876.1988   0.03948976  0.038992935           18 
 1850000    0.5065158   -4.4078677    874.70772  0.039401249  0.038968656           18 
 1851000   0.51920229   -4.4123967    874.53211  0.039372056  0.038944398           27 
 1852000   0.51269316   -4.4165109    875.23882  0.039382596  0.038920231           20 
 1853000   0.50373712   -4.4116218    873.93794   0.03930284  0.038895975           31 
 1854000   0.51081748   -4.4097271    875.26097  0.039341108  0.038871665           29 
 1855000   0.51354087   -4.4173881    875.60338  0.039335282  0.038847335           25 
 1856000   0.51727504   -4.4191242    874.96998  0.039285649  0.038823085           54 
 1857000   0.50950879   -4.4082451    876.70837  0.039342504  0.038798902           22 
 1858000   0.50612404   -4.4121642    875.20986   0.03925412  0.038774738           27 
 1859000   0.51152255   -4.3960804    875.18314  0.039231806  0.038750648           17 
 1860000    0.5175687   -4.4053674    876.10186  0.039251875  0.038726494           11 
 1861000   0.50875213   -4.4099441    877.42596  0.039290075  0.038702394           10 
 1862000   0.50904299   -4.3842413    873.88267  0.039110395  0.038678275           13 
 1863000   0.50914469   -4.3999212    874.60769  0.039121833  0.038654137           21 
 1864000   0.50752965   -4.4148034    874.46881  0.039094636  0.038630007           16 
 1865000   0.51412598   -4.4110863    875.16319    0.0391047  0.038605801           12 
 1866000   0.50960593   -4.4081384    876.60341  0.039148062  0.038581671           26 
 1867000   0.50733911   -4.4186596    873.89642  0.039006268  0.038557436           37 
 1868000   0.51552982    -4.441161     876.6686  0.039109056  0.038533184           49 
 1869000   0.50366774   -4.4234023    874.90321  0.039009417  0.038508953           31 
 1870000   0.52145663   -4.4179933    874.49178  0.038970222  0.038484726           16 
 1871000   0.50591314   -4.4141122    876.02196  0.039017547  0.038460578           10 
 1872000   0.51224789   -4.4188942    874.40731  0.038924827  0.038436443           51 
 1873000   0.49964813   -4.4323053    874.31092  0.038899756  0.038412324           18 
 1874000   0.50102247   -4.4113366    874.01159  0.038865688  0.038388219           13 
 1875000   0.50847885   -4.4297301    875.62196  0.038916531  0.038364212           12 
 1876000   0.49894282   -4.4220815    875.47339  0.038889187  0.038340177           19 
 1877000   0.50806939   -4.4241422    874.63306  0.038831161  0.038316137           26 
 1878000   0.49854633   -4.4153812    875.34315  0.038841993  0.038292171           17 
 1879000   0.50057272   -4.4232464    877.95243  0.038937042   0.03826828           16 
 1880000   0.49486488   -4.4426744    876.10759  0.038834556  0.038244328           11 
 1881000   0.50803726   -4.4017926    874.58087  0.038746273  0.038220408            6 
 1882000   0.49645407   -4.4080398    875.60687  0.038771115  0.038196448           21 
 1883000   0.49087867   -4.4100514    876.04417  0.038769878  0.038172498           12 
 1884000   0.48704741   -4.4303447    874.30869  0.038672536  0.038148438           24 
 1885000   0.50534961   -4.4245008    873.27944  0.038606518  0.038124503           35 
 1886000   0.50299071   -4.4301221    874.15441  0.038624709   0.03810055            9 
 1887000   0.50300892   -4.4233617    872.89473   0.03854861  0.038076628           13 
 1888000   0.49844251   -4.4146119    876.87064  0.038703683   0.03805285           12 
 1889000   0.50154542   -4.4358714    874.83372  0.038593335  0.038029021           17 
 1890000   0.49687608   -4.4310753    875.02467  0.038581334  0.038005201           10 
 1891000   0.49155857     -4.42176      876.221  0.038613652  0.037981377           17 
 1892000   0.49139363    -4.445954    876.62159  0.038610887  0.037957554           17 
 1893000   0.49651722   -4.4281749    876.22053  0.038572836  0.037933679           21 
 1894000   0.50540888   -4.4224456    875.94181  0.038540206  0.037909931           15 
 1895000   0.49438115   -4.4261378    875.42779  0.038497264  0.037886224           14 
 1896000   0.48961448   -4.4305471    876.66603  0.038531383  0.037862488           17 
 1897000   0.49394949   -4.4293887    872.53673  0.038329675  0.037838747           12 
 1898000   0.50214546   -4.4355727    874.27074  0.038385614  0.037814947           13 
 1899000   0.49961823   -4.4382694    875.17749  0.038405191   0.03779116           23 
 1900000   0.48421425   -4.4461828    875.46805  0.038397721   0.03776737           28 
 1901000   0.48935385   -4.4393588    875.34898  0.038372303  0.037743589           20 
 1902000    0.4984363   -4.4332781    874.94805  0.038334562  0.037719773           41 
 1903000   0.49391474   -4.4360819    875.82055  0.038352625  0.037696009           18 
 1904000   0.48979968   -4.4525906    873.99362  0.038252522  0.037672256           33 
 1905000   0.51055901    -4.441875    873.64745  0.038217299  0.037648471           23 
 1906000   0.48952207   -4.4497213    873.70161  0.038199616  0.037624638           45 
 1907000   0.49639049   -4.4576279    873.84628  0.038185906  0.037600965           25 
 1908000    0.4885532   -4.4376734    875.31123  0.038229875  0.037577316           49 
 1909000   0.48772439   -4.4387137    875.45466  0.038216111  0.037553763           27 
 1910000   0.49338507   -4.4349297    877.25758  0.038274764  0.037530244           21 
 1911000   0.48508272    -4.434461    875.50017  0.038178099  0.037506781           11 
 1912000   0.48338287   -4.4495767    875.22544  0.038146158  0.037483305           18 
 1913000    0.4958219   -4.4481425    875.87085  0.038154332  0.037459873           27 
 1914000   0.49417875    -4.435174    874.80127   0.03808783  0.037436402           24 
 1915000   0.48449829    -4.427381    876.12647  0.038125608  0.037412927           15 
 1916000   0.48703447    -4.442993    877.40463  0.038161301  0.037389504           17 
 1917000   0.48376605   -4.4564615    877.89102  0.038162538  0.037366058           18 
 1918000   0.48274961   -4.4450383    873.22041  0.037939712  0.037342618           13 
 1919000   0.48361039   -4.4467708    875.81774  0.038032731  0.037319221           37 
 1920000   0.48628329   -4.4589618     875.7148  0.038008455  0.037295796           13 
 1921000   0.49011609   -4.4480475    874.84333  0.037950864   0.03727231           24 
 1922000   0.49441042   -4.4508118    874.01865  0.037895363  0.037248783           19 
 1923000   0.47841171   -4.4598705    873.18653  0.037839596  0.037225249           24 
 1924000   0.48403076   -4.4638426    873.93694  0.037852432  0.037201666           10 
 1925000   0.48251101   -4.4775797    875.51463  0.037901066  0.037178117           26 
 1926000   0.49338064   -4.4553646    875.20981  0.037868199  0.037154667           26 
 1927000   0.49263682    -4.477221    876.07231  0.037885846  0.037131297           13 
 1928000   0.48684485   -4.4603423    875.63851  0.037847446  0.037107829           24 
 1929000   0.47638541   -4.4589935    874.40251   0.03777443  0.037084379           17 
 1930000   0.48070523   -4.4501546    873.75701  0.037726986  0.037060957           21 
 1931000   0.47632805   -4.4591641    875.95481  0.037802296  0.037037642           14 
 1932000   0.48479327    -4.469644    874.59047  0.037723882  0.037014307           10 
 1933000   0.47247042   -4.4743482    875.60579  0.037748137   0.03699106           17 
 1934000   0.47334732   -4.4605584    874.37669  0.037675659  0.036967689           17 
 1935000   0.47426834   -4.4686317    873.26044  0.037608116  0.036944358           14 
 1936000   0.48278467   -4.4605293    875.52989  0.037686376  0.036920986           35 
 1937000   0.48025743   -4.4643366    875.06236  0.037646806   0.03689765           48 
 1938000   0.47242601   -4.4691584    875.69645  0.037654646  0.036874339           45 
 1939000   0.47637372   -4.4610989    875.20964  0.037614305  0.036851025           15 
 1940000   0.48021997   -4.4593812    874.73702  0.037574614  0.036827736           15 
 1941000   0.46758101   -4.4639133      875.302  0.037579512  0.036804389           32 
 1942000   0.48034887    -4.480575    875.34475  0.037561996  0.036781087           15 
 1943000   0.47855725   -4.4853438    874.85052  0.037521467  0.036757782           19 
 1944000   0.47966255   -4.4743622    875.65575  0.037536683  0.036734472           49 
 1945000   0.49350431   -4.4765769    876.08418   0.03753574  0.036711272           22 
 1946000   0.46721366    -4.471494    875.04621  0.037472003  0.036688088           17 
 1947000   0.46893909   -4.4721443    874.72924   0.03743919   0.03666489           11 
 1948000    0.4736582   -4.4765284    874.15516  0.037395412  0.036641714           16 
 1949000   0.47291731   -4.4638452    875.21272  0.037421443  0.036618616           18 
 1950000   0.47488222    -4.476003    874.80895  0.037384998  0.036595505           18 
 1951000   0.46823945   -4.4673688    875.11699  0.037378993  0.036572371           15 
 1952000   0.46226819   -4.4930219    873.69427  0.037299106  0.036549213           23 
 1953000   0.47686146   -4.4827448    876.45944  0.037397996  0.036526085           14 
 1954000   0.46856671   -4.4676559    874.40671  0.037291313  0.036502912           47 
 1955000    0.4749029   -4.5031559    871.62905  0.037153838  0.036479665           65 
 1956000   0.47618874   -4.4870695     874.6113  0.037261899  0.036456422           57 
 1957000   0.47357406   -4.4903868    874.82506  0.037251961  0.036433195           24 
 1958000   0.47585304   -4.4916606    873.35721  0.037170464  0.036410028           31 
 1959000    0.4701494   -4.4965219    874.51919  0.037200919   0.03638687           54 
 1960000   0.46202563   -4.4839057    873.65966  0.037145393  0.036363746           33 
 1961000   0.47634273   -4.4853743    874.85165  0.037177106  0.036340634          112 
 1962000   0.47330634   -4.4872588    875.27602  0.037176182  0.036317556           33 
 1963000    0.4720784   -4.4894172    875.36297  0.037160934   0.03629452           53 
 1964000   0.47257036   -4.4922662    872.96917  0.037040443  0.036271438           39 
 1965000   0.47204516   -4.4926416    873.97184  0.037064115  0.036248291           55 
 1966000   0.47667022   -4.4983031    873.00865  0.037004436  0.036225206           98 
 1967000   0.47130073   -4.5108496      874.287  0.037039782  0.036202077           70 
 1968000   0.46791104   -4.4992761    873.29948  0.036979145  0.036179002           39 
 1969000   0.47961563   -4.5125387    873.37082  0.036963383  0.036155882           47 
 1970000   0.46944088   -4.4916122     873.6371  0.036955884  0.036132827           35 
 1971000   0.47178223   -4.4947722    872.32249  0.036881553  0.036109804           60 
 1972000    0.4850451   -4.4921007    873.06719   0.03689432  0.036086829           37 
 1973000   0.46113791   -4.4989069    872.21973  0.036839826   0.03606374           58 
 1974000    0.4758119   -4.5084909    872.73348  0.036842852  0.036040581           38 
 1975000   0.46672709   -4.4868655     872.0645   0.03679597  0.036017497           22 
 1976000   0.45798969   -4.4916392    873.39549  0.036833481  0.035994392           22 
 1977000   0.47187306   -4.4947576    874.60563  0.036865859  0.035971435           22 
 1978000   0.46224467   -4.5116119    872.32685  0.036751216  0.035948439           18 
 1979000   0.46353669   -4.4934531    873.23323  0.036770811  0.035925448            8 
 1980000   0.46998373   -4.4938567    874.29394  0.036796883   0.03590252            5 
 1981000   0.45622187   -4.5119813     871.5165  0.036661471  0.035879599           14 
 1982000   0.44999101   -4.5107395    871.49406  0.036642031  0.035856605           16 
 1983000   0.45418904   -4.5040768    874.16254  0.036735692  0.035833707           28 
 1984000   0.46517052   -4.5028563    872.59223  0.036651219  0.035810772           31 
 1985000   0.46435593   -4.5192769    873.40509   0.03666688  0.035787837           28 
 1986000   0.46022866   -4.5170024    872.12083  0.036594529  0.035764848           44 
 1987000   0.45822142   -4.5101929    870.92407  0.036525921  0.035741913           26 
 1988000   0.45671581   -4.5224347    872.00815  0.036552991  0.035718963           14 
 1989000   0.45803083   -4.5204637    871.55355  0.036515567  0.035695989           17 
 1990000   0.46463682   -4.5065513    873.35765  0.036572766  0.035673094           24 
 1991000   0.45974849   -4.5043271    870.55931  0.036437272  0.035650172           14 
 1992000   0.45691016   -4.5080872    874.14155   0.03656884  0.035627255           56 
 1993000   0.45684116   -4.5139743    873.61374  0.036528422   0.03560439           30 
 1994000   0.46001435   -4.5051182    873.30663  0.036497268  0.035581553           30 
 1995000   0.45693102   -4.5097498    871.31375  0.036395729  0.035558745           30 
 1996000   0.46783031   -4.5162299    873.77208   0.03648013  0.035535949           19 
 1997000   0.45363918   -4.5051214    872.19964  0.036396246  0.035513124           15 
 1998000   0.46192391   -4.5174385    872.38219  0.036385643  0.035490346           24 
 1999000   0.45383197   -4.4989348    872.21684  0.036360549  0.035467568           25 
 2000000   0.45179211   -4.5020219    873.94264  0.036414277  0.035444849           31 
 2001000   0.45460524   -4.5019282    872.25675  0.036325868  0.035422046           15 
 2002000   0.43986814   -4.5292948    873.02625  0.036339754  0.035399296           24 
 2003000   0.46368311   -4.5146322    872.65343  0.036306101  0.035376571           33 
 2004000   0.44958517   -4.5254724    871.90858   0.03625701  0.035353843           18 
 2005000   0.45621242   -4.5184967    871.91454  0.036239174  0.035331063           25 
 2006000   0.45967796   -4.5275541    871.81975  0.036217171  0.035308343           22 
 2007000   0.45131459   -4.5344822    870.72766  0.036153781  0.035285588           79 
 2008000   0.44624542   -4.5279962    870.72905  0.036135834  0.035262745           58 
 2009000   0.44689609   -4.5340401    870.79845  0.036120726  0.035239902           32 
 2010000   0.44613256   -4.5255872    868.80692  0.036020187  0.035217118           66 
 2011000   0.45823328   -4.5321012     871.4733  0.036112767  0.035194394           96 
 2012000   0.44789031   -4.5330864    871.32391  0.036088631  0.035171674           64 
Loop time of 4972.54 on 48 procs for 2000000 steps with 4000 atoms

Performance: 69501.687 tau/day, 402.209 timesteps/s
99.4% CPU use with 48 MPI tasks x no OpenMP threads

MPI task timing breakdown:
Section |  min time  |  avg time  |  max time  |%varavg| %total
---------------------------------------------------------------
Pair    | 324.73     | 348.12     | 363.76     |  42.0 |  7.00
Neigh   | 33.387     | 34.833     | 35.784     |   8.7 |  0.70
Comm    | 318.27     | 335.8      | 366.5      |  51.7 |  6.75
Output  | 4.5169     | 4.5185     | 4.5483     |   0.2 |  0.09
Modify  | 4191.5     | 4202.7     | 4219.2     |   9.0 | 84.52
Other   |            | 46.57      |            |       |  0.94

Nlocal:        83.3333 ave          91 max          76 min
Histogram: 2 1 6 8 11 4 5 4 4 3
Nghost:        2249.73 ave        2266 max        2231 min
Histogram: 1 0 4 8 10 8 4 4 6 3
Neighs:        15078.1 ave       17082 max       13614 min
Histogram: 2 9 5 8 8 5 5 2 1 3
FullNghs:      30156.4 ave       33460 max       27252 min
Histogram: 2 1 9 11 5 7 3 5 2 3

Total # of neighbors = 1447508
Ave neighs/atom = 361.87700
Neighbor list builds = 108232
Dangerous builds = 1

#clear
#
#next RN
#
#jump SELF
Total wall time: 1:22:55
