
units lj                  # Use reduced LJ style units
atom_style atomic         # Uncharged point particles
atom_modify map hash      # Needed for indexing of clusters etc
                          # Used to be able to find where atoms are in relation to each other.

lattice fcc 1.0 spacing 1 1 1
Lattice spacing in x,y,z = 1.5874011 1.5874011 1.5874011
region box block 0 10 0 10 0 10 units lattice
create_box 2 box
Created orthogonal box = (0.0000000 0.0000000 0.0000000) to (15.874011 15.874011 15.874011)
  3 by 4 by 4 MPI processor grid
create_atoms 1 box
Created 4000 atoms
  using lattice units in orthogonal box = (0.0000000 0.0000000 0.0000000) to (15.874011 15.874011 15.874011)
  create_atoms CPU = 0.021 seconds
set type 1 type/fraction 2 0.19 78393
Setting atom values ...
  784 settings made for type/fraction
mass 1 1.0
mass 2 1.0
pair_style lj/cut  3.5
pair_modify tail  yes
pair_coeff 1  1  1.0  1.0   # Intearaction between 1 and 1 set with epsilon = 1 and sigma = 1
pair_coeff 1  2  1.5  0.8
pair_coeff 2  2  0.5  0.88

write_data data.0
System init for write_data ...
Neighbor list info ...
  update every 1 steps, delay 10 steps, check yes
  max neighbors/atom: 2000, page size: 100000
  master list distance cutoff = 3.8
  ghost atom cutoff = 3.8
  binsize = 1.9, bins = 9 9 9
  1 neighbor lists, perpetual/occasional/extra = 1 0 0
  (1) pair lj/cut, perpetual
      attributes: half, newton on
      pair build: half/bin/atomonly/newton
      stencil: half/bin/3d
      bin: standard
WARNING: Not all mixed pair coeffs generated from mixing. Use write_data with 'pair ij' option to store all pair coeffs. (../write_data.cpp:312)


#############################
#   M E L T   S Y S T E M   #
#############################

velocity all create 2.4 9622624 mom yes dist gaussian # Assign velocities
                                                    # Temperature 2.4, random number seed, zero linear momentum
                                                                                # Gaussian distribution

timestep 0.002   # simulation timestep
thermo 1000       # output thermodynamic data every 1000 steps bf 100

# Define a fix  in this case with index 1 applied to all
# particles in the simulation. This fix is for simulations
# in the anisotropic NPT ensemble. Note that we use the MTK
# correction.
fix 1 all npt temp 2.4 2.4 0.1 iso 5.68 5.68 0.5 mtk yes tchain 5 pchain 5 # Use NPT ensemble
                                                                         # Set temperature and pressure and damping
                                                                         # Numbers of thermostats in chain and in barostat
run 10000          # run for 10000 steps
Per MPI rank memory allocation (min/avg/max) = 3.642 | 3.644 | 3.648 Mbytes
Step Temp E_pair E_mol TotEng Press Volume 
       0          2.4   -7.1181064            0   -3.5190064   -3.5570023         4000 
    1000    2.4132863   -4.8310833            0   -1.2120588     5.832643    4483.9173 
    2000    2.3939009   -4.7989495            0   -1.2089958    5.6306132    4534.2566 
    3000    2.3934862   -4.7991305            0   -1.2097987    5.6159038    4523.1875 
    4000    2.4480447   -4.7852871            0   -1.1141381    5.9305681    4518.7884 
    5000    2.3284801   -4.7919773            0   -1.3001303    5.7100205    4511.1485 
    6000    2.3905697   -4.8026157            0   -1.2176577    5.7077685    4515.9624 
    7000    2.3777751   -4.8249556            0   -1.2591846    5.9228117    4482.8289 
    8000    2.3683287   -4.8568882            0   -1.3052832    5.4559241    4511.3253 
    9000    2.5019144   -4.8497152            0   -1.0977817    5.5921762    4503.5085 
   10000    2.4191929   -4.8084897            0   -1.1806075    5.5646484    4531.6185 
Loop time of 2.28713 on 48 procs for 10000 steps with 4000 atoms

Performance: 755531.784 tau/day, 4372.290 timesteps/s
99.6% CPU use with 48 MPI tasks x no OpenMP threads

MPI task timing breakdown:
Section |  min time  |  avg time  |  max time  |%varavg| %total
---------------------------------------------------------------
Pair    | 0.94498    | 1.0251     | 1.1578     |   4.1 | 44.82
Neigh   | 0.19389    | 0.20496    | 0.23019    |   1.6 |  8.96
Comm    | 0.6546     | 0.80037    | 0.90281    |   6.2 | 34.99
Output  | 0.00023948 | 0.00024512 | 0.00032213 |   0.0 |  0.01
Modify  | 0.1994     | 0.24201    | 0.28732    |   4.9 | 10.58
Other   |            | 0.01441    |            |       |  0.63

Nlocal:        83.3333 ave          93 max          73 min
Histogram: 1 4 4 2 9 12 4 4 4 4
Nghost:        1507.02 ave        1541 max        1466 min
Histogram: 1 1 3 7 7 9 7 6 6 1
Neighs:        8406.94 ave        9779 max        7282 min
Histogram: 2 5 6 9 8 4 8 0 2 4

Total # of neighbors = 403533
Ave neighs/atom = 100.88325
Neighbor list builds = 909
Dangerous builds = 225

# Equilibrate just above the melting temperature to avoid step fn in T

fix 1 all npt temp 1.25 1.25 0.1 iso 5.68 5.68 0.5 mtk yes tchain 5 pchain 5
run 2000
Per MPI rank memory allocation (min/avg/max) = 3.642 | 3.645 | 3.649 Mbytes
Step Temp E_pair E_mol TotEng Press Volume 
   10000    2.4191929   -4.8084897            0   -1.1806075    5.5646484    4531.6185 
   11000    1.2379326   -6.5006941            0   -4.6442594     5.515274    3696.7385 
   12000    1.2302182    -6.495907            0    -4.651041    5.9197275    3673.3049 
Loop time of 0.498355 on 48 procs for 2000 steps with 4000 atoms

Performance: 693481.650 tau/day, 4013.204 timesteps/s
99.6% CPU use with 48 MPI tasks x no OpenMP threads

MPI task timing breakdown:
Section |  min time  |  avg time  |  max time  |%varavg| %total
---------------------------------------------------------------
Pair    | 0.21969    | 0.24147    | 0.27314    |   2.2 | 48.45
Neigh   | 0.031458   | 0.034106   | 0.038051   |   0.7 |  6.84
Comm    | 0.1384     | 0.16916    | 0.19156    |   3.0 | 33.94
Output  | 5.1298e-05 | 5.3267e-05 | 6.6186e-05 |   0.0 |  0.01
Modify  | 0.039809   | 0.049048   | 0.061153   |   3.0 |  9.84
Other   |            | 0.004517   |            |       |  0.91

Nlocal:        83.3333 ave          92 max          77 min
Histogram: 6 2 6 6 8 8 6 2 3 1
Nghost:        1737.83 ave        1756 max        1715 min
Histogram: 2 6 4 3 6 4 5 7 5 6
Neighs:        10407.7 ave       11734 max        9389 min
Histogram: 2 8 4 10 6 5 5 5 1 2

Total # of neighbors = 499571
Ave neighs/atom = 124.89275
Neighbor list builds = 142
Dangerous builds = 11

#############################
# L I N E A R  Q U E N C H  #
#############################

# Define solid atoms. This closely follows ten Wolde  Ruiz-Montero and Frenkel  Faraday Discuss  1996  104  93-110
# Compute components of the per-atom q6 vector
compute q6 all orientorder/atom degrees 1 6 components 6 nnn NULL cutoff 1.3 # compute the Q6 parameter.
                                                                             # Use all neighbours within 1.3 unit cell.

# get number of connections
compute coord_number all coord/atom orientorder q6 0.5

# An atom is solid if it has 8 or more connections (of a possible 14)
variable is_solid atom c_coord_number>=8
group solid dynamic all var is_solid    # Must be dynamic to update
dynamic group solid defined

# do clustering
compute cluster solid cluster/atom 1.3 # Create a cluster where all atoms within are solid and max 1.3 units from another member

# define chunks one chunk per cluster
compute clus_chunks solid chunk/atom c_cluster nchunk every compress yes  # Says which atoms are in which chunk

# count the size of each chunk
compute size_chunks solid property/chunk clus_chunks count


# Find the maximum entry in the vector of chunk sizes
variable max_n equal max(c_size_chunks)


# Thermo style which includes this variable
# thermo_style custom step temp pe vol v_max_n

thermo ${N}  # Print the thermo information every 100 steps
thermo 1000  

# Reset the npt fix at a lower temperature (below freezing)
fix 1  all npt temp  ${temp} ${temp}  0.1  iso  5.68  5.68  0.5  mtk yes tchain  5  pchain  5
fix 1  all npt temp  0.45 ${temp}  0.1  iso  5.68  5.68  0.5  mtk yes tchain  5  pchain  5
fix 1  all npt temp  0.45 0.45  0.1  iso  5.68  5.68  0.5  mtk yes tchain  5  pchain  5

dump dmp2 all dcd ${N} traj.dcd
dump dmp2 all dcd 1000 traj.dcd


compute msd all msd com yes
variable twopoint equal c_msd[4]/6/(step*dt+1.0e-6)
fix 9 all vector 10 c_msd[4]
variable fit equal slope(f_9)/6/(10*dt)
thermo_style custom step temp pe c_msd[4] v_twopoint v_fit v_max_n

fix 1 all npt temp 1.25 ${temp} 0.1 iso 5.68 5.68 0.5 mtk yes tchain 5 pchain 5
fix 1 all npt temp 1.25 0.45 0.1 iso 5.68 5.68 0.5 mtk yes tchain 5 pchain 5
run 2000000 # 5000000  # Run for this many steps
Neighbor list info ...
  update every 1 steps, delay 10 steps, check yes
  max neighbors/atom: 2000, page size: 100000
  master list distance cutoff = 3.8
  ghost atom cutoff = 3.8
  binsize = 1.9, bins = 9 9 9
  4 neighbor lists, perpetual/occasional/extra = 1 3 0
  (1) pair lj/cut, perpetual
      attributes: half, newton on
      pair build: half/bin/atomonly/newton
      stencil: half/bin/3d
      bin: standard
  (2) compute orientorder/atom, occasional
      attributes: full, newton on
      pair build: full/bin/atomonly
      stencil: full/bin/3d
      bin: standard
  (3) compute coord/atom, occasional
      attributes: full, newton on
      pair build: full/bin/atomonly
      stencil: full/bin/3d
      bin: standard
  (4) compute cluster/atom, occasional
      attributes: full, newton on
      pair build: full/bin/atomonly
      stencil: full/bin/3d
      bin: standard
Per MPI rank memory allocation (min/avg/max) = 9.770 | 9.777 | 9.785 Mbytes
Step Temp PotEng c_msd[4] v_twopoint v_fit v_max_n 
   12000    1.2302182    -6.495907 1.0016561e-30 6.9559451e-33 8.3333333e+20            1 
   13000    1.2422815   -6.5030255   0.53832403 0.0034507949  0.044053625            2 
   14000    1.2357029   -6.4935701    1.0755991 0.0064023756  0.043796136            2 
   15000    1.2343827   -6.5050371    1.5478519 0.0085991768  0.043193663            2 
   16000    1.2593106   -6.5053558    2.0513018  0.010683863  0.042675519            2 
   17000    1.2578452   -6.5045086    2.5126515  0.012316919  0.041725138            2 
   18000    1.2546461   -6.5319666    3.0109177  0.013939433  0.041124185            5 
   19000    1.2354667   -6.5238519    3.4937011   0.01532325  0.040864256            2 
   20000     1.248292   -6.4942733     3.990613  0.016627554  0.040966428            2 
   21000    1.2305667   -6.5148606    4.5343818  0.017993578  0.041078233            1 
   22000    1.2369782   -6.5083033    5.0516908  0.019135192  0.041243007            3 
   23000    1.2279806   -6.5059985    5.5637838  0.020158636    0.0413653            1 
   24000    1.2785286   -6.5212248    6.0520819  0.021014173  0.041451021            2 
   25000    1.2496374   -6.5115606    6.6314917  0.022104972  0.041703238            1 
   26000    1.2255061     -6.52712    7.1507875   0.02291919  0.041900239            2 
   27000    1.2465135   -6.5572769    7.6260313  0.023537133  0.042069454            1 
   28000    1.2355735   -6.4994239    8.0760968  0.024036002  0.042115433            1 
   29000    1.2382081   -6.5112436    8.5991697  0.024710257  0.042128882            2 
   30000    1.2485757   -6.5162802     9.058059  0.025161275   0.04207805            1 
   31000    1.2161108   -6.5371232    9.4615342  0.025434231  0.041926057            2 
   32000    1.2442848    -6.525061    9.8893073  0.025753404  0.041729021            2 
   33000    1.2191358   -6.5307034    10.341857  0.026115801  0.041505923            2 
   34000    1.2363951    -6.541672    10.848815  0.026590231   0.04130905            2 
   35000    1.2322011   -6.5801284    11.160579  0.026572806  0.041119242            3 
   36000    1.2293162   -6.5737852    11.726944  0.027145703   0.04094343            2 
   37000    1.2585196   -6.5377928    12.162623  0.027393296  0.040795959            1 
   38000    1.2411127   -6.5314688    12.684685  0.027817292  0.040661607            2 
   39000    1.2360802   -6.5480976    13.161404  0.028122657  0.040589491            1 
   40000    1.2774281   -6.5517407      13.7775  0.028703126  0.040571776            2 
   41000    1.2523154    -6.513623    14.193276  0.028848121  0.040549688            3 
   42000    1.2156971   -6.5982748    14.632589  0.029032914   0.04049869            1 
   43000    1.2467974   -6.5239241    15.251584  0.029557333  0.040500786       -1e+20 
   44000    1.2377087   -6.5391164    15.740874   0.02981226  0.040511465            2 
   45000    1.2465699   -6.5604186    16.163993   0.02993332  0.040505344            1 
   46000    1.2265216   -6.5514829    16.707554  0.030267308  0.040504859            2 
   47000    1.2393751   -6.5981786    17.213553  0.030520483  0.040510707            3 
   48000    1.2290719   -6.5589937    17.861009  0.031008695  0.040578859            1 
   49000    1.2407475   -6.5398072    18.303763  0.031128848  0.040640425            4 
   50000    1.2404829   -6.5209932    18.816611  0.031361019  0.040695935            2 
   51000    1.2258018   -6.5868276    19.215122  0.031397257  0.040712208            3 
   52000    1.2285103   -6.5869741    19.691798  0.031557368  0.040746114            1 
   53000    1.2427519   -6.5758482     20.21689  0.031787563  0.040758487            1 
   54000    1.2467481    -6.545485     20.77455  0.032059491  0.040785279            3 
   55000    1.2517223   -6.5742814    21.224453  0.032158261   0.04081797            1 
   56000    1.2353372   -6.5381752    21.557375  0.032079427  0.040817243            4 
   57000     1.215516   -6.5254147    21.984131  0.032140543  0.040798815            2 
   58000    1.2348332   -6.5473589    22.389938  0.032169451  0.040748855            2 
   59000    1.2162998   -6.5897912    22.873925  0.032307803  0.040700699            1 
   60000    1.2371903   -6.5223395    23.284228  0.032339206  0.040643467            1 
   61000    1.2630922   -6.5456909       23.842  0.032571038  0.040601816            4 
   62000    1.2515094   -6.5331532    24.433129  0.032840227  0.040576172            2 
   63000    1.2256838   -6.5127134    24.902503  0.032939819  0.040555125            2 
   64000     1.220664   -6.5691885    25.437128   0.03312126  0.040541335            2 
   65000    1.2012426   -6.5708109    26.001412  0.033335143  0.040542607            2 
   66000    1.2319879   -6.5265158    26.519327  0.033483998  0.040552886            2 
   67000    1.2249458   -6.5726122    26.916509  0.033478244  0.040550951            2 
   68000    1.2255197   -6.5211514    27.447464  0.033636598  0.040555849            1 
   69000    1.2313437   -6.5265361    27.920825  0.033720802  0.040558581            2 
   70000    1.2395573   -6.5619941    28.463086  0.033884626  0.040568456            2 
   71000     1.223901   -6.5272513    29.004243  0.034042539  0.040585798            1 
   72000    1.2114507   -6.5622393    29.332438  0.033949581  0.040593255            2 
   73000    1.2064881   -6.5322732    29.964899  0.034206505  0.040591693            2 
   74000     1.221199   -6.6131368    30.457761   0.03429928  0.040607396            2 
   75000    1.2089399   -6.5384371    31.190093  0.034655659   0.04063303            3 
   76000    1.2110824   -6.5728371      31.6839  0.034741118  0.040669282            2 
   77000    1.2276844   -6.5603794    32.147204  0.034791346  0.040691999            1 
   78000    1.2000899    -6.522451     32.47275  0.034693109   0.04070239            1 
   79000    1.2286549   -6.5492738    32.919016    0.0347247  0.040712319            5 
   80000    1.2408437   -6.5786425    33.349259  0.034738811  0.040718106            1 
   81000    1.2267655   -6.6006143    33.803887  0.034777661  0.040715747            1 
   82000    1.2329027    -6.525719    34.503074    0.0350641  0.040720407            1 
   83000    1.2251329   -6.5749929    34.749946  0.034889503  0.040727825            2 
   84000    1.2131348   -6.5218269    35.473218  0.035191684  0.040737168            2 
   85000      1.22423   -6.5644884    35.951145   0.03524622  0.040746417            2 
   86000    1.2142473   -6.5991001     36.06642  0.034948082  0.040735386            2 
   87000     1.226099   -6.5822332    36.542478  0.035002373  0.040717508            2 
   88000    1.2006992   -6.5821245    37.169708  0.035198587   0.04070603            3 
   89000    1.2333881   -6.5684672     37.48008  0.035093708  0.040687706            2 
   90000     1.212005   -6.5913158    37.841407   0.03503834  0.040661642            3 
   91000    1.2138537   -6.5967571    38.273712  0.035049187  0.040630603            3 
   92000    1.2175028   -6.5616503    38.795737  0.035141066  0.040608836            5 
   93000    1.2020502   -6.5613936    39.344567  0.035254989   0.04059115            1 
   94000    1.2214748   -6.5631107     39.99673  0.035458094  0.040584452            2 
   95000    1.2055034   -6.5422356     40.46378  0.035494544  0.040583549            2 
   96000    1.2288321   -6.6124853    40.972533  0.035566435  0.040585904            3 
   97000    1.2387851   -6.5959497    41.485271  0.035640267  0.040583068            3 
   98000    1.2141807   -6.5926844    41.980707   0.03569788  0.040581529            1 
   99000    1.2261908   -6.6385465     42.42636  0.035712424  0.040579607            1 
  100000    1.2543333   -6.5994803     43.10616    0.0359218  0.040582633            3 
  101000    1.2268717   -6.5921571    43.743772  0.036092221   0.04058969            2 
  102000    1.2022729   -6.5925368    44.325477  0.036213625  0.040603902            1 
  103000    1.1958393   -6.5945528    44.402775  0.035924575    0.0406152            6 
  104000    1.2331642   -6.5941426    45.178748  0.036200919  0.040628597            2 
  105000    1.2049221   -6.5111708    45.798286  0.036347846  0.040640504            1 
  106000    1.2272745   -6.5743277    46.251992  0.036361629   0.04065474            1 
  107000    1.2240703   -6.6211455     46.57928  0.036276698  0.040662399            3 
  108000    1.2369905   -6.5877397    46.839534  0.036141616  0.040660821            6 
  109000    1.2117617   -6.6051716    47.208909  0.036092438  0.040654042            2 
  110000    1.2111197   -6.5820387    47.924235  0.036306239   0.04064661            4 
  111000     1.210058   -6.6060226     48.36462  0.036309775   0.04064248            4 
  112000    1.1942072   -6.5779483    48.844695  0.036342779  0.040636609            1 
  113000    1.2132672   -6.6073766     49.13768  0.036237227  0.040623558            3 
  114000    1.1905294   -6.5646904    49.552986  0.036222943  0.040608752            3 
  115000    1.1887636   -6.5990795    50.230939  0.036399231  0.040596397            2 
  116000    1.2162375   -6.5996026    50.505308  0.036282549  0.040586176            2 
  117000    1.2107319   -6.5870313    50.937561  0.036280314  0.040569294            1 
  118000    1.2029649   -6.5927845    51.219467   0.03617194  0.040548528            3 
  119000    1.2094464   -6.6120779    51.732289  0.036227093  0.040526061            5 
  120000     1.197783   -6.6294382    52.267812  0.036297091  0.040508867            3 
  121000    1.2018299    -6.594416    52.663156  0.036269391  0.040493278            1 
  122000     1.180266   -6.5700826    53.412375  0.036483863  0.040477741            2 
  123000    1.1949724   -6.6347034    53.726219  0.036399878  0.040467682            3 
  124000    1.1821517   -6.6380142     54.02902  0.036309825   0.04045042            1 
  125000    1.2074476   -6.5828409    54.865396   0.03657693  0.040432755            2 
  126000     1.198565   -6.6162926    55.275531  0.036557891  0.040421445            3 
  127000    1.2252784   -6.5939994    55.885538  0.036670301  0.040410132            4 
  128000    1.2422937   -6.6048412    56.350271  0.036686374  0.040403928            2 
  129000    1.2246053   -6.6549612    56.688898  0.036620735  0.040389103            1 
  130000     1.176763   -6.5990812    56.682361  0.036334847  0.040369587            2 
  131000     1.226536   -6.5993515    57.378273  0.036500174  0.040349859            1 
  132000    1.2244842   -6.6327974    57.893907  0.036549183   0.04033049            2 
  133000     1.194706   -6.6462724    58.145855   0.03643224   0.04030797            3 
  134000    1.1969912   -6.5986728    58.876954  0.036615021  0.040289525            3 
  135000    1.2260975   -6.5711874    59.316247  0.036614967   0.04027371            3 
  136000    1.2206753   -6.6511062    59.559741  0.036494939  0.040257946            2 
  137000    1.1701501   -6.6002628    60.497378  0.036798892  0.040243765            3 
  138000    1.1838879   -6.5839625    60.599164  0.036593698  0.040231853            3 
  139000    1.1820134   -6.5886216    61.245861  0.036718142   0.04021869            3 
  140000    1.1664682   -6.6248811    61.712353  0.036733543  0.040202046            1 
  141000     1.179166   -6.6125478    61.883556  0.036574205  0.040185703            2 
  142000    1.1948074   -6.6231581    62.646936  0.036764634  0.040169167            1 
  143000    1.1960263   -6.6603068     62.61426  0.036488496  0.040153626            1 
  144000    1.1849793   -6.6226127    63.276875  0.036618562  0.040134913            1 
  145000    1.1920817   -6.6264233    63.860911  0.036701673  0.040120147            2 
  146000    1.2025831   -6.6102957    64.385837  0.036749907  0.040109217            1 
  147000    1.1977861   -6.6133709     64.71655  0.036687387  0.040097118            5 
  148000    1.2265529   -6.6200955    65.567597  0.036918692  0.040083556            1 
  149000    1.1864386   -6.6466975    65.857702  0.036833167  0.040071976            1 
  150000    1.2113439   -6.6342436    66.028846  0.036682692  0.040060713            3 
  151000    1.1976595   -6.6276418    66.482321  0.036690023  0.040046646            2 
  152000    1.1836421   -6.6261763    66.918574  0.036687815  0.040032645            1 
  153000    1.2057006   -6.6159765    67.643277  0.036842743  0.040018832            1 
  154000    1.2080081   -6.6381903    68.166462  0.036886613   0.04000807            4 
  155000    1.1849542   -6.5888312    68.768077  0.036972085  0.039997661            1 
  156000    1.2007072   -6.6653695    68.868452  0.036788703  0.039985612            2 
  157000    1.1883234   -6.6395975    69.649571  0.036968987  0.039975225            2 
  158000    1.1872876   -6.6487294    69.961961  0.036899769  0.039965813            3 
  159000    1.1871881   -6.6452216    70.522706  0.036961586  0.039953573            2 
  160000    1.2033372   -6.5856112    70.908261  0.036931386  0.039943932            2 
  161000    1.1937037   -6.6182324      71.4164   0.03696501  0.039932441            2 
  162000    1.2064618   -6.6525873    71.825172  0.036947105  0.039919498            4 
  163000    1.1954071   -6.6123239    72.274648  0.036950229  0.039907942            3 
  164000    1.2070694   -6.6327112    73.261829  0.037226539   0.03990142            1 
  165000    1.2115038   -6.6458749    73.403735  0.037072593   0.03989692            3 
  166000    1.1861801   -6.6391506    73.384998  0.036839858  0.039884523            1 
  167000    1.1852438   -6.6483849    73.910757  0.036881615  0.039870445            1 
  168000     1.181139   -6.6429719    74.459559  0.036934305  0.039856871            1 
  169000    1.1929336   -6.6372617    74.968654  0.036966792  0.039842389            1 
  170000    1.1955496   -6.6501346    75.370822  0.036946481  0.039827754            2 
  171000    1.1739201   -6.6507804    75.425138   0.03675689  0.039813338            3 
  172000    1.1839802   -6.6470447    76.273359  0.036954147  0.039796472            2 
  173000    1.1897358   -6.6666579    76.629493  0.036912087  0.039781602            2 
  174000    1.2026771   -6.6541846    77.105676  0.036928006  0.039769928            2 
  175000    1.1936349   -6.5672554    77.680334  0.036990635  0.039757248            2 
  176000    1.2066271   -6.6525614    78.014875  0.036938861  0.039744038            2 
  177000    1.1750852   -6.6508826    78.489653  0.036953697  0.039728859            3 
  178000    1.1735777   -6.6966784    78.834593  0.036907581  0.039713505            1 
  179000    1.1670399   -6.6573896    79.186142  0.036865057  0.039696276            2 
  180000    1.1915995   -6.6390768    79.724359  0.036909425  0.039679756            2 
  181000    1.1879418    -6.662561    80.001798   0.03683324  0.039658206            2 
  182000    1.2085676   -6.5934746    80.482345   0.03685089  0.039637829            1 
  183000    1.2162679    -6.664117    80.732236  0.036763313  0.039616227            1 
  184000    1.1772351   -6.6612487    81.194377  0.036772815  0.039593754            2 
  185000    1.1887891   -6.6657065    81.716824   0.03680938  0.039572496            3 
  186000    1.1973541   -6.6143599    82.256728  0.036853373  0.039552119            2 
  187000    1.1761105   -6.6368234    82.493275  0.036761709   0.03953073            1 
  188000    1.1765832   -6.6292049    83.132044   0.03684931  0.039509628            3 
  189000    1.1760413   -6.6391691    83.202704  0.036685496  0.039486628            1 
  190000    1.1843732   -6.6472709    83.346447  0.036555459  0.039462121            4 
  191000    1.1725006   -6.6631726    84.325079  0.036791047  0.039440373            2 
  192000     1.187204   -6.6402867    84.517521  0.036682952   0.03941883            2 
  193000    1.1940085   -6.6678522    85.025783  0.036712342  0.039396188            2 
  194000     1.167767   -6.6467365    85.347237  0.036661184  0.039375698            1 
  195000    1.1694578   -6.6841418    85.648733  0.036602022  0.039354293            3 
  196000     1.172957   -6.6621049     86.55496  0.036800578  0.039334287            1 
  197000    1.1895587   -6.6737624     86.90947  0.036763735  0.039317361            2 
  198000    1.1783465   -6.6532193    87.519389   0.03683476  0.039299147            3 
  199000    1.1843808   -6.6961955    87.814676  0.036773315  0.039281974            1 
  200000    1.1886697    -6.648767    88.467771  0.036861571  0.039264947            2 
  201000    1.1697679   -6.6452954    88.516485  0.036698377  0.039246591            1 
  202000    1.1736448   -6.6563239    88.645135  0.036569775  0.039224973            2 
  203000    1.1778058   -6.7265643    88.742706  0.036429682   0.03920102            5 
  204000    1.1674055   -6.6307537    89.500176  0.036560529  0.039174998            2 
  205000    1.1733591   -6.6461159    89.769023  0.036491473  0.039149522            1 
  206000    1.1392436   -6.6653023    90.120719  0.036456602  0.039122232            1 
  207000    1.2185344   -6.6666974    90.423228  0.036402266  0.039096377            4 
  208000    1.1743595   -6.7347496    91.017984  0.036465538  0.039072929            2 
  209000    1.1576262   -6.6914563    91.105533   0.03632597  0.039046706            2 
  210000    1.1399496   -6.6752435    91.953321  0.036489413  0.039023801            1 
  211000    1.1875126   -6.6855035     92.34597  0.036471552  0.039002501            3 
  212000    1.1789018   -6.6567013    93.039626   0.03657218  0.038981114            3 
  213000    1.1600768   -6.6886987    93.091203  0.036420658  0.038957385            3 
  214000    1.1775026   -6.6783657    93.416891  0.036377294   0.03893086            3 
  215000    1.1748123   -6.6817609    93.837483  0.036371117  0.038905743            2 
  216000    1.1473805   -6.6748254    94.399849  0.036419695  0.038880556            1 
  217000    1.1766931   -6.6511237    94.394021  0.036249624  0.038853537            2 
  218000    1.1595953   -6.6614701    94.998501  0.036314412  0.038826809            3 
  219000    1.1573549   -6.6880955    95.100883  0.036187551  0.038800391            3 
  220000    1.1755804   -6.7383315    95.296381  0.036097114  0.038771934            2 
  221000     1.164683   -6.6855448    95.946262  0.036178832  0.038740887            4 
  222000    1.1802288   -6.6931145    96.072014  0.036063068  0.038709094            1 
  223000    1.1771318   -6.6342088    96.833037  0.036185739  0.038678167            6 
  224000    1.1691162   -6.6369451    97.506589  0.036274773  0.038651906            2 
  225000    1.1976607   -6.7147713    97.629339  0.036159014  0.038625865            1 
  226000    1.2123893   -6.6873139    98.036877  0.036149291  0.038598489            3 
  227000    1.1607228   -6.7091147    98.159418  0.036035028  0.038568965            1 
  228000    1.1740637   -6.6654105     98.65196  0.036057003  0.038539301            5 
  229000    1.1750658    -6.686235    98.930325  0.036000846  0.038511188            2 
  230000    1.1845246   -6.7211669     99.20309  0.035943148   0.03848033            3 
  231000    1.1671015   -6.6622309    99.949656  0.036056874  0.038451208            3 
  232000    1.1701198   -6.6988197    100.50256  0.036100056  0.038424313            1 
  233000    1.1562106   -6.6759948    101.25126  0.036212896  0.038397226            2 
  234000    1.1544999   -6.6642117    101.33929   0.03608949  0.038372282            2 
  235000    1.1632711   -6.7202592    101.68321  0.036057877  0.038345725            1 
  236000    1.1562173   -6.7098221    102.18627  0.036082724   0.03831877            2 
  237000    1.1482718   -6.6808453    102.07545  0.035891507  0.038292331            5 
  238000    1.1650306   -6.6707505    102.76405  0.035981811  0.038264267            2 
  239000    1.1732527   -6.6810063    103.11161  0.035952445  0.038236055            1 
  240000    1.1515571    -6.661435    103.78307  0.036035788    0.0382065            2 
  241000    1.1704882   -6.7070629    104.01795  0.035967479  0.038178241            3 
  242000    1.1649451    -6.658004    104.55946  0.036005325   0.03815239            2 
  243000    1.1584684   -6.6935378    105.05442  0.036026892  0.038127954            4 
  244000    1.1578695   -6.6819887    105.54295  0.036046091  0.038104152            2 
  245000      1.15515    -6.686844    105.83236  0.035997402  0.038080145            1 
  246000    1.1475023   -6.6900262     106.2825  0.036003557  0.038057473            2 
  247000      1.16099   -6.7048674    106.98399  0.036094465  0.038033376            3 
  248000    1.1603368   -6.7028694    107.36922  0.036078368  0.038011357            1 
  249000    1.1645531   -6.6731819    107.84664  0.036093253  0.037990717            2 
  250000    1.1561717   -6.7027674    108.09252  0.036030841  0.037970855            1 
  251000    1.1314654   -6.7000618    108.52399  0.036030542  0.037950358            1 
  252000    1.1379896   -6.7218634    108.97905  0.036038045  0.037927952            3 
  253000    1.1575869   -6.6879742    109.21342  0.035972798  0.037906244            5 
  254000    1.1416818   -6.7102641    109.60406  0.035959338  0.037883579            4 
  255000    1.1365315   -6.7089897    109.71973  0.035856122  0.037860611            2 
  256000     1.173198   -6.6950143    110.10498  0.035841466  0.037836263            2 
  257000    1.1553358   -6.7024355    110.69429  0.035893092  0.037812532            2 
  258000    1.1450174   -6.7027879    111.31934  0.035955859    0.0377897            1 
  259000    1.1721017   -6.6599118    111.81047  0.035975056  0.037767277            4 
  260000    1.1417116   -6.6580721    111.91219   0.03586929  0.037746135            1 
  261000    1.1483812   -6.7121176    112.62572  0.035959682  0.037723438            2 
  262000     1.146089   -6.7016777    112.63554  0.035825555  0.037701551            2 
  263000    1.1358691   -6.7096737      113.283  0.035894485  0.037680218            3 
  264000    1.1538366   -6.6379465    114.15318    0.0360332   0.03766065            1 
  265000    1.1300717     -6.70705    113.94918  0.035833076  0.037639152            2 
  266000    1.1492252   -6.6846403     114.4129   0.03584364  0.037617472            3 
  267000    1.1180456    -6.728073    114.26492   0.03566321  0.037595168            5 
  268000    1.1320629   -6.7411259     114.6592  0.035652738  0.037570421            3 
  269000    1.1438957   -6.7386407     115.0014  0.035626209  0.037546384            2 
  270000    1.1444693   -6.7393699    115.41773  0.035622757  0.037522184            2 
  271000    1.1463338   -6.7185825     115.4448   0.03549963  0.037497114            3 
  272000    1.1447131   -6.7153458    115.78765  0.035474157  0.037472119            3 
  273000    1.1161538   -6.6687452    116.73257  0.035632654  0.037447718            2 
  274000    1.1644857   -6.7244571    116.73338  0.035502852  0.037424237            1 
  275000    1.1192814   -6.7190659    117.00956  0.035457444  0.037400931            1 
  276000     1.135487   -6.7400645    117.50229  0.035477746  0.037377306            2 
  277000    1.1547508   -6.7173828    117.92847  0.035477878  0.037352344            2 
  278000    1.1146774   -6.6947335    117.98623  0.035367575  0.037326852            3 
  279000    1.1537357   -6.7261521    118.32943  0.035343318  0.037301292            1 
  280000    1.1475378   -6.7338543     119.0058  0.035418392  0.037274452            3 
  281000    1.1488654   -6.7614925    118.98872  0.035287282  0.037247198            4 
  282000    1.1449688   -6.7435483    119.53408  0.035323311   0.03721954            2 
  283000    1.1402816   -6.7156215    119.91045   0.03530932  0.037193378            3 
  284000    1.1503817     -6.73238    119.95275  0.035197403  0.037167221            4 
  285000    1.1604112   -6.7218842    120.54348  0.035246632  0.037139982            2 
  286000    1.1327452   -6.7313486    120.81715  0.035203133   0.03711236            2 
  287000     1.129539   -6.7119529    121.40784  0.035251986    0.0370843            3 
  288000    1.1301659   -6.7074193    121.47722  0.035149659  0.037055866            2 
  289000    1.1429275   -6.7907434    121.33379  0.034986675  0.037027279            5 
  290000    1.1570079   -6.7533557    122.03215   0.03506671  0.036998463            1 
  291000    1.0953979   -6.7293444    122.85475  0.035181772  0.036970869            2 
  292000    1.1303172   -6.7833574    122.24434  0.034887082  0.036942785            3 
  293000    1.1633351   -6.7558296    122.90243  0.034955185  0.036914568            1 
  294000    1.1317518   -6.7482294    123.90753  0.035121182  0.036887706            1 
  295000    1.1457908   -6.7187913    124.10594  0.035058176   0.03686007            2 
  296000    1.1482686   -6.7107706    124.27583  0.034987566   0.03683178            2 
  297000    1.1229939   -6.7533995    124.34822  0.034890074  0.036803205            4 
  298000    1.1567648   -6.7364557    124.76536  0.034889641  0.036775345            3 
  299000    1.1599495   -6.7438473    125.59378   0.03500384  0.036748063            2 
  300000    1.1295836   -6.7433478    126.06804    0.0350189  0.036721574            2 
  301000    1.1347595   -6.7124323     126.3947  0.034992995  0.036695378            2 
  302000    1.1528841   -6.7555141    126.77568  0.034982252   0.03666949            2 
  303000    1.1421826   -6.7274446    127.34357  0.035022983  0.036642528            2 
  304000    1.1423178   -6.7397015    127.36074  0.034912485  0.036616096            1 
  305000    1.1105666   -6.7333231    127.50421  0.034837216  0.036588679            1 
  306000    1.1385183   -6.7454664    127.91879  0.034836271  0.036560717            1 
  307000    1.1284671    -6.776052    127.79695  0.034689725  0.036532609            2 
  308000    1.1504749   -6.7791253    128.19301  0.034684255   0.03650305            2 
  309000     1.134085   -6.7258792    128.35572   0.03461589  0.036474747            1 
  310000    1.1326589   -6.7174722    129.50693   0.03481369  0.036446618            2 
  311000     1.145875   -6.7330181    129.14029  0.034603508  0.036419357            3 
  312000    1.1331473   -6.7091351    129.43791  0.034572093  0.036391772            1 
  313000      1.13566   -6.7277349    130.33116  0.034699458  0.036364274            4 
  314000    1.1317148   -6.7370082    130.88362  0.034735569  0.036337276            2 
  315000    1.1458357   -6.7209778    131.06486  0.034673244  0.036310511            5 
  316000    1.1317517   -6.7763399    130.94893  0.034532946  0.036283043            5 
  317000     1.116681   -6.7407179    131.62705  0.034602274   0.03625649            5 
  318000    1.1518736   -6.7399539    132.11862  0.034622279  0.036230083            1 
  319000    1.1436355   -6.7470725    132.19931  0.034534826  0.036203239            2 
  320000    1.1195249   -6.7675466    132.35688  0.034467938   0.03617603            1 
  321000    1.1475517   -6.7302013    133.35067  0.034618553  0.036150258            1 
  322000    1.1145696   -6.7504833    134.12739  0.034712056  0.036125865            1 
  323000    1.1403544   -6.8003753    134.04732  0.034583933  0.036103099            2 
  324000    1.1356982   -6.7680306    134.80587  0.034672293   0.03608057            2 
  325000    1.1352199   -6.7625064    134.83351  0.034572694  0.036056416            1 
  326000    1.0895378   -6.7704598    135.44204  0.034622199  0.036031585            5 
  327000    1.1221066   -6.7907052    134.84526  0.034364234  0.036006596            2 
  328000    1.1394951   -6.7855465     135.2431  0.034360543  0.035980582            4 
  329000    1.1084262   -6.7285246    135.95452  0.034436303  0.035954809            4 
  330000    1.1197731   -6.7486722    136.47568  0.034463557  0.035929675            2 
  331000    1.1326922    -6.779857    136.64861  0.034402973  0.035904741            2 
  332000    1.1140015   -6.7733796    137.04535  0.034398933  0.035880383            2 
  333000    1.1317174   -6.7290304    137.99647  0.034533652  0.035856978            2 
  334000    1.1254705   -6.7604752    137.91893   0.03441091  0.035834417            1 
  335000    1.1222511   -6.7767362    138.69701  0.034501745  0.035811639            5 
  336000     1.093245   -6.7299894    139.40517  0.034574695  0.035789918            1 
  337000    1.1333919   -6.7842997    139.23064  0.034428942  0.035768319            2 
  338000    1.1162076   -6.7949836    139.94582  0.034503406  0.035746267            1 
  339000    1.1289303   -6.7731004    140.43733  0.034522451  0.035723752            2 
  340000    1.0839341   -6.7753896    140.44492  0.034422775  0.035701924            2 
  341000    1.1077338   -6.7741756     140.7512  0.034396675  0.035679481            1 
  342000    1.1251441   -6.7386834    140.85431  0.034321225   0.03565665            2 
  343000    1.1150126     -6.77709    141.23673  0.034314075  0.035633663            2 
  344000    1.1184243   -6.8054367    140.85251  0.034121247  0.035609576            2 
  345000    1.1172627   -6.7539218    141.99992  0.034299497  0.035586628            3 
  346000    1.1023139   -6.7408472    142.58274  0.034340736  0.035565027            3 
  347000    1.1049367   -6.7894106    142.81913  0.034298543  0.035543333            3 
  348000    1.1002312   -6.8055949    142.61924  0.034152117  0.035520567            6 
  349000    1.1097692   -6.7933088    143.69538  0.034311218  0.035497902            3 
  350000    1.1138077   -6.7950724    143.78326  0.034234111  0.035475789            3 
  351000    1.1336325   -6.7486693    144.65932  0.034344569  0.035453819            2 
  352000    1.0949439   -6.7819836     144.3121  0.034164796  0.035432184            2 
  353000    1.1325806   -6.7831494     144.5994  0.034135835  0.035409781            3 
  354000    1.1245638   -6.7701962    145.53816  0.034260396  0.035388305            2 
  355000    1.0994914   -6.7807911    145.94726  0.034259919  0.035367471            2 
  356000    1.1363231   -6.7608645    145.72285  0.034111154  0.035346786            2 
  357000    1.1117473   -6.7729134    145.96422  0.034071947  0.035326067            2 
  358000    1.1245655   -6.7714827    146.62633  0.034130897  0.035305451            1 
  359000    1.1164286   -6.7792269    146.78277  0.034072138  0.035283438            2 
  360000    1.1125576   -6.8229273    146.89121  0.034002596  0.035262312            4 
  361000    1.1234665   -6.7799598    147.33123  0.034009978  0.035241073            2 
  362000    1.0944265   -6.7897825     148.4063  0.034163512   0.03522034            2 
  363000    1.0822268   -6.7894219    148.41833   0.03407216  0.035199454            2 
  364000     1.090545   -6.7943989    148.52719  0.034003477  0.035178234            4 
  365000    1.0903895   -6.8194497    148.56212  0.033918293  0.035156371            2 
  366000    1.1104524   -6.7890462    149.20097  0.033971078  0.035134936            2 
  367000     1.103595   -6.8122107    149.64693  0.033979775  0.035114119            3 
  368000    1.1155609   -6.7819167    150.12447  0.033995578  0.035093872            4 
  369000    1.1046338   -6.8001513    150.59812  0.034010415  0.035073728            5 
  370000    1.1218491   -6.8075375     150.9859  0.034005834  0.035053467            2 
  371000    1.1230683   -6.7779532    151.14245  0.033949338  0.035032792            3 
  372000    1.1267283   -6.7876601    151.80582  0.034006681  0.035012537            3 
  373000     1.069251   -6.8121401    152.29663  0.034025164  0.034992232            3 
  374000    1.1266312    -6.810842    152.57503  0.033996218  0.034972313            1 
  375000    1.0969153    -6.794151    152.72411  0.033938691  0.034952223            2 
  376000    1.1170354    -6.808289    153.37158  0.033991929  0.034932452            5 
  377000    1.0976661   -6.8164471     153.3935  0.033906609  0.034912865            2 
  378000    1.0839555   -6.8269807     153.7323    0.0338916  0.034892477            2 
  379000    1.0834323   -6.8227549    153.29157  0.033705271  0.034871887            1 
  380000    1.0995947   -6.7894755    154.43661  0.033867677  0.034851321            2 
  381000    1.1018007   -6.7909896     154.9769  0.033896959  0.034831146            4 
  382000    1.0954974   -6.7930092    155.28611  0.033875678   0.03481157            3 
  383000    1.0839615   -6.7781968    155.24284  0.033777816  0.034791093            3 
  384000    1.1148201   -6.8382551     154.9789  0.033632574  0.034770199            3 
  385000    1.0990441   -6.8212201    155.82749  0.033728894  0.034749006            1 
  386000     1.099365   -6.8102996    156.12243  0.033705189  0.034728296            2 
  387000    1.1007989   -6.8425309    156.15955  0.033626088  0.034707868            2 
  388000    1.0756422   -6.8053244    156.59138  0.033632169  0.034686288            2 
  389000    1.0814926   -6.8412564    156.51855  0.033530109  0.034664574            2 
  390000    1.1196968   -6.7767475    157.50156  0.033654178   0.03464376            4 
  391000    1.1051619   -6.8512675    157.12079  0.033486954  0.034622706            5 
  392000     1.091495   -6.8311687    157.77052  0.033539651   0.03460124            2 
  393000    1.0926751   -6.7949067    158.34126  0.033575331  0.034579995            2 
  394000    1.0910579   -6.8023147    158.95477  0.033619874      0.03456            4 
  395000    1.0882491   -6.8140067    159.02354   0.03354927  0.034539431            2 
  396000    1.1201988   -6.8768051    159.18484  0.033498493  0.034518577            2 
  397000    1.0866685   -6.7939901    159.56607  0.033494137  0.034497944            3 
  398000    1.0892224   -6.7972808    159.70298  0.033438648  0.034476683            3 
  399000    1.0976085      -6.8316    160.05798  0.033428984   0.03445539            3 
  400000    1.1079345   -6.8267294    160.02996  0.033339574  0.034434413            3 
  401000    1.0904917   -6.8596116    160.09074  0.033269065  0.034412364            3 
  402000    1.0972467   -6.7746663    161.04281  0.033383668  0.034390867            5 
  403000    1.0988249   -6.8018273    160.55805   0.03320059  0.034368691            2 
  404000    1.0830825   -6.8188525    160.52314  0.033111208  0.034345245            2 
  405000    1.0852227   -6.8517316    160.56914  0.033038918  0.034320427            1 
  406000    1.0982531    -6.852272    161.04746  0.033055717  0.034295363            2 
  407000     1.075646   -6.8724382    160.78253  0.032920256  0.034269612            3 
  408000    1.0592567   -6.8577607    161.44519  0.032974915  0.034244312            1 
  409000    1.1069388   -6.8297908    161.77161  0.032960801  0.034219255            3 
  410000      1.09613   -6.8442628    162.06464  0.032939967  0.034194238            3 
  411000     1.092541   -6.8129201    162.19339  0.032885927  0.034169043            4 
  412000    1.0812507   -6.8175083    162.51931  0.032872029  0.034143564            3 
  413000    1.0636993   -6.8301901    163.61836  0.033014197  0.034118234            5 
  414000    1.1185278   -6.8397872    163.63702  0.032938209  0.034094079            3 
  415000    1.0608265    -6.844286    164.23273  0.032978461  0.034070042            3 
  416000    1.0646509   -6.8681442    164.32289  0.032917245   0.03404599            3 
  417000    1.0589007   -6.8073892    164.88733  0.032951106  0.034022156            3 
  418000    1.0860324   -6.8126418    165.11978  0.032918617  0.033998715            1 
  419000    1.0839995   -6.8471427    165.05365  0.032826898   0.03397486            2 
  420000    1.0714985   -6.8325928    165.66037   0.03286912  0.033950828            5 
  421000    1.0937235   -6.8399121    165.95434  0.032849237  0.033927768            4 
  422000    1.1025721   -6.8562089    166.35253  0.032850025  0.033905458            1 
  423000    1.0895195   -6.8409313    167.09964  0.032919551  0.033883253            1 
  424000    1.0893833   -6.8114216    167.04122  0.032830429  0.033860814            2 
  425000    1.0227512   -6.8097998     167.1922  0.032782785  0.033838211            2 
  426000    1.1126532   -6.8485718    167.67847  0.032800954  0.033815829            2 
  427000    1.0818342   -6.8374226    168.14634  0.032815444  0.033793194            1 
  428000    1.1032379   -6.8415789     167.6193  0.032636157  0.033770627            2 
  429000    1.0774122    -6.858215    168.48286  0.032727828  0.033747993            3 
  430000    1.0979997   -6.8463355    168.69526  0.032692879  0.033724975            2 
  431000     1.090099   -6.8142514    168.70069  0.032618075  0.033702073            2 
  432000    1.0893184   -6.8426222    169.45944  0.032688936  0.033678755            2 
  433000    1.0630549   -6.8688739    169.50135  0.032621507  0.033655667            3 
  434000    1.0877824   -6.8583583    169.88532   0.03262007  0.033632864            3 
  435000    1.0885175   -6.8585677    169.86007  0.032540244  0.033610289            3 
  436000     1.069237   -6.8541854     170.8723  0.032659079  0.033587522            4 
  437000    1.0978059   -6.8702398    170.84567  0.032579267  0.033565172            3 
  438000    1.0671093   -6.8178655    171.95875  0.032716658  0.033543836            1 
  439000    1.0879735   -6.8725903    171.46238  0.032547908  0.033522511            2 
  440000    1.0561475   -6.8422727    173.10819  0.032785641  0.033501038            1 
  441000    1.0745065   -6.8258139    172.54949  0.032605725  0.033480507            2 
  442000     1.056019   -6.8631509    173.17514  0.032649913  0.033459503            2 
  443000    1.0645741   -6.8547493    173.50761  0.032638752  0.033438318            3 
  444000    1.0728637   -6.8566312    173.62323  0.032586942  0.033417575            2 
  445000    1.0706542   -6.8371532    174.37491  0.032654478  0.033397254            3 
  446000    1.0717769   -6.9018504    174.07335  0.032524915  0.033376952            2 
  447000    1.0809944   -6.8582968    174.67465  0.032564253  0.033356971            4 
  448000    1.0713613    -6.882839    174.43676  0.032447315  0.033336297            2 
  449000    1.0753937   -6.8843501    175.13285  0.032504241  0.033315409            2 
  450000    1.0626603   -6.8730107     175.2668  0.032456814   0.03329535            2 
  451000    1.0760952   -6.8398108    175.91565   0.03250474  0.033275233            3 
  452000     1.067642   -6.8746022    176.20835  0.032486791  0.033255154            4 
  453000     1.078469   -6.8648326    176.33006  0.032437465  0.033234699            2 
  454000    1.0646056    -6.838869    176.78128   0.03244884  0.033214275            5 
  455000    1.0615727   -6.8175242      177.013  0.032419964  0.033193393            3 
  456000    1.0922239   -6.8440648    177.71506  0.032477167  0.033172866            1 
  457000    1.0910316   -6.8915971    177.29717  0.032329901  0.033152391            1 
  458000    1.0637243   -6.8361109    177.56891  0.032308754   0.03313125            2 
  459000     1.071895   -6.8515124    177.96714  0.032310664  0.033110304            1 
  460000    1.0544494   -6.8823975    177.40715  0.032138977  0.033089108            3 
  461000    1.0799712   -6.8880836    178.15451  0.032204358  0.033067625            3 
  462000    1.0756805   -6.8725098    178.34618  0.032169224  0.033046694            2 
  463000    1.0581911   -6.8577569    178.62039  0.032149098  0.033024337            3 
  464000    1.0797338   -6.8988151    178.96797  0.032142235  0.033002075            2 
  465000    1.0711342   -6.9072905      179.335  0.032138889   0.03297983            3 
  466000    1.0696649   -6.9066047    179.54121  0.032106798  0.032957714            4 
  467000     1.062373   -6.8880513    180.12601  0.032142399  0.032936213            1 
  468000    1.0600784   -6.8824533    180.42365  0.032126719  0.032915327            5 
  469000    1.0627074    -6.879835    180.18544  0.032015892  0.032894787            2 
  470000    1.0530302    -6.843997    180.73136  0.032044567  0.032874111            2 
  471000    1.0866859   -6.8304868    181.94913   0.03219199  0.032852658            1 
  472000    1.0819622   -6.8669084    181.00052  0.031956307  0.032831385            4 
  473000    1.0378895   -6.8360069    181.97245   0.03205998  0.032810544            2 
  474000    1.0731227   -6.8872686    181.88781  0.031977463  0.032789867            3 
  475000    1.0588024   -6.8740924    182.31073  0.031984339   0.03276901            2 
  476000     1.062046   -6.8986336    182.05035  0.031871561  0.032747954            3 
  477000    1.0808593    -6.884239    182.70762   0.03191957  0.032726493            1 
  478000    1.0760301   -6.8975246    183.19192  0.031937224   0.03270508            1 
  479000    1.0466101   -6.9044601    183.07549  0.031850295  0.032683784            5 
  480000    1.0568974   -6.9038615    183.52573  0.031862107  0.032662784            2 
  481000    1.0629313    -6.922189    183.98201  0.031874915   0.03264148            2 
  482000    1.0312739   -6.9146587    184.35605  0.031873452  0.032620026            3 
  483000    1.0652953   -6.8479505    185.01165  0.031920574  0.032599236            2 
  484000    1.0565963   -6.9059818    184.80005   0.03181819   0.03257824            2 
  485000    1.0564807   -6.9109707    185.24142  0.031828423    0.0325574            3 
  486000    1.0520039   -6.9014238    184.58056  0.031649617  0.032535876            2 
  487000    1.0649035   -6.9174691    184.85585  0.031631733  0.032514544            2 
  488000    1.0772436   -6.8784083    185.82901  0.031733096  0.032492991            3 
  489000    1.0604974   -6.8976335    185.74244   0.03165345  0.032471498            2 
  490000    1.0642689    -6.907237    185.70696  0.031582816  0.032449475            2 
  491000     1.025013   -6.8922603    186.60888  0.031671569   0.03242746            2 
  492000    1.0722398   -6.8624817    186.31695  0.031557749  0.032406053            3 
  493000    1.0839799   -6.8819971    187.28673  0.031657662  0.032385142            2 
  494000    1.0498145   -6.8983423     187.1952  0.031578137  0.032363651            5 
  495000    1.0637445   -6.9114925     188.0256  0.031654141  0.032342917            4 
  496000    1.0460581   -6.8907271    188.32809  0.031641144  0.032322255            2 
  497000    1.0465298    -6.939497     189.4433   0.03176447  0.032302593            3 
  498000    1.0614781   -6.9194037    189.18054  0.031656716  0.032282615            3 
  499000    1.0565071    -6.861927    189.77977  0.031693348  0.032263438            1 
  500000    1.0686164   -6.8662191    190.31611  0.031719352  0.032243911            8 
  501000    1.0470794   -6.8874933    190.19137  0.031635292  0.032224889            2 
  502000    1.0487843   -6.8874058    190.47922  0.031620057  0.032206164            2 
  503000     1.035069   -6.9170633    190.96256  0.031637269  0.032187767            2 
  504000    1.0447043   -6.8773084      191.183  0.031610945  0.032169417            4 
  505000    1.0802237   -6.9176548    191.42094  0.031587614  0.032151746            1 
  506000    1.0568603   -6.9010049    192.28808  0.031667998   0.03213391            2 
  507000    1.0268193   -6.8952363    192.42136  0.031627443  0.032115854            2 
  508000    1.0584994    -6.918371    192.38148  0.031558642  0.032097215            3 
  509000    1.0434647   -6.9244566    192.34092  0.031490001  0.032078764            4 
  510000    1.0692697   -6.9119845    193.58722  0.031631898  0.032060934            3 
  511000    1.0539272   -6.8775042    194.73064  0.031756465  0.032043729            3 
  512000    1.0475775    -6.909042    193.86824  0.031554076  0.032026285            2 
  513000     1.032974   -6.9072036    194.37477  0.031574849  0.032008919            3 
  514000    1.0343166   -6.8973841    194.67946  0.031562818  0.031991067            4 
  515000    1.0370865   -6.9001086    194.74344  0.031511884  0.031972865            2 
  516000    1.0510441   -6.8721731    195.17688  0.031520814  0.031954797            2 
  517000    1.0536149   -6.9021219    195.51904  0.031514997  0.031937153            3 
  518000    1.0214697   -6.8896824    195.65621  0.031476224  0.031919538            2 
  519000    1.0404174   -6.9067971    195.53505  0.031396122  0.031901441            3 
  520000    1.0524442   -6.9635041    195.36922  0.031309169  0.031883186            5 
  521000    1.0507449   -6.9105628    196.86035   0.03148758   0.03186533            3 
  522000    1.0500147   -6.9318585    196.27917  0.031334477  0.031847432            4 
  523000    1.0768383   -6.9101016    197.10108  0.031405526  0.031829842            3 
  524000    1.0494875   -6.9202661    197.20297  0.031361795  0.031811901            2 
  525000    1.0263174   -6.9022203    197.82619  0.031400983  0.031793848            6 
  526000    1.0581051   -6.9129452    197.61114  0.031307215  0.031775426            4 
  527000    1.0516925   -6.9095581    197.87509  0.031289547  0.031757093            2 
  528000    1.0481588   -6.9372469    198.17023  0.031276867  0.031738771            5 
  529000    1.0251496   -6.9368607    197.77613   0.03115566  0.031720396            4 
  530000    1.0243997   -6.9279518    198.62057   0.03122965  0.031701524            2 
  531000    1.0122469   -6.8946533     198.3081  0.031121798  0.031682975            2 
  532000     1.032068   -6.9328455    198.79607  0.031139735  0.031664177            4 
  533000    1.0328181   -6.9055337    199.03373   0.03111847  0.031645576            3 
  534000    1.0265051   -6.9296049    199.38197  0.031114539  0.031626791            1 
  535000    1.0321022   -6.9491487    199.95702  0.031145953  0.031608416            4 
  536000    1.0780232   -6.9577281    200.21621  0.031128142  0.031589867            3 
  537000    1.0327436   -6.9268317    200.48695   0.03111219  0.031571245            2 
  538000    1.0711883     -6.91752    201.11796  0.031152101  0.031553106            2 
  539000    1.0523126   -6.9237202     201.0341  0.031081338  0.031534675            3 
  540000    1.0305883   -6.9522643    201.37354  0.031076164  0.031516569            1 
  541000    1.0507328   -6.9388056    200.86958  0.030941094  0.031498257            2 
  542000    1.0574491   -6.9300684    201.53916  0.030986956   0.03147987            3 
  543000    1.0395863   -6.9531008    202.55288  0.031085463  0.031461768            2 
  544000    1.0568593   -6.9676631    202.64341  0.031042189  0.031443802            3 
  545000    1.0154373    -6.946981     202.4917  0.030962034  0.031426196            3 
  546000    1.0455578   -6.9478364    203.26828  0.031023852  0.031408514            1 
  547000    1.0641132   -6.8970088    203.94097  0.031069618  0.031390723            3 
  548000    1.0297812   -6.9322583     204.0784   0.03103382  0.031373535            7 
  549000    1.0334838   -6.9416394    204.74588  0.031078609  0.031356152            2 
  550000    1.0632805   -6.9145591    204.16993  0.030934838  0.031339319            2 
  551000    1.0228729   -6.9638701    204.24134  0.030889494  0.031322153            2 
  552000    1.0618191   -6.9713653     204.7662  0.030912772  0.031304686            2 
  553000    1.0242714   -6.9186995    204.85379  0.030870072  0.031287014            5 
  554000    1.0285003   -6.9553615    204.31285  0.030732981   0.03126936            3 
  555000    1.0270751   -6.9418446    205.91258  0.030917804   0.03125116            3 
  556000    1.0311575   -6.9403398    205.63134  0.030820045  0.031233572            3 
  557000    1.0257142   -6.9341468    206.29299  0.030863702  0.031216094            3 
  558000    1.0064428   -6.9289485    206.88889  0.030897385  0.031199161            3 
  559000     1.037506   -6.9550141    206.26475  0.030749069  0.031182102            4 
  560000    1.0175969   -6.9257692    206.91405  0.030790781  0.031165298            5 
  561000    1.0158475   -6.9545654     207.3098  0.030794682  0.031148411            4 
  562000    1.0482908   -7.0076061    207.25003  0.030731024  0.031131185            2 
  563000    1.0365835   -6.9988589    207.80951  0.030759253  0.031113537            2 
  564000    1.0260623   -6.9944189    207.46216  0.030653392  0.031095913            3 
  565000    0.9916869   -6.9469717    208.10843  0.030694459  0.031078285            2 
  566000    1.0340069   -6.9262987    208.15354   0.03064687  0.031060861            1 
  567000    1.0065276    -6.955193    209.18567  0.030744514  0.031043891            2 
  568000    1.0265878   -6.9321714    209.33775  0.030712699  0.031026934            2 
  569000    1.0568429    -6.923232    209.97355  0.030751838  0.031009669            2 
  570000    1.0260631   -6.9486528    209.40949  0.030615423  0.030992343            2 
  571000    1.0067571   -6.9613538    209.37665  0.030557013  0.030975203            3 
  572000    1.0294521   -6.9914286    210.50379  0.030667802  0.030958108            2 
  573000    1.0406915   -6.9657176     210.3331  0.030589456  0.030940771            6 
  574000    1.0499509   -6.9026012    211.10761  0.030648607  0.030923213            5 
  575000    1.0126163   -6.9735488    211.17838  0.030605562  0.030905806            4 
  576000    1.0338727   -6.9817845    210.77004   0.03049335  0.030888558            2 
  577000    1.0335202   -6.9770027    210.82047  0.030447785  0.030871104            1 
  578000    1.0101815   -6.9579742    211.20353  0.030450337  0.030853808            2 
  579000    1.0185298    -6.971857    211.51066  0.030441948  0.030836544            4 
  580000   0.99433888   -6.9831461    211.51552  0.030390161  0.030818722            2 
  581000    1.0541574   -6.9505309    212.67251  0.030503802   0.03080122            4 
  582000    1.0127552   -6.9853063    212.39189   0.03041121  0.030783925            2 
  583000    1.0294795   -6.9164418    213.16274  0.030469231  0.030766739            3 
  584000    1.0474364   -6.9552556     213.5569  0.030473302  0.030749597            1 
  585000    1.0002441   -6.9772437     213.1265  0.030359901  0.030732027            3 
  586000    1.0316865   -6.9867252    213.77622  0.030400487  0.030714284            3 
  587000    1.0522241   -7.0178519    213.00909  0.030239792  0.030696238            3 
  588000    1.0485687   -6.9703054    213.39685  0.030243318  0.030678287            3 
  589000    1.0061476   -6.9706521    214.29047  0.030318403  0.030660738            3 
  590000    1.0136179   -6.9926972    214.15921  0.030248476  0.030643499            3 
  591000    1.0285513   -6.9841681    214.68804  0.030271861  0.030626326            4 
  592000    1.0407307   -6.9780204    215.10901  0.030279985  0.030609129            2 
  593000    1.0155707   -6.9784203    216.16291  0.030377025  0.030592362            2 
  594000    1.0232048   -6.9572387    216.37105  0.030355086  0.030575787            2 
  595000    1.0112893   -6.9524729    216.48967  0.030320682  0.030559191            3 
  596000   0.99896509   -6.9851087    216.80951  0.030314528   0.03054239            4 
  597000   0.99924143   -6.9958154     216.6863  0.030246552   0.03052542            1 
  598000    1.0149363   -6.9749349    216.86284  0.030220574  0.030508407            3 
  599000    1.0401155    -6.979655    217.40706  0.030245834  0.030491552            2 
  600000    1.0094037   -7.0034374    217.14527  0.030159065   0.03047457            4 
  601000    1.0070215   -6.9846376     217.1309  0.030106891  0.030457682            3 
  602000    1.0236265   -7.0039255    218.26417  0.030213756  0.030441073            1 
  603000    1.0050326   -7.0181873    217.97866  0.030124193  0.030424396            4 
  604000    1.0106807   -6.9805893    219.11703  0.030231378   0.03040766            3 
  605000    1.0271734   -6.9936749    219.19416  0.030192034   0.03039144            3 
  606000     1.030059   -6.9537066    219.44886  0.030177235  0.030375673            4 
  607000     1.020684   -7.0087258    219.87919    0.0301866  0.030360068            6 
  608000    0.9898559   -6.9769234    220.89632   0.03027636  0.030344162            2 
  609000   0.99014011   -7.0334822    221.13394   0.03025916  0.030327979            1 
  610000    1.0117119   -7.0084494    219.99712  0.030054251  0.030311959            4 
  611000    1.0046596   -6.9793846     220.2736  0.030042771  0.030296108            4 
  612000    1.0200368   -7.0030418    221.62131  0.030177194  0.030280168            2 
  613000    1.0017737   -7.0168402    221.42477  0.030101247  0.030264097            4 
  614000    1.0075868    -6.967094    221.96676  0.030125782  0.030248557            2 
  615000     1.000868   -7.0109745    222.18925  0.030106945  0.030233225            2 
  616000      1.00305   -6.9859072     222.7338  0.030131737  0.030218272            2 
  617000    1.0080757   -7.0212552    223.18078  0.030143271    0.0302033            2 
  618000    1.0426768   -6.9943977     223.2848  0.030108522  0.030188598            3 
  619000    1.0000576   -6.9810937    223.62021  0.030105037  0.030173352            2 
  620000    0.9929787    -7.005802    223.87215  0.030090342  0.030157913            2 
  621000    1.0185444   -7.0213235    223.88924  0.030044182  0.030142609            7 
  622000    1.0179298   -6.9957994    223.57732  0.029954089  0.030127224            2 
  623000    1.0000945   -7.0104293    224.28003  0.030000004  0.030111614            3 
  624000   0.99769918   -7.0028123    223.88729  0.029899478  0.030096162            1 
  625000    0.9688414   -6.9983533    225.14048  0.030018731  0.030080601            4 
  626000   0.99689027   -7.0081456    224.88582  0.029936876  0.030065157            1 
  627000   0.99274825   -6.9989021    224.91102   0.02989248  0.030049908            3 
  628000    1.0217158   -7.0299294    226.03133  0.029993541  0.030034551            3 
  629000    1.0046204   -7.0220012    225.03956  0.029814462  0.030019018            2 
  630000    1.0114805   -7.0074395    225.63785  0.029846276  0.030002935            2 
  631000    1.0015957   -6.9776593    226.12633  0.029863487  0.029987379            2 
  632000    1.0008506   -7.0146291    225.67746  0.029757049  0.029971379            3 
  633000   0.99846368   -7.0179275    226.08791  0.029764075  0.029955422            2 
  634000    1.0148679   -7.0468635    225.52987  0.029643779  0.029939482            2 
  635000    1.0190953   -7.0186011     226.7449  0.029756549    0.0299235            2 
  636000   0.99320279   -6.9979233    226.94212  0.029735603  0.029907719            3 
  637000     1.022685    -6.994068    227.11251  0.029711213   0.02989179            7 
  638000    1.0051117   -7.0150869    226.83059   0.02962782  0.029875512            2 
  639000   0.99884663     -7.00786    227.70671  0.029695711  0.029859322            6 
  640000    1.0008099   -7.0177569    227.43405  0.029613809  0.029842835            1 
  641000     1.005622   -6.9909137    227.58078  0.029586685  0.029826227            1 
  642000   0.99074823   -7.0169531    228.30221  0.029634243  0.029809841            5 
  643000    1.0186935   -7.0120394    228.07541  0.029558762  0.029793735            3 
  644000    1.0009013   -7.0024909    228.75615  0.029600951  0.029777845            3 
  645000   0.99765557   -7.0038163     229.1283  0.029603139  0.029761603            3 
  646000    1.0093448   -6.9921881    229.36176   0.02958743  0.029745666            4 
  647000   0.99418862   -7.0418473     229.1764  0.029517825  0.029729019            2 
  648000   0.99825998   -7.0303191    229.66628  0.029535273  0.029712791            3 
  649000   0.98019174   -6.9947371    230.40143  0.029584159  0.029696561            6 
  650000   0.98802611   -6.9855242    230.12492  0.029503194  0.029680352            2 
  651000   0.99211346   -7.0393084    229.25597  0.029346643  0.029663701            2 
  652000   0.99706496   -7.0572549    229.59604  0.029345097  0.029646917            4 
  653000    1.0059391   -7.0785525     229.3384  0.029267279  0.029629641            4 
  654000    1.0055454   -7.0133021     230.6437  0.029388851  0.029612589            2 
  655000   0.97864551   -7.0407589    230.75965  0.029358734  0.029595652            3 
  656000   0.98303839   -7.0046535    230.71386  0.029308163    0.0295791            2 
  657000   0.98686937   -7.0433387    231.47903  0.029360608    0.0295622            2 
  658000   0.99146532   -7.0534767    231.65107  0.029337774  0.029545534            5 
  659000   0.98877533   -6.9826618    233.03716  0.029468533  0.029529252            3 
  660000    0.9974752   -7.0461614    232.16009  0.029313143   0.02951313            1 
  661000   0.99679554   -7.0495386    232.04966  0.029254873  0.029496964            2 
  662000   0.98270137   -7.0450051    232.48063  0.029264933  0.029480614            2 
  663000   0.97633448   -7.0226197    233.51619  0.029350955   0.02946445            3 
  664000   0.99835775   -7.0280996    232.52442  0.029182282  0.029447945            3 
  665000   0.97543046   -7.0551567     233.1883  0.029221591  0.029431305            3 
  666000   0.95194551   -7.0411611    233.29735   0.02919136   0.02941432            3 
  667000    1.0057892   -7.0301901    233.81105  0.029211776   0.02939718            2 
  668000   0.97788262   -7.0423957    233.04169  0.029072067  0.029379969            5 
  669000   0.99047187   -7.0307629     233.7225  0.029113416  0.029362978            4 
  670000    1.0010604   -7.0453798    233.31746  0.029019585  0.029346106            2 
  671000    1.0072967   -7.0286275    234.19169  0.029084909  0.029329109            2 
  672000   0.97900371   -7.0397599    233.68669  0.028979005  0.029311956            4 
  673000   0.96822313   -7.0258504    233.86562  0.028958101  0.029294643            1 
  674000   0.97150383   -7.0358629    234.65847  0.029013164  0.029277266            7 
  675000   0.98446931   -7.0223831    235.21471  0.029038853   0.02925985            3 
  676000    0.9949102   -7.0227128    235.50044   0.02903112   0.02924261            3 
  677000    0.9703733   -7.0278189    235.34404  0.028968986  0.029225201            6 
  678000   0.98940914    -7.051076    235.35946  0.028928153   0.02920766            2 
  679000    1.0022393   -7.0492504    235.04652  0.028847143  0.029190222            2 
  680000   0.97285252   -7.0731424    235.61805  0.028874762  0.029172861            2 
  681000   0.97978914   -7.0528267    236.27976  0.028913333  0.029155495            4 
  682000   0.95989883   -7.0391376    236.14447  0.028854407   0.02913823            2 
  683000   0.97694967   -7.0620431     236.5796  0.028865252  0.029121217            2 
  684000   0.97221402   -7.0461063    236.43314  0.028805207  0.029104099            2 
  685000   0.95138923   -7.0682432    236.05729  0.028717432  0.029086933            4 
  686000   0.98754564   -7.0354621    237.18448  0.028812497  0.029069351            2 
  687000   0.97648088   -7.0450001    236.55537  0.028694247  0.029051575            1 
  688000    0.9655782   -7.0479821    236.65798  0.028664969  0.029034158            3 
  689000   0.99114195   -7.0790541    237.01485  0.028666527  0.029016313            5 
  690000   0.96960665   -7.0759788       237.57  0.028692028  0.028998699            7 
  691000   0.96184497   -7.0775836     237.8483  0.028684069  0.028981144            3 
  692000    0.9788639   -7.0487003    237.88108  0.028646566  0.028963564            2 
  693000   0.97233355    -7.044795     238.5594  0.028686797  0.028946005            2 
  694000   0.97463888   -7.0861386    237.87096  0.028562796  0.028928322            2 
  695000   0.97919368   -7.0805349     238.1771  0.028558405  0.028910562            2 
  696000    1.0059254    -7.060596    238.24779  0.028525837  0.028892685            5 
  697000   0.97946926   -7.0768439    239.24974  0.028604704  0.028875043            4 
  698000   0.96187607     -7.03844    239.49274  0.028592734  0.028857384            1 
  699000   0.97235106   -7.0287243    239.33608  0.028533152  0.028839947            4 
  700000   0.96456143   -7.0478448    239.74152  0.028540657  0.028822366            2 
  701000   0.95662753   -7.0479369    239.87654  0.028515994  0.028804897            2 
  702000   0.94928095   -7.0422833     240.2587  0.028520738  0.028787271            3 
  703000   0.99662359    -7.073344    240.34382  0.028490259  0.028769507            6 
  704000   0.97573752   -7.0179513    240.45548  0.028463007   0.02875148            2 
  705000   0.97593673   -7.0848434    240.05349  0.028375117  0.028733862            3 
  706000   0.97779629   -7.0825666    239.89405  0.028316106  0.028716079            3 
  707000   0.95801652   -7.0796434    240.61084  0.028360542  0.028698256            3 
  708000   0.95516832   -7.0675622    240.90409  0.028355001  0.028680243            3 
  709000    1.0000267   -7.0232867    241.23595  0.028354014   0.02866256            4 
  710000   0.96378164   -7.0675813    241.32967  0.028325079  0.028644714            2 
  711000   0.98800345   -7.0523659    242.07559  0.028372666  0.028627016            2 
  712000   0.99884766   -7.0723305    241.66851  0.028285172  0.028609311            2 
  713000   0.97697597   -7.0551128    242.35944  0.028326256  0.028591333            5 
  714000   0.96016013   -7.0692293     242.1519   0.02826236  0.028573579            3 
  715000    0.9733845   -7.0775672    242.71552  0.028288522  0.028555696            3 
  716000   0.97097079   -7.0423378    242.24832  0.028194637  0.028538005            1 
  717000   0.95182738   -7.0566414    243.16725  0.028262117  0.028520243            3 
  718000   0.95490732   -7.1008861    241.95542  0.028082106  0.028502239            3 
  719000   0.96527554   -7.0656916    242.88091  0.028150315  0.028484075            3 
  720000   0.96787761   -7.0303191    243.13655  0.028140805  0.028466069            2 
  721000    0.9444431    -7.094216     242.6008  0.028039852  0.028448252            2 
  722000   0.95655994   -7.0859491    243.57042  0.028112929  0.028430322            3 
  723000   0.95244252    -7.089951    243.44188   0.02805923  0.028412342            2 
  724000   0.96097565    -7.048591     244.0354  0.028088789  0.028394731            3 
  725000   0.94767964   -7.1032348    244.05133  0.028051877   0.02837702            2 
  726000   0.97471911    -7.085931     244.9121  0.028112041  0.028359481            1 
  727000   0.98240133   -7.0863691    244.85615  0.028066959    0.0283418            7 
  728000   0.97192881   -7.0568385    245.20817  0.028068701  0.028324166            2 
  729000   0.97769824    -7.108883    244.71418  0.027973728  0.028306217            5 
  730000   0.96329126   -7.1263964    244.99023  0.027966922   0.02828802            2 
  731000   0.94418287   -7.0838382    244.97524  0.027926954  0.028270016            3 
  732000   0.96773407   -7.0949758    245.47553  0.027945757  0.028251844            4 
  733000    0.9622645   -7.0936185    246.00527  0.027967858  0.028233847            5 
  734000   0.94229614   -7.1306032    245.34684     0.027855  0.028215705            2 
  735000   0.96749505   -7.1083871    245.53624  0.027838576  0.028197795            4 
  736000   0.96122815   -7.1140781    245.83117  0.027834145  0.028179448            4 
  737000   0.96317907    -7.133721    245.93273  0.027807862  0.028161034            2 
  738000   0.96402734   -7.0939604     246.1034  0.027789453  0.028142855            4 
  739000   0.96240939   -7.1004652    246.78843  0.027829096  0.028124909            3 
  740000   0.94915551   -7.0678725    246.88336   0.02780218  0.028106926            3 
  741000   0.94605057   -7.0792574    247.53972  0.027838475  0.028089225            3 
  742000   0.96622941   -7.1089087    248.04681  0.027857908  0.028071642            3 
  743000   0.95775964   -7.0863928    247.43211   0.02775147  0.028054228            2 
  744000   0.95102898   -7.0092062    248.57251  0.027841904  0.028036664            3 
  745000   0.95598046   -7.1302721    247.63937  0.027700153  0.028018999            3 
  746000   0.93812822   -7.1011534    248.10331  0.027714847  0.028001061            2 
  747000    0.9790348   -7.0659624    247.96982  0.027662854  0.027983339            5 
  748000   0.95000508   -7.1055852    247.83072  0.027610375   0.02796554            5 
  749000   0.95076721   -7.0998757     248.6745  0.027667389   0.02794743            5 
  750000   0.94902564   -7.0860645    249.49714  0.027721905  0.027929841            6 
  751000   0.95469819   -7.1207262    249.01547  0.027631543  0.027912381            4 
  752000   0.97326305   -7.0797006    250.28902  0.027735929  0.027894936            2 
  753000   0.92944902   -7.1059286    249.48595   0.02761022  0.027877596            2 
  754000   0.95807614   -7.0957555    250.21668  0.027654363  0.027860262            2 
  755000   0.95219317   -7.0878671    250.41755  0.027639906  0.027843209            6 
  756000   0.95319372   -7.1051187    250.85099  0.027651123   0.02782648            4 
  757000   0.95520975   -7.1122818     250.6864  0.027596477  0.027809449            2 
  758000   0.94767832   -7.1406889    250.36402  0.027524629  0.027792393            2 
  759000   0.95293967     -7.08937    250.87334  0.027544284  0.027775176            3 
  760000   0.95326734   -7.0917837    251.83814  0.027613831  0.027758191            2 
  761000   0.96799894   -7.1257183    250.61047  0.027443109  0.027741146            6 
  762000   0.93185193   -7.1427308    251.61056  0.027516465   0.02772417            3 
  763000   0.94655628    -7.124493    252.53949  0.027581858  0.027707338            3 
  764000   0.95919914   -7.1016121    252.67019  0.027560012  0.027690731            2 
  765000   0.96069204   -7.1019264    252.22345  0.027475322  0.027674133            3 
  766000   0.95934748    -7.133676    253.26573  0.027552843  0.027657657            5 
  767000   0.92712073   -7.1463056    253.48709   0.02754097  0.027640937            3 
  768000   0.94485184   -7.1306456    253.66121  0.027524003  0.027624509            2 
  769000   0.95574757   -7.1298369    253.32281   0.02745154  0.027608182            2 
  770000   0.93964862    -7.078396    254.75363   0.02757074   0.02759215            3 
  771000   0.93393037   -7.0992899    254.71919  0.027531257  0.027575795            3 
  772000   0.93235397   -7.0978382    254.74503  0.027498384   0.02755956            4 
  773000   0.95969693   -7.1444746    254.51556  0.027438072  0.027543075            2 
  774000   0.96786602   -7.1533662    254.50708   0.02740171  0.027526741            3 
  775000   0.93929367   -7.1414344    254.35781  0.027350302   0.02751061            2 
  776000   0.92849686   -7.1349101    254.61403  0.027342572  0.027494341            2 
  777000   0.95460044   -7.1024723    255.97564  0.027453415  0.027478335            3 
  778000   0.95644149   -7.1158113    255.78344   0.02739754  0.027462417            2 
  779000   0.94061838   -7.1424911    256.20723  0.027407705  0.027446303            4 
  780000   0.94374904    -7.105399    255.25704  0.027271051  0.027430128            5 
  781000   0.93728803   -7.1412637    256.08729  0.027324721  0.027413907            4 
  782000   0.95668776   -7.1165675     256.8185    0.0273677  0.027397617            4 
  783000    0.9406895   -7.1049728    257.46161  0.027401193  0.027381682            3 
  784000   0.94321371   -7.1561913    256.73966  0.027289505    0.0273657            3 
  785000   0.94785291   -7.0827258    256.29594  0.027207637  0.027349496            3 
  786000   0.93044901   -7.1353748    257.17879  0.027266623   0.02733331            4 
  787000   0.94466445   -7.1075182    257.24447  0.027238932  0.027317085            3 
  788000   0.93062212   -7.1288112    257.52247  0.027233764  0.027300893            4 
  789000   0.92871271   -7.0967357    257.76235  0.027224583  0.027284618            3 
  790000   0.94292943   -7.1460009     257.4592  0.027158144  0.027268369            3 
  791000   0.93093892   -7.1704414    257.04023   0.02707967  0.027251983            6 
  792000    0.9291941   -7.1103477    258.28542  0.027176496  0.027235614            2 
  793000   0.93459512   -7.1827567     257.8579  0.027097299  0.027219336            3 
  794000   0.92277792   -7.1539921    258.77992  0.027159941  0.027202937            1 
  795000   0.92603506   -7.1622693    258.79363  0.027127215  0.027186724            2 
  796000   0.94093969   -7.1307673    258.84905  0.027098938  0.027170673            4 
  797000   0.92029463   -7.1213634    259.84858  0.027169446  0.027154789            3 
  798000   0.92425822   -7.1486597    260.34494  0.027187232  0.027138924            1 
  799000    0.9459656   -7.1311955    260.00228  0.027117468  0.027123195            4 
  800000    0.9294048   -7.1612011    260.47194  0.027132494  0.027107482            4 
  801000   0.92530188   -7.1416578    260.67026  0.027119253  0.027091662            3 
  802000   0.92739285   -7.1617706    261.14612  0.027134883  0.027075856            2 
  803000   0.93622657   -7.1728996    260.84056  0.027069382  0.027060076            3 
  804000   0.94848632    -7.160751    260.68986  0.027020093  0.027044373            3 
  805000   0.91288173   -7.2169846    261.73679  0.027094905  0.027028769            3 
  806000   0.92304177   -7.1366072    262.29615  0.027119123  0.027013448            4 
  807000   0.91241901   -7.1840521    262.06497  0.027061645  0.026997956            2 
  808000   0.91791944    -7.167642    262.09013  0.027030748  0.026982772            2 
  809000   0.91779577   -7.1192881    262.38517  0.027027727  0.026967618            2 
  810000   0.96845001   -7.1748263    261.84343  0.026938625  0.026952423            2 
  811000   0.92580725    -7.137258    261.88905  0.026910096     0.026937            3 
  812000   0.93631414   -7.1369469     262.1149  0.026900133  0.026921592            3 
  813000   0.93938956   -7.1794942    262.37414  0.026893618  0.026906099            2 
  814000    0.9010461   -7.1445326    262.41787  0.026865057  0.026890219            3 
  815000   0.91727205   -7.1677415    262.51947  0.026842481  0.026874292            6 
  816000   0.95325236   -7.1560305    262.41081   0.02679849  0.026858311            3 
  817000   0.96408457   -7.1538022    262.76628  0.026801947  0.026842571            2 
  818000   0.92279675   -7.1735738    262.51931  0.026744021  0.026826813            1 
  819000   0.91514907   -7.1931104    263.20502  0.026781138   0.02681101            1 
  820000   0.92647882   -7.1678298    263.54508  0.026783036  0.026795242            2 
  821000    0.9332923   -7.1500863    263.77785   0.02677404  0.026779417            3 
  822000   0.93552029   -7.1805354    262.60539  0.026622607  0.026763273            3 
  823000   0.91618442   -7.1869469    263.46031  0.026676824  0.026746882            3 
  824000   0.93784578   -7.1745992    263.39742  0.026638089  0.026730533            3 
  825000   0.92875915   -7.1726325    263.76267  0.026642694  0.026714389            5 
  826000   0.92316251   -7.1471664    263.43379  0.026577259  0.026698182            5 
  827000   0.93234883    -7.177169    264.13372  0.026615651  0.026681828            3 
  828000   0.92873509   -7.1402324    264.85593  0.026656192    0.0266658            3 
  829000   0.91743596   -7.1670073    264.80371  0.026618789  0.026649767            3 
  830000   0.93112239   -7.1885685    264.63228  0.026569506   0.02663367            5 
  831000   0.89772952   -7.2168747    264.73643  0.026547977  0.026617402            3 
  832000   0.92449613   -7.1792359    264.66256   0.02650867   0.02660122            5 
  833000   0.91857651   -7.1457286     265.6017  0.026570798  0.026585318            3 
  834000   0.92339999    -7.123489    265.70157  0.026548918  0.026569502            6 
  835000   0.94005769   -7.1319381    266.12151  0.026559033   0.02655377            7 
  836000   0.91994504   -7.1403679    266.68712  0.026583645  0.026538133            3 
  837000   0.91413668   -7.2205115    265.94784   0.02647828  0.026522138            3 
  838000    0.9085347   -7.1962355    266.08284  0.026460107   0.02650603            4 
  839000   0.91905983   -7.1767974    266.59311  0.026479252   0.02649035            4 
  840000   0.92640227   -7.1820096    266.61659  0.026450059  0.026474804            4 
  841000     0.914642   -7.1677158    267.29091  0.026485425  0.026459174            6 
  842000   0.91266305   -7.1758868    268.63961  0.026587451  0.026443677            3 
  843000   0.91818603   -7.1764524    267.94576  0.026487323  0.026428329            3 
  844000   0.90830642   -7.1570011      268.568  0.026517377   0.02641336            3 
  845000   0.91919248   -7.1876983    268.57759  0.026486942  0.026398195            7 
  846000   0.94370502     -7.17269    268.51389  0.026449358  0.026382992            3 
  847000   0.91764837   -7.1878034     268.1005  0.026377459  0.026367603            4 
  848000    0.9135643     -7.20473    267.83872  0.026320629  0.026352346            8 
  849000   0.90812016   -7.1774376    269.53512  0.026456137  0.026337227            1 
  850000   0.92101987    -7.206755     268.6306  0.026336333  0.026321814            4 
  851000   0.91831357   -7.1613926      269.235  0.026364571  0.026306621            3 
  852000   0.92279332    -7.142971    269.94905  0.026403468  0.026291435            3 
  853000   0.92438359   -7.2037994    268.89605  0.026269641  0.026276095            1 
  854000   0.90991092    -7.207597    270.23604  0.026369637   0.02626078            3 
  855000    0.9048345   -7.2068914    269.94192  0.026310129  0.026245513            5 
  856000   0.91454322   -7.2443507    268.95939  0.026183741  0.026230106            4 
  857000   0.92800854   -7.2467162    269.70577  0.026225765  0.026214556            2 
  858000   0.89651353   -7.2208306    270.11972  0.026235404  0.026198958            6 
  859000   0.89968759   -7.2134805    270.47353  0.026239186  0.026183482            4 
  860000   0.91191376   -7.1905759     270.5522  0.026216299  0.026167977            3 
  861000   0.90638259   -7.2284828    270.36584  0.026167813  0.026152305            2 
  862000   0.91000599   -7.2203501    270.13071  0.026114724  0.026136587            2 
  863000   0.90636733   -7.2160208     271.7215  0.026238075     0.026121            4 
  864000   0.90728725   -7.2133301    270.58945  0.026098519  0.026105548            2 
  865000   0.91384571   -7.1735825    271.30658  0.026137436  0.026089981            4 
  866000   0.90221031   -7.1885421    271.24532  0.026101359  0.026074334            2 
  867000    0.9121098    -7.210225    270.48885  0.025998544  0.026058382            3 
  868000   0.91193811    -7.245458    271.40437  0.026056487  0.026042492            3 
  869000   0.90653009   -7.2208362    271.72111  0.026056876  0.026026579            4 
  870000   0.91277669   -7.2028471    271.74103  0.026028834  0.026010728            5 
  871000   0.90413109   -7.2086136    272.21948  0.026044726  0.025994956            4 
  872000   0.92008746   -7.2257303     271.5637  0.025952188  0.025979416            2 
  873000   0.90780904   -7.2201002    272.70922  0.026031808  0.025963754            5 
  874000   0.91281289   -7.1764235    271.90474  0.025925319  0.025948099            3 
  875000   0.90470818   -7.1995096    273.10388  0.026009894  0.025932709            5 
  876000   0.88904425   -7.1836323    273.05672  0.025975715  0.025917018            3 
  877000   0.90576371    -7.222382    272.74441   0.02591642  0.025901208            6 
  878000   0.91161458   -7.1810102    273.20599  0.025930713  0.025885564            2 
  879000    0.9152295   -7.2243179    273.04818  0.025886252  0.025869847            2 
  880000   0.91517849   -7.2321968    272.52775  0.025807552  0.025854157            4 
  881000   0.92810488   -7.2212325      272.662  0.025790957   0.02583835           10 
  882000   0.89556523   -7.2303445    272.94752  0.025788692   0.02582271            5 
  883000   0.91174857    -7.219996    273.64225  0.025825052  0.025806982            6 
  884000   0.89255429   -7.2453015     273.5527  0.025787396  0.025791221            2 
  885000   0.89792485   -7.2567466    273.39952  0.025743835  0.025775492            5 
  886000   0.87677249   -7.2478957    274.56419  0.025824322  0.025760026            3 
  887000   0.89545465   -7.2201463    274.46348  0.025785746  0.025744686            2 
  888000   0.90274223    -7.214567    274.96417  0.025803695  0.025729462            4 
  889000   0.91123871   -7.2452439    275.00705  0.025778688  0.025714289            3 
  890000   0.90397296    -7.225343    275.83838  0.025827564  0.025699172            2 
  891000   0.88926807   -7.2260357    275.64941  0.025780902  0.025684118            4 
  892000   0.89319124   -7.2201086    275.72783  0.025759327  0.025669031            4 
  893000   0.88013966   -7.2042263    275.92194  0.025748595  0.025653884            4 
  894000   0.88495876   -7.2438816    275.25114  0.025657265   0.02563842            4 
  895000   0.90596185   -7.2268795    276.19951  0.025716901  0.025623069            4 
  896000   0.91628172   -7.2399668     276.6709   0.02573204   0.02560781            5 
  897000   0.90367189   -7.2121435    275.51682  0.025596138  0.025592388            3 
  898000   0.88667652   -7.2075153    277.12363  0.025716744  0.025576977            6 
  899000   0.88837702   -7.1940349    276.56031  0.025635921  0.025561593            4 
  900000    0.8852047   -7.2137772    276.99729  0.025647897  0.025546182            3 
  901000    0.8984571   -7.2614273    275.96738  0.025524175  0.025530872            2 
  902000   0.89906863   -7.2170487    277.08629  0.025599251  0.025515384            4 
  903000   0.89593685   -7.2634819    276.25588  0.025494267  0.025499738            4 
  904000    0.9043791   -7.2425674    276.31965  0.025471944  0.025484089            4 
  905000   0.88867613    -7.233272    277.26788  0.025531112  0.025468565            3 
  906000   0.89441957   -7.2314587    277.90948  0.025561947  0.025453089            5 
  907000   0.87606919   -7.2172815    277.49693  0.025495859  0.025437738            3 
  908000   0.86345706    -7.229963    278.10052  0.025523175  0.025422343            5 
  909000   0.89333594   -7.2297007    277.46997  0.025437291  0.025406969            6 
  910000   0.91453219   -7.2438183    277.71129  0.025431437   0.02539149            5 
  911000   0.86843885   -7.2670973    277.51096  0.025385196  0.025376041            5 
  912000   0.87163366   -7.2890838    277.93606  0.025396204  0.025360448            4 
  913000   0.90911153     -7.22525    277.88706  0.025363916  0.025345074            4 
  914000   0.89726345   -7.2510707    278.49948  0.025392003  0.025329552            5 
  915000   0.88018589   -7.2679592    277.96262  0.025315357  0.025314042            3 
  916000   0.88180308   -7.2337793    279.12113  0.025393116  0.025298591            2 
  917000   0.90612866   -7.2492325    278.60823  0.025318814   0.02528299            3 
  918000   0.88295185   -7.2753686    278.78083  0.025306901  0.025267258            4 
  919000   0.88741344   -7.2704204    278.46919  0.025251105  0.025251545            3 
  920000   0.89294371   -7.2655035    278.82488  0.025255877  0.025235833            3 
  921000   0.88443466   -7.2339555    279.80931  0.025317527  0.025220448            4 
  922000   0.89388296   -7.2377851     279.2902  0.025243149  0.025204971            4 
  923000   0.88493187   -7.2382138    279.04966  0.025194083  0.025189365            3 
  924000   0.88612569   -7.2338349     279.7264   0.02522785  0.025173756            1 
  925000   0.87568475   -7.2507013    279.64765  0.025193482  0.025158202            4 
  926000   0.86413955   -7.2340848    280.01312  0.025199165  0.025142701            6 
  927000   0.87918523    -7.282783    279.56143  0.025131376  0.025127202            2 
  928000   0.88942892   -7.2394192    279.52489  0.025101014  0.025111564            5 
  929000   0.87871251   -7.2374545     280.2113  0.025135567  0.025096072            5 
  930000   0.89257692   -7.2917232    280.26757  0.025113582  0.025080455            5 
  931000   0.90362098   -7.2655924    280.49804  0.025107236  0.025064609            4 
  932000   0.86290974   -7.2258093    280.40446   0.02507193  0.025048705            3 
  933000   0.88892863   -7.2576203    279.32684  0.024948806  0.025032923            4 
  934000   0.87814775   -7.2731586    280.05532  0.024987091  0.025016935           10 
  935000    0.8807505   -7.2514418    280.50215  0.025000192  0.025000961            4 
  936000   0.87520424   -7.2509385    279.59998  0.024893161  0.024984993            2 
  937000   0.88613013   -7.2646245    281.30128  0.025017901  0.024968895            3 
  938000   0.85208512   -7.2611714    280.64183  0.024932643   0.02495289            3 
  939000   0.89277964   -7.2787145     280.5492   0.02489787  0.024936891            1 
  940000   0.89275716   -7.2823594    281.38371  0.024945365  0.024920854            2 
  941000   0.88943045   -7.2920214    281.26521  0.024908361  0.024904951            4 
  942000   0.88278384   -7.2452769    281.23582  0.024879318  0.024888996            3 
  943000   0.87537251    -7.269049    281.58655   0.02488393  0.024873121            3 
  944000    0.8845763   -7.2644546    281.63725  0.024862045  0.024857323            2 
  945000   0.88381447   -7.2786869    281.64847  0.024836726  0.024841501            2 
  946000   0.86490356   -7.2842029    281.32624  0.024782086  0.024825442            5 
  947000   0.86335529   -7.2956574    281.14878  0.024740301  0.024809436            3 
  948000    0.8720015   -7.2767274    281.25971  0.024723955  0.024793375            3 
  949000   0.89133307   -7.2564627    281.91243  0.024755219  0.024777263            3 
  950000   0.86701867   -7.2728724    281.85093  0.024723766   0.02476133            2 
  951000   0.87931673   -7.2468531    282.77373  0.024778631  0.024745484            2 
  952000   0.88634764   -7.2765976    282.55974  0.024733871   0.02472975            4 
  953000   0.84763409   -7.2814052    282.37827  0.024692049  0.024713934            3 
  954000    0.8676706   -7.2772247    282.43915  0.024671485  0.024698122            3 
  955000   0.88538197   -7.3054166    282.02777  0.024609753  0.024682278            3 
  956000   0.88598894   -7.2847409    282.81771  0.024652869  0.024666308           11 
  957000   0.87260063   -7.2606776    282.95444  0.024639014  0.024650212            3 
  958000   0.87303938   -7.2849658    283.05828  0.024622328  0.024634397            5 
  959000   0.86982973   -7.2853957    283.38468  0.024625016  0.024618514            6 
  960000   0.88200364    -7.306061     283.0985  0.024574523  0.024602624            2 
  961000   0.86455906   -7.3046011    283.27949  0.024564645   0.02458658            5 
  962000    0.8727824   -7.2996891    282.54451  0.024475443  0.024570446            6 
  963000   0.85470005   -7.2875702    283.31959  0.024517098  0.024554454            5 
  964000    0.8829032   -7.2637329    284.03629  0.024553621  0.024538354            2 
  965000   0.86240405   -7.3002515    283.98282   0.02452356   0.02452236            2 
  966000   0.84093086   -7.3415997    283.40875   0.02444865  0.024506137            4 
  967000   0.86630083   -7.2836321    283.61503  0.024441144  0.024489887            3 
  968000   0.86332926   -7.3067957    283.89461  0.024439963  0.024473767            3 
  969000   0.85133471   -7.3073417    283.70824  0.024398714  0.024457637            4 
  970000    0.8672308   -7.3009344    284.02921  0.024401135  0.024441638            2 
  971000   0.87538058   -7.2873394    284.28086  0.024397602   0.02442565            3 
  972000    0.8718903   -7.2998787    283.41824  0.024298546  0.024409454            6 
  973000   0.86922541   -7.2986366    283.97032  0.024320856  0.024393246            3 
  974000     0.868588    -7.305382    284.60467   0.02435016  0.024377131            4 
  975000   0.86832831   -7.2772982    284.78235  0.024340372  0.024360906            2 
  976000   0.84943685   -7.3058014     284.0571  0.024253509  0.024344682            4 
  977000   0.84546341   -7.2849453    284.80686  0.024292636  0.024328437            2 
  978000   0.85533571   -7.3120498    284.95938  0.024280793  0.024312324            2 
  979000   0.85090453   -7.2883371    284.86713  0.024248138  0.024296228            4 
  980000   0.87552755   -7.3571302    284.63925  0.024204017  0.024280087            4 
  981000   0.84997834   -7.2980525    285.02744  0.024212321  0.024263837            2 
  982000   0.87787576   -7.2936507    285.09948  0.024193778  0.024247543            2 
  983000   0.87460702   -7.3228566    285.37346  0.024192392  0.024231291            3 
  984000   0.86012177   -7.3292214    285.12267  0.024146568  0.024215054            6 
  985000   0.87953043   -7.3516988    285.28022  0.024135382  0.024198832            4 
  986000   0.86479097   -7.3267322    285.59159   0.02413722  0.024182423            5 
  987000   0.84890853   -7.3292444    285.02644  0.024065049  0.024166056            4 
  988000   0.85632861   -7.3096905    285.55027  0.024084874  0.024149646            3 
  989000   0.85394757   -7.2905237    285.36336  0.024044772  0.024133181            5 
  990000   0.86236078   -7.3123062    286.24028    0.0240943   0.02411676            6 
  991000   0.85783498   -7.3112223    285.92988  0.024043885  0.024100311            3 
  992000   0.84627192   -7.3193624    285.63394  0.023994786  0.024083772            4 
  993000   0.83953186   -7.3386152     285.6672  0.023973414  0.024067269            5 
  994000   0.86208012   -7.3363792    285.81274  0.023961497  0.024050763            5 
  995000   0.87091321     -7.34692    285.23997  0.023889445  0.024034148            2 
  996000   0.88375142   -7.3384545    285.88957   0.02391981  0.024017733            2 
  997000   0.85644038   -7.3189723    285.38431  0.023853586  0.024001188            3 
  998000   0.88156365   -7.3242488    286.42269   0.02391639  0.023984568            3 
  999000   0.84980083   -7.3254694    285.59051  0.023823032  0.023967957            4 
 1000000   0.83889951   -7.3289312    286.67632  0.023889693  0.023951351            5 
 1001000   0.85271241   -7.3184806    286.02249  0.023811396   0.02393481            5 
 1002000   0.84915457    -7.334817    286.24865  0.023806442  0.023918327            5 
 1003000   0.85187061   -7.2953573    287.02538   0.02384724  0.023901909            2 
 1004000   0.86263018   -7.3018044    286.53277    0.0237826   0.02388548            7 
 1005000   0.85529722   -7.3362585    286.07624  0.023721081  0.023868867            4 
 1006000   0.85478339    -7.343111    287.17877  0.023788831  0.023852225            4 
 1007000   0.84899196   -7.3093578    287.63429  0.023802904  0.023835638            5 
 1008000   0.87700033   -7.3304669     287.2022  0.023743568  0.023819254            3 
 1009000   0.85495893   -7.3099001     286.8199  0.023688463  0.023802907            3 
 1010000   0.86048672   -7.3369322    286.86358  0.023668612   0.02378646            4 
 1011000   0.85579423   -7.3253277    286.97852  0.023654675  0.023770011            5 
 1012000   0.84918484   -7.3097988    287.93727   0.02371025  0.023753527            4 
 1013000   0.83403297     -7.35289    287.70105  0.023667411  0.023737056            8 
 1014000    0.8415361   -7.3122868    287.97992  0.023666989  0.023720651            4 
 1015000   0.86563536   -7.3227279    288.08478  0.023652281  0.023704388            4 
 1016000   0.85721543    -7.357073    288.17552  0.023636443  0.023688086            2 
 1017000   0.84512645   -7.3217963    288.05671  0.023603467  0.023671851            4 
 1018000   0.83170272   -7.3414165    288.74613  0.023636717  0.023655698            6 
 1019000   0.86934939   -7.3197859    289.15465  0.023646929  0.023639652            4 
 1020000    0.8217269   -7.3529174    288.43324  0.023564807  0.023623614            3 
 1021000   0.83752731   -7.3405555    288.49045  0.023546396  0.023607521            3 
 1022000   0.83752506    -7.326415     288.7946  0.023548157  0.023591371            3 
 1023000   0.83980608   -7.3457661    289.27066  0.023563918  0.023575294            2 
 1024000   0.84594137   -7.3356692    289.51507  0.023560796  0.023559267            5 
 1025000   0.86093533   -7.3683828    288.85158  0.023483868  0.023543194            9 
 1026000   0.84926758   -7.3381344    289.63086  0.023524274  0.023527086            7 
 1027000    0.8348295   -7.3560002    289.97596   0.02352937  0.023511056            3 
 1028000   0.83722479   -7.3689661    290.23986  0.023527875  0.023494945            3 
 1029000    0.8358731   -7.3279739    289.61038  0.023454031  0.023478927            4 
 1030000   0.84187207   -7.3751267    289.03324  0.023384566  0.023462838            6 
 1031000   0.83951813    -7.368753    289.93273  0.023434589  0.023446544            5 
 1032000   0.86880337   -7.3561929    289.64134  0.023388351  0.023430532            3 
 1033000   0.84564067   -7.3414406    290.75785   0.02345578  0.023414526            7 
 1034000   0.84708928   -7.3440945    290.14483   0.02338369  0.023398402            2 
 1035000   0.86458293    -7.380007    289.97222    0.0233472  0.023382302            3 
 1036000    0.8410702   -7.3582159    290.26363  0.023348104  0.023366163            2 
 1037000   0.83783439   -7.3639247    289.80038  0.023288362  0.023350122            5 
 1038000   0.85287765   -7.3341015    290.92019  0.023355828  0.023334046            4 
 1039000   0.82989378   -7.3396353    290.46278  0.023296662  0.023318004            2 
 1040000   0.83254019   -7.3563244     290.1224  0.023246987  0.023301977            4 
 1041000   0.84484157   -7.3421562    290.76521  0.023276113  0.023285872            4 
 1042000   0.83970623   -7.3521994    290.85862  0.023261246  0.023269884            3 
 1043000   0.84210375   -7.3586176     291.1931  0.023265668  0.023253815            5 
 1044000   0.84297728   -7.3723629    290.33303  0.023174731  0.023237621           11 
 1045000   0.82551989   -7.3575251    290.44905  0.023161806  0.023221454            4 
 1046000   0.83757947   -7.4005509    290.90532  0.023176014  0.023205322            5 
 1047000   0.85169397   -7.3830814    291.26107  0.023182193  0.023189261            7 
 1048000   0.82142183   -7.3822513     291.3951   0.02317073  0.023173195            4 
 1049000   0.83058347   -7.3579032      290.785  0.023100175  0.023157032           15 
 1050000   0.83789949   -7.3899874    290.83836  0.023082409  0.023140944           10 
 1051000   0.85337967   -7.3941367    291.33693  0.023099979  0.023124744            3 
 1052000    0.8534831   -7.3760988    291.40566  0.023083465  0.023108598            3 
 1053000    0.8382673   -7.3810175    291.97459  0.023106568  0.023092489            2 
 1054000    0.8363275   -7.3858314      290.879  0.022998023   0.02307634            6 
 1055000   0.82778427   -7.3576863    291.72078  0.023042716  0.023060184            2 
 1056000   0.82880787   -7.3611998    291.75645  0.023023709  0.023044025            4 
 1057000   0.84117442   -7.3800253    291.62543  0.022991598  0.023027921            7 
 1058000   0.82984995   -7.3706951    292.04168  0.023002653  0.023011812            4 
 1059000     0.828791   -7.3633806    292.07265  0.022983369  0.022995737            2 
 1060000   0.82017449   -7.4125669    291.94896  0.022951962  0.022979551            3 
 1061000   0.83080203   -7.3766875     291.4754  0.022893135   0.02296342            2 
 1062000   0.82588516    -7.347353    291.89024   0.02290413  0.022947434            1 
 1063000   0.83146211   -7.3563859    292.98701  0.022968565  0.022931344            3 
 1064000   0.83693664    -7.356317    291.62416  0.022840238   0.02291522            4 
 1065000   0.82060768   -7.3817194    292.35768  0.022876188  0.022898995            4 
 1066000   0.82687967   -7.3826807    293.15615  0.022917147  0.022883045            7 
 1067000   0.82145307   -7.4094527    292.26774  0.022826284  0.022867021            3 
 1068000   0.82264755   -7.3888224    292.53011  0.022825383   0.02285077            3 
 1069000   0.83167723   -7.3984018     292.5048  0.022802058  0.022834483            4 
 1070000   0.83154689    -7.401008    292.67544  0.022794037  0.022818138            5 
 1071000   0.82831999   -7.3863924    292.35865  0.022748106  0.022801867            3 
 1072000   0.84340757   -7.3981188    293.04414  0.022780173  0.022785622            8 
 1073000   0.82235282   -7.3940384     292.8404  0.022743119   0.02276949            4 
 1074000   0.82688054   -7.3772934    292.45853  0.022692313   0.02275319            4 
 1075000   0.82739468   -7.3864126    292.88608  0.022704347  0.022736891            2 
 1076000   0.83756943   -7.4121734    292.48995  0.022652567  0.022720602            4 
 1077000   0.81012995   -7.4308152    293.64525  0.022720926  0.022704326            3 
 1078000   0.79380906   -7.3461766    293.00543  0.022650389  0.022688092            8 
 1079000   0.83060822   -7.3632272    292.89033  0.022620508  0.022671813            3 
 1080000   0.83977784   -7.3937112      293.289  0.022630324  0.022655616            4 
 1081000   0.81050178    -7.418313    293.35842  0.022614741   0.02263943            3 
 1082000   0.82285438   -7.4112095    293.59287  0.022611897    0.0226232            3 
 1083000   0.83686729   -7.4049186    292.89375  0.022537223  0.022606879            5 
 1084000   0.82095321    -7.440424    292.88346  0.022515641  0.022590556            9 
 1085000   0.79866674   -7.3854357    293.38889  0.022533709  0.022574258            4 
 1086000   0.81550822   -7.3772631     293.5645  0.022526435  0.022557942            3 
 1087000   0.80679058   -7.4030274    293.62026  0.022509986   0.02254169            6 
 1088000   0.83958041   -7.4086078    293.92803   0.02251287  0.022525442            6 
 1089000   0.80949533   -7.3845045    293.89187   0.02248943  0.022509165            3 
 1090000   0.82903696   -7.4002274    293.32852  0.022425728  0.022492873            6 
 1091000   0.82189402   -7.3872466    294.23112  0.022474115  0.022476609            3 
 1092000   0.79481242   -7.3847772    293.63351   0.02240793  0.022460326            8 
 1093000   0.81488281   -7.4161527    293.51712  0.022378554  0.022443938            6 
 1094000   0.82472548   -7.4098627    293.09329  0.022325815  0.022427613            6 
 1095000   0.80706304   -7.3888051    293.26895  0.022318794  0.022411318            3 
 1096000   0.82281208   -7.3886864    294.91643  0.022423695  0.022395051            2 
 1097000   0.81920334    -7.365199      294.117  0.022342525  0.022378832            7 
 1098000   0.82373739   -7.4157775    294.18495  0.022327334  0.022362569            5 
 1099000   0.81959659   -7.4174261    294.22347  0.022309939  0.022346204            5 
 1100000   0.80099827   -7.4444436    294.65038  0.022321998  0.022329813            2 
 1101000   0.83795261   -7.4420689    295.02661  0.022330201  0.022313441            5 
 1102000   0.82210968   -7.4247396    294.37415  0.022260598  0.022297154            7 
 1103000   0.81514027   -7.3926716      294.533  0.022252418  0.022280882            4 
 1104000   0.81465004   -7.3941043    294.73126  0.022247227  0.022264628            7 
 1105000   0.80858097   -7.4229021    294.80691  0.022232799  0.022248273            2 
 1106000   0.80441921   -7.4132949    294.49051  0.022188857  0.022232003            3 
 1107000    0.8165477    -7.391537      294.709   0.02218526  0.022215789            4 
 1108000   0.82452988   -7.4273469    294.31493  0.022135599  0.022199461            4 
 1109000   0.81524211   -7.4126587    294.53094  0.022131871  0.022183075            4 
 1110000   0.81982172   -7.4458405    294.04339   0.02207533  0.022166745            3 
 1111000    0.8068532   -7.4405428    293.84466  0.022040554  0.022150239            4 
 1112000   0.80052773   -7.4184821    294.09855   0.02203976  0.022133675            7 
 1113000   0.78083859   -7.4064487     295.0637   0.02209222   0.02211726            5 
 1114000   0.80647341   -7.4079551    295.15228  0.022079015  0.022100923            3 
 1115000   0.81330895   -7.4367237    294.59954  0.022017903  0.022084501            8 
 1116000   0.80795984   -7.4001695    295.00903  0.022028751  0.022068129            3 
 1117000   0.81855686   -7.4209788    295.10381  0.022016101  0.022051789            7 
 1118000   0.78127889    -7.465737    294.92481  0.021983066  0.022035419            4 
 1119000   0.79298138   -7.4111731    295.69949  0.022021112  0.022019074            5 
 1120000   0.80374412   -7.4450337    295.42246  0.021980838  0.022002823            4 
 1121000   0.80180887   -7.4171709     296.1054  0.022011998  0.021986525            3 
 1122000   0.80737259   -7.4332199    294.93496  0.021905448  0.021970235            3 
 1123000   0.80702022   -7.3906846    295.97572  0.021963173  0.021954068            6 
 1124000   0.81278606   -7.4410522     295.2576  0.021890391  0.021937828            7 
 1125000   0.81284899   -7.4443988    295.56868  0.021893977   0.02192162           10 
 1126000   0.80390327   -7.4166236     295.5156  0.021870604  0.021905513            3 
 1127000   0.78117436   -7.4925806    295.04944  0.021816729  0.021889336            4 
 1128000   0.79241999   -7.4274955    296.46664  0.021902086   0.02187312            4 
 1129000   0.79969441   -7.4351709    296.13071  0.021857892  0.021857009            3 
 1130000   0.80936761   -7.4388441    295.80241  0.021814337  0.021840956            5 
 1131000   0.81884306   -7.4170235    296.29194  0.021831119  0.021824828            6 
 1132000    0.7995247   -7.4650075    296.28121  0.021811043  0.021808655            3 
 1133000   0.79494194   -7.4520767    296.09401  0.021778024  0.021792552            3 
 1134000   0.79886984    -7.451133    296.40559  0.021781716  0.021776386            4 
 1135000   0.80907376   -7.4300644    295.86322  0.021722703  0.021760244            7 
 1136000   0.81465895   -7.4525984    295.86736  0.021703885  0.021743988            6 
 1137000   0.79354717   -7.4494096    296.43768  0.021726596  0.021727742            5 
 1138000    0.8165706   -7.4320136    296.02025  0.021676937  0.021711492            6 
 1139000   0.80495708   -7.4603703    295.21168  0.021598748  0.021695243            4 
 1140000   0.80998028   -7.4831601    296.33186  0.021661686  0.021678993            3 
 1141000   0.77386508   -7.4640075    296.01524  0.021619576  0.021662754            2 
 1142000   0.80579497   -7.4422838    296.21342  0.021615107   0.02164642            6 
 1143000   0.79234003   -7.4443016    296.78123  0.021637593   0.02163021            3 
 1144000   0.79256305   -7.4661416      295.747  0.021543342  0.021613976            5 
 1145000   0.80668076    -7.439578    296.50814  0.021579923  0.021597704            4 
 1146000   0.78862974    -7.468604    295.70085  0.021502389  0.021581341            7 
 1147000   0.79531624   -7.4773545    295.75161   0.02148733  0.021564798            6 
 1148000    0.8089251   -7.4335488    296.59102  0.021529546  0.021548432            2 
 1149000   0.81077084   -7.4841132    295.88145  0.021459345  0.021531965            7 
 1150000   0.79514283   -7.4580877    296.05556  0.021453301  0.021515573            6 
 1151000   0.81043172   -7.4826414    296.08631  0.021436889   0.02149917            4 
 1152000   0.78176473   -7.4929052    296.18173  0.021425183   0.02148273            4 
 1153000   0.79550346   -7.4863275    296.23294  0.021410302  0.021466335            4 
 1154000   0.78805113   -7.4798589    295.80973  0.021361188  0.021449964            3 
 1155000   0.78850013   -7.4655279    297.00253  0.021428754   0.02143362            9 
 1156000   0.78621541   -7.4858648    296.38394  0.021365624  0.021417364            4 
 1157000   0.77793891   -7.4494981    297.29195  0.021412558   0.02140117            7 
 1158000   0.78312615   -7.4475135    297.19747  0.021387267  0.021385076            3 
 1159000   0.79431374   -7.4577374    296.84928  0.021343779  0.021368949            7 
 1160000   0.78665627   -7.4567642    297.09915   0.02134333  0.021352892            4 
 1161000   0.79723721   -7.4564124     296.7864  0.021302498  0.021336788            4 
 1162000   0.79966349   -7.4582525    297.32347  0.021322681  0.021320624            7 
 1163000   0.79459516    -7.477777    297.51773  0.021318266  0.021304473            5 
 1164000   0.77258692   -7.4934188    297.83891  0.021322946  0.021288436            6 
 1165000   0.80825416   -7.4776875    297.67873  0.021293185  0.021272343            1 
 1166000   0.81022056   -7.4496479    298.07178  0.021303015  0.021256259            5 
 1167000   0.79122897   -7.4184397    297.21005  0.021223225  0.021240059            4 
 1168000    0.7735542   -7.4474979    297.18897  0.021203551  0.021223957            9 
 1169000   0.78761392   -7.4932379    297.29669  0.021193092  0.021207863            2 
 1170000   0.80198094   -7.4955711    297.27438  0.021173389  0.021191707            7 
 1171000   0.78840128   -7.4700916    297.97532  0.021205189  0.021175575            6 
 1172000    0.7691575   -7.4815064    297.43863  0.021148935   0.02115941            2 
 1173000   0.78361702   -7.4628425     298.4521  0.021202906  0.021143276            7 
 1174000   0.77996403    -7.462007    297.68663  0.021130511  0.021127211            4 
 1175000    0.7915078   -7.4707819    298.31379  0.021157007  0.021111189            4 
 1176000   0.78655081   -7.5041024    297.44968  0.021077784  0.021095195            2 
 1177000   0.79478429   -7.4537261     298.4652  0.021131775   0.02107921            4 
 1178000    0.7854428   -7.4741161    298.60724  0.021123885  0.021063208            3 
 1179000   0.79009052    -7.480327    298.34491  0.021087426  0.021047231            4 
 1180000   0.79613058   -7.4956043    297.71055  0.021024756   0.02103112            6 
 1181000   0.76959689   -7.4539255    298.52022  0.021064086   0.02101509           11 
 1182000   0.80241129   -7.4619784    298.48275  0.021043623  0.020999112            3 
 1183000   0.79028777   -7.4700089    298.57667  0.021032451  0.020983243            3 
 1184000   0.77192278   -7.5027009     298.3362  0.020997762  0.020967389            4 
 1185000   0.77212415   -7.4477033    299.88095  0.021088674  0.020951569            6 
 1186000   0.78466407   -7.4740609    299.13524  0.021018496  0.020935866            3 
 1187000   0.77820433   -7.4641952    298.53341  0.020958538  0.020920051            6 
 1188000   0.77671848   -7.4820164    299.28166  0.020993383  0.020904271            3 
 1189000   0.79326557   -7.4719349    298.80676  0.020942442  0.020888402            3 
 1190000   0.77663708   -7.4970394    298.77631  0.020922711  0.020872495            3 
 1191000    0.7816417   -7.4897889    298.15112    0.0208614  0.020856557            6 
 1192000   0.78017403   -7.5168848    298.64995  0.020878771  0.020840589            4 
 1193000   0.76742052   -7.5048222    298.48497  0.020849746  0.020824632           12 
 1194000   0.77322335   -7.4858351    299.36527  0.020893724  0.020808717            4 
 1195000   0.77655149   -7.4850152    299.42286  0.020880255   0.02079287            8 
 1196000   0.77978239   -7.4996377    299.13011  0.020842399   0.02077697            3 
 1197000   0.77097043   -7.5073114    298.55101   0.02078467  0.020761123            5 
 1198000   0.76946423   -7.5043516    299.06377  0.020802989  0.020745389            3 
 1199000   0.75278441   -7.4961152      299.673  0.020827982  0.020729592            4 
 1200000   0.76919423   -7.4712372    300.09366  0.020839838  0.020713977            4 
 1201000   0.76187988   -7.5046014    299.92705  0.020810925   0.02069836            6 
 1202000   0.76341566   -7.4845855    300.72147  0.020848688  0.020682807            4 
 1203000    0.7561774   -7.4966494    300.63618  0.020825449  0.020667296            3 
 1204000   0.77519007   -7.5070765    299.97542  0.020762418  0.020651717            5 
 1205000   0.77555754   -7.5034307    300.19768  0.020760559  0.020636163            7 
 1206000   0.78673159   -7.5244646    300.00788  0.020730229  0.020620669            5 
 1207000   0.77965712   -7.5107622    299.73004  0.020693872  0.020605138            4 
 1208000   0.76547608   -7.4838581     300.4845  0.020728788  0.020589621            4 
 1209000   0.77230106   -7.5174286    300.33229   0.02070115  0.020574133            3 
 1210000   0.78499107   -7.4882359    301.12009  0.020738298  0.020558651            6 
 1211000   0.79751235   -7.5381979    300.00134  0.020644188  0.020543093            8 
 1212000   0.76613849   -7.5123147    300.85374  0.020685763  0.020527537            5 
 1213000   0.76175267   -7.5394509    300.12374  0.020618559  0.020511997            3 
 1214000   0.76628083    -7.507511    300.53014  0.020629472  0.020496447            3 
 1215000   0.75993569   -7.4893746     300.3853  0.020602558  0.020480959            2 
 1216000   0.76366927   -7.5367371    299.99335  0.020558754  0.020465398            2 
 1217000   0.76656785   -7.5345145     300.1528   0.02055278  0.020449765            4 
 1218000   0.75947246   -7.5271003    299.59272  0.020497586   0.02043421            4 
 1219000   0.77283465   -7.5149835    300.40141  0.020536055  0.020418682            2 
 1220000   0.78469659   -7.5162369     300.5233  0.020527548  0.020403102            5 
 1221000   0.74803817   -7.5270272    300.48435  0.020508077  0.020387573            7 
 1222000    0.7690096   -7.5157904    300.68346  0.020504873  0.020372076            5 
 1223000   0.77463608   -7.5311231    300.88282  0.020501692   0.02035659            5 
 1224000   0.76686645   -7.5207136    301.24249  0.020509429  0.020341231            4 
 1225000   0.75936241   -7.5290728    300.41878  0.020436652  0.020325909            6 
 1226000   0.75879045   -7.5363709    301.66369  0.020504601  0.020310565            2 
 1227000   0.74845866   -7.5112377    301.18473  0.020455361   0.02029521            4 
 1228000   0.75630119   -7.5353088    301.31589  0.020447604  0.020279946            3 
 1229000   0.75135898   -7.5433582    301.49691   0.02044324   0.02026459            6 
 1230000   0.76967736   -7.5239326     300.7515  0.020376118  0.020249232            5 
 1231000   0.77620102   -7.5508782    301.38673  0.020402568  0.020233895            7 
 1232000   0.74119207   -7.5580795    300.43656  0.020321737  0.020218479            4 
 1233000   0.76648748   -7.5510942    301.20282  0.020357044  0.020203013            4 
 1234000   0.76742392   -7.5235112    301.63199  0.020369529  0.020187619            6 
 1235000   0.75607501   -7.5371921    301.53105  0.020346225  0.020172285           11 
 1236000   0.76833862   -7.5279672    301.17104  0.020305491  0.020156951            7 
 1237000   0.73621392   -7.5549495    301.53064  0.020313301  0.020141617            6 
 1238000   0.78387968    -7.534702    301.23879  0.020277248  0.020126257            9 
 1239000    0.7636376   -7.5305053    301.50774  0.020278971  0.020110895            5 
 1240000   0.77249753   -7.5164242    301.46143  0.020259505  0.020095462            6 
 1241000   0.75591698    -7.521587    301.24532  0.020228668  0.020080101            4 
 1242000   0.74153405   -7.5439324    301.38107  0.020221489  0.020064682            4 
 1243000   0.76467043   -7.5315109    301.34042  0.020202495  0.020049373            5 
 1244000   0.76119881   -7.5346755    301.30779   0.02018407  0.020034053           14 
 1245000    0.7453691   -7.5530478    301.38572  0.020173074  0.020018691            6 
 1246000    0.7467559    -7.557593    302.02825  0.020199856   0.02000336            7 
 1247000   0.76851204    -7.538465    301.98973  0.020181083  0.019988089            5 
 1248000   0.75244129   -7.5462417    302.41631  0.020193396  0.019972736            5 
 1249000   0.73994162   -7.5543282    302.36788  0.020173998   0.01995748            3 
 1250000   0.74472597   -7.5598521    301.75143  0.020116762  0.019942257            4 
 1251000   0.74669789   -7.5810664     301.9644  0.020114868  0.019926971            6 
 1252000   0.75919326   -7.5429991     302.4999  0.020134445  0.019911738           10 
 1253000   0.75579883   -7.5394866    302.13051  0.020093809  0.019896528            2 
 1254000   0.74493931    -7.546997    301.85564  0.020059519  0.019881309            4 
 1255000   0.75071899   -7.5464456    302.66515  0.020097288  0.019866082            4 
 1256000    0.7539962   -7.5552954    302.46687  0.020068131  0.019850876            6 
 1257000   0.76400333   -7.5629852     302.4011  0.020047805  0.019835662           11 
 1258000   0.76698819   -7.5626928    302.01699  0.020006425  0.019820384            4 
 1259000   0.75680934   -7.5748194    301.71271  0.019970394  0.019805113            7 
 1260000   0.75731272    -7.565287    302.26059   0.01999078  0.019789894            4 
 1261000   0.75172743   -7.5740071    302.16415  0.019968553  0.019774615            3 
 1262000   0.74922112   -7.6125517    301.90434  0.019935574  0.019759296            5 
 1263000   0.75361368   -7.5601962    302.54016  0.019961742  0.019744058            6 
 1264000   0.75915311   -7.5662331     301.9124  0.019904562  0.019728851           12 
 1265000   0.75063827   -7.5649306    302.44102  0.019923651  0.019713654            5 
 1266000   0.75319493    -7.569951     301.8266  0.019867469  0.019698445            3 
 1267000   0.74774161   -7.5452274    302.38774  0.019888696  0.019683216            4 
 1268000   0.74928265   -7.5722248    302.11645  0.019855182  0.019668061            4 
 1269000   0.76716002   -7.5496513    303.03833  0.019900074  0.019652912            5 
 1270000   0.74749083   -7.5646785    302.47863  0.019847679   0.01963779            3 
 1271000    0.7672057   -7.5629034    301.83668  0.019789974  0.019622659            7 
 1272000   0.76129034   -7.5783662    302.14767   0.01979479  0.019607575            2 
 1273000    0.7409752    -7.570247    302.44978  0.019799017  0.019592538            2 
 1274000   0.76282461   -7.5542315    302.57207  0.019791475  0.019577479            3 
 1275000   0.74072409   -7.5507733    303.14276  0.019813252  0.019562424            9 
 1276000    0.7259385   -7.5984331     302.5983  0.019762167  0.019547389            6 
 1277000   0.74856202   -7.5771867    303.20093  0.019786018  0.019532291            6 
 1278000   0.74576428   -7.5671827    302.54918  0.019728037  0.019517238            3 
 1279000    0.7456357   -7.5622916    302.57011  0.019713976  0.019502256            3 
 1280000   0.76348155   -7.5451443    302.90969  0.019720683   0.01948725            5 
 1281000   0.74558791   -7.5821464     302.8513  0.019701489  0.019472234            7 
 1282000   0.75199352   -7.5767642    303.56722  0.019732659  0.019457199            5 
 1283000   0.73858548   -7.5790963    302.87672  0.019672429  0.019442199            5 
 1284000   0.74202826   -7.5514571     303.6934  0.019710112  0.019427194            8 
 1285000   0.73948258   -7.5725697    303.47548   0.01968064  0.019412195            5 
 1286000   0.72330032   -7.5827496    303.16462  0.019645193  0.019397206            5 
 1287000   0.76233276   -7.5709309    303.14873    0.0196289  0.019382235            6 
 1288000    0.7431152   -7.5658667    303.12623  0.019612204   0.01936727            9 
 1289000   0.74128985   -7.6181683    302.72713  0.019571188  0.019352187            8 
 1290000   0.74241346   -7.5806534    302.85138  0.019564043  0.019337188            4 
 1291000    0.7540033   -7.5803786    302.43437  0.019521971  0.019322179            9 
 1292000   0.72974973   -7.6172232    302.98147  0.019542149  0.019307132            5 
 1293000   0.72928547   -7.5658081    303.26413  0.019545252   0.01929214            5 
 1294000    0.7453063   -7.5917667    303.13407  0.019521772  0.019277148            4 
 1295000   0.73984585   -7.5822883     303.2545  0.019514447  0.019262141            4 
 1296000   0.74897311   -7.5948621    302.96645  0.019480867  0.019247169            7 
 1297000   0.72611547   -7.5663221    304.16314  0.019542736  0.019232298            4 
 1298000   0.73716441   -7.5820789    303.25984  0.019469686  0.019217469            2 
 1299000   0.73227724   -7.5629838    302.98696  0.019437193  0.019202633            5 
 1300000   0.75799915    -7.569893    303.34041  0.019444898  0.019187838            6 
 1301000   0.74147932   -7.5913358    303.49571  0.019439899  0.019172996            4 
 1302000   0.73897367   -7.5950022    303.91436  0.019451764  0.019158123            6 
 1303000   0.73288326   -7.6312492    303.26939  0.019395586  0.019143256           10 
 1304000    0.7446057   -7.6063272    303.50787  0.019395953   0.01912829            5 
 1305000    0.7327769   -7.5883136    303.24247  0.019364142  0.019113377            3 
 1306000    0.7250205   -7.6032793     302.8622  0.019325051  0.019098484            2 
 1307000   0.72901068   -7.5812217    303.70953   0.01936429  0.019083654            5 
 1308000   0.72115977   -7.5961309    303.46378  0.019333829  0.019068786            4 
 1309000   0.72256614   -7.5956703    303.82888  0.019342302  0.019053909            9 
 1310000     0.732974   -7.6039541    304.19278  0.019350686  0.019039025            7 
 1311000    0.7285717   -7.5686555    304.38771  0.019348316  0.019024167            4 
 1312000   0.72744086   -7.5977764    304.11753  0.019316408  0.019009331            6 
 1313000   0.75015574   -7.5981113    303.51328  0.019263346  0.018994464            6 
 1314000   0.73197554   -7.6191645    303.33738   0.01923753  0.018979455           10 
 1315000   0.72393557   -7.6114915     302.8801  0.019193923  0.018964485            7 
 1316000   0.72522842   -7.6061892    303.19758  0.019199442  0.018949582            7 
 1317000    0.7224334   -7.6107201    303.40028  0.019197689  0.018934725            5 
 1318000    0.7189437   -7.5850815    303.26491  0.019174564  0.018919926            8 
 1319000   0.72104389   -7.5731587    303.94766  0.019203163   0.01890518            3 
 1320000   0.72554111   -7.6156719    303.09944  0.019135065  0.018890403           10 
 1321000   0.72218005   -7.6053012    303.89229  0.019170596  0.018875617            5 
 1322000   0.72890171   -7.5969564    303.74058  0.019146532  0.018860858            5 
 1323000   0.73622314   -7.6163216    304.10314  0.019154896  0.018846084            4 
 1324000   0.73154424   -7.6000576    303.61897  0.019109956  0.018831285            5 
 1325000   0.74554584   -7.5955353    304.66355   0.01916123  0.018816557            7 
 1326000   0.72840663    -7.625202    303.77313   0.01909082  0.018801817            4 
 1327000   0.73045182   -7.6213217     303.3666  0.019050904  0.018787094            3 
 1328000   0.71916914   -7.5942047    303.46063  0.019042459  0.018772387           10 
 1329000    0.7163571   -7.5961169    304.31856  0.019081926  0.018757715            3 
 1330000   0.72117049   -7.6210271    303.61478  0.019023482  0.018742998           11 
 1331000   0.70371484   -7.6278807    304.19809  0.019045711  0.018728282            6 
 1332000   0.73266125   -7.6149856    303.85149  0.019009728  0.018713515           11 
 1333000   0.73379435   -7.5952263    303.50952  0.018974088  0.018698791           10 
 1334000   0.72820957   -7.6087797    303.80642  0.018978412  0.018684069           11 
 1335000   0.70570813   -7.6257378    303.80509  0.018964113  0.018669344            9 
 1336000    0.7373894   -7.6459186    303.63661  0.018939409  0.018654612            5 
 1337000   0.71673286    -7.620641    303.69287   0.01892875  0.018640014            4 
 1338000   0.70075258   -7.6155987    303.39146  0.018895831  0.018625391            4 
 1339000   0.72288183   -7.6309206    304.26961  0.018936371   0.01861074            4 
 1340000   0.71019125   -7.6272452    304.36088  0.018927916   0.01859616            7 
 1341000   0.71821351   -7.6357968    304.70358  0.018935097  0.018581611            4 
 1342000   0.70125723   -7.6219976    303.87644  0.018869625  0.018567029            4 
 1343000   0.73075784   -7.6395948    304.56005  0.018897993  0.018552483            4 
 1344000   0.70842684   -7.6218398    304.70956  0.018893202  0.018537943            3 
 1345000   0.72036734   -7.6334277     304.9302  0.018892826  0.018523458            7 
 1346000   0.71674529   -7.6115307    304.68394  0.018863543  0.018508944            5 
 1347000   0.71331255   -7.6459272     304.7488  0.018853551  0.018494388            6 
 1348000   0.71065955   -7.6265781    304.58265  0.018829293  0.018479879            5 
 1349000   0.72278821   -7.6245377    304.73828  0.018824949  0.018465446            4 
 1350000   0.70789309   -7.6163579    304.35848   0.01878756  0.018451023            4 
 1351000   0.73754252   -7.6289501    304.22524  0.018765436   0.01843651            7 
 1352000   0.72177477    -7.618068    304.60985  0.018775262  0.018421962            5 
 1353000   0.72738153   -7.6372922    304.21994   0.01873737  0.018407447           15 
 1354000   0.70902746   -7.6390525    304.63928   0.01874934  0.018392938            5 
 1355000   0.73168369   -7.6309214    304.30554  0.018714978  0.018378454            9 
 1356000    0.7057728   -7.6594584     304.2737  0.018699219  0.018363928           12 
 1357000   0.69689765   -7.6157768     304.6104  0.018706116  0.018349449            5 
 1358000   0.69912934   -7.6591153    304.66638  0.018695777  0.018334963            5 
 1359000   0.70609973   -7.6478183    304.34547  0.018662342  0.018320473            8 
 1360000   0.71642961   -7.6662785    304.61374  0.018665057  0.018305939            4 
 1361000   0.69989687   -7.6833466    303.57586  0.018587794   0.01829135            6 
 1362000   0.69364399    -7.664846    303.64972  0.018578666  0.018276758            9 
 1363000   0.70963884   -7.6848045    304.64844  0.018626097  0.018262205            5 
 1364000   0.70760663   -7.6633038    304.17315  0.018583403   0.01824768            7 
 1365000   0.71670625   -7.6468579    304.40567  0.018583984  0.018233186            5 
 1366000   0.71916421   -7.6531042    304.54355  0.018578792   0.01821873            5 
 1367000   0.71069554   -7.6722196    304.96559  0.018590928  0.018204331            6 
 1368000   0.73638999   -7.6373574       305.11  0.018586136   0.01818995            7 
 1369000   0.70802533       -7.629    304.89266  0.018559329  0.018175634           10 
 1370000   0.68817165   -7.6428775    305.02727   0.01855397  0.018161316            6 
 1371000   0.70066963   -7.6699107    304.19475  0.018489834  0.018147006            4 
 1372000   0.69874443   -7.6264224    305.32616  0.018545078  0.018132714            4 
 1373000   0.71087402   -7.6435383    304.37019  0.018473549  0.018118441            3 
 1374000   0.71614277   -7.6529707    305.20793  0.018510913  0.018104225            9 
 1375000   0.71050191   -7.6619325    304.24159  0.018438884  0.018090034            5 
 1376000   0.69714378   -7.6456652    305.20877  0.018484058   0.01807581            5 
 1377000   0.70597457    -7.635015    304.87544  0.018450463  0.018061573            5 
 1378000   0.70956135    -7.659936    305.27888  0.018461471  0.018047336            4 
 1379000   0.70048196   -7.6662418    305.04961  0.018434228  0.018033049            5 
 1380000   0.70473543   -7.6808749    304.59204  0.018393239  0.018018792           10 
 1381000   0.70451541   -7.6610096    305.27285  0.018421002  0.018004581            4 
 1382000   0.70615293   -7.6548264    305.45673  0.018418761   0.01799043            6 
 1383000    0.6941308   -7.6553811    304.84949  0.018368853  0.017976224            3 
 1384000   0.69467978   -7.6307988    305.80026  0.018412829   0.01796208            3 
 1385000   0.68905595   -7.6687905    304.69723  0.018333167  0.017947907            5 
 1386000   0.69963912   -7.6643095    305.19523  0.018349882  0.017933764            6 
 1387000   0.71122257   -7.6822334    304.32511  0.018284374  0.017919605           10 
 1388000   0.70279892   -7.6757034    305.27643  0.018328316  0.017905442            6 
 1389000   0.70903605   -7.6860492    304.31029  0.018257157  0.017891267            8 
 1390000   0.69777435   -7.6856638    304.76221  0.018271116  0.017877088            4 
 1391000   0.67854562   -7.6968676    304.66152  0.018251948  0.017862915            9 
 1392000   0.69017339   -7.7094637    305.01957  0.018260271  0.017848734            4 
 1393000   0.67555683   -7.6912406    304.55685  0.018219481  0.017834553            8 
 1394000   0.69501779   -7.6762389    304.74994  0.018217954  0.017820394            7 
 1395000   0.69254857   -7.6706396    304.71186   0.01820262  0.017806259            4 
 1396000   0.70852928    -7.692168    305.11967  0.018213925  0.017792174            3 
 1397000   0.70855531   -7.6892981    305.57549  0.018228078  0.017778052            3 
 1398000    0.7065415   -7.6986133    305.14207  0.018189203  0.017763978            6 
 1399000   0.68739164   -7.7010584     304.9397  0.018164147  0.017749853            8 
 1400000   0.68621701   -7.6781391    305.31615   0.01817358  0.017735813           10 
 1401000   0.69083324   -7.6928801    305.09245  0.018147303   0.01772175            5 
 1402000    0.7000034   -7.6914477    305.41249  0.018153381  0.017707751            4 
 1403000   0.69926176   -7.6928284    305.46201  0.018143384  0.017693779            6 
 1404000   0.69731521    -7.665254    305.49434   0.01813238  0.017679821            7 
 1405000   0.70185365   -7.6669644    306.10177  0.018155502  0.017665903            5 
 1406000   0.68925546   -7.6882843     304.8866  0.018070567  0.017651917            6 
 1407000   0.68664197   -7.6995279    305.52711  0.018095659  0.017637955            5 
 1408000   0.70350624   -7.7044471    305.65081  0.018090128  0.017624021            4 
 1409000   0.70076544   -7.6772111    305.52759  0.018070002  0.017610147            6 
 1410000   0.69524628   -7.6876222    305.10255  0.018032066  0.017596218            8 
 1411000   0.69840395    -7.690948    305.87709   0.01806503  0.017582313            9 
 1412000   0.68764988   -7.7080917    305.51158  0.018030664   0.01756835            3 
 1413000   0.70223925   -7.7082819    305.51557  0.018018139  0.017554411            7 
 1414000   0.69163714   -7.6984872    305.63169   0.01801224  0.017540471            6 
 1415000   0.68033714   -7.7057112    305.42543  0.017987363  0.017526519            7 
 1416000   0.68932053   -7.7147977    305.24836   0.01796424  0.017512597            5 
 1417000   0.67415446   -7.7431994    305.17902  0.017947484  0.017498662            3 
 1418000   0.68081906    -7.713401    305.62289  0.017960913  0.017484759            6 
 1419000    0.6886163   -7.7528564    304.95041  0.017908763  0.017470892           10 
 1420000   0.67880003   -7.7332361    305.39289  0.017922118   0.01745704            3 
 1421000    0.6745323   -7.7204409     305.8609  0.017936952  0.017443226            6 
 1422000   0.70327657   -7.6980927    306.18884  0.017943556  0.017429424            9 
 1423000   0.69586094   -7.7244527    305.99479  0.017919582  0.017415639            5 
 1424000   0.68328199   -7.7362523    306.12604  0.017914679  0.017401854            5 
 1425000   0.67881615   -7.7191923    305.72133   0.01787844  0.017388088            7 
 1426000   0.65577785   -7.7166724    305.34473  0.017843895  0.017374282            6 
 1427000   0.68577857   -7.7265999    305.87119  0.017862135  0.017360516            5 
 1428000   0.69307134   -7.7303264    306.18895  0.017868169  0.017346737            3 
 1429000   0.68997916   -7.7082982    305.33125  0.017805648  0.017333007            9 
 1430000   0.68145992   -7.7247387     305.7693  0.017818724  0.017319308            7 
 1431000   0.67003167   -7.6860911    307.06976  0.017882003  0.017305614            7 
 1432000   0.68358464   -7.7004827    305.93336  0.017803384  0.017291971            9 
 1433000   0.67077939   -7.7120903    305.87349  0.017787479  0.017278337            8 
 1434000   0.67845231   -7.7213914    305.93031  0.017778377    0.0172647            6 
 1435000   0.69242311   -7.6913855    306.14224  0.017778295  0.017251091            5 
 1436000   0.68194947    -7.698312    305.99375  0.017757297   0.01723745           10 
 1437000   0.67562422   -7.6940126    306.21758   0.01775792  0.017223816            6 
 1438000   0.67363246   -7.7164836    305.72716  0.017717151  0.017210196            4 
 1439000   0.66923622   -7.7178097    305.62006  0.017698637  0.017196596           14 
 1440000   0.67904613    -7.713497    305.99281  0.017707917  0.017183009           10 
 1441000   0.68406914   -7.7170812    306.37704  0.017717849  0.017169411            4 
 1442000   0.68139401   -7.7466312    305.93714   0.01768014   0.01715581            6 
 1443000   0.67574076   -7.7320271    306.39013  0.017694047  0.017142188            5 
 1444000   0.69036368   -7.7128833    306.20201  0.017670938  0.017128609            3 
 1445000   0.68279798   -7.7304326    306.20752  0.017659027  0.017115033            4 
 1446000   0.66461664   -7.7405478    305.53017  0.017607778  0.017101448            5 
 1447000   0.67798773   -7.7480274    305.85488   0.01761431  0.017087853            4 
 1448000   0.67306453   -7.7170537    305.32928  0.017571897  0.017074239            6 
 1449000   0.66894248   -7.7142756    305.78658  0.017586069   0.01706068            7 
 1450000   0.68468546   -7.7468248    306.00853  0.017586697  0.017047131            7 
 1451000   0.68334315   -7.7353212    306.61892  0.017609632  0.017033586            6 
 1452000   0.67135042   -7.7458986    306.07916  0.017566526  0.017020046            8 
 1453000   0.68428631   -7.7836966    305.84002  0.017540722  0.017006513           11 
 1454000   0.67398587   -7.7299889    306.36169  0.017558556  0.016993059            3 
 1455000    0.6688614    -7.714578    306.27487  0.017541516  0.016979583            4 
 1456000   0.66481077   -7.7178797    305.82381  0.017503652   0.01696611            4 
 1457000   0.66971957    -7.733394    306.60807  0.017536495  0.016952638            8 
 1458000   0.66308573   -7.7614175    305.86557  0.017482028   0.01693918            7 
 1459000   0.65423728    -7.763191    305.85326  0.017469343  0.016925708            5 
 1460000   0.68696794   -7.7521123    305.44036  0.017433811  0.016912239           11 
 1461000   0.67344444   -7.7434136    305.92017  0.017449245  0.016898729           10 
 1462000   0.69119506   -7.7523534    305.75102  0.017427669  0.016885238            6 
 1463000   0.65854901   -7.7291559     305.9707  0.017428269  0.016871815            7 
 1464000   0.67031942   -7.7478716    306.71184  0.017458552  0.016858388            3 
 1465000   0.65132087   -7.7339924    306.50783   0.01743503  0.016844976           12 
 1466000   0.66654906   -7.7450011    305.60713  0.017371938  0.016831616            7 
 1467000   0.67077408   -7.7226008    306.62719  0.017418041  0.016818275            6 
 1468000    0.6759711   -7.7250245     306.4241  0.017394647   0.01680491            4 
 1469000   0.65889848   -7.7448591    305.78905  0.017346781  0.016791523            6 
 1470000   0.65821673   -7.7475887    306.28652  0.017363181  0.016778162            6 
 1471000    0.6505727   -7.7595331    306.36236  0.017355674   0.01676482            9 
 1472000   0.67797112   -7.7674989     306.3066  0.017340727  0.016751485            4 
 1473000   0.65283012   -7.7542614    305.58819  0.017288311  0.016738118            8 
 1474000   0.65328904   -7.7362561    305.71431  0.017283712  0.016724739            4 
 1475000   0.66448791   -7.7628798     306.2168  0.017300384  0.016711433            5 
 1476000   0.67762426   -7.7442501    306.26958  0.017291643  0.016698113            7 
 1477000   0.65993495   -7.7556575    306.12341  0.017271689  0.016684818            9 
 1478000   0.66013891   -7.7505786    306.43535  0.017277591  0.016671477            9 
 1479000   0.67484314   -7.7377312    305.75487  0.017227567  0.016658177            6 
 1480000   0.65813568   -7.7472495    305.34237  0.017192701  0.016644858            4 
 1481000   0.65996687   -7.7729053     306.3263  0.017236456  0.016631571            7 
 1482000   0.66626623   -7.7453984    305.88137  0.017199807   0.01661833            6 
 1483000   0.67016021   -7.7612624     306.2273  0.017207648  0.016605072            5 
 1484000   0.64025027   -7.7634687    306.27012  0.017198457  0.016591828            4 
 1485000   0.65775649   -7.7940464    305.74876  0.017157618  0.016578594            4 
 1486000   0.64795077   -7.7633073    305.60512  0.017138017  0.016565371            3 
 1487000   0.64819637   -7.7748681    306.03407  0.017150531  0.016552161            7 
 1488000   0.65883828    -7.772546    305.49983  0.017109085  0.016538923            9 
 1489000   0.65941261    -7.800022    306.38959  0.017147391  0.016525727            6 
 1490000   0.67591413   -7.7620744    306.50554  0.017142368  0.016512527            8 
 1491000   0.66608365   -7.7687711    306.72638  0.017143214  0.016499359            7 
 1492000   0.66459914   -7.7537705    306.43414  0.017115401  0.016486236            8 
 1493000    0.6529556   -7.7714056    306.23383  0.017092757  0.016473128            3 
 1494000   0.65003436   -7.7556797    306.51468  0.017096981  0.016460029            9 
 1495000   0.65364068   -7.7725505    306.78355  0.017100532  0.016446942            3 
 1496000   0.64301307    -7.774796      306.639  0.017081049  0.016433841            9 
 1497000   0.65055585   -7.7923487    306.76176  0.017076473  0.016420775           10 
 1498000   0.67631691   -7.7891148    306.53531  0.017052476  0.016407714            6 
 1499000   0.66144676    -7.758691     307.1056  0.017072804  0.016394694           11 
 1500000   0.66133374   -7.7650428    307.06466  0.017059148  0.016381689            6 
 1501000   0.64910451   -7.7571545    306.27726  0.017004067  0.016368685            6 
 1502000   0.65747177   -7.7604572    306.94091  0.017029567   0.01635568            8 
 1503000   0.65324903   -7.7692902     306.6416  0.017001641  0.016342694           19 
 1504000   0.64730616   -7.7651214    306.35778  0.016974611  0.016329734            4 
 1505000     0.656129   -7.7671626    307.16152  0.017007836  0.016316767            7 
 1506000   0.64165518   -7.7604984     307.5016  0.017015361   0.01630383            8 
 1507000   0.64905959   -7.7929632    306.61915  0.016955272  0.016290889           10 
 1508000   0.64499883   -7.7772401    306.99919   0.01696503  0.016277963           18 
 1509000   0.65643751   -7.7688365    306.34223  0.016917508  0.016265071           11 
 1510000   0.65608573    -7.788405    306.74422  0.016928489  0.016252196           14 
 1511000   0.65594699   -7.7928529    306.78485  0.016919526  0.016239282            5 
 1512000    0.6645282   -7.7519607    306.63411  0.016900028  0.016226381            6 
 1513000   0.64487104    -7.774638    307.09932  0.016914481  0.016213505           13 
 1514000   0.63573508   -7.7899976    307.20281  0.016909005    0.0162006            6 
 1515000   0.64846029   -7.7901371    306.16465   0.01684074  0.016187704           10 
 1516000   0.64571994   -7.7886229    307.10281  0.016881201  0.016174786            6 
 1517000   0.64197412   -7.7856077     306.6135  0.016843194  0.016161869           10 
 1518000   0.64994016   -7.7909098    307.03326  0.016855142  0.016148971            4 
 1519000   0.64244903   -7.8113068    307.08593  0.016846935  0.016136068           12 
 1520000   0.63786252    -7.787323    306.34958  0.016795481  0.016123225            7 
 1521000   0.66046397   -7.7914437    306.22239   0.01677747  0.016110376            6 
 1522000    0.6460741   -7.7842824    306.56768  0.016785353  0.016097534            7 
 1523000   0.64403642   -7.7898495    307.14141  0.016805724  0.016084676            6 
 1524000   0.64007983   -7.8119122    306.48413  0.016758756  0.016071849            7 
 1525000   0.65496332   -7.8031354    306.52516  0.016750009  0.016059029            6 
 1526000   0.65518714   -7.8195084    306.82276  0.016755284  0.016046191           10 
 1527000   0.63676084   -7.7920609    307.37763  0.016774592  0.016033378           11 
 1528000   0.64964032     -7.78621    307.13969  0.016750638  0.016020604            6 
 1529000   0.65153705   -7.8013704    306.56052  0.016708116  0.016007844            5 
 1530000   0.63807917   -7.8300568     306.8364  0.016712222  0.015995078            8 
 1531000   0.64928342   -7.8170176    306.39046  0.016677033  0.015982315            4 
 1532000   0.62563336   -7.7955173    306.18594  0.016655023  0.015969565           10 
 1533000   0.63572268   -7.8155763    306.46436  0.016659293  0.015956814            3 
 1534000   0.64549623   -7.8359262    307.06986  0.016681327  0.015944033            4 
 1535000   0.64341005   -7.8077667    306.40714  0.016634481   0.01593127            7 
 1536000   0.63088515   -7.8034768    306.87478  0.016649022  0.015918539            5 
 1537000   0.64016313   -7.8543418    305.70801   0.01657493    0.0159058            4 
 1538000   0.62831484   -7.8025078    306.42908  0.016603223  0.015893051            5 
 1539000   0.65409455   -7.8221351    305.87203  0.016562272  0.015880288            3 
 1540000   0.63630997   -7.7960499    306.19628  0.016569063  0.015867585            4 
 1541000   0.63717519   -7.8308469    307.27571  0.016616684  0.015854883            7 
 1542000   0.65078184   -7.8454924    306.87512  0.016584258  0.015842209            3 
 1543000   0.63776656   -7.8243456    305.98497  0.016525436  0.015829534            6 
 1544000   0.65015174   -7.8432823    306.93181  0.016565836  0.015816844            4 
 1545000   0.63588016   -7.8291783    307.18755  0.016568908  0.015804179            5 
 1546000   0.64490474   -7.8379415    306.93671  0.016544669   0.01579152            5 
 1547000   0.63936675   -7.8154681    306.40207  0.016505175  0.015778878            5 
 1548000   0.64459682   -7.8450515    305.71955  0.016457771  0.015766247            5 
 1549000    0.6443835    -7.831962    306.09034  0.016467094  0.015753605            6 
 1550000   0.62735271   -7.8411009    306.87589  0.016498704   0.01574103            4 
 1551000   0.64040962   -7.8217801    306.34072  0.016459312  0.015728439            4 
 1552000   0.62583095   -7.8354261    306.53311  0.016459037  0.015715851            8 
 1553000   0.63691875   -7.8075986    306.87336  0.016466696  0.015703272            3 
 1554000   0.62013981   -7.8385945    306.52078  0.016437193  0.015690743            9 
 1555000   0.63427723   -7.8176348     307.0503     0.016455  0.015678171            6 
 1556000   0.63513283   -7.8262101     306.6732  0.016424229  0.015665634            7 
 1557000   0.63728423   -7.8322518    306.02398  0.016378933  0.015653055            7 
 1558000   0.63341533   -7.8365319     306.0776  0.016371288  0.015640513            7 
 1559000   0.63196635   -7.8451137    306.59883  0.016388648  0.015627986            9 
 1560000   0.63466649   -7.8628021    306.47437  0.016371494  0.015615441           12 
 1561000   0.61989358   -7.8306686    306.93093   0.01638538  0.015602922            5 
 1562000   0.62023993   -7.8504847    306.43876  0.016348632  0.015590416            9 
 1563000   0.62635713   -7.8315815    306.28702  0.016330082   0.01557791            3 
 1564000   0.63683337   -7.8297567    306.57541  0.016335007  0.015565393            8 
 1565000   0.62279726   -7.8491181    306.11457   0.01630003  0.015552886           11 
 1566000   0.62854066   -7.8547595    306.80502  0.016326363  0.015540371           13 
 1567000   0.62707926    -7.841749    306.11009  0.016278988  0.015527833            8 
 1568000   0.61670257   -7.8577542    306.19996  0.016273382  0.015515294            7 
 1569000   0.62880198   -7.8666804    306.41386  0.016274371  0.015502779            8 
 1570000   0.63951585   -7.8568923    306.03462  0.016243876   0.01549025            6 
 1571000   0.62370839   -7.8540638    305.87797  0.016225227  0.015477743            5 
 1572000   0.63208254   -7.8192669    306.10266  0.016226816  0.015465262            5 
 1573000   0.63394302   -7.8473462    306.37873  0.016231126  0.015452792            6 
 1574000   0.63042987   -7.8762524    306.16705  0.016209607  0.015440327           14 
 1575000   0.61287455   -7.8671828    306.11503  0.016196562  0.015427869            8 
 1576000   0.63986825   -7.8627333    306.45944  0.016204496  0.015415429           11 
 1577000   0.62957809   -7.8621543    306.48301  0.016195466   0.01540302            6 
 1578000     0.617291   -7.8535777    306.26583  0.016173734  0.015390649            8 
 1579000   0.61128001   -7.8750537    306.04801  0.016151995   0.01537826            7 
 1580000   0.61422826   -7.8623948    306.56782  0.016169189  0.015365871           12 
 1581000   0.62112915   -7.8803926    306.00938  0.016129526  0.015353464           11 
 1582000   0.62651604   -7.8726559    306.12975  0.016125672  0.015341074           14 
 1583000   0.61436188   -7.8646355    306.31684  0.016125334  0.015328686           10 
 1584000   0.62412163   -7.8830435    306.05758  0.016101514   0.01531629           17 
 1585000   0.62739759   -7.8871443    306.36554  0.016107547  0.015303904            9 
 1586000   0.61043725   -7.8722743    305.88077   0.01607192  0.015291536           13 
 1587000   0.60512796   -7.8778201    306.04091  0.016070201   0.01527918            7 
 1588000   0.62001845   -7.8842071    305.57765  0.016035771  0.015266818            7 
 1589000   0.62368727   -7.8776673     305.4065  0.016016703  0.015254456           12 
 1590000   0.61623757   -7.8829646    305.79118  0.016026791  0.015242093           10 
 1591000   0.61586137    -7.889018    305.51565  0.016002286  0.015229751            5 
 1592000   0.63558318   -7.9231723    305.34934  0.015983529   0.01521741           10 
 1593000   0.61498267   -7.8852286    305.79039  0.015996568  0.015205068            5 
 1594000   0.61611937   -7.8912442     305.5984  0.015976495  0.015192751           11 
 1595000   0.62116604   -7.8960389    305.44011  0.015958208  0.015180431           13 
 1596000   0.62309434   -7.8877537    305.77679  0.015965789  0.015168127           11 
 1597000   0.61852604   -7.8907107    305.83336  0.015958743  0.015155817            8 
 1598000   0.63507063   -7.8685085    306.00353  0.015957631  0.015143552            5 
 1599000   0.61625523   -7.9008952    305.71684   0.01593271  0.015131293           12 
 1600000   0.61188794    -7.887219    306.02547  0.015938827  0.015119043           10 
 1601000   0.61696665   -7.8916522    305.96988  0.015925978  0.015106794            5 
 1602000   0.61654911   -7.8851451    306.19033  0.015927504  0.015094551           10 
 1603000    0.6155593   -7.9014254    305.87343  0.015901093  0.015082322           17 
 1604000   0.61539386   -7.8817717    306.03631  0.015899642  0.015070086            5 
 1605000   0.62196843   -7.8711119    306.07597  0.015891795  0.015057881            6 
 1606000   0.61926797   -7.9075328    306.09557  0.015882917  0.015045688            9 
 1607000    0.6133388   -7.8936814    305.83415  0.015859477  0.015033503            6 
 1608000   0.61812493    -7.904507     305.4087  0.015827565  0.015021321            7 
 1609000   0.61349648   -7.8947495    306.00941   0.01584884  0.015009163           10 
 1610000   0.61381397    -7.902176    305.71525  0.015823771  0.014996997           10 
 1611000    0.6241894   -7.8882573    306.38036  0.015848353  0.014984865           15 
 1612000   0.60075729   -7.8782872    305.70912  0.015803821   0.01497274            7 
 1613000   0.59295767   -7.8824327    305.86285  0.015801966  0.014960625            8 
 1614000   0.60640881   -7.8997561    305.79561  0.015788704  0.014948523            7 
 1615000   0.60536529   -7.8900608     305.9914   0.01578903  0.014936454            6 
 1616000   0.61305416   -7.8711083    306.14377  0.015787117  0.014924384           10 
 1617000   0.61211298   -7.9071137    305.80899    0.0157601  0.014912337           11 
 1618000   0.60529346   -7.8969176    306.08216  0.015764429  0.014900294            6 
 1619000   0.60874263    -7.897057     305.8023  0.015740287  0.014888243            6 
 1620000   0.61774041   -7.9012788     305.6871  0.015724645  0.014876211           15 
 1621000    0.6012012    -7.880165    305.99405  0.015730725  0.014864208            8 
 1622000   0.60819641   -7.8955734    305.61117  0.015701355  0.014852221            8 
 1623000   0.60859603   -7.8869459    305.77455  0.015700069  0.014840243           12 
 1624000   0.61541231   -7.8862953    305.89506  0.015696586  0.014828268           11 
 1625000   0.60838829   -7.8919656    306.73536  0.015730019  0.014816307            6 
 1626000   0.60262038   -7.8936103    306.10442  0.015688008  0.014804389           10 
 1627000   0.59802506   -7.8718168    306.00229  0.015673135  0.014792447           14 
 1628000   0.59526599   -7.8798169    306.21308  0.015674298  0.014780527           16 
 1629000    0.6086892   -7.9124292    305.65434  0.015636093   0.01476858           15 
 1630000   0.59790942   -7.8796417    305.21444   0.01560401  0.014756636            9 
 1631000   0.60529598   -7.8892024    305.96167  0.015632622   0.01474472           17 
 1632000   0.60910184   -7.8851022    305.22327  0.015585339  0.014732814           17 
 1633000   0.59199544   -7.8937842    305.86171  0.015608375  0.014720897            8 
 1634000   0.59786022   -7.8930568    306.05383  0.015608621  0.014708995           18 
 1635000   0.60676596   -7.8939143    305.68522  0.015580286  0.014697115            7 
 1636000   0.59611173   -7.8852427    305.56978  0.015564883  0.014685244            4 
 1637000   0.59671294   -7.8993147    305.60965  0.015557404  0.014673373           11 
 1638000   0.60788183   -7.9051964    305.83533  0.015559388  0.014661532            7 
 1639000   0.59854017   -7.8839886    306.28104  0.015572556  0.014649681            8 
 1640000   0.60526317   -7.8833529    306.79228  0.015589039  0.014637856            6 
 1641000   0.59799212    -7.897368    306.14201  0.015546517   0.01462607            7 
 1642000   0.60124896   -7.9095902    305.49961  0.015504446  0.014614261           11 
 1643000   0.60523774   -7.9092437    305.49381  0.015494715  0.014602456           19 
 1644000   0.59820568   -7.9006775    306.25848  0.015524051  0.014590629            7 
 1645000    0.5990811   -7.9041463    305.57878  0.015480181  0.014578845            9 
 1646000   0.58935319   -7.9190601    305.16441  0.015449798  0.014567058           14 
 1647000   0.58250691   -7.9162667    305.23441  0.015443959  0.014555258           13 
 1648000   0.59537911   -7.9052364     305.6254  0.015454359   0.01454347            9 
 1649000   0.58722936   -7.9023258    305.68961  0.015448232  0.014531713           10 
 1650000   0.60111387   -7.9140669    305.63429  0.015436075  0.014519959           17 
 1651000    0.5953706   -7.9354072    305.55651    0.0154228  0.014508202            8 
 1652000   0.58556672   -7.9120984    305.87086  0.015429321  0.014496428            6 
 1653000   0.58200681   -7.9147774    305.42691  0.015397606  0.014484669            7 
 1654000   0.58929059    -7.929351    305.77284  0.015405726   0.01447291           11 
 1655000   0.59139424   -7.8937837    305.79699  0.015397633  0.014461161            5 
 1656000   0.58784225    -7.916857    305.08659  0.015352586  0.014449445            8 
 1657000   0.58527815   -7.9181818    305.48763   0.01536349  0.014437734            5 
 1658000   0.60596332    -7.911253    305.66373  0.015363075  0.014426044            6 
 1659000   0.58984858   -7.9391151    305.68902  0.015355084  0.014414348           10 
 1660000    0.6022187   -7.8982531    305.46471  0.015334574  0.014402663           10 
 1661000   0.60050335   -7.9069627    305.47464   0.01532584  0.014390994            9 
 1662000    0.5842231   -7.9309134    305.21342  0.015303521  0.014379309            7 
 1663000    0.5930137   -7.9191343    305.85822   0.01532663  0.014367627            5 
 1664000   0.57755787     -7.94494     305.4684  0.015297897   0.01435596            8 
 1665000   0.58266691   -7.9384929    305.80639  0.015305625  0.014344316            4 
 1666000    0.5757661   -7.9353467    305.17719  0.015264966  0.014332689            6 
 1667000   0.59583863   -7.9299466    305.21401  0.015257649  0.014321048            5 
 1668000   0.59092287   -7.9292021    305.44379  0.015259981  0.014309427            6 
 1669000   0.58991726   -7.9244974    306.12211  0.015284707  0.014297834           10 
 1670000   0.58793394   -7.9390168    305.72778  0.015255877  0.014286246            8 
 1671000   0.57753847    -7.941097    305.54152  0.015237458  0.014274676            7 
 1672000   0.59418693   -7.9126601    305.34069  0.015218336  0.014263087           10 
 1673000   0.59098021   -7.9373223    305.66422  0.015225354  0.014251539            8 
 1674000   0.59623975   -7.9707551     305.6523  0.015215666  0.014239975            6 
 1675000   0.58248378   -7.9432335    305.36683   0.01519238  0.014228424            9 
 1676000   0.58579799   -7.9335918    305.66783  0.015198281  0.014216901            5 
 1677000   0.58111758   -7.9456908    305.22717  0.015167321  0.014205372           10 
 1678000   0.58725419    -7.938503    305.74084  0.015183792  0.014193852            4 
 1679000   0.57864895   -7.9394727    305.17892  0.015146859  0.014182359           13 
 1680000   0.58960399   -7.9320918    305.53987  0.015155747  0.014170875            7 
 1681000   0.58064763   -7.9510516    305.47726  0.015143628  0.014159383            8 
 1682000   0.58181064   -7.9380237    305.29447  0.015125568  0.014147916            6 
 1683000    0.5781467   -7.9319447    305.53631  0.015128555  0.014136457            4 
 1684000    0.5660536   -7.9416654    305.57365   0.01512142  0.014124992            8 
 1685000   0.56823747   -7.9349527    304.92834  0.015080531  0.014113518            8 
 1686000   0.58423702   -7.9519358    305.00025  0.015075141  0.014102068            7 
 1687000   0.56374322   -7.9307146    305.12851   0.01507254  0.014090637            9 
 1688000   0.59104354   -7.9497689    305.54605  0.015084225  0.014079231            4 
 1689000   0.58361247   -7.9386204    305.69739   0.01508276   0.01406783            9 
 1690000   0.58726945    -7.957685    305.01839  0.015040354  0.014056438            3 
 1691000   0.58492882   -7.9515691    305.09331  0.015035152  0.014045058            8 
 1692000   0.58342778   -7.9297203    305.77713  0.015059945  0.014033703            6 
 1693000   0.56954703   -7.9592317    304.91791  0.015008757  0.014022342            6 
 1694000   0.57270405   -7.9560424    305.23134  0.015015316  0.014010969           10 
 1695000   0.58200498   -7.9534228    305.16611   0.01500325  0.013999624           13 
 1696000    0.5782659   -7.9623257     304.7985  0.014976341  0.013988273            6 
 1697000   0.58066278   -7.9437058    305.71709  0.015012625  0.013976923            8 
 1698000   0.58111791   -7.9426896    304.82383  0.014959944  0.013965609            7 
 1699000   0.58816961   -7.9597464    305.24296  0.014971697  0.013954303            5 
 1700000   0.57936161   -7.9530752    305.14178   0.01495793  0.013942997            5 
 1701000   0.58108325   -7.9642603    304.87797  0.014936212  0.013931697           14 
 1702000   0.57272591   -7.9591053     304.9013  0.014928579  0.013920408            9 
 1703000   0.56021841   -7.9608412    304.62291  0.014906191  0.013909116            5 
 1704000    0.5596241   -7.9632004    304.75006  0.014903661  0.013897826            5 
 1705000   0.56012206   -7.9653884    305.26557  0.014920116  0.013886552            7 
 1706000   0.57816645   -7.9639449    304.76432  0.014886885  0.013875289            6 
 1707000   0.56731339   -7.9629883    304.79984  0.014879898  0.013864042            8 
 1708000   0.57436135   -7.9786093    305.17731  0.014889603  0.013852788            6 
 1709000   0.57572681   -7.9637954    305.09278  0.014876769  0.013841557            7 
 1710000   0.56923289   -7.9757648     304.9006  0.014858703  0.013830332            6 
 1711000   0.55571749   -7.9555263    305.35597  0.014872198  0.013819133           11 
 1712000   0.57386992   -7.9574647    305.37297  0.014864339  0.013807927           10 
 1713000   0.56068451   -7.9770432    305.04386  0.014839651   0.01379675           14 
 1714000   0.58613494   -7.9765153    304.72198  0.014815343  0.013785561           13 
 1715000   0.56327058   -7.9528603    305.28201  0.014833917  0.013774388            6 
 1716000   0.57430059   -7.9708378    304.94523  0.014808918  0.013763218            5 
 1717000   0.57635091   -7.9764393    305.27495  0.014816295  0.013752052            8 
 1718000   0.56281157   -7.9662319    304.80146  0.014784704  0.013740883            7 
 1719000   0.56933795   -7.9892366    304.78188  0.014775154  0.013729732            8 
 1720000   0.56162034   -7.9924778    304.78547  0.014766738  0.013718591           13 
 1721000   0.56082911   -7.9871674    304.54366  0.014746449  0.013707449            8 
 1722000   0.56235188   -8.0001613    304.92734  0.014756453  0.013696319            7 
 1723000    0.5630811    -7.975233    305.26442  0.014764191  0.013685197           11 
 1724000   0.56810907   -7.9524444     305.1679  0.014750962  0.013674105           10 
 1725000   0.55582321   -8.0027322    305.19525  0.014743732  0.013663013           21 
 1726000   0.56651115   -7.9856451    304.96781  0.014724209  0.013651918            7 
 1727000   0.56081024   -7.9784728    304.53014  0.014694564  0.013640839           14 
 1728000   0.57791534   -7.9753505    304.65631  0.014692145  0.013629759            9 
 1729000   0.57679738   -7.9930387    304.53903  0.014677994  0.013618671           17 
 1730000    0.5511446   -7.9841537    304.80412  0.014682279  0.013607605           17 
 1731000   0.56226207     -7.95913    304.94336  0.014680501  0.013596551            7 
 1732000   0.57402183   -7.9902254    304.47598  0.014649537  0.013585507           13 
 1733000   0.55556105    -7.978287    305.13843  0.014672939  0.013574477           10 
 1734000   0.56176655   -7.9900363    304.90659  0.014653335  0.013563448            5 
 1735000   0.55953682   -7.9896589    304.59522  0.014629934   0.01355242            9 
 1736000   0.55283597   -7.9757217    304.39247  0.014611774  0.013541433            8 
 1737000   0.55311348   -7.9833929    304.99381  0.014632211  0.013530454            7 
 1738000   0.56195812   -7.9895496    304.56337  0.014603153  0.013519461           14 
 1739000   0.55439086   -7.9722761    304.86855   0.01460938  0.013508493            7 
 1740000   0.55825968   -7.9716309    304.83867  0.014599553  0.013497545           17 
 1741000   0.55601503    -8.003709    304.51404  0.014575629  0.013486585            9 
 1742000   0.55067984   -7.9793544    304.67212  0.014574824  0.013475637            8 
 1743000   0.56914206   -7.9899321    304.87165  0.014576002  0.013464699            8 
 1744000   0.56596415    -7.988269    304.58098  0.014553755  0.013453766           12 
 1745000   0.54927005   -8.0104246    304.53847  0.014543384  0.013442849           11 
 1746000   0.55459025   -7.9937093    304.89225   0.01455194  0.013431931            9 
 1747000    0.5439022   -8.0035905    304.15579  0.014508481  0.013421022           19 
 1748000   0.54741705   -7.9884071    304.84825  0.014533193  0.013410127            8 
 1749000   0.54474232   -8.0117692    304.37641  0.014502402  0.013399252            4 
 1750000   0.54471274   -8.0084679     304.7278  0.014510848  0.013388367            7 
 1751000   0.55186224   -8.0025546    304.60044  0.014496499  0.013377503           12 
 1752000   0.57113949   -8.0085366    304.91058  0.014502977  0.013366661           15 
 1753000   0.56557304   -7.9938291    304.63916  0.014481801  0.013355828            7 
 1754000    0.5500173   -8.0094368    304.59899  0.014471636  0.013345014            6 
 1755000   0.54892498   -8.0013847    304.01804  0.014435804  0.013334196           10 
 1756000   0.54656113   -8.0203776    304.62302  0.014456294  0.013323372            9 
 1757000   0.54747681   -8.0066068    304.25681  0.014430697   0.01331256            7 
 1758000   0.54482584   -8.0015831    304.01577  0.014411062  0.013301754            8 
 1759000    0.5486731   -7.9981647    304.47997  0.014424861  0.013290954            4 
 1760000    0.5420621   -8.0147813    304.38803  0.014412312  0.013280174            9 
 1761000   0.56283829   -8.0223794    304.44762  0.014406948  0.013269412            5 
 1762000   0.55579026   -8.0109658    304.63274  0.014407527  0.013258652            6 
 1763000    0.5400945   -8.0202053    303.92472  0.014365888  0.013247879            7 
 1764000   0.54671794   -7.9904438    303.91373  0.014357224  0.013237119           11 
 1765000   0.56549969   -8.0186297    304.47231  0.014375463  0.013226386            7 
 1766000   0.54774978   -8.0008006    304.65706  0.014376041  0.013215661            6 
 1767000   0.55643573   -8.0276154    304.84496  0.014376767  0.013204949            6 
 1768000   0.54097299   -8.0134837    304.35038  0.014345323  0.013194236            7 
 1769000   0.55176133   -8.0314507    304.45014  0.014341914  0.013183532            6 
 1770000   0.55256181   -8.0420967    304.02104  0.014313608  0.013172839            7 
 1771000   0.54331729   -8.0182651    304.21278  0.014314548   0.01316215            6 
 1772000   0.55188465   -8.0240897    304.43056  0.014316712  0.013151472           12 
 1773000    0.5572973   -8.0078824    304.18256  0.014296981  0.013140803            4 
 1774000   0.54231743   -8.0378622    304.22396  0.014290866  0.013130147            9 
 1775000     0.544607   -8.0250028    304.54728  0.014297994  0.013119495            4 
 1776000   0.55802431   -8.0087855    304.63124  0.014293883  0.013108849            5 
 1777000    0.5386928   -8.0146214     303.8555  0.014249461  0.013098225            5 
 1778000   0.54093283   -8.0340697    304.23796  0.014259372  0.013087615            8 
 1779000   0.53545817   -8.0462823    304.73316  0.014274553  0.013076994           15 
 1780000   0.54363647   -8.0026166    304.24827  0.014243833  0.013066402           11 
 1781000   0.53803192   -8.0213901     304.2921  0.014237886  0.013055819           12 
 1782000   0.54421494    -8.019328    304.17557  0.014224447  0.013045241           19 
 1783000   0.54449904   -8.0406593    304.60931  0.014236741  0.013034674           11 
 1784000   0.53623619   -8.0458799    304.28227  0.014213484  0.013024114           18 
 1785000   0.53445519   -8.0323732    304.75831  0.014227746  0.013013553            7 
 1786000   0.54282407   -8.0404373    303.82932  0.014176434  0.013002993            6 
 1787000   0.53762325   -8.0578516    304.31392  0.014191099  0.012992446            4 
 1788000   0.53086945   -8.0444291    304.57416  0.014195291  0.012981906           18 
 1789000   0.54132302   -8.0478658    303.96393  0.014158931  0.012971376           18 
 1790000   0.51867791   -8.0464672    304.12705  0.014158615  0.012960858           13 
 1791000   0.54214833   -8.0352509    304.10966    0.0141499  0.012950347            7 
 1792000   0.53694892   -8.0421955    303.89849  0.014132184  0.012939855           12 
 1793000   0.54047765   -8.0512153    303.32436  0.014097618  0.012929366           12 
 1794000   0.54073862   -8.0325633    304.01333  0.014121764  0.012918894            8 
 1795000   0.53282802   -8.0358855    304.27056  0.014125839  0.012908417           12 
 1796000   0.53837535    -8.044985     303.8779  0.014099754  0.012897947            8 
 1797000   0.53371032    -8.012648    303.91409  0.014093586  0.012887496           12 
 1798000   0.54013294   -8.0358933    304.49618  0.014112726  0.012877063           16 
 1799000   0.54562511   -8.0420655    304.21504  0.014091859  0.012866632            9 
 1800000   0.54324992   -8.0627837    304.15629   0.01408131  0.012856214           12 
 1801000    0.5358743   -8.0535676    304.49826  0.014089314  0.012845804            6 
 1802000   0.53069957   -8.0424072    303.88488   0.01405313  0.012835402            3 
 1803000   0.53631022   -8.0468542    304.27666  0.014063444  0.012825022            9 
 1804000   0.53365824   -8.0354441    304.19784  0.014052007  0.012814638           15 
 1805000   0.52128895    -8.036667     304.1261   0.01404091  0.012804279            9 
 1806000   0.52626798   -8.0443385    304.36765  0.014044281  0.012793909            5 
 1807000   0.52869756   -8.0324877    303.80557  0.014010587  0.012783545            9 
 1808000   0.52403042   -8.0513126    304.08602  0.014015764  0.012773192            8 
 1809000   0.52810159   -8.0364117    303.90564  0.013999707  0.012762845           13 
 1810000    0.5318607   -8.0433818      303.655  0.013980433  0.012752518            5 
 1811000   0.54011026   -8.0666086    303.97226  0.013987312  0.012742221           24 
 1812000     0.537781   -8.0578136    304.10937  0.013985898  0.012731912           12 
 1813000   0.53072329   -8.0569412    304.36787  0.013990066   0.01272162           13 
 1814000   0.53601015   -8.0523985     304.1265  0.013971265  0.012711339            5 
 1815000   0.52944841     -8.05537    303.91774  0.013953982  0.012701055            8 
 1816000   0.52391826   -8.0283435    303.72644   0.01393752  0.012690787           14 
 1817000   0.52027754    -8.046492    303.83859  0.013934993  0.012680525            5 
 1818000   0.52617569   -8.0566936    304.10674  0.013939619  0.012670264            6 
 1819000   0.53086949    -8.062527    303.62709  0.013909982  0.012660015            7 
 1820000   0.52469283   -8.0511027    304.02682  0.013920642  0.012649775            7 
 1821000   0.53363587   -8.0706741    303.52302  0.013889942  0.012639552            5 
 1822000   0.52454082   -8.0648833    303.74979  0.013892691  0.012629339            6 
 1823000   0.52898358   -8.0618951    303.73363  0.013884331  0.012619125            5 
 1824000   0.52639708   -8.0608735    303.65275  0.013873024  0.012608924            4 
 1825000   0.52623734   -8.0457162    303.36626  0.013852341  0.012598744            6 
 1826000   0.53145102   -8.0540791    303.63596  0.013857063  0.012588577            6 
 1827000    0.5212656   -8.0598802    303.87285  0.013860283  0.012578414            5 
 1828000   0.52212695   -8.0701712    303.69195  0.013844454  0.012568254           12 
 1829000   0.52029775   -8.0763448    303.74611  0.013839353  0.012558093           13 
 1830000   0.51654769   -8.0641884    303.27849  0.013810496  0.012547943            9 
 1831000   0.52321105   -8.0889206    303.90989   0.01383169  0.012537807           10 
 1832000   0.52861688   -8.0722051    303.35071  0.013798704  0.012527667           13 
 1833000   0.52741626   -8.0756516    303.76053  0.013809808  0.012517566            7 
 1834000   0.51824051   -8.0547753    303.98822  0.013812623  0.012507458            3 
 1835000   0.51611086    -8.060004    303.72966  0.013793354  0.012497372           10 
 1836000   0.51423699   -8.0859647    303.50416  0.013775606  0.012487279           10 
 1837000   0.52738941   -8.0849881    303.43309  0.013764884  0.012477189            5 
 1838000   0.51990489   -8.0755789     303.3466  0.013753473  0.012467109            9 
 1839000   0.52383839   -8.0870271    303.74525  0.013764059  0.012457041           13 
 1840000   0.53065473   -8.0968086     303.3621  0.013739225  0.012446982            7 
 1841000    0.5195035   -8.0788593    303.88697  0.013755521  0.012436926           11 
 1842000   0.51947456    -8.087629    303.09587  0.013712263   0.01242688           11 
 1843000   0.51520816   -8.0827244    303.85364  0.013739087  0.012416838           13 
 1844000   0.51338594   -8.0766152    303.60019  0.013720182  0.012406808            9 
 1845000   0.51544539   -8.0687321    303.59503  0.013712513  0.012396789            5 
 1846000   0.52367936   -8.0691826    303.45454  0.013698742   0.01238678            9 
 1847000   0.52203219    -8.089081     303.2957  0.013684159  0.012376783            7 
 1848000   0.52654698   -8.0847518    303.28209  0.013676141  0.012366792           13 
 1849000   0.51665881   -8.0777708    303.66809  0.013686141  0.012356813            7 
 1850000   0.51058193    -8.092795     303.2377  0.013659356  0.012346836            4 
 1851000   0.50409089   -8.0921473    303.51985  0.013664679  0.012336878            9 
 1852000   0.50849306   -8.0750277    303.50988  0.013656852  0.012326925           10 
 1853000   0.51912406   -8.0940088    303.54372  0.013651004  0.012316969            8 
 1854000   0.51480067   -8.0904925    303.17718  0.013627165  0.012307029            8 
 1855000   0.51807015   -8.0854024     303.4192  0.013630692  0.012297098            9 
 1856000   0.52038658   -8.1006558    303.64705  0.013633578  0.012287177            8 
 1857000   0.52056898   -8.0908792    303.90475  0.013637801  0.012277267            9 
 1858000   0.50408923   -8.0943817    303.36427  0.013606219  0.012267361            9 
 1859000   0.51527229   -8.0834454    302.77644   0.01357255  0.012257467           11 
 1860000   0.50852003   -8.0952043     303.4454  0.013595224  0.012247594           13 
 1861000   0.50104434   -8.0920202    302.80137   0.01355908  0.012237708            5 
 1862000   0.50354633   -8.0991015    303.37974  0.013577683  0.012227837           10 
 1863000   0.50692563   -8.0937808    303.47712   0.01357475  0.012217971            9 
 1864000   0.50596205    -8.111626    303.48122  0.013567651  0.012208119            8 
 1865000   0.50720221   -8.0958533    302.95417  0.013536826  0.012198277            7 
 1866000   0.51851392   -8.0907144    302.82297  0.013523712  0.012188437            5 
 1867000   0.51078908   -8.1109823    303.23598  0.013534904  0.012178607           16 
 1868000   0.51855567   -8.0978293    303.52806  0.013540688  0.012168792            7 
 1869000   0.49655995   -8.0994827     303.1016  0.013514428  0.012158987           13 
 1870000   0.50940804   -8.1110394    303.22137  0.013512539  0.012149193           10 
 1871000   0.50519329   -8.1243256    303.62628  0.013523351  0.012139399            7 
 1872000   0.51197288   -8.0997825    303.18734  0.013496588  0.012129621            4 
 1873000   0.50910688   -8.0906757    302.89079  0.013476188  0.012119865           13 
 1874000   0.49512094   -8.0978757    303.60483  0.013500748  0.012110116           14 
 1875000   0.50237795   -8.0877185    302.77728  0.013456768  0.012100372           15 
 1876000   0.50715518   -8.1003505    303.33334  0.013474296  0.012090643           14 
 1877000   0.50279413   -8.1102718    303.46939  0.013473157  0.012080924            9 
 1878000   0.50280026   -8.1064573    303.40099  0.013462948  0.012071214            6 
 1879000   0.51015546    -8.098722    303.04318  0.013439914    0.0120615            5 
 1880000   0.50333531   -8.0977187    302.83351  0.013423471   0.01205179            6 
 1881000   0.49006677   -8.0981225    302.68367  0.013409697  0.012042095           11 
 1882000   0.50010175   -8.1088394    303.21419  0.013426062  0.012032405           10 
 1883000   0.50160396   -8.1085196    303.05017  0.013411673  0.012022726            9 
 1884000   0.50402097   -8.1052157    303.45091   0.01342228  0.012013071            8 
 1885000   0.51183228    -8.104329    303.12158    0.0134006  0.012003425           17 
 1886000   0.49863566   -8.1036575    303.17542  0.013395874  0.011993776            6 
 1887000   0.50161756   -8.1026432    303.15935  0.013388065   0.01198414            8 
 1888000    0.5036845   -8.1079312     302.8641  0.013367942  0.011974519           19 
 1889000   0.49979203   -8.1066059    303.19902  0.013375641  0.011964901            9 
 1890000   0.49713544   -8.1254642    302.45616   0.01333581  0.011955282           11 
 1891000   0.50000061    -8.108691    303.10663  0.013357422  0.011945673            8 
 1892000   0.49999629   -8.1094785    303.02241  0.013346653  0.011936087           13 
 1893000   0.48667588   -8.1140837    303.02617  0.013339768  0.011926496            9 
 1894000   0.49244378   -8.0985653    302.97278  0.013330376  0.011916909            5 
 1895000   0.48864118    -8.108027    302.68601  0.013310731  0.011907335            8 
 1896000   0.49990897   -8.1135639    302.52094  0.013296455  0.011897769            6 
 1897000   0.50437717   -8.0980905    302.67468  0.013296199  0.011888216            6 
 1898000   0.49941024   -8.1138005    302.70452  0.013290504  0.011878677           13 
 1899000   0.48232074   -8.1022702     302.8864  0.013291487  0.011869138            7 
 1900000   0.49129475     -8.10179    302.87442  0.013283966  0.011859615            7 
 1901000   0.50295945   -8.1341163    302.96272  0.013280849   0.01185009           10 
 1902000   0.49335156   -8.1252309    302.92641  0.013272275  0.011840576            9 
 1903000   0.49243114   -8.1100463    303.30701  0.013281967  0.011831082            5 
 1904000   0.49583215   -8.1223373    303.19896  0.013270263  0.011821597            6 
 1905000   0.48992364   -8.1103444    303.02073    0.0132555  0.011812114            7 
 1906000   0.48201131   -8.1170793    302.70816  0.013234879  0.011802648            8 
 1907000   0.47929349   -8.1201627    302.44604  0.013216485  0.011793187            9 
 1908000   0.48656326   -8.1214414    302.72483  0.013221734  0.011783736            7 
 1909000   0.48565384   -8.1188238    302.83329  0.013219543  0.011774288           11 
 1910000   0.49107921   -8.0952599    302.73465  0.013208318  0.011764862            8 
 1911000   0.48660753   -8.1194328    302.79092   0.01320386  0.011755438            7 
 1912000   0.49223376   -8.1321558    302.53132   0.01318564  0.011746022            8 
 1913000   0.49007871   -8.1208581    302.97865  0.013198234  0.011736599            5 
 1914000   0.50003808   -8.1315257    302.74197  0.013181033  0.011727196           18 
 1915000   0.49680339   -8.1213561    302.80256  0.013176787  0.011717793            8 
 1916000   0.49520292   -8.1271499    302.99983  0.013178489  0.011708409            9 
 1917000   0.47722529   -8.1185259    303.23803   0.01318197  0.011699032            9 
 1918000   0.47527893   -8.1218532    302.61616  0.013148078  0.011689667           10 
 1919000    0.4989477   -8.1294567    302.94445  0.013155482  0.011680314           14 
 1920000   0.48565228   -8.1298474    303.02853   0.01315228  0.011670969           10 
 1921000   0.48422408   -8.1322111    302.58627  0.013126248   0.01166163           12 
 1922000   0.49140432   -8.1370055    302.65133  0.013122239    0.0116523            4 
 1923000   0.47994389   -8.1161216    302.60816  0.013113545  0.011642974            7 
 1924000   0.49100907   -8.1293627    302.61006  0.013106811  0.011633659            9 
 1925000   0.48311889   -8.1406079    302.69101  0.013103507  0.011624347           13 
 1926000   0.48286543   -8.1372045     302.2993  0.013079755  0.011615049            7 
 1927000   0.47651879   -8.1451553    302.62735  0.013087154  0.011605751            8 
 1928000   0.48176899   -8.1359567    302.59564  0.013078995  0.011596463            9 
 1929000    0.4798811   -8.1254689    302.13937  0.013052504  0.011587195            5 
 1930000   0.48045248   -8.1305782    302.60183   0.01306571  0.011577929            5 
 1931000    0.4755015   -8.1349389     302.6029  0.013058989  0.011568679           11 
 1932000   0.47953444   -8.1384867    302.78396   0.01306004  0.011559437            6 
 1933000   0.49363439   -8.1293921    302.89989  0.013058281  0.011550207            9 
 1934000    0.4868144   -8.1332588    302.20464  0.013021572  0.011540983            4 
 1935000    0.4702833   -8.1364457    302.83682  0.013042068  0.011531774           12 
 1936000    0.4910301   -8.1525468    302.67837  0.013028511  0.011522568           10 
 1937000   0.48408632   -8.1416217    302.26167  0.013003858  0.011513371            9 
 1938000   0.48394126   -8.1440037    302.38282  0.013002357  0.011504192            7 
 1939000   0.49284181   -8.1577743    302.60937  0.013005388  0.011495006           10 
 1940000   0.48165202   -8.1461227      302.733  0.013003995  0.011485835            5 
 1941000   0.48177683    -8.131748    302.90973  0.013004883  0.011476671            5 
 1942000   0.46858155   -8.1296565    302.29081  0.012971628  0.011467527           11 
 1943000   0.48200703   -8.1415804    302.61932  0.012979041  0.011458389            9 
 1944000   0.47625022    -8.142752    302.08906  0.012949634  0.011449258            6 
 1945000   0.46756633   -8.1267837    302.45147  0.012958503   0.01144013           11 
 1946000   0.48099564   -8.1502838      302.277  0.012944373  0.011431015            7 
 1947000   0.48118567   -8.1483913    302.05454  0.012928203    0.0114219            6 
 1948000   0.47694137   -8.1525714    302.51763  0.012941377    0.0114128            7 
 1949000   0.48311591   -8.1341744    303.05709  0.012957803  0.011403702            5 
 1950000   0.47636874   -8.1464883    302.51044  0.012927796  0.011394617            4 
 1951000   0.47629618   -8.1422915    302.67522  0.012928208  0.011385549            9 
 1952000   0.48539365   -8.1492978    302.54564  0.012916054  0.011376485           20 
 1953000   0.47030512    -8.141955    302.27617  0.012897942  0.011367424           16 
 1954000   0.47457007     -8.15775    302.61592  0.012905831  0.011358369           10 
 1955000   0.47745795   -8.1524374    302.56135  0.012896903  0.011349332            9 
 1956000   0.47723709   -8.1526065    302.08066   0.01286983  0.011340296            7 
 1957000   0.47205828   -8.1584462    302.27183  0.012871395  0.011331266           10 
 1958000   0.47862745   -8.1473395    302.69842  0.012882977  0.011322249            7 
 1959000   0.47633498   -8.1580672    302.56872  0.012870883  0.011313241            7 
 1960000   0.47758378   -8.1706074    302.12641  0.012845511  0.011304237           10 
 1961000     0.478609   -8.1644805    302.06891  0.012836517  0.011295254            7 
 1962000   0.47086088   -8.1478615    302.38137  0.012843246   0.01128627            6 
 1963000   0.47101338   -8.1491599    302.49425  0.012841495  0.011277301            9 
 1964000    0.4643502   -8.1596191    302.23372  0.012823902  0.011268334            5 
 1965000   0.47367805   -8.1654333    302.49704  0.012828543  0.011259381            7 
 1966000    0.4675721   -8.1801194    302.40739  0.012818218  0.011250427           12 
 1967000   0.45859083   -8.1470068    301.92777  0.012791382  0.011241487            9 
 1968000   0.47200912   -8.1666374     301.9459   0.01278565  0.011232556            7 
 1969000   0.47487769   -8.1452359    302.00551  0.012781679  0.011223637            9 
 1970000   0.45675563   -8.1523912    302.71944  0.012805391  0.011214726            9 
 1971000   0.46550975   -8.1677239    302.38573  0.012784785  0.011205829            6 
 1972000   0.47159035   -8.1736451    302.26162  0.012773057  0.011196931           11 
 1973000   0.47266281   -8.1720861    301.77972  0.012746229  0.011188044           11 
 1974000   0.47113177   -8.1558906    302.31021  0.012762167  0.011179172           11 
 1975000   0.45927699   -8.1518299    302.33859  0.012756903  0.011170307            6 
 1976000   0.46635703   -8.1433073    301.95276  0.012734175  0.011161453            9 
 1977000   0.45397055   -8.1604093    301.95525  0.012727839  0.011152599            6 
 1978000   0.45525347    -8.161834    301.92415  0.012720094   0.01114375            8 
 1979000   0.45613078   -8.1605206    302.38644  0.012733133  0.011134915            8 
 1980000   0.47305176    -8.184519    302.20251  0.012718961  0.011126088            9 
 1981000   0.45725117   -8.1651959    302.36629   0.01271943  0.011117273           10 
 1982000   0.46507614   -8.1601743    302.08203  0.012701061   0.01110846            9 
 1983000   0.46143848   -8.1594446    302.32458  0.012704849  0.011099664            9 
 1984000   0.46909239   -8.1709916    302.24613   0.01269515   0.01109087            6 
 1985000   0.46076804   -8.1586478    302.47337  0.012698294  0.011082085           13 
 1986000   0.46357531   -8.1729751    301.87494   0.01266679  0.011073303            9 
 1987000   0.44503102   -8.1608347    302.15561  0.012672186  0.011064533           15 
 1988000   0.45409543   -8.1638994    301.61151  0.012643004  0.011055765            8 
 1989000   0.45535312   -8.1681503    301.67561  0.012639334  0.011047011            8 
 1990000    0.4646375   -8.1723181    302.15776  0.012653173  0.011038257            9 
 1991000    0.4484323   -8.1695581    301.46959  0.012618014  0.011029519           12 
 1992000   0.45667176   -8.1734792    302.17349  0.012641127   0.01102079           10 
 1993000   0.46538802    -8.173604    302.03138  0.012628842  0.011012071            7 
 1994000   0.45871013   -8.1907275    301.94576   0.01261893  0.011003361            9 
 1995000     0.455392   -8.1758315    302.05938  0.012617351  0.010994661            6 
 1996000   0.44973922   -8.1859745    302.06453  0.012611245  0.010985959           12 
 1997000   0.45978713    -8.171751    301.37843  0.012576299  0.010977274            8 
 1998000   0.45834665   -8.1792792    302.17286  0.012603139  0.010968592            9 
 1999000   0.45607028   -8.1726733     301.8549  0.012583579  0.010959919           13 
 2000000   0.45698448   -8.1817467    301.66397  0.012569332  0.010951253           10 
 2001000   0.44889804   -8.1816815    302.24729  0.012587343  0.010942603            5 
 2002000   0.45099966   -8.1787958     301.7405  0.012559961  0.010933959           11 
 2003000   0.45267296   -8.1764778    301.84957  0.012558228   0.01092532           12 
 2004000   0.45229242   -8.1678825     301.7836  0.012549218  0.010916691            7 
 2005000   0.44911352   -8.1619926    301.86707  0.012546428  0.010908077            8 
 2006000   0.45534986    -8.170984    301.71182  0.012533724  0.010899466           12 
 2007000   0.44828845   -8.1734942    301.96743  0.012538093   0.01089086            9 
 2008000   0.46256253   -8.1742167     301.7494    0.0125228  0.010882266           10 
 2009000    0.4570481   -8.1726809    302.37199  0.012542392  0.010873685            6 
 2010000   0.44974212   -8.1727309    301.95591  0.012518902  0.010865105            8 
 2011000   0.45058257   -8.1880232    301.68572   0.01250148  0.010856528            8 
 2012000   0.44138153   -8.1738443    301.99194   0.01250795  0.010847967            7 
Loop time of 4614.83 on 48 procs for 2000000 steps with 4000 atoms

Performance: 74889.048 tau/day, 433.386 timesteps/s
99.4% CPU use with 48 MPI tasks x no OpenMP threads

MPI task timing breakdown:
Section |  min time  |  avg time  |  max time  |%varavg| %total
---------------------------------------------------------------
Pair    | 282.7      | 305.78     | 332.95     |  73.4 |  6.63
Neigh   | 29.098     | 30.174     | 31.019     |   8.2 |  0.65
Comm    | 272.08     | 297.81     | 324.29     |  75.0 |  6.45
Output  | 3.9741     | 3.9791     | 4.0176     |   0.3 |  0.09
Modify  | 3921.9     | 3932.4     | 3948.2     |   9.1 | 85.21
Other   |            | 44.65      |            |       |  0.97

Nlocal:        83.3333 ave          91 max          77 min
Histogram: 4 4 11 3 5 7 4 3 3 4
Nghost:        1914.54 ave        1950 max        1896 min
Histogram: 2 8 14 12 4 3 2 2 0 1
Neighs:        12075.8 ave       13631 max       10625 min
Histogram: 2 4 8 5 5 9 6 4 3 2
FullNghs:      24151.0 ave       27228 max       21805 min
Histogram: 2 5 12 4 6 9 1 4 4 1

Total # of neighbors = 1159250
Ave neighs/atom = 289.81250
Neighbor list builds = 107467
Dangerous builds = 0

#clear
#
#next RN
#
#jump SELF
Total wall time: 1:16:57
