
units lj                  # Use reduced LJ style units
atom_style atomic         # Uncharged point particles
atom_modify map hash      # Needed for indexing of clusters etc
                          # Used to be able to find where atoms are in relation to each other.

lattice fcc 1.0 spacing 1 1 1
Lattice spacing in x,y,z = 1.5874011 1.5874011 1.5874011
region box block 0 10 0 10 0 10 units lattice
create_box 2 box
Created orthogonal box = (0.0000000 0.0000000 0.0000000) to (15.874011 15.874011 15.874011)
  3 by 4 by 4 MPI processor grid
create_atoms 1 box
Created 4000 atoms
  using lattice units in orthogonal box = (0.0000000 0.0000000 0.0000000) to (15.874011 15.874011 15.874011)
  create_atoms CPU = 0.025 seconds
set type 1 type/fraction 2 0.31 78393
Setting atom values ...
  1268 settings made for type/fraction
mass 1 1.0
mass 2 1.0
pair_style lj/cut  3.5
pair_modify tail  yes
pair_coeff 1  1  1.0  1.0   # Intearaction between 1 and 1 set with epsilon = 1 and sigma = 1
pair_coeff 1  2  1.5  0.8
pair_coeff 2  2  0.5  0.88

write_data data.0
System init for write_data ...
Neighbor list info ...
  update every 1 steps, delay 10 steps, check yes
  max neighbors/atom: 2000, page size: 100000
  master list distance cutoff = 3.8
  ghost atom cutoff = 3.8
  binsize = 1.9, bins = 9 9 9
  1 neighbor lists, perpetual/occasional/extra = 1 0 0
  (1) pair lj/cut, perpetual
      attributes: half, newton on
      pair build: half/bin/atomonly/newton
      stencil: half/bin/3d
      bin: standard
WARNING: Not all mixed pair coeffs generated from mixing. Use write_data with 'pair ij' option to store all pair coeffs. (../write_data.cpp:312)


#############################
#   M E L T   S Y S T E M   #
#############################

velocity all create 2.4 5300450 mom yes dist gaussian # Assign velocities
                                                    # Temperature 2.4, random number seed, zero linear momentum
                                                                                # Gaussian distribution

timestep 0.002   # simulation timestep
thermo 1000       # output thermodynamic data every 1000 steps bf 100

# Define a fix  in this case with index 1 applied to all
# particles in the simulation. This fix is for simulations
# in the anisotropic NPT ensemble. Note that we use the MTK
# correction.
fix 1 all npt temp 2.4 2.4 0.1 iso 5.68 5.68 0.5 mtk yes tchain 5 pchain 5 # Use NPT ensemble
                                                                         # Set temperature and pressure and damping
                                                                         # Numbers of thermostats in chain and in barostat
run 10000          # run for 10000 steps
Per MPI rank memory allocation (min/avg/max) = 3.642 | 3.644 | 3.648 Mbytes
Step Temp E_pair E_mol TotEng Press Volume 
       0          2.4   -6.3727134            0   -2.7736134   -4.0086663         4000 
    1000    2.4125195   -5.0001835            0    -1.382309    5.4342135    4143.3285 
    2000    2.4217933   -5.0426586            0   -1.4108769    5.7314346    4097.6735 
    3000    2.4132868   -5.0128018            0   -1.3937767    5.6576132     4121.324 
    4000    2.4097309   -5.0081137            0    -1.394421    5.5016176    4141.7777 
    5000    2.4174722   -4.9777595            0   -1.3524578    5.6353273    4130.3876 
    6000     2.393767   -4.9919202            0   -1.4021674    5.7919973    4111.7233 
    7000    2.3576902   -4.9416466            0   -1.4059955     5.724953    4139.8991 
    8000    2.4158857   -4.9229418            0   -1.3000192    5.8415096    4136.1254 
    9000    2.4306751     -4.98862            0   -1.3435188    6.0688617    4100.9184 
   10000    2.4540283    -5.065336            0   -1.3852139     5.208574    4140.3977 
Loop time of 2.4081 on 48 procs for 10000 steps with 4000 atoms

Performance: 717579.600 tau/day, 4152.660 timesteps/s
99.6% CPU use with 48 MPI tasks x no OpenMP threads

MPI task timing breakdown:
Section |  min time  |  avg time  |  max time  |%varavg| %total
---------------------------------------------------------------
Pair    | 1.0528     | 1.1185     | 1.1815     |   3.1 | 46.45
Neigh   | 0.20097    | 0.20992    | 0.22156    |   0.9 |  8.72
Comm    | 0.74414    | 0.82317    | 0.89813    |   3.9 | 34.18
Output  | 0.00024414 | 0.00024883 | 0.0003086  |   0.0 |  0.01
Modify  | 0.20358    | 0.24104    | 0.27383    |   4.0 | 10.01
Other   |            | 0.01525    |            |       |  0.63

Nlocal:        83.3333 ave          94 max          71 min
Histogram: 1 1 3 7 9 8 10 5 2 2
Nghost:        1594.38 ave        1621 max        1561 min
Histogram: 2 1 2 5 5 11 10 5 4 3
Neighs:        9214.46 ave       10609 max        7508 min
Histogram: 1 2 2 5 6 13 10 4 2 3

Total # of neighbors = 442294
Ave neighs/atom = 110.57350
Neighbor list builds = 902
Dangerous builds = 173

# Equilibrate just above the melting temperature to avoid step fn in T

fix 1 all npt temp 1.25 1.25 0.1 iso 5.68 5.68 0.5 mtk yes tchain 5 pchain 5
run 2000
Per MPI rank memory allocation (min/avg/max) = 3.643 | 3.645 | 3.649 Mbytes
Step Temp E_pair E_mol TotEng Press Volume 
   10000    2.4540283    -5.065336            0   -1.3852139     5.208574    4140.3977 
   11000    1.2635558   -6.8145718            0    -4.919712    5.9104556    3321.9799 
   12000    1.2363724   -6.9073441            0   -5.0532491    5.9310674    3295.2498 
Loop time of 0.580802 on 48 procs for 2000 steps with 4000 atoms

Performance: 595039.641 tau/day, 3443.516 timesteps/s
99.6% CPU use with 48 MPI tasks x no OpenMP threads

MPI task timing breakdown:
Section |  min time  |  avg time  |  max time  |%varavg| %total
---------------------------------------------------------------
Pair    | 0.23959    | 0.27528    | 0.3007     |   2.9 | 47.40
Neigh   | 0.035831   | 0.039543   | 0.042555   |   0.8 |  6.81
Comm    | 0.19078    | 0.21475    | 0.25425    |   3.4 | 36.98
Output  | 5.3283e-05 | 5.4703e-05 | 6.8704e-05 |   0.0 |  0.01
Modify  | 0.040086   | 0.046342   | 0.05112    |   1.7 |  7.98
Other   |            | 0.004825   |            |       |  0.83

Nlocal:        83.3333 ave          92 max          73 min
Histogram: 1 3 6 2 2 12 11 7 3 1
Nghost:        1873.33 ave        1904 max        1840 min
Histogram: 3 4 2 9 4 5 10 5 1 5
Neighs:        11601.4 ave       13350 max       10045 min
Histogram: 6 3 3 7 6 6 6 8 2 1

Total # of neighbors = 556868
Ave neighs/atom = 139.21700
Neighbor list builds = 142
Dangerous builds = 9

#############################
# L I N E A R  Q U E N C H  #
#############################

# Define solid atoms. This closely follows ten Wolde  Ruiz-Montero and Frenkel  Faraday Discuss  1996  104  93-110
# Compute components of the per-atom q6 vector
compute q6 all orientorder/atom degrees 1 6 components 6 nnn NULL cutoff 1.3 # compute the Q6 parameter.
                                                                             # Use all neighbours within 1.3 unit cell.

# get number of connections
compute coord_number all coord/atom orientorder q6 0.5

# An atom is solid if it has 8 or more connections (of a possible 14)
variable is_solid atom c_coord_number>=8
group solid dynamic all var is_solid    # Must be dynamic to update
dynamic group solid defined

# do clustering
compute cluster solid cluster/atom 1.3 # Create a cluster where all atoms within are solid and max 1.3 units from another member

# define chunks one chunk per cluster
compute clus_chunks solid chunk/atom c_cluster nchunk every compress yes  # Says which atoms are in which chunk

# count the size of each chunk
compute size_chunks solid property/chunk clus_chunks count


# Find the maximum entry in the vector of chunk sizes
variable max_n equal max(c_size_chunks)


# Thermo style which includes this variable
# thermo_style custom step temp pe vol v_max_n

thermo ${N}  # Print the thermo information every 100 steps
thermo 1000  

# Reset the npt fix at a lower temperature (below freezing)
fix 1  all npt temp  ${temp} ${temp}  0.1  iso  5.68  5.68  0.5  mtk yes tchain  5  pchain  5
fix 1  all npt temp  0.45 ${temp}  0.1  iso  5.68  5.68  0.5  mtk yes tchain  5  pchain  5
fix 1  all npt temp  0.45 0.45  0.1  iso  5.68  5.68  0.5  mtk yes tchain  5  pchain  5

dump dmp2 all dcd ${N} traj.dcd
dump dmp2 all dcd 1000 traj.dcd


compute msd all msd com yes
variable twopoint equal c_msd[4]/6/(step*dt+1.0e-6)
fix 9 all vector 10 c_msd[4]
variable fit equal slope(f_9)/6/(10*dt)
thermo_style custom step temp pe c_msd[4] v_twopoint v_fit v_max_n

fix 1 all npt temp 1.25 ${temp} 0.1 iso 5.68 5.68 0.5 mtk yes tchain 5 pchain 5
fix 1 all npt temp 1.25 0.45 0.1 iso 5.68 5.68 0.5 mtk yes tchain 5 pchain 5
run 5000000 # 5000000  # Run for this many steps
Neighbor list info ...
  update every 1 steps, delay 10 steps, check yes
  max neighbors/atom: 2000, page size: 100000
  master list distance cutoff = 3.8
  ghost atom cutoff = 3.8
  binsize = 1.9, bins = 8 8 8
  4 neighbor lists, perpetual/occasional/extra = 1 3 0
  (1) pair lj/cut, perpetual
      attributes: half, newton on
      pair build: half/bin/atomonly/newton
      stencil: half/bin/3d
      bin: standard
  (2) compute orientorder/atom, occasional
      attributes: full, newton on
      pair build: full/bin/atomonly
      stencil: full/bin/3d
      bin: standard
  (3) compute coord/atom, occasional
      attributes: full, newton on
      pair build: full/bin/atomonly
      stencil: full/bin/3d
      bin: standard
  (4) compute cluster/atom, occasional
      attributes: full, newton on
      pair build: full/bin/atomonly
      stencil: full/bin/3d
      bin: standard
Per MPI rank memory allocation (min/avg/max) = 9.808 | 9.818 | 9.824 Mbytes
Step Temp PotEng c_msd[4] v_twopoint v_fit v_max_n 
   12000    1.2363724   -6.9073441 2.1689731e-30 1.5062312e-32 8.3333333e+20            1 
   13000    1.2546385   -6.8865156   0.48749479 0.0031249665  0.039753771            2 
   14000    1.2399122   -6.8652944    1.0019146 0.0059637769  0.040483066            1 
   15000    1.2480422   -6.9017775    1.4765481 0.0082030447   0.04081213            1 
   16000    1.2383901   -6.9457804    1.9602678  0.010209728  0.040647806            2 
   17000    1.2520942   -6.9181989    2.4391064  0.011956404  0.040619617            1 
   18000    1.2697897   -6.9469168    2.8887668   0.01337392  0.040279963            1 
   19000    1.2667057   -6.8829489    3.3714419  0.014787025  0.039839618            2 
   20000    1.2629623   -6.9594423     3.826804  0.015945016  0.039678506            1 
   21000    1.2836576   -6.8946206    4.3262924  0.017167827  0.039630101            2 
   22000    1.2694405   -6.8913512    4.7758001  0.018090151  0.039602746            1 
   23000     1.227453   -6.9246736    5.2680015  0.019086962   0.03948707            2 
   24000    1.2602432   -6.8956353    5.6597738  0.019651992  0.039384509            2 
   25000    1.2313507   -6.8706179    6.1388049  0.020462683  0.039211315            1 
   26000    1.2145428   -6.9124619    6.6439192  0.021294612  0.039147637            4 
   27000    1.2653749   -6.9210239    7.0871874  0.021874035   0.03914657            1 
   28000     1.254533   -6.8872109     7.462018  0.022208386  0.039092051            3 
   29000    1.2470682   -6.9492784    7.8810357  0.022646654   0.03885467            1 
   30000    1.2532326   -6.9178903    8.3685606  0.023246001  0.038692593            4 
   31000    1.2287367   -6.9101358     8.907257  0.023944239  0.038617294            2 
   32000    1.2641864   -6.9387142    9.3654988  0.024389319  0.038639971            1 
   33000    1.2411879   -6.8879819    9.7233653  0.024553952  0.038567162            2 
   34000    1.2475544   -6.9124411    10.121958  0.024808721  0.038435457            2 
   35000    1.2399685   -6.9083688    10.607426  0.025255775  0.038321466            3 
   36000     1.243637   -6.8915207    11.049755  0.025578136  0.038238723            2 
   37000     1.256105    -6.916025    11.454962  0.025799463  0.038197226            1 
   38000    1.2382006   -6.8864611    11.847209  0.025980721  0.038084339            2 
   39000    1.2458109   -6.9430268    12.220779  0.026112775  0.037941304            2 
   40000      1.25809   -6.9327523    12.732017  0.026525034  0.037831615            3 
   41000    1.2441598   -6.9552781     13.12072  0.026668129  0.037737909            2 
   42000    1.2607002   -6.9153911    13.672607  0.027128189  0.037658358            1 
   43000     1.216217   -6.9020986    14.071813  0.027270956  0.037578726            1 
   44000    1.2392056   -6.9127592    14.492986  0.027448837  0.037527747            1 
   45000    1.2478085   -6.9431376    15.122358  0.028004366  0.037521656            2 
   46000    1.2478634   -6.9136617    15.512076  0.028101586  0.037543651            2 
   47000    1.2394212   -6.9058381    16.079935  0.028510523  0.037560804            1 
   48000    1.2706751   -6.9576095    16.580759   0.02878604  0.037619829            3 
   49000    1.2426839   -6.9390473    17.001915  0.028914821  0.037670903            1 
   50000    1.2467606   -6.9297175    17.347512   0.02891252  0.037672349            2 
   51000    1.2574477   -6.9487136    17.765122  0.029027976  0.037656218            3 
   52000     1.273565   -6.8888628    18.039695  0.028909768  0.037604927            1 
   53000    1.2637955   -6.8942248    18.455742  0.029018462  0.037538803            2 
   54000     1.259999   -6.9136104    19.057136   0.02940916  0.037476289            1 
   55000     1.228981    -6.902916    19.468026  0.029497009  0.037434947            1 
   56000    1.2551776   -6.8806205    19.990239  0.029747379  0.037427734            1 
   57000    1.2642651    -6.939523    20.521118  0.030001634  0.037431818            1 
   58000    1.2177256   -6.9111909     21.12401  0.030350588  0.037460462            1 
   59000    1.2317483   -6.8938719    21.373134  0.030188042  0.037470489            2 
   60000    1.2215595   -6.9665816     21.89488  0.030409555  0.037483205            1 
   61000    1.2544053   -6.9232941    22.247577  0.030392865  0.037495802            1 
   62000    1.2370985   -6.9108395    22.798151  0.030642676  0.037497808            3 
   63000     1.239587   -6.9160168    23.214154  0.030706553   0.03750447            2 
   64000    1.2290749   -6.9106142    23.616067  0.030750087   0.03751435            2 
   65000    1.2559425   -6.9149544    24.145053  0.030955196  0.037526381            1 
   66000    1.2719258    -6.917646    24.478281   0.03090692  0.037526703            2 
   67000    1.2490513    -6.893636    24.955323  0.031038958  0.037519404            1 
   68000    1.2674521    -6.924523    25.405086  0.031133684  0.037507531            4 
   69000    1.2508934   -6.9336265    25.793424  0.031151478  0.037501582            5 
   70000    1.2292454   -6.9077141     26.24607  0.031245321  0.037495294            1 
   71000     1.240016   -6.9089299    26.751398  0.031398355  0.037497184            1 
   72000     1.218847   -6.9223041    27.275374  0.031568719  0.037490772            1 
   73000    1.2170405   -6.9213749    27.617951  0.031527341  0.037491057            2 
   74000     1.247618   -6.9236195    28.309659  0.031880246  0.037507718            1 
   75000    1.2314895   -6.9500416    28.816157  0.032017953  0.037542031            3 
   76000     1.250668   -6.9193861    29.307741   0.03213568  0.037570352            2 
   77000    1.2417753   -6.8721717    29.757173  0.032204732  0.037593684            1 
   78000    1.2303435   -6.9358662     30.15169  0.032213344  0.037618291            2 
   79000     1.256012   -6.9262803    30.777297  0.032465503  0.037652984       -1e+20 
   80000    1.2275432   -6.9356301    31.213431   0.03251399  0.037689086            1 
   81000    1.2341841   -6.9260877     31.57514  0.032484712  0.037711347            2 
   82000    1.2111667   -6.9732171    32.145807  0.032668503  0.037739705            2 
   83000    1.2255795   -6.9166002    32.356506  0.032486451  0.037758706            2 
   84000    1.2341497   -6.9177688    32.764123   0.03250409  0.037762864            1 
   85000     1.234273   -6.8833033    33.212479  0.032561254  0.037762564            2 
   86000    1.2148414   -6.9396144    33.652131  0.032608654  0.037758904            2 
   87000    1.2400666   -6.9547124    34.119923  0.032681919  0.037758754            1 
   88000    1.2849048   -6.9426128    34.753289  0.032910311  0.037774205            3 
   89000    1.2365739   -6.8820847    35.200492  0.032959262  0.037790181            1 
   90000    1.2229593   -6.9366977    35.774216  0.033124274    0.0378066            2 
   91000    1.2534331   -6.9426362    36.146591  0.033101273  0.037818168            1 
   92000    1.2334886    -6.905324    36.455691  0.033021459  0.037823415            3 
   93000    1.2421115   -6.9040909    37.079885  0.033225703  0.037833173            2 
   94000    1.2486666   -6.9163254    37.672012  0.033397173  0.037852544            2 
   95000    1.2358021   -6.9492328    38.089107  0.033411497  0.037871158            2 
   96000    1.2187956   -6.9641793    38.535147  0.033450648  0.037890609            1 
   97000    1.2025548   -6.9497809     39.15501  0.033638325  0.037914318            1 
   98000    1.2449039   -6.9310793    39.575627  0.033652744  0.037941404            1 
   99000    1.2378841    -6.950878     40.08586  0.033742306  0.037960582       -1e+20 
  100000    1.2350886     -6.93729    40.478231  0.033731859  0.037977582            1 
  101000     1.211279   -6.9687028    40.881161  0.033730331  0.037994221            2 
  102000    1.2103036   -6.9145867    41.303117  0.033744376  0.038006387            2 
  103000     1.263729   -6.9346126    41.655337  0.033701729  0.038014164            1 
  104000     1.222739    -6.897776    42.234062  0.033841396   0.03802431            1 
  105000    1.2346988   -6.9681218    42.386295  0.033639917  0.038027436            3 
  106000    1.2539067   -6.8989499    42.872389  0.033704708  0.038023866            2 
  107000    1.2540282    -6.923874    43.409918  0.033808347  0.038018868            1 
  108000    1.2334564   -6.8815472    44.056879  0.033994505  0.038014169            2 
  109000    1.2083979   -6.9016342    44.113111   0.03372562  0.038015574            1 
  110000    1.2374475    -6.930048    44.656654  0.033830799  0.038011222            1 
  111000    1.2260189   -6.9558575    45.050113  0.033821406  0.038008502            3 
  112000    1.2240236   -6.9469167     45.37077  0.033758013  0.038002734            1 
  113000    1.2607026   -6.9510542    45.794601  0.033771829  0.037993982            1 
  114000    1.2420945   -6.9640436    46.334724  0.033870412  0.037985988            2 
  115000    1.2331403   -6.9261668    47.109132  0.034137052  0.037978358            3 
  116000    1.2607986   -6.9644868    47.288326  0.033971499    0.0379762            2 
  117000    1.2121076   -6.9300151    47.896231  0.034114125  0.037971895            1 
  118000    1.2354422   -6.9277338    48.239658  0.034067555  0.037966583            3 
  119000     1.233083   -6.9614698    48.636646  0.034059275  0.037963359            2 
  120000    1.2418591   -6.9181915    49.241087  0.034195199  0.037958303            2 
  121000    1.1995716   -6.9524059      49.6473  0.034192356  0.037948489            4 
  122000    1.2151722   -6.9327033    49.852886  0.034052518   0.03793506            1 
  123000    1.2142322   -6.9146184     50.25875  0.034050644  0.037920845            2 
  124000    1.2548411   -6.9274352    50.666663  0.034050177  0.037903494            2 
  125000    1.2456968   -6.9804363    51.314868  0.034209912  0.037894469            2 
  126000    1.1901139   -6.9327579    51.886785  0.034316656  0.037888592            2 
  127000    1.2282453   -6.9404423    52.382571  0.034371766   0.03788753            1 
  128000    1.2158846   -6.9234744    52.933852  0.034462143  0.037886079            3 
  129000    1.2596838   -6.9627946    53.121141  0.034315983  0.037882611            1 
  130000    1.2447574   -6.9669172    53.464121  0.034271873  0.037873057            2 
  131000    1.2188957   -6.9604673    53.901571  0.034288531  0.037860024            1 
  132000     1.236413   -6.9230325    54.374953  0.034327622  0.037849628            1 
  133000    1.2226728    -6.913439    55.062948  0.034500594  0.037844329            2 
  134000    1.2621595   -6.9425558    55.203228  0.034330366  0.037838571            1 
  135000    1.2086558   -6.9756227     55.50862   0.03426458  0.037828631            2 
  136000    1.2131223   -6.9257374    55.878248  0.034239122  0.037814224            1 
  137000    1.2190083   -6.9424857    56.325006  0.034260952  0.037797344            1 
  138000    1.2317312   -6.9411918     56.49871  0.034117578   0.03777512            2 
  139000    1.2228491   -6.9432497    56.953312  0.034144671  0.037750842            2 
  140000    1.2573958   -6.9546821    57.326699  0.034123035  0.037726504            1 
  141000    1.2324536   -6.9328823    57.892119    0.0342152  0.037705728            1 
  142000    1.2371215   -6.9671077    58.341183  0.034237784  0.037687911            1 
  143000     1.220544   -6.9717927    58.927916  0.034340278  0.037676228            1 
  144000    1.2402762   -6.9396758    59.665532  0.034528664  0.037666839            1 
  145000     1.210449   -6.9673607    59.819794  0.034379192  0.037655334            2 
  146000    1.2363098    -6.968668     60.02757  0.034262312  0.037638873            2 
  147000    1.2183371   -6.9345962    60.806129  0.034470594  0.037623779            1 
  148000    1.2456597   -6.9643959    60.791303  0.034229337  0.037606367            1 
  149000    1.2125784   -6.9761972    61.479468   0.03438449  0.037586935            1 
  150000    1.2194137   -6.9460593     62.12938  0.034516322  0.037572767            2 
  151000    1.2306938   -6.9502374    62.627137  0.034562438   0.03756074            2 
  152000    1.2218368    -6.972056     62.94387  0.034508701   0.03755402            1 
  153000    1.2263349   -6.9722019    63.584487  0.034632074   0.03754688            3 
  154000    1.2155153   -6.9798844    64.021694  0.034643774  0.037541196            1 
  155000    1.2080027   -6.9545582    64.726386  0.034799132  0.037538828            4 
  156000    1.2043618   -6.9471358    65.324148  0.034895378  0.037536977            1 
  157000    1.2172665   -6.9401474    65.656078  0.034849298  0.037537232            1 
  158000    1.2244655   -6.9767946    65.824274  0.034717444  0.037536409            2 
  159000    1.2289599   -6.9848319    66.744359   0.03498132  0.037539936            3 
  160000    1.2238889   -6.9945368    67.214358  0.035007478  0.037545639            3 
  161000    1.2099091   -6.9475594    68.034355  0.035214469  0.037557669            2 
  162000    1.2203293   -6.9224373    68.361575  0.035165419  0.037566673            2 
  163000    1.2351065   -6.9451792    69.052729  0.035303031  0.037576592            1 
  164000    1.2176567   -6.9620863     68.81418  0.034966555  0.037583925            1 
  165000    1.2536974   -6.9513449    69.516019    0.0351091  0.037588592            1 
  166000    1.1887793    -6.989381    69.534031  0.034906642  0.037592285            1 
  167000    1.2022856    -6.935528    70.603757  0.035231416  0.037594174            1 
  168000    1.2166167   -6.9605994    70.696422  0.035067669  0.037595732            2 
  169000    1.2114956   -6.9885184    71.326813  0.035171012  0.037599512            1 
  170000    1.2215055    -6.971455    71.969635  0.035279233  0.037607995            2 
  171000    1.2226731   -6.9700942    72.626153  0.035392862  0.037616373            1 
  172000    1.1999591   -6.9349405    72.682394  0.035214338  0.037620787            1 
  173000    1.2279231   -6.9460027    73.247323  0.035282911  0.037624344            2 
  174000    1.2406607   -6.9812137    73.733412  0.035312936   0.03763153            1 
  175000    1.2240568   -6.9660207    74.152421  0.035310677  0.037640667            1 
  176000    1.2134858   -6.9110982    74.617596  0.035330301  0.037644067            3 
  177000    1.2179253   -6.9055768     75.04876  0.035333691  0.037648101            1 
  178000    1.2560045   -6.9867055    75.118644  0.035167905  0.037650816            1 
  179000    1.2069394    -6.912582    75.899953  0.035335174  0.037653429            2 
  180000    1.2369817   -7.0052786    75.805121  0.035094963  0.037653678            1 
  181000    1.2156611   -6.9530058    76.567675  0.035252152  0.037652903            2 
  182000    1.2451371    -6.979597    77.069248  0.035288117  0.037655292            1 
  183000    1.2151817   -6.9760735    77.530289  0.035305232  0.037656756            1 
  184000    1.2424195   -6.9603258    77.994017  0.035323377  0.037656714            1 
  185000    1.2010036   -6.9612571    78.501637  0.035361098  0.037656881            3 
  186000    1.2348057   -7.0061983    78.697328  0.035258659   0.03765322            1 
  187000    1.2430077   -6.9725282    79.138698    0.0352668  0.037650669            1 
  188000    1.2165143    -6.929136    79.586283  0.035277607  0.037646923            1 
  189000    1.2064075   -6.9494796    79.833331  0.035199881  0.037642103            2 
  190000    1.2338086   -6.9930602    80.444719  0.035282772  0.037639498            2 
  191000    1.2530957    -6.906492    81.192816   0.03542444  0.037636574            1 
  192000    1.2177885   -6.9684255    81.259599  0.035268923  0.037633372            1 
  193000    1.2085121   -6.9579932    81.717294  0.035283806  0.037630916            1 
  194000    1.2173665   -6.9821793    82.319014  0.035360401  0.037629643            1 
  195000    1.2018955   -6.9583249    83.075216  0.035502229  0.037628942            1 
  196000    1.2327857   -6.9402939    83.362761  0.035443351  0.037625339            2 
  197000    1.2009104   -6.9752045    83.712614  0.035411427  0.037624816            1 
  198000    1.2383702   -6.9913237    84.421854  0.035531083  0.037626832            1 
  199000     1.227037   -6.9909422     84.56013  0.035410439  0.037627565            1 
  200000    1.2252994   -6.9498784    85.364793  0.035568664  0.037628681            2 
  201000     1.229435    -6.995747    85.304971  0.035366903  0.037628993            1 
  202000    1.2184758   -6.9699931    86.056436   0.03550183  0.037628163            2 
  203000    1.2137907   -6.9572644    86.472041  0.035497554  0.037628817            3 
  204000    1.2241261    -6.963855    86.987404   0.03553407  0.037629953            3 
  205000    1.2237741    -6.940086    88.037927  0.035787775  0.037632922            1 
  206000    1.2270993   -6.9602774    88.550714  0.035821486  0.037640785            3 
  207000    1.2562413   -7.0154469    88.928692    0.0358006  0.037648798            2 
  208000     1.239053     -6.96641    88.735415  0.035551048  0.037651576            1 
  209000    1.2142829   -6.9684759    89.340298  0.035622128   0.03765205            1 
  210000    1.2148458   -6.9631389    89.493258  0.035513197  0.037652904            1 
  211000    1.2268464   -7.0142738    90.036347  0.035559379  0.037651744            2 
  212000     1.238934   -6.9990803    90.360747  0.035519162  0.037649844            1 
  213000    1.2264041   -7.0043983    91.107706  0.035644642  0.037650249            1 
  214000    1.2039731   -6.9654955    91.655567   0.03569142  0.037650473            1 
  215000    1.2246883   -7.0127432    91.998606  0.035658374  0.037651791            1 
  216000    1.2111747   -6.9596666    92.380015  0.035640438  0.037652712            1 
  217000    1.1995078   -6.9867039    92.219241  0.035414455  0.037650591            2 
  218000    1.2196969   -6.9326908    93.184225  0.035620881  0.037648056            1 
  219000       1.2441   -7.0039048    93.481078  0.035571187  0.037646048            1 
  220000     1.238561   -6.9897719    93.892732  0.035565429    0.0376437            4 
  221000    1.2384817   -6.9346954    94.564564   0.03565783   0.03764032            5 
  222000    1.2198946     -6.98487    95.168598  0.035723948  0.037639465            1 
  223000     1.234292   -7.0298726    95.107025  0.035540742  0.037637683            1 
  224000    1.2229851   -6.9677571    95.645485  0.035582398  0.037634325            2 
  225000    1.2274441   -6.9691856    96.179015  0.035621858  0.037631466            2 
  226000    1.2142679   -6.9612987    96.435977  0.035558988  0.037626337            2 
  227000    1.2281247   -6.9540682    96.981717  0.035602686  0.037623308            1 
  228000    1.2303202   -6.9940159    97.434098  0.035611878  0.037621008            1 
  229000    1.1930043    -6.986364    97.834347  0.035602018  0.037617433            2 
  230000    1.2217399   -7.0021381     97.81285  0.035439438  0.037611803            2 
  231000    1.1909551   -6.9831624     98.36301  0.035484491  0.037604838            2 
  232000    1.2028635   -6.9698442    98.764087  0.035475606  0.037597209            3 
  233000    1.2068241   -6.9767134    99.254497  0.035498747  0.037588771            2 
  234000    1.2109356   -6.9840798    99.741147  0.035520351  0.037581633            2 
  235000    1.1855472   -6.9879778    100.32847   0.03557747  0.037576285            3 
  236000    1.2035168   -6.9944317    100.92051  0.035635774  0.037570226            1 
  237000    1.1910457   -6.9854874    101.15056  0.035566301  0.037563732            2 
  238000    1.2453827   -6.9875472    101.36845  0.035493155  0.037558492            2 
  239000     1.210131   -6.9496504    102.18268  0.035628551  0.037552005            2 
  240000    1.2254562    -6.979395    102.14652  0.035467541  0.037546021            1 
  241000    1.1992565   -6.9678005    103.08885  0.035646215  0.037540057            1 
  242000    1.2251796   -7.0187045    103.46726  0.035629222  0.037535219            1 
  243000    1.2040904   -6.9948926    104.07102  0.035689649   0.03752986            1 
  244000    1.2228016   -6.9645988    104.56997  0.035713787  0.037524146            2 
  245000    1.2243453   -6.9522048    104.94489   0.03569554  0.037520181            1 
  246000    1.1953997   -6.9689642    105.49249  0.035735937  0.037520111            2 
  247000    1.1903886   -6.9703865     106.2458  0.035845413  0.037519411            1 
  248000    1.2030318   -6.9859475    106.70139  0.035853962  0.037520704            1 
  249000    1.2285525   -6.9292179    107.00717  0.035812304  0.037520995            2 
  250000    1.1873047   -7.0097149    107.45883   0.03581961  0.037518759            2 
  251000     1.198436   -6.9535551    107.57972  0.035717037  0.037516633            2 
  252000    1.2295776   -6.9761987    108.17613  0.035772529  0.037514473            1 
  253000      1.21207   -6.9772522    108.63602  0.035782615  0.037511183            3 
  254000    1.2211334   -6.9833147    109.11897  0.035800185   0.03750865            2 
  255000    1.2250224   -6.9908349    109.36451  0.035740037  0.037507265            3 
  256000     1.201934   -7.0033433    109.50071  0.035644763  0.037502786            3 
  257000    1.2305799   -7.0404203    109.77295  0.035594342   0.03749748            1 
  258000    1.2353182    -7.012518    110.13972  0.035574845  0.037490305            1 
  259000     1.208715   -7.0095108    110.69031  0.035614644  0.037483876            2 
  260000    1.2326321   -6.9636807    111.31752  0.035678691  0.037477303            1 
  261000    1.1911545   -6.9500821    112.06059  0.035779244  0.037470632            3 
  262000    1.2332466   -7.0295113    111.92963  0.035601027  0.037464283            2 
  263000    1.2050217   -7.0157289    112.35817  0.035601449    0.0374583            1 
  264000    1.2057291   -6.9584718    112.95991  0.035656536  0.037452644            1 
  265000    1.2058449   -6.9736584    113.28872  0.035625385  0.037447144            1 
  266000    1.2115517   -6.9497853    113.87331  0.035674597  0.037441067            2 
  267000    1.2418531   -6.9952013    114.04292  0.035593919  0.037434816            1 
  268000    1.2119042   -7.0113206    114.21637   0.03551504  0.037426542            1 
  269000    1.1992312   -7.0125811    114.78711  0.035559823  0.037416803            1 
  270000     1.199509   -7.0298835     114.9652  0.035483086  0.037409289            2 
  271000     1.213135   -7.0168465    115.68414  0.035573227  0.037401921            3 
  272000    1.1928498   -6.9943993    116.08765   0.03556607  0.037394292            2 
  273000    1.2057363   -6.9946609    116.80623  0.035655136  0.037388329            1 
  274000    1.2145982   -7.0315411     116.8478  0.035537651  0.037381494            2 
  275000     1.214316   -6.9820609    117.79816  0.035696413  0.037375368            1 
  276000    1.2129875   -7.0119258    117.97756  0.035621243  0.037369218            1 
  277000    1.1967243   -6.9665512    118.46002  0.035637791  0.037363645            3 
  278000    1.1894654   -7.0161535    118.54346  0.035534609  0.037359178            1 
  279000    1.2004018   -7.0006584    119.36586  0.035652885  0.037353991            1 
  280000    1.2043278    -6.980046      120.043  0.035727083  0.037349014            2 
  281000    1.2446085   -6.9948612    120.60987  0.035768051  0.037344809            1 
  282000    1.1938315   -6.9861895    120.72815  0.035676166  0.037341605            1 
  283000    1.2131508   -6.9740392    121.75964  0.035853838     0.037338            1 
  284000    1.2012363   -7.0138725    122.04219  0.035810501  0.037333338            2 
  285000    1.2206929    -7.010177    121.94798  0.035657303  0.037328447            2 
  286000    1.1941937   -6.9989058    122.65665  0.035739117  0.037323363            1 
  287000    1.2039962   -6.9648143    123.29112  0.035798814  0.037318621            1 
  288000    1.2286404   -6.9681586    123.43053  0.035714852   0.03731364            2 
  289000    1.2038555   -7.0128192    123.49989  0.035611272    0.0373071            1 
  290000     1.201357   -6.9730358    123.99568  0.035630942  0.037300704            4 
  291000    1.2000136   -7.0060343    124.53851  0.035663948  0.037295422            2 
  292000    1.2092424    -6.997947    124.72672  0.035595526  0.037289543            1 
  293000    1.2257702   -7.0146717    125.49662  0.035693009  0.037282711            1 
  294000    1.2025963    -6.966674    125.71493  0.035633482   0.03727543            1 
  295000    1.2307682   -7.0342321    125.58974  0.035477327   0.03726758            1 
  296000    1.2128284    -7.036797    126.31044  0.035560371  0.037259715            3 
  297000    1.2091255   -7.0013088    126.89638  0.035605046  0.037251758            2 
  298000    1.2172696   -7.0035149    127.40116  0.035626724  0.037245384            1 
  299000    1.1859958   -7.0036092    127.98665  0.035670749  0.037239289            1 
  300000    1.2233516   -6.9872747    128.44591  0.035679419  0.037233754            2 
  301000    1.2141814   -7.0433919    128.67587  0.035624548  0.037227968            2 
  302000    1.2220722   -6.9646664     129.5889  0.035758526  0.037221524            1 
  303000    1.2082957   -7.0248839    130.11568   0.03578539  0.037217488            2 
  304000    1.2194589   -7.0078525    130.19216  0.035688639  0.037213265            3 
  305000    1.1961071   -7.0208585    130.85715   0.03575332  0.037208566            2 
  306000    1.1789245   -7.0366002    131.07409  0.035695559  0.037204463            2 
  307000    1.2027213   -6.9730032     131.8062  0.035778014  0.037200538            1 
  308000    1.1880773   -7.0334804    131.67617  0.035626668  0.037196004            1 
  309000    1.1906183   -7.0262495    132.82259  0.035820547  0.037192627            2 
  310000    1.2133617   -6.9886012    132.60498  0.035646501  0.037188358            2 
  311000    1.2171896   -7.0142535    133.03759  0.035647801  0.037183446            2 
  312000    1.2183346    -7.044893    133.01783  0.035528266  0.037178184            1 
  313000    1.1759996   -7.0085876    133.72691  0.035603542  0.037172224            2 
  314000    1.2017325   -7.0433959    133.67451  0.035476249  0.037164836            1 
  315000    1.1765234   -7.0153425    134.71814  0.035639719  0.037157773            1 
  316000    1.1940108   -7.0243067    134.67844  0.035516465  0.037150354            2 
  317000    1.2064672   -7.0004261     135.0439  0.035500498  0.037141628            3 
  318000    1.2203766   -7.0327745    135.31107  0.035458876  0.037131833            2 
  319000    1.2089814   -6.9958093    135.79486    0.0354741  0.037122165            1 
  320000    1.2254867   -7.0130202    136.10805  0.035444804  0.037112576            1 
  321000    1.1957223   -6.9833587    136.57857  0.035456535  0.037103875            1 
  322000    1.1917763   -7.0199632    136.80824   0.03540586  0.037094162            2 
  323000    1.2176727   -7.0388944    137.56977  0.035492716  0.037085293            2 
  324000    1.1971837   -7.0535307    137.81811  0.035447045  0.037076279            1 
  325000    1.2149868   -7.0075078    138.67213  0.035556957  0.037068257            1 
  326000     1.193462   -7.0112566    138.49165  0.035401751  0.037059734            2 
  327000    1.2175933   -7.0312355    139.20282  0.035474724  0.037050097            2 
  328000    1.2190353   -7.0730555    139.28868  0.035388385  0.037040555            6 
  329000     1.201265   -7.0305714    139.83707  0.035419723  0.037030751            2 
  330000    1.1823122   -7.0318608    139.88325  0.035324054  0.037020945            1 
  331000    1.2047092   -7.0352859    140.30882  0.035324475  0.037010702            2 
  332000    1.2199513   -7.0379479    140.84503  0.035352669  0.037000252            1 
  333000     1.189946   -7.0228084    141.46742  0.035402257  0.036990264            2 
  334000    1.1610545   -7.0300572    141.55253  0.035317498  0.036979777            1 
  335000    1.1979462   -7.0160352    141.76833  0.035265754  0.036969485            1 
  336000    1.2007791   -7.0180111    142.44046  0.035327494  0.036958286            5 
  337000    1.2286373    -6.987708    142.86275   0.03532709   0.03694736            2 
  338000     1.204368   -7.0154969    143.27793  0.035324933  0.036937392            2 
  339000    1.1934596   -7.0337475    143.38793  0.035247771  0.036926953            2 
  340000    1.1523302   -7.0053641    144.12494  0.035324739  0.036915831            1 
  341000    1.1804365   -6.9992981    144.32323  0.035269607  0.036904699            2 
  342000    1.1857691   -7.0390268    144.92937  0.035314173  0.036893146            1 
  343000    1.1907924   -7.0487516    144.91219  0.035207044  0.036881623            1 
  344000    1.1981508   -7.0164382    145.63014  0.035278619  0.036870349            2 
  345000    1.2050728   -7.0205575     145.1691     0.035065  0.036858685            2 
  346000    1.2089585   -6.9992761     146.1949  0.035210717  0.036846805            1 
  347000    1.1609927   -7.0262496    146.74267  0.035240795   0.03683559            1 
  348000    1.1988615   -7.0727678    146.95073  0.035189352  0.036823614            3 
  349000    1.1949907   -7.0619172    147.78441  0.035287586  0.036813181            1 
  350000    1.1678593   -7.0258982     147.8568     0.035204  0.036802668            1 
  351000    1.1951489   -7.0387099    148.30436  0.035209962  0.036792234            1 
  352000    1.2134908   -7.0112105    148.85453  0.035240183  0.036781573            1 
  353000    1.1905188    -7.034483    149.47742  0.035287398  0.036771404            1 
  354000    1.1996001   -7.0306212    149.47161  0.035186349  0.036760631            2 
  355000    1.1778555   -6.9881805    150.08288  0.035230724  0.036749618            2 
  356000    1.2175211   -7.0195756    150.49215  0.035227563  0.036738664            1 
  357000    1.1809894   -7.0437966     150.6143  0.035157399  0.036728502            2 
  358000    1.2139938   -6.9963887    151.22077  0.035200365  0.036718332            1 
  359000    1.1860077   -7.0144943    151.56573  0.035182388  0.036706356            1 
  360000    1.1904763   -7.0222321     151.4877  0.035066598  0.036694033            1 
  361000     1.204432   -7.0169733    152.17121  0.035127242  0.036681719            1 
  362000    1.1739646   -7.0340672    152.15382  0.035026202  0.036668955            2 
  363000    1.1745667   -7.0155736    153.10603  0.035148308  0.036656528            2 
  364000    1.1789631   -7.0403552    152.81449  0.034985001  0.036644925            3 
  365000    1.1960957   -7.0700209    153.83195  0.035121449  0.036633576            3 
  366000    1.1920553   -7.0086622    154.73183  0.035230379  0.036622244            2 
  367000    1.2014146   -6.9683382    155.24609  0.035251155  0.036611239            2 
  368000    1.1951681   -7.0521537    154.99128  0.035097664  0.036600602            1 
  369000    1.2031067   -7.0062006    155.62631  0.035145959  0.036589405            1 
  370000    1.1941953   -6.9967222    156.43364  0.035232801  0.036578836            3 
  371000    1.2103797   -6.9788568    156.55902  0.035165997  0.036569393            1 
  372000    1.1977077    -7.044918    156.73561  0.035111023  0.036560792            1 
  373000    1.1910326   -6.9954134     157.7843  0.035251185  0.036551536            1 
  374000    1.1944474   -7.0119606     158.7355  0.035368872  0.036542762            3 
  375000    1.2073176    -7.081297    158.34085  0.035186856  0.036533796            3 
  376000     1.191312   -7.0172601    159.38885  0.035325543  0.036525613            1 
  377000    1.1857873   -7.0597573    159.21081  0.035192487  0.036517581            1 
  378000    1.2255295    -7.026335    159.48045  0.035158829   0.03650765            5 
  379000    1.1672522   -7.0455249    159.31417  0.035029501  0.036497329            2 
  380000    1.1807763   -7.0280351    159.59203  0.034998251  0.036486916            3 
  381000    1.1767499   -7.0298309    160.54775  0.035115431  0.036476916            1 
  382000    1.2067854   -7.0489899    160.75297  0.035068274  0.036466733            1 
  383000     1.200196   -6.9844149    161.78567  0.035201408   0.03645815            3 
  384000    1.2078429   -7.0111821    161.91553  0.035137918   0.03644918            1 
  385000    1.1862462   -7.0191562    162.05131   0.03507604  0.036440004            1 
  386000    1.2350078   -7.0057683    163.15427  0.035223288  0.036431343            2 
  387000    1.2069209   -7.0467629    162.62456  0.035018208  0.036422441            1 
  388000    1.1980126   -7.0406599     163.4718  0.035109922  0.036413082            3 
  389000    1.1778002   -7.0233273    164.37775  0.035213743  0.036403954            4 
  390000    1.1745889   -7.0157618    164.30928  0.035108821  0.036394816            2 
  391000    1.1820828   -6.9828297    165.46181  0.035264666  0.036386424            2 
  392000    1.1826216   -7.0470948    165.14233  0.035106788  0.036378194            1 
  393000    1.2051544   -7.0089928    166.65693  0.035338619  0.036370168            1 
  394000    1.1940248   -7.0855656     165.8864  0.035085957  0.036362929            1 
  395000      1.21536   -7.0176281    166.29751  0.035083863  0.036354951            2 
  396000    1.1729492   -7.0621566    166.86385  0.035114446  0.036346448            2 
  397000    1.2031629   -7.0231018      167.165  0.035089212  0.036337727            1 
  398000    1.1627152   -7.0868343     167.2694  0.035022906  0.036328947            3 
  399000     1.198261   -7.0345889     167.8691  0.035060379  0.036320635            2 
  400000    1.1941383   -7.0909589      168.323  0.035067292  0.036311757            1 
  401000    1.1833729   -7.0361529    168.65429  0.035048688  0.036301907            2 
  402000    1.1679445   -7.0191785    169.16012   0.03506636   0.03629195            1 
  403000    1.1477149   -7.0210539    169.67223  0.035085242  0.036281651            1 
  404000    1.1941246   -7.0202686    169.97152  0.035060133  0.036272613            1 
  405000    1.1631746   -7.0353027     169.9555  0.034970267   0.03626302            2 
  406000    1.1837682   -7.0617632    170.03869  0.034901209  0.036253474            2 
  407000    1.2076698   -7.0598419    171.31787  0.035077368  0.036243602            2 
  408000    1.1693551   -7.0526571    171.13887  0.034954835  0.036234285            1 
  409000    1.2032682   -7.0530895    172.20279  0.035086143  0.036225061            2 
  410000    1.1818155   -7.0645266    171.88487  0.034935948  0.036215213            3 
  411000    1.2004621   -7.0774716    172.58387  0.034992675  0.036205588            1 
  412000    1.2059146   -7.0878908    172.40383  0.034871325  0.036195992            1 
  413000    1.1956156   -7.0008058    173.37297  0.034982438  0.036186544            1 
  414000    1.1946973   -7.0306085    173.60245  0.034944133  0.036177358            2 
  415000    1.1889169   -7.0371651    173.89466  0.034918607  0.036168698            1 
  416000    1.1858557   -7.0313935    175.03766  0.035063633  0.036159867            2 
  417000    1.1958414   -7.0394432    174.83926  0.034939901  0.036151204            1 
  418000    1.1921517   -7.0830702    174.52306  0.034793273  0.036140821            1 
  419000    1.2123739   -7.0369357    176.04884  0.035013692  0.036131512            2 
  420000    1.1777326   -7.0153513    176.62921  0.035045478  0.036122853            1 
  421000    1.1925242   -7.0675093    176.67504  0.034971306  0.036114105            1 
  422000     1.206192   -7.0562209    176.37552  0.034829289  0.036104978            2 
  423000    1.1879606   -7.0647458    177.15981  0.034901459  0.036095394            2 
  424000    1.1799111   -7.0404205    177.78685  0.034942384  0.036086351            3 
  425000    1.1986822    -7.087433    177.77192  0.034857239  0.036078175            1 
  426000    1.1628625   -7.0345365    178.69818  0.034956607  0.036069688            2 
  427000    1.1884554   -7.0974479    178.36802  0.034810309  0.036060763            2 
  428000    1.1830569   -7.0129561    179.53249  0.034955703  0.036051989            2 
  429000    1.1799803   -7.0588422     179.9114  0.034947825  0.036042394            5 
  430000    1.1726141   -7.0397209    179.46316  0.034779681  0.036032885            1 
  431000    1.1661579    -7.060182    180.15715   0.03483317  0.036023145            2 
  432000    1.1798313   -7.0093595    180.70236  0.034857708  0.036014401            1 
  433000    1.1708048   -7.0314712    181.11562   0.03485674  0.036004868            2 
  434000    1.1713808   -7.0236902    181.28909  0.034809733  0.035995377            4 
  435000    1.1471406   -7.0088396    181.89064   0.03484495  0.035985131            2 
  436000    1.1629185   -7.0444055    181.57696  0.034705077  0.035974741            1 
  437000    1.1959777   -7.0460482    181.63839  0.034637374  0.035963627            2 
  438000    1.2168817   -7.0029034    182.81535   0.03478222  0.035953315            2 
  439000    1.1836945   -7.0638325    182.70501  0.034682044  0.035942774            1 
  440000    1.1729332   -7.0868985    183.13918  0.034685451  0.035932226            2 
  441000    1.1772438   -7.0354122    183.95564  0.034761081  0.035921295            2 
  442000    1.1766864    -7.086868    182.76764  0.034458454  0.035910013            3 
  443000    1.1862996   -7.0446498    184.81582  0.034765956  0.035898788            2 
  444000    1.1720803   -7.0231713    184.66978  0.034660244  0.035887846            2 
  445000    1.1348785   -7.0453037    184.82052  0.034610585  0.035877061            2 
  446000    1.1864822   -7.0847519    185.15582  0.034595632  0.035865378            1 
  447000     1.167426   -7.0603816    185.48756  0.034580082  0.035853721            1 
  448000    1.1774966   -7.0568741    185.45774  0.034497348  0.035842679            2 
  449000    1.1794578   -7.0840258    186.04688  0.034529859  0.035831034            2 
  450000    1.2118785   -7.0762035    187.11442  0.034650819  0.035819556            2 
  451000    1.2093375   -7.0535266    187.24183  0.034597529  0.035809543            2 
  452000    1.1769746   -6.9992746    188.32735   0.03472112  0.035799821            3 
  453000    1.1870735    -7.028881    188.51232  0.034678498  0.035790014            1 
  454000    1.2096896   -7.0704675    188.45598  0.034591772  0.035780052            2 
  455000    1.1595204   -7.0743619    188.59457   0.03454113  0.035770004            2 
  456000    1.1713387   -7.0514942    189.82377  0.034690016  0.035759684            2 
  457000    1.1718831   -7.0400765    190.28376  0.034697988  0.035750609            2 
  458000    1.1880065   -7.0313222    190.94769  0.034743029  0.035741752            1 
  459000    1.1600489   -7.0298363    190.59849  0.034603938  0.035732828            2 
  460000     1.178912   -7.0507175     191.0904  0.034617825  0.035724233            1 
  461000    1.1819871   -7.0520805      192.154  0.034734997  0.035715592            2 
  462000    1.1944375   -7.0691318    191.75871  0.034588511  0.035706776            2 
  463000    1.1709712   -7.0828281     191.5716  0.034480129  0.035697206            3 
  464000    1.1940618   -7.0510906    192.37249  0.034549658  0.035687449            2 
  465000    1.2107299   -7.0785111     193.4382  0.034666343  0.035677618            2 
  466000    1.1916454   -7.0811996    193.12914  0.034536685   0.03566845            1 
  467000     1.153955   -7.0973811    193.66896  0.034559058  0.035658486            2 
  468000    1.1737767   -7.0948948    193.94929   0.03453513  0.035648754            2 
  469000    1.2064067   -7.0918834    194.76502  0.034606435  0.035639705            2 
  470000    1.1602938   -7.0617729    194.81288  0.034541291  0.035630472            2 
  471000    1.1710277   -7.0736453    195.54351  0.034597223  0.035621848            1 
  472000    1.2076434   -7.0925541    196.46702  0.034686974  0.035612719            1 
  473000    1.1568291   -7.0393103     196.5702  0.034631818   0.03560456            1 
  474000    1.1600627   -7.0275791    197.09534  0.034651079  0.035595518            1 
  475000    1.1797987   -7.0438237    197.10945  0.034580604   0.03558749            1 
  476000    1.1778599   -7.0611579    197.77193  0.034623937   0.03557969            1 
  477000    1.1727015   -7.0609533    198.25132  0.034635101  0.035572328            1 
  478000    1.1685621   -7.0706622    198.98853  0.034691166  0.035564729            1 
  479000    1.1730927   -7.0146562    199.33596  0.034679185   0.03555742            2 
  480000    1.1762382   -7.0524351     199.7149  0.034672725  0.035550383            2 
  481000    1.1736417    -7.097297    199.79511  0.034614537  0.035543053            1 
  482000    1.1929156   -7.1151458    200.10357  0.034596052   0.03553567            2 
  483000    1.2039232   -7.0933474    200.51049  0.034594632  0.035528345            2 
  484000    1.1736605   -7.0331736    201.12826  0.034629522  0.035521262            2 
  485000    1.1503617   -7.0328849    202.46767  0.034788259  0.035514433            1 
  486000    1.1657682   -7.0617085     202.8412  0.034780728  0.035507987            1 
  487000    1.1525883   -7.0581356    202.87962  0.034715884   0.03550189            2 
  488000     1.141486   -7.0914662     203.2168  0.034702323  0.035495985            2 
  489000    1.1841865   -7.0973867    203.36154  0.034656022  0.035489273            1 
  490000    1.1670501   -7.0671111    203.72915  0.034647814  0.035482596            1 
  491000    1.1811702   -7.0855581    204.31915  0.034677385  0.035476104            1 
  492000    1.1701167   -7.0762157     204.9439  0.034712719  0.035469946            1 
  493000    1.1704003   -7.0855784    204.91434  0.034637312  0.035463796            2 
  494000    1.1698526   -7.0392206    205.86112  0.034726909  0.035457842            3 
  495000    1.1851525   -7.0652688    206.85719  0.034824442  0.035452303            3 
  496000    1.1522684   -7.0924905    206.22096  0.034647338  0.035447338            1 
  497000    1.1497621   -7.0523008    207.68093  0.034822422    0.0354428            1 
  498000    1.1824628   -7.0772346    207.00743  0.034639797  0.035438423            1 
  499000     1.162945   -7.0835419    207.89929   0.03471932  0.035433737            1 
  500000    1.1925962   -7.0518495     208.3368    0.0347228  0.035428766            1 
  501000    1.1775846   -7.0623317    209.38424  0.034827719  0.035424249            1 
  502000    1.1706358   -7.0711083    208.93745  0.034684171  0.035419589            1 
  503000    1.1788741   -7.0938921    209.69775  0.034741177  0.035414347            2 
  504000    1.1506172   -7.0437381    210.18522  0.034752848  0.035410247            3 
  505000    1.1459947   -7.1073392    211.29926  0.034867865   0.03540557            1 
  506000    1.1829653   -7.1172176    210.57642  0.034679912  0.035400517            5 
  507000     1.164625   -7.0549962    212.33536  0.034900618  0.035396204            1 
  508000    1.1608104   -7.0883653    212.05425  0.034785801  0.035392546            1 
  509000     1.178484   -7.0416191    213.54514  0.034961548  0.035388716            3 
  510000     1.182725    -7.014071    213.63064  0.034906968  0.035385317            2 
  511000    1.1576248   -7.1175935    213.26153  0.034778462  0.035381544            2 
  512000    1.1831422   -7.0882673    213.65666  0.034774847  0.035376431            3 
  513000    1.2005782    -7.093358    214.27525  0.034807545  0.035371979            1 
  514000    1.1865219   -7.0653305    214.60188  0.034792783   0.03536812            1 
  515000    1.1774555   -7.0330014    215.30657   0.03483925  0.035363967            1 
  516000    1.1877729   -7.0630167    215.64806  0.034826884  0.035359881            2 
  517000    1.1735524   -7.0769305    216.00856  0.034817628  0.035355662            2 
  518000    1.1800359   -7.0718974    215.97078  0.034744333  0.035351518            2 
  519000    1.1613466   -7.1196615     215.1013   0.03453778  0.035346425            1 
  520000    1.1653682   -7.0760833    216.54994  0.034703516  0.035341356            1 
  521000    1.1604157   -7.0795748    216.78783  0.034674957  0.035336281            1 
  522000     1.165485   -7.0948889    217.45466  0.034714984  0.035331331            1 
  523000     1.171635    -7.075178    218.70321  0.034847548   0.03532603            2 
  524000    1.1239287   -7.1195573    218.28328  0.034714262  0.035321203            1 
  525000    1.1786744   -7.1158226    218.31939  0.034653872  0.035315827            2 
  526000    1.1666598   -7.0923137    218.35357  0.034593404  0.035310564            1 
  527000    1.1597745   -7.0373509    219.62275  0.034728454  0.035305745            1 
  528000    1.1613255   -7.0497531    219.69116  0.034673479  0.035301407            2 
  529000    1.1565139   -7.0839907    219.90249  0.034641224  0.035296864            2 
  530000    1.1691575   -7.0762856    220.74235  0.034707917  0.035291941            1 
  531000    1.1706118    -7.077328    220.74925  0.034643636  0.035287254            2 
  532000    1.1898046    -7.039783     221.8109  0.034744815  0.035282652            1 
  533000    1.1860111   -7.0703378    221.25922  0.034593374  0.035277927            2 
  534000    1.1778294   -7.0715005    221.73224   0.03460241   0.03527294            3 
  535000    1.1858959   -7.0757345    222.01288  0.034581446  0.035267318            2 
  536000    1.1390427   -7.1216555     221.6789  0.034465003  0.035261408            1 
  537000    1.1893868   -7.0802946    222.40002  0.034512729   0.03525517            1 
  538000    1.1546241   -7.0820713    222.73849  0.034501005  0.035249806            4 
  539000    1.1770683   -7.0427749    223.87704  0.034613025  0.035244121            1 
  540000    1.1415287   -7.0695753    223.96286   0.03456217  0.035239106            1 
  541000    1.1589208   -7.0962354    224.81027  0.034628816   0.03523356            2 
  542000    1.1833245   -7.0664506    224.68136  0.034545105  0.035228181            4 
  543000    1.1711919   -7.1295671    224.91476  0.034517305  0.035222522            2 
  544000    1.1628349   -7.0925169    225.28999  0.034511334   0.03521711            1 
  545000    1.1614324   -7.0318077     226.3486  0.034609878  0.035212005            2 
  546000    1.1718634   -7.0335304    227.23448  0.034681698  0.035207189            2 
  547000    1.1796447    -7.029655    227.97613  0.034731282  0.035202401            2 
  548000    1.1904893   -7.1079583    227.16725  0.034544898  0.035197466            1 
  549000      1.16767    -7.080717    228.51783  0.034686981  0.035192203            2 
  550000    1.1674854   -7.0667421    229.53836  0.034778539  0.035188409            1 
  551000    1.1679002   -7.0363533    229.28337  0.034676856  0.035184202            3 
  552000    1.1799358    -7.089835    228.95292  0.034564148  0.035180225            2 
  553000    1.1748702   -7.0605711    230.26346  0.034699135  0.035176371            1 
  554000    1.1530533    -7.105454    229.67593  0.034548125  0.035172183            2 
  555000    1.1288238   -7.0665313    230.65313  0.034632602   0.03516789            1 
  556000    1.1348305   -7.1186825    230.49429  0.034546506  0.035163433            3 
  557000    1.1733065   -7.0892458     230.5779  0.034496992  0.035158578            4 
  558000    1.1258153   -7.0675803    230.66732  0.034448525  0.035153832            1 
  559000    1.1697764   -7.0989084    231.56889  0.034521301  0.035148451            2 
  560000    1.1798201   -7.0405788    232.27103  0.034564141  0.035143203            1 
  561000    1.1588275   -7.1011341    232.49156  0.034535288  0.035138046            4 
  562000    1.1733339    -7.049768    232.41604  0.034462639  0.035132789            1 
  563000    1.1749064   -7.0876784    232.69591  0.034442853  0.035126927            1 
  564000    1.1390295   -7.0933976     233.5604  0.034509516  0.035122141            2 
  565000    1.1375704   -7.0991799    234.10893  0.034529341  0.035117071            1 
  566000    1.1595879   -7.0758976    234.71606  0.034557723  0.035112335            1 
  567000      1.16277   -7.0798572    235.43374  0.034602255  0.035107518            2 
  568000    1.1400437   -7.0949887    234.84585  0.034455083  0.035103004            2 
  569000    1.1692894   -7.1017624    235.25196  0.034454007   0.03509815            2 
  570000    1.1559814   -7.0465876    237.03389  0.034654078  0.035094051            3 
  571000    1.1338203   -7.0819887    237.62215   0.03467924  0.035089881            2 
  572000    1.1598254   -7.0761162    236.88778  0.034511623  0.035085628            2 
  573000    1.1669452   -7.0904296    237.51524  0.034542647  0.035081262            1 
  574000    1.1631169   -7.0954779     237.4058   0.03446658  0.035076581            3 
  575000     1.144725   -7.0683945    238.57691  0.034576363  0.035072256            3 
  576000    1.1707196   -7.0928107    238.98313  0.034575106  0.035067809            2 
  577000    1.1452186   -7.0902922    238.59992  0.034459838  0.035062997            2 
  578000    1.1640553   -7.1109123    238.98323  0.034455482  0.035057637            3 
  579000    1.1641483   -7.0869536    239.28915  0.034440005  0.035052754            3 
  580000    1.1601697   -7.0669559    239.63003  0.034429603  0.035047667            2 
  581000    1.1686227   -7.0439296    240.61078  0.034511012  0.035042779            2 
  582000    1.1757194   -7.1264758    239.32162  0.034267128  0.035036566            2 
  583000    1.1839332   -7.0963315    240.38277   0.03436003  0.035030254            4 
  584000    1.1653985    -7.102634    240.73613  0.034351616  0.035023521            2 
  585000    1.1620764   -7.1356718    240.69343  0.034286813  0.035017107            1 
  586000    1.1563752   -7.0927066     241.8568  0.034393743  0.035011305            2 
  587000    1.1498693   -7.1121202    241.43647  0.034275478  0.035005328            2 
  588000    1.1573879   -7.0920776    241.75377  0.034262155  0.034999265            2 
  589000    1.1446343    -7.070149    243.13637    0.0343996  0.034993041            2 
  590000    1.1710651   -7.1343114    241.93372   0.03417143  0.034986281            1 
  591000    1.1669737   -7.0773382      243.307  0.034307248  0.034978713            1 
  592000    1.1413997   -7.1213901    243.75912  0.034312939  0.034971431            2 
  593000    1.1547047   -7.0794602    243.71859   0.03424938  0.034964248            1 
  594000    1.1597404   -7.1324748    243.46906  0.034156714  0.034957359            2 
  595000    1.1564716   -7.1229906    244.61438  0.034259717  0.034949791            1 
  596000    1.1635679   -7.1255427    244.25772  0.034152366  0.034943044            3 
  597000    1.1547986   -7.0738241     244.8409  0.034176563    0.0349357            3 
  598000    1.1620994   -7.1355841     245.6931  0.034238169  0.034928167            1 
  599000    1.1522225   -7.1178926    244.80916  0.034058036  0.034920571            3 
  600000    1.1475177   -7.1222574    245.67978  0.034122192  0.034913124            1 
  601000    1.1498165   -7.0884582    246.16487  0.034132677  0.034905756            2 
  602000     1.157409   -7.0874819    245.96704  0.034048593  0.034897644            1 
  603000    1.1745798    -7.092166    246.76699   0.03410268  0.034890145            1 
  604000    1.1353748   -7.1085882    246.69404  0.034036153  0.034882612            3 
  605000       1.1617   -7.1348419    247.40506  0.034077831  0.034875368            2 
  606000     1.172705   -7.0768865    248.72279  0.034202804  0.034868085            2 
  607000    1.1554732   -7.0972175    248.01761  0.034049644  0.034860768            1 
  608000    1.1838324   -7.1033047    249.40289   0.03418351  0.034853449            1 
  609000      1.17058   -7.0817226    249.39073  0.034125716   0.03484649            1 
  610000    1.1641747   -7.1050048    250.14826  0.034173259   0.03484001            3 
  611000    1.1549561   -7.1278712    250.16947  0.034120222  0.034833299            1 
  612000    1.1589037   -7.1580474    250.39069  0.034094592   0.03482647            2 
  613000    1.1582182   -7.0994524    251.02522  0.034125234  0.034819982            2 
  614000    1.1520997   -7.1752198     250.9164  0.034054886  0.034813027            2 
  615000    1.1455964   -7.1037688    251.22498  0.034041325  0.034805775            1 
  616000    1.1542701    -7.135006    251.41808  0.034012185  0.034798485            1 
  617000    1.1581412    -7.087874    252.34898   0.03408279  0.034791029            2 
  618000    1.1521378   -7.1114857    251.61164  0.033928214  0.034783523            3 
  619000      1.17887    -7.098624    252.13072  0.033943285  0.034776024            2 
  620000    1.1823834   -7.0787577    252.54739  0.033944541  0.034768077            1 
  621000    1.1375169   -7.1505173    252.71403  0.033912243  0.034759675            1 
  622000    1.1712518   -7.1096896    252.48371  0.033826864  0.034751143            1 
  623000    1.1410971   -7.1248577     253.4523  0.033902126  0.034742335            2 
  624000    1.1499797    -7.075453    253.78468  0.033892185  0.034733536            1 
  625000    1.1531034   -7.1372676    253.96179  0.033861572  0.034724763            1 
  626000    1.1252267   -7.1104417    254.64609  0.033898574  0.034715785            5 
  627000    1.1709306   -7.1011621    255.07429   0.03390142  0.034707101            1 
  628000    1.1393056   -7.0868551    255.04113  0.033843037  0.034698184            1 
  629000    1.1436794    -7.132381    255.92241  0.033905989  0.034689387            1 
  630000    1.1331155   -7.1651931    254.77216  0.033700022  0.034680274            1 
  631000     1.134854   -7.1174214    255.17913  0.033700361   0.03467116            2 
  632000    1.1430524   -7.1389246    257.22171  0.033916365  0.034662547            3 
  633000    1.1463338   -7.1144157    257.01874  0.033836064  0.034654096            2 
  634000    1.1534068   -7.1234789    257.24058  0.033811853  0.034645232            1 
  635000    1.1597715   -7.1442074     256.8356   0.03370546  0.034636429            1 
  636000     1.132013   -7.1329422    256.82824  0.033651499  0.034627536            2 
  637000    1.1428199   -7.1320759    258.44469  0.033810137  0.034618453            2 
  638000    1.1511857   -7.1633704    257.73004  0.033663798  0.034609439            2 
  639000    1.1368657    -7.101048    259.09551   0.03378919  0.034600383            2 
  640000    1.1644935   -7.1316759    258.98341  0.033721799  0.034591379            3 
  641000    1.1489889   -7.1501589    259.03909  0.033676428  0.034582357            2 
  642000    1.1597002   -7.1667643    259.73745  0.033714622  0.034573762            4 
  643000    1.1445329   -7.1316108    260.73356  0.033791285  0.034565435            1 
  644000    1.1368801   -7.1284042    260.67964  0.033731838  0.034556726            1 
  645000    1.1317026    -7.141314    260.39874  0.033643248  0.034547908            4 
  646000    1.1235952   -7.1033836    261.15435  0.033688642  0.034539627            2 
  647000    1.1361029   -7.1432714    262.30744   0.03378509  0.034531197            1 
  648000     1.147342    -7.069334    262.44254  0.033750326  0.034523131            1 
  649000    1.1412303   -7.1019851    263.96459  0.033893759  0.034515455            1 
  650000     1.133419   -7.1663847    263.25156    0.0337502  0.034507823            2 
  651000    1.1558152   -7.1096432    264.09034  0.033805727  0.034499792            2 
  652000    1.1496784   -7.1269408    264.15785  0.033762506  0.034491578            1 
  653000    1.1493293   -7.1377022    264.25708  0.033723466    0.0344842            1 
  654000    1.1213844   -7.1586128    264.17312  0.033661202  0.034476619            6 
  655000    1.1501726   -7.1512515    265.12226  0.033730567  0.034468443            4 
  656000    1.1247115   -7.1260223    265.72748  0.033756032  0.034460779            2 
  657000    1.1459367   -7.1588207    265.26319  0.033645762  0.034452696            1 
  658000    1.1719564   -7.1776933    265.66109  0.033645021  0.034444912            1 
  659000    1.1542942   -7.1412877    266.67955  0.033722756  0.034437765            1 
  660000    1.1533381   -7.1058204    267.41237  0.033764188   0.03443044            3 
  661000    1.1626836   -7.1200779    266.86371  0.033643937  0.034422746            3 
  662000    1.1661319   -7.1591284    267.59759  0.033685497  0.034415044            3 
  663000    1.1205723   -7.0959292    268.31889  0.033725351  0.034407659            1 
  664000    1.1949502   -7.1180783    268.77729   0.03373209  0.034400593            3 
  665000    1.1566447   -7.1139344    268.77488  0.033681063  0.034393153            2 
  666000    1.1232163    -7.132546    269.81819  0.033761035  0.034385696            1 
  667000    1.1694748   -7.1306294    269.24066  0.033638264  0.034378533            2 
  668000    1.1239381   -7.0916252    270.48295  0.033742883   0.03437126            1 
  669000    1.1653728   -7.1099617    270.58349  0.033704969    0.0343641            1 
  670000    1.1458617   -7.1419633    271.37334  0.033752903  0.034356732            1 
  671000    1.1359605   -7.1308287    271.11276  0.033670238  0.034349845            3 
  672000    1.1491255   -7.1251362    271.63501  0.033684897  0.034342985            2 
  673000    1.1306408     -7.08069    272.75916  0.033774042  0.034336553            1 
  674000    1.1454207   -7.1231714    272.76525  0.033724685  0.034329818            2 
  675000    1.1631054   -7.1346901    273.33471  0.033745026  0.034322858            1 
  676000    1.1406774   -7.1503505    273.92624  0.033768028  0.034316236            1 
  677000    1.1290086   -7.1778681    273.58803  0.033676518  0.034309439            1 
  678000    1.1324301   -7.1114821    274.62516  0.033754322  0.034302741            3 
  679000    1.1602906   -7.1207089    273.92142   0.03361824  0.034295889            2 
  680000    1.1367042   -7.1276727     273.8307  0.033557684  0.034288591            1 
  681000    1.1234342   -7.0946544    275.22772  0.033679359  0.034280659            2 
  682000    1.1430029   -7.1566576    273.61295  0.033432667  0.034273078            2 
  683000    1.1188283   -7.1700536     274.6936  0.033515568  0.034264798            2 
  684000    1.1524535   -7.1439624    275.89754  0.033613248  0.034257166            1 
  685000    1.1524938   -7.1110892    276.35649  0.033620011  0.034249187            3 
  686000    1.1601219   -7.1269924    276.41057  0.033577572   0.03424192            1 
  687000    1.1279241   -7.0902789     277.4143  0.033650449  0.034234896            3 
  688000    1.1209388   -7.1311936    277.04336  0.033556609  0.034227994            3 
  689000    1.1451851   -7.1697705    277.44376  0.033556333  0.034220672            3 
  690000    1.1461702   -7.1329647    277.54098  0.033519443  0.034213226            2 
  691000    1.1287804   -7.1311282    277.89615  0.033513766  0.034205839            1 
  692000    1.1430164   -7.1551426    277.61427  0.033431391  0.034198268            3 
  693000    1.1360426   -7.1462384    278.64455   0.03350704  0.034190172            2 
  694000     1.145393   -7.1442293    278.16889  0.033401644  0.034181925            2 
  695000    1.1429955    -7.138032    277.97664  0.033330532  0.034173177            1 
  696000    1.1305442   -7.1134706    278.09114  0.033296353  0.034164439            3 
  697000    1.1581265   -7.1160362    279.46578  0.033412933   0.03415586            1 
  698000    1.1502846   -7.1488896    279.47726  0.033366435  0.034147306            2 
  699000    1.1374739   -7.1605317    280.76099  0.033471744  0.034138673            2 
  700000    1.1551454   -7.1407296    280.32797  0.033372377  0.034130201            1 
  701000    1.1298644   -7.1157813    280.63642  0.033361438   0.03412149            2 
  702000     1.154711   -7.1669339    280.52649  0.033300865  0.034113067            3 
  703000    1.1455191   -7.1321543    281.51442  0.033370604  0.034104545            2 
  704000     1.142359   -7.1114938    282.62827  0.033455051  0.034096421            2 
  705000    1.1449187   -7.1366741    282.21673  0.033358952  0.034088557            1 
  706000    1.1636142   -7.1625108    282.57801  0.033354345  0.034081071            2 
  707000    1.1313791   -7.1579261    283.90914  0.033464067  0.034073151            1 
  708000    1.1637085   -7.1607684    282.84523  0.033291576  0.034065174            2 
  709000    1.1511251   -7.0536992    285.36838  0.033541182  0.034057636            2 
  710000    1.1358172   -7.1169844    284.55628  0.033398624  0.034050355            1 
  711000    1.1315467   -7.1665024    284.15085  0.033304132  0.034042377            2 
  712000    1.1472146    -7.131752    284.92688  0.033348183  0.034034214            1 
  713000    1.1231749   -7.1498427    284.20496  0.033217036  0.034025931            2 
  714000    1.1279766   -7.1465421    284.91213   0.03325305  0.034017824            3 
  715000    1.1399799   -7.1093011    286.04599  0.033338694  0.034010437            1 
  716000     1.150058   -7.1440653    286.72728  0.033371425  0.034002452            1 
  717000     1.110551   -7.1083974     287.1343  0.033372188  0.033994704            2 
  718000    1.1138244   -7.1476051     287.4766  0.033365437  0.033987542            1 
  719000    1.1580884   -7.0940753    288.82161   0.03347492  0.033980053            3 
  720000    1.1202223   -7.1417043    287.99667  0.033332948  0.033972753            2 
  721000    1.1196389   -7.1494203     288.2173  0.033312217  0.033965036            1 
  722000    1.1369304    -7.155006    289.25453  0.033385795  0.033957289            1 
  723000     1.149704   -7.1696735    290.15482  0.033443386  0.033949415            1 
  724000    1.1570504   -7.1117604    289.56251  0.033329019  0.033941779            1 
  725000    1.1542564    -7.160376    288.70211  0.033184151   0.03393432            4 
  726000     1.150393   -7.1573242    288.82239  0.033152248   0.03392636            1 
  727000    1.1177931   -7.1322131    290.09336  0.033252333  0.033918271            2 
  728000    1.1527595   -7.1320832    290.85958  0.033294366  0.033910815            2 
  729000    1.1312266   -7.1564487    291.04275  0.033269633  0.033903197            1 
  730000    1.1149091   -7.1336947    291.73234  0.033302778   0.03389573            2 
  731000    1.1373954   -7.1607581    291.33337  0.033211738   0.03388827            2 
  732000    1.1318135   -7.1755502    292.38129  0.033285666   0.03388089            2 
  733000    1.1269656   -7.0991458    293.28343  0.033342818  0.033874134            3 
  734000     1.138577   -7.1193587    293.04406  0.033270216  0.033867487            3 
  735000    1.1321594   -7.1247426    294.31459  0.033369001   0.03386058            2 
  736000     1.119823   -7.1670133    294.25531  0.033316951  0.033853545            2 
  737000    1.1387834   -7.1908441    295.04987  0.033361586  0.033846527            4 
  738000    1.1236053   -7.1467967    294.70546  0.033277491  0.033839785            2 
  739000    1.1304667   -7.1832128    294.76668  0.033239364  0.033832878            2 
  740000    1.1425526   -7.1876715    295.41312  0.033267243  0.033825959            3 
  741000    1.1167611   -7.1747606    295.64286  0.033248185  0.033819448            1 
  742000    1.1524069   -7.1807024    296.15467  0.033260856  0.033812512            1 
  743000    1.1246454   -7.1638426    297.51064  0.033368174  0.033805168            2 
  744000    1.1092249   -7.1235707    296.82868   0.03324694  0.033798135            1 
  745000    1.1199669    -7.170696    296.65436  0.033182814   0.03379034            5 
  746000    1.1452025   -7.1918596    296.83976  0.033159044  0.033782616            1 
  747000    1.1278655   -7.1057211    297.34151  0.033170628   0.03377522            3 
  748000     1.136488    -7.140579    298.73794  0.033281856  0.033768385            1 
  749000    1.1366649   -7.1550075    297.89497  0.033143633  0.033761473            4 
  750000    1.1195753   -7.1361714    299.65675  0.033295194  0.033754123            1 
  751000     1.144038   -7.1509544    298.62881  0.033136797  0.033746922            2 
  752000    1.1173162   -7.1627865    298.70346  0.033101004  0.033739513            2 
  753000    1.1367234    -7.138987    300.71933  0.033280139  0.033732067            1 
  754000    1.0978981   -7.1374564    299.89764  0.033145186  0.033724552            2 
  755000    1.1243901   -7.1254859    300.59681  0.033178456  0.033717058            1 
  756000    1.0805998   -7.1964539    300.38391  0.033111101  0.033709497            2 
  757000     1.129386   -7.1672707    300.89096   0.03312318  0.033702222            2 
  758000    1.1190013   -7.1939346    300.07678  0.032989972  0.033694629            1 
  759000    1.1354902   -7.1608589    301.82057  0.033137963  0.033687066            2 
  760000     1.168197   -7.1719532    302.37006  0.033154612  0.033679567            2 
  761000     1.147546   -7.1461087    302.53371  0.033128965  0.033672317            3 
  762000    1.1083293   -7.1929493    302.21997  0.033051178  0.033664975            2 
  763000    1.1424026    -7.161699    304.00775  0.033203118  0.033657765            1 
  764000    1.1110326   -7.1422916    303.79696  0.033136667  0.033650363            1 
  765000     1.123329   -7.1679048    303.50953  0.033062041  0.033643269            2 
  766000    1.1215813   -7.1588536    303.91121  0.033062577  0.033635967            2 
  767000    1.1306995   -7.1741201    303.89144  0.033017323  0.033628212            1 
  768000    1.1165732    -7.154713    304.28581  0.033017124  0.033620684            1 
  769000    1.1186447   -7.1712664    305.55701  0.033111943  0.033613078            2 
  770000    1.1339447   -7.1786567       305.14  0.033023809  0.033605833            4 
  771000    1.1163057    -7.219202    304.72998   0.03293666  0.033598414            2 
  772000    1.1307678   -7.1818782    305.51994  0.032979268  0.033590866            1 
  773000    1.1243728   -7.1777319     305.2998  0.032912872  0.033583017            1 
  774000    1.1283226   -7.1777649    307.42534  0.033099197  0.033575651            2 
  775000    1.1416655   -7.1470508    306.24776  0.032929867   0.03356801            1 
  776000    1.1309709   -7.2069148    307.16686  0.032986131  0.033560195            2 
  777000    1.1038724   -7.1679915    306.79606   0.03290391  0.033552525            2 
  778000    1.1345959   -7.1844821    306.56921  0.032837319  0.033544654            4 
  779000    1.1245753   -7.1554039    308.05456   0.03295406   0.03353698            4 
  780000    1.1257469   -7.1594215    310.24389  0.033145714  0.033529443            1 
  781000    1.1362896   -7.1860171     309.0011  0.032970667  0.033521744            1 
  782000    1.1217416   -7.1954261    308.94381  0.032922401  0.033514251            1 
  783000    1.1285153   -7.2258558     308.6961  0.032853991  0.033506858            3 
  784000    1.1362195   -7.1560613    310.39523   0.03299269  0.033499054            3 
  785000    1.1262403   -7.1853589    309.61238  0.032867556  0.033491464            1 
  786000    1.1074483   -7.1366039    310.75339  0.032946713  0.033484041            3 
  787000    1.1169776   -7.1756469     312.0415  0.033041243  0.033477065            1 
  788000    1.1417329   -7.1278181     311.8346  0.032977432  0.033470115            1 
  789000    1.1244031    -7.181861    311.82719  0.032934853  0.033463102            2 
  790000    1.1391149   -7.1650565    311.91675  0.032902611  0.033456107            2 
  791000    1.1217707   -7.2144702     312.7667  0.032950559  0.033448719            1 
  792000    1.1125404   -7.1596238    313.51347  0.032987529  0.033441714            1 
  793000     1.122423   -7.1936031    313.80988  0.032977079  0.033434831            2 
  794000    1.1138972   -7.1463237    313.38715  0.032891179  0.033427853            1 
  795000    1.1161341   -7.1945793    313.74737  0.032887565  0.033420643            2 
  796000    1.1237445   -7.2505932    312.69129  0.032735687  0.033413117            2 
  797000    1.1498544   -7.2079859    314.21558  0.032853992    0.0334055            1 
  798000    1.1114885   -7.2027704    314.16947  0.032808007  0.033398274            4 
  799000    1.1134087   -7.1549883    314.61113  0.032813009   0.03339106            1 
  800000    1.1358133   -7.1921995    315.81554  0.032897452   0.03338419            2 
  801000    1.1250588   -7.1709443    315.86895  0.032861938  0.033377213            2 
  802000    1.1377297   -7.1798171     316.0378  0.032838507  0.033369923            1 
  803000    1.1195642   -7.2186656    315.65046  0.032757416  0.033362874            1 
  804000    1.1064863   -7.1996037      316.895  0.032845667  0.033355612            1 
  805000    1.1137913   -7.1901518     316.9306  0.032808551  0.033348722            2 
  806000    1.1285812   -7.1822191    316.44761  0.032717908  0.033341702            2 
  807000    1.1070605   -7.1709718    318.52844  0.032892239   0.03333431            2 
  808000    1.1032106   -7.1883424    318.58933   0.03285781  0.033327205            1 
  809000     1.090642   -7.1718212     318.0937  0.032766141  0.033320205            1 
  810000    1.1214506   -7.2094607    318.44144  0.032761465  0.033313016            3 
  811000    1.1438986   -7.1772258    320.97827  0.032981737  0.033306158            3 
  812000    1.1065355   -7.1889999    319.85177   0.03282551  0.033299837            2 
  813000    1.0854583   -7.1737652    319.99887  0.032800212  0.033293381            2 
  814000    1.1203047   -7.1814335    320.78602  0.032840502  0.033286759            1 
  815000    1.1244805   -7.1832625    321.18303    0.0328408  0.033280113            5 
  816000    1.1323716   -7.1643414    321.83906  0.032867551  0.033273734            1 
  817000    1.0889563   -7.1825968    322.58029  0.032902926  0.033267252            1 
  818000    1.1258512    -7.185801    321.75821  0.032778953  0.033260705            3 
  819000    1.0889064   -7.1932416    322.86132  0.032851172  0.033254064            1 
  820000    1.1147275   -7.1957008    323.10618  0.032835993   0.03324737            1 
  821000    1.1281852   -7.1507315    325.13732  0.033002164  0.033241104            1 
  822000    1.0989257   -7.1586599    325.35962  0.032984552  0.033235012            2 
  823000    1.1252194   -7.1981606    323.73653  0.032780127  0.033228583            3 
  824000    1.1291663   -7.1840822    323.46235  0.032712616  0.033221925            1 
  825000    1.1075621   -7.1886147    324.25104   0.03275263  0.033215018            1 
  826000    1.1471772   -7.1699561    324.49654  0.032737746  0.033208165            2 
  827000    1.1326923   -7.1882253     326.1693  0.032866717  0.033201594            3 
  828000    1.1189344   -7.2059979    325.36306   0.03274588  0.033195077            1 
  829000    1.1290348   -7.1989639    327.37138  0.032908261  0.033188897            2 
  830000    1.1087165   -7.2031853    325.89056  0.032719936  0.033182665            2 
  831000    1.1178896   -7.1476187    328.24134  0.032916299  0.033176547            3 
  832000    1.1222827   -7.1877248    327.34889  0.032787348  0.033170489            2 
  833000    1.1226371   -7.1955052    327.36312  0.032749412  0.033164061            3 
  834000     1.134328   -7.2043082    328.68519  0.032842245  0.033157631            1 
  835000    1.1227207   -7.1846956    328.45289   0.03277973  0.033151023            1 
  836000    1.1120318    -7.180947    328.43426  0.032738662  0.033144351            1 
  837000    1.1228229   -7.1905917     329.0049  0.032756362  0.033137918            1 
  838000    1.1440855   -7.1849879    328.52059  0.032669112  0.033131506            2 
  839000    1.0929942   -7.2048503     328.2408  0.032602384  0.033124978            6 
  840000    1.0941966   -7.1960184    329.41689  0.032680247  0.033117877            2 
  841000    1.1008494    -7.146169     329.4205  0.032641746  0.033110938            2 
  842000    1.1236169    -7.231352    329.37587  0.032598562  0.033104386            3 
  843000    1.1161975   -7.2115671    331.70232  0.032789869  0.033098023            1 
  844000    1.1136236   -7.2402887    331.01486  0.032683142  0.033091822            2 
  845000    1.1216576   -7.1735893    331.42204  0.032684619  0.033085544            3 
  846000    1.1135845    -7.184577     331.2843  0.032632417  0.033079074            3 
  847000    1.1201693   -7.1596846    333.08534  0.032771088  0.033072807            1 
  848000    1.1226548   -7.2281743    332.39572  0.032664674  0.033066191            2 
  849000    1.0961456   -7.1599067    332.55277  0.032641614  0.033059752            1 
  850000    1.0933227   -7.1779042    332.71372  0.032618992  0.033052847            2 
  851000    1.0760581    -7.189138    333.30752  0.032638809  0.033045926            1 
  852000    1.1004494   -7.1739904    332.58976  0.032530297  0.033038889            2 
  853000    1.1133339   -7.1725239    332.30009  0.032463862   0.03303174            3 
  854000    1.0969788   -7.1471652    333.90856  0.032582802  0.033024619            1 
  855000    1.1196157   -7.2158819     334.2772  0.032580624  0.033017506            1 
  856000    1.1138463   -7.2020103    333.82415  0.032498457  0.033010385            1 
  857000    1.1144183   -7.1954141    334.22351  0.032499369  0.033003055            2 
  858000     1.100499   -7.2189339    334.99711  0.032536627  0.032995629            1 
  859000    1.1101557   -7.2141433    335.24292  0.032522596  0.032988427            2 
  860000    1.0979422   -7.1918816    335.65901  0.032525098  0.032981103            1 
  861000    1.1106471   -7.1970559    334.68496  0.032393047   0.03297337            1 
  862000    1.1452994    -7.218124     335.0634  0.032392054  0.032965994            2 
  863000    1.1380956   -7.2245038    336.39538  0.032483138   0.03295882            1 
  864000    1.1267511   -7.2296973    336.76496  0.032481188  0.032951719            2 
  865000    1.1143932   -7.2550272    335.91495  0.032361749  0.032944743            3 
  866000    1.1016551   -7.2180304    336.89632  0.032418814   0.03293764            2 
  867000    1.1096523   -7.1977291    338.29928  0.032516271  0.032930733            2 
  868000     1.118613   -7.1580151    338.14937  0.032464417  0.032923752            3 
  869000    1.1109446     -7.21986    338.19823  0.032431745  0.032916768            2 
  870000    1.1168309   -7.1914026    339.54885  0.032523836  0.032909662            6 
  871000    1.1177323   -7.2332392    338.68557    0.0324039  0.032902704            1 
  872000    1.1144517   -7.1553376    340.06171  0.032498252  0.032895558            2 
  873000    1.1038482   -7.1951658    340.39988  0.032493307  0.032888525            2 
  874000    1.1054447   -7.2135754    339.28355   0.03234969  0.032881362            1 
  875000    1.1136563   -7.1862727    340.90864  0.032467489    0.0328741            1 
  876000    1.1132007   -7.1925003    340.55984  0.032397245  0.032867047            1 
  877000     1.112286   -7.2059173     341.7532  0.032473699  0.032860085            1 
  878000    1.0733679   -7.1903018    341.68694  0.032430423  0.032853338            2 
  879000    1.1119066   -7.2184243     342.0982  0.032432518  0.032846607            5 
  880000    1.1095008   -7.1631951    343.25211  0.032504934  0.032839861            3 
  881000    1.1415154   -7.2113231    342.32265  0.032380122  0.032833108            3 
  882000    1.1154227   -7.1977732    342.92216  0.032400053  0.032826413            1 
  883000    1.1071044   -7.1974172    344.42933  0.032505599  0.032819744            1 
  884000    1.1181675   -7.2076124    344.59481  0.032484428  0.032813158            1 
  885000    1.1087961   -7.2386128    344.09851   0.03240099  0.032806742            2 
  886000    1.1036798   -7.1774311    344.42531  0.032395157   0.03280016            2 
  887000    1.1036997   -7.2336516    344.90791  0.032403975   0.03279371            1 
  888000    1.1155956   -7.2259046    345.16854  0.032391942  0.032787247            1 
  889000    1.1024145   -7.1935586    347.30912   0.03255616  0.032780695            1 
  890000    1.0989055   -7.2401384    346.46974  0.032440987  0.032774527            1 
  891000    1.1358054   -7.2309026    346.00781  0.032361374   0.03276833            3 
  892000    1.1265537   -7.2149201    346.11873  0.032335457  0.032761767            2 
  893000    1.1059123   -7.1899529    346.53417  0.032338015  0.032755154            1 
  894000    1.1061114   -7.2335245    346.28577  0.032278689  0.032748533            1 
  895000      1.11365   -7.2492247     346.6979  0.032280996  0.032741834            2 
  896000    1.1293441    -7.212292    347.75533  0.032343316  0.032734996            2 
  897000    1.1077388   -7.2112956    347.63614  0.032296186  0.032728207            1 
  898000    1.0926071   -7.2207296    348.23837  0.032316107   0.03272141            1 
  899000    1.1056776    -7.215847    347.38391  0.032200956  0.032714695            1 
  900000    1.1235415   -7.2078809    350.43935  0.032448088  0.032707928            4 
  901000    1.1205478   -7.2267169    349.42948  0.032318672  0.032701514            1 
  902000    1.0992048   -7.1965939    349.48568  0.032288034  0.032695013            1 
  903000    1.1002916   -7.2063593    351.23242  0.032413476  0.032688572            3 
  904000    1.0930316   -7.2398557    350.82261  0.032339842  0.032682216            2 
  905000    1.1342372   -7.1830724    351.29109  0.032347246  0.032675874            2 
  906000    1.0961217   -7.2146342     350.6014  0.032248105  0.032669222            2 
  907000    1.1101108   -7.1888658    352.13153  0.032353136  0.032662581            1 
  908000    1.1116502   -7.2217339    351.93329  0.032299311  0.032655752            2 
  909000    1.1097206   -7.2056311    352.52366  0.032317901  0.032648722            1 
  910000    1.1081694   -7.2069039    352.96808  0.032323084  0.032641872            1 
  911000    1.0753451   -7.2346948    352.64802  0.032258326  0.032634904            1 
  912000    1.0755258   -7.2143408     352.1165  0.032174388  0.032627963            3 
  913000    1.0996462    -7.180367    353.23726  0.032241444  0.032621149            2 
  914000    1.1043725   -7.2371052     353.3801  0.032219192  0.032614161            2 
  915000    1.0809637   -7.1906283    353.32674   0.03217912  0.032607061            2 
  916000    1.0862549   -7.2095245    354.34196   0.03223635  0.032599877            2 
  917000    1.1020512   -7.2193565    354.00708  0.032170764  0.032592877            2 
  918000    1.1016651   -7.2163002    352.36606  0.031986752  0.032585342            3 
  919000    1.0876592   -7.2630708     353.8995  0.032090995  0.032577844            1 
  920000    1.0894498   -7.2201009    355.51888  0.032202797  0.032570627            2 
  921000    1.1186022   -7.1848919    355.20507  0.032139438  0.032563426            2 
  922000    1.0827467   -7.2305973    355.73125  0.032152138  0.032556363            1 
  923000    1.1034852   -7.2101664    355.91654  0.032134032  0.032549022            2 
  924000    1.1345764   -7.2439557    356.09618  0.032115456  0.032541883            2 
  925000    1.0633992   -7.1683764    356.58744  0.032124995  0.032534999            2 
  926000    1.1294613   -7.2345462    355.66474  0.032007266  0.032527886            2 
  927000    1.1018501   -7.2224634    357.80948  0.032165542  0.032520905            2 
  928000    1.0929419   -7.2275546    358.10764  0.032157654  0.032514177            1 
  929000    1.1119233   -7.2168912    358.84971  0.032189604  0.032507559            1 
  930000    1.1104673    -7.220976     359.4789  0.032211371  0.032500937            4 
  931000     1.105588   -7.2150984    359.48204  0.032177053  0.032494477            2 
  932000    1.0928023   -7.2371276    359.68371   0.03216056  0.032488029            5 
  933000    1.0866865   -7.2065426    358.79867  0.032047041  0.032481582            2 
  934000    1.1053139   -7.2433008     360.7998  0.032191274  0.032475496            3 
  935000    1.1224201   -7.2026568    361.41449  0.032211631  0.032469368            1 
  936000    1.0704013   -7.2477686    360.66862   0.03211081  0.032462997            2 
  937000    1.1106312   -7.2171369    361.45425  0.032146411  0.032456753            2 
  938000    1.0682148   -7.2148129    361.27266  0.032096007  0.032450417            1 
  939000    1.1045894   -7.2087917     361.7989  0.032108528  0.032444063            1 
  940000    1.0869505   -7.2156641    362.02908  0.032094776   0.03243746            1 
  941000    1.1034684   -7.2304168    362.55015  0.032106814  0.032430931            2 
  942000      1.11478   -7.2269103    362.97376  0.032110205  0.032424337            1 
  943000    1.0888887   -7.2171468    363.62447  0.032133658  0.032417824            1 
  944000    1.0881926   -7.2358641    363.25276  0.032066805  0.032411241            2 
  945000    1.0982864   -7.1948198    363.30164  0.032037181  0.032404715            1 
  946000    1.0850427   -7.2180766    363.74998   0.03204281  0.032398212            1 
  947000    1.1047175   -7.2128587    363.44773  0.031982376  0.032391656            1 
  948000    1.1070108   -7.2186369    366.27204  0.032196909  0.032385032            1 
  949000    1.1055416   -7.2140926    365.22287  0.032070853  0.032378687            1 
  950000    1.0998655   -7.2469038    365.09052  0.032025485  0.032372232            2 
  951000    1.1027413   -7.2255754    365.80044  0.032054017  0.032365812            2 
  952000    1.0942485   -7.2269644    365.38872  0.031984307  0.032359316            1 
  953000    1.1124842   -7.2390807    364.50854  0.031873779  0.032352683            1 
  954000    1.0850937    -7.219574    366.62554  0.032025292  0.032346103            2 
  955000    1.1136133   -7.2417481    366.65351  0.031994198  0.032339714            2 
  956000    1.0825527   -7.2394779    366.97214  0.031988506  0.032333288            1 
  957000    1.0995862   -7.2190101    367.85317  0.032031798  0.032326931            1 
  958000    1.0918781   -7.2585118    368.44184  0.032049568  0.032320388            1 
  959000    1.1366398   -7.2308788    368.39748  0.032012294  0.032313965            2 
  960000    1.0986624   -7.2722594    367.35642  0.031888578  0.032307593            2 
  961000    1.1049262   -7.1829671    369.33533  0.032026997  0.032301264            2 
  962000    1.0920627   -7.2272668    369.48501  0.032006671  0.032294847            3 
  963000     1.085871   -7.2645057    369.71176  0.031993056  0.032288186            2 
  964000    1.0797011   -7.2674053    368.27882  0.031835997  0.032281314            2 
  965000     1.089798   -7.2639669    369.81599   0.03193575  0.032274477            3 
  966000     1.100533   -7.2444063    369.31373  0.031859362  0.032268011            2 
  967000    1.1161318   -7.2169064      370.985  0.031970441  0.032261395            2 
  968000    1.1045689   -7.2363712    371.36245  0.031969908  0.032254524            1 
  969000    1.1157477   -7.2558407    370.40567  0.031854633  0.032247798            2 
  970000    1.0753755   -7.2262225    371.71999  0.031934707  0.032241211            2 
  971000    1.0846336   -7.2371626    371.00657  0.031840591  0.032234554            1 
  972000    1.0764244   -7.2174753    373.00551  0.031979211  0.032227703            1 
  973000    1.0835169   -7.2339928    372.24044  0.031880819   0.03222119            2 
  974000    1.1000468   -7.2419191    372.34124  0.031856711  0.032214583            1 
  975000    1.0953624   -7.2348677    371.81602  0.031779147  0.032207733            2 
  976000    1.0800236   -7.2534007    372.61378  0.031814701  0.032200867            2 
  977000    1.0977961   -7.2505898    372.42529   0.03176606  0.032193765            2 
  978000    1.0688828   -7.2275872    373.33158  0.031810803  0.032186581            1 
  979000    1.0976054   -7.1927158    375.07788  0.031926956   0.03217976            3 
  980000    1.0930682   -7.2179743    373.43669  0.031754821  0.032172497            3 
  981000     1.094652   -7.2773357    373.62065  0.031738077  0.032165225            2 
  982000    1.0849393   -7.2471643    374.37887  0.031770101  0.032158114            3 
  983000    1.0557799   -7.2541818    373.79885   0.03168861  0.032151001            1 
  984000    1.0886101   -7.2392089    374.84926  0.031745365  0.032144016            1 
  985000    1.0753634   -7.2640419    375.32219  0.031753146  0.032136941            2 
  986000    1.1010056   -7.2545307    374.99292  0.031693114  0.032130164            1 
  987000    1.0792175   -7.2983331    374.58309  0.031626401  0.032122987            2 
  988000    1.0954989   -7.2515751    376.28546  0.031737977  0.032116046            1 
  989000    1.1013204   -7.2696168    377.03061  0.031768673  0.032109148            1 
  990000    1.0779038   -7.2336106    378.40337  0.031852135  0.032102292            1 
  991000    1.0839513   -7.2063271    377.89994   0.03177766  0.032095527            2 
  992000    1.0931476    -7.267996    377.49677  0.031711758  0.032088936            1 
  993000    1.1014355   -7.2703341    377.79217  0.031704613  0.032081969            6 
  994000    1.0954763   -7.2218121    377.51326  0.031649334  0.032075079            1 
  995000    1.0859191   -7.2256398    378.81928  0.031726908  0.032067993            2 
  996000    1.0965104   -7.2720047    378.29007  0.031650776  0.032060855            2 
  997000     1.080832   -7.2566643    378.06207  0.031599972  0.032053792            3 
  998000    1.0994167   -7.2742997    377.90868  0.031555501  0.032046599            1 
  999000    1.0892923   -7.1915467    379.08205  0.031621793  0.032039355            3 
 1000000    1.1229319   -7.2360167    380.08891  0.031674076  0.032032403            2 
 1001000    1.1055284   -7.2704507    380.34419  0.031663686  0.032025303            1 
 1002000    1.0842469   -7.2353001     380.9967  0.031686352  0.032017987            3 
 1003000    1.0741521   -7.2576178    379.79896  0.031555247  0.032010876            4 
 1004000    1.0811605   -7.2476984     380.5719  0.031587973  0.032004064            2 
 1005000    1.1183938   -7.2483719    382.34231  0.031703343  0.031997228            2 
 1006000    1.0808679   -7.2332287     381.7485  0.031622639  0.031990583            1 
 1007000    1.0720539   -7.2672184    381.19718  0.031545612  0.031983609            2 
 1008000    1.0772273   -7.2758243    381.89301  0.031571843  0.031976657            1 
 1009000    1.1094214   -7.2883991    380.59126  0.031433041  0.031969438            2 
 1010000    1.0738249   -7.2649286    381.69396  0.031492901  0.031962195            1 
 1011000    1.1056622   -7.2389472    382.77511  0.031550866  0.031954935            1 
 1012000     1.136359   -7.2402211    382.17896  0.031470599  0.031947627            2 
 1013000    1.1133549   -7.2250986    382.53045  0.031468448  0.031940497            3 
 1014000    1.0988548   -7.2055035    383.71534  0.031534791  0.031933232            2 
 1015000    1.0915505   -7.2563509    383.51404  0.031487196  0.031925971            1 
 1016000     1.100468   -7.2018844    384.42232  0.031530702  0.031918885            4 
 1017000    1.0817493   -7.2215531    383.86737  0.031454226  0.031911463            1 
 1018000    1.0731096   -7.2166503    384.95742  0.031512559  0.031904107            1 
 1019000     1.095519   -7.2738893    384.37286  0.031433829  0.031896709            1 
 1020000    1.0844707   -7.2697487    385.20611  0.031471088  0.031889051            1 
 1021000    1.0829652   -7.2264953    386.73095   0.03156472  0.031881774            2 
 1022000    1.0987873   -7.2128445    384.99113  0.031391971  0.031874744            1 
 1023000    1.0886366   -7.2616319    385.02896  0.031364366  0.031867595            2 
 1024000     1.083766   -7.2290235    386.10847  0.031421587  0.031860077            3 
 1025000    1.0827465   -7.2461101    386.65746  0.031435565  0.031852716            2 
 1026000    1.0967467   -7.2496827    385.95453  0.031347834  0.031845205            2 
 1027000    1.0849352   -7.2647068    386.00962   0.03132178  0.031837618            2 
 1028000    1.0932259   -7.2601139    386.12363  0.031300554  0.031829972            3 
 1029000    1.0762323   -7.2631414    388.01168  0.031423038  0.031822188            5 
 1030000     1.106851   -7.2230319    388.87067  0.031462029  0.031814746            1 
 1031000     1.073577    -7.261021    388.12357  0.031371126  0.031807338            2 
 1032000    1.0874726   -7.2682137    387.06757  0.031255456  0.031799793            2 
 1033000    1.0894465   -7.2763371    388.35385  0.031328965  0.031792169            2 
 1034000    1.0863125    -7.260588    388.82734  0.031336826  0.031784551            1 
 1035000     1.085031   -7.2830514    387.79622  0.031223528  0.031776836            1 
 1036000    1.0850521   -7.2917892    387.98554  0.031208618   0.03176935            1 
 1037000    1.0822648   -7.3004799    390.00219  0.031340581  0.031761788            3 
 1038000    1.0746269   -7.2472294    390.92233  0.031384259  0.031754375            2 
 1039000    1.0833185    -7.260186    390.69044  0.031335454  0.031747073            1 
 1040000    1.1019273   -7.2674943    392.17784  0.031424507  0.031739739            3 
 1041000    1.0747161   -7.2145241     392.2428   0.03139952  0.031732582            2 
 1042000    1.0511203   -7.2805638    391.18673  0.031284928  0.031725255            3 
 1043000     1.077056   -7.2393097    391.43353  0.031274651  0.031718024            1 
 1044000      1.08121   -7.2802655    391.12014  0.031219679  0.031710604            2 
 1045000    1.1055939   -7.2222023    391.41381  0.031213223  0.031703112            2 
 1046000    1.0713089   -7.2618274    393.07035  0.031315356  0.031695548            1 
 1047000     1.079812   -7.2565046    392.37704  0.031230264  0.031688268            1 
 1048000    1.0593135   -7.2384419    393.35652  0.031278349     0.031681            1 
 1049000    1.0957481   -7.2768859    393.87081  0.031289387   0.03167366            2 
 1050000    1.0796347    -7.265189    393.20268  0.031206562  0.031666445            2 
 1051000    1.0986087   -7.2649602    394.37249  0.031269624  0.031659455            3 
 1052000    1.1003064   -7.2734209    394.83162  0.031276269  0.031652441            1 
 1053000    1.0683134   -7.2842256    395.60438  0.031307722  0.031645511            1 
 1054000    1.0505869   -7.2402524     396.6828  0.031363282  0.031638616            3 
 1055000    1.0608348   -7.2874256    394.23744  0.031140398  0.031631709            2 
 1056000    1.0972941   -7.2672092    395.91268  0.031243109   0.03162474            1 
 1057000    1.0846692   -7.2943142    395.39856  0.031173018  0.031617768            5 
 1058000    1.0661453    -7.225541     397.5995  0.031316911   0.03161078            1 
 1059000    1.0920099   -7.3116576    396.38245  0.031191568  0.031603694            1 
 1060000    1.0692176   -7.2506114    397.04571  0.031214286  0.031596556            3 
 1061000    1.1130932   -7.3017022    397.41926  0.031214205  0.031589696            2 
 1062000    1.0820281   -7.2909811    398.48806   0.03126868   0.03158277            1 
 1063000    1.0881957   -7.3270444    396.77557  0.031105015  0.031575684            1 
 1064000    1.0966623   -7.2775376    399.15165  0.031261877  0.031568711            3 
 1065000    1.0798654   -7.2386461    399.20411  0.031236628  0.031562209            1 
 1066000    1.0534678   -7.2370446    400.72894  0.031326528  0.031555635            2 
 1067000    1.0643929   -7.2668176    399.75757  0.031221303   0.03154914            2 
 1068000      1.08345   -7.2381088    400.63364  0.031260428  0.031542484            5 
 1069000    1.0743265   -7.2558829    399.82904  0.031168463  0.031535722            1 
 1070000    1.0912716   -7.2578174    400.70919  0.031207881  0.031529235            2 
 1071000    1.0936319   -7.2473091    401.63786  0.031251001  0.031522717            5 
 1072000    1.1016875   -7.2628602    400.94621  0.031168082  0.031515968            1 
 1073000    1.0911691   -7.3018843    400.67894  0.031118277  0.031508954            1 
 1074000    1.0771416   -7.2747488    401.74278  0.031171848  0.031501964            2 
 1075000    1.1133789   -7.3122197    401.49159  0.031123379  0.031495104            1 
 1076000    1.0705671   -7.2880143    401.91356  0.031127135  0.031488398            3 
 1077000    1.0707839   -7.2759989    402.42032  0.031137444    0.0314815            1 
 1078000    1.0992963   -7.2326356    402.83209   0.03114039  0.031474619            2 
 1079000    1.0693609   -7.2647739    403.36615  0.031152776  0.031467659            7 
 1080000    1.0742857   -7.2812668    403.92519  0.031167067  0.031460522            1 
 1081000    1.1114758   -7.2655195    402.77152    0.0310493  0.031453417            1 
 1082000    1.0779264    -7.273022    403.20374  0.031053893  0.031446324            1 
 1083000    1.0788741   -7.2916899    403.21397  0.031026006  0.031439146            1 
 1084000    1.0890244   -7.2766549    403.66144  0.031031784  0.031431945            1 
 1085000    1.0630705   -7.3118874    404.15017  0.031040719  0.031424678            2 
 1086000    1.0542215   -7.2417959    405.44942  0.031111834  0.031417377            3 
 1087000    1.0805969   -7.3175772    402.98614  0.030894368  0.031409929            1 
 1088000     1.072391   -7.2666192    404.90709  0.031013104  0.031402534            2 
 1089000    1.0740249   -7.3078011     403.7414  0.030895424  0.031394914            1 
 1090000    1.0443624   -7.2675429    405.04873  0.030967028  0.031387293            1 
 1091000    1.0665621   -7.2626708    405.82815  0.030998178  0.031379615            2 
 1092000    1.0577139   -7.3074906    406.64511  0.031032136  0.031372229            2 
 1093000     1.063838   -7.2799528    405.08891  0.030885095  0.031364878            2 
 1094000    1.0734929   -7.3128804      405.909  0.030919333  0.031357438            1 
 1095000    1.1046303   -7.3286018    405.85511  0.030886995  0.031350046            5 
 1096000    1.0737654   -7.2922635    406.15385  0.030881528  0.031342645            2 
 1097000    1.0702545   -7.2317113    407.58108  0.030961796  0.031335154            1 
 1098000    1.1002638   -7.2420388    408.83297   0.03102861  0.031328113            1 
 1099000    1.0804097   -7.2265335     409.3645  0.031040681   0.03132099            2 
 1100000    1.0874982   -7.2928005    408.69798  0.030961968  0.031313717            2 
 1101000    1.0780412   -7.2795743     407.8968  0.030873206  0.031306317            2 
 1102000    1.0697507   -7.2977769    407.16858  0.030790122  0.031298812            3 
 1103000    1.0712163   -7.3043003    408.74331  0.030881181  0.031291206            1 
 1104000    1.0597071    -7.270401    409.41782  0.030904123  0.031283808            3 
 1105000    1.0516446   -7.2713107      409.318  0.030868628  0.031276421            2 
 1106000    1.0717178   -7.2862643    408.97929  0.030815197  0.031269019            2 
 1107000    1.0801904   -7.3079222     408.7313  0.030768691  0.031261501            3 
 1108000    1.0831887   -7.2705768    411.12964  0.030921303   0.03125383            2 
 1109000    1.0801058   -7.2402109    411.17277  0.030896661  0.031246479            2 
 1110000    1.1021292   -7.2744356    410.85874  0.030845251  0.031239188            2 
 1111000    1.0299495   -7.2719103    410.94893  0.030824252  0.031231814            2 
 1112000    1.0733154   -7.3009473    411.70933  0.030853517  0.031224439            6 
 1113000    1.0734653   -7.3070851    410.99772  0.030772516  0.031216824            1 
 1114000    1.0879861   -7.2968402    411.46161  0.030779594  0.031209371            1 
 1115000    1.0771464   -7.2981756     410.4188  0.030674051  0.031201773            1 
 1116000    1.0739383   -7.2859615    413.18207  0.030852902  0.031194253            2 
 1117000    1.0823865   -7.2723407    413.20455  0.030826958  0.031186962            2 
 1118000    1.0861942   -7.2617328     413.5169  0.030822667  0.031179919            1 
 1119000    1.0804515   -7.2994305    413.57897  0.030799745  0.031172957            1 
 1120000    1.0908254   -7.2852978    413.64392  0.030777078  0.031165937            2 
 1121000    1.0628733   -7.3004589    413.03047  0.030704019  0.031158743            1 
 1122000     1.063913   -7.2315456    414.15447  0.030760136  0.031151537            2 
 1123000    1.1025159   -7.3012662    414.07586  0.030726911  0.031144297            1 
 1124000    1.0672639   -7.2925841    415.55371  0.030809142  0.031137014            1 
 1125000    1.0809817     -7.30134     416.1826  0.030828341  0.031129903            3 
 1126000    1.0803108   -7.2647811    415.12753  0.030722878  0.031122824            1 
 1127000    1.0838954   -7.3232655    415.78278  0.030744069  0.031115696            1 
 1128000    1.0784132   -7.2910565    416.76378  0.030789286  0.031108564            1 
 1129000    1.0698321   -7.2950705    416.80148  0.030764798  0.031101496            2 
 1130000    1.0551259   -7.2649137    417.60679  0.030796961  0.031094322            1 
 1131000    1.0665481   -7.3112099    418.57446   0.03084103  0.031087364            2 
 1132000    1.0556557   -7.3136837    417.91836  0.030765486  0.031080459            1 
 1133000     1.062875   -7.2949072    416.51664  0.030635234  0.031073269            2 
 1134000    1.0631669    -7.287321    418.41439  0.030747677  0.031066014            2 
 1135000    1.0611757   -7.2989241    418.08795  0.030696619  0.031058785            1 
 1136000    1.0935192   -7.2784256    419.56553  0.030777988   0.03105177            2 
 1137000    1.0741034   -7.2908524     419.5576  0.030750337  0.031044735            3 
 1138000    1.0579747   -7.3008772    419.16426  0.030694512  0.031037643            1 
 1139000     1.098225   -7.3154447    418.27549  0.030602538  0.031030565            3 
 1140000    1.0612913   -7.2661452    419.99355  0.030701283  0.031023353            1 
 1141000    1.0745158   -7.2898583    420.69027  0.030725261  0.031016274            2 
 1142000    1.0729713   -7.2535359     420.6878  0.030698176   0.03100913            2 
 1143000    1.0588167   -7.3180071    420.47042  0.030655469  0.031001925            1 
 1144000    1.0661485   -7.2908556    420.19269  0.030608442  0.030994654            1 
 1145000    1.0654515   -7.2905713    420.15527  0.030578986  0.030987454            1 
 1146000     1.078371   -7.3015118    421.67933  0.030663127  0.030980399            2 
 1147000    1.0731711   -7.2977408    423.42944  0.030763546  0.030973337            3 
 1148000    1.0700835   -7.2979509    422.21963  0.030648928  0.030966399            1 
 1149000    1.0652972   -7.2943144    422.23611  0.030623449  0.030959327            1 
 1150000    1.0524084   -7.2883286    422.09602  0.030586668  0.030952256            1 
 1151000     1.086881   -7.3087037    422.35401  0.030578772  0.030945086            2 
 1152000    1.0776707   -7.2987275    423.23136  0.030615694  0.030938093            1 
 1153000    1.0516203    -7.325118    423.58387  0.030614619  0.030930829            2 
 1154000    1.0545313   -7.3093528    423.07017  0.030550994  0.030923617            4 
 1155000    1.0896124   -7.3004477    423.63478   0.03056528  0.030916519            1 
 1156000      1.06925   -7.3098728    424.15026  0.030575999  0.030909682            2 
 1157000     1.065476   -7.3248753    424.59842  0.030581851  0.030902479            1 
 1158000     1.068014   -7.3303408     423.6114  0.030484413  0.030895089            1 
 1159000    1.0686381   -7.3208341    424.23502  0.030502949  0.030887809            1 
 1160000    1.0677704   -7.3095809    424.88755  0.030523531   0.03088043            4 
 1161000    1.0770504   -7.2749857    425.43413  0.030536472  0.030873271            1 
 1162000     1.056295   -7.3073832    424.65516  0.030454329  0.030866201            2 
 1163000    1.0622872   -7.2626679    426.71863  0.030575998  0.030859416            2 
 1164000    1.0537858   -7.2654948    426.55754  0.030538197  0.030852471            1 
 1165000     1.050708   -7.3007861      426.234  0.030488841  0.030845533            2 
 1166000    1.0591211   -7.2575884    426.85991  0.030507426  0.030838424            8 
 1167000     1.059861   -7.3177428    426.90532  0.030484527  0.030831366            1 
 1168000    1.0792642   -7.2777602    427.65887  0.030512191  0.030824321            2 
 1169000    1.0856741   -7.3021787     427.9276  0.030505247  0.030817237            4 
 1170000    1.0497588   -7.3082525    428.20159  0.030498689   0.03081031            1 
 1171000    1.0600043    -7.262194    428.40596  0.030487188   0.03080328            2 
 1172000    1.0672239   -7.2777751    429.41318  0.030532792  0.030796562            1 
 1173000    1.0566335   -7.3423683    429.46328  0.030510321   0.03078973            1 
 1174000    1.0655347   -7.2788529    429.65835  0.030498179  0.030782926            2 
 1175000     1.082325   -7.3235566    430.14909  0.030507028  0.030775939            2 
 1176000    1.0748953   -7.3442252    429.69494  0.030448905  0.030769006            2 
 1177000    1.0693823   -7.3019319     430.0971  0.030451508  0.030761996            2 
 1178000    1.0658172   -7.3170666    431.22046  0.030505126  0.030755064            1 
 1179000    1.0637491    -7.314007    429.66986  0.030369654  0.030748241            1 
 1180000    1.0593543   -7.2769492    432.24239  0.030525593  0.030741289            2 
 1181000    1.0692464   -7.3026837    432.12203  0.030491252  0.030734484            2 
 1182000     1.062122   -7.3289021    430.27283  0.030335084  0.030727631            5 
 1183000    1.0510259   -7.2979475    432.28892   0.03045146  0.030720769            2 
 1184000    1.0682877   -7.2569187    433.19377  0.030489427  0.030713889            2 
 1185000    1.0755524   -7.3075699      433.669  0.030497117  0.030707213            1 
 1186000    1.0596294   -7.2995776    433.68639  0.030472624  0.030700718            2 
 1187000    1.0720856   -7.3159947    432.39573  0.030356342  0.030694106            1 
 1188000    1.0844417   -7.3242944    433.41848  0.030402531  0.030687488            1 
 1189000    1.0413279   -7.3288158     434.6885  0.030465973  0.030680807            1 
 1190000    1.0576535    -7.337999    433.24524  0.030339302  0.030673859            3 
 1191000    1.0673396   -7.2889085    434.92164  0.030431125  0.030667222            1 
 1192000    1.0428486   -7.3140002     434.3855  0.030368114  0.030660552            2 
 1193000    1.0470988   -7.3163723    436.63318  0.030499663  0.030653842            1 
 1194000    1.0682649   -7.3056314    435.35174  0.030384683  0.030647123            3 
 1195000    1.0515314   -7.3838971    434.06857  0.030269775  0.030640116            1 
 1196000    1.0720285   -7.3789313     434.9987  0.030309274  0.030632993            2 
 1197000    1.0911771   -7.3294657    435.96418  0.030351168  0.030626019            2 
 1198000    1.0639473   -7.3306612    435.50677  0.030294016  0.030618975            1 
 1199000    1.0575137    -7.290471    435.98786  0.030302187  0.030612034            2 
 1200000    1.0717253   -7.3073838    436.24662  0.030294904  0.030605077            4 
 1201000    1.0498406   -7.3412444    435.39203  0.030210382  0.030597852            4 
 1202000    1.0564263   -7.2934012    435.67592  0.030204931  0.030590514            1 
 1203000    1.0610432   -7.3122391     436.1381  0.030211838  0.030583279            4 
 1204000     1.071407   -7.3298468    436.29645  0.030197706  0.030576001            1 
 1205000    1.0671785   -7.2611006    438.09565  0.030297072  0.030568691            2 
 1206000    1.0610995   -7.2834118    437.49894  0.030230717  0.030561487            1 
 1207000    1.0536656   -7.3279715    436.57784  0.030142077  0.030554018            5 
 1208000    1.0646416   -7.2973788    436.91351   0.03014028  0.030546494            2 
 1209000     1.088233   -7.3434015    437.10342  0.030128441  0.030539002            1 
 1210000     1.032748   -7.3384786    435.94151   0.03002352  0.030531337            1 
 1211000    1.0602184   -7.3168413    437.74517  0.030122844  0.030523511            3 
 1212000    1.0680705   -7.3148803    437.05949  0.030050845  0.030515802            1 
 1213000    1.0699194   -7.3325912    437.36613  0.030047137  0.030507922            3 
 1214000    1.0426678   -7.3302994     436.1573  0.029939408  0.030500183            1 
 1215000    1.0570839   -7.3434279    437.73277  0.030022824  0.030492305            1 
 1216000    1.0339896   -7.3245944    438.41181  0.030044669  0.030484423            3 
 1217000    1.0327266   -7.3588165     437.8469    0.0299813  0.030476402            5 
 1218000    1.0489227    -7.301009    438.99043  0.030034923  0.030468518            2 
 1219000    1.0519457   -7.3566266    438.81299  0.029998154  0.030460667            2 
 1220000    1.0412282   -7.3323592    439.34829  0.030010129  0.030452888            4 
 1221000    1.0453125   -7.2880753    439.75124  0.030013052  0.030445261            2 
 1222000    1.0606565   -7.3369578    440.62437  0.030048034  0.030437618            2 
 1223000    1.0616216   -7.2790259      440.471  0.030013014  0.030429889            1 
 1224000    1.0768688   -7.3405762    440.14802  0.029966505  0.030422206            2 
 1225000    1.0529745   -7.3143929    440.21081  0.029946313  0.030414487            2 
 1226000    1.0602754   -7.3493796    440.70432  0.029955432  0.030406766            2 
 1227000    1.0544307   -7.3116672     442.0646  0.030023404  0.030399004            5 
 1228000    1.0728239   -7.3343902    441.94101  0.029990568  0.030391357            8 
 1229000    1.0461558   -7.3361049    442.00197  0.029970299  0.030383825            3 
 1230000     1.062817   -7.3237149     441.7008  0.029925528  0.030376199            1 
 1231000    1.0647047   -7.3215881    442.90682  0.029982861  0.030368607            2 
 1232000    1.0405203   -7.3349916    443.50656  0.029999091  0.030360901            2 
 1233000    1.0695278   -7.3440157    442.62662  0.029915289  0.030353431            2 
 1234000    1.0568423   -7.3100692    444.19605  0.029997032  0.030346039            2 
 1235000    1.0618213   -7.3505887    443.63088  0.029934607    0.0303387            1 
 1236000    1.0396616   -7.3416729    444.05896   0.02993925  0.030331255            1 
 1237000    1.0383063   -7.3294307    445.09335  0.029984731  0.030323925            2 
 1238000    1.0572146   -7.3638365    444.43632  0.029916284  0.030316627            1 
 1239000    1.0789196   -7.3353483    445.56985  0.029968379  0.030309236            1 
 1240000    1.0362209    -7.336119    446.81899  0.030028158  0.030302088            2 
 1241000    1.0529941   -7.3594784    447.33629  0.030038698  0.030294833            4 
 1242000    1.0546252   -7.3889418    444.98218  0.029856561  0.030287557            2 
 1243000    1.0661907   -7.3233087    447.62932   0.03001001  0.030280418            1 
 1244000    1.0571961   -7.3409143    446.33575  0.029899233  0.030273338            2 
 1245000    1.0497939   -7.3354339    448.90291  0.030047049  0.030266228            5 
 1246000    1.0521821   -7.3308202    447.32045  0.029917098  0.030259386            2 
 1247000    1.0377423   -7.3324411    449.02147  0.030006781  0.030252357            3 
 1248000    1.0545671    -7.327031    448.86964  0.029972599  0.030245483            1 
 1249000     1.068257   -7.2837086    449.89767  0.030017192  0.030238679            2 
 1250000    1.0584142   -7.3493859    450.58898  0.030039265  0.030231974            4 
 1251000    1.0305511    -7.309045    450.53065  0.030011368  0.030225332            3 
 1252000    1.0636226   -7.3308386    450.84348  0.030008219  0.030218669            2 
 1253000    1.0597368   -7.3275725    451.31439  0.030015589  0.030211963            1 
 1254000    1.0403386   -7.3334727    452.87736  0.030095518  0.030205282            4 
 1255000    1.0587038   -7.3113599    453.05995  0.030083662  0.030198729            2 
 1256000    1.0640554   -7.3110177    451.98826  0.029988606  0.030192234            2 
 1257000     1.036501    -7.336877    452.78622  0.030017649  0.030185671            2 
 1258000    1.0541496   -7.3614142    453.04181  0.030010719  0.030179062            1 
 1259000    1.0565695   -7.3448669    454.23029  0.030065547  0.030172658            2 
 1260000     1.039254   -7.3708066    452.97669  0.029958776  0.030166272            2 
 1261000    1.0341945   -7.3141853    452.80632  0.029923759  0.030159711            3 
 1262000    1.0583073   -7.3172775    454.60906  0.030019087  0.030153233            2 
 1263000    1.0578832   -7.3687487    453.93909  0.029951114  0.030146769            2 
 1264000    1.0563732    -7.312048    455.33826  0.030019664  0.030140107            1 
 1265000    1.0421731   -7.3088422    454.73151  0.029955963  0.030133632            1 
 1266000    1.0642393   -7.3447058    454.49642  0.029916826  0.030126829            1 
 1267000    1.0370656     -7.36149    453.90015  0.029853996  0.030120154            1 
 1268000    1.0359696   -7.3322289    455.39199  0.029928496  0.030113298            1 
 1269000    1.0281331   -7.3645578    453.26277  0.029765089  0.030106347            2 
 1270000    1.0238925   -7.3470491    454.81317  0.029843384  0.030099432            2 
 1271000    1.0612273   -7.3373241    456.13442  0.029906531  0.030092394            1 
 1272000    1.0470045   -7.3543394    455.81245  0.029861926  0.030085489            2 
 1273000    1.0636686   -7.3206392    456.32109  0.029871766  0.030078531            1 
 1274000    1.0124255    -7.355809    454.72241  0.029743747  0.030071552            1 
 1275000    1.0459112   -7.3432603    455.82652  0.029792583  0.030064742            1 
 1276000     1.052401   -7.3186706    458.13438  0.029919957  0.030058153            4 
 1277000    1.0481891   -7.3294222    456.98246  0.029821356  0.030051373            3 
 1278000    1.0508475   -7.3474957    457.13938  0.029808254  0.030044528            1 
 1279000    1.0218244   -7.3372026    455.97989  0.029709401  0.030037702            2 
 1280000     1.028238     -7.34757     457.4188   0.02977987  0.030030772            3 
 1281000      1.04624   -7.3396441    457.98745  0.029793615  0.030023917            1 
 1282000     1.026575   -7.3517783    457.83927  0.029760743  0.030017125            2 
 1283000    1.0357294   -7.3613612    457.20099  0.029696089  0.030010155            1 
 1284000    1.0503989   -7.3453617    457.47335  0.029690638  0.030003197            2 
 1285000    1.0475522    -7.327972    460.74981  0.029880014  0.029996448            2 
 1286000    1.0347711   -7.3550093    457.94923    0.0296753  0.029989537            4 
 1287000    1.0452255   -7.3320366    459.48671  0.029751794  0.029982694            2 
 1288000    1.0377775   -7.3742268    457.85402   0.02962306  0.029975861            1 
 1289000    1.0544744    -7.366134    458.44368    0.0296382  0.029969038            1 
 1290000    1.0538544   -7.3655049    459.22688  0.029665819  0.029962173            1 
 1291000    1.0215429   -7.3506411    460.70252  0.029738092  0.029955424            4 
 1292000    1.0550129   -7.3402542    460.24433  0.029685522  0.029948715            1 
 1293000    1.0462627   -7.3297769    461.91611  0.029770309  0.029942018            1 
 1294000    1.0405535   -7.3560954    460.49818  0.029655988  0.029935053            3 
 1295000    1.0484397   -7.3346836    460.72497  0.029647681  0.029928249            2 
 1296000    1.0197736   -7.3541612    460.78409  0.029628606    0.0299213            4 
 1297000    1.0370321   -7.3097276    461.59916  0.029658132  0.029914334            1 
 1298000     1.044358   -7.3352945    461.52912  0.029630786  0.029907392            1 
 1299000    1.0370964   -7.3489636    462.41495  0.029664803  0.029900448            2 
 1300000    1.0423826   -7.3537283    461.35954  0.029574329  0.029893493            1 
 1301000    1.0348026   -7.3664037    462.93558  0.029652548  0.029886462            2 
 1302000     1.023329    -7.355355    463.41795  0.029660647  0.029879326            2 
 1303000    1.0511991    -7.381218    461.54844  0.029518319  0.029872112            2 
 1304000    1.0354915   -7.4073547    462.30921    0.0295443  0.029864813            1 
 1305000    1.0407431   -7.3976939    463.22937  0.029580419  0.029857495            1 
 1306000    1.0530341   -7.3845271    462.56432  0.029515334   0.02985014            1 
 1307000    1.0594423   -7.3509814    463.04904  0.029523657  0.029842942            1 
 1308000    1.0218712   -7.3421168     463.4344  0.029525637  0.029835856            1 
 1309000    1.0389897   -7.3606622    463.50109  0.029507327  0.029828464            1 
 1310000    1.0216259   -7.3593981    462.77882  0.029438856  0.029821152            1 
 1311000    1.0439403   -7.3214122    463.63148    0.0294706  0.029813867            1 
 1312000    1.0275379   -7.3446488    463.52001  0.029441058  0.029806433            1 
 1313000    1.0500941    -7.374524    462.66153  0.029364149  0.029798853            3 
 1314000     1.060391   -7.3515225    463.84029  0.029416558  0.029791412            3 
 1315000    1.0352484   -7.3820565    465.20876   0.02948091  0.029783891            1 
 1316000    1.0511777   -7.3733834    464.18051  0.029393396  0.029776301            2 
 1317000    1.0387042   -7.3818221    463.66447  0.029338425  0.029768717            3 
 1318000    1.0299169   -7.3863399    464.68334  0.029380586  0.029761201            1 
 1319000    1.0208899   -7.3413581    465.55486  0.029413372  0.029753726            1 
 1320000    1.0445372   -7.3724843    464.68318   0.02933606  0.029746089            2 
 1321000    1.0103803   -7.3992522    465.31578  0.029353758  0.029738567            4 
 1322000    1.0587197   -7.3429402    467.23541   0.02945256  0.029731198            3 
 1323000    1.0171704   -7.3374831     465.8204  0.029341169  0.029723955            1 
 1324000    1.0695629     -7.32835    466.98302  0.029392184  0.029716461            1 
 1325000    1.0328143    -7.364177    465.81605  0.029296607  0.029708881            1 
 1326000    1.0386312   -7.3735344    465.30817  0.029242595  0.029701098            1 
 1327000    1.0692853   -7.3384573    466.97397  0.029325168  0.029693622            1 
 1328000     1.024272   -7.3792243    466.21979   0.02925576  0.029686109            2 
 1329000    1.0434651    -7.383327     466.7985  0.029270034  0.029678434            1 
 1330000    1.0415066   -7.3207436    469.25499  0.029401942  0.029671034            2 
 1331000    1.0482346   -7.3529019    469.67996  0.029406459  0.029663623            1 
 1332000    1.0509201   -7.3113494    468.56793   0.02931481  0.029656377            2 
 1333000    1.0642955    -7.377897    467.90403  0.029251315  0.029649052            2 
 1334000     1.033594   -7.3905449    468.15022  0.029244767  0.029641477            1 
 1335000    1.0362622   -7.3821968    469.90722  0.029332535  0.029633992            2 
 1336000    1.0333897   -7.4076378     469.7995  0.029303861  0.029626394            2 
 1337000    1.0404764    -7.363566    467.97027   0.02916793  0.029618788            2 
 1338000    1.0464709   -7.3663181    469.01704  0.029211326  0.029611074            1 
 1339000    1.0416166   -7.3650657    469.05341  0.029191773  0.029603346            1 
 1340000    1.0499896   -7.3583498    470.18799  0.029240547  0.029595737            2 
 1341000    1.0201444     -7.35308    470.61419  0.029245227  0.029588103            2 
 1342000    1.0182291   -7.3441903    469.94606  0.029181946  0.029580418            4 
 1343000    1.0046619    -7.344574    471.39424  0.029250077  0.029572861            1 
 1344000    1.0474115   -7.3805716    469.90711  0.029136106  0.029565136            3 
 1345000    1.0344073   -7.4188307    469.26841  0.029074871  0.029557207            1 
 1346000    1.0350264   -7.4061418    469.35382  0.029058558  0.029549208            2 
 1347000    1.0427471   -7.3730306    469.65543  0.029055644  0.029541304            1 
 1348000    1.0080742   -7.3680941    469.80338  0.029043236  0.029533397            3 
 1349000    1.0398425   -7.3920745    471.18371  0.029106975  0.029525449            1 
 1350000    1.0420557   -7.3541455    471.28147  0.029091449  0.029517635            3 
 1351000    1.0338082   -7.3584348    472.51293  0.029145875  0.029509794            2 
 1352000    1.0494961   -7.3914943    471.31251  0.029050327  0.029501846            2 
 1353000    1.0411836   -7.3683691    471.67276  0.029051045  0.029493851            1 
 1354000    1.0268713   -7.3748282    472.99798  0.029111151  0.029486031            3 
 1355000    1.0425557   -7.3779341    470.84426  0.028957211  0.029478088            4 
 1356000    1.0093828   -7.4090484    472.04158  0.029009438  0.029470088            1 
 1357000    1.0324925   -7.3916025    471.35887  0.028946135  0.029462031            3 
 1358000    1.0361171   -7.3597932    472.53385  0.028996922  0.029454106            1 
 1359000     1.039775   -7.3789461    473.49406  0.029034465  0.029446074            2 
 1360000    1.0295892   -7.3733681    473.40546  0.029007687   0.02943816            2 
 1361000    1.0135204    -7.375784    473.40605   0.02898641    0.0294302            6 
 1362000    1.0363104   -7.3964878    472.91556  0.028935117  0.029422202            1 
 1363000    1.0286467   -7.3979386    473.31118  0.028938076  0.029414133            1 
 1364000    1.0286953   -7.3717879    474.15112  0.028968177  0.029406228            2 
 1365000    1.0365118   -7.3852349    474.39081  0.028961588  0.029398427            1 
 1366000    1.0367815   -7.3963517     473.7211   0.02889953  0.029390529            2 
 1367000    1.0378204   -7.3740402    474.56358  0.028929747  0.029382607            2 
 1368000    1.0423417   -7.3925238    475.06329   0.02893904  0.029374722            4 
 1369000    1.0425725   -7.3649398    475.44022  0.028940846  0.029367081            3 
 1370000    1.0346273   -7.3775249    476.37256  0.028976433  0.029359331            2 
 1371000    1.0355106   -7.4245791    476.15473  0.028942058  0.029351475            4 
 1372000    1.0349026   -7.4162563    474.64198  0.028829081  0.029343677            1 
 1373000    1.0275601   -7.4213638    474.79558  0.028817406  0.029335776            1 
 1374000    1.0195156   -7.3973973     475.6673  0.028849303  0.029327895            1 
 1375000    1.0427026   -7.3618801    477.69063  0.028950947  0.029320122            2 
 1376000    1.0397899   -7.3833616    477.12442  0.028895616  0.029312282            3 
 1377000   0.99573214   -7.4334069    477.45065  0.028894375  0.029304452            2 
 1378000    1.0305514   -7.3824287    476.66674     0.028826  0.029296627            2 
 1379000     1.016997   -7.3770054    478.62111    0.0289232  0.029288814            1 
 1380000    1.0233044   -7.3761912    478.26836   0.02888094  0.029281002            1 
 1381000    1.0139788   -7.3610257    477.38105  0.028806484  0.029273112            4 
 1382000    1.0386826   -7.3430143    479.66543  0.028923386   0.02926532            1 
 1383000    1.0301869   -7.3675435    478.89671  0.028856152  0.029257678            3 
 1384000    1.0415671    -7.371277    479.54097  0.028874095   0.02924991            4 
 1385000    1.0362777    -7.345109    479.87942  0.028873611  0.029242311            1 
 1386000    1.0320576   -7.3928902     479.8033  0.028848202  0.029234645            2 
 1387000    1.0357572   -7.3827583    478.79308  0.028766708  0.029226905            2 
 1388000    1.0070676    -7.426337     478.8774  0.028751045  0.029219131            3 
 1389000    1.0403014   -7.3944923    478.87384  0.028730132  0.029211349            3 
 1390000    1.0267695   -7.4069612    480.29346  0.028794572  0.029203468            3 
 1391000    1.0149801   -7.3770096    480.77987  0.028803012  0.029195603            1 
 1392000    1.0176876   -7.4151272     480.9248  0.028790996  0.029187756            1 
 1393000    1.0321879   -7.4029617    479.71187  0.028697767   0.02917995            1 
 1394000    1.0082913   -7.3998376    480.41819  0.028719404  0.029172061            1 
 1395000    1.0393199   -7.4144219    481.64773  0.028772266  0.029164198            1 
 1396000    1.0344124   -7.3537338    482.28758  0.028789851  0.029156404            3 
 1397000    1.0325474   -7.3883787    481.51928  0.028723412   0.02914871            2 
 1398000    1.0470653   -7.4045831    481.75403  0.028716859  0.029140944            1 
 1399000    1.0332613   -7.3803852     482.7412  0.028755135  0.029133249            2 
 1400000    1.0230272   -7.3861606     481.9689  0.028688625  0.029125403            2 
 1401000    1.0499307   -7.3826521    481.25594   0.02862574  0.029117378            3 
 1402000    1.0296453   -7.4259767    481.62268  0.028627121  0.029109362            3 
 1403000    1.0242323   -7.3815779    481.30118   0.02858762  0.029101301            1 
 1404000    1.0245538   -7.3573418     483.1346   0.02867608  0.029093305            1 
 1405000    1.0196523   -7.3913696    482.71555  0.028630816  0.029085321            3 
 1406000    1.0574218   -7.4025407    481.43953  0.028534823  0.029077279            2 
 1407000    1.0247193   -7.4185907    482.04608  0.028550467  0.029069244            2 
 1408000    1.0512586   -7.3969893    483.75882  0.028631559  0.029061345            1 
 1409000    1.0282737   -7.3975013    481.22851  0.028461587  0.029053227            1 
 1410000    1.0402109   -7.3645052    484.63215  0.028642562  0.029045095            2 
 1411000    1.0211383   -7.4107572     483.5832  0.028560312   0.02903695            1 
 1412000    1.0459978   -7.3773867    483.36563  0.028527244  0.029028709            3 
 1413000    1.0201053   -7.3668006    484.56126  0.028577569  0.029020459            1 
 1414000     1.022486   -7.3839819    484.98036  0.028582058   0.02901248            1 
 1415000    1.0024081    -7.373076    482.71783  0.028428612  0.029004373            1 
 1416000    1.0062268   -7.4419281    483.66391  0.028464213  0.028996284            2 
 1417000    1.0316571   -7.4020123    484.55493  0.028496526  0.028988011            1 
 1418000    1.0299326   -7.4530473    484.10846  0.028450191  0.028979696            1 
 1419000   0.99642029   -7.3880194    484.46682  0.028451188  0.028971411            1 
 1420000     1.044135   -7.3793152    485.90397  0.028515491  0.028963273            2 
 1421000    1.0251634   -7.3573359     486.5176   0.02853141  0.028955237            3 
 1422000    1.0239399   -7.3934776    487.01586  0.028540545  0.028947145            3 
 1423000    1.0206609   -7.3667221    487.22884  0.028532961  0.028939165            1 
 1424000    1.0385447   -7.4235971    485.45864   0.02840933  0.028931166            1 
 1425000    1.0111537   -7.4020481    486.22492  0.028434206  0.028923004            2 
 1426000    1.0131184   -7.4012755    485.57108  0.028376056  0.028914878            1 
 1427000    1.0206703   -7.3814845    487.24291  0.028453802  0.028906744            1 
 1428000    1.0188907   -7.4045575    487.08159  0.028424462  0.028898807            1 
 1429000    1.0354608   -7.3885898    488.85445  0.028507957  0.028890942            2 
 1430000    1.0081048   -7.4006617    488.80455  0.028485114  0.028883087            3 
 1431000    1.0520143   -7.4038464    489.32269  0.028495381  0.028875326            2 
 1432000     1.027354   -7.3943368    488.84952  0.028447947  0.028867521            2 
 1433000    1.0220771    -7.383755    490.60339  0.028530088  0.028859775            3 
 1434000    1.0272991   -7.4280013    489.23631  0.028430748  0.028852004            1 
 1435000     1.004913   -7.3842337    489.15534  0.028406233   0.02884413            1 
 1436000    1.0292819   -7.3962959    489.38569   0.02839982  0.028836264            2 
 1437000    1.0124331   -7.4358178    490.24114  0.028429665  0.028828504            2 
 1438000    1.0296535   -7.4224127    490.71075  0.028437109  0.028820703            5 
 1439000    1.0251523   -7.4084812    491.36132  0.028455022  0.028812913            2 
 1440000    1.0119692   -7.3939079    492.83524  0.028520558  0.028805004            4 
 1441000    1.0284526   -7.4080721    490.94289  0.028391331  0.028797197            1 
 1442000    1.0176689   -7.4343984    491.08007   0.02837957  0.028789244            1 
 1443000     1.036247   -7.3991787    491.57159  0.028388288  0.028781405            3 
 1444000    1.0214214   -7.4078372    492.40481  0.028416713  0.028773708            2 
 1445000    1.0259481   -7.4240213    491.90166  0.028368031  0.028765761            2 
 1446000    1.0005023    -7.410657    491.52506   0.02832671  0.028758038            2 
 1447000     1.014025   -7.3963554    493.48759  0.028420156  0.028750176            2 
 1448000    1.0162069   -7.4182454    493.10761  0.028378661  0.028742459            2 
 1449000    1.0328291   -7.4456446    492.71109  0.028336272   0.02873479            1 
 1450000    1.0204486   -7.4066952     492.9215  0.028328822     0.028727            2 
 1451000    1.0041262   -7.4445004    493.06129  0.028317326  0.028719201            2 
 1452000    1.0142047   -7.4268516    493.80854  0.028340711  0.028711319            2 
 1453000    1.0186398   -7.4068109    493.15698  0.028283837   0.02870343            2 
 1454000    1.0012591   -7.3877941    493.87515  0.028305545  0.028695639            1 
 1455000    1.0232898   -7.4264215    494.39147  0.028315663  0.028687723            1 
 1456000    1.0328194   -7.4125116    494.75714  0.028317144  0.028679932            3 
 1457000    1.0183006   -7.3754871    496.58229  0.028402098  0.028672177            2 
 1458000    1.0157801   -7.4122852    494.99899  0.028292123   0.02866443            4 
 1459000    1.0211336   -7.4010567     495.3859  0.028294831  0.028656696            2 
 1460000    1.0241704   -7.4164648    493.88413  0.028189734  0.028648868            1 
 1461000    1.0166127   -7.3739982    496.01227  0.028291825  0.028641054            1 
 1462000    1.0161856   -7.4059491    495.10171  0.028220572  0.028633496            4 
 1463000    1.0034162   -7.4114378    497.55723   0.02834115  0.028625785            2 
 1464000    1.0422667   -7.4369679    496.21791  0.028245555  0.028618146            3 
 1465000    1.0158252   -7.4408243    496.59164  0.028247533  0.028610493            2 
 1466000    1.0456404   -7.4065988    498.79886  0.028353733  0.028602948            2 
 1467000    1.0258425   -7.4215707    497.55316  0.028263642  0.028595472            1 
 1468000    1.0106362   -7.4400271    496.73875  0.028198158  0.028588017            1 
 1469000    1.0197335   -7.4286543    498.51674  0.028279824  0.028580473            4 
 1470000    1.0323473   -7.4357059    497.98881  0.028230658  0.028573112            2 
 1471000    1.0507274   -7.4728895    497.70826  0.028195573   0.02856542            2 
 1472000     1.032053   -7.4331124    497.32905  0.028154951  0.028557745            2 
 1473000     1.017399   -7.4176038    499.51997  0.028259786  0.028550057            2 
 1474000     1.005098   -7.4089132    499.76242   0.02825432  0.028542557            3 
 1475000    1.0299791   -7.4440831    499.00333  0.028192278  0.028534917            2 
 1476000    1.0374642   -7.4403743    498.95934  0.028170695  0.028527415            2 
 1477000   0.99000998   -7.4041984    499.49375  0.028181773  0.028519759            1 
 1478000    1.0098115   -7.4090776    501.12243  0.028254535  0.028512198            2 
 1479000    1.0316502   -7.4313626    500.42741   0.02819627  0.028504582            2 
 1480000     1.025814    -7.448182    500.03027  0.028154857  0.028497009            2 
 1481000    1.0094247   -7.4471373    498.02581   0.02802306   0.02848924            2 
 1482000    1.0150228   -7.4164905     500.7488  0.028157265  0.028481585            1 
 1483000    1.0218822   -7.4101152     502.0336  0.028210474  0.028474011            2 
 1484000    1.0020322   -7.3990493    501.73301  0.028174585   0.02846642            1 
 1485000    1.0300394   -7.4238101    501.73869  0.028155931  0.028458887            3 
 1486000    1.0086529   -7.4080056    501.67877  0.028133623  0.028451359            2 
 1487000    1.0134444   -7.4100615    502.35788  0.028152762  0.028443901            2 
 1488000    1.0105488   -7.4537027    501.32156  0.028075804  0.028436367            2 
 1489000    1.0015591   -7.4071347    502.91392  0.028146067  0.028428784            3 
 1490000    1.0140786   -7.4684385     500.7666   0.02800708  0.028421157            5 
 1491000    1.0396877   -7.4288886    503.81168  0.028158489  0.028413601            1 
 1492000    1.0029296   -7.4807651    502.44396  0.028063224   0.02840617            1 
 1493000    1.0138859   -7.4050991    503.27693   0.02809092  0.028398691            1 
 1494000   0.98967986   -7.3911256    504.98273  0.028167265  0.028391408            2 
 1495000    1.0183368   -7.4180477     503.0104  0.028038484  0.028383951            3 
 1496000   0.99439804   -7.4235374    503.75803  0.028061388  0.028376474            1 
 1497000    1.0194648   -7.4302115     505.2547  0.028125957  0.028368862            2 
 1498000   0.99196526   -7.4288548    505.50832  0.028121291  0.028361329            2 
 1499000    1.0221055   -7.4031909    504.67821  0.028056383  0.028353791            2 
 1500000    1.0242267   -7.4233029    505.25162  0.028069535  0.028346374            1 
 1501000    1.0216613   -7.4371087    505.77118  0.028079679  0.028338824            1 
 1502000    1.0023894    -7.437148    505.41703  0.028041335  0.028331375            1 
 1503000    1.0211661   -7.4625071    504.25589  0.027958299  0.028323862            3 
 1504000    1.0142105   -7.4285902    506.09263   0.02804148   0.02831637            1 
 1505000    1.0123141   -7.4450073      505.481  0.027988981  0.028309007            1 
 1506000    1.0043847   -7.4236599    506.18863  0.028009552  0.028301491            2 
 1507000    1.0047745   -7.4532014    505.29114  0.027941337  0.028294024            2 
 1508000   0.99420033   -7.4495373    506.50473  0.027989872  0.028286578            1 
 1509000    1.0061954   -7.4560133     506.1255  0.027950381   0.02827918            3 
 1510000    1.0188045   -7.3963426    508.33603  0.028053865  0.028271776            2 
 1511000    1.0153209   -7.4322952     507.1633  0.027970621   0.02826437            2 
 1512000    1.0055932    -7.446579    507.07426  0.027947214  0.028256977            4 
 1513000   0.99895033   -7.4023682    507.63701  0.027959738  0.028249655            2 
 1514000     1.027501    -7.412334     508.5627  0.027992222  0.028242188            1 
 1515000    1.0190085   -7.4049537     509.4222  0.028021023  0.028234952            2 
 1516000    1.0246223   -7.3840189    509.02615  0.027980769  0.028227618            1 
 1517000    1.0068481   -7.4391534    507.22202  0.027863218  0.028220232            2 
 1518000    1.0119578   -7.4496023    508.40607  0.027909863  0.028212819            2 
 1519000   0.98311513   -7.4350174    510.47626  0.028005061   0.02820549            2 
 1520000     1.018487   -7.4311167    507.98086  0.027849828  0.028198079            1 
 1521000    1.0001162   -7.4213362    509.74061  0.027927932  0.028190717            2 
 1522000    1.0064939   -7.4401173    510.63618  0.027958617  0.028183329            2 
 1523000    1.0186248    -7.430354    508.50271  0.027823523   0.02817587            1 
 1524000    1.0258904   -7.3962669    509.91422  0.027882449   0.02816837            5 
 1525000   0.98839357   -7.4374578    508.58174  0.027791352  0.028160949            3 
 1526000    1.0222374   -7.4460681    509.29284  0.027811972  0.028153347            2 
 1527000    1.0063278   -7.4319276    511.00694  0.027887303  0.028145702            2 
 1528000    1.0073848   -7.4397157    510.17237  0.027823537  0.028138109            3 
 1529000    1.0100093   -7.4776554    509.90977  0.027791027  0.028130479            2 
 1530000    1.0137533   -7.4242232    509.40208  0.027745211  0.028122824            3 
 1531000    1.0093933   -7.4529851    510.62863  0.027793851  0.028115293            1 
 1532000    1.0014864   -7.4291059    510.40464  0.027763525  0.028107864            3 
 1533000   0.99948126   -7.4520013    512.08569  0.027836795  0.028100295            2 
 1534000    1.0216418    -7.432987    512.11765  0.027820385  0.028092764            3 
 1535000    1.0221123     -7.47812    512.83947  0.027841448  0.028085378            2 
 1536000    1.0092566   -7.4925147    510.33076  0.027687216  0.028077752            2 
 1537000   0.99845824   -7.4712304    511.65278  0.027740879  0.028070111            1 
 1538000    1.0112516   -7.4808904    510.82627   0.02767806  0.028062542            1 
 1539000   0.99468702   -7.4190682    512.69097  0.027761045  0.028054999            3 
 1540000    1.0074994   -7.4482866    512.37341  0.027725834  0.028047528            4 
 1541000    1.0033956   -7.4330404    514.67911  0.027832528  0.028040019            2 
 1542000    1.0058812   -7.4395441    513.52498  0.027752107  0.028032584            1 
 1543000   0.98496809   -7.4690027    514.03484  0.027761657  0.028025112            1 
 1544000   0.98954759   -7.4446071    512.35743  0.027653143  0.028017636            1 
 1545000   0.99253819    -7.441399    514.88937  0.027771811  0.028010093            3 
 1546000   0.99772619   -7.4533051    513.00632  0.027652346  0.028002679            1 
 1547000    1.0225905   -7.4102546    515.50924  0.027769297  0.027995255            2 
 1548000    1.0137439   -7.4460127    514.37563  0.027690333  0.027987757            2 
 1549000    1.0050201   -7.4517594     514.7249  0.027691247  0.027980281            1 
 1550000   0.99028158   -7.4368817    513.00366  0.027580842  0.027972802            2 
 1551000    1.0015762   -7.4245498    516.10579  0.027729733  0.027965275            2 
 1552000    1.0114702   -7.4313203    515.14248  0.027660142  0.027957729            3 
 1553000   0.99945693   -7.4346724    515.10844  0.027640504  0.027950145            2 
 1554000   0.98959419   -7.4672294    517.11015  0.027730059  0.027942641            2 
 1555000    1.0124883   -7.4632598    515.20593  0.027610179   0.02793506            2 
 1556000    1.0154787   -7.4465731    514.67017  0.027563741  0.027927417            1 
 1557000    1.0181752   -7.4460455     514.3294  0.027527799  0.027919666            1 
 1558000   0.97660802   -7.4532645    515.00836  0.027546446  0.027912039            2 
 1559000      1.01132   -7.4331514      516.709  0.027619681  0.027904311            5 
 1560000    0.9939863   -7.4337356     516.3758  0.027584177  0.027896621            2 
 1561000    1.0190079   -7.4298363    515.99377  0.027546112  0.027888854            1 
 1562000    1.0012806   -7.4132021    517.58409  0.027613321  0.027880972            2 
 1563000    1.0194897   -7.4399241    515.68637  0.027494475  0.027873104            3 
 1564000   0.98612057   -7.4559546    516.54292  0.027522534  0.027865321            1 
 1565000    1.0104105   -7.4382406    516.38869  0.027496735   0.02785752            1 
 1566000    1.0071465   -7.4395626    517.74815  0.027551519  0.027849779            1 
 1567000    1.0026561   -7.4430549    517.16088  0.027502706  0.027842074            3 
 1568000   0.99499747   -7.4406738    517.44981  0.027500521  0.027834318            1 
 1569000    1.0038591   -7.4338091    517.42017   0.02748142  0.027826645            2 
 1570000    1.0072371    -7.420864    517.89374  0.027489052  0.027818973            3 
 1571000   0.98176001   -7.4511284    517.81769   0.02746752  0.027811166            2 
 1572000   0.98970734   -7.4161058    516.78045  0.027395062  0.027803348            2 
 1573000    1.0048732   -7.4549068     517.9495  0.027439579  0.027795547            3 
 1574000   0.99317437   -7.4454741    517.45502  0.027395967   0.02778776            1 
 1575000    0.9731884   -7.4583715    516.67879  0.027337502  0.027779799            1 
 1576000    1.0029756   -7.4984958    517.23315  0.027349468  0.027771795            2 
 1577000    1.0060243   -7.4838456    518.25406  0.027386074  0.027763793            1 
 1578000    1.0184796   -7.4239899    520.41814  0.027483003  0.027755881            2 
 1579000    1.0084788   -7.4957438    517.14606   0.02729291  0.027747992            2 
 1580000    1.0014765   -7.4346079    519.10233  0.027378815  0.027740045            2 
 1581000   0.98749726   -7.4589084    516.85088  0.027242825  0.027732041            2 
 1582000    0.9991049    -7.444656    518.50347  0.027312657  0.027724015            2 
 1583000    1.0106198   -7.4785223    517.60255  0.027247976  0.027715989            2 
 1584000   0.99990941   -7.4720442    519.57782  0.027334692  0.027708079            1 
 1585000    1.0037423   -7.4231964    519.57255  0.027317169  0.027700102            2 
 1586000   0.96825141   -7.5147617    519.61813   0.02730234  0.027692159            2 
 1587000   0.98879495   -7.4535976    520.79996  0.027347194  0.027684229            2 
 1588000    1.0226338   -7.4623416    520.44678  0.027311439  0.027676281            3 
 1589000   0.99074564   -7.4517902    519.57816  0.027248697  0.027668417            3 
 1590000    1.0075485   -7.4755068    520.35727  0.027272394  0.027660481            3 
 1591000    1.0025448   -7.4697079    519.89725  0.027231157  0.027652508            1 
 1592000   0.97490258    -7.458331    521.58478  0.027302386  0.027644538            1 
 1593000   0.99307171   -7.4520297    520.94913  0.027251995  0.027636576            2 
 1594000    1.0148457   -7.4845097    520.69628  0.027221679  0.027628656            2 
 1595000   0.99704951   -7.4348956    521.49364  0.027246271  0.027620809            2 
 1596000   0.97859137   -7.4786086    520.69475  0.027187487  0.027612939            1 
 1597000   0.99222113   -7.4752333    522.31592  0.027255057  0.027605059            2 
 1598000   0.98276301   -7.4653996    520.39579   0.02713787  0.027597107            3 
 1599000    1.0090879   -7.5156612    520.55873   0.02712939   0.02758909            1 
 1600000   0.99720193   -7.4575563    522.45467  0.027211181  0.027581089            2 
 1601000   0.99438975   -7.4364762    523.59677  0.027253632  0.027573261            1 
 1602000   0.97791441   -7.4661992    523.44821  0.027228891    0.0275653            7 
 1603000   0.98525635   -7.4946116    524.21451  0.027251742  0.027557357            1 
 1604000    1.0057266   -7.4750703    523.06083  0.027174814  0.027549404            2 
 1605000    1.0047909   -7.4580114    522.61331  0.027134647  0.027541489            1 
 1606000     1.001764   -7.4612419    523.35642   0.02715631   0.02753345            3 
 1607000   0.97908043   -7.4832788    522.95613  0.027118654  0.027525609            2 
 1608000   0.98995136   -7.4624863    523.36499  0.027122978  0.027517767            1 
 1609000   0.98841836   -7.4545406     524.2974  0.027154413   0.02750988            3 
 1610000    1.0017083   -7.4816348     523.6767  0.027105419  0.027502002            3 
 1611000   0.99575206   -7.4884903    524.19938  0.027115631  0.027494117            3 
 1612000   0.99608167   -7.4871711    523.77145  0.027076688  0.027486104            3 
 1613000   0.99944925   -7.4616842    526.44136  0.027197838   0.02747824            1 
 1614000   0.97003409   -7.4601818     524.3252  0.027071727  0.027470419            2 
 1615000   0.98356511   -7.4677181    526.01523  0.027142169   0.02746257            1 
 1616000   0.98608876   -7.5184007    523.81487  0.027011905  0.027454616            1 
 1617000   0.99027235   -7.4834265    526.40714  0.027128795  0.027446797            1 
 1618000   0.98331816    -7.469136    526.32803  0.027107954  0.027438866            2 
 1619000   0.99628568   -7.4507079    526.29185  0.027089348   0.02743092            1 
 1620000    0.9812559   -7.4496006    526.59103  0.027088016  0.027422977            2 
 1621000    1.0010739   -7.5240055    524.44069  0.026960759  0.027415029            2 
 1622000    1.0033265   -7.4507677    526.46022  0.027047894  0.027407036            3 
 1623000   0.98201252   -7.4377086    526.45219  0.027030817   0.02739912            1 
 1624000    1.0085321   -7.4990594    526.82928  0.027033522  0.027391267            2 
 1625000   0.99822039   -7.5085827    526.29775  0.026989628  0.027383383            2 
 1626000   0.99562328    -7.450891    527.06277  0.027012237    0.0273755            2 
 1627000   0.99704483   -7.4850317    527.20413  0.027002875   0.02736765            2 
 1628000   0.98500254   -7.4789189     526.8314  0.026967209  0.027359688            2 
 1629000   0.99709137   -7.5061038    526.09698  0.026913085   0.02735164            3 
 1630000    1.0081162   -7.4772898    526.28746  0.026906312  0.027343545            2 
 1631000   0.97781884   -7.4565355    527.90128   0.02697227  0.027335645            2 
 1632000   0.97468772   -7.4689321    528.72325  0.026997715  0.027327732            2 
 1633000   0.99265554   -7.4316355    530.03121  0.027047929  0.027319953            3 
 1634000   0.98875067   -7.4873948    528.10188   0.02693298  0.027312031            3 
 1635000   0.97462958   -7.4077113    529.60647  0.026993194  0.027304121            1 
 1636000   0.98686031   -7.4848543    528.45117  0.026917847  0.027296273            2 
 1637000   0.98584602   -7.4953238    528.04152   0.02688055  0.027288313            3 
 1638000    1.0176623   -7.4728339    529.07365  0.026916649  0.027280284            2 
 1639000   0.99550087   -7.4587878    528.30381  0.026861085  0.027272226            2 
 1640000   0.98386867   -7.4608596    529.39288  0.026900045  0.027264179            2 
 1641000   0.99129618   -7.4857906    527.51751  0.026788417  0.027256013            1 
 1642000   0.98060832   -7.5018333    527.94822  0.026793962  0.027247876            2 
 1643000   0.98545015   -7.4912785     528.4769  0.026804468  0.027239791            1 
 1644000   0.97256126   -7.4358091    530.06813  0.026868822  0.027231715            1 
 1645000    1.0195749   -7.4848283    528.38833  0.026767393  0.027223718            2 
 1646000    1.0033967   -7.4708739    529.88391  0.026826849  0.027215725            1 
 1647000   0.97443914   -7.4656459    529.73295  0.026802922  0.027207765            1 
 1648000     0.992189   -7.4714942    531.16976  0.026859312  0.027199838            1 
 1649000   0.98854934   -7.5067444    531.08508  0.026838744  0.027191894            1 
 1650000   0.99289811   -7.5165538    531.55584  0.026846255  0.027183987            1 
 1651000   0.97307155   -7.4848559    531.52743   0.02682856  0.027175968            1 
 1652000   0.99074732    -7.511419    529.49482  0.026709787  0.027167938            2 
 1653000   0.99665987   -7.5205466     530.5285   0.02674574  0.027159998            4 
 1654000   0.98779442   -7.5006126     530.5909  0.026732714  0.027151905            1 
 1655000   0.98160436   -7.4988256    531.49383  0.026762026  0.027143959            1 
 1656000   0.97487314   -7.4999873    532.38213  0.026790566  0.027135972            2 
 1657000    1.0002632   -7.4914258    532.67414  0.026789084  0.027128095            1 
 1658000   0.97746536   -7.4658497    533.43443  0.026811139  0.027120241            2 
 1659000    0.9963302    -7.493047    534.15674  0.026831261  0.027112345            4 
 1660000   0.99179178   -7.4977679    531.85686  0.026699642  0.027104541            1 
 1661000   0.98456798    -7.456385    531.95097  0.026688289  0.027096692            3 
 1662000   0.96694225   -7.5229873     533.7849  0.026764185  0.027088807            4 
 1663000   0.98114651   -7.4973981    532.95828  0.026706669  0.027080848            1 
 1664000   0.98139723   -7.5437687    533.19253   0.02670235  0.027072837            2 
 1665000    1.0141086   -7.5004228    533.40513  0.026696954  0.027064847            1 
 1666000   0.98686804   -7.5402585    534.03775  0.026712573  0.027056912            1 
 1667000   0.98309375   -7.4767286    534.61093  0.026725201  0.027049044            3 
 1668000   0.99556859   -7.5094164    533.18209  0.026637794  0.027041071            1 
 1669000    0.9864665   -7.4860237    534.42196  0.026683741  0.027033113            3 
 1670000    0.9827537   -7.4815352     533.6477  0.026629127  0.027025223            4 
 1671000   0.96825139     -7.47539    535.49635  0.026705384  0.027017352            1 
 1672000   0.99412701   -7.4722563    535.80335  0.026704713  0.027009576            2 
 1673000   0.98450362   -7.5010511    535.35322  0.026666329  0.027001742            1 
 1674000   0.99459453   -7.4855564    535.91522  0.026678376  0.026993907            3 
 1675000    1.0056229   -7.5031054    536.29109  0.026681149  0.026986009            1 
 1676000   0.99145661   -7.5013344    536.58752  0.026679968   0.02697818            2 
 1677000    0.9725563   -7.4689094    536.48729  0.026659078  0.026970494            2 
 1678000   0.99366924   -7.4594885    538.56741  0.026746494  0.026962665            2 
 1679000   0.97777257   -7.4807911    537.68409  0.026686723  0.026954838            4 
 1680000   0.98970729   -7.4966932    535.98139  0.026586379  0.026947052            3 
 1681000   0.98259038   -7.4902311    537.25788  0.026633843  0.026939303            2 
 1682000    0.9814483   -7.4797629    536.24144  0.026567649  0.026931556            1 
 1683000   0.98739119   -7.5276799    536.30139  0.026554832  0.026923815            3 
 1684000   0.99071896   -7.4629569    539.17335  0.026681183  0.026916016            2 
 1685000   0.97570532   -7.4750976    537.73167  0.026594049  0.026908253            2 
 1686000   0.96511407   -7.4984044    537.80766  0.026582031  0.026900485            2 
 1687000   0.96426292    -7.518838    536.65033  0.026509105  0.026892758            1 
 1688000   0.96806638    -7.504217    537.97344  0.026558721  0.026884983            2 
 1689000   0.96613027   -7.5059667     537.4364  0.026516499  0.026877156            3 
 1690000   0.97313902   -7.5080943     537.5734  0.026507564  0.026869316            3 
 1691000   0.96461022   -7.5030768    537.99277  0.026512555  0.026861491            4 
 1692000   0.96504476   -7.5241568    539.39823  0.026566107  0.026853609            1 
 1693000    1.0066479   -7.5174728    537.75858  0.026469708  0.026845671            1 
 1694000   0.98086388   -7.5310378    538.30871  0.026481145  0.026837729            2 
 1695000   0.96363708   -7.5103858    538.74488  0.026486966  0.026829927            2 
 1696000   0.97449395   -7.5345322    538.90963  0.026479443   0.02682208            2 
 1697000    1.0010797   -7.4959236    539.62374  0.026498907  0.026814299            1 
 1698000    0.9603152   -7.5273358    537.96605  0.026401946  0.026806374            1 
 1699000   0.97741611   -7.4919787    539.49714  0.026461504  0.026798565            2 
 1700000   0.96944929   -7.5065722    540.41281  0.026490824  0.026790799            2 
 1701000   0.97477383   -7.5014995    537.67742  0.026341241  0.026782908            2 
 1702000    0.9828875   -7.5433478     537.3566  0.026310057  0.026774918            2 
 1703000    0.9889305   -7.4984339    539.78638  0.026413505  0.026766954            1 
 1704000   0.97690882   -7.4776694    540.79741  0.026447448  0.026759117            2 
 1705000   0.97940631   -7.4879685    540.83861   0.02643395  0.026751388            4 
 1706000   0.98508029   -7.5123169    541.57056  0.026454209  0.026743669            3 
 1707000    0.9677963   -7.4984211    542.33153  0.026475861  0.026735975            1 
 1708000   0.98054789   -7.5035833    541.50483  0.026420025  0.026728314            2 
 1709000   0.98589816    -7.510496    542.17399  0.026437195  0.026720652            3 
 1710000   0.97863245   -7.5005071    543.68461  0.026495351  0.026713044            1 
 1711000   0.96603347   -7.5071724    542.83077   0.02643828  0.026705436            3 
 1712000   0.99568616   -7.5216642     542.3188  0.026397917  0.026697696            2 
 1713000   0.98024486   -7.5176318    543.10402  0.026420705  0.026690017            5 
 1714000   0.97654633   -7.4930227    545.07229  0.026500986  0.026682419            3 
 1715000   0.97077715   -7.5207945    543.13766  0.026391528  0.026674813            2 
 1716000   0.98156507   -7.5241643    543.69525  0.026403227  0.026667259            2 
 1717000   0.97648609   -7.5309686    544.57228  0.026430415  0.026659748            3 
 1718000    0.9822485   -7.4895588    544.50202  0.026411623  0.026652257            1 
 1719000   0.96562346   -7.5335452    544.63071  0.026402497  0.026644688            3 
 1720000   0.99091373   -7.4987123    544.40912  0.026376411  0.026637112            2 
 1721000   0.99058441   -7.4857444    545.48646  0.026413251  0.026629637            2 
 1722000    0.9758003    -7.505868    543.05754  0.026280369  0.026622118            1 
 1723000     0.970083    -7.520491    545.52906  0.026384652  0.026614565            2 
 1724000    0.9876696   -7.5475625    544.38049  0.026313829  0.026607033            4 
 1725000   0.96362208   -7.5182386    545.57195  0.026356133  0.026599342            4 
 1726000   0.96903874   -7.5165356    546.36734  0.026379265   0.02659174            4 
 1727000   0.99445194    -7.525634    544.40556  0.026269328  0.026584155            3 
 1728000   0.99129026   -7.4819344     546.8815  0.026373529  0.026576569            1 
 1729000   0.97643825   -7.4980703    546.85725  0.026357107  0.026569119            2 
 1730000   0.97410421   -7.4962598    546.32682  0.026316321  0.026561641            3 
 1731000   0.98826331   -7.4928806    546.72143  0.026320115  0.026554209            1 
 1732000   0.95140554   -7.5163085    548.18415  0.026375296  0.026546676            2 
 1733000   0.97465284   -7.4999092    546.92524   0.02629954  0.026539099            1 
 1734000   0.96795037    -7.512394    548.28802  0.026349866   0.02653155            4 
 1735000   0.97622136   -7.4854561    547.42145  0.026293057  0.026524025            1 
 1736000   0.96155456   -7.5453276    546.37631  0.026227742   0.02651643            3 
 1737000   0.98648724   -7.5002554    548.29039  0.026304471  0.026508847            1 
 1738000   0.95883678   -7.5251656    546.92471  0.026223855   0.02650125            2 
 1739000   0.99309878   -7.5029176    547.07797  0.026216119  0.026493581            1 
 1740000   0.97039185    -7.530618    546.65714  0.026180898  0.026485917            3 
 1741000   0.95959641   -7.5124169    547.24403  0.026193951   0.02647829            5 
 1742000   0.95295232   -7.5066806    549.01377  0.026263575  0.026470594            4 
 1743000    0.9815594   -7.5043012    548.13479  0.026206482  0.026462867            1 
 1744000    1.0018455   -7.5249697    547.37184     0.026155  0.026455162            2 
 1745000     1.000875   -7.5368673     546.9565  0.026120177  0.026447396            2 
 1746000   0.98971252   -7.5188882    548.14854   0.02616211  0.026439549            1 
 1747000     0.943621   -7.5165092    548.02603  0.026141291  0.026431735            3 
 1748000   0.97920837   -7.5219499    547.98289   0.02612428  0.026423925            1 
 1749000   0.97169206   -7.4985235    547.50881  0.026086755    0.0264161            3 
 1750000   0.96732474    -7.547091    546.43339  0.026020638  0.026408187            2 
 1751000   0.98562169   -7.4925195    549.88169  0.026169888  0.026400405            2 
 1752000   0.97132306   -7.5500462    548.11672  0.026071001  0.026392609            3 
 1753000   0.98553811   -7.5421183    548.78383  0.026087841  0.026384792            1 
 1754000   0.97329287   -7.5083242     548.9657  0.026081609  0.026377013            3 
 1755000   0.95825572   -7.5029952    548.12574  0.026026863   0.02636921            3 
 1756000   0.98075627   -7.5382333    550.24931  0.026112819  0.026361309            1 
 1757000    0.9756535   -7.5527143    549.94244  0.026083401  0.026353458            2 
 1758000   0.97526105   -7.5092966    548.95422  0.026021721  0.026345737            3 
 1759000   0.96213172   -7.4884731    550.18308  0.026065145  0.026337926            5 
 1760000   0.97018504   -7.5650059    549.37838  0.026012234  0.026330114            2 
 1761000   0.97021962   -7.5110346    549.84182  0.026019394  0.026322371            2 
 1762000   0.98571066    -7.512553    548.80124  0.025955412  0.026314651            1 
 1763000   0.98414159   -7.5646525    548.67789   0.02593486  0.026306724            1 
 1764000   0.96334506   -7.5243578    551.90889  0.026072794  0.026298879            1 
 1765000   0.97715997   -7.5264665    550.12236  0.025973671  0.026291081            1 
 1766000   0.97099492   -7.5284501    549.16442  0.025913761  0.026283302            2 
 1767000   0.94564456   -7.5451057    550.14902   0.02594553  0.026275504            1 
 1768000    0.9910685   -7.5395665    551.06143  0.025973861  0.026267737            3 
 1769000   0.96192797   -7.4982316    550.04826   0.02591145  0.026259983            5 
 1770000   0.97402575     -7.54544    551.42768  0.025961755  0.026252203            1 
 1771000   0.96738552   -7.5430327    551.10622   0.02593197  0.026244458            2 
 1772000   0.97463119   -7.5290222    551.47488  0.025934673  0.026236737            1 
 1773000   0.95925016   -7.5525942    551.79588  0.025935133  0.026228838            2 
 1774000   0.98307008   -7.5178322    553.26351  0.025989455  0.026221089            3 
 1775000     0.997597   -7.5219058    553.04162  0.025964395   0.02621345            1 
 1776000   0.95963795   -7.5178454     552.3199  0.025915911  0.026205794            1 
 1777000   0.97088661   -7.5286391    553.11783  0.025938746  0.026198159            2 
 1778000    0.9652641   -7.5292405    553.65345  0.025949262   0.02619055            2 
 1779000   0.98540671    -7.541191    554.32756  0.025966252  0.026182879            5 
 1780000   0.95506774   -7.5311511    553.37295  0.025906973  0.026175354            2 
 1781000   0.96615036   -7.5253271     554.6068  0.025950159  0.026167899            2 
 1782000   0.96750837   -7.5339511    553.65648  0.025891156  0.026160359            2 
 1783000   0.95831528   -7.5127584    555.76374  0.025975123  0.026152859            2 
 1784000   0.96427639   -7.5274303    555.50228   0.02594835  0.026145393            2 
 1785000   0.96373193   -7.5355575    554.78727  0.025900433  0.026137847            3 
 1786000   0.95338529   -7.5464627    554.53351  0.025874091  0.026130308            2 
 1787000   0.96103282   -7.5400862    556.26132  0.025940185  0.026122682            2 
 1788000   0.97241631   -7.5309187    554.53213  0.025845085  0.026115134            1 
 1789000   0.97060789   -7.5461596    555.03013  0.025853835  0.026107639            1 
 1790000   0.96606418   -7.5327568    557.16663  0.025938856  0.026100173            1 
 1791000   0.96517962   -7.5143626    556.71436   0.02590333  0.026092756            2 
 1792000   0.96816068   -7.5456292    558.01291  0.025949261  0.026085368            3 
 1793000   0.96965948   -7.5251576    558.08054  0.025937932  0.026077992            3 
 1794000   0.96423812   -7.5630384    556.64278  0.025856688  0.026070567            3 
 1795000   0.98240224   -7.5463331     558.2066  0.025914884   0.02606322            3 
 1796000     0.965605   -7.5369063    557.97743  0.025889822  0.026055835            2 
 1797000   0.97190727   -7.5203601    558.22415  0.025886855  0.026048364            2 
 1798000   0.97104014    -7.530046     557.2086  0.025825389   0.02604099            1 
 1799000   0.95259527   -7.5526173    558.84433  0.025886804  0.026033573            3 
 1800000   0.96343897   -7.5659976    558.65433  0.025863626  0.026026245            1 
 1801000   0.95678616   -7.5533887    557.72001  0.025806034  0.026018874            2 
 1802000   0.97116724   -7.5908068    557.95103  0.025802397  0.026011373            2 
 1803000   0.96014842    -7.583706    557.50218  0.025767341   0.02600388            1 
 1804000   0.94189484   -7.5339539    557.84219  0.025768763  0.025996378            6 
 1805000   0.95946611   -7.5420944    558.94012  0.025805176  0.025988931            1 
 1806000   0.97804362   -7.5362339    557.48887  0.025723923  0.025981503            1 
 1807000   0.96679609   -7.5523946    559.05517  0.025781921   0.02597407            3 
 1808000     0.971618   -7.5462421    558.83767  0.025757636  0.025966526            2 
 1809000   0.94959949   -7.5790306    558.64166  0.025734368  0.025958994            1 
 1810000   0.95156137   -7.5545026    558.60671  0.025718541  0.025951325            4 
 1811000   0.96635274   -7.5689076    557.15971  0.025637756  0.025943726            3 
 1812000   0.97420699   -7.5313321    559.68175  0.025739595  0.025936139            1 
 1813000   0.98402213   -7.5274784    560.16263  0.025747501  0.025928637            1 
 1814000   0.96501341   -7.5049592    559.72634  0.025713265  0.025921174            2 
 1815000   0.97274522   -7.5516959    560.54317  0.025736601    0.0259137            3 
 1816000   0.93634011   -7.5230481    561.04501  0.025745457  0.025906239            1 
 1817000   0.95377773   -7.5222054    559.80187  0.025674274  0.025898834            3 
 1818000   0.94652397   -7.5566533    559.77936   0.02565912  0.025891338            2 
 1819000   0.95245342   -7.5550865    560.33761  0.025670589  0.025883917            2 
 1820000   0.96850864   -7.5349319     560.6137  0.025669125  0.025876489            3 
 1821000    0.9598728    -7.579555    560.92588  0.025669315   0.02586912            1 
 1822000   0.95978845   -7.5608255     560.8379  0.025651203  0.025861664            1 
 1823000   0.94071597   -7.5463684    562.26098  0.025702184  0.025854222            1 
 1824000   0.95296442   -7.5280066    561.54267  0.025655275  0.025846826            2 
 1825000   0.95923625   -7.5598588    562.45786  0.025683007  0.025839497            3 
 1826000   0.94243496   -7.5430496    561.15852  0.025609644  0.025832178            5 
 1827000    0.9731428   -7.5355786     562.6794  0.025664997  0.025824863            4 
 1828000   0.98323864   -7.5560791    562.54985  0.025645052  0.025817558            2 
 1829000   0.96188481   -7.5375836    563.87692  0.025691494  0.025810206            2 
 1830000   0.95713667    -7.557041     562.8021  0.025628511  0.025802808            2 
 1831000   0.96153657   -7.5174467    563.95915  0.025667174  0.025795461            2 
 1832000   0.93759852   -7.5050156    564.56563  0.025680751   0.02578813            2 
 1833000   0.95724191   -7.5514711    563.50203  0.025618387  0.025780767            2 
 1834000   0.95901378   -7.5485419    564.46766  0.025648294  0.025773444            1 
 1835000   0.95357119   -7.5315938    563.14347  0.025574181  0.025766032            5 
 1836000   0.97074452   -7.5698401     561.9362  0.025505456  0.025758665            2 
 1837000   0.96066322   -7.5225766    563.34312  0.025555395  0.025751246            5 
 1838000   0.93856805   -7.5684065     563.9009   0.02556678   0.02574384            1 
 1839000    0.9757512   -7.6082647    563.05268  0.025514441  0.025736295            2 
 1840000    0.9610033    -7.546254     562.5986  0.025480009  0.025728839            2 
 1841000   0.94503028   -7.5686289    564.57449  0.025555608  0.025721511            3 
 1842000   0.96183165   -7.5635257    563.12181  0.025476014  0.025714055            4 
 1843000   0.95756657     -7.55706    562.83452  0.025449201  0.025706492            3 
 1844000   0.94599964   -7.5656329    563.82464  0.025480145  0.025698943            1 
 1845000   0.99031355   -7.5638475    564.82355  0.025511452  0.025691444            2 
 1846000   0.97103215   -7.5690274     563.3155  0.025429555  0.025683875            1 
 1847000   0.92819987   -7.5147667    566.25343  0.025548341   0.02567639            2 
 1848000   0.92562569   -7.6076029    562.97186  0.025386538  0.025668866            2 
 1849000   0.98091031   -7.5745092    564.48276  0.025440903  0.025661333            3 
 1850000   0.96182116    -7.565378    563.98019  0.025404513  0.025653733            1 
 1851000   0.97874398   -7.5842426    563.65203  0.025376015  0.025646128            2 
 1852000   0.95509427   -7.5806484    563.68529  0.025363809  0.025638537            2 
 1853000   0.97329274   -7.5633597    563.98584  0.025363637  0.025630934            4 
 1854000   0.94871469   -7.5127917    565.67797  0.025426015  0.025623393            2 
 1855000   0.95298599   -7.5842714    564.57409  0.025362717  0.025615816            5 
 1856000   0.95721047   -7.5726493    563.48359  0.025300089  0.025608201            3 
 1857000     0.939651   -7.5518069    564.85498  0.025348007  0.025600585            2 
 1858000   0.96106656   -7.5435351     565.9855  0.025385069  0.025592956            3 
 1859000   0.97159754   -7.5670423    565.94667  0.025369673  0.025585372            3 
 1860000   0.97422973   -7.5874821    565.51626   0.02533675    0.0255778            2 
 1861000    0.9555571   -7.5248993    566.56542  0.025370115  0.025570242            4 
 1862000   0.94540075   -7.5605652     566.4427  0.025350998  0.025562729            3 
 1863000   0.94682015   -7.5741151    566.63311  0.025345907  0.025555257            2 
 1864000   0.92897207   -7.5617748    567.79797  0.025384387  0.025547759            2 
 1865000   0.92941678   -7.5791749     566.4533  0.025310693  0.025540175            2 
 1866000   0.96392863    -7.531636    567.44427  0.025341384  0.025532661            2 
 1867000   0.95762004     -7.56138    567.04773  0.025310111  0.025525136            2 
 1868000   0.95213445   -7.5590626    569.24699  0.025394673  0.025517559            3 
 1869000   0.94647289    -7.606929    564.41135  0.025165478  0.025509964            2 
 1870000   0.95318221   -7.6181564    565.74017  0.025211237  0.025502373            2 
 1871000   0.95206929   -7.5830839    566.27912  0.025221767   0.02549474            1 
 1872000   0.95683776   -7.5730381     568.0624  0.025287678  0.025487174            2 
 1873000   0.95518594   -7.5664649    566.72703  0.025214764  0.025479643            1 
 1874000   0.96111783   -7.5756243    567.24112  0.025224169  0.025472034            3 
 1875000   0.95218334   -7.5996205    567.82795  0.025236798  0.025464473            1 
 1876000   0.95429766   -7.5806044    568.15044   0.02523767   0.02545688            2 
 1877000   0.96117444   -7.5703458    567.97108  0.025216262  0.025449342            2 
 1878000   0.93923335   -7.5908705    567.06931   0.02516282  0.025441789            2 
 1879000   0.94471583   -7.5989241    567.51402  0.025169151  0.025434093            1 
 1880000    0.9685207   -7.5712691    569.09992   0.02522606   0.02542645            3 
 1881000   0.97194041   -7.5860949    567.80983  0.025155495  0.025418768            1 
 1882000   0.95539302   -7.5701193    568.85728  0.025188509  0.025411229            2 
 1883000   0.95193609   -7.5666259    569.28886  0.025194232  0.025403702            2 
 1884000   0.94527346   -7.5667099    569.46047   0.02518845   0.02539614            2 
 1885000   0.95348881   -7.5535727    569.59998  0.025181255  0.025388564            1 
 1886000    0.9460284   -7.5662208    568.93553  0.025138544  0.025380999            2 
 1887000   0.93186516   -7.5340896     571.1633  0.025223604  0.025373521            3 
 1888000   0.92761893   -7.5725314    571.81866  0.025239171  0.025366142            2 
 1889000   0.95362459   -7.5957803    570.87002  0.025183961  0.025358725            1 
 1890000   0.95488169   -7.5747879    570.64489  0.025160709  0.025351342            3 
 1891000    0.9466287   -7.5565207    570.09409  0.025123131  0.025343868            1 
 1892000   0.95011948    -7.579073    571.75876  0.025183173  0.025336369            2 
 1893000   0.94405653   -7.6134185    568.80189  0.025039703  0.025328853            2 
 1894000   0.94029066   -7.5505568     571.7859  0.025157775  0.025321287            1 
 1895000   0.97488192   -7.5749938     572.5005  0.025175923  0.025313726            2 
 1896000   0.95563289   -7.5791995    572.16814  0.025148037  0.025306185            2 
 1897000   0.95806955    -7.552642    571.35407  0.025099019  0.025298704            1 
 1898000   0.94668402   -7.5459414    573.47093  0.025178738  0.025291331            3 
 1899000   0.91694907    -7.544056    573.02884  0.025146079  0.025283924            2 
 1900000   0.93335176   -7.5722379    572.70715  0.025118735  0.025276439            2 
 1901000   0.95293134   -7.5816298    572.17707  0.025082284  0.025268972            1 
 1902000   0.96828463   -7.5770944    571.80655  0.025052863  0.025261565            2 
 1903000   0.95235877   -7.6167792    572.73948  0.025080552  0.025254125            1 
 1904000   0.95435883   -7.5902232      573.267  0.025090467  0.025246688            3 
 1905000   0.93850127   -7.5843911    573.63765   0.02509351  0.025239156            1 
 1906000   0.94176198   -7.5501073     573.3734  0.025068791  0.025231636            1 
 1907000   0.93298909   -7.5856651    572.83604  0.025032164  0.025224228            3 
 1908000   0.96186148   -7.5891812    572.40482   0.02500021  0.025216681            3 
 1909000   0.95535639    -7.565688     572.3905  0.024986489  0.025209218            2 
 1910000   0.95837705   -7.5975053    573.83571  0.025036462  0.025201736            2 
 1911000    0.9372837   -7.6082837    573.07847  0.024990339  0.025194185            2 
 1912000   0.94523896   -7.5747246    573.29524  0.024986717  0.025186695            1 
 1913000   0.91331584   -7.5564448    573.93554  0.025001548   0.02517922            3 
 1914000   0.92217775   -7.5610118    575.16486  0.025042009  0.025171791            2 
 1915000   0.95016071   -7.5669966    576.59735  0.025091268   0.02516448            1 
 1916000   0.94007461   -7.5422873    574.78814  0.024999484  0.025157216            3 
 1917000    0.9557073   -7.6064153    574.00481  0.024952391  0.025149817            2 
 1918000   0.93803976   -7.5613855    573.69779  0.024926043  0.025142433            3 
 1919000   0.95122268   -7.6153612    575.36356   0.02498539  0.025135031            1 
 1920000   0.94560357   -7.5841649    575.49415  0.024978045   0.02512762            4 
 1921000   0.94159327    -7.605048    575.07374  0.024946805  0.025120258            2 
 1922000   0.94344011   -7.5652305    575.98015  0.024973125  0.025112953            3 
 1923000   0.95982548   -7.5755701    577.69291  0.025034361  0.025105669            2 
 1924000   0.95614779   -7.5678984    577.81109  0.025026468  0.025098465            3 
 1925000   0.92423268   -7.5874605    577.90879  0.025017697  0.025091274            2 
 1926000   0.95017457   -7.6119883    575.48294  0.024899747  0.025083993            2 
 1927000    0.9292219   -7.5930303    575.97352   0.02490804  0.025076724            2 
 1928000    0.9285399   -7.5724297    579.20205  0.025034667  0.025069446            1 
 1929000   0.93296351    -7.571692    576.97138  0.024925323  0.025062176            2 
 1930000   0.94364553   -7.6017466    577.39042  0.024930502  0.025054895            1 
 1931000    0.9146483   -7.6290228    577.98729  0.024943349  0.025047617            1 
 1932000    0.9289133   -7.5696316    577.38679  0.024904537  0.025040416            3 
 1933000   0.92044071   -7.5634148    579.16848  0.024968463  0.025033278            2 
 1934000   0.92621275   -7.5800037    577.03563  0.024863652  0.025026164            2 
 1935000   0.93493637   -7.5747981    579.07882  0.024938795  0.025018908            5 
 1936000   0.94334418   -7.5877676    577.17943  0.024844156  0.025011691            2 
 1937000     0.940101   -7.6134677    578.00638  0.024866907  0.025004424            2 
 1938000   0.93594937    -7.591917    577.82825  0.024846416  0.024997149            3 
 1939000    0.9479681   -7.5845554    579.58267  0.024909003  0.024989889            1 
 1940000   0.94212012   -7.5957894    579.06587  0.024873964  0.024982564            2 
 1941000   0.95995943     -7.57527    579.88178  0.024896178   0.02497531            2 
 1942000   0.93533221   -7.6132798    577.70015  0.024789742   0.02496807            2 
 1943000   0.92658548   -7.5932813    579.79857  0.024866983  0.024960747            3 
 1944000   0.94843502   -7.6031195    578.60644  0.024803088  0.024953503            2 
 1945000   0.94647379   -7.6172376    578.24234  0.024774736  0.024946107            3 
 1946000   0.94966043     -7.59698     578.1936  0.024759918  0.024938794            2 
 1947000   0.94768795   -7.5946536    580.05994  0.024827082  0.024931543            2 
 1948000   0.92399108   -7.6152501    579.17249  0.024776373  0.024924293            1 
 1949000    0.9483714   -7.6043201    578.76231  0.024746122  0.024916957            1 
 1950000    0.9421702   -7.5922074    578.86877  0.024737981  0.024909598            3 
 1951000   0.96569169   -7.6124618    581.32328  0.024830142  0.024902351            3 
 1952000    0.9462587   -7.5776605    582.16174  0.024853216  0.024895089            2 
 1953000   0.94478106    -7.591061    582.33029  0.024847683  0.024887854            2 
 1954000   0.94606535   -7.5839186    580.91148  0.024774458  0.024880563            1 
 1955000   0.94522979   -7.6043077    579.51494  0.024702257  0.024873208            2 
 1956000   0.92434893   -7.6161745    580.51456  0.024732215  0.024865879            4 
 1957000   0.93792999   -7.5849809    580.23595  0.024707714  0.024858477            3 
 1958000   0.94256834    -7.598765    581.67645  0.024756403  0.024851128            2 
 1959000   0.93576183   -7.5910413    580.34372  0.024687073  0.024843788            2 
 1960000   0.93182692    -7.621701    581.23097  0.024712201  0.024836472            3 
 1961000   0.93654452   -7.5942283    580.40498  0.024664499  0.024829147            1 
 1962000   0.93031697   -7.6204129    581.02088  0.024678087  0.024821839            1 
 1963000   0.95617834   -7.6344843    580.92539  0.024661462   0.02481444            6 
 1964000   0.90634756   -7.6083185    579.77105  0.024599926   0.02480709            3 
 1965000   0.96081984   -7.5904128    581.05496  0.024641856  0.024799765            1 
 1966000   0.92963311   -7.5879523      581.407  0.024644244  0.024792372            3 
 1967000   0.93629898   -7.6167158    580.06799  0.024574987  0.024784847            3 
 1968000    0.9265922   -7.6132677     580.6365  0.024586573  0.024777369            2 
 1969000   0.94109317   -7.6341732    581.72638  0.024620212  0.024769948            1 
 1970000   0.93163335   -7.5980704    581.95822  0.024617522  0.024762622            2 
 1971000   0.93668446    -7.580247    582.41871  0.024624502  0.024755302            2 
 1972000    0.9338678   -7.5821468    581.97618  0.024593314  0.024747983            2 
 1973000   0.95109898   -7.6204434    583.55616  0.024647582  0.024740653            3 
 1974000   0.95447022   -7.6095916    582.32955  0.024583314  0.024733385            1 
 1975000   0.92992398   -7.5895805    582.63729  0.024583852  0.024726069            3 
 1976000   0.93747818   -7.6180273    582.79678  0.024578137  0.024718811            1 
 1977000   0.93295109   -7.5987606    583.43733  0.024592705  0.024711492            2 
 1978000   0.93714522   -7.5923842    583.19303  0.024569979  0.024704207            4 
 1979000   0.95274285   -7.6155202    583.78224  0.024582375  0.024696901            1 
 1980000   0.94060341    -7.627825    582.01867  0.024495735  0.024689509            3 
 1981000   0.94196864   -7.6327846    582.44808  0.024501434  0.024682155            1 
 1982000   0.94775382   -7.6432827    582.03781  0.024471822   0.02467482            1 
 1983000   0.94445435   -7.6217607    584.69809  0.024571276  0.024667422            2 
 1984000   0.92301002   -7.5962654    585.38391  0.024587698  0.024660137            2 
 1985000   0.92905523   -7.5885216    584.52409  0.024539214  0.024652899            1 
 1986000   0.93306619   -7.6253435    584.43404   0.02452308  0.024645649            7 
 1987000   0.93468007   -7.6011705    585.19075  0.024542474  0.024638422            1 
 1988000   0.92690688   -7.5855485    585.42626  0.024540001  0.024631104            1 
 1989000   0.93266215   -7.6212286    584.95445  0.024507896   0.02462385            1 
 1990000   0.92057645   -7.6012626    584.65853  0.024483188   0.02461666            1 
 1991000   0.93573733   -7.6339065    584.90344  0.024481142  0.024609356            1 
 1992000   0.92102666   -7.6281462    585.58679   0.02449744  0.024602057            1 
 1993000   0.92573145   -7.6086606    585.98878  0.024501956  0.024594855            4 
 1994000   0.94334621   -7.6029747    587.72713  0.024562317  0.024587642            1 
 1995000   0.94524505   -7.5883825    585.56334  0.024459622  0.024580398            2 
 1996000   0.93413512   -7.5879425    585.60159  0.024448964  0.024573186            1 
 1997000   0.91906754   -7.6208949    587.75494  0.024526579  0.024566011            4 
 1998000   0.93708725    -7.626405     586.7778  0.024473549  0.024558838            1 
 1999000    0.9546834   -7.5942723    588.21685  0.024521296  0.024551701            2 
 2000000   0.92523509   -7.6171263    587.56555  0.024481898  0.024544524            1 
 2001000   0.94398479    -7.620284    587.51801  0.024467683  0.024537408            1 
 2002000   0.94170348   -7.6252031    587.55319  0.024456926  0.024530243            1 
 2003000   0.91501493   -7.6009922    586.77224  0.024412225  0.024523073            2 
 2004000   0.93279666   -7.5905032    589.89818  0.024530031  0.024515943            1 
 2005000   0.91471861   -7.6267003    587.68788   0.02442593  0.024508768            2 
 2006000   0.93003762   -7.5732165     589.3788  0.024483998   0.02450159            2 
 2007000    0.9529563   -7.6145343    589.57142  0.024479797  0.024494462            3 
 2008000   0.93116772   -7.6575714    587.11383  0.024365614  0.024487278            2 
 2009000   0.93661514   -7.6169239    588.95847  0.024430001  0.024480115            2 
 2010000   0.92134532   -7.6394011    587.37188  0.024352068  0.024472955            1 
 2011000   0.93994762   -7.6625508    589.05649  0.024409767  0.024465743            3 
 2012000   0.92509942   -7.6636677     588.1987  0.024362107  0.024458575            2 
 2013000   0.91758306    -7.641899     587.6009  0.024325257  0.024451364            1 
 2014000   0.91983292   -7.6226591     590.7685  0.024444244  0.024444193            1 
 2015000   0.93913016   -7.5905925     588.9684  0.024357668  0.024437045            2 
 2016000   0.93300449   -7.6429923    588.32658  0.024319055    0.0244298            5 
 2017000   0.92188148   -7.6088761    589.84702  0.024369816  0.024422579            1 
 2018000   0.91748398   -7.6449745    588.15574  0.024287898  0.024415406            2 
 2019000   0.93293667   -7.6118051    589.57537  0.024334463  0.024408218            3 
 2020000   0.92386253   -7.5880268    590.71706  0.024369516  0.024401106            1 
 2021000   0.90601705   -7.6331978    589.67249  0.024314386  0.024393965            4 
 2022000   0.94510378   -7.6355852    589.29131  0.024286651    0.0243868            1 
 2023000   0.91124237   -7.6074217    591.04818  0.024347017  0.024379572            3 
 2024000   0.94180816   -7.5885993    591.29064  0.024344971  0.024372494            3 
 2025000   0.91650816   -7.6014318    591.67345  0.024348702  0.024365354            2 
 2026000   0.92736468    -7.627247    588.92153  0.024223492  0.024358187            2 
 2027000   0.92954975   -7.6222992    590.56879  0.024279263  0.024351032            1 
 2028000   0.95180881   -7.6461479    591.51796  0.024306294  0.024343789            1 
 2029000   0.91084405   -7.5934034    591.09608  0.024276987  0.024336594            5 
 2030000   0.92174722   -7.6265273    589.71349  0.024208271  0.024329391            2 
 2031000   0.90951448   -7.6088863    591.09659  0.024253102  0.024322185            2 
 2032000   0.92463386   -7.6518025    588.69613  0.024142722  0.024314917            2 
 2033000   0.94535027   -7.6221742    589.78122  0.024175325  0.024307568            1 
 2034000    0.9292752   -7.6372735    589.29346  0.024143455  0.024300262            1 
 2035000   0.92078964   -7.6381086    589.45804  0.024138331  0.024292873            2 
 2036000   0.92414505   -7.6899818    589.57754  0.024131366   0.02428548            2 
 2037000   0.92498373   -7.6378794    589.60086  0.024120474  0.024278113            1 
 2038000    0.9203452   -7.6246533    590.99846  0.024165786  0.024270775            1 
 2039000   0.92099143   -7.6170706    591.44204  0.024172063  0.024263454            1 
 2040000   0.93645913   -7.6318559    590.58064  0.024125026  0.024256103            1 
 2041000   0.90641442   -7.6367254    590.41175   0.02410631  0.024248745            5 
 2042000   0.91788064   -7.6365424    590.69452  0.024106045  0.024241379            2 
 2043000   0.93151179   -7.6465764    590.07108  0.024068816  0.024234045            6 
 2044000   0.91787596   -7.6348539    592.36163  0.024150425  0.024226742            2 
 2045000   0.90651763    -7.660733    591.88973  0.024119386  0.024219475            3 
 2046000   0.90737195    -7.678285    589.65568  0.024016605  0.024212159            3 
 2047000   0.91616751   -7.6232261    591.62769  0.024085153  0.024204846            2 
 2048000   0.92272092   -7.6081921     592.2913  0.024100395  0.024197498            2 
 2049000   0.90925663   -7.6106108    592.17626  0.024083954  0.024190185            1 
 2050000   0.89365554   -7.6111516    592.73502  0.024094919  0.024182989            4 
 2051000   0.93793714   -7.5893564     593.4123   0.02411069  0.024175841            3 
 2052000    0.9308961   -7.6291118    593.17435  0.024089277  0.024168655            3 
 2053000   0.90355655   -7.6698383     592.2998  0.024042044  0.024161422            3 
 2054000   0.93563756     -7.64475     594.2077  0.024107745  0.024154204            2 
 2055000   0.92590804   -7.6215407    593.25597   0.02405742  0.024147023            1 
 2056000   0.92465062   -7.6901588    592.26456  0.024005535  0.024139707            3 
 2057000   0.90385914   -7.6522187      594.108  0.024068547  0.024132486            3 
 2058000   0.90197974   -7.6267669    593.12868  0.024017196  0.024125229            3 
 2059000   0.91815877   -7.6106911     595.2334  0.024090716  0.024118016            1 
 2060000   0.91477084   -7.6529075    592.43498  0.023965816  0.024110795            2 
 2061000   0.93709862   -7.6682933    592.50283  0.023956931  0.024103537            3 
 2062000   0.92949207   -7.6390741    593.60138   0.02398971  0.024096272            4 
 2063000    0.9223582   -7.6812235    593.00351  0.023953931  0.024088973            2 
 2064000    0.9314592   -7.6149751     596.2367  0.024072864  0.024081673            3 
 2065000   0.90908167   -7.6745945    593.01748  0.023931294  0.024074395            3 
 2066000   0.93073915   -7.6366708    593.94333  0.023957056  0.024067155            2 
 2067000   0.91114171   -7.6432446    594.67479  0.023974955  0.024059913            3 
 2068000   0.93453883   -7.6283906    595.47291  0.023995524  0.024052687            5 
 2069000   0.91010416   -7.6578454    595.23926  0.023974515  0.024045453            1 
 2070000   0.93408989   -7.6550542    594.70298  0.023941344  0.024038264            2 
 2071000   0.92738249   -7.6573802    595.07696  0.023944832  0.024031075            1 
 2072000   0.91650054   -7.6253768    595.87649  0.023965432  0.024023903            1 
 2073000   0.91520603   -7.6450158    597.48678  0.024018603    0.0240168            2 
 2074000   0.92180283   -7.6106059    597.44474  0.024005334  0.024009767            1 
 2075000    0.9152092   -7.6294197    595.31634  0.023908287  0.024002678            1 
 2076000   0.91345977   -7.6711641    596.09242  0.023927923  0.023995561            2 
 2077000   0.90920143   -7.6599543    596.46163  0.023931216  0.023988365            2 
 2078000   0.92074677   -7.6568186     596.8786  0.023936421  0.023981245            2 
 2079000   0.92993562   -7.6565158    596.02332  0.023890625   0.02397408            4 
 2080000    0.9246098    -7.661922    596.34926  0.023892198  0.023966959            2 
 2081000   0.90704945   -7.6546218    597.16062  0.023913208  0.023959868            1 
 2082000   0.91449003   -7.6737649    596.57775  0.023878392  0.023952688            2 
 2083000   0.91171405   -7.6622689    596.09717  0.023847702  0.023945527            3 
 2084000   0.94635332   -7.6667672    595.84648  0.023826235  0.023938375            2 
 2085000   0.91848125   -7.6445653    597.55089  0.023882929  0.023931243            2 
 2086000   0.92344586   -7.6478131     596.6186  0.023834236  0.023924091            1 
 2087000   0.91680027   -7.6664895    597.71009  0.023866399  0.023916894            1 
 2088000   0.90790734   -7.6534976    597.56988  0.023849373  0.023909742            1 
 2089000   0.91178854   -7.6400007    597.68009  0.023842353  0.023902565            2 
 2090000   0.94077141   -7.6396946     597.2019  0.023811878  0.023895411            3 
 2091000   0.92396773   -7.6359069    598.28668  0.023843722  0.023888296            3 
 2092000   0.91620486    -7.648963    598.07286  0.023823807  0.023881143            1 
 2093000   0.91365881   -7.6739826    596.23454  0.023739232   0.02387392            2 
 2094000   0.92586202   -7.6635898    597.93528  0.023795578  0.023866736            1 
 2095000   0.93407038   -7.6764304    597.27486   0.02375795   0.02385961            1 
 2096000   0.91759353   -7.6724089    599.03198  0.023816475  0.023852435            3 
 2097000   0.90798965   -7.6707044    598.02527  0.023765111  0.023845176            3 
 2098000   0.91571751   -7.6374475    599.18337  0.023799784  0.023837955            3 
 2099000   0.91216573    -7.664536    597.87004  0.023736305  0.023830773            1 
 2100000   0.90330879   -7.6689453    598.81964  0.023762684  0.023823642            2 
 2101000   0.91247601   -7.6889385    598.71484  0.023747217  0.023816466            3 
 2102000   0.91711619   -7.6607926    599.43166  0.023764338   0.02380933            2 
 2103000   0.90963272   -7.6710834    601.25814  0.023825414  0.023802173            2 
 2104000   0.90643315   -7.6804623     600.7634  0.023794495  0.023795045            1 
 2105000   0.90969579   -7.6478456    600.67712  0.023779775  0.023788006            3 
 2106000   0.90207275   -7.6762674    600.73126  0.023770626  0.023780898            3 
 2107000   0.91614957   -7.6570366    600.41649  0.023746895  0.023773824            2 
 2108000   0.94023197   -7.6594147    599.64298  0.023705052  0.023766718            4 
 2109000   0.92844502   -7.6442929    598.17584   0.02363584  0.023759594            3 
 2110000   0.88882482   -7.6710952    599.56397  0.023679462  0.023752471            1 
 2111000   0.91208316   -7.6574606    598.33832  0.023619861  0.023745324            6 
 2112000    0.9158815   -7.6836765    598.70088  0.023622983  0.023738192            2 
 2113000   0.94659905   -7.6427418    600.85263  0.023696665  0.023731112            1 
 2114000   0.90571075   -7.6440065    600.13049  0.023656989  0.023723999            4 
 2115000   0.89260545   -7.6618858    599.78174  0.023632062  0.023716806            3 
 2116000   0.90804984   -7.6636077    599.69702  0.023617557  0.023709634            1 
 2117000   0.93521642   -7.6448236    600.42642  0.023635113  0.023702491            1 
 2118000   0.90679416   -7.6802869    600.44247  0.023624586  0.023695331            3 
 2119000   0.92499683   -7.6565795    600.82739  0.023628574  0.023688157            3 
 2120000    0.9216678   -7.6402421     601.0197  0.023624988  0.023681045            1 
 2121000    0.9278425   -7.6627926     601.4578  0.023631063  0.023673935            2 
 2122000   0.92213378   -7.6721032    602.23994  0.023650642  0.023666816            2 
 2123000    0.9276106   -7.6761344    601.53096  0.023611672   0.02365969            2 
 2124000   0.90470421   -7.6769983    602.69732  0.023646317  0.023652655            3 
 2125000   0.90196356   -7.6843844    603.51972   0.02366744  0.023645693            2 
 2126000   0.91682687   -7.6636793    602.99019  0.023635552  0.023638703            2 
 2127000   0.91402267   -7.6719714    602.49483  0.023605032  0.023631747            2 
 2128000   0.90831546   -7.6410351    604.84349  0.023685914  0.023624793            3 
 2129000   0.92186701   -7.6888518    603.81407  0.023634495  0.023617829            1 
 2130000   0.90803976   -7.6767965    603.81018  0.023623246  0.023610839            2 
 2131000   0.92082055   -7.6786381    602.87543  0.023575607  0.023603817            2 
 2132000   0.90555156   -7.6690487    603.67322  0.023595732  0.023596825            4 
 2133000   0.91410001   -7.6973159    604.50768  0.023617271  0.023589942            1 
 2134000   0.91854237   -7.6572319    604.54009   0.02360747  0.023583055            2 
 2135000    0.8875581   -7.6744787    604.66014  0.023601098  0.023576182            2 
 2136000    0.8966374   -7.6298389     604.2208  0.023572909  0.023569311            1 
 2137000   0.92396432   -7.6291209    605.85364  0.023625551   0.02356244            3 
 2138000   0.91570595   -7.6576926    604.21552  0.023550652  0.023555607            2 
 2139000   0.92523306   -7.6480133    605.58553  0.023593016  0.023548772            4 
 2140000   0.90216041   -7.6695989    605.90751  0.023594529  0.023541929            1 
 2141000   0.89239061   -7.6896422    605.72707  0.023576486  0.023535065            1 
 2142000    0.9350552    -7.650007    606.17524  0.023582915  0.023528269            3 
 2143000    0.9163525   -7.6341894    606.22837  0.023573976  0.023521423            1 
 2144000   0.91344962    -7.658072    608.70483  0.023659236  0.023514601            2 
 2145000   0.91130918   -7.6841921     605.1266  0.023509192  0.023507775            2 
 2146000   0.91310917    -7.665642    606.34098  0.023545394  0.023500866            2 
 2147000   0.91231066   -7.6661223     604.7075  0.023471025   0.02349389            3 
 2148000   0.90652636    -7.671923    606.76973  0.023540104  0.023487001            2 
 2149000   0.90853576   -7.6463974     606.7328  0.023527718   0.02348017            4 
 2150000    0.9310654   -7.6715886    607.49162  0.023546187  0.023473342            1 
 2151000   0.90214361   -7.7012164    605.76188  0.023468227  0.023466492            3 
 2152000   0.92275936   -7.6440703    606.77016  0.023496366  0.023459609            2 
 2153000    0.9386418   -7.6804278    607.77807  0.023524465   0.02345272            1 
 2154000   0.91348159   -7.6937774    605.60241  0.023429372  0.023445801            1 
 2155000   0.89825646   -7.7135325    606.55882  0.023455484  0.023438884            2 
 2156000   0.91341964   -7.7102055    605.93418  0.023420461   0.02343193            2 
 2157000   0.89720596   -7.7042012    605.82272  0.023405298  0.023424991            1 
 2158000   0.92006489   -7.6563095    608.97515  0.023516186  0.023418121            2 
 2159000   0.90974098   -7.6745254    608.71341  0.023495191  0.023411283            1 
 2160000   0.88670625    -7.654001    609.53686  0.023516083  0.023404433            1 
 2161000   0.90476261   -7.7007855    607.88323  0.023441432  0.023397577            1 
 2162000   0.89126155   -7.6818762    607.63857   0.02342116   0.02339074            1 
 2163000   0.91884271   -7.7200844    608.79902   0.02345504  0.023383868            2 
 2164000   0.90099727   -7.7372975    607.71399  0.023402418   0.02337695            1 
 2165000   0.91321849   -7.7045114    607.84015  0.023396465  0.023369982            2 
 2166000   0.92441402   -7.6749189    609.67826  0.023456381   0.02336307            1 
 2167000   0.90987141   -7.6929829    608.48492  0.023399666  0.023356177            4 
 2168000   0.88987567   -7.6911766    607.39557  0.023347001  0.023349219            2 
 2169000   0.89873968   -7.6886696     607.7674  0.023350522  0.023342349            3 
 2170000   0.89878804   -7.6930456    608.33254  0.023361465  0.023335451            2 
 2171000   0.91986536   -7.6653458    607.87044  0.023332967  0.023328634            1 
 2172000   0.91894597   -7.7183784    608.09794  0.023330952  0.023321794            1 
 2173000   0.90212917   -7.6877188    609.69515  0.023381467  0.023314899            3 
 2174000   0.88817965   -7.6714005    610.63803  0.023406855  0.023308086            3 
 2175000   0.90086662   -7.7287254    608.40764  0.023310637  0.023301202            3 
 2176000   0.89928875   -7.7346787      607.233   0.02325494   0.02329431            1 
 2177000   0.91021489   -7.6567226     609.2437  0.023321226  0.023287376            1 
 2178000   0.90848471   -7.6929261    609.61247  0.023324628  0.023280622            5 
 2179000   0.88674524   -7.6948585    610.61667  0.023352328  0.023273864            4 
 2180000   0.91353574   -7.6897406    609.16469  0.023286112  0.023267031            1 
 2181000   0.89861454   -7.6834868    611.31565  0.023357621  0.023260167            1 
 2182000   0.88771614   -7.7157099    610.24194   0.02330591  0.023253382            3 
 2183000   0.88256446   -7.6877634    610.32378  0.023298358  0.023246576            4 
 2184000   0.92540523   -7.7215771    609.44041  0.023253984  0.023239785            4 
 2185000   0.90729291   -7.6750372    611.06353  0.023305245  0.023232965            2 
 2186000   0.90942875   -7.7031297    609.90871  0.023250561  0.023226185            1 
 2187000   0.90414794   -7.7048218    609.68264  0.023231315  0.023219368            2 
 2188000   0.90583801   -7.7003031    610.23743  0.023241828  0.023212511            2 
 2189000   0.93873079   -7.7007209    610.66175  0.023247364  0.023205679            2 
 2190000   0.88840526     -7.71892    608.93068  0.023170878  0.023198811            4 
 2191000   0.87991728   -7.7180762     610.6465  0.023225563  0.023191901            3 
 2192000   0.90013252   -7.7118721    610.18478  0.023197414  0.023185025            1 
 2193000   0.91150007   -7.6960491    612.37385   0.02327002  0.023178117            1 
 2194000   0.89083737   -7.7257219    609.77708  0.023160782  0.023171212            2 
 2195000   0.91198874   -7.6776423    611.21837   0.02320495  0.023164366            2 
 2196000   0.89351242   -7.7085079    612.34892  0.023237285   0.02315757            3 
 2197000   0.88871413   -7.6940004    612.77153  0.023242738  0.023150787            2 
 2198000   0.89843355   -7.6932462    611.70403  0.023191691  0.023144029            1 
 2199000   0.90553144     -7.66936    612.47985  0.023210544  0.023137219            2 
 2200000   0.91144796   -7.6999485    612.27708  0.023192314  0.023130369            3 
 2201000   0.90127199    -7.672555    612.20062  0.023178881  0.023123545            1 
 2202000   0.89177264   -7.6749078      610.227  0.023093665  0.023116772            3 
 2203000     0.917307   -7.6948325     612.0826  0.023153374  0.023110009            1 
 2204000   0.90376855   -7.6994891    612.45491  0.023156946  0.023103233            1 
 2205000   0.91545392    -7.700674    611.93927  0.023126956  0.023096409            1 
 2206000   0.88631267   -7.7268307    612.86605  0.023151483  0.023089555            3 
 2207000   0.91098944    -7.684096    613.13342  0.023151088  0.023082778            2 
 2208000   0.89713116   -7.6746972    613.26409  0.023145535  0.023076056            6 
 2209000   0.88732776   -7.7303005    612.11371  0.023091659  0.023069267            2 
 2210000   0.91553355   -7.7194767    613.00618  0.023114863  0.023062438            4 
 2211000   0.91806167   -7.6970122    615.37582  0.023193721  0.023055661            2 
 2212000   0.90693651   -7.7000701    614.21033  0.023139328   0.02304889            2 
 2213000   0.90178114   -7.7034926    613.19385  0.023090596   0.02304211            3 
 2214000   0.90094601   -7.7202437     614.6121  0.023133548  0.023035336            2 
 2215000   0.88605045   -7.7099847    614.13196   0.02310504   0.02302855            4 
 2216000   0.88585665   -7.7136058    612.41502  0.023030047  0.023021784            1 
 2217000   0.88660157   -7.7262838    615.26062  0.023126621  0.023014988            2 
 2218000   0.88775595   -7.7450382    612.65698  0.023018372  0.023008179            1 
 2219000   0.89369744   -7.7149087    613.96867  0.023057258  0.023001403            2 
 2220000   0.89604784   -7.7085818    614.05983  0.023050294  0.022994649            5 
 2221000   0.90605136   -7.7046266    614.12366  0.023042311  0.022987886            5 
 2222000   0.86097116    -7.694224     614.2359   0.02303615  0.022981084            2 
 2223000   0.88424474   -7.6745024    615.36111  0.023067968  0.022974345            2 
 2224000   0.90627691   -7.7079137    615.35696   0.02305744  0.022967645            1 
 2225000   0.90003753   -7.7151037    615.03819  0.023035138  0.022960835            1 
 2226000   0.88178963   -7.7045786    615.22858  0.023031917  0.022954045            3 
 2227000   0.88273224   -7.6960801    616.19259  0.023057648  0.022947286            3 
 2228000   0.89424282   -7.7280939    616.06159  0.023042399  0.022940526            2 
 2229000   0.89882477   -7.6979737    614.43361  0.022971198  0.022933763            3 
 2230000   0.88795601   -7.6874509    614.72985  0.022971968  0.022926971            1 
 2231000   0.88691391   -7.7021732    613.68364  0.022922592  0.022920171            2 
 2232000   0.89115208   -7.7484101    614.40771  0.022939356  0.022913314            2 
 2233000   0.88587223   -7.6840315     617.2752  0.023036095  0.022906462            2 
 2234000   0.87804934   -7.7139692    615.88765  0.022974024  0.022899619            1 
 2235000   0.89182906   -7.7101118    615.44799  0.022947353  0.022892764            3 
 2236000   0.89697442   -7.7222435    615.96582  0.022956389  0.022885938            2 
 2237000   0.88230994   -7.7110543    616.37403  0.022961333   0.02287917            2 
 2238000   0.88782683   -7.7297315    613.72076  0.022852277  0.022872298            1 
 2239000   0.89979451    -7.700068    616.20526  0.022934541  0.022865488            1 
 2240000   0.90046125   -7.7417758     615.9613  0.022915227  0.022858681            2 
 2241000   0.88351293   -7.7038525     614.8907   0.02286519  0.022851825            3 
 2242000   0.90277962   -7.7276304    614.83155  0.022852793  0.022844996            2 
 2243000   0.87109484   -7.7202045    617.08196  0.022926213  0.022838165            2 
 2244000    0.8935304   -7.7182073    616.29795  0.022886882  0.022831304            1 
 2245000   0.88746047   -7.7176552    615.78451  0.022857628  0.022824461            2 
 2246000   0.89126465   -7.6993559    616.55582  0.022876069  0.022817617            2 
 2247000     0.871915   -7.7519407    614.32024  0.022782979  0.022810722            3 
 2248000   0.89095223   -7.7226095    615.93401  0.022832667  0.022803823            3 
 2249000   0.90562247   -7.6958527    618.25019  0.022908337  0.022796943            2 
 2250000   0.87886462    -7.754878    616.52268  0.022834173  0.022789993            1 
 2251000   0.90205112   -7.7404602    614.73136  0.022757714   0.02278305            3 
 2252000   0.89014256   -7.7388001    614.14221  0.022725807  0.022776097            5 
 2253000   0.88240063   -7.7707422    615.02359   0.02274832  0.022769192            2 
 2254000   0.88257513   -7.7371638    616.55811  0.022794961  0.022762242            5 
 2255000   0.88576427   -7.7574881    615.37613  0.022741173  0.022755306            2 
 2256000   0.90141602   -7.7082146    617.82534  0.022821563  0.022748448            3 
 2257000   0.90804472   -7.6996551    616.89742   0.02277719  0.022741558            1 
 2258000   0.90273239   -7.7298125    616.84545  0.022765185  0.022734667            2 
 2259000   0.91810948   -7.7180802    618.36774  0.022811264   0.02272779            1 
 2260000   0.88941796   -7.7112437     616.7674  0.022742161  0.022720975            2 
 2261000   0.88860655   -7.7348814     616.5993  0.022725907  0.022714099            2 
 2262000     0.877706   -7.7144998    617.43338  0.022746588  0.022707241            2 
 2263000   0.88717927   -7.7264792    617.05776  0.022722704  0.022700354            2 
 2264000    0.8954511   -7.7318974    617.02096  0.022711313  0.022693469            1 
 2265000   0.89392186   -7.6970229    618.84752  0.022768488  0.022686585            2 
 2266000   0.89296124   -7.7287914    618.83991  0.022758161  0.022679733            1 
 2267000   0.88448572   -7.7035298    617.92846  0.022714618  0.022672855            1 
 2268000    0.8977019    -7.731755    618.31721  0.022718886  0.022665989            3 
 2269000   0.86877128   -7.7160653    619.33208  0.022746147  0.022659088            2 
 2270000   0.88773633   -7.7277017    616.79818  0.022643105  0.022652195            2 
 2271000   0.89111573   -7.7496445    618.64237  0.022700806  0.022645359            4 
 2272000   0.89789061   -7.7422252    615.51866  0.022576242  0.022638461            2 
 2273000    0.8919837   -7.7550757    616.20185  0.022591357  0.022631536            2 
 2274000   0.87747604   -7.7583465    616.49604  0.022592203  0.022624631            3 
 2275000   0.89580426   -7.7237339    619.58693  0.022695492  0.022617839            3 
 2276000   0.89459028   -7.7121634    619.12772  0.022668707  0.022611029            2 
 2277000   0.90151449   -7.7524233    619.07654  0.022656878  0.022604211            2 
 2278000   0.88754908   -7.7240067    618.51418   0.02262636  0.022597412            2 
 2279000   0.88742233   -7.7099181    620.01024  0.022671136  0.022590626            3 
 2280000   0.89172183    -7.724372    621.15057  0.022702872   0.02258386            1 
 2281000   0.88418877    -7.745728    616.91486  0.022538173  0.022577077            2 
 2282000   0.88162475   -7.7492133    618.17446  0.022574294  0.022570222            2 
 2283000   0.88802183   -7.7412625    617.82133  0.022551516  0.022563355            4 
 2284000   0.88595229   -7.7432984    620.44262  0.022637282  0.022556514            2 
 2285000   0.87954763   -7.7291017    620.32416  0.022623055  0.022549701            2 
 2286000   0.88525774   -7.6905356    620.50078  0.022619597  0.022542894            2 
 2287000   0.89138961   -7.7119446    620.93095  0.022625381   0.02253609            2 
 2288000   0.88286809    -7.724999    620.03012  0.022582682  0.022529285            3 
 2289000   0.88648652   -7.7308244     620.5612  0.022592151  0.022522422            2 
 2290000    0.8724172   -7.7346665    619.39343   0.02253979  0.022515555            1 
 2291000   0.86760752    -7.724877    620.17093  0.022558233  0.022508702            1 
 2292000   0.89444573   -7.7359255    619.94498  0.022540175  0.022501872            2 
 2293000    0.8985923   -7.7302805    619.34719   0.02250862  0.022495036            1 
 2294000   0.88009076   -7.7274169    620.88724  0.022554753  0.022488128            2 
 2295000   0.86606785   -7.7289462    620.69577  0.022537973  0.022481267            2 
 2296000   0.90674235   -7.6978013    621.46365  0.022556027  0.022474422            3 
 2297000   0.86938489   -7.7444096    620.15061  0.022498571  0.022467583            2 
 2298000   0.86672078   -7.7549054    619.76931  0.022474953  0.022460703            2 
 2299000   0.89685962    -7.744856    617.95726  0.022399495  0.022453799            4 
 2300000   0.87989066   -7.7354629    620.48388    0.0224813  0.022446937            2 
 2301000   0.90956169   -7.7363559    619.24561  0.022426685  0.022440078            2 
 2302000   0.86648597   -7.7429549     620.4555  0.022460741  0.022433257            1 
 2303000   0.88795603   -7.7366871    621.39731  0.022485067  0.022426447            2 
 2304000   0.88390994   -7.7860524    620.63395  0.022447698  0.022419614            1 
 2305000   0.89270539   -7.7651499    621.58289  0.022472266  0.022412777            2 
 2306000   0.88384398   -7.7351386    622.78946  0.022506124  0.022405938            1 
 2307000   0.88596835   -7.7295165    621.81769  0.022461266  0.022399155            4 
 2308000   0.88587764   -7.7161877    623.33941  0.022506478  0.022392385            3 
 2309000   0.88631689   -7.7639229    620.82971  0.022406154  0.022385607            2 
 2310000   0.88207316   -7.7252698    621.75683    0.0224299  0.022378773            3 
 2311000   0.89200067   -7.7385754    621.64118  0.022416024  0.022371982            1 
 2312000   0.86806899    -7.758453    621.75307  0.022410361  0.022365215            2 
 2313000   0.88234613   -7.7122781    622.47365  0.022426634  0.022358433            3 
 2314000   0.88664013   -7.7473123    622.08358  0.022402895  0.022351614            4 
 2315000   0.87157066   -7.7321128    623.93434  0.022459839  0.022344852            1 
 2316000    0.8965842   -7.7345476     623.2564  0.022425748  0.022338134            3 
 2317000   0.87316128   -7.7263133    624.22027  0.022450736  0.022331387            1 
 2318000   0.86546033   -7.7388661    623.43467  0.022412808  0.022324675            1 
 2319000   0.90737044    -7.739193    623.43889  0.022403295  0.022317908            3 
 2320000   0.88458929    -7.769709     622.0087  0.022342267  0.022311153            3 
 2321000   0.89043738   -7.7401283    623.79901   0.02239692  0.022304384            3 
 2322000    0.8852535   -7.7325331    623.87922  0.022390153  0.022297656            2 
 2323000   0.88622044    -7.735099    624.89838  0.022417075  0.022291001            4 
 2324000   0.88175978   -7.7303293    624.98948  0.022410696  0.022284381            1 
 2325000   0.87439897   -7.7716906    624.75211  0.022392549  0.022277717            1 
 2326000   0.88845028   -7.7587332     624.4868  0.022373416  0.022271024            1 
 2327000   0.87105068   -7.7609964    624.61405  0.022368359  0.022264333            2 
 2328000   0.88665214   -7.7451717    625.06841  0.022375015  0.022257636            2 
 2329000   0.87386288   -7.7522573    625.84692  0.022393263  0.022250968            1 
 2330000   0.89871618    -7.762322    625.61679  0.022375422  0.022244286            2 
 2331000   0.86475705   -7.7801306    623.94589  0.022306088  0.022237613            2 
 2332000   0.87266907   -7.7319168     625.6626  0.022357869  0.022230949            2 
 2333000   0.88896802   -7.7368795    625.93771  0.022358112  0.022224343            1 
 2334000   0.87579278   -7.7040485    625.75668   0.02234207  0.022217723            2 
 2335000    0.8676734   -7.7728602    625.67716  0.022329663  0.022211094            4 
 2336000   0.86086548   -7.7399622    626.08728  0.022334735  0.022204455            2 
 2337000    0.8948749   -7.7661756    624.29608  0.022261307  0.022197814            4 
 2338000   0.85779327   -7.7612996    626.75623  0.022339472   0.02219115            2 
 2339000   0.86870388   -7.7747609    624.03034  0.022232804  0.022184444            7 
 2340000   0.87457618   -7.7520185    625.76592  0.022285111  0.022177723            2 
 2341000   0.87900396   -7.7585452    624.65588  0.022236077  0.022171009            2 
 2342000   0.89170018   -7.7530621    625.61107   0.02226057  0.022164298            1 
 2343000   0.89844011   -7.7597192    625.79442  0.022257591  0.022157595            2 
 2344000    0.8802085   -7.7164425    627.58138  0.022311625    0.0221509            2 
 2345000   0.88411906   -7.7572136    625.09568  0.022213777  0.022144277            2 
 2346000   0.88837876   -7.7338505    627.50112  0.022289753  0.022137626            1 
 2347000   0.90067535   -7.7664884    627.21525  0.022270106   0.02213097            1 
 2348000    0.8658157    -7.761499    625.31176  0.022193063  0.022124297            4 
 2349000   0.87729593   -7.7663879    626.50557  0.022225967  0.022117621            3 
 2350000   0.86727849   -7.7410243    626.92696  0.022231452  0.022110965            1 
 2351000   0.89572865   -7.7538854    626.21044  0.022196598  0.022104235            2 
 2352000   0.87216021   -7.7795757    626.26248  0.022189005  0.022097581            1 
 2353000   0.86829132    -7.779181    627.28873  0.022215921  0.022090865            3 
 2354000   0.85833374   -7.7824474    627.87296  0.022227165  0.022084197            2 
 2355000   0.87913163   -7.7529281    627.32039  0.022198174  0.022077552            2 
 2356000   0.89137864   -7.7322143    629.21809  0.022255875  0.022070892            1 
 2357000    0.8589994   -7.7763843     627.5086  0.022185992  0.022064239            2 
 2358000   0.90399919   -7.7550418    627.70584  0.022183554  0.022057579            1 
 2359000   0.88855648   -7.7246145    626.56978  0.022134018  0.022050908            3 
 2360000   0.89386428   -7.7536654    627.04175  0.022141305  0.022044202            3 
 2361000   0.87160098   -7.7785075    626.96665  0.022129276  0.022037509            1 
 2362000   0.87642117   -7.7579121    627.10594  0.022124821  0.022030858            6 
 2363000   0.86188833   -7.7736029    627.14682    0.0221169  0.022024189            3 
 2364000   0.85385685   -7.7478546    628.55762  0.022157276  0.022017526            1 
 2365000   0.86294217   -7.7843188    628.69771  0.022152844  0.022010827            2 
 2366000   0.85974436   -7.7815601    628.29916  0.022129444  0.022004147            2 
 2367000   0.88480009   -7.7663723    627.27472  0.022084028  0.021997461            3 
 2368000   0.88737683   -7.7420196    627.85179   0.02209501  0.021990769            2 
 2369000    0.8558473   -7.7626207    628.02158  0.022091655  0.021984089            1 
 2370000    0.8733861   -7.7661846     629.2781  0.022126516  0.021977385            1 
 2371000   0.88108909   -7.7724638    626.89332  0.022033366  0.021970648            2 
 2372000   0.87008032   -7.8084043    627.16622  0.022033664  0.021963883            2 
 2373000   0.87580061   -7.7847483    628.50151  0.022071271  0.021957151            2 
 2374000   0.86519439   -7.7739617    629.15577   0.02208494  0.021950417            2 
 2375000   0.86587185   -7.7614977    627.94321  0.022033095  0.021943747            3 
 2376000    0.8955803   -7.7530655    628.34315  0.022037849  0.021937071            1 
 2377000   0.87056964   -7.7406711    628.79392  0.022044381  0.021930444            2 
 2378000    0.8688322   -7.7481342    629.48393  0.022059291  0.021923797            2 
 2379000   0.85126605   -7.7724993    629.29166  0.022043284  0.021917106            4 
 2380000   0.88432236   -7.7236963    631.74962  0.022120085  0.021910477            2 
 2381000   0.87874433   -7.7759345    628.97843  0.022013805  0.021903818            2 
 2382000   0.87585318   -7.7628698    629.88508  0.022036282  0.021897163            6 
 2383000   0.87351899   -7.7447751    627.94254  0.021959104  0.021890513            2 
 2384000   0.87620324   -7.7809178    628.71591  0.021976926  0.021883869            2 
 2385000   0.87615254   -7.7594985    629.20388  0.021984762  0.021877211            1 
 2386000   0.87966414   -7.8106414    630.32546   0.02201472  0.021870524            2 
 2387000   0.86833542   -7.7844382    628.29488  0.021934607  0.021863811            2 
 2388000   0.87825314   -7.7780561    630.13764  0.021989728   0.02185711            2 
 2389000   0.87427848   -7.7819571    628.30444  0.021916577  0.021850421            3 
 2390000   0.86243092   -7.7967161    627.29751  0.021872298  0.021843727            3 
 2391000    0.8577267   -7.7642413    629.73972  0.021948269  0.021837065            1 
 2392000   0.86813187   -7.7882297    629.29971  0.021923764  0.021830386            3 
 2393000   0.86666398   -7.7836614    629.62513  0.021925934  0.021823729            2 
 2394000   0.87171942   -7.7374551    630.77064   0.02195665  0.021817104            3 
 2395000   0.86947981   -7.7675396    630.54867  0.021939759  0.021810438            1 
 2396000   0.85791438   -7.8085627    629.46798  0.021893015   0.02180372            2 
 2397000   0.84961197   -7.7831667    630.27685  0.021912003  0.021796965            2 
 2398000     0.868032   -7.7555015    630.35481  0.021905574  0.021790236            2 
 2399000   0.87964605   -7.7566269    629.61883  0.021870878  0.021783517            2 
 2400000   0.86896998   -7.7618628    628.03601  0.021806806  0.021776752            2 
 2401000   0.85787675   -7.7857886    629.85409  0.021860825  0.021769982            2 
 2402000   0.86286314   -7.7995443    630.04921  0.021858493  0.021763231            3 
 2403000   0.87048955   -7.7680071    629.10915  0.021816797  0.021756518            2 
 2404000   0.86691342   -7.7552149    630.60358  0.021859525  0.021749837            1 
 2405000   0.87526202   -7.7313639    631.34921  0.021876272  0.021743191            3 
 2406000   0.87636658    -7.746688    632.26126  0.021898769  0.021736552            2 
 2407000   0.85737605   -7.7798955    630.35441  0.021823653  0.021729837            4 
 2408000    0.8611995   -7.7488235    630.48894  0.021819246  0.021723161            2 
 2409000   0.86188867   -7.8006903    631.01535  0.021828399   0.02171649            3 
 2410000   0.86935228   -7.7606867    630.75521  0.021810346  0.021709825            3 
 2411000   0.87675818    -7.752785    630.65911  0.021797978  0.021703206            2 
 2412000   0.87357198   -7.7569295    632.26587  0.021844454  0.021696557            2 
 2413000    0.8557377   -7.7977002    630.71225  0.021781746  0.021689829            2 
 2414000    0.8657472   -7.8020657    630.94018  0.021780592  0.021683154            2 
 2415000   0.88261124   -7.8141525    630.56319  0.021758564  0.021676484            2 
 2416000   0.88262911   -7.7793459    632.73125  0.021824339  0.021669847            2 
 2417000   0.86299346   -7.7801525    632.55179  0.021809123  0.021663222            4 
 2418000   0.87174977    -7.761932    631.87572  0.021776803  0.021656614            2 
 2419000    0.8542987   -7.7875247    633.85207  0.021835885  0.021650001            2 
 2420000   0.86074347   -7.7851079    632.59749   0.02178366  0.021643417            2 
 2421000   0.86133972   -7.8026497    632.19529  0.021760818  0.021636795            2 
 2422000   0.87602274   -7.7417389    632.95598  0.021778007   0.02163021            2 
 2423000   0.84688052   -7.7541826     633.1308  0.021775031  0.021623615            2 
 2424000   0.86975473    -7.766193    632.53786  0.021745663   0.02161704            2 
 2425000   0.85862428    -7.770301    634.18169  0.021793185  0.021610434            4 
 2426000   0.86689858   -7.7923397    632.44718  0.021724621  0.021603843            1 
 2427000   0.86016168   -7.7913501      631.966  0.021699148  0.021597219            4 
 2428000   0.84597558   -7.8159024     632.6683  0.021714315  0.021590609            1 
 2429000   0.85173673   -7.7962027    633.01849   0.02171739  0.021583981            2 
 2430000   0.87201488   -7.8034108    633.47832  0.021724222  0.021577419            1 
 2431000   0.84735883   -7.7653139    633.39463  0.021712417  0.021570823            1 
 2432000   0.86492187   -7.8209829    632.75712  0.021681645  0.021564233            2 
 2433000   0.87504897   -7.7799093    632.55841  0.021665927  0.021557686            7 
 2434000   0.87740558   -7.8150699     634.2824   0.02171605  0.021551119            4 
 2435000   0.86680347   -7.8160666    633.95318  0.021695865  0.021544568            5 
 2436000   0.86910053   -7.7900603    633.93259  0.021686254  0.021537997            1 
 2437000   0.85525991    -7.817769    633.17565  0.021651472  0.021531418            4 
 2438000   0.83862187   -7.7944471    634.06617   0.02167303  0.021524809            2 
 2439000   0.87284503   -7.7925711    633.88967  0.021658114  0.021518194            3 
 2440000   0.85930404   -7.7757627     635.2791   0.02169669  0.021511608            2 
 2441000   0.83990856   -7.7871258    634.02023  0.021644825  0.021505003            4 
 2442000   0.85937225   -7.8029253    634.90686  0.021666218  0.021498385            2 
 2443000   0.86211024   -7.8077679    634.23266  0.021634352  0.021491795            6 
 2444000   0.86656256   -7.7937719    635.55607  0.021670624  0.021485172            3 
 2445000   0.84747146   -7.7960088    634.82948  0.021636997  0.021478566            3 
 2446000   0.85957443   -7.7709671    634.72746  0.021624675   0.02147204            2 
 2447000   0.86844794   -7.8110833    634.15247  0.021596256  0.021465483            6 
 2448000   0.86937225   -7.8198917    634.54281  0.021600722  0.021458925            4 
 2449000   0.85679584    -7.819985    633.47028  0.021555406  0.021452361            4 
 2450000    0.8337428   -7.7714474    636.63742  0.021654334  0.021445825            3 
 2451000   0.84042422   -7.7847482    634.74086  0.021581017  0.021439298            3 
 2452000   0.84586671   -7.8134419    634.89464  0.021577441  0.021432754            2 
 2453000   0.85267037   -7.8033804     633.5351  0.021522459  0.021426205            2 
 2454000    0.8719742   -7.7912118     636.1608  0.021602852  0.021419674            2 
 2455000   0.86780093   -7.8049422    635.00208  0.021554721   0.02141315            2 
 2456000   0.85272066    -7.809864    635.29858  0.021556005  0.021406599            2 
 2457000   0.89457622   -7.7954067    637.30053  0.021615131  0.021400103            2 
 2458000    0.8524559   -7.8056209    635.96561   0.02156108  0.021393536            2 
 2459000   0.86455516   -7.8007198     636.6801  0.021576525  0.021386987            4 
 2460000   0.87201563   -7.7646798    637.48566  0.021595043  0.021380495            2 
 2461000   0.87951973   -7.7883151    637.46697  0.021585635   0.02137402            2 
 2462000   0.85318034   -7.7798281     637.4168  0.021575169  0.021367538            1 
 2463000   0.86844635   -7.7872016     638.1757  0.021592086   0.02136103            2 
 2464000   0.83672679   -7.7855431    637.88402  0.021573459  0.021354508            2 
 2465000   0.85928971   -7.7963249    635.54547  0.021485648  0.021347973            2 
 2466000   0.84122834   -7.8188619    635.42614  0.021472903  0.021341402            3 
 2467000   0.86293263   -7.8093312    635.99619  0.021483455  0.021334783            2 
 2468000   0.86700395   -7.8231742    635.98487  0.021474368  0.021328161            2 
 2469000   0.83497588   -7.8153574    636.35077   0.02147802  0.021321579            3 
 2470000   0.86461019   -7.7673552    636.76746  0.021483383  0.021315065            2 
 2471000   0.83942348   -7.8018849    635.52905  0.021432924  0.021308524            3 
 2472000   0.84324417   -7.7957532    636.18483   0.02144636  0.021301961            3 
 2473000   0.85266885   -7.7843509     638.2134  0.021506045  0.021295488            2 
 2474000   0.85945168   -7.7726815    637.36459  0.021468762  0.021288976            1 
 2475000   0.83824698   -7.7618202    637.54562  0.021466182  0.021282468            1 
 2476000   0.84853593   -7.8187095    635.34169  0.021383337  0.021275916            2 
 2477000   0.86711015   -7.7755092    638.58014  0.021483654  0.021269413            1 
 2478000   0.83789447   -7.7677668    638.68707   0.02147858  0.021262984            2 
 2479000    0.8484744   -7.7527129    637.99698  0.021446718  0.021256523            2 
 2480000   0.84975694   -7.7731304    637.18633  0.021410831  0.021250025            3 
 2481000   0.88267077    -7.807709    636.62303  0.021383281  0.021243498            2 
 2482000   0.85096512     -7.79443    637.01255  0.021387743  0.021236951            2 
 2483000   0.85834262   -7.8225809    637.35952  0.021390775  0.021230377            1 
 2484000   0.84771766   -7.7856538    637.56738  0.021389136  0.021223777            2 
 2485000   0.86031547   -7.8151176    635.69934  0.021317885   0.02121722            1 
 2486000   0.83898296   -7.8347748    635.81771  0.021313278  0.021210629            1 
 2487000   0.84005689   -7.8464781    636.00789  0.021311081  0.021203983            1 
 2488000   0.83603746   -7.8377821    638.21736  0.021376519  0.021197384            2 
 2489000   0.86857409   -7.8040986    637.73563  0.021351802  0.021190847            3 
 2490000   0.86701777   -7.8473798    636.76973  0.021310901  0.021184333            2 
 2491000   0.87695641   -7.7952353    638.05963  0.021345498   0.02117779            2 
 2492000   0.85854457    -7.815165    638.99845  0.021368327  0.021171296            3 
 2493000     0.852655   -7.8224073    638.81308  0.021353559  0.021164739            2 
 2494000   0.87887601   -7.8358607    638.13475  0.021322332  0.021158204            3 
 2495000   0.84238564   -7.7991627    637.48676  0.021292143   0.02115165            2 
 2496000   0.84714603   -7.7961017    638.65015  0.021322454  0.021145121            1 
 2497000   0.84585137   -7.8318156      638.756  0.021317448  0.021138556            3 
 2498000   0.86181384   -7.8315586    639.09391  0.021320187  0.021132015            2 
 2499000   0.84531648   -7.8280054    640.38796  0.021354807    0.0211255            1 
 2500000   0.82584384   -7.8095851    637.42073  0.021247358   0.02111899            6 
 2501000   0.84403701   -7.8315904    637.62492  0.021245666  0.021112498            2 
 2502000   0.83461436   -7.8011539    640.07624   0.02131882  0.021106008            2 
 2503000   0.83846318   -7.7935807    640.60463  0.021327894   0.02109952            3 
 2504000   0.84898402   -7.8461521    638.64552  0.021254177  0.021093019            2 
 2505000     0.850984   -7.8097866    638.56718  0.021243087  0.021086538            2 
 2506000   0.84727322   -7.8455087    637.44202  0.021197194  0.021080039            1 
 2507000   0.84015095   -7.8281457    640.83085  0.021301385  0.021073571            1 
 2508000     0.843799     -7.80782    639.55173   0.02125039  0.021067114            2 
 2509000   0.85671511   -7.7946227    640.61209  0.021277139  0.021060676            2 
 2510000   0.83853849    -7.809605    641.05105  0.021283235  0.021054176            3 
 2511000    0.8438139   -7.7925272    641.15596  0.021278241  0.021047677            2 
 2512000   0.84645667   -7.8090467    640.56753   0.02125025  0.021041179            2 
 2513000   0.85189214   -7.8410972    639.74944  0.021214665  0.021034648            1 
 2514000   0.85973882   -7.8233257    639.95183  0.021212935  0.021028169            2 
 2515000    0.8227575   -7.8127938    641.35864  0.021251115    0.0210217            2 
 2516000   0.85376222   -7.7714152    640.10026  0.021200989  0.021015214            1 
 2517000   0.86526476   -7.7962842    640.47027  0.021204816  0.021008728            2 
 2518000    0.8510461   -7.8282562    641.86747  0.021242635  0.021002243            1 
 2519000   0.86441972   -7.8221201    640.25475  0.021180851  0.020995754            2 
 2520000   0.83661635   -7.8465814    639.62901  0.021151753  0.020989214            3 
 2521000   0.85179284   -7.8089922    639.88398  0.021151791  0.020982681            1 
 2522000   0.84051573   -7.8231209    640.78423  0.021173151  0.020976201            5 
 2523000   0.84990734   -7.8298484    640.02678   0.02113974  0.020969723            4 
 2524000   0.84213927   -7.8207992    640.36762  0.021142618  0.020963227            3 
 2525000   0.85494443    -7.841399    640.15998  0.021127392  0.020956732            3 
 2526000   0.86327629   -7.8119116    639.61058  0.021100903  0.020950206            2 
 2527000   0.84799929   -7.8619687    639.56257   0.02109097   0.02094367            3 
 2528000   0.84308429    -7.835738    640.63697  0.021118043   0.02093717            1 
 2529000   0.85900599    -7.821127    640.20974  0.021095616  0.020930662            2 
 2530000   0.85608789   -7.8457929    639.98159  0.021079762  0.020924142            3 
 2531000   0.85177808   -7.8157591    641.15618  0.021110107  0.020917622            2 
 2532000   0.84813815   -7.8383709    639.16596  0.021036268  0.020911147            3 
 2533000   0.83119389   -7.8474976     641.6494  0.021109666  0.020904613            2 
 2534000   0.84172766   -7.8313168    641.49644  0.021096305  0.020898133            5 
 2535000   0.85253153   -7.8484308    640.98639  0.021071216  0.020891636            3 
 2536000   0.84997676   -7.8017448      642.381  0.021108734  0.020885175            1 
 2537000   0.83000072   -7.8332768    640.42129  0.021036043  0.020878693            3 
 2538000   0.85062634    -7.853651    641.19775  0.021053249  0.020872185            3 
 2539000   0.84271227   -7.8227408    641.60122    0.0210582  0.020865647            2 
 2540000   0.84452196   -7.7903657    641.12244  0.021034201  0.020859141            3 
 2541000   0.84685849   -7.8439199     642.1176   0.02105856  0.020852627            1 
 2542000   0.84442103   -7.8347927     641.9274   0.02104404  0.020846114            2 
 2543000     0.840174   -7.7998616    641.23041  0.021012925   0.02083967            2 
 2544000   0.83249812   -7.8332672    642.94555  0.021060847  0.020833233            2 
 2545000   0.84352447   -7.8367543    641.66708   0.02101071  0.020826777            2 
 2546000   0.85230969   -7.8156064    643.02578  0.021046929  0.020820343            2 
 2547000   0.82329253   -7.8138802    640.89051  0.020968804  0.020813895            3 
 2548000   0.84743642   -7.7966968    641.84537  0.020991803  0.020807424            2 
 2549000   0.84442415   -7.8733821    641.18981  0.020962136  0.020800979            2 
 2550000   0.84948591   -7.8560856    642.14571  0.020985154  0.020794496            2 
 2551000   0.86515079   -7.8498071    642.71431  0.020995502  0.020788066            1 
 2552000   0.85203205   -7.8544145    641.93811  0.020961929  0.020781647            2 
 2553000   0.84621885    -7.822328    643.53565  0.021005864  0.020775216            1 
 2554000   0.83402969   -7.8291618    644.96567  0.021044299  0.020768856            2 
 2555000   0.83991151   -7.8332151    642.59353  0.020958693  0.020762452            1 
 2556000   0.85493573   -7.8491957    643.26987  0.020972544  0.020756054            2 
 2557000   0.84587188   -7.8562305    642.75382  0.020947524  0.020749635            2 
 2558000   0.83812085   -7.8446397    643.50592  0.020963836  0.020743249            1 
 2559000   0.82642295   -7.8190208    645.47629  0.021019809  0.020736854            4 
 2560000   0.85030096   -7.8248658    644.52376  0.020980591   0.02073048            3 
 2561000   0.84223351   -7.8445827    645.42941  0.021001868  0.020724091            1 
 2562000   0.84117826   -7.8325517    643.35816    0.0209263  0.020717705            4 
 2563000    0.8476345   -7.8497193    642.43806  0.020888219  0.020711297            1 
 2564000    0.8289892   -7.8286604    644.74355  0.020955004  0.020704909            2 
 2565000   0.84270747   -7.8067891    644.83056  0.020949661  0.020698492            2 
 2566000   0.85060637    -7.845779    643.90033  0.020911286  0.020692037            5 
 2567000   0.83194668   -7.8481031     644.2476  0.020914414  0.020685596            3 
 2568000   0.84911308    -7.857866    643.01249  0.020866189  0.020679146            2 
 2569000   0.84035668   -7.8885103    642.65598  0.020846502  0.020672659            1 
 2570000   0.83566408   -7.8063542    644.19968  0.020888446  0.020666234            2 
 2571000   0.82593895    -7.832019    643.92778  0.020871508  0.020659814            3 
 2572000    0.8369732   -7.8307893    644.45486  0.020880471  0.020653408            4 
 2573000   0.82469113   -7.8520648    642.64608  0.020813774  0.020646971            3 
 2574000   0.84391742   -7.8545238    644.83176  0.020876449  0.020640524            2 
 2575000   0.83941294   -7.8405145    644.16987  0.020846921  0.020634098            4 
 2576000   0.82617777   -7.8260673    643.81012  0.020827191  0.020627668            3 
 2577000   0.83463497   -7.8002501    644.85512  0.020852901   0.02062126            2 
 2578000    0.8454315   -7.8517734    645.23097  0.020856962  0.020614851            3 
 2579000   0.83518677   -7.8202344    643.11292  0.020780436  0.020608455            1 
 2580000   0.84942202   -7.8491424    645.45638  0.020848074  0.020602028            1 
 2581000   0.83463692   -7.8276347    644.14795  0.020797751  0.020595566            3 
 2582000   0.84854101   -7.8370929    643.83815  0.020779698   0.02058917            3 
 2583000   0.84014152    -7.822057    644.90244  0.020805989   0.02058276            1 
 2584000   0.82243531   -7.7932556    645.54155  0.020818549  0.020576347            1 
 2585000   0.82810158    -7.842601     643.9357  0.020758727  0.020569916            2 
 2586000   0.84564549   -7.8398507    643.58052  0.020739254  0.020563521            2 
 2587000   0.85446733   -7.8052412    644.68352  0.020766767  0.020557102            3 
 2588000    0.8465245   -7.8535171    644.17357  0.020742323  0.020550697            3 
 2589000   0.81473067   -7.8633496    645.17979  0.020766698  0.020544275            2 
 2590000   0.83914154   -7.8467049      645.881  0.020781242  0.020537852            1 
 2591000   0.82624676   -7.8567274    644.71145  0.020735606  0.020531436            1 
 2592000   0.84999735   -7.8734028    645.12241  0.020740818  0.020525026            2 
 2593000   0.83350598   -7.8474736    643.48297  0.020680132  0.020518621            3 
 2594000   0.83294078   -7.8334743     646.4867  0.020768655  0.020512224            2 
 2595000   0.84360913   -7.8484935    646.36722  0.020756815  0.020505888            1 
 2596000   0.87030946    -7.848438    645.08055  0.020707516  0.020499521            3 
 2597000   0.83194469   -7.8450961    646.02967  0.020729998  0.020493176            3 
 2598000   0.83783166   -7.8343113    643.83842  0.020651733  0.020486815            7 
 2599000   0.84601317   -7.8492906    646.29155  0.020722443  0.020480438            3 
 2600000   0.84324914   -7.8653633    645.08399  0.020675769  0.020474058            4 
 2601000   0.84302876   -7.8670834    645.30043  0.020674754  0.020467684            1 
 2602000   0.83304226   -7.8068466    646.49131  0.020704948  0.020461328            2 
 2603000    0.8303454    -7.848059    644.94821  0.020647593  0.020455002            3 
 2604000   0.85379052   -7.8444235      644.673  0.020630856  0.020448638            3 
 2605000    0.8230504   -7.8526092    646.66738  0.020686736  0.020442277            4 
 2606000   0.83938681    -7.871144    645.84067  0.020652362  0.020435891            3 
 2607000   0.83058481   -7.8885328    645.72334   0.02064069  0.020429502            2 
 2608000    0.8305172   -7.8474062    646.83392  0.020668262  0.020423124            1 
 2609000   0.82747402   -7.8592472    646.92485  0.020663244   0.02041679            2 
 2610000   0.83464035   -7.8657576    645.52666  0.020610685  0.020410404            1 
 2611000   0.84792395   -7.8837898    646.43065  0.020631643  0.020404038            3 
 2612000    0.8131236    -7.852901    645.92138  0.020607497  0.020397641            2 
 2613000   0.83939043   -7.8922455    645.29055  0.020579492  0.020391258            2 
 2614000   0.84790111    -7.871672    645.92808  0.020591943  0.020384854            2 
 2615000   0.83887276   -7.8918782    646.59395  0.020605288  0.020378482            3 
 2616000    0.8273348   -7.8544412    646.80343  0.020604085  0.020372112            3 
 2617000   0.81450663   -7.8585004    647.66551  0.020623663  0.020365782            3 
 2618000   0.83415266   -7.8689459    647.88895  0.020622898  0.020359451            2 
 2619000   0.82642193    -7.846084    648.51254  0.020634865  0.020353161            1 
 2620000   0.84112527   -7.8821428    648.08834  0.020613497  0.020346846            3 
 2621000   0.84296812   -7.8452054    646.34521   0.02055021   0.02034049            2 
 2622000   0.82994865   -7.8549225    648.08909  0.020597797  0.020334146            2 
 2623000   0.83771138   -7.8548947    648.34584  0.020598101  0.020327808            1 
 2624000   0.83923672   -7.8594523    647.73897  0.020570978   0.02032147            1 
 2625000   0.83195259   -7.8709767    647.17237  0.020545155  0.020315077            2 
 2626000   0.83689633   -7.9030903    646.54918  0.020517554  0.020308667            2 
 2627000   0.83765043   -7.8815252     646.7527    0.0205162  0.020302261            2 
 2628000    0.8326838   -7.8526974    647.94284  0.020546133  0.020295857            2 
 2629000   0.82638056   -7.8807408    646.62638  0.020496589  0.020289481            3 
 2630000   0.82164119   -7.9131667    647.85902  0.020527852  0.020283135            3 
 2631000   0.85302748   -7.8556284    648.50087   0.02054038  0.020276778            3 
 2632000   0.83241878   -7.8518453     648.2463  0.020524516   0.02027044            2 
 2633000   0.84080498   -7.8979218    646.54403  0.020462844  0.020264064            2 
 2634000   0.82724244   -7.9026775    646.64605  0.020458303  0.020257653            3 
 2635000    0.8328739   -7.8772332    648.08673  0.020496101  0.020251293            2 
 2636000   0.82210891    -7.878959    647.01122  0.020454325  0.020244931            1 
 2637000   0.83370864   -7.9069742     646.8086  0.020440166  0.020238563            4 
 2638000   0.84057867    -7.868075    648.73929  0.020493407   0.02023223            2 
 2639000   0.83482473    -7.884636    649.60118  0.020512858  0.020225927            5 
 2640000   0.83314968   -7.8833029    647.50151   0.02043881  0.020219614            2 
 2641000   0.82877707   -7.8840385    648.36615  0.020458354  0.020213284            2 
 2642000   0.83713424   -7.8667874    648.68256  0.020460591  0.020206987            4 
 2643000   0.81981475   -7.8681214      647.656  0.020420482  0.020200666            2 
 2644000   0.81966648   -7.8806569    647.10394  0.020395359  0.020194358            2 
 2645000   0.82212925   -7.8765729    648.76131  0.020439865  0.020188037            1 
 2646000    0.8222329    -7.901165    649.21655  0.020446477  0.020181696            1 
 2647000   0.83752184   -7.8766451    649.05137  0.020433553  0.020175322            1 
 2648000   0.81306872    -7.875215    648.77184  0.020417039  0.020169022            3 
 2649000   0.83460094   -7.8477213      649.852  0.020443312  0.020162762            3 
 2650000   0.83093048   -7.8293032    649.98201  0.020439686   0.02015653            1 
 2651000   0.83984639   -7.8851608    647.40386  0.020350932  0.020150273            2 
 2652000   0.84515546   -7.8536169    650.47134  0.020439648     0.020144            3 
 2653000   0.82206792   -7.8874925    649.56383  0.020403437  0.020137739            2 
 2654000   0.84010006   -7.8727199    648.60737  0.020365717  0.020131462            3 
 2655000   0.82846153   -7.8708715    649.70091   0.02039237  0.020125184            3 
 2656000   0.83350252   -7.8792952    650.15576  0.020398963  0.020118938            2 
 2657000   0.84773203   -7.9101463    648.95812  0.020353723  0.020112633            3 
 2658000   0.82121402   -7.8568389     651.0545  0.020411791    0.0201064            3 
 2659000   0.82385731   -7.8742026    650.43716  0.020384767  0.020100197            2 
 2660000    0.8408394   -7.8841439    649.66103  0.020352789  0.020093955            4 
 2661000   0.83127065   -7.8613789    650.72474  0.020378452   0.02008773            3 
 2662000   0.82781273   -7.8895615    649.91341  0.020345398  0.020081503            2 
 2663000   0.83479861   -7.8844612    651.37035  0.020383351  0.020075279            2 
 2664000   0.82223429   -7.9018292    650.60497  0.020351757  0.020069068            2 
 2665000   0.83181804   -7.8626057    650.51299  0.020341244  0.020062889            1 
 2666000   0.82042943   -7.8734163    650.53491  0.020334299  0.020056695            1 
 2667000   0.81996559   -7.9221458    649.79738   0.02030363  0.020050456            4 
 2668000   0.82126229   -7.8961242    649.81022  0.020296421  0.020044197            1 
 2669000   0.82155449   -7.8890208    651.86934  0.020353108  0.020037947            2 
 2670000   0.79860533   -7.9022559    649.90729  0.020284248  0.020031674            2 
 2671000   0.81050694   -7.8857631    648.77554  0.020241344  0.020025426            2 
 2672000   0.82979061   -7.8802206    651.25856  0.020311207  0.020019156            2 
 2673000   0.84559158   -7.8723199     652.0873  0.020329446  0.020012955            2 
 2674000   0.83117334   -7.8713682    651.62632  0.020307477   0.02000674            2 
 2675000   0.83306772   -7.8715034    652.08079  0.020314043  0.020000565            2 
 2676000   0.80917109   -7.8560141    653.22764  0.020342166  0.019994428            3 
 2677000   0.81645913   -7.8796039    650.76462  0.020257895  0.019988305            2 
 2678000   0.84671602   -7.8476315    653.07597  0.020322254  0.019982188            1 
 2679000   0.82299699   -7.8802651    650.37729  0.020230723  0.019976043            1 
 2680000   0.82128003   -7.8871548    653.22748    0.0203118  0.019969897            2 
 2681000   0.82277337   -7.8930475    653.04063  0.020298416  0.019963722            2 
 2682000   0.83567977   -7.8971182    651.02161  0.020228114  0.019957537            2 
 2683000   0.80516101   -7.8916231    652.88984  0.020278601  0.019951349            4 
 2684000   0.82900631   -7.8716617    652.05676   0.02024518   0.01994518            1 
 2685000   0.80421324   -7.9009311    651.94171  0.020234069  0.019939015            2 
 2686000   0.82331369   -7.8570267    653.31298   0.02026908  0.019932854            4 
 2687000   0.82153191   -7.8745542    653.62779    0.0202713  0.019926671            3 
 2688000   0.83752449   -7.8874926    652.55692  0.020230559  0.019920499            4 
 2689000   0.83441648   -7.8941292    653.21204  0.020243338  0.019914331            2 
 2690000   0.83259162   -7.9341168    652.39292  0.020210437  0.019908149            1 
 2691000   0.82428874   -7.9093098    652.91256  0.020219019  0.019901974            2 
 2692000   0.80725533    -7.918317    652.57261  0.020200985  0.019895759            2 
 2693000    0.8212707    -7.880086    653.64724  0.020226737  0.019889573            3 
 2694000   0.83975823   -7.8685008    652.93379   0.02019716  0.019883425            2 
 2695000   0.82706556   -7.8980346    652.00266  0.020160874  0.019877235            1 
 2696000   0.81739043   -7.9261525    651.59943  0.020140932  0.019871042            2 
 2697000   0.82153427   -7.9207844    653.04138  0.020178018  0.019864839            4 
 2698000   0.80492877   -7.9172737    654.17301  0.020205492  0.019858646            3 
 2699000   0.80077105   -7.9160387    653.21388  0.020168392  0.019852466            2 
 2700000   0.83395931   -7.9001778    653.35575  0.020165301   0.01984631            2 
 2701000    0.8258743   -7.8937397    653.37989   0.02015858  0.019840126            2 
 2702000   0.81824359   -7.8994467    652.16094  0.020113525  0.019833945            1 
 2703000   0.81836791   -7.9217694    652.19387  0.020107099  0.019827767            3 
 2704000    0.8372352   -7.8899841    653.79716  0.020149074   0.01982156            4 
 2705000   0.79470173   -7.9373806    652.27817   0.02009483  0.019815368            3 
 2706000   0.80767887   -7.9363544    651.42135  0.020061017  0.019809108            3 
 2707000   0.80939855   -7.9034455    652.06521  0.020073427  0.019802869            5 
 2708000   0.82182678   -7.9111871    652.65406  0.020084135  0.019796623            1 
 2709000   0.80943772   -7.9034913    653.04652  0.020088794  0.019790408            2 
 2710000   0.82729767   -7.8832667     653.2441  0.020087457  0.019784217            2 
 2711000   0.80697155   -7.9111463     652.4379  0.020055266  0.019777996            2 
 2712000   0.81510845   -7.9167237    653.17388  0.020070486  0.019771767            1 
 2713000   0.83371545   -7.8979469    652.73362  0.020049564  0.019765554            2 
 2714000   0.82297705     -7.88598     653.4187  0.020063212  0.019759363            2 
 2715000   0.83337667   -7.8782145    652.37122  0.020023672  0.019753185            4 
 2716000   0.80453148   -7.9049012    653.72132  0.020057723  0.019747007            1 
 2717000   0.82670086   -7.8984714    652.94734  0.020026602  0.019740818            4 
 2718000   0.81731697   -7.9263025    653.03489  0.020021918    0.0197346            3 
 2719000   0.83385337   -7.9176196    654.10543  0.020047365   0.01972842            2 
 2720000   0.81871412   -7.9085427    654.36768  0.020048029  0.019722255            1 
 2721000   0.80018195   -7.9477666    653.66635  0.020019183  0.019716087            2 
 2722000   0.82581966   -7.9315786    654.37057  0.020033388  0.019709897            4 
 2723000   0.81522068   -7.9401877    654.31735  0.020024402   0.01970368            2 
 2724000   0.81328378   -7.9263438    654.18815  0.020013098  0.019697492            1 
 2725000   0.81169024   -7.9263667    653.19007  0.019975232  0.019691302            2 
 2726000   0.82459412   -7.9118326    653.71495  0.019983949  0.019685098            2 
 2727000   0.81946645   -7.9519596    653.59973    0.0199731  0.019678874            3 
 2728000   0.83799681   -7.9210829    654.87471  0.020004726  0.019672678            1 
 2729000    0.8101402   -7.9051429    655.68286  0.020022074  0.019666481            4 
 2730000   0.82532363   -7.9277189    653.36454  0.019943973  0.019660275            2 
 2731000   0.83220235   -7.9127157    653.46769  0.019939817  0.019654061            3 
 2732000   0.82311862   -7.9014957    654.22916  0.019955745  0.019647872            1 
 2733000   0.79023493   -7.9118833    653.11895  0.019914592   0.01964165            2 
 2734000   0.82579013   -7.9488869    653.55872  0.019920712  0.019635413            4 
 2735000    0.8069462   -7.9230207    652.81712  0.019890832  0.019629189            1 
 2736000   0.82013197   -7.8923095    653.79879  0.019913462  0.019623011            1 
 2737000   0.81747481   -7.8911958    653.21979  0.019888558  0.019616847            2 
 2738000   0.80228964   -7.9071032    653.48314  0.019889309  0.019610713            2 
 2739000   0.80357725   -7.9148619    653.58961  0.019885287  0.019604528            5 
 2740000   0.81870516   -7.9242583    654.58281  0.019908236  0.019598339            2 
 2741000   0.81696669   -7.9262433    652.57157  0.019839826   0.01959212            2 
 2742000   0.80606794   -7.9464894    654.13185   0.01988001   0.01958588            2 
 2743000   0.81123518   -7.9560124    652.86411  0.019834248  0.019579619            2 
 2744000   0.80732324   -7.9250548    655.02029  0.019892502  0.019573364            2 
 2745000   0.81132035   -7.9519357    654.71063  0.019875854  0.019567148            1 
 2746000   0.83580258   -7.9125748    655.61993  0.019896211   0.01956093            5 
 2747000   0.81371204   -7.9116601    654.72622  0.019861856  0.019554769            2 
 2748000   0.81343557   -7.9030762    655.59329  0.019880922  0.019548621            3 
 2749000   0.81027853   -7.9181643    654.83294  0.019850641  0.019542474            3 
 2750000   0.80175799   -7.9157664    654.49034   0.01983304  0.019536323            3 
 2751000    0.8015557   -7.8862863    655.75324  0.019864087   0.01953017            3 
 2752000   0.81686073   -7.8905496    655.41257  0.019846553  0.019524019            1 
 2753000   0.80797944   -7.9394655    653.79714  0.019790445  0.019517859            2 
 2754000   0.82425403   -7.9099797    654.56998  0.019806644  0.019511688            1 
 2755000   0.81252414   -7.9145641    655.29497  0.019821385  0.019505515            2 
 2756000   0.81129482   -7.9084711    655.04634  0.019806675  0.019499327            1 
 2757000   0.80699668    -7.925867    653.81512  0.019762275  0.019493127            2 
 2758000   0.80947173   -7.8990228    654.24489  0.019768096  0.019486939            2 
 2759000   0.80870574    -7.927875    656.49635  0.019828934  0.019480797            1 
 2760000   0.82079686   -7.9428314    655.58795  0.019794322  0.019474657            2 
 2761000   0.79601585   -7.9169131    655.95672  0.019798283  0.019468537            1 
 2762000   0.80337128   -7.9314458    655.13136  0.019766213  0.019462403            3 
 2763000    0.8141891    -7.938259    656.83754  0.019810518  0.019456257            1 
 2764000   0.81696381   -7.9242775    656.07458  0.019780348  0.019450109            2 
 2765000    0.7993079    -7.927635    656.46262  0.019784889  0.019443948            3 
 2766000   0.80900745    -7.911786    657.28683  0.019802568  0.019437806            2 
 2767000   0.80235633   -7.9331908    654.17568  0.019701713  0.019431648            3 
 2768000   0.82046766   -7.9148245     655.6909  0.019740213  0.019425493            2 
 2769000   0.81369581   -7.9368128    655.64913  0.019731826  0.019419347            4 
 2770000   0.80902733   -7.9303592    655.29755  0.019714126  0.019413197            2 
 2771000   0.79960707     -7.92807    654.33005  0.019677916  0.019407043            3 
 2772000    0.8063243   -7.9268171    656.56626  0.019738043  0.019400917            1 
 2773000   0.82347792    -7.915278    656.59701  0.019731849  0.019394776            3 
 2774000   0.81093708   -7.9638073    655.49851  0.019691736  0.019388588            3 
 2775000   0.79820881   -7.9302667    655.30003   0.01967868  0.019382412            2 
 2776000   0.80117104   -7.9603838     655.8183  0.019687149  0.019376252            3 
 2777000   0.80948405   -7.9212545    655.58332  0.019673008  0.019370117            1 
 2778000   0.81010466   -7.9170064    657.72827   0.01973027  0.019363996            1 
 2779000   0.78520487   -7.9281454    655.70616  0.019662533   0.01935789            4 
 2780000   0.83316099   -7.9017243    656.64146  0.019683497  0.019351805            2 
 2781000    0.8053411   -7.9362426    657.22689  0.019693962   0.01934572            2 
 2782000   0.80583551   -7.9155355    655.84397  0.019645458  0.019339573            2 
 2783000   0.80475001   -7.9666066     655.2914  0.019621853  0.019333427            4 
 2784000   0.80569176   -7.9296259    655.84108  0.019631258  0.019327276            2 
 2785000   0.79681788   -7.9303929    657.18853  0.019664528  0.019321144            1 
 2786000    0.8002764   -7.9284422     656.2485  0.019629352  0.019315012            2 
 2787000   0.80117362   -7.9472505    656.25369  0.019622464  0.019308891            2 
 2788000   0.80297525   -7.9301716    655.64924  0.019597359  0.019302733            2 
 2789000   0.80128422    -7.954157     656.2686  0.019608838  0.019296585            3 
 2790000   0.80665858   -7.9159723    658.25148  0.019661036  0.019290432            1 
 2791000   0.79801511   -7.9421437     656.7986  0.019610612  0.019284308            3 
 2792000   0.81311087   -7.9206793    656.41816  0.019592233  0.019278182            3 
 2793000   0.81582167   -7.9322216    655.58901  0.019560479  0.019272044            2 
 2794000   0.80362542   -7.9327174    657.04779  0.019596987   0.01926591            2 
 2795000   0.78565312   -7.8988024    658.44759  0.019631711  0.019259803            2 
 2796000   0.81001927   -7.9081897     657.8539  0.019606995  0.019253738            1 
 2797000   0.79357816   -7.9348366    657.97201  0.019603504  0.019247694            3 
 2798000   0.81493575   -7.9449889    657.19482  0.019573351  0.019241616            1 
 2799000    0.7818234    -7.878647    659.29576  0.019628908   0.01923553            2 
 2800000   0.80752701   -7.9318868    657.52296  0.019569136  0.019229427            1 
 2801000   0.79504906   -7.9494765     656.1848  0.019522337    0.0192233            3 
 2802000   0.79536062   -7.9450834    658.28907  0.019577952  0.019217193            2 
 2803000   0.81787592   -7.9133501    658.31045  0.019571603  0.019211104            2 
 2804000   0.78643808   -7.9531428    655.58089  0.019483502  0.019205004            2 
 2805000   0.79114101   -7.9313414    657.77649  0.019541785  0.019198894            1 
 2806000   0.80060833   -7.9407676    656.57548  0.019499153  0.019192767            2 
 2807000   0.80661972   -7.9580123     657.1958  0.019510622  0.019186652            4 
 2808000   0.80326855   -7.9221025    658.51776  0.019542906  0.019180549            3 
 2809000   0.80423612   -7.9314236    657.59589    0.0195086   0.01917443            4 
 2810000   0.82148377   -7.9581867    656.54438  0.019470474  0.019168311            1 
 2811000   0.80114307   -7.9515649    658.34631  0.019516966  0.019162176            2 
 2812000   0.79227952    -7.945801    657.04676  0.019471514  0.019156072            3 
 2813000   0.82954528   -7.9412951    657.82612   0.01948768  0.019149963            5 
 2814000   0.80007201   -7.9514377    658.49205  0.019500475  0.019143851            1 
 2815000   0.79653138   -7.9461213    658.17526   0.01948417  0.019137724            3 
 2816000   0.78891738   -7.9534197    658.88095  0.019498134  0.019131622            2 
 2817000   0.80525303   -7.9623908    658.82295  0.019489497  0.019125513            2 
 2818000   0.80171194   -7.9592806    657.55359  0.019445043  0.019119406            2 
 2819000   0.79373156   -7.9313534    658.67493  0.019471294  0.019113304            1 
 2820000   0.80860251    -7.926383    659.99296  0.019503338  0.019107224            1 
 2821000   0.78329679   -7.9405262    658.38152  0.019448822  0.019101135            5 
 2822000    0.7930453    -7.982787    657.13543  0.019405133  0.019095037            1 
 2823000   0.80815238   -7.9496812    657.95893  0.019422568  0.019088958            1 
 2824000   0.81674623   -7.9327862    658.48733  0.019431283  0.019082916            6 
 2825000   0.80131662   -7.9451364    658.60915  0.019427999   0.01907689            2 
 2826000   0.80677795   -7.9285108    659.15702  0.019437279  0.019070899            2 
 2827000   0.80966337   -7.9110827    659.89471  0.019452149  0.019064888            3 
 2828000   0.81716572   -7.9631252    658.20424  0.019395457   0.01905887            3 
 2829000   0.80633717   -7.9437257    658.76994  0.019405265  0.019052833            1 
 2830000    0.8044805   -7.9503799    659.98794  0.019434274   0.01904679            2 
 2831000   0.78713279   -7.9330925    659.34386   0.01940845  0.019040768            1 
 2832000   0.81258896   -7.9622307    659.17356  0.019396585  0.019034723            2 
 2833000     0.813147   -7.9710475    658.13129   0.01935908  0.019028667            2 
 2834000    0.8008004   -7.9714089    658.72063  0.019369579  0.019022589            1 
 2835000   0.78062967   -7.9820678    657.96494  0.019340533  0.019016517            1 
 2836000   0.78764765   -7.9853086    659.42339  0.019376569  0.019010432            4 
 2837000    0.8118499   -7.9645289    657.96286  0.019326838  0.019004351            3 
 2838000   0.79152467   -7.9569613    658.53296  0.019336768  0.018998285            2 
 2839000   0.79953768   -7.9712494    659.09172  0.019346358  0.018992235            1 
 2840000   0.79201897   -7.9470812    659.40141  0.019348633  0.018986196            2 
 2841000   0.80183407   -7.9593468    658.11142  0.019303984   0.01898013            2 
 2842000   0.78444836   -7.9823254    658.57634  0.019310824  0.018974072            1 
 2843000   0.79255653   -7.9282028    658.56691  0.019303755  0.018968023            2 
 2844000   0.79716307   -7.9622261    658.87428  0.019305974  0.018961971            4 
 2845000   0.79576577   -7.9267973    660.23885  0.019339158   0.01895591            3 
 2846000   0.79847854    -7.963055    660.06698   0.01932733  0.018949892            3 
 2847000   0.80546237   -7.9584429    657.82013  0.019254775  0.018943863            2 
 2848000   0.78032841   -7.9554101    659.03625  0.019283598  0.018937823            2 
 2849000   0.79080548   -7.9832957    659.44983  0.019288927  0.018931789            6 
 2850000   0.81072242   -7.9535907    659.14402  0.019273217  0.018925759            2 
 2851000   0.78960727   -7.9878174    659.87827  0.019287919  0.018919717            2 
 2852000   0.77698909   -7.9599869    658.61481  0.019244238  0.018913696            1 
 2853000   0.79628164    -7.942385    660.53276  0.019293514  0.018907671            2 
 2854000   0.80915638     -7.96129    659.81454  0.019265783  0.018901701            4 
 2855000   0.79535168   -7.9846891    657.90427  0.019203277  0.018895691            2 
 2856000   0.80791089   -7.9401244    659.95432   0.01925637  0.018889681            2 
 2857000   0.80498584   -7.9534899    660.32253   0.01926037  0.018883643            1 
 2858000   0.78227329   -7.9502164    660.76675  0.019266584  0.018877628            1 
 2859000   0.79110919   -7.9514951    661.43006  0.019279179  0.018871611            3 
 2860000    0.8006656   -7.9780743    658.45768   0.01918583   0.01886555            4 
 2861000   0.80272479   -8.0065053    658.66414  0.019185138  0.018859513            3 
 2862000    0.7990435   -7.9778911    660.40347  0.019229079  0.018853491            5 
 2863000   0.80381979   -7.9647702    661.18457  0.019245098  0.018847485            3 
 2864000   0.78056498   -7.9544083    662.18734  0.019267555  0.018841494            3 
 2865000   0.79430009    -7.969231    658.72945  0.019160252  0.018835503            2 
 2866000   0.81294268   -7.9496236    661.90701  0.019245959  0.018829508            2 
 2867000   0.80530763   -7.9461312    660.83221  0.019208005  0.018823531            3 
 2868000   0.78292556   -7.9528327    660.57762   0.01919391  0.018817546            4 
 2869000   0.78467769   -7.9241171    661.51186  0.019214356  0.018811587            1 
 2870000   0.79491625   -7.9605523    660.26936  0.019171584  0.018805583            4 
 2871000   0.78816511   -7.9579878     660.1916   0.01916265    0.0187996            2 
 2872000   0.78412122   -7.9456373     660.1823  0.019155707  0.018793643            4 
 2873000   0.78459953   -7.9630053    660.62289   0.01916182  0.018787662            4 
 2874000    0.7900259    -7.955394    660.19724   0.01914281  0.018781669            2 
 2875000   0.77791558   -7.9486984    660.70579  0.019150892  0.018775687            3 
 2876000   0.78673274   -7.9358084    661.54582  0.019168574  0.018769678            1 
 2877000   0.79124606    -7.970633    660.58466  0.019134071  0.018763674            2 
 2878000   0.79172168   -7.9712741     660.8676  0.019135615  0.018757678            2 
 2879000   0.80051427   -7.9513161    660.59096  0.019120961  0.018751661            4 
 2880000   0.79438224   -7.9690039    660.62697  0.019115364  0.018745648            3 
 2881000   0.79102806   -7.9742056    658.90206  0.019058835  0.018739595            2 
 2882000   0.78578378   -7.9784158    660.35879  0.019094344  0.018733552            3 
 2883000   0.79745464   -7.9829232    659.55625  0.019064523  0.018727499            2 
 2884000   0.79563573    -7.996004    658.98052  0.019041277   0.01872144            3 
 2885000   0.79358457   -8.0064769    658.97575  0.019034539  0.018715366            6 
 2886000   0.78623473   -8.0220059    659.59409  0.019045798  0.018709303            2 
 2887000   0.79604932   -7.9782593    660.32379  0.019060264  0.018703234            1 
 2888000   0.78584809    -7.985472    660.47674  0.019058078  0.018697185            6 
 2889000   0.78514614   -8.0131547    658.53524  0.018995478  0.018691112            2 
 2890000    0.7914212   -7.9815771    660.59035  0.019048165  0.018685075            1 
 2891000   0.78167697   -7.9858764    660.59113  0.019041598  0.018679054            1 
 2892000   0.80021939   -8.0014339    660.33839  0.019027731  0.018673011            2 
 2893000   0.77101324   -7.9936807    661.29338  0.019048663  0.018666974            1 
 2894000   0.78790472   -7.9701162    659.90118  0.019001992  0.018660938            1 
 2895000   0.78527834   -7.9906669    658.91466  0.018967031  0.018654922            2 
 2896000   0.77167476   -8.0211832    659.96973  0.018990842  0.018648881            1 
 2897000   0.78646442   -7.9970607    658.71923  0.018948315  0.018642823            3 
 2898000   0.78630567   -8.0055299    660.06953  0.018980605  0.018636748            2 
 2899000   0.79218845   -8.0072986    660.13607  0.018975971  0.018630692            2 
 2900000   0.77244295   -7.9963941    660.56534  0.018981763  0.018624632            2 
 2901000   0.78877246   -7.9792521    659.90386  0.018956218  0.018618597            4 
 2902000   0.78300131   -7.9777271    659.88758  0.018949218  0.018612613            2 
 2903000   0.79113939   -7.9762598    660.72053  0.018966602  0.018606601            1 
 2904000   0.77002437   -7.9545326    662.17213  0.019001726  0.018600609            1 
 2905000   0.76573623   -7.9710922    661.16046  0.018966163  0.018594617            4 
 2906000   0.78969832   -7.9932985     660.4478  0.018939201  0.018588615            2 
 2907000   0.79496392   -8.0008098    659.23773  0.018897997  0.018582565            2 
 2908000   0.78634916   -8.0042487    660.36942  0.018923929  0.018576542            2 
 2909000    0.7980587     -7.99228    661.31004  0.018944369  0.018570533            4 
 2910000   0.78585687   -8.0043897    661.86638  0.018953791  0.018564519            3 
 2911000   0.77905016   -7.9629942    661.65854   0.01894133    0.0185585            3 
 2912000   0.76403392   -7.9793855    659.62498  0.018876631   0.01855249            2 
 2913000   0.77527473   -7.9847732     661.7315  0.018930412  0.018546485            1 
 2914000   0.77906603    -7.975874    662.84894  0.018955872  0.018540511            1 
 2915000   0.78913616   -7.9848716      660.167  0.018872699   0.01853455            3 
 2916000   0.77482512   -8.0128024    660.96256  0.018888962  0.018528558            2 
 2917000   0.76573213   -7.9931348    661.37767  0.018894346  0.018522577            2 
 2918000   0.77652778   -7.9772588    661.98613  0.018905247  0.018516599            1 
 2919000   0.77960189   -7.9963831    659.30011  0.018822088  0.018510624            2 
 2920000   0.78239565     -7.96881     662.4633  0.018905916  0.018504633            2 
 2921000   0.77736626    -8.009315    662.40112   0.01889767   0.01849864            2 
 2922000   0.77238309   -7.9727622    661.54063  0.018866662  0.018492646            2 
 2923000   0.79246016   -8.0021794    660.83045   0.01883996  0.018486665            2 
 2924000   0.78530785    -7.991357    662.27297  0.018874629   0.01848067            2 
 2925000   0.79639596   -8.0104413    661.60897  0.018849258  0.018474689            2 
 2926000   0.77806057   -7.9676092    663.05893  0.018884112  0.018468726            2 
 2927000   0.80154569    -7.996976    662.38909  0.018858589  0.018462771            1 
 2928000   0.79880427   -8.0208795     660.3644  0.018794524  0.018456786            1 
 2929000   0.78311827   -8.0150137    660.35795  0.018787924   0.01845082            2 
 2930000   0.77708909   -8.0079014    661.12945  0.018803454  0.018444863            3 
 2931000   0.79080011   -8.0111211    660.76255  0.018786607   0.01843888            3 
 2932000   0.78641356   -8.0281167    662.82667  0.018838866  0.018432863            3 
 2933000   0.79261778   -8.0140671    660.73157  0.018772917  0.018426874            1 
 2934000   0.79593522   -7.9806776    660.60818  0.018763014  0.018420875            2 
 2935000   0.75926963   -8.0042785    661.74817  0.018788988  0.018414901            5 
 2936000   0.79146995   -7.9978515    663.77541  0.018840128  0.018408934            2 
 2937000   0.78458305   -7.9729638    661.56163  0.018770901  0.018402961            3 
 2938000   0.79882161   -7.9795441    662.16638  0.018781665  0.018396973            1 
 2939000   0.78857817   -8.0121931    662.03851  0.018771649  0.018390955            2 
 2940000   0.78184035   -8.0407001    660.40263  0.018718895  0.018384924            3 
 2941000   0.78752276   -8.0134167    662.42436  0.018769816  0.018378895            4 
 2942000   0.76209334   -8.0166259    660.96472  0.018722091  0.018372842            3 
 2943000   0.78022719   -8.0028233    661.38015  0.018727493  0.018366809            4 
 2944000   0.78241321   -7.9962674    662.52272  0.018753474  0.018360799            4 
 2945000   0.77204208   -7.9776938    660.71872  0.018696059  0.018354795            2 
 2946000   0.76924722   -8.0044476    661.36136  0.018707891  0.018348776            2 
 2947000   0.78703412   -8.0068985     661.2353  0.018697978  0.018342746            5 
 2948000   0.78328258   -7.9912993    661.83612  0.018708619  0.018336732            3 
 2949000   0.77412779   -7.9954373    661.26254  0.018686067  0.018330741            1 
 2950000   0.77847722   -8.0079739    662.24459  0.018707474  0.018324752            3 
 2951000   0.77616838   -8.0019783    661.61631  0.018683393  0.018318771            1 
 2952000   0.76572424   -7.9914797     661.5327  0.018674703  0.018312786            2 
 2953000   0.80188712   -8.0132467    661.26406  0.018660799  0.018306818            1 
 2954000   0.76126041   -8.0021369    662.54983  0.018690754  0.018300859            4 
 2955000   0.78538058   -7.9995934    663.57323  0.018713289  0.018294891            1 
 2956000   0.77138897   -7.9818201    662.45968  0.018675566  0.018288915            2 
 2957000   0.77175189   -7.9984294    662.74681  0.018677342  0.018282943            1 
 2958000   0.77598566   -8.0215996    662.18307  0.018655146  0.018276977            4 
 2959000   0.77803028   -7.9899164    662.49455  0.018657614  0.018271032            2 
 2960000   0.78842576    -7.993193    662.08667  0.018639827  0.018265074            4 
 2961000    0.8007411   -8.0013595     661.7721  0.018624679  0.018259135            2 
 2962000   0.77593025   -8.0109161    661.63481  0.018614529   0.01825315            4 
 2963000   0.78130119   -7.9874615     662.3301  0.018627801  0.018247176            2 
 2964000    0.7799559   -7.9934466    662.57923  0.018628521  0.018241216            5 
 2965000   0.79745749   -7.9912108    661.70201  0.018597583  0.018235241            1 
 2966000   0.77030174   -7.9792968     663.8567  0.018651852  0.018229281            4 
 2967000   0.76972884    -8.011942    663.14103  0.018625464  0.018223319            2 
 2968000   0.77871786    -8.000429    663.47997  0.018628705  0.018217354            2 
 2969000   0.77610115   -7.9858909    663.04993  0.018610361  0.018211382            1 
 2970000   0.78522013   -7.9868071    663.10856   0.01860574  0.018205422            2 
 2971000   0.77765346   -8.0078306    662.68813  0.018587685  0.018199486            2 
 2972000   0.78907731    -7.995897    664.06436  0.018620019  0.018193536            2 
 2973000   0.77725959   -8.0033566    661.47732  0.018541241  0.018187593            1 
 2974000   0.78655177   -7.9986059    663.11485  0.018580891  0.018181631            1 
 2975000   0.76276498   -8.0191111    662.79384  0.018565654  0.018175671            1 
 2976000   0.77887126   -8.0170633    662.76114    0.0185585  0.018169697            4 
 2977000   0.78669828   -8.0154573    662.11229  0.018534103  0.018163722            4 
 2978000   0.77654535   -8.0063573     662.9531  0.018551408  0.018157773            2 
 2979000   0.77571267   -7.9964814    662.14089   0.01852246  0.018151829            6 
 2980000   0.78214769   -8.0053384    662.70182   0.01853193  0.018145877            1 
 2981000   0.75094374   -8.0360242    661.33783  0.018487583  0.018139912            4 
 2982000   0.79892173   -8.0143758    662.50103   0.01851389  0.018133969            2 
 2983000   0.76846092   -8.0333782    661.85452  0.018489622  0.018128001            1 
 2984000   0.77864833   -8.0242253    663.79699  0.018537673  0.018122029            3 
 2985000   0.78607318   -8.0488346    662.41358  0.018492841  0.018116045            1 
 2986000   0.75921215   -8.0104906    662.69041  0.018494374  0.018110057            2 
 2987000   0.76852243   -8.0142595    662.44962  0.018481465  0.018104094            3 
 2988000   0.75912733   -8.0244421    662.40337  0.018473989  0.018098136            1 
 2989000   0.79074185   -8.0071422    662.16043  0.018461036  0.018092181            4 
 2990000   0.77702124   -8.0253519    663.09719   0.01848097  0.018086208            2 
 2991000   0.78155205   -8.0305734    661.61861  0.018433596  0.018080237            4 
 2992000   0.75506222   -8.0571931    661.77008  0.018431653   0.01807424            1 
 2993000   0.79235702   -8.0343544    663.48894  0.018473353  0.018068272            4 
 2994000   0.76257224   -8.0453936    662.28491   0.01843367   0.01806233            2 
 2995000   0.76721345   -8.0155836    660.92521  0.018389683  0.018056365            2 
 2996000   0.75608196   -8.0301081      662.911  0.018438779    0.0180504            3 
 2997000   0.77894696   -8.0141361    662.06486    0.0184091  0.018044448            2 
 2998000   0.76748707   -8.0199474    662.44146  0.018413427  0.018038467            3 
 2999000   0.77145576   -8.0415322    663.61045   0.01843977  0.018032475            2 
 3000000   0.75961359   -8.0263601    662.52745   0.01840354  0.018026513            1 
 3001000   0.76972343   -8.0267614     662.5036  0.018396746  0.018020558            3 
 3002000   0.76962559   -7.9956739    662.76259  0.018397807  0.018014622            1 
 3003000   0.75606463   -7.9972042    665.26133   0.01846102  0.018008699            2 
 3004000   0.77393556   -8.0289535    662.21744  0.018370435   0.01800275            2 
 3005000   0.76509711    -8.054096    661.73875  0.018351047   0.01799681            2 
 3006000    0.7614045   -8.0370581    662.45067  0.018364678  0.017990845            1 
 3007000   0.77493986   -8.0485333    661.36287  0.018328424  0.017984878            1 
 3008000   0.76657275   -8.0283095      663.113  0.018370817    0.0179789            2 
 3009000   0.76836901   -8.0142171    662.28842  0.018341875  0.017972945            1 
 3010000   0.76757815   -8.0083707    662.16711  0.018332423  0.017967007            2 
 3011000     0.779941   -8.0294043    663.69552  0.018368635  0.017961071            1 
 3012000   0.76135175   -8.0096929    663.41079  0.018354659  0.017955126            1 
 3013000   0.78108602   -8.0272545    663.64204  0.018354963  0.017949186            3 
 3014000   0.77545964   -8.0400678    662.50202  0.018317353  0.017943238            3 
 3015000    0.7936161    -8.033607    662.95459  0.018323786  0.017937278            1 
 3016000   0.78281333   -8.0511442     663.2032   0.01832458  0.017931313            1 
 3017000   0.77529861   -8.0731226    661.65021  0.018275611  0.017925332            3 
 3018000   0.75576409   -8.0354376    662.07756  0.018281355  0.017919351            2 
 3019000    0.7592695   -8.0346532    663.38901    0.0183115  0.017913418            3 
 3020000   0.76363648   -8.0266361    664.11184  0.018325382  0.017907496            2 
 3021000   0.76051383   -8.0669398      662.885  0.018285474   0.01790156            2 
 3022000    0.7615904   -8.0482338    662.34851  0.018264629  0.017895612            2 
 3023000   0.77154788   -8.0590688    662.77624  0.018270378  0.017889673            2 
 3024000   0.76923608   -8.0433341    664.07382  0.018300094  0.017883741            1 
 3025000   0.76284748   -8.0441526    662.93991  0.018262808  0.017877809            3 
 3026000   0.77785795   -8.0252981    664.38128  0.018296466  0.017871905            3 
 3027000   0.78284976   -8.0069827    665.38606  0.018318083   0.01786602            1 
 3028000   0.78447159   -8.0258908    665.20708  0.018307108  0.017860137            2 
 3029000    0.7646784   -8.0182511     663.3961  0.018251241  0.017854269            2 
 3030000   0.76765089   -8.0499634    663.66883  0.018252718  0.017848382            1 
 3031000   0.74079357   -8.0270436    665.28445  0.018291115  0.017842504            2 
 3032000   0.76795928   -8.0240552     664.7427  0.018270193  0.017836639            1 
 3033000   0.75441804   -8.0194211    664.98804   0.01827091  0.017830766            2 
 3034000   0.76177799   -8.0333212      663.022  0.018210888  0.017824901            1 
 3035000   0.77240137   -8.0112695    664.95663  0.018258008  0.017819025            4 
 3036000   0.77121711   -8.0364243    664.70703  0.018245142  0.017813168            5 
 3037000   0.76110836   -8.0115163    665.64186  0.018264786  0.017807322            1 
 3038000   0.76723668   -8.0224374    666.30979  0.018277095  0.017801474            3 
 3039000   0.75942482   -8.0440126    665.02518  0.018235855    0.0177956            2 
 3040000   0.78801338   -8.0423142    664.64545  0.018219448  0.017789728            1 
 3041000   0.76953534   -8.0418807    663.69662  0.018187455  0.017783871            1 
 3042000   0.78264136   -8.0303127    664.91731  0.018214916  0.017778017            2 
 3043000   0.75867414   -8.0319423     665.2424  0.018217833  0.017772164            2 
 3044000   0.76096908   -8.0413831     664.4294  0.018189591  0.017766334            1 
 3045000   0.76191109   -8.0308147    663.66767  0.018162772  0.017760484            1 
 3046000   0.75149344   -8.0423379    664.51863   0.01818009  0.017754653            2 
 3047000   0.75724649   -8.0213486    666.44837    0.0182269  0.017748834            2 
 3048000   0.78105104   -8.0359507    664.49118   0.01816741  0.017743001            1 
 3049000   0.76828004   -8.0422747    665.37018  0.018185476  0.017737168            2 
 3050000   0.78233161    -8.067865    663.72015   0.01813443  0.017731326            1 
 3051000   0.74610771   -8.0434779    664.42362  0.018147701  0.017725458            2 
 3052000   0.75897163    -8.056509    665.46021  0.018170058  0.017719618            2 
 3053000   0.76804375   -8.0689874    664.56317  0.018139621  0.017713788            2 
 3054000     0.749778   -8.0564598      665.101  0.018148357  0.017707936            3 
 3055000   0.74962744   -8.0267502    664.82933  0.018135006   0.01770209            2 
 3056000   0.76298847    -8.040422    664.95271  0.018132437  0.017696295            1 
 3057000   0.77084655   -8.0343128    666.01287  0.018155405  0.017690487            3 
 3058000   0.76790729    -8.048531    664.72801  0.018114454  0.017684683            2 
 3059000   0.77201707   -8.0393238    664.90021  0.018113224  0.017678871            2 
 3060000   0.76984524    -8.036607      664.968   0.01810915  0.017673054            3 
 3061000   0.75506296   -8.0352636    664.97609  0.018103455  0.017667263            1 
 3062000   0.77683486   -8.0530707    665.01247  0.018098532   0.01766147            1 
 3063000    0.7677461   -8.0456677    664.57757  0.018080791  0.017655669            3 
 3064000   0.76368962    -8.042759    664.81572  0.018081368  0.017649862            2 
 3065000   0.74812326   -8.0330047    666.22204  0.018113704  0.017644054            2 
 3066000   0.76755888   -8.0444682    665.25325  0.018081465  0.017638253            2 
 3067000   0.74269421   -8.0360842    666.21366  0.018101664  0.017632469            2 
 3068000   0.75030963   -8.0560838    665.14748  0.018066805   0.01762669            2 
 3069000   0.77426056   -8.0578897     666.5323   0.01809852  0.017620913            1 
 3070000    0.7546276   -8.0265317    665.05768  0.018052597  0.017615141            2 
 3071000    0.7588952   -8.0386498    665.31333  0.018053656  0.017609376            2 
 3072000   0.76071775    -8.041935    666.15841  0.018070703  0.017603615            6 
 3073000   0.76163407   -8.0332757    666.45155  0.018072772  0.017597865            3 
 3074000   0.74759981   -8.0663109    664.58223  0.018016218  0.017592085            2 
 3075000   0.76334389   -8.0433424    664.95528  0.018020468  0.017586305            2 
 3076000   0.76292839   -8.0697494    666.11407  0.018046003  0.017580526            2 
 3077000   0.76315733   -8.0530469    666.23515  0.018043418  0.017574745            1 
 3078000   0.75266717   -8.0536582    665.68493  0.018022659  0.017568966            2 
 3079000   0.76189439   -8.0624599    665.25437  0.018005152   0.01756318            3 
 3080000   0.75959844   -8.0527195    667.16688  0.018051052  0.017557406            2 
 3081000   0.74002087   -8.0509161    666.32482  0.018022418  0.017551657            2 
 3082000   0.76008904   -8.0607872    666.67215  0.018025961  0.017545865            2 
 3083000   0.74718086   -8.0350408    667.88257  0.018052832  0.017540103            3 
 3084000   0.74938099   -8.0138625    666.11468  0.017999208  0.017534345            3 
 3085000   0.76502165   -8.0516912     665.8746  0.017986888  0.017528581            2 
 3086000   0.76169809   -8.0830931    666.78805  0.018005726  0.017522814            3 
 3087000   0.76313504   -8.0406011    665.76524  0.017972283  0.017517019            2 
 3088000   0.75376925   -8.0555173    665.59525  0.017961875  0.017511238            2 
 3089000   0.74663305   -8.0550459    666.42369   0.01797841  0.017505459            2 
 3090000   0.74779017   -8.0586845    666.09548   0.01796374  0.017499692            1 
 3091000   0.76024622   -8.0646075    665.83769  0.017950978  0.017493943            1 
 3092000   0.74639011   -8.0460697    666.03152  0.017950397   0.01748821            1 
 3093000   0.76124631   -8.0405336    666.97252  0.017969946  0.017482453            5 
 3094000   0.75201265   -8.0655943    667.41583  0.017976078  0.017476692            2 
 3095000   0.75561343   -8.0447373    666.15699  0.017936376  0.017470916            2 
 3096000   0.77255673    -8.049445    666.44185   0.01793825  0.017465158            5 
 3097000   0.77415153   -8.0793297    666.81595  0.017942524  0.017459403            3 
 3098000   0.74972495   -8.0703722    665.80111  0.017909434  0.017453657            2 
 3099000   0.75075378   -8.0444824    666.47678  0.017921824  0.017447893            1 
 3100000   0.75412818   -8.0502975    665.69987  0.017895158  0.017442138            5 
 3101000   0.76373782   -8.0394143    666.36871  0.017907361  0.017436404            2 
 3102000   0.75465384   -8.0553732    665.79663  0.017886219  0.017430673            2 
 3103000   0.76274959   -8.0560794    666.09715  0.017888526  0.017424933            4 
 3104000    0.7519544   -8.0395774    667.51175  0.017920741  0.017419206            4 
 3105000   0.75622362   -8.0723408    665.76447  0.017868075   0.01741343            1 
 3106000   0.75894263   -8.0935049    666.40325   0.01787946   0.01740766            3 
 3107000   0.75737465   -8.0617435    666.67204  0.017880915    0.0174019            2 
 3108000   0.76537843   -8.0616362    665.50299  0.017843817  0.017396135            3 
 3109000   0.75131946   -8.0673383    666.48914   0.01786451  0.017390423            2 
 3110000   0.75866999   -8.0387463    668.20912  0.017904853  0.017384711            1 
 3111000   0.75071079   -8.0518929    668.07336  0.017895461     0.017379            3 
 3112000   0.75310517   -8.0490379    667.93123  0.017885905  0.017373278            2 
 3113000   0.75050293   -8.0504296    667.83382  0.017877552  0.017367566            3 
 3114000    0.7424127   -8.0496185    667.53147   0.01786372  0.017361862            3 
 3115000   0.75663588   -8.0670093    667.10135  0.017846478   0.01735615            4 
 3116000    0.7606512   -8.0856266      668.267  0.017871925  0.017350449            2 
 3117000   0.73798309   -8.0737049    666.48012  0.017818418  0.017344745            3 
 3118000   0.74970293    -8.017089    668.56132  0.017868327  0.017339055            1 
 3119000   0.76311114   -8.0524866    667.79543  0.017842135  0.017333357            1 
 3120000   0.74212244   -8.0537262    667.33327  0.017824072  0.017327664            1 
 3121000   0.75389274    -8.088759    667.09748  0.017812066  0.017321966            3 
 3122000   0.75460906   -8.0796311    666.65212  0.017794472  0.017316254            1 
 3123000   0.75091402   -8.0545967    668.41906  0.017835923  0.017310544            2 
 3124000   0.76285231   -8.0809717    666.75428  0.017785806  0.017304857            2 
 3125000   0.76543965    -8.065014     667.4431  0.017798483  0.017299196            3 
 3126000   0.75441253   -8.0659724    667.04136  0.017782079  0.017293514            2 
 3127000   0.74623413   -8.0639725     667.0613  0.017776924  0.017287834            2 
 3128000   0.75791608   -8.0627303    667.98563  0.017795866  0.017282148            5 
 3129000   0.77210878     -8.05859    666.90806   0.01776148  0.017276473            2 
 3130000   0.75970844   -8.0713569    668.74353  0.017804673   0.01727081            2 
 3131000   0.74266345   -8.0591191    667.91138  0.017776839  0.017265162            2 
 3132000   0.77119464   -8.0750334    668.40125  0.017784197  0.017259506            2 
 3133000   0.73841176   -8.0970532    666.52282  0.017728557  0.017253837            4 
 3134000   0.73691965   -8.0922343    666.42312  0.017720249  0.017248169            2 
 3135000   0.75674296   -8.0609716    667.72016  0.017749074  0.017242487            1 
 3136000   0.75443748   -8.0753244    667.81643  0.017745972  0.017236832            3 
 3137000   0.73611225   -8.0780497    668.42161  0.017756392  0.017231187            2 
 3138000   0.74117369   -8.0424485    669.28906  0.017773769  0.017225535            3 
 3139000   0.74881496   -8.0527695    669.10766  0.017763291  0.017219882            2 
 3140000   0.76639176   -8.0861772    665.39603   0.01765913  0.017214208            4 
 3141000   0.74283232    -8.060742    668.26043  0.017729503   0.01720854            2 
 3142000   0.75217581    -8.086511     667.2729  0.017697669  0.017202855            1 
 3143000   0.74827595   -8.0655286    668.97405  0.017737142  0.017197197            2 
 3144000   0.74875732   -8.0360387    668.19953  0.017710971  0.017191551            1 
 3145000   0.76472294   -8.0714509    667.85821  0.017696296  0.017185907            4 
 3146000   0.73598416   -8.0683554    668.18788  0.017699403  0.017180241            3 
 3147000   0.75266724   -8.0764189     667.9199  0.017686683  0.017174578            2 
 3148000   0.73410632   -8.0872902    668.70912  0.017701957  0.017168926            1 
 3149000   0.73397573   -8.0905124    669.47608  0.017716632  0.017163273            2 
 3150000   0.74848706   -8.0801494    668.65687  0.017689335  0.017157607            2 
 3151000    0.7484537   -8.0944334    667.54469  0.017654308  0.017151966            3 
 3152000   0.75926516    -8.085748     668.6784   0.01767868  0.017146345            2 
 3153000   0.74305741   -8.0796923    670.20699  0.017713474  0.017140724            2 
 3154000   0.75368997   -8.1089691    667.99471  0.017649406  0.017135086            3 
 3155000   0.74620804    -8.073458    667.57947  0.017632844  0.017129474            2 
 3156000   0.73989079   -8.0710034     668.3642  0.017647977   0.01712385            2 
 3157000   0.75027661   -8.1106656    669.24941  0.017665754  0.017118237            3 
 3158000   0.74815507   -8.0731812    667.90311  0.017624633  0.017112618            2 
 3159000   0.75665093   -8.0957412    669.47577   0.01766054     0.017107            3 
 3160000   0.75546814   -8.0826416    668.85979  0.017638708   0.01710139            3 
 3161000    0.7448169   -8.0817633    668.90693   0.01763437  0.017095787            1 
 3162000   0.75695561   -8.0928907    667.44376  0.017590232  0.017090184            3 
 3163000    0.7354523   -8.0792088    669.65125   0.01764283  0.017084572            6 
 3164000   0.74138712   -8.0635273    668.20306  0.017599111  0.017078955            2 
 3165000   0.75351292   -8.0882044    669.32782  0.017623165  0.017073333            2 
 3166000   0.75243288    -8.098923    668.75217  0.017602447  0.017067703            1 
 3167000   0.76208329   -8.0871565    668.12158  0.017580296  0.017062053            3 
 3168000   0.74367512   -8.0825227    668.42537  0.017582738  0.017056411            3 
 3169000   0.73973989    -8.084149     668.2091  0.017571503  0.017050752            3 
 3170000   0.74384386   -8.1125285    667.28008  0.017541537  0.017045087            1 
 3171000   0.75552551    -8.124763    669.33481  0.017590003  0.017039429            5 
 3172000      0.75262   -8.1347424    668.57988  0.017564625  0.017033764            2 
 3173000   0.75678161    -8.126785    668.51305  0.017557334  0.017028109            2 
 3174000   0.74430374    -8.081011    668.55381  0.017552873  0.017022509            1 
 3175000    0.7527321   -8.0824127     669.7284  0.017578173  0.017016899            3 
 3176000   0.76456661   -8.0875053    669.30505  0.017561531  0.017011283            4 
 3177000   0.74177441   -8.0996035    670.49837  0.017587304  0.017005665            2 
 3178000   0.74922378   -8.1029276    668.86771  0.017539011  0.017000043            1 
 3179000   0.74720488   -8.1272419     668.0981  0.017513319  0.016994427            2 
 3180000   0.73371689   -8.1051017    668.24683  0.017511709  0.016988803            3 
 3181000   0.73873924   -8.1076344    670.00745  0.017552328   0.01698321            2 
 3182000   0.72568905   -8.0904746    667.98642  0.017493883  0.016977618            1 
 3183000   0.75471905   -8.0761363    671.52007    0.0175809  0.016972047            2 
 3184000   0.74134112   -8.1018642    668.40443  0.017493835  0.016966475            3 
 3185000   0.73078242   -8.0770153    671.29198  0.017563893  0.016960902            2 
 3186000   0.73712306   -8.1095027    669.54635  0.017512721   0.01695537            3 
 3187000   0.72820506   -8.0845188    670.25171   0.01752567  0.016949831            1 
 3188000   0.74530926    -8.117857    669.08338  0.017489632  0.016944295            2 
 3189000   0.75154713   -8.0931389    671.01271  0.017534564  0.016938768            2 
 3190000   0.77611659   -8.0789675    670.04561  0.017503804  0.016933243            1 
 3191000   0.75128683   -8.1124776    669.82076  0.017492447    0.0169277            5 
 3192000   0.73628262   -8.0832488    669.04394  0.017466686  0.016922142            2 
 3193000   0.74888996   -8.0996109    670.47453  0.017498552  0.016916597            1 
 3194000   0.74835372   -8.0999535    670.57151  0.017495604  0.016911067            2 
 3195000   0.74892084   -8.1010142    671.89996  0.017524777  0.016905536            1 
 3196000   0.74201413   -8.0829785    669.69282  0.017461744  0.016900011            2 
 3197000   0.74408442   -8.0919212      669.444  0.017449797  0.016894491            3 
 3198000    0.7325136   -8.1114964    669.44124  0.017444268  0.016888956            1 
 3199000   0.73839587   -8.0973842    668.53535  0.017415217  0.016883411            1 
 3200000   0.73176072   -8.1000516    667.65222  0.017386777  0.016877875            1 
 3201000   0.73818854   -8.0821772    669.97254  0.017441751  0.016872329            3 
 3202000   0.74778289     -8.09488    668.85858  0.017407313  0.016866785            3 
 3203000   0.74479759   -8.1094432    670.38828  0.017441677   0.01686122            2 
 3204000   0.75564657   -8.1064786     669.6767  0.017417725  0.016855677            2 
 3205000   0.74152133    -8.104088    671.17961  0.017451368  0.016850145            3 
 3206000   0.74514874   -8.1233262    669.41096  0.017399952  0.016844591            2 
 3207000   0.74113652   -8.0809571    669.11487  0.017386833  0.016839018            1 
 3208000   0.75610379   -8.0913982    670.17574  0.017408971  0.016833466            2 
 3209000   0.74577181   -8.0733362    668.26727  0.017353985  0.016827939            2 
 3210000   0.75060245   -8.0908039     670.4519  0.017405293  0.016822405            2 
 3211000   0.72610907   -8.1156997    669.91299  0.017385887  0.016816861            2 
 3212000   0.73579136   -8.0824728    669.88961  0.017379867  0.016811304            7 
 3213000   0.73198881   -8.1136031    669.75305  0.017370916  0.016805756            2 
 3214000   0.73356065   -8.1199763    669.65881  0.017363068  0.016800203            4 
 3215000   0.73545687   -8.1281507    671.61634  0.017408407  0.016794637            2 
 3216000   0.73144556   -8.1206988    669.82995  0.017356705  0.016789085            4 
 3217000   0.73641053   -8.1013706    670.55307  0.017370041  0.016783558            2 
 3218000   0.74373978   -8.0864471    670.72393  0.017369068  0.016778049            1 
 3219000   0.72394888   -8.1102041    670.62707  0.017361165  0.016772512            3 
 3220000   0.72177167   -8.1011401     670.0361  0.017340479  0.016766988            1 
 3221000   0.76584682   -8.1059712    669.57307  0.017323116  0.016761477            4 
 3222000   0.72090308   -8.1071709     668.9021  0.017300385   0.01675596            3 
 3223000   0.72845001   -8.1063585    669.46172  0.017309487  0.016750431            2 
 3224000   0.74154571   -8.1150757    668.59247   0.01728165  0.016744891            1 
 3225000   0.74419061   -8.1243463    668.45052  0.017272623   0.01673933            4 
 3226000   0.72587148   -8.1034469    670.00642  0.017307461  0.016733781            3 
 3227000   0.73819436   -8.0973534    670.30327  0.017309763  0.016728242            2 
 3228000   0.73491729   -8.1308813    669.26298  0.017277545  0.016722686            7 
 3229000     0.736191    -8.135456    670.29943  0.017298943  0.016717124            4 
 3230000    0.7390201    -8.101356    669.24195  0.017266304   0.01671159            2 
 3231000   0.73946503   -8.0859232    670.26735  0.017287407  0.016706057            2 
 3232000   0.73463803    -8.112912    669.24154  0.017255609  0.016700519            2 
 3233000   0.75059306   -8.1210841    669.93364  0.017268111  0.016694981            2 
 3234000   0.73243856   -8.0945345    670.02816  0.017265207  0.016689449            2 
 3235000   0.75176365   -8.1160814     670.0675  0.017260883  0.016683923            3 
 3236000   0.74713371    -8.124585    669.47208  0.017240216  0.016678382            2 
 3237000   0.72796012   -8.1216903    669.34773  0.017231689  0.016672853            3 
 3238000   0.73475153   -8.1151999    669.51402  0.017230647  0.016667318            2 
 3239000   0.74251995   -8.1162859    668.89617  0.017209431  0.016661799            3 
 3240000   0.72560976   -8.1496533    669.95315  0.017231305  0.016656261            2 
 3241000   0.75096048   -8.1244273    670.34996  0.017236192  0.016650731            4 
 3242000   0.71400282   -8.1437171    668.09972  0.017173034  0.016645195            3 
 3243000   0.71585426   -8.1265119    668.04946  0.017166447  0.016639653            5 
 3244000   0.72610176   -8.1127875    670.35747  0.017220445  0.016634109            3 
 3245000   0.74591629   -8.1282508    670.22113  0.017211637  0.016628575            1 
 3246000   0.72897889   -8.1036645    669.11459  0.017177926  0.016623049            3 
 3247000   0.72780468   -8.1306463    668.57511   0.01715879  0.016617504            3 
 3248000     0.744499   -8.1250508    668.87765   0.01716127  0.016611969            2 
 3249000   0.72801468   -8.1210357    668.41746  0.017144184  0.016606443            3 
 3250000   0.73841365   -8.1294683     669.0013   0.01715388  0.016600908            2 
 3251000   0.73113327   -8.1276603    668.26941  0.017129842  0.016595366            1 
 3252000   0.73250987    -8.128714    669.32822  0.017151707  0.016589848            2 
 3253000   0.74498538   -8.1436374    668.24069  0.017118575  0.016584315            3 
 3254000   0.74242083   -8.1427707    669.21635    0.0171383  0.016578775            3 
 3255000   0.73189073   -8.1397977     668.5805  0.017116756  0.016573247            2 
 3256000   0.73396897   -8.1121229    670.58607  0.017162829  0.016567737            1 
 3257000   0.72744742   -8.1268351    670.23871  0.017148672  0.016562214            2 
 3258000   0.74372956   -8.1566021    668.76091   0.01710561  0.016556649            3 
 3259000   0.72483729   -8.1446788    668.64301  0.017097346  0.016551095            1 
 3260000   0.73090361   -8.1178762    670.25282  0.017133252  0.016545556            2 
 3261000   0.72733432   -8.1408497    668.42323  0.017081244  0.016540007            1 
 3262000   0.73350828   -8.1199964    667.61431  0.017055342  0.016534472            4 
 3263000   0.74232481   -8.1199886    669.72903  0.017104123   0.01652894            2 
 3264000   0.72978619   -8.1214358    670.06944  0.017107573  0.016523416            2 
 3265000   0.72611938   -8.1338185    669.15668  0.017079037  0.016517883            2 
 3266000   0.71490426    -8.110937    670.50913  0.017108316  0.016512354            1 
 3267000   0.72860588   -8.1541573    668.98971  0.017064323  0.016506809            3 
 3268000   0.71909751   -8.1418398    668.15103  0.017037715   0.01650127            2 
 3269000   0.71728458   -8.1264951    667.58788  0.017018147  0.016495729            1 
 3270000   0.72317762   -8.1387105    670.24265  0.017080598  0.016490188            1 
 3271000   0.72285554   -8.1392314    668.70239  0.017036135  0.016484663            2 
 3272000   0.75802467   -8.1199263    667.72152  0.017005948  0.016479136            4 
 3273000   0.69822988   -8.1204019    668.80243  0.017028273  0.016473596            2 
 3274000   0.72926797    -8.127655    669.50565  0.017040971  0.016468059            2 
 3275000   0.73521283   -8.1359691    666.75073  0.016965667  0.016462525            1 
 3276000   0.75098755   -8.1544101    669.17831   0.01702224  0.016456979            2 
 3277000   0.72443536    -8.139286     669.4058  0.017022831  0.016451444            1 
 3278000   0.72258969   -8.1436803    671.77419  0.017077847  0.016445926            1 
 3279000   0.72049578   -8.1213436     669.3157  0.017010158  0.016440385            1 
 3280000    0.7396307   -8.1418652    671.19713  0.017052773  0.016434869            2 
 3281000   0.72307419   -8.1511392    668.33357  0.016974844  0.016429357            3 
 3282000   0.71995294   -8.1479148    669.36632  0.016995895  0.016423831            3 
 3283000   0.73992227   -8.1748242     669.5896  0.016996385  0.016418306            2 
 3284000   0.72616949   -8.1485232    670.23479  0.017007582  0.016412777            3 
 3285000   0.73974867   -8.1615159    668.79833  0.016965965   0.01640725            1 
 3286000   0.72564882   -8.1159316    668.76267  0.016959897  0.016401736            2 
 3287000   0.70780432    -8.127098    668.96136  0.016959775  0.016396213            5 
 3288000   0.72648329   -8.1040595    668.95717  0.016954511  0.016390688            3 
 3289000   0.72733264   -8.1686733    666.87231  0.016896532  0.016385172            4 
 3290000   0.71506759   -8.1319158    669.13401  0.016948683  0.016379652            3 
 3291000   0.72153529   -8.1403155     669.3417  0.016948792  0.016374148            4 
 3292000   0.71856456   -8.1322045    668.94664  0.016933643  0.016368632            2 
 3293000   0.73632178   -8.1548786    670.25423  0.016961591  0.016363143            2 
 3294000   0.73360751   -8.1509792    669.69232  0.016942226  0.016357646            2 
 3295000   0.73585937   -8.1421125    669.11799  0.016922559  0.016352149           10 
 3296000   0.72703467   -8.1477424    669.32589  0.016922681   0.01634663            1 
 3297000    0.7240466   -8.1546027    669.59464  0.016924341  0.016341112            5 
 3298000   0.73711974   -8.1359308    669.29463  0.016911629  0.016335614            1 
 3299000   0.72661046   -8.1740704    668.11111  0.016876607  0.016330114            4 
 3300000    0.7181445   -8.1576924      670.012  0.016919495  0.016324606            2 
 3301000   0.73108492   -8.1641234    669.23028  0.016894635  0.016319118            1 
 3302000   0.70573083   -8.1358768     669.9867  0.016908609  0.016313623            2 
 3303000   0.73700972     -8.14237    669.22391  0.016884244  0.016308116            4 
 3304000   0.71574526   -8.1440587    669.43735  0.016884517  0.016302633            1 
 3305000   0.72453201    -8.157674    668.31113  0.016851012  0.016297131            3 
 3306000   0.73101699   -8.1663746    668.91194  0.016861059   0.01629163            2 
 3307000   0.70049733   -8.1386048     670.5015  0.016896016  0.016286156            3 
 3308000   0.72211786   -8.1018935    670.44415  0.016889464   0.01628067            1 
 3309000   0.72699634   -8.1436684    669.61536  0.016863488  0.016275188            2 
 3310000   0.72700286   -8.1380458     670.0929  0.016870415  0.016269702            2 
 3311000   0.73449878   -8.1375313    670.37726  0.016872477  0.016264221            1 
 3312000   0.72414613   -8.1661818    669.21477  0.016838133  0.016258744            2 
 3313000   0.71932024   -8.1682182    669.63487  0.016843618  0.016253245            4 
 3314000   0.73277559   -8.1550753      670.726  0.016865973  0.016247754            1 
 3315000   0.72496773   -8.1540176    668.99096  0.016817269  0.016242277            2 
 3316000   0.71171565   -8.1565256    668.75996  0.016806392  0.016236794            2 
 3317000   0.71196865   -8.1587255    669.11454  0.016810234  0.016231327            2 
 3318000   0.74075698    -8.177455     670.4815  0.016839499  0.016225845            2 
 3319000   0.72474241   -8.1531999    669.26011  0.016803759  0.016220368            3 
 3320000   0.71034747   -8.1917537    669.14546   0.01679582  0.016214888            2 
 3321000   0.72399844   -8.1584903    669.32392   0.01679524  0.016209393            2 
 3322000   0.71077444   -8.1568054    669.49082  0.016794371  0.016203899            1 
 3323000   0.73232132   -8.1441975    670.23852  0.016808068  0.016198435            2 
 3324000   0.73493283   -8.1564421    669.75224   0.01679082  0.016192969            4 
 3325000   0.72670852   -8.1743089    668.47025   0.01675364  0.016187499            7 
 3326000   0.71690171   -8.1554818    668.05935  0.016738308  0.016182023            2 
 3327000   0.71949815    -8.149335    669.12402  0.016759944  0.016176544            4 
 3328000   0.71985844   -8.1519312    669.73477  0.016770202   0.01617109            5 
 3329000   0.70651488   -8.1738356    669.70528  0.016764426  0.016165612            3 
 3330000   0.70048705   -8.1851235    668.92456  0.016739854   0.01616015            4 
 3331000    0.7263159    -8.163904    669.08776  0.016738911  0.016154693            2 
 3332000   0.71176863   -8.1769457     669.1943  0.016736552  0.016149228            2 
 3333000   0.72268216   -8.1610054     669.1433  0.016730255  0.016143774            6 
 3334000   0.71079572   -8.1872814    669.95622  0.016745556  0.016138321            3 
 3335000   0.71413073   -8.1570489    671.26895  0.016773337  0.016132878            4 
 3336000   0.72147179   -8.1711791    669.45125  0.016722903  0.016127439            3 
 3337000   0.71444056   -8.1753347    669.06325  0.016708202  0.016121983            2 
 3338000   0.71615317   -8.1621008    670.05558   0.01672797  0.016116542            3 
 3339000    0.7272399    -8.174139    670.13624  0.016724974  0.016111096            1 
 3340000   0.72280917   -8.1726923    669.87998  0.016713572  0.016105648            3 
 3341000    0.7149721   -8.1582979    670.07939  0.016713544    0.0161002            1 
 3342000   0.70559803   -8.1470635    671.03463  0.016732362  0.016094768            4 
 3343000   0.72827104    -8.145723    670.73917  0.016719991  0.016089337            2 
 3344000   0.70184335   -8.1758178      669.218  0.016677083  0.016083911            2 
 3345000   0.71824413   -8.1752387     669.9223  0.016689644  0.016078478            4 
 3346000   0.71395014   -8.1559155    670.72122  0.016704553  0.016073069            3 
 3347000   0.72036076    -8.171372    670.15295  0.016685414   0.01606767            2 
 3348000   0.72148345   -8.1786727    669.99346   0.01667646   0.01606226            1 
 3349000   0.71224841   -8.1567152    671.12578  0.016699656  0.016056862            3 
 3350000   0.70156087   -8.1393336    670.79019  0.016686323  0.016051472            4 
 3351000   0.72200568   -8.1776721    670.99317  0.016686391  0.016046078            2 
 3352000   0.69183052   -8.1604414    669.54188  0.016645333  0.016040681            3 
 3353000   0.70524847   -8.1606433    670.27423   0.01665857  0.016035284            2 
 3354000   0.70585674   -8.1571279    669.69265  0.016639154  0.016029899            5 
 3355000   0.71200058   -8.1603784    671.63897  0.016682538    0.0160245            3 
 3356000   0.71466341   -8.1673866    671.20541  0.016666801  0.016019116            2 
 3357000   0.71850536   -8.2005625    669.26347   0.01661363  0.016013725            3 
 3358000   0.72472675   -8.1796228    669.78879  0.016621719  0.016008339            3 
 3359000   0.72544833   -8.1761654    671.56396  0.016660811  0.016002956            3 
 3360000   0.71920161   -8.1778956     671.2605  0.016648326  0.015997566            2 
 3361000   0.71861821   -8.1722319    670.55552  0.016625893  0.015992179            2 
 3362000   0.71089162   -8.1697099    671.55088   0.01664562  0.015986796            1 
 3363000   0.70604768   -8.1809136    671.53889  0.016640373   0.01598141            4 
 3364000   0.72028889   -8.1788146    670.47634  0.016609105   0.01597604            1 
 3365000    0.7039527   -8.1888287    670.42662  0.016602938  0.015970666            2 
 3366000   0.70214244   -8.1779523    671.24047  0.016618154    0.0159653            1 
 3367000   0.71369608   -8.1829017    671.62854  0.016622823  0.015959939            1 
 3368000   0.71961954   -8.1841053    670.92909  0.016600581  0.015954556            4 
 3369000   0.70679173    -8.194758    670.41871  0.016583029  0.015949186            2 
 3370000    0.7132522   -8.1844718    669.71234  0.016560641  0.015943814            3 
 3371000   0.70663071   -8.2037114    670.04265  0.016563894  0.015938433            2 
 3372000    0.7073307   -8.1825486    671.77093  0.016601694  0.015933069            3 
 3373000   0.71712573   -8.1721688    671.11669  0.016580608  0.015927701            3 
 3374000   0.69438212   -8.1851588    669.79775  0.016543118  0.015922355            2 
 3375000   0.71061492   -8.1775923    669.98579  0.016542859  0.015917008            1 
 3376000    0.7094755   -8.1716247    670.75973  0.016557063  0.015911653            2 
 3377000   0.71319865   -8.1919455     670.9134  0.016555952  0.015906286            2 
 3378000   0.69860019   -8.1619228    671.71562  0.016570841  0.015900937            2 
 3379000   0.71087305   -8.1704161    670.00051  0.016523639  0.015895575            2 
 3380000    0.7162829   -8.1750408    670.39949  0.016528587  0.015890248            1 
 3381000   0.68629557   -8.1700739    670.94225  0.016537076    0.0158849            1 
 3382000   0.72541181   -8.1542201    671.60568  0.016548533  0.015879564            1 
 3383000   0.68479711   -8.1556416    670.91821  0.016526707  0.015874238            2 
 3384000   0.72073679   -8.1897853    670.25713  0.016505544  0.015868907            2 
 3385000   0.72848169   -8.1486552    671.50975  0.016531505  0.015863568            2 
 3386000   0.71571984   -8.1995141    670.65633   0.01650562  0.015858225            2 
 3387000   0.72727892   -8.1680333    671.37175  0.016518348  0.015852881            2 
 3388000   0.69422739   -8.1779644    669.52312  0.016468003  0.015847547            3 
 3389000   0.71358822   -8.1792375    671.37138  0.016508591  0.015842207            3 
 3390000   0.70054927   -8.1870366    670.75327  0.016488527  0.015836873            3 
 3391000   0.71301462   -8.1862647    671.06037  0.016491211  0.015831556            1 
 3392000   0.71995932   -8.2062909    669.34067  0.016444101   0.01582621            2 
 3393000   0.71769666   -8.2259251    669.62466  0.016446229  0.015820845            2 
 3394000    0.7185632   -8.1909277    670.92273  0.016473255  0.015815508            2 
 3395000    0.6956413    -8.202437    669.35513  0.016429925  0.015810155            1 
 3396000   0.69916543   -8.2031733    669.67169  0.016432855  0.015804827            3 
 3397000   0.72236362   -8.1741031    669.58904   0.01642599  0.015799495            5 
 3398000   0.70577544   -8.1821115    671.55906  0.016469469  0.015794175            4 
 3399000   0.69589572   -8.1640367    670.65767  0.016442524  0.015788848            3 
 3400000   0.71134974   -8.1835276     668.8528  0.016393451  0.015783527            1 
 3401000   0.70882868   -8.2000203    671.01842  0.016441694  0.015778191            3 
 3402000   0.70023614   -8.2122098     669.5499  0.016400889  0.015772852            3 
 3403000   0.70102596   -8.2014285    671.12297  0.016434591   0.01576753            3 
 3404000   0.70954786   -8.1856864    669.73833  0.016395866  0.015762199            4 
 3405000   0.72018294   -8.2084557    670.09205  0.016399708  0.015756851            4 
 3406000   0.70304262   -8.2072525    669.71786  0.016385737  0.015751502            2 
 3407000    0.7265262   -8.1715775    670.48045  0.016399581  0.015746152            4 
 3408000   0.70604176    -8.187564    670.11737   0.01638589  0.015740813            1 
 3409000    0.7265528   -8.1650674    672.08585  0.016429203  0.015735487            3 
 3410000    0.7124496   -8.1801688    671.05303  0.016399146  0.015730155            3 
 3411000   0.68866022   -8.1999831    670.66861  0.016384946  0.015724825            3 
 3412000   0.69878436   -8.2031218    670.90499  0.016385917  0.015719496            4 
 3413000   0.70870334   -8.1798197    669.57632  0.016348675  0.015714178            1 
 3414000   0.71471169   -8.1757105    670.12132  0.016357189  0.015708843            1 
 3415000   0.69606359   -8.1599267    670.33418  0.016357594  0.015703518            1 
 3416000   0.72044078    -8.196856    669.22612  0.016325774  0.015698179            2 
 3417000   0.70384765   -8.1854121    669.61169  0.016330399  0.015692853            3 
 3418000   0.71239516   -8.2129781    669.09275  0.016312969  0.015687519            2 
 3419000   0.72059975    -8.173582    669.53121  0.016318885  0.015682186            2 
 3420000   0.70551582   -8.1988231    670.80346  0.016345114  0.015676859            3 
 3421000   0.71774933   -8.2134631    669.32138  0.016304233  0.015671531            2 
 3422000   0.69701393   -8.1932274    668.90797  0.016289401    0.0156662            2 
 3423000    0.6912715   -8.2095863    669.19436  0.016291615  0.015660872            2 
 3424000   0.71678346   -8.2117519    670.21286  0.016311645  0.015655545            1 
 3425000   0.69555441   -8.2235188    669.88017  0.016298788    0.0156502            2 
 3426000   0.71315453    -8.215715    669.44127  0.016283354  0.015644859            1 
 3427000   0.71679603   -8.2090755    669.38556  0.016277248   0.01563953            3 
 3428000   0.70218584   -8.2111864    669.20453  0.016268099  0.015634186            1 
 3429000   0.70263636   -8.1921028    671.21393  0.016312188  0.015628862            5 
 3430000    0.7047547   -8.1982864    671.87098  0.016323396   0.01562354            2 
 3431000   0.70375339   -8.2156644    670.66987  0.016289465  0.015618227            4 
 3432000   0.71843894   -8.2113108    669.82333  0.016264164  0.015612912            2 
 3433000   0.71592189   -8.2101183    668.39227  0.016224688  0.015607592            3 
 3434000   0.70083795   -8.2054359    670.73612  0.016276842  0.015602286            2 
 3435000   0.71363348   -8.2000341    670.16884  0.016258342  0.015596981            2 
 3436000   0.70002363    -8.183862    670.98405  0.016273381  0.015591682            2 
 3437000   0.69042372   -8.1458365    671.28934  0.016276048  0.015586389            2 
 3438000   0.69934386   -8.1744418    670.25589  0.016246264  0.015581104            1 
 3439000    0.7107557   -8.1818583     669.5958  0.016225545  0.015575802            2 
 3440000   0.70568917   -8.2135318    669.25297  0.016212524  0.015570489            1 
 3441000   0.71153803   -8.2072154    669.33197  0.016209725  0.015565184            2 
 3442000   0.68475109   -8.2176404    671.02322  0.016245962  0.015559873            1 
 3443000   0.68724037   -8.2148052    669.65362  0.016208094  0.015554572            3 
 3444000   0.69877121   -8.1929997    668.88963  0.016184902  0.015549262            2 
 3445000   0.69884091   -8.1932883    669.06234  0.016184382  0.015543966            2 
 3446000   0.69074759   -8.2162446    670.11852  0.016205226  0.015538678            2 
 3447000   0.70268308    -8.228779    670.08999  0.016199835  0.015533383            2 
 3448000   0.68472359   -8.2299207    670.74494  0.016210966  0.015528087            3 
 3449000   0.69479206   -8.1994736     671.2945  0.016219544  0.015522799            1 
 3450000   0.69949204   -8.2061228    670.17275  0.016187747  0.015517522            1 
 3451000   0.69906313   -8.1995317    669.12388  0.016157729  0.015512246            4 
 3452000    0.6939015   -8.1731012    670.01102  0.016174465  0.015506981            1 
 3453000   0.69516063   -8.1960635    670.93346  0.016192042  0.015501714            1 
 3454000   0.68411695   -8.1804597    671.06935  0.016190633  0.015496467            1 
 3455000   0.70327726   -8.2015866    672.00067   0.01620841  0.015491216            2 
 3456000   0.69240211   -8.2357136    670.01894  0.016155935  0.015485964            1 
 3457000   0.70511237   -8.2057183    670.78012  0.016169611  0.015480701            4 
 3458000   0.68732077   -8.1826744    670.24579  0.016152058  0.015475457            2 
 3459000   0.68730654   -8.2180753    671.22774  0.016171045  0.015470212            2 
 3460000   0.70264615   -8.1697776    671.72296  0.016178299  0.015464983            2 
 3461000   0.68477533   -8.2046393    670.37536  0.016141177  0.015459737            3 
 3462000   0.69751478   -8.2203573    670.31704  0.016135111  0.015454485            2 
 3463000   0.69621659   -8.2079434    669.81309  0.016118324  0.015449241            3 
 3464000    0.7126505   -8.1962578    671.46121   0.01615332  0.015443998            4 
 3465000   0.68750887   -8.1980156     671.3072  0.016144954  0.015438752            2 
 3466000   0.70444986   -8.2112006    671.20001  0.016137719  0.015433498            1 
 3467000     0.671238   -8.2011583    670.54763  0.016117384  0.015428245            2 
 3468000   0.68694905   -8.2210229    669.82336  0.016095333  0.015422997            2 
 3469000   0.70346174   -8.2190292    670.91818  0.016116993  0.015417764            3 
 3470000    0.6966129   -8.2038148    671.22789  0.016119786  0.015412527            2 
 3471000   0.68504428    -8.203785    671.14891  0.016113246  0.015407289            1 
 3472000   0.68994877   -8.1700857    670.70579  0.016097969  0.015402066            2 
 3473000   0.69867557   -8.1799581    671.85779  0.016120976  0.015396838            5 
 3474000   0.68873741   -8.2153058    670.64915  0.016087343  0.015391616            2 
 3475000   0.71390792   -8.2282715    671.07622  0.016092955  0.015386387            4 
 3476000   0.69614791   -8.2605152    669.19516  0.016043229  0.015381144            3 
 3477000   0.69751074   -8.2264555    670.31894  0.016065548    0.0153759            2 
 3478000   0.67997829   -8.2091417     670.7412  0.016071047  0.015370679            2 
 3479000   0.68177733   -8.2264848    670.21218  0.016053755  0.015365448            4 
 3480000   0.68666397   -8.2172575    670.05591    0.0160454  0.015360217            2 
 3481000   0.69629584   -8.2178292    670.46929  0.016050687  0.015354979            3 
 3482000   0.70684622   -8.2503072    670.34424  0.016043084  0.015349728            1 
 3483000   0.68948024   -8.2411713    669.91224  0.016028142   0.01534449            4 
 3484000   0.69827251   -8.2140665    670.05092  0.016026859  0.015339275            2 
 3485000   0.68318321   -8.2246985    670.44971  0.016031796  0.015334069            2 
 3486000   0.69663639   -8.2162371    670.59092  0.016030573   0.01532885            5 
 3487000   0.69486278   -8.2394656    670.11263  0.016014545  0.015323631            2 
 3488000   0.67932097   -8.2011755    671.90632  0.016052808  0.015318404            2 
 3489000   0.69262999   -8.2233193    670.35153  0.016011071  0.015313198            1 
 3490000   0.68392523    -8.218798    670.24778  0.016004006   0.01530799            2 
 3491000   0.69137615   -8.2396114    670.69412  0.016010076    0.0153028            2 
 3492000   0.70300402   -8.2137754    670.53486  0.016001691  0.015297593            2 
 3493000   0.69640196    -8.223459    671.09749  0.016010533    0.0152924            4 
 3494000   0.69696958   -8.1768981    671.56396  0.016017076  0.015287212            2 
 3495000   0.69538164    -8.242792    670.65258  0.015990762  0.015282038            2 
 3496000   0.70520844   -8.2442511    669.79882  0.015965838  0.015276855            3 
 3497000   0.70825729   -8.1971673    671.93363  0.016012144   0.01527169            3 
 3498000   0.69512544   -8.1999018    672.02716  0.016009795  0.015266529            3 
 3499000   0.69590103   -8.2082995    672.13072  0.016007686  0.015261361            1 
 3500000   0.69538103   -8.2178434    671.68978  0.015992614  0.015256199            2 
 3501000   0.69387763   -8.2193737    672.16384   0.01599933  0.015251041            1 
 3502000     0.690027   -8.2052322    672.45303  0.016001643  0.015245896            3 
 3503000   0.68309174   -8.2231004     671.8193  0.015981999  0.015240747            1 
 3504000   0.68822948   -8.2113393    671.80588  0.015977119  0.015235597            2 
 3505000   0.69560564   -8.2246427    671.82493  0.015973013   0.01523045            3 
 3506000   0.70406596   -8.2205197    671.10058   0.01595124  0.015225293            2 
 3507000   0.69960465   -8.2199019    672.63692  0.015983198  0.015220142            2 
 3508000   0.71223617   -8.2393441    671.32997  0.015947595  0.015214986            2 
 3509000   0.68699296   -8.2484924     670.9756  0.015934635  0.015209829            2 
 3510000   0.69259411   -8.2332444    670.77316  0.015925289  0.015204667            2 
 3511000   0.69638951   -8.2240801    671.73225  0.015943517  0.015199516            2 
 3512000   0.68264494   -8.2145594    670.71397  0.015914815   0.01519437            4 
 3513000   0.68398223   -8.2170914    671.49428  0.015928795  0.015189227            2 
 3514000    0.6814369    -8.221117    671.54083  0.015925366  0.015184076            2 
 3515000   0.68766596   -8.2423502    671.32849  0.015915801  0.015178936            2 
 3516000   0.69896061   -8.2408917    672.65981  0.015942828  0.015173785            3 
 3517000   0.68725232   -8.2342963    670.00583  0.015875411  0.015168641            2 
 3518000   0.66557021   -8.2473679    671.21126  0.015899452  0.015163495            3 
 3519000   0.69944496   -8.2261486    671.45563  0.015900721  0.015158357            2 
 3520000    0.6770014   -8.2463098    670.64723  0.015877065  0.015153216            1 
 3521000   0.67576991   -8.2440127    671.50542  0.015892867  0.015148067            1 
 3522000     0.676819   -8.2292374    671.85796  0.015896696  0.015142925            4 
 3523000   0.69293142   -8.2264376    669.79851  0.015843469  0.015137783            2 
 3524000   0.69792334   -8.2344287    672.03284  0.015891809  0.015132641            2 
 3525000   0.69478821   -8.2378987    672.33824  0.015894521  0.015127502            2 
 3526000   0.67546224   -8.2678456    670.27779  0.015841317  0.015122355            4 
 3527000   0.67748419   -8.2594659    670.69246  0.015846623  0.015117209            2 
 3528000   0.69152975   -8.2301506    670.65409  0.015841225  0.015112082            1 
 3529000   0.69179864   -8.2399126    671.18463  0.015849264  0.015106959            2 
 3530000   0.69231966   -8.2450685    672.19296  0.015868578  0.015101834            1 
 3531000   0.68471201   -8.2661039    670.69781  0.015828798  0.015096699            1 
 3532000   0.69335383   -8.2412216    671.72321  0.015848509  0.015091557            5 
 3533000    0.6978831   -8.2317666    671.80996  0.015846069  0.015086424            3 
 3534000   0.68996709   -8.2404676    669.80681   0.01579435  0.015081305            1 
 3535000   0.70186234   -8.2354597    671.28303  0.015824683  0.015076193            2 
 3536000   0.69983727   -8.2541543    671.73159  0.015830779  0.015071082            2 
 3537000   0.70850622   -8.2365362    671.11327  0.015811735  0.015065965            3 
 3538000    0.6919843   -8.2311544    671.42297   0.01581456   0.01506083           11 
 3539000   0.68175674   -8.2643189    671.51803   0.01581233  0.015055688            4 
 3540000   0.67667649   -8.2732924    670.08171  0.015774051  0.015050549            2 
 3541000   0.69054271   -8.2780389    670.39115  0.015776879  0.015045401            4 
 3542000    0.6766394   -8.2271728    671.05911   0.01578814  0.015040274            1 
 3543000   0.67752404   -8.2395573    670.84577  0.015778666  0.015035157            2 
 3544000   0.68671422   -8.2453586    670.84833  0.015774274  0.015030035            1 
 3545000   0.68947882   -8.2428088    671.25021  0.015779272  0.015024899            2 
 3546000   0.68059879   -8.2587832    669.77515  0.015740157  0.015019758            4 
 3547000   0.69314645   -8.2573848    671.20299  0.015769265  0.015014627            2 
 3548000   0.69258741   -8.2576925     669.1996  0.015717766  0.015009491            2 
 3549000    0.6893158   -8.2330407    670.98208  0.015755191  0.015004364            2 
 3550000   0.69429607   -8.2550576    671.91963  0.015772761  0.014999247            2 
 3551000   0.67999051   -8.2459259    670.75338   0.01574095  0.014994136            1 
 3552000   0.67671085   -8.2479035     670.0449  0.015719897  0.014989014            1 
 3553000   0.66989707   -8.2505422    671.74199  0.015755277  0.014983897            3 
 3554000   0.68740232    -8.276086    670.86855  0.015730364  0.014978785            4 
 3555000   0.68283533   -8.2488323    670.80871  0.015724536  0.014973666            2 
 3556000   0.68742566   -8.2492022    670.42545  0.015711132  0.014968545            2 
 3557000   0.69127465   -8.2607281    670.90004  0.015717834  0.014963417            5 
 3558000   0.69132041   -8.2571991    670.63526  0.015707215  0.014958293            2 
 3559000   0.69010919   -8.2410182    671.32134  0.015718866  0.014953175            1 
 3560000   0.67685002   -8.2836561    668.82011  0.015655901  0.014948058            3 
 3561000   0.66431683     -8.26568    671.15498  0.015706145   0.01494294            1 
 3562000   0.69829877   -8.2624696    669.87115    0.0156717  0.014937824            1 
 3563000   0.68458786   -8.2651866    670.31093  0.015677587  0.014932718            3 
 3564000     0.689602     -8.25552    669.54686  0.015655323  0.014927616            3 
 3565000   0.70792531   -8.2621181    670.58359  0.015675166   0.01492251            2 
 3566000    0.6705898   -8.2577273    669.15444  0.015637372  0.014917398            4 
 3567000   0.68611449   -8.2945023    669.56015  0.015642467  0.014912288            3 
 3568000   0.67823625   -8.2539563    669.86379  0.015645175  0.014907172            3 
 3569000   0.67454438   -8.2703859    670.19927  0.015648624  0.014902071            2 
 3570000   0.67710958   -8.2678499    670.48701  0.015650957  0.014896971            3 
 3571000    0.6791824   -8.2753256     670.3996  0.015644535  0.014891876            4 
 3572000   0.67912634   -8.2581188    669.50643  0.015619317   0.01488678            2 
 3573000     0.674979   -8.2683603    670.67594  0.015642223  0.014881679            3 
 3574000    0.6770753   -8.2534082    670.57053  0.015635388   0.01487658            1 
 3575000   0.68281026   -8.2702919    671.43712  0.015651215  0.014871491            2 
 3576000   0.68648865   -8.2704916    669.51166  0.015601968   0.01486639            3 
 3577000   0.68417738   -8.2837448    670.31675  0.015616363  0.014861303            2 
 3578000   0.68754098   -8.2718148    670.04197  0.015605598   0.01485621            1 
 3579000   0.68403814   -8.2371255    672.28194  0.015653393  0.014851127            1 
 3580000   0.67427358   -8.2681166    670.90466  0.015616961  0.014846058            1 
 3581000   0.67563383   -8.2525534    670.23302  0.015596971  0.014840982            4 
 3582000   0.70070845   -8.2514778    671.43946  0.015620684   0.01483592            3 
 3583000    0.6778667   -8.2719519    671.18164  0.015610327   0.01483084            3 
 3584000   0.68583873   -8.2667504    670.67325  0.015594151  0.014825755            2 
 3585000   0.67158787   -8.2613903    669.37462  0.015559615  0.014820674            1 
 3586000   0.66322506   -8.2784136    669.94497   0.01556853  0.014815586            2 
 3587000   0.67677603   -8.2625476    669.96106  0.015564563  0.014810517            2 
 3588000   0.66668689    -8.274442       669.85  0.015557646  0.014805439            5 
 3589000   0.68230539   -8.2640402    671.48876  0.015591361  0.014800362            2 
 3590000    0.6689304   -8.2508361    670.22993  0.015557798  0.014795297            2 
 3591000   0.66412684   -8.2509049    670.19512  0.015552658  0.014790239            2 
 3592000   0.67451653     -8.27809    670.84298  0.015563358   0.01478518            2 
 3593000   0.66510447   -8.2667793    670.88652  0.015560036  0.014780119            2 
 3594000   0.66598398   -8.2679628     670.1809  0.015539346  0.014775057            2 
 3595000   0.67919892   -8.2628833    670.92139  0.015552188  0.014770007            1 
 3596000   0.68574644   -8.2797298    670.29174  0.015533272  0.014764953            1 
 3597000   0.69353969   -8.2741793    670.14801  0.015525623  0.014759901            5 
 3598000   0.65944582   -8.3053833    670.07604  0.015519641  0.014754854            2 
 3599000   0.68267948   -8.2619155    671.20005  0.015541355  0.014749809            2 
 3600000   0.68453439   -8.2616776     671.7673  0.015550169  0.014744779            3 
 3601000   0.66983421   -8.2693213    671.01757  0.015528501  0.014739741            2 
 3602000   0.67788224   -8.2709857    670.80434  0.015519256  0.014734705            1 
 3603000    0.6735707   -8.2663537    670.24952  0.015502117  0.014729665            2 
 3604000   0.66588114   -8.2884207    670.02194  0.015492553  0.014724633            2 
 3605000   0.67884261   -8.2557007    670.12921  0.015490735  0.014719597            2 
 3606000   0.68082397   -8.2717684    671.66549  0.015521942  0.014714563            4 
 3607000   0.67508964   -8.2823922    671.05902  0.015503628  0.014709533            3 
 3608000    0.6752169   -8.2694683    670.16613  0.015478708  0.014704508            2 
 3609000   0.68253367   -8.2635832    670.77842  0.015488557  0.014699478            1 
 3610000   0.65640574    -8.265616    670.34258  0.015474206  0.014694448            1 
 3611000   0.67757579   -8.2876743     670.9107  0.015483031  0.014689425            2 
 3612000   0.67220587   -8.2937314    669.86915  0.015454715  0.014684396            1 
 3613000   0.66768506   -8.3014613    670.80512  0.015472025  0.014679371            2 
 3614000   0.68463424   -8.2802551    670.70292  0.015465387   0.01467434            1 
 3615000   0.67131344   -8.2734825    669.83101   0.01544101  0.014669308            3 
 3616000    0.6709208   -8.2923821    670.21984  0.015445701  0.014664268            2 
 3617000   0.67755778   -8.2938069    670.72077  0.015452971  0.014659244            2 
 3618000   0.66612791   -8.2494257    668.70057  0.015402169  0.014654233            2 
 3619000   0.66580511   -8.2635933    672.68458  0.015489651  0.014649212            2 
 3620000   0.67940834   -8.2730126    670.39533  0.015432673  0.014644203            3 
 3621000   0.67293283   -8.2351084    672.16544  0.015469148  0.014639208            3 
 3622000   0.67123059   -8.2888429    671.36596  0.015446483  0.014634213            2 
 3623000    0.6684507   -8.2886996    671.18517  0.015438062  0.014629215            3 
 3624000   0.66436297    -8.244687     671.4267  0.015439356  0.014624215            2 
 3625000   0.67000719   -8.2967571    670.98065  0.015424842  0.014619219            2 
 3626000   0.67422953   -8.2833365    670.39918  0.015407225  0.014614221            2 
 3627000   0.67656427   -8.3110915    670.30502  0.015400814  0.014609222            3 
 3628000   0.68558279   -8.2677957    671.87552  0.015432642  0.014604227            1 
 3629000   0.66725674   -8.2916224    670.58893  0.015398846  0.014599228            2 
 3630000   0.67343848   -8.2636934    671.79496   0.01542229  0.014594229            2 
 3631000   0.68045049   -8.2673029    669.67871  0.015369474  0.014589235            1 
 3632000   0.66535672   -8.2846543    670.41836  0.015382213   0.01458424            1 
 3633000   0.67143482   -8.2799061    670.67769  0.015383927  0.014579239            3 
 3634000   0.67903044   -8.2983504    671.25773  0.015392995  0.014574245            2 
 3635000   0.66035543   -8.2693027    671.91379  0.015403801  0.014569251            1 
 3636000   0.67842166   -8.3088858    671.73208    0.0153954  0.014564261            2 
 3637000   0.68272848   -8.2845095    670.59103  0.015365022  0.014559282            4 
 3638000   0.67076002   -8.2767081    670.08725  0.015349259  0.014554288            2 
 3639000   0.66389424   -8.3057261    670.92671  0.015364265  0.014549303            3 
 3640000   0.67670841   -8.3035616    669.98406  0.015338463  0.014544304            1 
 3641000   0.65887227   -8.2868801    670.19068  0.015338979  0.014539297            1 
 3642000    0.6633764   -8.3019527    671.18097  0.015357427    0.0145343            3 
 3643000   0.67757773   -8.2965714    670.23647  0.015331606  0.014529318            2 
 3644000   0.68958786   -8.2892738    669.62796  0.015313482  0.014524329            2 
 3645000   0.66743322   -8.3075788    669.72687  0.015311542  0.014519346            2 
 3646000   0.67274155   -8.2836065    670.45314  0.015323943  0.014514361            5 
 3647000   0.67310029   -8.3115825    670.64406  0.015324103  0.014509375            2 
 3648000    0.6787557   -8.3138353    669.24885  0.015288031  0.014504405            1 
 3649000   0.66759113   -8.2788632    670.98131  0.015323406  0.014499434            5 
 3650000   0.67417551   -8.2798803    669.66799  0.015289223  0.014494466            1 
 3651000   0.67186458   -8.3316642    670.13084    0.0152956  0.014489488            1 
 3652000   0.66851686   -8.3041887    669.43048  0.015275431  0.014484491            1 
 3653000   0.65989858   -8.3162624    669.06869  0.015262996  0.014479508            2 
 3654000    0.6651394   -8.3293945    669.38443   0.01526602  0.014474516            1 
 3655000   0.68090464   -8.3036149     669.2762  0.015259375  0.014469525            1 
 3656000   0.68801267   -8.3228793    668.56397  0.015238967  0.014464541            2 
 3657000   0.67347742   -8.2940449    668.92947  0.015243129  0.014459545            2 
 3658000   0.67765458   -8.2933034    669.01921  0.015241006  0.014454556            2 
 3659000   0.68861524   -8.2977035    669.90745   0.01525707  0.014449569            3 
 3660000    0.6557263   -8.3007351    670.03784  0.015255871  0.014444589            3 
 3661000   0.65752541   -8.3093667    670.02765  0.015251472  0.014439614            2 
 3662000   0.65911261   -8.2936601    668.31632  0.015208363  0.014434639            1 
 3663000   0.65607094   -8.3145654     668.9739  0.015219171   0.01442967            3 
 3664000   0.66839187   -8.3115544    669.56247  0.015228404  0.014424698            2 
 3665000   0.66504621    -8.292454     670.0623  0.015235614  0.014419724            2 
 3666000   0.66871899   -8.3058142    669.94414  0.015228772  0.014414756            3 
 3667000   0.66320836   -8.3144221    668.68405  0.015195983  0.014409789            3 
 3668000   0.65544564    -8.313407     669.1957  0.015203465  0.014404816            3 
 3669000   0.65680283   -8.3020354    669.42852  0.015204609  0.014399838            2 
 3670000   0.66012045   -8.2887449     670.6874  0.015229051   0.01439486            2 
 3671000    0.6577151   -8.3339559    669.15213  0.015190051  0.014389887            4 
 3672000   0.66542868   -8.3244011    668.97048  0.015181792  0.014384915            3 
 3673000   0.65432969   -8.3240989    670.16251  0.015204703   0.01437994            2 
 3674000   0.66694076   -8.3136843    670.21243  0.015201697  0.014374982            1 
 3675000   0.66735998   -8.3036656    669.16827  0.015173884  0.014370009            1 
 3676000   0.68479105   -8.3110154     669.0475  0.015167018  0.014365044            2 
 3677000   0.66080409   -8.3081354    670.67551   0.01519979  0.014360078            1 
 3678000   0.66115171   -8.3468037    669.75535  0.015174809  0.014355115            3 
 3679000   0.64772193   -8.3039627    669.01409  0.015153893  0.014350153            4 
 3680000   0.66935124   -8.3256869    670.02379   0.01517264  0.014345194            3 
 3681000   0.67442294   -8.3361276    669.66908  0.015160488  0.014340239            2 
 3682000   0.65376684   -8.3254512      669.129  0.015144147   0.01433528            4 
 3683000   0.65696088   -8.3163404    669.25791  0.015142952  0.014330319            2 
 3684000   0.64915777   -8.3247134    669.12724  0.015135886  0.014325366            2 
 3685000    0.6627978   -8.3279293    668.96765  0.015128169  0.014320415            2 
 3686000    0.6628957    -8.312469    669.56629  0.015137599  0.014315465            2 
 3687000   0.65387839   -8.3039959    669.17592   0.01512467  0.014310528            2 
 3688000   0.66483835   -8.3331384    669.08409  0.015118495  0.014305587            3 
 3689000   0.65290355   -8.3119498    669.69826   0.01512827  0.014300635            1 
 3690000   0.65932322   -8.3016098    669.16486  0.015112124  0.014295694            4 
 3691000   0.65355371   -8.3228407    669.18738  0.015108538  0.014290746            2 
 3692000   0.66419796   -8.3177738    669.24569  0.015105762  0.014285799            2 
 3693000   0.66494441   -8.3539009    669.07548  0.015097831  0.014280858            2 
 3694000   0.67591783   -8.3361026    669.03208  0.015092765  0.014275926            3 
 3695000   0.64679931   -8.3131869    670.27791  0.015116777  0.014270998            2 
 3696000   0.66395288   -8.3445163    669.99047  0.015106206  0.014266064            2 
 3697000   0.65489208   -8.3407801    669.60994  0.015093543  0.014261132            2 
 3698000   0.65906181    -8.327684     669.8409  0.015094666  0.014256198            3 
 3699000    0.6589063   -8.3337419    670.39617  0.015103095  0.014251267            3 
 3700000   0.66564075   -8.3224722    670.36317  0.015098269  0.014246354            1 
 3701000   0.65386432    -8.306512    668.16338  0.015044659  0.014241447            1 
 3702000   0.67227892   -8.3142766    670.89809  0.015102154  0.014236548            2 
 3703000   0.65504098   -8.3124151    671.01092  0.015100615  0.014231652            2 
 3704000   0.65683666   -8.3064656    668.95875  0.015050368  0.014226754            2 
 3705000   0.65415247   -8.3167945    669.76293  0.015064393  0.014221868            2 
 3706000    0.6688493   -8.3245275    668.82288  0.015039191   0.01421698            2 
 3707000   0.66608744    -8.286995    670.92725   0.01508244  0.014212095            2 
 3708000   0.65139453   -8.3179574    669.94126  0.015056213  0.014207211            1 
 3709000   0.66320329   -8.3120143    670.80191  0.015071491  0.014202322            3 
 3710000    0.6462082   -8.3259497    669.44174  0.015036876   0.01419744            1 
 3711000   0.66454809    -8.315838    670.75296  0.015062269  0.014192563            2 
 3712000   0.67251542   -8.3375548     670.2733  0.015047443  0.014187683            3 
 3713000   0.67419198   -8.3164641    669.20359  0.015019382  0.014182801            2 
 3714000   0.64772241   -8.3393316    670.08295  0.015035069  0.014177922            3 
 3715000   0.65172688   -8.3351345    670.33063  0.015036577  0.014173041            1 
 3716000   0.65207484   -8.3390748    669.11814   0.01500534  0.014168166            2 
 3717000   0.65172008   -8.3298764    670.46325   0.01503146  0.014163291            4 
 3718000   0.65559978   -8.3231894    670.42661  0.015026596   0.01415842            2 
 3719000   0.65631839   -8.3332112    670.59874  0.015026413  0.014153552            1 
 3720000   0.65818028   -8.3638562    667.99611  0.014964071  0.014148682            2 
 3721000   0.65556274   -8.3197644    670.56829  0.015017654   0.01414381            1 
 3722000   0.65732709   -8.3432613    669.39518  0.014987354  0.014138941            1 
 3723000   0.65617317    -8.351526    670.50423  0.015008153  0.014134076            2 
 3724000   0.66253826   -8.3181532    670.01236  0.014993116   0.01412921            3 
 3725000   0.64685387   -8.3326209    670.37001  0.014997092  0.014124349            1 
 3726000   0.65246983   -8.3522971    670.84669  0.015003728  0.014119494            2 
 3727000   0.66879446   -8.3315465    670.68508  0.014996089  0.014114645            2 
 3728000   0.65658478   -8.3494092    669.31162  0.014961365  0.014109791            3 
 3729000   0.65366402    -8.348701     670.0582  0.014974037  0.014104935            2 
 3730000   0.65132418   -8.3028069    671.99622   0.01501332  0.014100085            6 
 3731000   0.65640461   -8.3433957    669.50558  0.014953667  0.014095216            3 
 3732000   0.65801295   -8.3475542    670.14347  0.014963904  0.014090359            6 
 3733000   0.66368551   -8.3508233    669.89014   0.01495424  0.014085503            3 
 3734000   0.65571216   -8.3567461    668.55953  0.014920539  0.014080643            2 
 3735000    0.6517348   -8.3360825    669.81382   0.01494453  0.014075787            3 
 3736000   0.66025384   -8.3592033     670.1349  0.014947691  0.014070928            1 
 3737000   0.65349786   -8.3376557    670.81676  0.014958897  0.014066079            2 
 3738000   0.64700726   -8.3330926    670.29498  0.014943262  0.014061234            3 
 3739000   0.66618623   -8.3408065    668.83819  0.014906797  0.014056392            5 
 3740000   0.65600121   -8.3263443    669.54168  0.014918487  0.014051543            3 
 3741000   0.65383116   -8.3055872    670.06068   0.01492606  0.014046687            2 
 3742000   0.64899371   -8.3266171     668.2874  0.014882581  0.014041836            3 
 3743000    0.6524214   -8.3382094    668.46652  0.014882593  0.014036984            2 
 3744000   0.64385074   -8.3223783    670.14716  0.014916025  0.014032127            1 
 3745000   0.65128821   -8.3408989    670.11222  0.014911264  0.014027279            2 
 3746000   0.64791487   -8.3396834    670.14553  0.014908025  0.014022429            3 
 3747000   0.64826337   -8.3620326    670.44579  0.014910724  0.014017577            2 
 3748000   0.65324896   -8.3408042    668.48257  0.014863095  0.014012725            1 
 3749000   0.65912788   -8.3678627    669.22643  0.014875665  0.014007881            5 
 3750000   0.63621796   -8.3359553    669.63566  0.014880793  0.014003052            1 
 3751000   0.64610726   -8.3673128    669.14509  0.014865927   0.01399822            2 
 3752000    0.6632193   -8.3436984    668.94185   0.01485745  0.013993393            2 
 3753000    0.6544074   -8.3386637    671.39288  0.014907915  0.013988572            3 
 3754000   0.64105266   -8.3458582    670.31416  0.014879998  0.013983754            4 
 3755000   0.66797708   -8.3433227    669.17633  0.014850784  0.013978931            2 
 3756000   0.64843581   -8.3560144     669.2766  0.014849055  0.013974112            2 
 3757000   0.63903163   -8.3625289    669.39438  0.014847715  0.013969308            2 
 3758000   0.65527877   -8.3658033     670.7261  0.014873295  0.013964489            4 
 3759000   0.64502879   -8.3388338    671.02761  0.014876022  0.013959678            3 
 3760000   0.62949063   -8.3472645     669.9306  0.014847753  0.013954865            2 
 3761000   0.65533333    -8.353017    670.22014   0.01485022  0.013950059            3 
 3762000   0.64139763   -8.3471298    669.54395  0.014831294  0.013945253            1 
 3763000   0.66098512   -8.3318386    670.18519  0.014841553   0.01394045            2 
 3764000   0.65627195    -8.335535    669.82312  0.014829594  0.013935654            3 
 3765000   0.64075384   -8.3205275    670.22426  0.014834534  0.013930869            1 
 3766000   0.65094428   -8.3457034     669.5774  0.014816282  0.013926098            2 
 3767000   0.65196337   -8.3310426    670.30767  0.014828503  0.013921328            4 
 3768000    0.6295871    -8.336565    669.74748  0.014812179  0.013916552            3 
 3769000   0.64832771   -8.3338253    670.96939  0.014835266  0.013911784            1 
 3770000   0.65195841   -8.3452843      670.348  0.014817595  0.013907008            1 
 3771000   0.64907397   -8.3485626    669.05398   0.01478507  0.013902233            1 
 3772000   0.64866943   -8.3334987    670.72148   0.01481799  0.013897461            3 
 3773000   0.65247903   -8.3403266    669.79643  0.014793631  0.013892691            6 
 3774000   0.64993402   -8.3374555    672.08048  0.014840145  0.013887925            2 
 3775000   0.64989685    -8.333472    670.71712  0.014806118  0.013883151            3 
 3776000   0.64969223   -8.3622623    669.98421  0.014786022  0.013878384            3 
 3777000   0.65143735   -8.3384185    670.95339   0.01480349  0.013873621            2 
 3778000   0.64772109    -8.325365    670.77314  0.014795596   0.01386887            3 
 3779000   0.64305887   -8.3487129     671.0506  0.014797799  0.013864106            2 
 3780000   0.65151237   -8.3240278    670.24429  0.014776109  0.013859347            2 
 3781000   0.65923351   -8.3301478    670.09127  0.014768828  0.013854583            2 
 3782000   0.65099514   -8.3367157    669.88679  0.014760418  0.013849812            3 
 3783000   0.64612293   -8.3313119    670.80355  0.014776711  0.013845052            3 
 3784000    0.6553445   -8.3347393    670.58008  0.014767884  0.013840302            2 
 3785000   0.64880406   -8.3281671    671.71267  0.014788918   0.01383555            7 
 3786000   0.65230769   -8.3581155    668.54008   0.01471518  0.013830785            2 
 3787000   0.62501274   -8.3426423    669.55723  0.014733677  0.013826015            3 
 3788000   0.64216396   -8.3608293    669.36981  0.014725665  0.013821241            4 
 3789000   0.64739656   -8.3737492    670.64661  0.014749859  0.013816476            1 
 3790000   0.64784172   -8.3724639    670.39489  0.014740433  0.013811705            4 
 3791000   0.64754294   -8.3424235    669.81617  0.014723823  0.013806939            4 
 3792000   0.64847511   -8.3613785     668.8811  0.014699391   0.01380217            2 
 3793000   0.64841207   -8.3709486    669.70304  0.014713574  0.013797407            2 
 3794000    0.6522327   -8.3557638    669.93166  0.014714718  0.013792644            1 
 3795000   0.64122483   -8.3713597    668.70288  0.014683858  0.013787881            3 
 3796000   0.64947337    -8.362938    669.84635  0.014705092  0.013783114            2 
 3797000   0.64127913     -8.33933    669.93174  0.014703093  0.013778357            6 
 3798000   0.64148568   -8.3531308    669.39593  0.014687466  0.013773602            4 
 3799000   0.64735801    -8.366226    669.01358  0.014675212  0.013768861            5 
 3800000   0.64228113   -8.3686783    669.72944  0.014687049  0.013764114            2 
 3801000   0.64417342   -8.3703775    671.47619  0.014721481  0.013759366            3 
 3802000   0.65347732   -8.3642535      669.743   0.01467962  0.013754611            3 
 3803000   0.64291245   -8.3946595    668.32581  0.014644706  0.013749858            4 
 3804000   0.63366476   -8.3657133    670.04737   0.01467857  0.013745118            3 
 3805000   0.64745693   -8.3449346    671.86264  0.014714469  0.013740388            2 
 3806000   0.64293046   -8.3750407    669.53125  0.014659556   0.01373565            1 
 3807000   0.66500591   -8.3732772    669.17007  0.014647799  0.013730916            2 
 3808000   0.64253657   -8.3539993    669.01145  0.014640482  0.013726182            2 
 3809000     0.648402   -8.3684083    668.62908  0.014628273  0.013721452            4 
 3810000   0.64148898   -8.3448914    670.05407  0.014655601  0.013716726            2 
 3811000   0.64200148   -8.3707535    669.76023   0.01464533  0.013711999            3 
 3812000   0.63866744   -8.3581493    669.94831    0.0146456   0.01370728            3 
 3813000   0.63235158   -8.3643411    670.31219  0.014649711  0.013702565            7 
 3814000   0.63297719   -8.3447211    671.04926  0.014661975  0.013697853            3 
 3815000   0.66262773   -8.3752666    669.41204  0.014622369  0.013693147            5 
 3816000   0.63950174   -8.3550174    669.60227  0.014622691  0.013688441            2 
 3817000     0.646167   -8.3545509    670.25189  0.014633043  0.013683737            2 
 3818000   0.64372942   -8.3561766    671.03547  0.014646313   0.01367903            5 
 3819000    0.6470008   -8.3456856    671.83944  0.014660021  0.013674322            4 
 3820000   0.64078261    -8.363103    670.11448  0.014618553  0.013669622            4 
 3821000   0.64689673   -8.3797859    669.72338  0.014606198  0.013664928            2 
 3822000   0.64898443   -8.3619094    668.34421  0.014572305  0.013660232            2 
 3823000   0.64121245   -8.3652832    669.28916  0.014589091  0.013655532            4 
 3824000    0.6492754   -8.3524803    670.89755  0.014620327   0.01365084            4 
 3825000   0.64288263   -8.3437082    669.80694  0.014592744   0.01364614            2 
 3826000   0.63434673   -8.3661444     668.7852  0.014566675  0.013641447            2 
 3827000   0.64073689   -8.3770996    671.17247  0.014614852  0.013636755            3 
 3828000   0.65679454   -8.3557678     669.6033  0.014576874   0.01363207            4 
 3829000   0.63466109   -8.3833842    669.13029  0.014562773  0.013627385            2 
 3830000   0.64368717   -8.3740944    669.10892  0.014558506  0.013622703            2 
 3831000   0.63569206   -8.3615688    670.25955  0.014579734  0.013618021            2 
 3832000   0.63792248   -8.3755834    670.47159  0.014580541  0.013613341            2 
 3833000   0.64249971   -8.3598057    670.37674  0.014574675  0.013608663            2 
 3834000   0.64384814   -8.3500545    670.28091   0.01456879  0.013603983            3 
 3835000    0.6356328   -8.3750449    669.43356  0.014546579  0.013599304            1 
 3836000   0.64026371    -8.369141    670.92486  0.014575184  0.013594621            1 
 3837000    0.6304863   -8.3760481    669.96386  0.014550514  0.013589935            2 
 3838000   0.63923949   -8.3422482    669.91433  0.014545647  0.013585258            2 
 3839000   0.63283506   -8.3583971    669.46761  0.014532161  0.013580574            1 
 3840000   0.63236739   -8.3478279    669.52155  0.014529547  0.013575899            2 
 3841000   0.62939614   -8.3665355    668.38984  0.014501212  0.013571218            2 
 3842000   0.63324501   -8.3766938    669.66989  0.014525202  0.013566547            2 
 3843000   0.65318993    -8.381838    670.19072  0.014532716  0.013561874            3 
 3844000     0.643419   -8.3752851    668.78059  0.014498365  0.013557204            1 
 3845000   0.63027677   -8.3736203    669.59048  0.014512147  0.013552534            3 
 3846000   0.62051651   -8.3986863    667.77492  0.014469035  0.013547868            5 
 3847000    0.6372207   -8.3748308    668.60122  0.014483173  0.013543196            8 
 3848000   0.63118491   -8.3796944    669.01081   0.01448828  0.013538521            2 
 3849000   0.62992719   -8.3896409    669.11319  0.014486732  0.013533843            3 
 3850000   0.60792645   -8.3697595    669.54984  0.014492421  0.013529173            4 
 3851000   0.63422611   -8.3693967    670.36523  0.014506302  0.013524505            2 
 3852000   0.64622202   -8.3668967    668.88591  0.014470533  0.013519836            2 
 3853000    0.6494044   -8.3810142    669.26366  0.014474947  0.013515161            2 
 3854000   0.63403727   -8.3833902    668.48097  0.014454268  0.013510482            2 
 3855000   0.63574478   -8.3762565    670.68262  0.014498111  0.013505823            2 
 3856000   0.63724989   -8.3696416    670.10402  0.014481847   0.01350117            1 
 3857000   0.65472618   -8.3758797    668.63232  0.014446295  0.013496518            5 
 3858000   0.63495522   -8.3753876    670.25793  0.014477664  0.013491866            2 
 3859000   0.64678238   -8.3855924    669.22485  0.014451603  0.013487217            2 
 3860000   0.63121639    -8.384609    668.38908  0.014429816  0.013482563            1 
 3861000    0.6310693   -8.3830141     669.6571  0.014453447  0.013477918            2 
 3862000   0.64103622   -8.3754246    669.14205  0.014438591  0.013473272            2 
 3863000   0.62775138   -8.3805595    669.83251  0.014449748  0.013468619            2 
 3864000   0.63153718   -8.3582962    669.21058  0.014432595  0.013463972            1 
 3865000   0.63983537   -8.3726314    670.58172  0.014458424  0.013459332            1 
 3866000   0.63107417    -8.382746    669.86183  0.014439167  0.013454694            2 
 3867000   0.62070411   -8.3977713    668.63608  0.014409018  0.013450054            2 
 3868000   0.63929837   -8.3688612    669.62934  0.014426692  0.013445408            1 
 3869000   0.64212093   -8.3840864    669.78456  0.014426307  0.013440773            1 
 3870000   0.62489274   -8.3719868     668.6885  0.014398977  0.013436144            1 
 3871000   0.62521398   -8.3770003    668.54697  0.014392211  0.013431505            5 
 3872000   0.63300406   -8.3971219    669.17354  0.014401979  0.013426871            2 
 3873000   0.64346444   -8.3972728    670.23505    0.0144211   0.01342224            1 
 3874000   0.64150161   -8.3846138    670.47749  0.014422593  0.013417605            4 
 3875000   0.64584958   -8.3964583    668.93311  0.014385658  0.013412965            3 
 3876000   0.63159895   -8.3986015    669.46182  0.014393314  0.013408327            2 
 3877000   0.63838775   -8.3835434    670.09259   0.01440316  0.013403687            3 
 3878000   0.61471915   -8.4051448    667.41886   0.01434199  0.013399048            2 
 3879000   0.62860908   -8.3833588    669.04325   0.01437319  0.013394409            3 
 3880000   0.63339911   -8.3752228     669.6304  0.014382096  0.013389781            1 
 3881000   0.61927726   -8.4057171    669.53471  0.014376336  0.013385156            1 
 3882000   0.63727757   -8.3778637    669.02021  0.014361588  0.013380529            3 
 3883000   0.62284217    -8.398905    669.27708  0.014363402  0.013375904            3 
 3884000   0.62753704   -8.4052474    669.37108  0.014361721  0.013371277            1 
 3885000   0.63294024   -8.4079675    669.54863  0.014361833   0.01336665            3 
 3886000   0.62922514   -8.4057151    668.73302  0.014340646   0.01336203            5 
 3887000   0.62248847   -8.4320265    669.06716  0.014344121  0.013357396            1 
 3888000   0.63038386   -8.3989215     669.0691  0.014340473  0.013352777            1 
 3889000   0.61144688   -8.3907003    668.41275  0.014322721  0.013348151            1 
 3890000   0.63001071   -8.4034383    668.77148  0.014326724  0.013343529            2 
 3891000   0.62291846   -8.3925062    667.61592  0.014298294  0.013338914            1 
 3892000   0.64168778   -8.4073934     667.8379  0.014299373  0.013334296            2 
 3893000   0.63187791   -8.4157555    667.60982  0.014290817  0.013329676            1 
 3894000   0.62995345   -8.3959828    669.01887  0.014317302  0.013325059            1 
 3895000   0.63390061   -8.3824029    668.59324  0.014304519  0.013320453            2 
 3896000   0.61898854   -8.4165386    669.17103  0.014313206  0.013315845            4 
 3897000   0.62303837   -8.4089742    669.06483  0.014307263  0.013311245            5 
 3898000   0.63677116   -8.4097725    667.48121  0.014269737  0.013306643            2 
 3899000   0.62180763   -8.4144167    668.65535  0.014291172  0.013302043            4 
 3900000   0.63221907   -8.4290047    668.88651  0.014292447  0.013297439            2 
 3901000    0.6290699   -8.3914597    668.80279  0.014286995  0.013292834            1 
 3902000   0.60941748   -8.4190152    668.55266  0.014277991  0.013288241            3 
 3903000   0.62374224   -8.4085847    669.72775  0.014299422  0.013283646            2 
 3904000    0.6252974   -8.4000472    669.16135  0.014283669  0.013279056            3 
 3905000   0.61767579   -8.3859215    669.40097  0.014285125  0.013274476            1 
 3906000   0.64037998   -8.4035327    669.53987  0.014284431  0.013269887            3 
 3907000   0.61686878   -8.4128524    669.63206  0.014282742  0.013265301            1 
 3908000   0.64629613   -8.3838473    668.65962  0.014258351   0.01326072            3 
 3909000   0.63605983   -8.4127944    669.28469  0.014268029  0.013256144            2 
 3910000   0.62296421   -8.4040167    667.86201  0.014234058  0.013251567            5 
 3911000   0.62030796   -8.4093835    669.07078  0.014256174  0.013246993            3 
 3912000   0.62785447   -8.4125006    667.62552  0.014221743  0.013242416            1 
 3913000   0.62465074   -8.3890757    669.74334  0.014263211  0.013237838            3 
 3914000   0.61543232   -8.4111394    669.15426  0.014247025  0.013233256            3 
 3915000    0.6205017   -8.4175903    667.82275  0.014215044  0.013228677            2 
 3916000   0.62443789    -8.402891     668.3391  0.014222402  0.013224098            3 
 3917000   0.61913198   -8.4231291    669.09029  0.014234752  0.013219527            3 
 3918000   0.62495279   -8.4358159    668.27164  0.014213707  0.013214953            2 
 3919000   0.61715535   -8.4215485    668.55872  0.014216184  0.013210386            2 
 3920000   0.61755306   -8.3934659    669.43453  0.014231176  0.013205836            1 
 3921000    0.6455131   -8.3980205    668.09337  0.014199043  0.013201282            2 
 3922000   0.63298478   -8.4301831    668.13064  0.014196215  0.013196726            2 
 3923000   0.62628168   -8.4063735    668.29261  0.014196036  0.013192167            2 
 3924000   0.62110487   -8.4204568    668.38393  0.014194358  0.013187606            1 
 3925000   0.61701529    -8.412112    668.95072  0.014202775   0.01318305            1 
 3926000   0.62287733   -8.4119879    668.41648  0.014187818  0.013178492            2 
 3927000   0.63422713   -8.4345525    668.87406  0.014193915  0.013173939            2 
 3928000   0.61801771   -8.4052169    667.37682  0.014158537  0.013169385            3 
 3929000   0.64193582   -8.4128925    667.69091  0.014161596  0.013164838            3 
 3930000   0.62426942   -8.4162666    668.64879  0.014178304  0.013160289            3 
 3931000   0.62471396   -8.4272885    668.80768  0.014178065  0.013155745            2 
 3932000   0.63179697   -8.4350095    667.25268  0.014141503  0.013151205            3 
 3933000   0.62554915   -8.4134375    668.88235  0.014172437  0.013146657            3 
 3934000   0.62435697   -8.3965579    669.22658  0.014176127  0.013142113            5 
 3935000   0.62965083   -8.4290858    667.96268  0.014145758  0.013137569            3 
 3936000   0.61666178   -8.4019004    670.43508   0.01419451  0.013133032            3 
 3937000   0.63235704   -8.4174155    669.25238   0.01416587  0.013128495            2 
 3938000   0.61978962   -8.4110019    667.96401   0.01413501  0.013123959            2 
 3939000    0.6255374   -8.4029428    669.05922  0.014154591  0.013119424            2 
 3940000   0.61740435   -8.4137526    668.52724  0.014139747  0.013114891            5 
 3941000   0.61844019   -8.4297285    669.15974  0.014149533   0.01311037            2 
 3942000   0.61768809   -8.4244561    669.20983  0.014147003  0.013105848           10 
 3943000   0.63226825   -8.4359004    668.96719  0.014138287  0.013101318            1 
 3944000   0.61715992   -8.4251725     669.2226  0.014140099  0.013096795            3 
 3945000   0.61475966   -8.4013417    668.15516  0.014113966  0.013092278       -1e+20 
 3946000    0.6287029   -8.4239144    669.15543  0.014131514  0.013087761            2 
 3947000    0.6099544    -8.410174    668.12206  0.014106116  0.013083241            2 
 3948000   0.60865685   -8.4138963    669.47696  0.014131141  0.013078725            2 
 3949000   0.61589002   -8.4101718    669.06367  0.014118842  0.013074206            1 
 3950000   0.62912175   -8.4342946    667.03264  0.014072419  0.013069685            2 
 3951000   0.61160532    -8.439137    668.27014  0.014094958  0.013065176            1 
 3952000   0.62197778   -8.4200269    669.13777  0.014109686  0.013060666            5 
 3953000   0.61102516   -8.4150674    669.51712  0.014114114  0.013056155            4 
 3954000   0.62085807   -8.4313134    668.20318  0.014082852  0.013051648            2 
 3955000   0.60514839   -8.4112057    668.15267  0.014078227  0.013047135            3 
 3956000   0.60982645   -8.3982449    669.03535  0.014093262  0.013042638            7 
 3957000   0.62336959   -8.4211489    668.29393  0.014074087  0.013038145            3 
 3958000   0.62416987   -8.3965476     669.4944  0.014095806  0.013033652            2 
 3959000   0.61487276   -8.4122306    669.36602  0.014089543  0.013029163            2 
 3960000   0.62153264   -8.4145134    669.00029  0.014078289  0.013024674            2 
 3961000    0.6164513     -8.42887    669.23807  0.014079737  0.013020188            1 
 3962000   0.61583478   -8.4151832    668.37669  0.014058066  0.013015699            1 
 3963000   0.61899203   -8.4237048    668.05485  0.014047751  0.013011211            2 
 3964000   0.61262254   -8.4112095     668.8878  0.014061718  0.013006728            2 
 3965000   0.62424442    -8.414346    668.22621  0.014044267  0.013002237            3 
 3966000   0.62396102   -8.4135587    669.12634  0.014059639  0.012997753            2 
 3967000   0.61898635   -8.4137583    668.68998  0.014046929  0.012993278            2 
 3968000      0.61163   -8.4224501    668.11381  0.014031288  0.012988801            1 
 3969000   0.62221092   -8.4172693    668.76694  0.014041466  0.012984327            2 
 3970000   0.59433324   -8.4039293    669.82827  0.014060207   0.01297985            2 
 3971000   0.61596258   -8.3918524    669.61622  0.014052216  0.012975377            3 
 3972000   0.62072256   -8.4176178    668.87808  0.014033192  0.012970907            3 
 3973000   0.61446213   -8.4190772    669.88558  0.014050792  0.012966437            2 
 3974000   0.60703834   -8.4390293    668.36091  0.014015285  0.012961974            3 
 3975000    0.6006601   -8.4105145    669.05188  0.014026245  0.012957502            2 
 3976000   0.61629903   -8.3957731    669.62442  0.014034717  0.012953033            2 
 3977000   0.61932273    -8.411897    669.42142  0.014026934  0.012948566            2 
 3978000   0.62309091   -8.4214938    668.85039  0.014011446  0.012944095            3 
 3979000   0.62140537   -8.4108284    667.92946  0.013988637  0.012939616            3 
 3980000     0.635533   -8.4253983    668.90638  0.014005577  0.012935149            2 
 3981000   0.62138002   -8.4211351    667.95922  0.013982233  0.012930677            3 
 3982000   0.61472796   -8.4295361    668.60358  0.013992206  0.012926206            1 
 3983000   0.61383148    -8.425737    667.77796  0.013971419  0.012921741            2 
 3984000   0.61540742     -8.43617    668.34725   0.01397982   0.01291728            1 
 3985000   0.61024332   -8.4373896    668.43879  0.013978226  0.012912822            3 
 3986000   0.59157524   -8.4300016    667.84895  0.013962388  0.012908364            4 
 3987000   0.62053939   -8.4306034    668.02495  0.013962565  0.012903911            2 
 3988000    0.6053478   -8.4407027    667.37472  0.013945477  0.012899453            1 
 3989000   0.60809102   -8.4222229    668.39397  0.013963273  0.012895004            2 
 3990000   0.60969325   -8.4216543    668.95659  0.013971524  0.012890551            2 
 3991000   0.60268393   -8.4386766    668.73744  0.013963448  0.012886102            5 
 3992000   0.60888941   -8.4354825    667.93472  0.013943193   0.01288166            1 
 3993000   0.60768012   -8.4296045    667.88691  0.013938703  0.012877212            2 
 3994000   0.62157784   -8.4349825    667.33515  0.013923701  0.012872763            3 
 3995000   0.61327501   -8.4295685    667.59851  0.013925709  0.012868315            2 
 3996000   0.61426987   -8.4218733    667.12447  0.013912339  0.012863873            3 
 3997000   0.60515383   -8.4060154    668.86714  0.013945191  0.012859427            2 
 3998000   0.61469174   -8.4309438    668.85864  0.013941526  0.012854986            2 
 3999000   0.59510668   -8.4350168    667.71823  0.013914275  0.012850539            3 
 4000000   0.61866842   -8.4127357     668.8716  0.013934825  0.012846103            1 
 4001000   0.60774956   -8.4423731    667.39479  0.013900583  0.012841663            5 
 4002000   0.61839695   -8.4318073    668.68724  0.013924022  0.012837222            2 
 4003000   0.60808843   -8.4505475     667.6617  0.013899194  0.012832785            7 
 4004000   0.60290827   -8.4362926    667.79439  0.013898485  0.012828349            2 
 4005000   0.61258269   -8.4327663    668.22207  0.013903913  0.012823917            3 
 4006000   0.61281338    -8.445668    667.13792   0.01387789  0.012819493            2 
 4007000   0.61523302   -8.4265218    667.81719  0.013888553  0.012815062            4 
 4008000   0.61207699   -8.4373236    668.06137  0.013890165   0.01281063            4 
 4009000   0.60203882   -8.4523084    668.16707  0.013888897  0.012806203            4 
 4010000   0.60968838   -8.4322462    667.23263  0.013866015  0.012801779            4 
 4011000   0.61648029   -8.4316321    667.49599  0.013868029  0.012797366            3 
 4012000    0.6115041   -8.4259069    667.69458  0.013868698  0.012792947            5 
 4013000    0.6264024   -8.4423115    668.28278  0.013877456  0.012788528            4 
 4014000   0.61210199    -8.451079    668.13388  0.013870908  0.012784108            1 
 4015000   0.59542189   -8.4313179    668.05622  0.013865841  0.012779692            1 
 4016000   0.58690045   -8.4617784    667.75923  0.013856226  0.012775273            3 
 4017000   0.61087984   -8.4519855    668.17299   0.01386136  0.012770854            1 
 4018000   0.60673236   -8.4245706    667.54112  0.013844805  0.012766444            2 
 4019000   0.60319867   -8.4236526    668.51318  0.013861516  0.012762039            4 
 4020000   0.60618328   -8.4275203    667.16422  0.013830104  0.012757631            3 
 4021000   0.62225335   -8.4615135    667.87993  0.013841497  0.012753225            5 
 4022000   0.60243245   -8.4487945    666.63349   0.01381223  0.012748831            6 
 4023000   0.60617259   -8.4441058     667.2134   0.01382081   0.01274443            4 
 4024000   0.62230692   -8.4686625    668.25929  0.013839034  0.012740028            3 
 4025000   0.60205702   -8.4579648    667.73998  0.013824844  0.012735632            2 
 4026000   0.60700606   -8.4577946    667.04085  0.013806939  0.012731231            2 
 4027000   0.60333073   -8.4396319     668.2619  0.013828779   0.01272683            1 
 4028000   0.60126126   -8.4610927    666.83149  0.013795752  0.012722438            1 
 4029000   0.60789829   -8.4480178     667.9165   0.01381477  0.012718046            5 
 4030000   0.61018921   -8.4462765    669.32736  0.013840516  0.012713657            2 
 4031000   0.60098744   -8.4490545    668.51036  0.013820193  0.012709265           10 
 4032000   0.59052098   -8.4257407    668.61362  0.013818899  0.012704868            7 
 4033000   0.61042673   -8.4397454    667.18153  0.013785882  0.012700474            8 
 4034000   0.60295337    -8.450121    668.39213  0.013807472  0.012696082            3 
 4035000   0.61512427   -8.4583904    667.96121  0.013795151  0.012691696            9 
 4036000   0.60850341   -8.4664622    667.67181  0.013785757  0.012687313            3 
 4037000   0.60873761   -8.4514387    668.85735  0.013806815  0.012682933            3 
 4038000   0.60210158   -8.4552676     667.5529  0.013776475  0.012678556            5 
 4039000   0.61009617   -8.4446093    668.03384  0.013782988  0.012674174            5 
 4040000   0.60424889    -8.457475    666.62891  0.013750596  0.012669794            9 
 4041000   0.61433316   -8.4488217    666.60417  0.013746683  0.012665415            2 
 4042000   0.61137459   -8.4317043    667.13757  0.013754279   0.01266104            3 
 4043000   0.60051987   -8.4526706    668.02693  0.013769209  0.012656673            4 
 4044000   0.61509484   -8.4342982    666.76523  0.013739805  0.012652305            5 
 4045000   0.59335796   -8.4508474    668.14342  0.013764801  0.012647941            2 
 4046000   0.60831358   -8.4579583    667.75265   0.01375335  0.012643579            2 
 4047000   0.60740804   -8.4402264    667.42785  0.013743263  0.012639216            2 
 4048000   0.61109131    -8.433979    668.57777  0.013763541  0.012634863            4 
 4049000   0.60628574    -8.436237    667.67595  0.013741581  0.012630513            3 
 4050000   0.61598982    -8.446601    667.82009  0.013741154  0.012626156            3 
 4051000    0.6008348   -8.4567709    667.86703  0.013738728  0.012621798            3 
 4052000   0.62607724   -8.4765681    667.41051  0.013725948  0.012617447            2 
 4053000   0.59516788    -8.418201    668.88988  0.013752979  0.012613094            3 
 4054000   0.60796318    -8.451177    666.91901  0.013709074  0.012608743            1 
 4055000   0.60677832   -8.4632955    666.72138  0.013701631  0.012604386            4 
 4056000   0.59512403   -8.4572017    667.26166  0.013709354  0.012600033            2 
 4057000   0.62591405   -8.4497087    668.77771  0.013737115  0.012595688            3 
 4058000    0.6063022   -8.4715721    667.19983  0.013701327  0.012591346            1 
 4059000   0.60163818   -8.4454068    667.95206  0.013713395  0.012587003            1 
 4060000   0.60675153   -8.4267189    668.45695  0.013720381   0.01258266            1 
 4061000   0.60925558   -8.4483328    667.73676  0.013702224  0.012578323            2 
 4062000    0.5955776   -8.4418984    667.22246  0.013688299  0.012573986            1 
 4063000   0.60569565   -8.4438112    668.80283  0.013717344  0.012569645            2 
 4064000   0.59523826   -8.4381781    667.47643  0.013686771  0.012565306            1 
 4065000   0.61194243   -8.4615615    667.47628    0.0136834  0.012560967            2 
 4066000   0.59721255   -8.4654623    667.03886   0.01367107  0.012556625            3 
 4067000   0.58936104   -8.4298107    669.06794  0.013709285  0.012552289            2 
 4068000   0.60448779   -8.4600386    667.90827  0.013682159  0.012547962            1 
 4069000    0.6055251   -8.4614971    667.34064  0.013667171  0.012543635            2 
 4070000    0.6000732   -8.4693594     667.1123  0.013659138  0.012539307            3 
 4071000   0.59826342   -8.4673463    668.36837  0.013681494  0.012534983            1 
 4072000   0.60844258   -8.4731386    666.40224  0.013637898  0.012530662            2 
 4073000   0.60740197   -8.4464823    669.36089  0.013695083  0.012526344            1 
 4074000    0.5803536    -8.475386    667.61701  0.013656051  0.012522025            3 
 4075000   0.60209122   -8.4766384    668.31436   0.01366696  0.012517702            1 
 4076000   0.60661781   -8.4423946    667.54751  0.013647929  0.012513385            2 
 4077000   0.59682179   -8.4664256    666.50138  0.013623199  0.012509072            2 
 4078000    0.5952187   -8.4774678     668.1583  0.013653717   0.01250476            2 
 4079000   0.59477951   -8.4830219     665.5034   0.01359613   0.01250044            2 
 4080000    0.5974638   -8.4746926    667.62683  0.013636169  0.012496123            2 
 4081000   0.60250655   -8.4703141     667.9677  0.013639788  0.012491814            2 
 4082000   0.59781661   -8.4772655    668.24312  0.013642069  0.012487503            2 
 4083000   0.60309707   -8.4752483    666.79465  0.013609165  0.012483188            2 
 4084000   0.60834205   -8.4552716    668.06558  0.013631766  0.012478885            1 
 4085000   0.59096931   -8.4635417     668.0861  0.013628847  0.012474584            3 
 4086000   0.60466159   -8.4641274    666.46288  0.013592407  0.012470278            1 
 4087000   0.61050433   -8.4744925    666.90249  0.013598044  0.012465976            2 
 4088000   0.58831331   -8.4561892    667.04231  0.013597568   0.01246167            3 
 4089000   0.58408333    -8.474645    667.10319  0.013595484  0.012457364            1 
 4090000   0.61782821   -8.4684407    667.07115  0.013591507  0.012453058            2 
 4091000   0.58728053   -8.4642804    666.77601  0.013582172   0.01244876            2 
 4092000   0.59320614    -8.485195    666.58772  0.013575019  0.012444455            2 
 4093000   0.59505826   -8.4688952     666.4909  0.013569731  0.012440151            1 
 4094000   0.59757429   -8.4728306    666.82581  0.013573233  0.012435848            1 
 4095000   0.60877217   -8.4791242    667.22345  0.013578011   0.01243155            2 
 4096000   0.59505079   -8.4880955    666.18157  0.013553499  0.012427254            2 
 4097000   0.59509018   -8.4823597    667.04794  0.013567813  0.012422955            2 
 4098000   0.59179802   -8.4562397     667.3868  0.013571393  0.012418666            2 
 4099000   0.58608407     -8.45613    667.50647  0.013570514  0.012414371            3 
 4100000   0.59999182   -8.4946307    666.85249  0.013553912   0.01241008            2 
 4101000   0.59115224   -8.4746077    667.24023  0.013558486  0.012405793            3 
 4102000   0.59775905   -8.4570057    666.68198   0.01354384  0.012401513            3 
 4103000    0.6053936   -8.4722099    667.71426  0.013561505  0.012397237            2 
 4104000   0.60185644   -8.4581203     666.6468  0.013536525  0.012392959            2 
 4105000   0.58429534   -8.4736671    667.36771  0.013547863  0.012388676            2 
 4106000   0.58266699   -8.4509333    667.73521  0.013552022  0.012384399            1 
 4107000   0.60009144   -8.4632587     667.8605  0.013551264  0.012380117            3 
 4108000   0.59106099    -8.468117    666.55043   0.01352139  0.012375837            2 
 4109000   0.59297286   -8.4816336    665.76956  0.013502262   0.01237156            1 
 4110000   0.60174137   -8.4839412    665.00591  0.013483494  0.012367286            2 
 4111000    0.5899752   -8.4695129    666.86431  0.013517885  0.012363015            2 
 4112000   0.59128307   -8.4608386    667.27515  0.013522924  0.012358743            2 
 4113000   0.59981394   -8.4807092    666.57317  0.013505413  0.012354472            2 
 4114000   0.58705275   -8.4675761    667.43824  0.013519653  0.012350202            4 
 4115000   0.60006115   -8.4807794    667.09396  0.013509396  0.012345942            1 
 4116000    0.6018752   -8.4655074    666.55813  0.013495265  0.012341672            4 
 4117000   0.59014241   -8.4697815    667.16648  0.013504301  0.012337409            1 
 4118000   0.59635273   -8.4920732    666.88732  0.013495372  0.012333147            2 
 4119000   0.60338202    -8.481954    668.26748  0.013520019  0.012328891            4 
 4120000    0.5987866   -8.4601615    667.40192   0.01349923  0.012324633            1 
 4121000    0.5966529   -8.4895864    666.26654  0.013472995  0.012320375            1 
 4122000   0.59423037   -8.4866596    666.40645  0.013472555   0.01231612            4 
 4123000   0.59479946   -8.4810102    667.01805  0.013481649  0.012311863            4 
 4124000   0.59737859   -8.4772206     665.0801   0.01343922   0.01230761            1 
 4125000   0.59268931   -8.4780185    667.11569  0.013477085  0.012303363            3 
 4126000   0.59249108   -8.4876651     665.4727  0.013440635  0.012299108            2 
 4127000   0.59035741   -8.4791507    667.12662  0.013470774  0.012294862            1 
 4128000   0.59374913   -8.4823081    666.37573  0.013452352  0.012290608            2 
 4129000   0.60395406   -8.4743813    666.21987  0.013445949  0.012286362            2 
 4130000   0.59694615   -8.4674339    666.84303  0.013455267  0.012282113            4 
 4131000    0.5949209   -8.4835892    666.61916  0.013447494  0.012277868            3 
 4132000    0.5922552   -8.4796244    666.19986  0.013435783  0.012273624            3 
 4133000   0.58764518   -8.4822006    667.16529  0.013451998  0.012269382            3 
 4134000   0.60663654   -8.4674651     666.4522   0.01343437  0.012265142            3 
 4135000   0.58124246   -8.4819869    666.67641  0.013435639  0.012260906            3 
 4136000   0.58460533   -8.4824377    666.21808  0.013423156  0.012256669            2 
 4137000   0.58739232   -8.4871459    667.20185  0.013439728  0.012252436            4 
 4138000   0.59018424   -8.4827364    666.38347  0.013419999    0.0122482            4 
 4139000   0.57841215   -8.4871413    666.38351  0.013416757  0.012243968            6 
 4140000   0.59440127   -8.4635197    666.69065  0.013419699  0.012239742            5 
 4141000   0.58111543   -8.4808481    666.32722  0.013409145  0.012235517            6 
 4142000   0.57155732   -8.4927924    666.66114  0.013412625  0.012231293            4 
 4143000   0.59489576      -8.4919    667.76186  0.013431528  0.012227068            3 
 4144000   0.59286252   -8.4798638    666.19136  0.013396705  0.012222845            4 
 4145000   0.59597504   -8.4914223    667.16936  0.013413136  0.012218624            2 
 4146000   0.58590204    -8.482243    667.56207  0.013417794  0.012214403            5 
 4147000   0.57595079   -8.4710085    667.11785  0.013405632  0.012210186            4 
 4148000   0.58777822   -8.4841258    665.79415  0.013375807  0.012205971            3 
 4149000   0.58009026    -8.480734    667.18596  0.013400537  0.012201762            2 
 4150000   0.57999153   -8.4881102    667.53956  0.013404409  0.012197553            3 
 4151000   0.58274073   -8.4909726    665.37322  0.013357689  0.012193343            2 
 4152000   0.59582513   -8.4953546    666.48904  0.013376867  0.012189134            1 
 4153000   0.59247138   -8.4851408    666.45555  0.013372974  0.012184925            3 
 4154000   0.59215361   -8.4880673     666.0285  0.013361188  0.012180718            3 
 4155000   0.57754177   -8.4748515     665.4698  0.013346767  0.012176513            2 
 4156000   0.59741461   -8.4859064    666.96763  0.013373589   0.01217231            4 
 4157000   0.59521463   -8.4807707    667.46062  0.013380255  0.012168106            5 
 4158000   0.58146962    -8.478591    665.60234  0.013339794  0.012163905            4 
 4159000   0.60229212   -8.4672281    666.38773  0.013352323  0.012159709            3 
 4160000   0.58376609    -8.497729    665.76674  0.013336673  0.012155514            2 
 4161000   0.58047023    -8.491004    665.95582  0.013337255  0.012151322            3 
 4162000   0.56372142   -8.4990453    666.72287  0.013349409  0.012147129            3 
 4163000   0.58607238   -8.4872797    665.96007  0.013330933  0.012142935            4 
 4164000   0.59591059   -8.4925875    666.18919  0.013332317  0.012138744            2 
 4165000   0.58009146   -8.4786643    666.90252  0.013343388  0.012134552            4 
 4166000   0.60947253   -8.4842473    666.78794  0.013337893  0.012130364            1 
 4167000   0.59492948   -8.4782377    666.35214  0.013325977  0.012126182            3 
 4168000    0.5907483   -8.4803875    666.05629  0.013316864  0.012122004            3 
 4169000   0.57819056   -8.4883689    665.71406  0.013306829  0.012117823            1 
 4170000   0.57829942   -8.4748638    666.71068  0.013323555  0.012113648            4 
 4171000   0.58217075   -8.4735717    666.14408   0.01330904  0.012109474            3 
 4172000   0.57469786    -8.479532    666.60205  0.013314998  0.012105306            2 
 4173000   0.58744917    -8.511272    666.30794  0.013305934  0.012101131            5 
 4174000   0.59097017   -8.5047881    665.26431   0.01328191  0.012096955            3 
 4175000   0.57890145    -8.485557    665.77699  0.013288962  0.012092776            7 
 4176000   0.56694394   -8.4935601     666.8467  0.013307126  0.012088596            6 
 4177000   0.59283761   -8.5049235    666.19757   0.01329099  0.012084423            3 
 4178000   0.59223023   -8.5089942    666.32672  0.013290385  0.012080246            2 
 4179000   0.58249923   -8.4925735    665.68045  0.013274317  0.012076074            4 
 4180000    0.5855008   -8.5168087    666.44373  0.013286358  0.012071906            3 
 4181000   0.57713358   -8.4985698    665.79625  0.013270275  0.012067739            2 
 4182000    0.5717949   -8.5148973     666.2532  0.013276208  0.012063573            3 
 4183000   0.58559172   -8.4866663    665.73617  0.013262734  0.012059408            6 
 4184000   0.57970299   -8.5128959    665.36612  0.013252193  0.012055244            2 
 4185000   0.58229204   -8.5290621    666.75526  0.013276688  0.012051083            3 
 4186000   0.58012582   -8.4733966    666.26753  0.013263807  0.012046928            3 
 4187000   0.58229027   -8.4934999    667.86431  0.013292419  0.012042773            3 
 4188000   0.57552891   -8.4999362     667.5574  0.013283138  0.012038618            3 
 4189000   0.58179577   -8.5126192    666.29728  0.013254899  0.012034463            2 
 4190000   0.57444907   -8.5128566    666.00102  0.013245844  0.012030308            1 
 4191000   0.56771671   -8.4936321    665.68755   0.01323645  0.012026153            2 
 4192000   0.58693022   -8.5097234    665.81762  0.013235878  0.012022001            4 
 4193000    0.5774529    -8.487419    664.63883  0.013209294  0.012017845            2 
 4194000   0.57322217   -8.5110297    665.31732  0.013219626  0.012013693            2 
 4195000   0.58595666   -8.5090302    664.95196  0.013209217  0.012009541            4 
 4196000   0.57631324   -8.4947361    665.60287  0.013218996  0.012005394            1 
 4197000   0.57727662    -8.508932    664.16702  0.013187337  0.012001245            2 
 4198000   0.59060854   -8.4994775    665.71637  0.013214951  0.011997102            2 
 4199000   0.57803048    -8.488667    666.12487  0.013219911  0.011992958            3 
 4200000   0.57932363   -8.5083516    665.60391  0.013206427  0.011988817            3 
 4201000   0.57553167   -8.5002857     665.8119  0.013207409  0.011984681            4 
 4202000   0.58048537   -8.4970907    665.73843  0.013202809  0.011980545            3 
 4203000   0.57658884   -8.5066791    666.12548  0.013207342  0.011976412            4 
 4204000    0.5713246   -8.4982694    666.51728  0.013211966  0.011972285            2 
 4205000   0.56879175   -8.5013868    665.74544  0.013193528  0.011968153            3 
 4206000   0.58073789    -8.505488    666.21412  0.013199678  0.011964024            2 
 4207000   0.58926201   -8.5015475     666.1321  0.013194915  0.011959896            4 
 4208000    0.5803513   -8.4974417    665.66741  0.013182577  0.011955772            3 
 4209000   0.58446534   -8.5090069    665.37454  0.013173647  0.011951649            7 
 4210000   0.58782046   -8.5181143    665.74506  0.013177852   0.01194752            5 
 4211000   0.59475039   -8.4869036    665.87396  0.013177273  0.011943398            2 
 4212000   0.58768242   -8.5036721    666.57487  0.013188012   0.01193928            2 
 4213000    0.5749066   -8.5046695     665.8685  0.013170909  0.011935166            3 
 4214000   0.57295177   -8.5030952    666.26564  0.013175638  0.011931053            2 
 4215000   0.57791514   -8.5038099    665.85097  0.013164313  0.011926941            3 
 4216000   0.57153223   -8.5142233    665.47188  0.013153698  0.011922827            2 
 4217000   0.57230191   -8.5009315    666.00761  0.013161165  0.011918713            2 
 4218000   0.56916635   -8.5293459    665.55514  0.013149106    0.0119146            2 
 4219000   0.57925763   -8.4949998    666.24875  0.013159689   0.01191049            4 
 4220000   0.57097501   -8.5078343    665.91465  0.013149973  0.011906381            1 
 4221000   0.57736889   -8.5246348    664.57801  0.013120469  0.011902276            1 
 4222000   0.58176281    -8.518442    665.51481  0.013135852  0.011898175            2 
 4223000   0.57408647   -8.4934446     667.2242  0.013166473  0.011894082            1 
 4224000   0.58545372   -8.4984684    666.21323  0.013143411  0.011889983            2 
 4225000   0.57051194   -8.4984226    666.34287  0.013142857  0.011885884            3 
 4226000   0.58612195   -8.4907715    665.11633  0.013115561   0.01188179            3 
 4227000   0.57517597   -8.5174663    665.22739  0.013114648  0.011877696            2 
 4228000   0.57184788   -8.5006829    664.12353  0.013089789  0.011873601            2 
 4229000   0.57628777   -8.5026448     664.5547   0.01309519   0.01186951            2 
 4230000   0.56312268   -8.5063962    665.03787  0.013101613   0.01186542            1 
 4231000    0.5571459   -8.5011282    665.29277  0.013103537  0.011861329            3 
 4232000   0.57300786    -8.505871    666.39752  0.013122194  0.011857245            1 
 4233000   0.56848069   -8.5112214    665.99676  0.013111205  0.011853161            1 
 4234000   0.58154937   -8.5131763    666.14095  0.013110946  0.011849079            2 
 4235000   0.57569391    -8.517438    664.94934  0.013084403  0.011844999            3 
 4236000    0.5749542    -8.488039    664.96203  0.013081563  0.011840925            3 
 4237000    0.5724228   -8.5215619    665.99857  0.013098863  0.011836847            2 
 4238000   0.58082814   -8.4836123    665.65584  0.013089033  0.011832773            5 
 4239000   0.56924721   -8.5237092    665.17861  0.013076563  0.011828699            3 
 4240000   0.59391237   -8.5298673    664.84783  0.013066978  0.011824626            4 
 4241000   0.57357371   -8.5190809    666.89259  0.013104075  0.011820557            1 
 4242000   0.56962297   -8.5054837    665.75308  0.013078601  0.011816485            2 
 4243000   0.56384869   -8.5037343    665.44448  0.013069457  0.011812418            2 
 4244000   0.57347402   -8.5243683    665.37146  0.013064944   0.01180835            3 
 4245000   0.56608876   -8.5061522    664.78733  0.013050399  0.011804289            2 
 4246000   0.55832823   -8.5262462    664.45125   0.01304073  0.011800225            1 
 4247000   0.57426763   -8.5093809    664.97685  0.013047972  0.011796158            1 
 4248000   0.56912953   -8.5543086    665.34476  0.013052118  0.011792092            2 
 4249000   0.57294747   -8.5076448    665.95724  0.013061058  0.011788032            2 
 4250000   0.57876192   -8.5224795    664.41477  0.013027741  0.011783972            1 
 4251000   0.57220092   -8.5088536    665.37448  0.013043489  0.011779914            1 
 4252000    0.5792038    -8.512654    664.87694  0.013030671  0.011775856            2 
 4253000   0.57727643   -8.5172574    664.79276  0.013025957  0.011771799            1 
 4254000   0.56732452   -8.5054206    665.18277  0.013030535  0.011767744            2 
 4255000   0.56054431   -8.5227879      665.959  0.013042675  0.011763691            1 
 4256000   0.58046447   -8.5178715    665.04754  0.013021764   0.01175964            2 
 4257000   0.58256341   -8.5238017    665.20627  0.013021812   0.01175559            3 
 4258000   0.55957157   -8.5146345    666.38944   0.01304191  0.011751543            2 
 4259000   0.56231148   -8.5167181    665.07583  0.013013145  0.011747493            7 
 4260000   0.56624225   -8.5000431    665.50548  0.013018495  0.011743445            2 
 4261000   0.58174666   -8.5291097    665.01054   0.01300576  0.011739397            3 
 4262000   0.57832025   -8.5361232    664.96525  0.013001823  0.011735352            8 
 4263000   0.56623581   -8.5230568    663.76357  0.012975283  0.011731307            2 
 4264000   0.56426608   -8.5213764    664.53087  0.012987236  0.011727266            3 
 4265000   0.57843971   -8.5082543    665.77195   0.01300844  0.011723228            2 
 4266000     0.566536   -8.5161478    665.20248  0.012994266  0.011719192            2 
 4267000   0.57450793   -8.5260094    664.46908  0.012976898  0.011715153            2 
 4268000   0.55651396   -8.5368179    665.73386  0.012998552  0.011711116            4 
 4269000   0.56828532   -8.5197849    664.98657   0.01298092  0.011707082            4 
 4270000    0.5654677    -8.520322    665.89802  0.012995668   0.01170305            3 
 4271000   0.55516419   -8.5209793    664.53841  0.012966097  0.011699026            3 
 4272000   0.56694109   -8.5202422    665.50828  0.012981981  0.011694998            3 
 4273000   0.57654969    -8.505514    665.84942  0.012985596  0.011690973            2 
 4274000   0.57747545   -8.5122969    666.34877  0.012992294  0.011686952            2 
 4275000   0.56391826   -8.5222152    664.94131  0.012961819  0.011682935            4 
 4276000   0.57732956   -8.5113339    665.23899  0.012964589   0.01167892            2 
 4277000   0.55416951   -8.5340704    664.46337  0.012946446  0.011674899            6 
 4278000   0.57292139    -8.528371    665.49522  0.012963519  0.011670882            2 
 4279000   0.56335519   -8.5120546    665.12262  0.012953233  0.011666869            4 
 4280000   0.56578263   -8.5157088    665.79387  0.012963276   0.01166286            2 
 4281000   0.57458579   -8.5082687    664.44046  0.012933903  0.011658848            1 
 4282000   0.56563663   -8.5326089    665.20695  0.012945799  0.011654833            2 
 4283000   0.58220186    -8.515137    664.89524  0.012936712  0.011650822            3 
 4284000   0.57800177   -8.5253538    665.71303    0.0129496  0.011646812            4 
 4285000   0.57242563   -8.5345689    664.80483  0.012928915    0.0116428            3 
 4286000   0.56376867   -8.5397198    664.50683  0.012920105  0.011638798            2 
 4287000   0.55904129   -8.5388653    666.03282  0.012946754  0.011634796            1 
 4288000    0.5582991   -8.5234204    664.20504  0.012908214  0.011630795            3 
 4289000   0.55713096   -8.5100517    665.58868  0.012932088  0.011626796            2 
 4290000   0.56306685   -8.5205036    666.27012   0.01294231    0.0116228            2 
 4291000   0.55999208   -8.5178534    665.36249  0.012921667   0.01161881            1 
 4292000   0.56312085    -8.520209    665.67015   0.01292463  0.011614821            4 
 4293000   0.55587975   -8.5361872    664.55116  0.012899898  0.011610831            2 
 4294000   0.56490887   -8.5479256    665.01806  0.012905955  0.011606843            1 
 4295000   0.55940453   -8.5163911    663.61659  0.012875758  0.011602857            1 
 4296000   0.55735871   -8.5439669    664.58213  0.012891491  0.011598867            4 
 4297000   0.56834852   -8.5250646    665.13465  0.012899206  0.011594877            1 
 4298000   0.56408069   -8.5399306    664.68086  0.012887406  0.011590893            1 
 4299000   0.56265387    -8.510911    664.00935  0.012871392   0.01158691            2 
 4300000   0.57159704   -8.5482776    665.05606  0.012888683  0.011582926            1 
 4301000   0.56424497   -8.5344689    665.29845  0.012890383   0.01157894            3 
 4302000   0.56860494   -8.5292073    664.04015  0.012863012  0.011574958            3 
 4303000   0.56255877   -8.5368776    665.33632  0.012885125  0.011570976            1 
 4304000   0.56222073    -8.556278    664.69274   0.01286967     0.011567            3 
 4305000   0.56139041    -8.534517    664.38007  0.012860629  0.011563023            2 
 4306000   0.55716053   -8.5173741    665.01126  0.012869857  0.011559044            2 
 4307000    0.5576825   -8.5430175    664.74552  0.012861727  0.011555075            2 
 4308000   0.55954951   -8.5253481    664.00441  0.012844406  0.011551102            1 
 4309000    0.5577043   -8.5286169    664.72064  0.012855277  0.011547129            1 
 4310000   0.56252926   -8.5314425    663.84332  0.012835331  0.011543162            2 
 4311000   0.56333188   -8.5307244    664.23857  0.012839994  0.011539195            1 
 4312000   0.56040641   -8.5424793    664.49395  0.012841952  0.011535227            1 
 4313000   0.55457184    -8.533915    664.70579  0.012843067   0.01153126            1 
 4314000   0.56777549   -8.5269567    663.43552  0.012815553  0.011527295            1 
 4315000   0.55639607   -8.5289764    665.54554  0.012853332  0.011523334            1 
 4316000   0.56189015   -8.5094479    664.94454   0.01283875  0.011519374            2 
 4317000   0.55924032   -8.5075454    665.80672  0.012852419  0.011515417            1 
 4318000   0.55288376   -8.5455182    664.23688  0.012819146  0.011511461            2 
 4319000    0.5553188   -8.5099565    663.91581  0.012809983  0.011507507            2 
 4320000   0.56698111   -8.5426207    664.69906  0.012822127   0.01150355            1 
 4321000   0.55741782   -8.5345248    665.22126   0.01282923  0.011499597            1 
 4322000   0.56113404   -8.5436972    664.61837  0.012814638  0.011495644            1 
 4323000   0.55581944   -8.5402617    665.07168  0.012820412  0.011491691            2 
 4324000   0.56458219   -8.5436942     663.1534  0.012780477   0.01148774            2 
 4325000   0.53514179   -8.5321027    664.25194  0.012798689  0.011483792            3 
 4326000   0.55923079   -8.5584869    664.66325  0.012803653  0.011479845            3 
 4327000   0.55643745    -8.536073    664.33455  0.012794364  0.011475899            3 
 4328000    0.5609765   -8.5553356    663.87288  0.012782519  0.011471956            3 
 4329000   0.55588523   -8.5380185    664.56036    0.0127928  0.011468013            2 
 4330000   0.56862758     -8.50734    664.93269  0.012797011  0.011464072            2 
 4331000   0.56119977   -8.5527249      663.688  0.012770107  0.011460135            3 
 4332000   0.54721113   -8.5439118    663.95213   0.01277224  0.011456194            1 
 4333000   0.56320526   -8.5311628    664.68562  0.012783399  0.011452257            4 
 4334000   0.55352998   -8.5408772     664.8889  0.012784358  0.011448325            3 
 4335000   0.55950818   -8.5172483    664.21397  0.012768435  0.011444393            1 
 4336000   0.56291973   -8.5228789    663.82209  0.012757958  0.011440463            2 
 4337000    0.5565397   -8.5498078    664.25479  0.012763331  0.011436536            1 
 4338000   0.54556308   -8.5185606    664.31446  0.012761535   0.01143261            2 
 4339000   0.56949978   -8.5372427    665.26281  0.012776807  0.011428687            2 
 4340000   0.56357284   -8.5204368    665.24447  0.012773511  0.011424762            4 
 4341000   0.55343198   -8.5475186    665.16485   0.01276904   0.01142084            2 
 4342000   0.56525291     -8.55167    663.47903  0.012733745  0.011416915            1 
 4343000   0.55680173   -8.5542912    665.19257  0.012763692  0.011412992            1 
 4344000   0.56741913   -8.5436347    663.95837  0.012737077  0.011409069            5 
 4345000   0.56005559   -8.5596801    664.43082  0.012743207  0.011405152            1 
 4346000   0.55130888   -8.5613836    664.28968  0.012737569  0.011401237            2 
 4347000   0.55616704   -8.5529767    663.31848   0.01271602  0.011397318            1 
 4348000   0.54898253   -8.5379038    663.82439  0.012722792  0.011393402            2 
 4349000   0.56288939    -8.547113    665.13358  0.012744952  0.011389491            1 
 4350000   0.55292034   -8.5455296    664.85768  0.012736737  0.011385581            3 
 4351000   0.56212765   -8.5405749    663.91571  0.012715769  0.011381671            2 
 4352000   0.55652654   -8.5386558    664.43245  0.012722741  0.011377768            2 
 4353000   0.54824831   -8.5465037    664.12517  0.012713936  0.011373862            1 
 4354000     0.546878   -8.5479266    663.55012   0.01270001  0.011369954            2 
 4355000   0.54719153   -8.5493656    664.14727   0.01270852  0.011366051            1 
 4356000   0.56010984   -8.5420492      663.357  0.012690484  0.011362148            2 
 4357000   0.54960294   -8.5408322    662.98658  0.012680487  0.011358252            2 
 4358000   0.54904804   -8.5395811    663.97162  0.012696413  0.011354359            3 
 4359000   0.54794985   -8.5551196    663.78896  0.012690008  0.011350466            2 
 4360000    0.5487817   -8.5592131    663.42008  0.012680047  0.011346574            1 
 4361000   0.56008604   -8.5492565     665.7391  0.012721453  0.011342682            3 
 4362000   0.55514921   -8.5602743    664.89557  0.012702422  0.011338792            2 
 4363000   0.55324149   -8.5452801    663.54236  0.012673664  0.011334907            2 
 4364000   0.55169899   -8.5349499     664.6291  0.012691512  0.011331021            1 
 4365000   0.54769526   -8.5427217    665.81519  0.012711248   0.01132714            2 
 4366000   0.55367832   -8.5428185    664.22899  0.012678061  0.011323257            2 
 4367000   0.55495185   -8.5452125     663.3477  0.012658341  0.011319376            2 
 4368000   0.55761628   -8.5548102    664.72857  0.012681787  0.011315499            2 
 4369000   0.54821463   -8.5408581    663.31567  0.012651935  0.011311623            2 
 4370000   0.55459487   -8.5591374    664.11703  0.012664322  0.011307744            2 
 4371000   0.54833917   -8.5573311     665.5564  0.012688866   0.01130387            1 
 4372000   0.55020387     -8.55717    664.48202  0.012665485  0.011299994            6 
 4373000   0.56690103   -8.5473519    665.24434  0.012677116  0.011296124            1 
 4374000   0.56379883   -8.5399971    664.72702  0.012664362  0.011292259            3 
 4375000   0.55744933   -8.5485723    663.66007  0.012641144  0.011288394            2 
 4376000   0.54684419   -8.5551148     664.5547  0.012655292  0.011284532            3 
 4377000   0.55465854    -8.560483    664.14313  0.012644565  0.011280672            4 
 4378000   0.55569449   -8.5534336    664.07215  0.012640326  0.011276807            3 
 4379000   0.55309553   -8.5380915    664.64296  0.012648302  0.011272944            3 
 4380000   0.55771731   -8.5363169    665.01266  0.012652448  0.011269084            2 
 4381000   0.55686579   -8.5323784    662.83238  0.012608088  0.011265226            2 
 4382000   0.54616928    -8.549375    664.66707  0.012640101  0.011261366            3 
 4383000   0.54588212   -8.5610568     663.9521  0.012623624  0.011257508            3 
 4384000   0.54933269   -8.5500837    664.29347  0.012627233  0.011253654            2 
 4385000   0.55006977   -8.5320744    664.18599  0.012622311  0.011249805            3 
 4386000   0.54857136    -8.560962    664.12979  0.012618365  0.011245956            4 
 4387000   0.56325831   -8.5489457    664.90723  0.012630257  0.011242108            2 
 4388000    0.5473387   -8.5393699    663.72109  0.012604852  0.011238262            2 
 4389000   0.54894464   -8.5596199    663.58826  0.012599458  0.011234414            2 
 4390000   0.54802215   -8.5509966    664.25098  0.012609168  0.011230569            2 
 4391000   0.54545564   -8.5512366     663.5725   0.01259342  0.011226723            3 
 4392000   0.54588243    -8.556635    664.03638  0.012599354  0.011222878            2 
 4393000   0.54762138      -8.5505     664.7096  0.012609257  0.011219038            2 
 4394000    0.5515647   -8.5676979    664.55764  0.012603506  0.011215203            3 
 4395000   0.54678004    -8.540038    664.28169  0.012595406  0.011211372            5 
 4396000   0.55473779   -8.5606193    665.07254  0.012607532   0.01120754            2 
 4397000   0.54816548   -8.5595332    663.93449  0.012583096   0.01120371            3 
 4398000    0.5487794   -8.5693286    663.55258  0.012572999  0.011199883            2 
 4399000   0.54587732   -8.5502498    663.78593  0.012574561  0.011196051            1 
 4400000   0.55371825   -8.5671282    663.21658   0.01256092  0.011192222            2 
 4401000   0.54986598   -8.5428328     665.0419  0.012592629  0.011188396            3 
 4402000   0.55950963   -8.5563681    663.69021  0.012564179  0.011184574            3 
 4403000    0.5553606   -8.5548507    664.24338  0.012571795  0.011180747            2 
 4404000   0.54147101   -8.5559642     663.0414  0.012546197  0.011176926            4 
 4405000   0.55141341   -8.5314357    664.68629  0.012574466  0.011173108            2 
 4406000   0.54076442   -8.5508681    664.00894  0.012558801  0.011169293            3 
 4407000   0.54351935   -8.5622299     664.3164  0.012561765  0.011165478            2 
 4408000   0.54025971   -8.5554781    663.84586   0.01255002   0.01116166            2 
 4409000   0.53620381   -8.5611128    665.37432  0.012576063  0.011157846            4 
 4410000   0.54441893   -8.5281621      664.567  0.012557955  0.011154035            2 
 4411000   0.54116126   -8.5546917    664.39304  0.012551822  0.011150226            1 
 4412000   0.54831213   -8.5449962    663.79823  0.012537742  0.011146421            3 
 4413000    0.5547135   -8.5490966    663.25255  0.012524597  0.011142609            1 
 4414000   0.54125517   -8.5530763    665.04882  0.012555672    0.0111388            2 
 4415000   0.54007564   -8.5487014    663.49342   0.01252347  0.011134996            2 
 4416000    0.5459818   -8.5545906    663.84521  0.012527272  0.011131192            3 
 4417000   0.53041957    -8.559501    664.49882  0.012536767  0.011127388            4 
 4418000   0.54757097   -8.5576849    663.84878  0.012521668  0.011123584            3 
 4419000   0.54313425   -8.5576588    664.05833  0.012522787  0.011119782            1 
 4420000    0.5466949   -8.5856652    664.02646  0.012519352  0.011115986            5 
 4421000   0.56028989   -8.5721751    665.31081   0.01254073  0.011112185            4 
 4422000   0.53566794   -8.5819275    663.39361  0.012501764  0.011108387            3 
 4423000   0.54046782   -8.5502509    663.08992  0.012493216  0.011104587            2 
 4424000   0.55160561    -8.567224    663.14239   0.01249138  0.011100793            4 
 4425000   0.53649722   -8.5640714    663.96289  0.012504009     0.011097            3 
 4426000   0.54316107   -8.5665023    663.77946  0.012497731  0.011093205            2 
 4427000    0.5457784   -8.5663904    663.22051  0.012484386  0.011089413            3 
 4428000   0.55156093   -8.5740498    663.24189  0.012481969  0.011085626            4 
 4429000    0.5397273   -8.5532269    662.91525  0.012473005  0.011081843            4 
 4430000   0.54102886   -8.5531998    664.03859   0.01249132  0.011078059            2 
 4431000   0.53833414   -8.5587039    664.27661  0.012492978  0.011074277            4 
 4432000   0.54174644   -8.5645918    663.60176   0.01247747  0.011070496            2 
 4433000   0.54155791   -8.5720854    663.64328  0.012475436  0.011066716            1 
 4434000   0.54832891   -8.5753455    664.33865  0.012485691  0.011062938            1 
 4435000   0.53590576   -8.5670853    663.73679  0.012471567  0.011059162            2 
 4436000   0.53736376   -8.5707611    663.78315  0.012469626  0.011055387            2 
 4437000   0.54859307   -8.5855784    663.47442  0.012461018   0.01105161            3 
 4438000   0.54586647   -8.5680467    664.62318   0.01247978  0.011047839            3 
 4439000   0.54798703   -8.5615372    663.93127   0.01246398  0.011044068            2 
 4440000   0.54737994   -8.5799485    663.84803   0.01245961  0.011040299            1 
 4441000   0.53558527   -8.5630764    663.51162  0.012450492   0.01103653            3 
 4442000    0.5494922   -8.5746463     662.9007  0.012436228  0.011032758            2 
 4443000   0.54172076    -8.561606    663.54535   0.01244552  0.011028992            2 
 4444000   0.53818018   -8.5570501    663.35464  0.012439143  0.011025229            5 
 4445000   0.53808455   -8.5693527    663.92305  0.012447001  0.011021467            2 
 4446000   0.55464192   -8.5696469    664.03006  0.012446207  0.011017708            2 
 4447000   0.54187645   -8.5630768     662.6985  0.012418456  0.011013953            3 
 4448000   0.53035689   -8.5853948    662.49025  0.012411763  0.011010194            2 
 4449000   0.53110083     -8.56882    663.39892  0.012425993   0.01100644            2 
 4450000   0.54708877   -8.5662798    664.41951  0.012442313  0.011002688            3 
 4451000   0.54463433   -8.5547855    664.44624  0.012440018  0.010998939            4 
 4452000   0.53045387   -8.5772168    662.99251  0.012410013   0.01099519            3 
 4453000   0.54018007   -8.5744279    663.51383  0.012416982  0.010991444            2 
 4454000    0.5288456   -8.5730285     663.7706  0.012418998  0.010987698            4 
 4455000   0.54308319   -8.5775728    663.78342   0.01241645  0.010983955            3 
 4456000   0.54742414   -8.5722687    663.10427  0.012400963  0.010980209            2 
 4457000   0.53113099   -8.5711915    663.19118  0.012399805  0.010976467            4 
 4458000    0.5393064   -8.5663531    663.78336  0.012408093  0.010972724            4 
 4459000   0.53579576   -8.5609988    663.68699   0.01240351  0.010968988            2 
 4460000   0.52787865   -8.5832307    663.05611  0.012388941  0.010965249            2 
 4461000   0.52468699   -8.5756024    664.21474  0.012407807  0.010961513            1 
 4462000   0.52792584   -8.5885666    663.11691  0.012384523  0.010957777            1 
 4463000   0.54585611   -8.5745641    662.70944   0.01237414  0.010954042            3 
 4464000    0.5367691   -8.5939043    663.31115  0.012382601  0.010950307            3 
 4465000   0.53360241   -8.5511585    662.80183  0.012370322  0.010946577            2 
 4466000   0.52998204   -8.5772455     663.7355  0.012384974  0.010942851            3 
 4467000   0.53049466   -8.5823885    663.61173  0.012379892  0.010939121            2 
 4468000   0.53669108   -8.5651762     663.8564  0.012381685  0.010935395            1 
 4469000   0.54110492   -8.5552189     664.0938  0.012383341  0.010931673            2 
 4470000    0.5379276   -8.5799325    664.15054  0.012381628  0.010927954            1 
 4471000   0.54463056   -8.5712704     663.9174  0.012374513  0.010924231            8 
 4472000   0.53491711   -8.5816289    662.88478  0.012352504  0.010920515            2 
 4473000   0.53716984   -8.5760831    662.52194  0.012342983  0.010916799            2 
 4474000   0.54241608   -8.5832555    662.89277  0.012347131   0.01091308            1 
 4475000   0.53803006   -8.5662192    663.21274   0.01235033  0.010909367            7 
 4476000   0.52741108   -8.5849098    662.24903  0.012329629  0.010905656            2 
 4477000   0.53474465   -8.5724125    664.01887  0.012359818  0.010901943            2 
 4478000   0.53480357   -8.5771194    663.79056  0.012352809  0.010898235            1 
 4479000   0.53377982   -8.5797023    663.50926  0.012344818  0.010894527            2 
 4480000   0.53879331   -8.5764455    663.97338  0.012350695  0.010890818            1 
 4481000    0.5281532   -8.5856307    664.22044  0.012352534  0.010887111            2 
 4482000   0.53767894   -8.5738323    663.38217  0.012334192  0.010883403            1 
 4483000   0.53380353   -8.5690724    663.28339  0.012329604  0.010879698            2 
 4484000   0.53312887   -8.5790732    663.45879  0.012330114  0.010875994            3 
 4485000   0.54274022   -8.5673599     663.7058  0.012331955  0.010872295            2 
 4486000   0.54211827   -8.5873973    662.93359  0.012314861  0.010868596            2 
 4487000   0.53306275   -8.5845702      663.103  0.012315263  0.010864896            3 
 4488000   0.53656116   -8.5851767    663.79902  0.012325442  0.010861196            1 
 4489000   0.53392608   -8.5858229    661.85016  0.012286518  0.010857497            3 
 4490000   0.53001831   -8.5841725     663.0042  0.012305201    0.0108538            3 
 4491000   0.52036118   -8.5944237    662.46964  0.012292541  0.010850103            2 
 4492000   0.53088727   -8.5742706    663.14935  0.012302414  0.010846411            5 
 4493000   0.53948218   -8.5998856    662.91483  0.012295327  0.010842717            2 
 4494000   0.53439635   -8.5694653    663.42816  0.012302109  0.010839027            2 
 4495000   0.52986263   -8.5969119    663.70734  0.012304548  0.010835339            2 
 4496000   0.53062431   -8.5899462    662.98963  0.012288509  0.010831652            4 
 4497000   0.53916917   -8.5660104    663.97394  0.012304016   0.01082797            2 
 4498000   0.53993372   -8.5800077    663.39301  0.012290518  0.010824285            4 
 4499000   0.52663381   -8.6031365    662.35301  0.012268523  0.010820604            3 
 4500000   0.53594205   -8.5817079     663.4485  0.012286083  0.010816921            1 
 4501000   0.53543012    -8.592153    662.11933  0.012258745  0.010813239            4 
 4502000     0.541652   -8.5909318     662.8523  0.012269589  0.010809562            2 
 4503000   0.52652828   -8.6004607     663.3761  0.012276558  0.010805888            3 
 4504000   0.53905004   -8.6016077    665.42924   0.01231182  0.010802212            1 
 4505000   0.52882546    -8.594471    662.89354  0.012262182  0.010798538            3 
 4506000   0.52841641   -8.5999464    662.46265  0.012251492  0.010794866            3 
 4507000   0.52386423   -8.5825142    662.86325   0.01225618  0.010791195            2 
 4508000    0.5333589    -8.586331    663.59184   0.01226693  0.010787526            3 
 4509000   0.51938421   -8.5837479    663.58664  0.012264113  0.010783857            2 
 4510000   0.52185512   -8.5811935    662.83186  0.012247448  0.010780191            2 
 4511000   0.53855769   -8.5839559    664.18309  0.012269694  0.010776526            3 
 4512000   0.54029322   -8.5972042     663.0448  0.012245952  0.010772863            4 
 4513000   0.53542631     -8.56028    662.35551   0.01223051  0.010769198            2 
 4514000   0.52941444   -8.5921841    662.89307  0.012237725  0.010765536            4 
 4515000   0.52188757   -8.5783257    663.79722  0.012251702  0.010761874            3 
 4516000   0.52740745   -8.5894209    662.50465  0.012225137  0.010758215            4 
 4517000   0.53050992   -8.6071262    662.18483  0.012216531  0.010754555            3 
 4518000   0.53879189    -8.606289    662.05871    0.0122115  0.010750896            1 
 4519000   0.51828256   -8.6053467    663.39941  0.012233522  0.010747237            4 
 4520000   0.53124237   -8.5767575    663.13497   0.01222594  0.010743585            3 
 4521000   0.52107274   -8.5982241    662.31654   0.01220815  0.010739931            3 
 4522000   0.52079637   -8.5988718    662.49301  0.012208702  0.010736279            2 
 4523000   0.53162036   -8.5875844    662.34077  0.012203198  0.010732633            2 
 4524000   0.53292587   -8.5979443       663.21  0.012216512  0.010728985            1 
 4525000   0.53378445    -8.607368    663.55774  0.012220216  0.010725335            1 
 4526000   0.53421496   -8.5804483    663.72226  0.012220545  0.010721687            6 
 4527000   0.52584623   -8.5992469    663.31209  0.012210295  0.010718039            2 
 4528000   0.52304334   -8.5944365    661.59561  0.012176009  0.010714399            4 
 4529000   0.52283334   -8.5806951    663.00956  0.012199337  0.010710759            5 
 4530000   0.52713606   -8.5989627    662.72262  0.012191365  0.010707122            3 
 4531000   0.52597606   -8.6054682     663.1363  0.012196283  0.010703484            1 
 4532000   0.53659657   -8.5929765    663.54008  0.012201016   0.01069985            3 
 4533000   0.52553672   -8.5994832    664.28916  0.012212096  0.010696219            2 
 4534000    0.5282043   -8.6001162    662.36875  0.012174106  0.010692586            1 
 4535000   0.52211436   -8.5829836    663.31334  0.012188779  0.010688957            3 
 4536000   0.52570688   -8.5981818    662.75772  0.012175884  0.010685334            2 
 4537000   0.52531891   -8.6148797    663.58242  0.012188348  0.010681702            4 
 4538000   0.53084999   -8.6077951    663.01323   0.01217521  0.010678077            3 
 4539000   0.52848304   -8.5909332    662.25396  0.012158588  0.010674454            4 
 4540000    0.5209487   -8.5972694     663.7345  0.012183086   0.01067083            2 
 4541000    0.5167291   -8.6014609     663.8403  0.012182344  0.010667208            3 
 4542000   0.51907726   -8.5983312    661.99594  0.012145823  0.010663588            2 
 4543000   0.52109721   -8.6024756    662.51723  0.012152712  0.010659972            3 
 4544000   0.52107663   -8.5853081    662.50286  0.012149774  0.010656351            2 
 4545000   0.52655947    -8.598428    662.11953  0.012140072   0.01065274            5 
 4546000    0.5237226   -8.5921393    662.69187  0.012147893  0.010649125            4 
 4547000   0.51683857   -8.5987567     662.3339  0.012138661  0.010645509            2 
 4548000   0.51382262   -8.6068355    662.90465   0.01214645  0.010641898            1 
 4549000   0.52177798   -8.6135922    661.60734  0.012120014  0.010638287            2 
 4550000   0.52588354   -8.6304809    662.16251  0.012127518  0.010634677            2 
 4551000   0.53172675   -8.5734502    662.77492  0.012136067   0.01063107            3 
 4552000   0.51843677   -8.5984137    662.86678  0.012135083  0.010627466            3 
 4553000     0.524765   -8.6132661    662.33555  0.012122695  0.010623862            2 
 4554000   0.52223011   -8.5952611    661.43258  0.012103509  0.010620257            3 
 4555000   0.52220574     -8.60962    662.73783  0.012124732  0.010616656            4 
 4556000   0.52386604   -8.6066513    661.79886  0.012104896  0.010613056            4 
 4557000   0.52173094   -8.5911411    663.42415  0.012131961  0.010609455            2 
 4558000   0.51089014   -8.6169915    662.25709  0.012107962  0.010605858            3 
 4559000    0.5213049    -8.605249    661.56471   0.01209265  0.010602261            2 
 4560000   0.52226314   -8.6081946    662.39581  0.012105187  0.010598663            1 
 4561000   0.50883941   -8.5876573    661.60715  0.012088123   0.01059507            3 
 4562000   0.52697203   -8.6022114     662.3917  0.012099805   0.01059148            2 
 4563000   0.51662053   -8.6122284    662.41825  0.012097638  0.010587886            3 
 4564000   0.51839329   -8.6087018    662.92148  0.012104175  0.010584296            6 
 4565000   0.53470801    -8.621104    662.36026  0.012091279   0.01058071            2 
 4566000    0.5127541   -8.5967603    662.40885  0.012089518  0.010577123            3 
 4567000   0.52126629   -8.6053998    663.23681  0.012101978  0.010573539            4 
 4568000   0.51816467     -8.59273    662.05463  0.012077762  0.010569957            1 
 4569000   0.52560245   -8.5980393    661.58187  0.012066496  0.010566375            1 
 4570000   0.51663638   -8.5958053    663.00048  0.012089724  0.010562795            1 
 4571000   0.52092409   -8.6184886    663.20055  0.012090727  0.010559216            3 
 4572000   0.50912148   -8.6033005    662.41327  0.012073733   0.01055564            3 
 4573000   0.51730126   -8.6216752    662.13282  0.012065982  0.010552066            3 
 4574000    0.5194113    -8.616954    662.58183  0.012071524  0.010548493            2 
 4575000   0.53008142   -8.5848303    661.87094  0.012055937   0.01054492            3 
 4576000   0.51469025   -8.6134489    663.25284  0.012078468   0.01054135            2 
 4577000   0.52560536   -8.5954414    663.39202  0.012078363  0.010537781            2 
 4578000   0.53390709   -8.6123152    662.85512  0.012065952  0.010534214            2 
 4579000   0.51115866   -8.6043363    662.34003  0.012053942  0.010530648            2 
 4580000   0.52264615   -8.6058881    661.97816  0.012044726  0.010527081            2 
 4581000   0.52787997   -8.6035764    662.74556  0.012056057  0.010523518            1 
 4582000   0.52252702   -8.6112282    662.85188  0.012055359  0.010519954            3 
 4583000   0.52028019   -8.6034046    662.62467  0.012048598  0.010516392            4 
 4584000   0.52096169   -8.6203107    662.99808  0.012052757  0.010512834            3 
 4585000   0.52048099    -8.624393    662.30573  0.012037545  0.010509277            1 
 4586000   0.50381191   -8.6263904    661.73077  0.012024473  0.010505717            3 
 4587000   0.50614876   -8.6044856    663.44906  0.012053068  0.010502162            2 
 4588000   0.51881079   -8.6034578    662.50627  0.012033316  0.010498609            6 
 4589000   0.51048897   -8.6213173    662.53261  0.012031173  0.010495058            2 
 4590000   0.52240079   -8.6136843    660.97023  0.012000186  0.010491503            5 
 4591000   0.52292436   -8.6398352     661.3896  0.012005184   0.01048795            2 
 4592000   0.52366277   -8.6229384    663.02091  0.012032174  0.010484402            3 
 4593000   0.51254706   -8.6043515    661.46716  0.012001364  0.010480852            2 
 4594000   0.51567685   -8.6128256     662.4235  0.012016099  0.010477301            3 
 4595000   0.52741385    -8.608712    662.51359  0.012015118  0.010473752            3 
 4596000   0.51457116   -8.6279783    662.36082  0.012009733  0.010470205            4 
 4597000   0.51070127   -8.6209005    662.66388  0.012012615  0.010466661            4 
 4598000   0.51776819   -8.5995771    661.32928  0.011985814  0.010463117            4 
 4599000   0.52057284   -8.6065895    661.39187  0.011984342  0.010459573            2 
 4600000   0.51025777   -8.6085607    662.37335  0.011999517  0.010456034            2 
 4601000   0.50555441    -8.617622    662.78589  0.012004381  0.010452493            2 
 4602000   0.51733411   -8.6315406    661.63539  0.011980939  0.010448954            3 
 4603000   0.51081682    -8.624041     661.1883  0.011970242  0.010445418            2 
 4604000   0.51688844   -8.6182832    662.13502  0.011984778  0.010441888            2 
 4605000   0.51733233   -8.6012761    662.34615  0.011985996  0.010438356            6 
 4606000   0.51357393   -8.6112638    661.35852  0.011965525  0.010434826            4 
 4607000   0.50857341   -8.6215873    661.03562  0.011957087  0.010431295            2 
 4608000   0.51787003   -8.6055192    662.54041  0.011981706  0.010427773            4 
 4609000   0.51660676   -8.6231304    662.69101  0.011981829  0.010424247            2 
 4610000   0.50747329   -8.6248457    661.77897  0.011962744  0.010420721            2 
 4611000   0.50720109   -8.6244235    662.48483  0.011972906    0.0104172            2 
 4612000   0.51331488   -8.6096764    662.16054   0.01196445  0.010413679            2 
 4613000   0.51464731   -8.6207115    661.97727  0.011958546  0.010410159            3 
 4614000    0.5064054   -8.6282194    661.86431  0.011953914  0.010406643            1 
 4615000   0.50690487    -8.619629    661.25031  0.011940237  0.010403125            2 
 4616000   0.52847598   -8.6304287    661.01129  0.011933335  0.010399608            4 
 4617000   0.50862018   -8.6236918    661.99944  0.011948586  0.010396095            3 
 4618000   0.51205793   -8.6167598    662.44542  0.011954046  0.010392582            3 
 4619000   0.51496829   -8.6168432    662.16209  0.011946346  0.010389071            2 
 4620000   0.51323985   -8.6145757    662.20085   0.01194446  0.010385563            4 
 4621000   0.50275318   -8.6141574    661.26241  0.011924951  0.010382053            2 
 4622000   0.51545382   -8.6236352    662.08201  0.011937149  0.010378546            2 
 4623000   0.50160279   -8.6067957    661.59724  0.011925828  0.010375039            3 
 4624000    0.5170076   -8.6436286    661.19853  0.011916063   0.01037153            1 
 4625000   0.51715241   -8.6270826    661.41607  0.011917407  0.010368025            2 
 4626000   0.50741196   -8.6275208    661.33901  0.011913442   0.01036452            3 
 4627000   0.51993133   -8.6209895    661.60484  0.011915655  0.010361021            2 
 4628000   0.51150105   -8.6185027    662.39514  0.011927311  0.010357518            3 
 4629000   0.50444572   -8.6176289    660.71356  0.011894462  0.010354018            2 
 4630000   0.51085811   -8.6420935    661.26875  0.011901885  0.010350518            3 
 4631000   0.51134174   -8.6171411    662.73721   0.01192574  0.010347018            3 
 4632000   0.51123858   -8.6289051    661.60426  0.011902782  0.010343523            2 
 4633000   0.51748542   -8.6120879    661.35698  0.011895765   0.01034003            3 
 4634000    0.5088419   -8.6198552    662.04564  0.011905583  0.010336541            1 
 4635000   0.50889929   -8.6230913    661.16352  0.011887154   0.01033305            4 
 4636000   0.51486801   -8.6215336    662.19501  0.011903131  0.010329558            2 
 4637000   0.49862463   -8.6465419    662.19496  0.011900563  0.010326068            1 
 4638000   0.50822555   -8.6376568    661.16816  0.011879549  0.010322578            2 
 4639000   0.51396437   -8.6270188    660.60818  0.011866929  0.010319094            5 
 4640000   0.50879057   -8.6248681     661.2253  0.011875454  0.010315616            3 
 4641000   0.51461397   -8.6349598    661.03881  0.011869547  0.010312134            2 
 4642000    0.5054108   -8.6351975    661.48253  0.011874956  0.010308654            2 
 4643000    0.5186682   -8.6398774    661.21444  0.011867586  0.010305175            4 
 4644000   0.51085758   -8.6163001    662.01854   0.01187946  0.010301697            3 
 4645000   0.49799948   -8.6340644    660.99581  0.011858554  0.010298219            7 
 4646000   0.50503061   -8.6262841    660.88246  0.011853969   0.01029474            4 
 4647000   0.50253137   -8.6395206    661.06818  0.011854748  0.010291267            2 
 4648000   0.51347582   -8.6358626      661.539  0.011860639  0.010287796            3 
 4649000   0.50395692   -8.6173292    661.44011  0.011856315  0.010284322            4 
 4650000   0.50255187    -8.645168    661.41406  0.011853298  0.010280852            3 
 4651000   0.50758105   -8.6243995    661.10271  0.011845172  0.010277379            2 
 4652000   0.51231367   -8.6360945     661.5043  0.011849819  0.010273909            4 
 4653000   0.50765328   -8.6341499    661.49781  0.011847156  0.010270443            5 
 4654000   0.50062979    -8.642736    661.13825  0.011838172  0.010266977            2 
 4655000   0.49935053   -8.6348391    661.27665  0.011838107  0.010263512            2 
 4656000   0.51912786   -8.6389895    662.92872  0.011865133  0.010260052            4 
 4657000    0.5122523   -8.6283881    661.04894  0.011828948  0.010256594            3 
 4658000   0.50928345   -8.6261502    662.20361  0.011847066  0.010253137            3 
 4659000   0.50887892   -8.6313641    660.49052  0.011813882  0.010249678            3 
 4660000   0.50497675   -8.6061885    660.84689   0.01181772  0.010246221            2 
 4661000   0.50944294   -8.6471227    661.00318  0.011817979  0.010242767            2 
 4662000   0.51430223   -8.6119831    661.36075  0.011821835  0.010239314            2 
 4663000   0.50351884   -8.6374237    661.42706  0.011820485   0.01023586            2 
 4664000   0.49469519   -8.6351531    660.99019  0.011810145  0.010232409            2 
 4665000   0.51389533   -8.6200835    661.64469  0.011819305  0.010228961            2 
 4666000   0.51127512   -8.6347883    661.25968  0.011809896  0.010225514            3 
 4667000   0.51153207   -8.6432396    661.20556  0.011806399  0.010222065            3 
 4668000   0.50454187   -8.6404821    660.92478  0.011798857  0.010218623            3 
 4669000   0.50576169   -8.6316135    661.35363  0.011803984  0.010215183            4 
 4670000   0.52029442   -8.6292322    661.83196  0.011809992  0.010211741            2 
 4671000   0.50432029   -8.6398461    662.01275  0.011810689  0.010208306            2 
 4672000   0.49662471   -8.6269371    661.44269  0.011797993  0.010204868            2 
 4673000   0.50664679   -8.6167005    661.49303  0.011796366  0.010201431            4 
 4674000   0.49553011   -8.6130285    661.51092  0.011794161  0.010197998            1 
 4675000   0.50120013   -8.6315417    661.49495  0.011791354  0.010194565            1 
 4676000   0.50495132   -8.6462254    661.65346  0.011791657  0.010191133            2 
 4677000   0.50601803   -8.6350125    661.27737  0.011782435  0.010187701            2 
 4678000   0.50436493   -8.6290696    661.46946  0.011783338   0.01018427            3 
 4679000   0.49888861   -8.6500716    661.11599  0.011774524  0.010180844            3 
 4680000   0.49932567   -8.6372383     660.4574  0.011760281  0.010177416            1 
 4681000   0.51101554   -8.6263367    661.15315  0.011770155  0.010173992            4 
 4682000   0.49978887   -8.6411217    661.78312  0.011778854  0.010170569            5 
 4683000   0.49785329   -8.6394617    662.10052  0.011781987  0.010167145            3 
 4684000    0.4967057   -8.6327429    661.23148   0.01176401  0.010163723            3 
 4685000   0.50417077   -8.6301432    662.19085  0.011778564  0.010160305            3 
 4686000   0.49630975     -8.64434     661.3317  0.011760771  0.010156884            2 
 4687000   0.48793278   -8.6263227    661.58059  0.011762687  0.010153464            5 
 4688000   0.49698405    -8.641441    661.36276  0.011756306  0.010150047            3 
 4689000   0.50475233   -8.6426633    660.53692  0.011739122  0.010146633            3 
 4690000   0.50759556   -8.6365021    661.02987  0.011745378  0.010143219            2 
 4691000   0.49945813   -8.6283227    661.76131  0.011755868  0.010139806            2 
 4692000   0.50017136   -8.6596171    660.52779  0.011731454  0.010136394            1 
 4693000   0.49553308   -8.6394565    661.13263  0.011739694  0.010132983            2 
 4694000   0.50122336    -8.633969    661.03455  0.011735452  0.010129575            2 
 4695000   0.50254098   -8.6504148    661.41637   0.01173973   0.01012617            4 
 4696000     0.495256   -8.6341678    661.54703  0.011739548  0.010122764            3 
 4697000   0.50259657   -8.6544281     660.9966  0.011727283  0.010119363            2 
 4698000   0.50924344    -8.635842    661.69765  0.011737222  0.010115959            2 
 4699000   0.50212167   -8.6316119    661.86998  0.011737781  0.010112559            1 
 4700000   0.49216183   -8.6324785    660.81978  0.011716663  0.010109162            2 
 4701000   0.50643332    -8.645199    660.51044  0.011708687  0.010105764            3 
 4702000   0.50369764   -8.6256644    661.57499  0.011725064   0.01010237            2 
 4703000   0.49742552   -8.6282365    660.10125  0.011696457  0.010098977            4 
 4704000     0.511128   -8.6603889    661.83987  0.011724771   0.01009559            3 
 4705000   0.49760313   -8.6531096    662.02569   0.01172557  0.010092199            2 
 4706000   0.49779204   -8.6473672    661.57939  0.011715176  0.010088809            3 
 4707000     0.488593   -8.6497241    661.25539   0.01170695  0.010085421            2 
 4708000   0.49100104   -8.6451465    661.25491  0.011704455  0.010082034            2 
 4709000   0.50404345   -8.6299828    660.76028  0.011693217  0.010078648            3 
 4710000   0.50446762   -8.6547356    661.35102  0.011701186  0.010075266            1 
 4711000   0.49611496   -8.6549999    661.43432  0.011700175  0.010071883            3 
 4712000   0.50061416   -8.6488009    660.72427  0.011685135    0.0100685            4 
 4713000   0.48915088   -8.6691757    661.94459  0.011704233  0.010065119            2 
 4714000   0.49188534   -8.6378796    660.34638  0.011673497  0.010061741            4 
 4715000   0.50247312   -8.6493447     661.1056   0.01168444  0.010058367            3 
 4716000   0.50964912   -8.6372655    659.46557  0.011652982  0.010054992            4 
 4717000   0.50527087   -8.6584199     660.8098   0.01167426  0.010051619            4 
 4718000   0.49906609   -8.6530409    661.87537  0.011690606  0.010048246            2 
 4719000   0.49459828   -8.6373555    661.44312  0.011680496  0.010044875            6 
 4720000   0.50063919   -8.6475722     661.1334  0.011672553  0.010041503            3 
 4721000    0.4865487   -8.6503067    661.27901  0.011672651  0.010038131            3 
 4722000   0.49760827   -8.6548635     660.8696  0.011662954  0.010034764            2 
 4723000   0.49491507   -8.6622007    660.93033  0.011661556  0.010031398            5 
 4724000   0.50368152   -8.6534109    661.49558  0.011669058  0.010028034            1 
 4725000   0.50229037    -8.648469    661.32477  0.011663576  0.010024671            2 
 4726000   0.50013357    -8.637793     660.6836  0.011649802   0.01002131            4 
 4727000   0.49821912   -8.6434937    662.18183  0.011673751  0.010017949            3 
 4728000   0.48974394   -8.6320417    661.09727  0.011652166  0.010014592            3 
 4729000   0.49296357   -8.6571071    659.64648  0.011624136  0.010011235            4 
 4730000   0.48213508    -8.637834    660.38571  0.011634702  0.010007878            4 
 4731000   0.49943736   -8.6338905    661.81016  0.011657334  0.010004523            3 
 4732000   0.48628658   -8.6275218    660.60335  0.011633618   0.01000117            3 
 4733000   0.49645876   -8.6594278    661.48887  0.011646751 0.0099978145            3 
 4734000   0.48953652   -8.6472698    661.33952  0.011641662 0.0099944644            3 
 4735000   0.49273365   -8.6488592    661.63102  0.011644333 0.0099911155            4 
 4736000   0.49019539   -8.6430332    661.47976  0.011639213 0.0099877668            3 
 4737000   0.50041221   -8.6548636    661.15569  0.011631055  0.009984419            1 
 4738000   0.49781609   -8.6633329    661.01427  0.011626113 0.0099810735            2 
 4739000   0.47843658   -8.6524343    660.82738  0.011620373 0.0099777272            4 
 4740000   0.49703148   -8.6520672    660.82095  0.011617809 0.0099743854            2 
 4741000   0.48770071   -8.6410174    661.27231  0.011623292 0.0099710455            4 
 4742000   0.49408056   -8.6525907    659.98309  0.011598185 0.0099677071            1 
 4743000   0.49807527   -8.6498867    660.91301  0.011612078 0.0099643675            2 
 4744000   0.48503693   -8.6641335    661.03816  0.011611828   0.00996103            3 
 4745000   0.48585451   -8.6725722    660.74915  0.011604305 0.0099576926            3 
 4746000    0.4861433   -8.6603212    661.16275  0.011609123  0.009954356            5 
 4747000   0.49617661   -8.6395326    660.58645   0.01159656 0.0099510225            3 
 4748000   0.48532651   -8.6458385    662.01063  0.011619114  0.009947693            2 
 4749000   0.49079064   -8.6522945    660.96426  0.011598306 0.0099443611            3 
 4750000    0.4934593   -8.6473773    660.60568  0.011589573 0.0099410342            7 
 4751000   0.48609019   -8.6688671    660.31214  0.011581985 0.0099377077            4 
 4752000   0.50787197   -8.6467313    660.92785  0.011590345 0.0099343815            2 
 4753000   0.48184466   -8.6448521    660.95498  0.011588382 0.0099310543            2 
 4754000   0.48422848   -8.6622472    660.44345  0.011576978 0.0099277308            2 
 4755000   0.49279315   -8.6768817    660.45439  0.011574735 0.0099244065            2 
 4756000   0.48378752   -8.6510118    660.04631  0.011565151 0.0099210842            2 
 4757000   0.48593269   -8.6612399    660.71489  0.011574432 0.0099177669            4 
 4758000   0.48588541    -8.652059    660.89022   0.01157507 0.0099144481            3 
 4759000    0.4887049    -8.664193    660.94476  0.011573593 0.0099111332            2 
 4760000   0.49179542   -8.6548061    660.35288    0.0115608 0.0099078181            6 
 4761000   0.48591861   -8.6325318     660.7486  0.011565298  0.009904503            1 
 4762000   0.49382858   -8.6644754    660.09072  0.011551357 0.0099011902            2 
 4763000   0.48779788   -8.6555775    661.32104  0.011570457 0.0098978771            5 
 4764000   0.50682331   -8.6522246    660.78496  0.011558651 0.0098945705            2 
 4765000     0.488784   -8.6702899    660.46693  0.011550663  0.009891262            5 
 4766000   0.49255235   -8.6506683    660.25972  0.011544617 0.0098879568            6 
 4767000   0.48956942   -8.6470555    660.84155  0.011552366  0.009884653            1 
 4768000   0.49353484   -8.6637864    659.71156  0.011530194 0.0098813488            2 
 4769000   0.48435161   -8.6774318    660.72726  0.011545524 0.0098780477            6 
 4770000   0.49649447   -8.6446764    660.79943  0.011544365 0.0098747452            4 
 4771000   0.49954773   -8.6517961     660.9883  0.011545244 0.0098714478            5 
 4772000   0.47600237   -8.6611312    660.48946  0.011534113 0.0098681491            7 
 4773000   0.49083841   -8.6536009     661.1413  0.011543077 0.0098648533            1 
 4774000   0.47598748   -8.6703692    661.12482  0.011540372 0.0098615585            2 
 4775000   0.49278176   -8.6459518     659.9497  0.011517447 0.0098582662            3 
 4776000   0.48547071   -8.6699943    660.81435  0.011530122 0.0098549762            1 
 4777000   0.49137584   -8.6630711    659.96317   0.01151286 0.0098516868            4 
 4778000    0.4908595    -8.658482    659.67814  0.011505479  0.009848396            3 
 4779000   0.49380296   -8.6566375    660.44435  0.011516432 0.0098451087            2 
 4780000   0.50324201   -8.6600025    660.70981  0.011518651 0.0098418209            7 
 4781000   0.48936509   -8.6539867    659.48454  0.011494885 0.0098385359            3 
 4782000   0.49477396   -8.6678298    660.53311  0.011510754 0.0098352521            2 
 4783000   0.49205461   -8.6486712    661.12979  0.011518743 0.0098319698            4 
 4784000   0.49102566   -8.6553867     660.4264  0.011504083 0.0098286918            2 
 4785000   0.49206106   -8.6627821    659.82468  0.011491199 0.0098254125            1 
 4786000   0.47343721   -8.6652992    660.53852  0.011501228 0.0098221331            3 
 4787000   0.48484084   -8.6665989    660.02604  0.011489904 0.0098188536            2 
 4788000   0.49650559   -8.6683976    659.60873  0.011480241 0.0098155738            4 
 4789000    0.4785079   -8.6683516    660.13473  0.011486997 0.0098122955            4 
 4790000   0.47191035   -8.6585123    659.98703  0.011482029 0.0098090216            4 
 4791000   0.49011089   -8.6550667    661.11822  0.011499308   0.00980575            3 
 4792000   0.48827468   -8.6478346    660.19875  0.011480919 0.0098024791            4 
 4793000   0.48311313   -8.6725505    660.63787  0.011486158 0.0097992109            2 
 4794000   0.48769238   -8.6610528    660.02231  0.011473062 0.0097959441            3 
 4795000   0.48092052   -8.6672035     659.9885  0.011470082 0.0097926763            2 
 4796000   0.48324328   -8.6541783    660.05522  0.011468849 0.0097894102            2 
 4797000   0.49129701      -8.6716    659.40154  0.011455103 0.0097861448            2 
 4798000   0.47422491   -8.6541178    659.93739  0.011462022 0.0097828803            2 
 4799000   0.47990676   -8.6601015    660.52014  0.011469753 0.0097796166            2 
 4800000   0.48312806   -8.6629354    659.89677  0.011456541 0.0097763564            3 
 4801000   0.48569797   -8.6720092    660.28706  0.011460929 0.0097730983            2 
 4802000   0.47376462   -8.6735613    659.71367  0.011448592 0.0097698417            2 
 4803000   0.48830665   -8.6655511    660.01396  0.011451419 0.0097665863            1 
 4804000   0.48990447   -8.6775955    658.84876  0.011428822 0.0097633326            3 
 4805000   0.47287436   -8.6701842    659.44213  0.011436735 0.0097600794            3 
 4806000   0.48469111     -8.64873    660.73657    0.0114568 0.0097568287            3 
 4807000   0.47199076   -8.6735176    659.62858  0.011435209 0.0097535774            5 
 4808000   0.48371913   -8.6672723    660.32763  0.011444946 0.0097503268            3 
 4809000   0.47579712   -8.6596253     661.3925  0.011461019 0.0097470809            3 
 4810000   0.47852224   -8.6755425    660.25581  0.011438943 0.0097438369            2 
 4811000   0.47526565   -8.6513741    661.44352  0.011457138 0.0097405937            2 
 4812000   0.48183493   -8.6739072    661.43015  0.011454526  0.009737351            2 
 4813000   0.48686284   -8.6636393    660.64954   0.01143863  0.009734108            2 
 4814000   0.47974319   -8.6734846    659.43936  0.011415305 0.0097308671            4 
 4815000   0.48231321   -8.6633947    659.80777  0.011419311 0.0097276255            4 
 4816000   0.48530164   -8.6688815    659.93285  0.011419104 0.0097243848            5 
 4817000   0.48736312   -8.6714166    660.63438   0.01142887 0.0097211478            3 
 4818000   0.48208957   -8.6825849    659.53151  0.011407422 0.0097179105            4 
 4819000   0.48276793   -8.6495981    660.36847  0.011419528 0.0097146778            2 
 4820000   0.47311922    -8.678201    659.53466  0.011402743 0.0097114445            3 
 4821000    0.4738517   -8.6676133    659.61544  0.011401774 0.0097082101            5 
 4822000   0.48311302   -8.6619273    660.31219  0.011411451 0.0097049816            3 
 4823000    0.4815446   -8.6625875    660.28448  0.011408606 0.0097017539            3 
 4824000   0.47783681   -8.6872962    659.33578  0.011389852 0.0096985251            2 
 4825000   0.47050196   -8.6751941    660.30183  0.011404177 0.0096952993            4 
 4826000   0.47750812   -8.6626446    659.74137  0.011392136 0.0096920776            5 
 4827000   0.48854803   -8.6790426    660.09112  0.011395814 0.0096888528            4 
 4828000   0.48102001   -8.6825483    659.76885  0.011387891 0.0096856329            1 
 4829000   0.48407355   -8.6833206    659.42679   0.01137963 0.0096824113            4 
 4830000   0.48013677   -8.6493962    659.94831  0.011386272 0.0096791918            1 
 4831000   0.47857469   -8.6682182      660.373  0.011391241 0.0096759751            3 
 4832000   0.48523556   -8.6680635    660.46712  0.011390506 0.0096727608            4 
 4833000   0.48353567   -8.6722879    659.97996   0.01137975 0.0096695439            4 
 4834000   0.47839972   -8.6817717    659.51026  0.011369298 0.0096663296            3 
 4835000   0.47847456   -8.6745906    659.69762  0.011370176 0.0096631169            6 
 4836000   0.48093196   -8.6729689    660.31386  0.011378444 0.0096598999            2 
 4837000   0.47920763   -8.6715269    660.08024  0.011372067  0.009656688            4 
 4838000   0.46729122    -8.680423     660.0206  0.011368689 0.0096534774            2 
 4839000   0.48097685   -8.6780595    659.97602  0.011365572 0.0096502682            3 
 4840000   0.47225792    -8.680198    659.65078  0.011357624 0.0096470591            2 
 4841000   0.48485314   -8.6924002    659.66514  0.011355525  0.009643851            3 
 4842000   0.47167073   -8.6769101    659.71082  0.011353966 0.0096406455            3 
 4843000   0.47359445   -8.6763761    659.42183  0.011346649 0.0096374432            2 
 4844000   0.46124455    -8.703669    660.53581   0.01136347 0.0096342403            5 
 4845000   0.46424624   -8.6828025    659.67407  0.011346303 0.0096310371            4 
 4846000   0.48202446   -8.6698727    660.63702  0.011360521 0.0096278384            5 
 4847000   0.47416041   -8.6784063    660.11005  0.011349117 0.0096246376            6 
 4848000    0.4671074   -8.6743115    660.19112   0.01134817 0.0096214415            3 
 4849000   0.48813157   -8.6785858    659.67176  0.011336904 0.0096182462            5 
 4850000   0.47279235   -8.6667551    660.73211  0.011352785 0.0096150504            3 
 4851000   0.48002173   -8.6798046    660.21548   0.01134157 0.0096118588            3 
 4852000   0.47398633   -8.6877121    659.43357  0.011325803 0.0096086671            4 
 4853000   0.47403048   -8.6754905    659.51305  0.011324834  0.009605477            3 
 4854000   0.47675637   -8.6861125    660.34514  0.011336787 0.0096022892            3 
 4855000   0.46951608   -8.6794019    660.45405  0.011336321 0.0095990998            2 
 4856000   0.47538994   -8.6736026     659.7523  0.011321944  0.009595912            2 
 4857000   0.47493002   -8.6793162    659.34451  0.011312616 0.0095927255            2 
 4858000   0.47809573   -8.6763881    660.02534  0.011321966 0.0095895423            4 
 4859000   0.47820979   -8.6724041    660.58864  0.011329297 0.0095863572            4 
 4860000   0.46852531   -8.6867631    660.12191  0.011318963 0.0095831716            2 
 4861000   0.48533787   -8.6839536    660.21508  0.011318231 0.0095799898            3 
 4862000   0.47059372   -8.6786759    660.13186  0.011314477 0.0095768095            3 
 4863000   0.46295039    -8.685873    659.65574  0.011303992 0.0095736311            1 
 4864000   0.47934502   -8.6820459    659.68665  0.011302197 0.0095704505            2 
 4865000   0.47607062   -8.6778354    659.46849  0.011296137 0.0095672728            4 
 4866000   0.47409647   -8.6798415    659.80496  0.011299578  0.009564097            3 
 4867000   0.47566832   -8.6662138    660.02127   0.01130096 0.0095609256            3 
 4868000   0.46917022   -8.6939981     660.0163  0.011298553 0.0095577584            3 
 4869000   0.47222871   -8.6930411    660.54574  0.011305294 0.0095545881            1 
 4870000   0.47643386    -8.686713    659.19096   0.01127979 0.0095514187            1 
 4871000   0.46672681   -8.6783178    659.81957  0.011288229 0.0095482522            3 
 4872000   0.46655768   -8.6939108    659.31235  0.011277236 0.0095450879            3 
 4873000   0.46912992   -8.6918817    660.75274  0.011299554  0.009541923            3 
 4874000   0.47031809   -8.6703647    659.72122  0.011279599 0.0095387594            5 
 4875000   0.47755531   -8.6754355    659.07887  0.011266305  0.009535599            5 
 4876000   0.47160599   -8.7021247    659.21964  0.011266401 0.0095324381            1 
 4877000   0.48299056   -8.6973699     660.2719  0.011282071 0.0095292775            2 
 4878000   0.46536311   -8.6720549    659.42765  0.011265335 0.0095261205            2 
 4879000   0.46716657   -8.6851366    659.73355  0.011268251 0.0095229646            2 
 4880000   0.47503092   -8.6979841    660.70292  0.011282495 0.0095198099            1 
 4881000   0.46955413   -8.6859823    659.55833  0.011260642 0.0095166554            3 
 4882000   0.48221291   -8.6858368    660.05955  0.011266891 0.0095135036            1 
 4883000   0.46334266   -8.7052705    658.84609  0.011243875 0.0095103502            2 
 4884000   0.47145786   -8.6751875    660.08497  0.011262711 0.0095072004            2 
 4885000   0.48227162   -8.6882628    660.00896  0.011259109  0.009504052            3 
 4886000    0.4652975   -8.6999841    659.08355  0.011241021 0.0095009032            4 
 4887000   0.48584586   -8.6816758    659.88472  0.011252383 0.0094977559            2 
 4888000   0.45666932   -8.6951943    659.45166  0.011242697 0.0094946111            2 
 4889000   0.46275266   -8.6876203    659.67221  0.011244157 0.0094914673            4 
 4890000   0.47643041   -8.6841659    660.23195  0.011251397 0.0094883273            3 
 4891000    0.4699229   -8.6816511    658.91066  0.011226584 0.0094851872            3 
 4892000   0.47638873   -8.6943253    659.82596  0.011239881 0.0094820457            3 
 4893000   0.46656394   -8.6747586    659.43277  0.011230887 0.0094789076            4 
 4894000   0.46671751   -8.6830726    660.29728  0.011243313 0.0094757692            2 
 4895000   0.46801795   -8.6895386    660.13698  0.011238287  0.009472631            2 
 4896000   0.47718834   -8.7013402    659.29078  0.011221589 0.0094694965            4 
 4897000   0.46377053   -8.6927496    659.64323  0.011225295 0.0094663641            2 
 4898000   0.46619434   -8.6979229    659.92731  0.011227836 0.0094632323            4 
 4899000   0.47478277   -8.6852003    659.97287  0.011226319 0.0094601022            7 
 4900000   0.46887768   -8.6800752    659.84367  0.011221831 0.0094569733            2 
 4901000   0.46437624   -8.6721228     659.5933  0.011215284 0.0094538467            2 
 4902000   0.46698488   -8.6936129    659.16322  0.011205685 0.0094507194            6 
 4903000   0.46567142   -8.6981595    659.36477  0.011206825 0.0094475917            4 
 4904000     0.473251   -8.7008532     659.6434  0.011209275 0.0094444652            2 
 4905000   0.46265146   -8.6886021    657.99241   0.01117894 0.0094413411            1 
 4906000    0.4692863   -8.6891628    658.65529  0.011187921 0.0094382168            1 
 4907000    0.4613085   -8.6618359    659.22347   0.01119529  0.009435094            2 
 4908000   0.46902212   -8.6903475    659.45166  0.011196884 0.0094319767            4 
 4909000   0.46074296   -8.6994737    659.45306  0.011194627 0.0094288585            3 
 4910000   0.46040217    -8.707362    658.12782  0.011169854 0.0094257406            2 
 4911000   0.46301439   -8.6983376    659.97479  0.011198921 0.0094226217            3 
 4912000    0.4629316   -8.6949202    659.98656   0.01119684 0.0094195082            3 
 4913000   0.46526169   -8.6783666    659.15686  0.011180488 0.0094163935            2 
 4914000   0.45208538   -8.6902358     659.7791  0.011188765 0.0094132792            5 
 4915000    0.4606637   -8.6906226    658.23258  0.011160268 0.0094101669            4 
 4916000   0.46667193   -8.6999615    659.01787  0.011171309 0.0094070573            4 
 4917000     0.460452   -8.6881799    658.29278  0.011156748 0.0094039468            2 
 4918000   0.46010826   -8.7075037    659.71548  0.011178587 0.0094008371            3 
 4919000    0.4686465   -8.6988679    659.24816  0.011168397 0.0093977316            3 
 4920000    0.4645535   -8.7011149    658.83054  0.011159054 0.0093946252            2 
 4921000   0.46155417   -8.6786913    658.51469  0.011151437 0.0093915213            2 
 4922000    0.4632554   -8.6916899    659.90452  0.011172703 0.0093884186            5 
 4923000   0.45945838   -8.6887254    659.58277  0.011164987 0.0093853174            1 
 4924000   0.46647622   -8.7000704    659.02177  0.011153225 0.0093822177            3 
 4925000   0.45827925   -8.6974098    658.56278  0.011143194 0.0093791187            2 
 4926000    0.4758362   -8.7038005    659.72565  0.011160604 0.0093760204            2 
 4927000   0.46304627   -8.6881861     658.4612  0.011136953 0.0093729217            3 
 4928000   0.46275981   -8.6913989     658.8017  0.011140451 0.0093698256            5 
 4929000   0.45990162   -8.6954142    659.00371  0.011141606 0.0093667346            2 
 4930000   0.46500855   -8.6908237    659.28553   0.01114411 0.0093636426            2 
 4931000   0.46056914   -8.6849986    659.14063  0.011139401 0.0093605516            2 
 4932000    0.4513662   -8.6920553    658.61779  0.011128308 0.0093574618            3 
 4933000   0.47297446   -8.6687977    659.44305  0.011139993 0.0093543755            5 
 4934000   0.46961032   -8.7189701    659.32712  0.011135778 0.0093512889            3 
 4935000   0.46507572   -8.6846208    658.28218  0.011115876 0.0093482013            3 
 4936000   0.45362593   -8.7046631    659.07678  0.011127039 0.0093451179            2 
 4937000   0.46821493   -8.6824299    658.70764  0.011118555  0.009342035            2 
 4938000   0.46308495   -8.7034738    658.46719  0.011112245 0.0093389508            3 
 4939000   0.45756743   -8.6988509    659.10659  0.011120783 0.0093358698            3 
 4940000   0.46769851   -8.6901405    660.07245  0.011134825 0.0093327905            2 
 4941000   0.45396555   -8.7044066    660.68734  0.011142942 0.0093297132            2 
 4942000   0.45462604   -8.7116002     659.5876  0.011122144 0.0093266364            2 
 4943000   0.46914648   -8.6982935    659.16321  0.011112739 0.0093235611            2 
 4944000   0.46409412   -8.7018771    658.97659  0.011107345 0.0093204884            2 
 4945000   0.46004723   -8.6957482    658.51366  0.011097298 0.0093174146            3 
 4946000   0.46345334   -8.6906018    658.89866  0.011101541 0.0093143424            3 
 4947000   0.46773438   -8.6925678    659.09896  0.011102671 0.0093112741            2 
 4948000   0.45900274    -8.711847    658.64324  0.011092752 0.0093082042            2 
 4949000   0.45536111   -8.7087843    658.98605  0.011096283 0.0093051366            2 
 4950000   0.45732107   -8.6953883    658.85618  0.011091855 0.0093020677            3 
 4951000   0.46085604   -8.7198456    659.20918  0.011095556 0.0092990001            3 
 4952000   0.45994438   -8.7134845    659.68848  0.011101381  0.009295937            4 
 4953000   0.45311894   -8.7144277    658.64441  0.011081574  0.009292873            2 
 4954000   0.45476468   -8.7057711    659.13861   0.01108765 0.0092898096            1 
 4955000   0.46777954   -8.7116935    658.77727  0.011079335 0.0092867486            4 
 4956000   0.46314361    -8.712422    658.55202  0.011073312 0.0092836877            4 
 4957000   0.45756353   -8.6997326    658.58337  0.011071605 0.0092806268            2 
 4958000    0.4520001   -8.6991731    658.83545  0.011073609 0.0092775686            3 
 4959000   0.44711355   -8.7160516    659.69705  0.011085855 0.0092745129            2 
 4960000   0.45341085   -8.7115566    658.97344  0.011071462 0.0092714595            4 
 4961000   0.45022485   -8.6859664    659.43271  0.011076945 0.0092684032            3 
 4962000   0.45530131     -8.69578    659.31433  0.011072725 0.0092653504            5 
 4963000   0.46929941   -8.7244099    658.80869  0.011062004 0.0092622981            7 
 4964000   0.45383969   -8.6874801    658.29326  0.011051122  0.009259247            2 
 4965000   0.46542588   -8.7199006    658.61464  0.011054291 0.0092561992            6 
 4966000   0.45872666   -8.7218236    658.39742   0.01104842  0.009253152            3 
 4967000   0.46113615   -8.7074806    659.28551  0.011061095 0.0092501053            3 
 4968000    0.4542892   -8.7127057    658.85633   0.01105167  0.009247061            2 
 4969000   0.45446193   -8.7087062    658.38299  0.011041507 0.0092440162            2 
 4970000   0.45469534   -8.7208219    659.14648  0.011052087 0.0092409738            2 
 4971000   0.45533271   -8.6990948    658.84294  0.011044775 0.0092379321            2 
 4972000   0.45754152   -8.7089908    658.34331   0.01103418 0.0092348901            2 
 4973000   0.44573374   -8.7037432    658.10891  0.011028033 0.0092318543            2 
 4974000   0.45500157   -8.7082779    658.78994  0.011037226 0.0092288159            2 
 4975000   0.45678266    -8.722765    659.01325  0.011038748 0.0092257811            4 
 4976000    0.4567912   -8.7070767    658.76843  0.011032429  0.009222746            2 
 4977000   0.45354259   -8.7062012    658.51635  0.011025992 0.0092197148            3 
 4978000   0.46233876   -8.7017294    659.28373  0.011036623 0.0092166833            1 
 4979000   0.45477017   -8.7145373    659.34996  0.011035515  0.009213654            2 
 4980000   0.44756086   -8.7177819     659.3749  0.011033716 0.0092106259            5 
 4981000   0.45872554   -8.7005851    659.51891  0.011033911 0.0092076004            2 
 4982000   0.46542794   -8.7026945    658.26971  0.011010801 0.0092045782            5 
 4983000   0.46150638   -8.7210093    658.35796  0.011010067 0.0092015554            1 
 4984000   0.45574568   -8.7175804    658.53447  0.011010809 0.0091985345            2 
 4985000   0.44308656   -8.6986393    657.85262  0.010997202 0.0091955115            4 
 4986000   0.46047769   -8.7129434    659.61205  0.011024403  0.009192491            4 
 4987000   0.45860669   -8.7112528     659.2764  0.011016583 0.0091894712            6 
 4988000   0.45148486   -8.7035151    658.03503  0.010993635 0.0091864535            2 
 4989000   0.46027413   -8.7107542    658.78562  0.011003969 0.0091834383            3 
 4990000    0.4478516   -8.7232786    659.25837  0.011009659 0.0091804234            3 
 4991000   0.45628288   -8.7004919    658.39947  0.010993112 0.0091774093            2 
 4992000    0.4547625   -8.7260993     659.1049  0.011002686 0.0091743953            2 
 4993000   0.44244387   -8.7384892    659.32974  0.011004235 0.0091713827            1 
 4994000   0.46627688   -8.7243608    658.87884  0.010994507 0.0091683707            5 
 4995000   0.44701588    -8.712487    659.14123  0.010996684 0.0091653619            1 
 4996000   0.44763418   -8.7045872    658.45722  0.010983073 0.0091623533            2 
 4997000    0.4550125   -8.7095496    659.99833  0.011006576 0.0091593454            3 
 4998000   0.44765006   -8.7044132    658.36595  0.010977157 0.0091563401            2 
 4999000   0.44969266   -8.7281295    658.14188  0.010971226 0.0091533347            2 
 5000000   0.44607089   -8.7249188    658.57538  0.010976256 0.0091503316            4 
 5001000   0.45598707   -8.7166238    657.79275   0.01096102 0.0091473309            2 
 5002000   0.46569522   -8.7159018    658.54524  0.010971366 0.0091443281            4 
 5003000   0.46180024   -8.7233862    659.55343  0.010985966 0.0091413281            4 
 5004000   0.46036149   -8.7054093    658.81611  0.010971491 0.0091383294            2 
 5005000   0.45101671   -8.7274234    658.35418  0.010961608 0.0091353332            2 
 5006000   0.46229035   -8.7145261     658.1034  0.010955244 0.0091323354            6 
 5007000   0.43925599   -8.7123021    657.95755  0.010950628 0.0091293423            2 
 5008000   0.45138673   -8.7061207    658.78018   0.01096213 0.0091263489            4 
 5009000   0.44582255   -8.7144215    659.64669  0.010974358 0.0091233555            4 
 5010000   0.45000007    -8.712894    658.12828  0.010946911 0.0091203637            3 
 5011000   0.46812041   -8.7218345    658.25828  0.010946888 0.0091173718            6 
 5012000    0.4620824   -8.7153242    657.94565  0.010939506  0.009114382            2 
Loop time of 12033.3 on 48 procs for 5000000 steps with 4000 atoms

Performance: 71800.687 tau/day, 415.513 timesteps/s
99.4% CPU use with 48 MPI tasks x no OpenMP threads

MPI task timing breakdown:
Section |  min time  |  avg time  |  max time  |%varavg| %total
---------------------------------------------------------------
Pair    | 772.36     | 816.03     | 857.31     |  90.1 |  6.78
Neigh   | 78.658     | 81.926     | 84.733     |  18.3 |  0.68
Comm    | 761.8      | 808.59     | 854.28     |  98.7 |  6.72
Output  | 13.816     | 13.821     | 13.901     |   0.3 |  0.11
Modify  | 10193      | 10207      | 10222      |   6.7 | 84.83
Other   |            | 105.6      |            |       |  0.88

Nlocal:        83.3333 ave          89 max          77 min
Histogram: 2 2 8 5 1 10 9 2 3 6
Nghost:        2076.96 ave        2097 max        2055 min
Histogram: 2 2 4 5 9 9 4 8 3 2
Neighs:        13529.1 ave       14765 max       11951 min
Histogram: 1 1 5 6 8 6 5 6 8 2
FullNghs:      27057.0 ave       28958 max       24918 min
Histogram: 2 3 7 6 2 8 6 5 3 6

Total # of neighbors = 1298735
Ave neighs/atom = 324.68375
Neighbor list builds = 267619
Dangerous builds = 2

#clear
#
#next RN
#
#jump SELF
Total wall time: 3:20:36
