
units lj                  # Use reduced LJ style units
atom_style atomic         # Uncharged point particles
atom_modify map hash      # Needed for indexing of clusters etc
                          # Used to be able to find where atoms are in relation to each other.

lattice fcc 1.0 spacing 1 1 1
Lattice spacing in x,y,z = 1.5874011 1.5874011 1.5874011
region box block 0 10 0 10 0 10 units lattice
create_box 2 box
Created orthogonal box = (0.0000000 0.0000000 0.0000000) to (15.874011 15.874011 15.874011)
  3 by 4 by 4 MPI processor grid
create_atoms 1 box
Created 4000 atoms
  using lattice units in orthogonal box = (0.0000000 0.0000000 0.0000000) to (15.874011 15.874011 15.874011)
  create_atoms CPU = 0.002 seconds
set type 1 type/fraction 2 0.04 78393
Setting atom values ...
  161 settings made for type/fraction
mass 1 1.0
mass 2 1.0
pair_style lj/cut  3.5
pair_modify tail  yes
pair_coeff 1  1  1.0  1.0   # Intearaction between 1 and 1 set with epsilon = 1 and sigma = 1
pair_coeff 1  2  1.5  0.8
pair_coeff 2  2  0.5  0.88

write_data data.0
System init for write_data ...
Neighbor list info ...
  update every 1 steps, delay 10 steps, check yes
  max neighbors/atom: 2000, page size: 100000
  master list distance cutoff = 3.8
  ghost atom cutoff = 3.8
  binsize = 1.9, bins = 9 9 9
  1 neighbor lists, perpetual/occasional/extra = 1 0 0
  (1) pair lj/cut, perpetual
      attributes: half, newton on
      pair build: half/bin/atomonly/newton
      stencil: half/bin/3d
      bin: standard
WARNING: Not all mixed pair coeffs generated from mixing. Use write_data with 'pair ij' option to store all pair coeffs. (../write_data.cpp:312)


#############################
#   M E L T   S Y S T E M   #
#############################

velocity all create 2.4 2750902 mom yes dist gaussian # Assign velocities
                                                    # Temperature 2.4, random number seed, zero linear momentum
                                                                                # Gaussian distribution

timestep 0.002   # simulation timestep
thermo 1000       # output thermodynamic data every 1000 steps bf 100

# Define a fix  in this case with index 1 applied to all
# particles in the simulation. This fix is for simulations
# in the anisotropic NPT ensemble. Note that we use the MTK
# correction.
fix 1 all npt temp 2.4 2.4 0.1 iso 5.68 5.68 0.5 mtk yes tchain 5 pchain 5 # Use NPT ensemble
                                                                         # Set temperature and pressure and damping
                                                                         # Numbers of thermostats in chain and in barostat
run 10000          # run for 10000 steps
Per MPI rank memory allocation (min/avg/max) = 3.642 | 3.644 | 3.648 Mbytes
Step Temp E_pair E_mol TotEng Press Volume 
       0          2.4   -8.1195307            0   -4.5204307   -2.5632236         4000 
    1000    2.4253662    -4.515482            0  -0.87834226    5.6848102    5037.5923 
    2000    2.4296877    -4.412775            0  -0.76915464    5.8601627    5085.8279 
    3000    2.3713878   -4.4471281            0  -0.89093564    5.7102964    5085.3855 
    4000    2.3781734   -4.4387457            0  -0.87237737    5.6892462    5090.5792 
    5000    2.3300635   -4.4676385            0  -0.97341708     5.469764    5095.9692 
    6000    2.4328949   -4.4338356            0  -0.78540553     5.854554     5072.712 
    7000    2.4187531   -4.4296896            0  -0.80246702     5.800509    5078.2519 
    8000    2.4608561    -4.525085            0  -0.83472378    5.4850899    5073.9389 
    9000    2.3881537   -4.4184253            0  -0.83709034    5.8673267    5074.7645 
   10000    2.3971905   -4.4459377            0  -0.85105095    5.7242146    5081.3704 
Loop time of 2.23576 on 48 procs for 10000 steps with 4000 atoms

Performance: 772890.043 tau/day, 4472.743 timesteps/s
99.5% CPU use with 48 MPI tasks x no OpenMP threads

MPI task timing breakdown:
Section |  min time  |  avg time  |  max time  |%varavg| %total
---------------------------------------------------------------
Pair    | 0.85243    | 0.92404    | 1.0258     |   3.6 | 41.33
Neigh   | 0.16573    | 0.17366    | 0.19115    |   0.9 |  7.77
Comm    | 0.6561     | 0.78768    | 0.88251    |   6.3 | 35.23
Output  | 0.00025082 | 0.00025543 | 0.00032293 |   0.0 |  0.01
Modify  | 0.27881    | 0.33582    | 0.3932     |   5.3 | 15.02
Other   |            | 0.01432    |            |       |  0.64

Nlocal:        83.3333 ave          93 max          76 min
Histogram: 3 5 9 6 6 8 5 3 1 2
Nghost:        1400.29 ave        1433 max        1363 min
Histogram: 1 2 2 5 9 9 11 5 3 1
Neighs:        7492.96 ave        8396 max        6652 min
Histogram: 2 3 8 6 6 8 5 5 2 3

Total # of neighbors = 359662
Ave neighs/atom = 89.915500
Neighbor list builds = 903
Dangerous builds = 212

# Equilibrate just above the melting temperature to avoid step fn in T

fix 1 all npt temp 1.25 1.25 0.1 iso 5.68 5.68 0.5 mtk yes tchain 5 pchain 5
run 2000
Per MPI rank memory allocation (min/avg/max) = 3.643 | 3.645 | 3.648 Mbytes
Step Temp E_pair E_mol TotEng Press Volume 
   10000    2.3971905   -4.4459377            0  -0.85105095    5.7242146    5081.3704 
   11000    1.2268426   -5.9980295            0   -4.1582257    5.6201426    4202.4746 
   12000    1.2538744   -5.9673484            0    -4.087007    5.5852235     4217.319 
Loop time of 0.45006 on 48 procs for 2000 steps with 4000 atoms

Performance: 767897.330 tau/day, 4443.850 timesteps/s
99.6% CPU use with 48 MPI tasks x no OpenMP threads

MPI task timing breakdown:
Section |  min time  |  avg time  |  max time  |%varavg| %total
---------------------------------------------------------------
Pair    | 0.1944     | 0.21043    | 0.24111    |   1.7 | 46.76
Neigh   | 0.031062   | 0.032284   | 0.036876   |   0.5 |  7.17
Comm    | 0.12434    | 0.15506    | 0.17657    |   2.5 | 34.45
Output  | 5.0167e-05 | 5.1032e-05 | 6.3113e-05 |   0.0 |  0.01
Modify  | 0.040664   | 0.047955   | 0.058691   |   2.5 | 10.66
Other   |            | 0.00428    |            |       |  0.95

Nlocal:        83.3333 ave          92 max          77 min
Histogram: 6 3 7 4 9 4 10 1 3 1
Nghost:        1587.00 ave        1608 max        1562 min
Histogram: 2 3 2 6 8 5 8 5 8 1
Neighs:        9041.10 ave        9929 max        8151 min
Histogram: 2 6 2 7 9 4 6 6 3 3

Total # of neighbors = 433973
Ave neighs/atom = 108.49325
Neighbor list builds = 144
Dangerous builds = 7

#############################
# L I N E A R  Q U E N C H  #
#############################

# Define solid atoms. This closely follows ten Wolde  Ruiz-Montero and Frenkel  Faraday Discuss  1996  104  93-110
# Compute components of the per-atom q6 vector
compute q6 all orientorder/atom degrees 1 6 components 6 nnn NULL cutoff 1.3 # compute the Q6 parameter.
                                                                             # Use all neighbours within 1.3 unit cell.

# get number of connections
compute coord_number all coord/atom orientorder q6 0.5

# An atom is solid if it has 8 or more connections (of a possible 14)
variable is_solid atom c_coord_number>=8
group solid dynamic all var is_solid    # Must be dynamic to update
dynamic group solid defined

# do clustering
compute cluster solid cluster/atom 1.3 # Create a cluster where all atoms within are solid and max 1.3 units from another member

# define chunks one chunk per cluster
compute clus_chunks solid chunk/atom c_cluster nchunk every compress yes  # Says which atoms are in which chunk

# count the size of each chunk
compute size_chunks solid property/chunk clus_chunks count


# Find the maximum entry in the vector of chunk sizes
variable max_n equal max(c_size_chunks)


# Thermo style which includes this variable
# thermo_style custom step temp pe vol v_max_n

thermo ${N}  # Print the thermo information every 100 steps
thermo 1000  

# Reset the npt fix at a lower temperature (below freezing)
fix 1  all npt temp  ${temp} ${temp}  0.1  iso  5.68  5.68  0.5  mtk yes tchain  5  pchain  5
fix 1  all npt temp  0.45 ${temp}  0.1  iso  5.68  5.68  0.5  mtk yes tchain  5  pchain  5
fix 1  all npt temp  0.45 0.45  0.1  iso  5.68  5.68  0.5  mtk yes tchain  5  pchain  5

dump dmp2 all dcd ${N} traj.dcd
dump dmp2 all dcd 1000 traj.dcd


compute msd all msd com yes
variable twopoint equal c_msd[4]/6/(step*dt+1.0e-6)
fix 9 all vector 10 c_msd[4]
variable fit equal slope(f_9)/6/(10*dt)
thermo_style custom step temp pe c_msd[4] v_twopoint v_fit v_max_n

fix 1 all npt temp 1.25 ${temp} 0.1 iso 5.68 5.68 0.5 mtk yes tchain 5 pchain 5
fix 1 all npt temp 1.25 0.45 0.1 iso 5.68 5.68 0.5 mtk yes tchain 5 pchain 5
run 2000000 # 5000000  # Run for this many steps
Neighbor list info ...
  update every 1 steps, delay 10 steps, check yes
  max neighbors/atom: 2000, page size: 100000
  master list distance cutoff = 3.8
  ghost atom cutoff = 3.8
  binsize = 1.9, bins = 9 9 9
  4 neighbor lists, perpetual/occasional/extra = 1 3 0
  (1) pair lj/cut, perpetual
      attributes: half, newton on
      pair build: half/bin/atomonly/newton
      stencil: half/bin/3d
      bin: standard
  (2) compute orientorder/atom, occasional
      attributes: full, newton on
      pair build: full/bin/atomonly
      stencil: full/bin/3d
      bin: standard
  (3) compute coord/atom, occasional
      attributes: full, newton on
      pair build: full/bin/atomonly
      stencil: full/bin/3d
      bin: standard
  (4) compute cluster/atom, occasional
      attributes: full, newton on
      pair build: full/bin/atomonly
      stencil: full/bin/3d
      bin: standard
Per MPI rank memory allocation (min/avg/max) = 9.736 | 9.740 | 9.746 Mbytes
Step Temp PotEng c_msd[4] v_twopoint v_fit v_max_n 
   12000    1.2538744   -5.9673484            0            0 8.3333333e+20            2 
   13000    1.2536393   -6.0071918    0.5779987 0.0037051197  0.046751128            2 
   14000    1.2506641   -6.0091059     1.163205 0.0069238391  0.048152005            4 
   15000    1.2481738   -6.0076136    1.7400775  0.009667097  0.048568221            6 
   16000    1.2680431   -5.9543065    2.2942466    0.0119492  0.048117403            2 
   17000    1.2522187   -5.9773702    2.8150785  0.013799404  0.047421118            2 
   18000    1.2661456   -5.9786691    3.3744431  0.015622421  0.046845394            1 
   19000    1.2652743   -6.0171702    3.9016934   0.01711269  0.046443574            3 
   20000      1.25686   -5.9541064    4.4470068  0.018529195  0.046028524            2 
   21000     1.218466   -6.0159541    4.9774328  0.019751717  0.045832953            4 
   22000    1.2161477   -5.9889112    5.5258082  0.020931091  0.045579994            7 
   23000    1.2737746     -5.96885    6.1570908    0.0223083  0.045696878            3 
   24000    1.2280512   -5.9850953    6.6756677  0.023179401  0.045845908            2 
   25000    1.2277306   -6.0086313    7.2825536  0.024275178   0.04591786            3 
   26000    1.2579729   -6.0119679    7.7928114  0.024976959  0.046035642            6 
   27000    1.2469774    -5.962576    8.2453094  0.025448485  0.045918075            6 
   28000     1.225847   -6.0031303    8.8423814  0.026316611  0.045849821            1 
   29000    1.2667327   -6.0120161    9.4761828   0.02723041  0.045927535            4 
   30000    1.2363488   -5.9648762    9.9961815   0.02776717  0.045982535            3 
   31000    1.2332609   -5.9708319    10.586388  0.028458031  0.046004261            3 
   32000    1.2536521   -6.0462724    11.211193  0.029195814  0.046079053            4 
   33000    1.2682359   -6.0003939    11.743041  0.029654143  0.046186289            1 
   34000    1.2511836     -5.99534    12.331573  0.030224444  0.046273664            3 
   35000    1.2525508   -6.0126468    12.906987  0.030730922  0.046367143            4 
   36000    1.2413972   -5.9839865    13.350798  0.030904624  0.046349029            3 
   37000    1.2403117   -6.0226785     13.85095  0.031195834  0.046280221            5 
   38000    1.2461354   -6.0324056    14.273096  0.031300649  0.046187758            6 
   39000    1.2302224   -5.9915872    14.923599  0.031888031  0.046091868            2 
   40000    1.2260152   -6.0069147    15.315685  0.031907677  0.046028084            5 
   41000    1.2554848   -5.9858924    15.851504  0.032218503  0.045906954            1 
   42000    1.2317795   -6.0196498    16.383617  0.032507176  0.045784962            3 
   43000    1.2507077   -5.9644857    16.802362  0.032562717  0.045676036            4 
   44000    1.2488015   -6.0333993    17.261263  0.032691786  0.045517976            1 
   45000    1.2402364   -5.9787088    17.788652  0.032941948  0.045370087            2 
   46000    1.2587457   -6.0098786      18.2968  0.033146377  0.045232507            1 
   47000    1.2301981   -5.9658396    18.725211  0.033200729  0.045074088            3 
   48000    1.2502906   -5.9738124     19.21961  0.033367378  0.044917541            4 
   49000    1.2282115   -5.9931181     19.69702  0.033498333   0.04477931            2 
   50000    1.2407442   -6.0213147    20.239251  0.033732084  0.044657498            4 
   51000    1.2455212   -6.0084835    20.677112   0.03378613  0.044525704            3 
   52000    1.2285784   -6.0621364    21.248949  0.034052802  0.044402952            2 
   53000    1.2177424   -6.0009704    21.848901  0.034353618  0.044318933            5 
   54000      1.23023   -6.0133132    22.321092  0.034446129  0.044258687            3 
   55000    1.2361951   -5.9907731     23.04737  0.034920257  0.044208404            2 
   56000    1.2480151   -5.9816544     23.48276  0.034944583  0.044182519            5 
   57000    1.2558499   -5.9998972    23.914261   0.03496237  0.044144676            4 
   58000    1.2295339   -6.0522614    24.292227  0.034902625   0.04407865            3 
   59000    1.2221293   -6.0176062    24.699939  0.034886919  0.043992208            2 
   60000    1.2219907    -6.000197    25.274484  0.035103449  0.043912428            2 
   61000    1.2269231   -6.0161612    25.957485  0.035461045   0.04385218            3 
   62000    1.2213163   -6.0163056    26.419446  0.035510007  0.043806687            3 
   63000    1.2454749   -6.0081448    26.976572  0.035683296  0.043768606            3 
   64000    1.2197219   -6.0409155    27.572406   0.03590157  0.043739126            5 
   65000    1.2381331   -5.9824635    28.272565  0.036246878  0.043718466            2 
   66000    1.2432131   -6.0393275    28.785007  0.036344705  0.043724146            4 
   67000    1.2137701   -6.0134932    29.125619  0.036225894  0.043727447            2 
   68000    1.2193533   -6.0340253    29.522647  0.036179714  0.043714259            3 
   69000    1.2337081   -6.0354781    30.054555  0.036297772  0.043683828            7 
   70000    1.2436858   -6.0177271    30.633215  0.036468113  0.043654539            2 
   71000    1.2412508   -6.0364077    31.292682    0.0367285  0.043636335            2 
   72000    1.2415068   -6.0283155    31.866764  0.036882828   0.04363114            2 
   73000     1.215865   -6.0306852    32.360027   0.03694067   0.04363513            3 
   74000    1.2421517    -5.990341    32.955869  0.037112465  0.043638344            2 
   75000    1.2398075   -6.0063353     33.40443  0.037116034  0.043633987            2 
   76000    1.2238234   -6.0075986    33.742578  0.036998441   0.04361072            2 
   77000    1.2255898   -6.0469676     34.26145  0.037079491  0.043593593            3 
   78000    1.1847525   -6.0424496    34.753443  0.037129746  0.043568926            9 
   79000    1.2268023    -6.040395    35.372941  0.037313229  0.043542427            4 
   80000    1.2234442   -6.0051792    35.940194  0.037437701  0.043526865            2 
   81000    1.1913444   -6.0166699     36.47457  0.037525277   0.04352682            3 
   82000    1.2148636   -6.0453313    37.343598   0.03795081  0.043537891            2 
   83000    1.2173644   -6.0654186    37.926497  0.038078812  0.043566706            2 
   84000    1.2316966   -6.0457089    38.266664   0.03796296  0.043601065            4 
   85000    1.2133018   -6.0246562    38.716056  0.037956917  0.043620169            6 
   86000    1.2355184   -6.0078916    39.341088  0.038121209  0.043631779            3 
   87000    1.2164416   -6.0266166    39.761906  0.038086116  0.043637787            3 
   88000    1.2184779   -5.9854828    40.253062   0.03811843  0.043646269            3 
   89000    1.2098177   -6.0583812    40.781608  0.038185026  0.043646302            2 
   90000    1.2364959   -6.0755609    40.936934  0.037904569  0.043639091            5 
   91000    1.2437425   -6.0586687    41.302819  0.037823095  0.043612671            4 
   92000    1.2342136   -6.0497312    41.630273  0.037708581  0.043573231            3 
   93000    1.2282852   -6.0530494    42.144567  0.037763949  0.043524324            6 
   94000    1.2200164   -6.0606585    42.688418  0.037844342  0.043481628            3 
   95000    1.2260827   -6.0280024     43.29711  0.037979921  0.043444484            2 
   96000    1.2051881   -5.9916075    43.592584  0.037840785  0.043408913            4 
   97000    1.2117919   -6.0625847    44.268592  0.038031437   0.04337728            3 
   98000    1.2223219   -6.0762312    44.847988  0.038136044  0.043354567            4 
   99000    1.2177596   -6.0109266    45.519106  0.038315745  0.043326222            3 
  100000    1.2133274   -6.0198924    46.155673  0.038463061  0.043303431            4 
  101000    1.2277275    -6.066302    46.300986  0.038202134   0.04328039            3 
  102000    1.2152623   -6.0388809    46.781621  0.038220278  0.043254437            5 
  103000    1.2234011   -6.0405097    47.522336  0.038448492  0.043229557            6 
  104000    1.2095017   -6.0338041    48.011626  0.038470854  0.043213581            3 
  105000    1.1926463   -6.0432519    48.434336  0.038439949  0.043193302            3 
  106000    1.2137677   -6.0161096    49.003795  0.038524996  0.043177695            2 
  107000    1.2242107   -6.0076123    49.503147  0.038553853  0.043158638            3 
  108000    1.2094329   -6.0549184    50.203687  0.038737413  0.043142689            2 
  109000     1.198231   -6.0492346    51.065771  0.039041109  0.043146243            3 
  110000    1.2238646     -6.05383    51.543794  0.039048329   0.04315426            6 
  111000    1.2069147   -6.0507857    51.872483  0.038943305  0.043163432            3 
  112000    1.2226687    -6.048123    52.567962  0.039113066  0.043176934            2 
  113000     1.197294   -6.0637608    53.324179  0.039324616  0.043187831            4 
  114000    1.2204633   -6.0395942    53.848758  0.039363127  0.043205942            2 
  115000    1.2217119   -6.0593832    54.232359   0.03929881  0.043225206            3 
  116000    1.2113372   -6.0700702    54.758812  0.039338227  0.043239063            3 
  117000    1.1995258   -6.0715253    55.122441  0.039260998   0.04324838            3 
  118000    1.2161655   -6.0399864    55.651784  0.039302107  0.043253614            2 
  119000    1.2073612   -6.0296348    56.014325  0.039225718   0.04325455            2 
  120000    1.2050314   -6.0814987    56.671381  0.039355125  0.043256134            7 
  121000    1.2125532   -6.0239381    57.455071  0.039569608  0.043261676            3 
  122000    1.1720551   -6.0312762    57.415159  0.039218005  0.043261978            2 
  123000     1.211638   -6.0447867    57.958625  0.039267361  0.043252827            8 
  124000     1.201599   -6.0564312    58.223353  0.039128597   0.04324021            4 
  125000     1.197167   -6.0376938    58.450234  0.038966823  0.043217389            2 
  126000    1.2066739   -6.0289072    58.999245  0.039020665  0.043184968            4 
  127000    1.2118642    -6.041249    59.415629  0.038986633  0.043155249            3 
  128000     1.218775   -6.0596407    59.654384  0.038837489   0.04312126            2 
  129000    1.2129196   -6.1081972    59.861357  0.038670127  0.043080062            2 
  130000    1.1965247    -6.063441    60.349349   0.03868548  0.043036751            4 
  131000    1.2025694   -6.0552537    61.008197  0.038809286  0.042993393            5 
  132000    1.2172339   -6.0635016    61.404554  0.038765501  0.042950125            4 
  133000    1.2189463   -6.0254257    61.925941  0.038800715  0.042909499            2 
  134000    1.2170978    -6.047699    62.363735  0.038783417  0.042871716            5 
  135000     1.240384   -6.0448097    62.693889  0.038699931  0.042835855            5 
  136000    1.1991592   -6.0630691    63.108025  0.038669133  0.042796153            5 
  137000    1.1939406   -6.0666242    64.040389  0.038954008  0.042761173            2 
  138000    1.2123777   -6.0755228    64.398929  0.038888242  0.042732222            3 
  139000    1.2034791   -6.0881979    64.816076  0.038858559  0.042702015            3 
  140000    1.1874269   -6.1003076    65.519927  0.038999956  0.042670701            4 
  141000    1.1815682   -6.1076965    65.583572  0.038760976  0.042639702            3 
  142000    1.2009048   -6.0809413    66.450187  0.038996588  0.042613034            3 
  143000    1.2261132   -6.0847311    67.070266  0.039085237  0.042591987            5 
  144000    1.1882291   -6.0644824    67.382946   0.03899476   0.04256739            4 
  145000    1.1879688   -6.0844469    67.596589  0.038848614  0.042536833            3 
  146000    1.2078852   -6.0641793    68.145046  0.038895574  0.042505311            4 
  147000    1.1781538   -6.0808197    68.361098  0.038753457   0.04247371            5 
  148000    1.2085861   -6.0791977    69.060868  0.038885624  0.042441992            6 
  149000    1.2098252   -6.0732207    69.655515  0.038957223  0.042414071            2 
  150000    1.1727214    -6.081689     70.23155  0.039017528  0.042386571            3 
  151000    1.1888522   -6.1130886    70.429588  0.038868426  0.042356985            3 
  152000    1.1845312     -6.05309    71.238353  0.039056114  0.042333744            2 
  153000    1.1958508   -6.0544453    71.658885  0.039029894  0.042312642            2 
  154000    1.1957326   -6.1165355    71.951439  0.038934761  0.042288086            2 
  155000    1.2130113   -6.0880595     72.67124  0.039070559  0.042266472           12 
  156000    1.1783803   -6.0620392    72.935677  0.038961366  0.042242308            3 
  157000    1.1905558   -6.0821144    73.585299  0.039058014  0.042223062            4 
  158000    1.2036074   -6.0995536    74.727456  0.039413215  0.042205865            4 
  159000    1.1978247   -6.0777349     74.82706  0.039217536  0.042194235            1 
  160000    1.1985951   -6.0897067    75.473094  0.039308903  0.042181038            4 
  161000    1.1892914   -6.1031591    75.967999   0.03932091  0.042169387            5 
  162000    1.1776185   -6.0531164    76.588144  0.039397193  0.042157215            5 
  163000    1.1781318   -6.0848935     76.97381  0.039352663  0.042148387            5 
  164000    1.2109245   -6.0471878    77.432073  0.039345565   0.04213625            2 
  165000    1.2157665   -6.0539926    77.815039  0.039300525  0.042120748            4 
  166000    1.1808561   -6.0675094    78.114533  0.039214123  0.042102452            3 
  167000     1.199952   -6.0765223    78.342242  0.039092935  0.042083296            4 
  168000    1.1986731   -6.0381299    79.158686  0.039265221  0.042064601            2 
  169000     1.158573     -6.08541    79.378867  0.039141453   0.04204653            3 
  170000    1.1976992   -6.0666843    79.895667  0.039164543  0.042028045            4 
  171000     1.179627   -6.1008445    80.524352  0.039241887   0.04200833            2 
  172000    1.1873116   -6.0970307    80.542545  0.039022551  0.041987141            2 
  173000    1.1712284   -6.0785621    81.215147  0.039120976  0.041965339            3 
  174000    1.1895239   -6.1130273    81.565514  0.039063944  0.041946841            4 
  175000    1.1822697   -6.0915625    82.173121  0.039130058  0.041926081            5 
  176000    1.1996138   -6.1252512    82.677969  0.039146766   0.04190359            3 
  177000    1.1922008   -6.1202657    83.215056  0.039178463  0.041883438            6 
  178000    1.1608209   -6.0779666    84.036761  0.039343053  0.041868728            3 
  179000     1.163144   -6.0925766    84.276889  0.039235051   0.04185346            3 
  180000    1.1785802   -6.1184414    84.815175  0.039266284  0.041837926            2 
  181000    1.1840238   -6.0704687    85.400366  0.039318769  0.041823912            3 
  182000    1.1628985   -6.0951808    86.181807  0.039460534  0.041808722            2 
  183000     1.198765   -6.0914424    86.413866  0.039350576  0.041794595            3 
  184000    1.1696641   -6.0713555    86.934083   0.03937232   0.04177849            3 
  185000     1.188421    -6.089452    87.181277  0.039270845  0.041764808            4 
  186000    1.1811617   -6.0973355    87.578758  0.039237795  0.041750151            3 
  187000    1.2023944   -6.0752596    88.189335   0.03930006  0.041734793            2 
  188000    1.1521896   -6.1259894    88.314808  0.039146635  0.041719666            6 
  189000    1.1580463   -6.0976816    88.973677  0.039230016  0.041701632            1 
  190000    1.1801626   -6.0895197    89.493177  0.039251393  0.041683044            5 
  191000    1.1699967   -6.1362048    89.921924  0.039232951  0.041667163            3 
  192000     1.163722   -6.0545233    90.446175  0.039256152  0.041648198            4 
  193000    1.1633296   -6.1103932    90.664763  0.039147134  0.041628741            2 
  194000    1.1608431   -6.1126288    91.211525  0.039180208  0.041610529            3 
  195000    1.1712068    -6.115554    92.093026  0.039355994   0.04159533            3 
  196000    1.1947422   -6.1098842    92.780812  0.039447624  0.041585472            1 
  197000    1.1925442    -6.124861    92.827372  0.039267078  0.041574874            5 
  198000    1.1619433   -6.1229721    93.844553  0.039496866  0.041562488            3 
  199000    1.2024858   -6.1371154    93.871285  0.039309583  0.041551135            5 
  200000    1.1682726   -6.1119638    94.662883  0.039442868  0.041540051           11 
  201000    1.1767852   -6.1176706    95.263027   0.03949545  0.041531067            3 
  202000     1.162655   -6.0805162     95.21703  0.039280953  0.041522103            4 
  203000    1.1967136   -6.1113004    95.893645  0.039365207  0.041509459            3 
  204000    1.1795241   -6.0895063    96.353558  0.039360113  0.041497542            2 
  205000    1.1595196   -6.1261085    96.184378  0.039099341  0.041481196            3 
  206000    1.1661356   -6.0957678    97.181454  0.039312886  0.041466606            5 
  207000    1.1446137   -6.1030371    97.617687  0.039298586  0.041453184            4 
  208000    1.1624333   -6.1058098    97.653842  0.039124135  0.041438981            2 
  209000    1.1835567   -6.1364117    98.324701  0.039204426  0.041422913            2 
  210000    1.1667098   -6.0938691     98.87391  0.039235679  0.041407559           11 
  211000    1.1814746   -6.1337522    99.699385  0.039375744  0.041393634            5 
  212000    1.1653241   -6.1209992    100.05882  0.039331297  0.041380942            3 
  213000    1.1598486   -6.1377815    100.31723  0.039247744  0.041367076            4 
  214000    1.1856808    -6.113599    100.35933  0.039080735  0.041351571            2 
  215000    1.1894293   -6.0929338    100.99886  0.039146847  0.041333963            2 
  216000    1.1745907   -6.0771545    101.68585  0.039230652  0.041317307            5 
  217000    1.1765336   -6.0986517    102.24799  0.039265743  0.041302236            1 
  218000    1.1608104    -6.127586    102.48257  0.039175293  0.041289765            4 
  219000    1.1513603   -6.0894559    103.18868  0.039265097  0.041276431            5 
  220000    1.1393579   -6.1250578    103.61452  0.039247925  0.041265232            4 
  221000    1.1702844   -6.1056835    103.92198  0.039186266  0.041252802            2 
  222000    1.1785688   -6.1508368    104.66037  0.039286925  0.041242069            4 
  223000    1.1507036   -6.1295983    104.86295  0.039186453  0.041230964            3 
  224000    1.1429976   -6.1022195     105.8097  0.039363728  0.041218915            4 
  225000    1.1767025   -6.1211776    106.15277   0.03931584  0.041208848            3 
  226000     1.159296   -6.1457651    106.48389   0.03926397  0.041197216           10 
  227000    1.1906327   -6.1396476    107.05812  0.039301806  0.041187237            3 
  228000     1.155538   -6.1077437    107.77859  0.039392761   0.04117907            3 
  229000    1.1560331    -6.163462    108.01144  0.039305472   0.04117021            4 
  230000    1.1868757   -6.1652159    108.63682  0.039361167  0.041162638            3 
  231000    1.1615747   -6.1603393    109.36161  0.039452241  0.041155625            7 
  232000    1.1198995   -6.1237673    109.83729  0.039453051  0.041149578            3 
  233000    1.1670353   -6.1350467     110.6326  0.039568168  0.041142163            2 
  234000     1.161078   -6.1496508    110.19075  0.039241721  0.041135243            4 
  235000    1.1659545   -6.1740211    110.87937  0.039318924  0.041127415            8 
  236000    1.1512684   -6.1323704    111.23505  0.039277912  0.041117663            3 
  237000    1.1453197   -6.1143708    112.00659  0.039383472  0.041108046            4 
  238000    1.1822768   -6.1436505    112.49186  0.039387906  0.041098234            4 
  239000     1.152512   -6.1541551    112.31062  0.039159909  0.041088231            2 
  240000    1.1678589   -6.0922761    113.12593  0.039279838  0.041075935           10 
  241000    1.1857117   -6.1348734    113.33153  0.039187944  0.041063819            6 
  242000    1.1631391   -6.0783877    113.99258  0.039253643  0.041051444            8 
  243000    1.1684875   -6.1235972    113.65393   0.03897597  0.041036838            4 
  244000    1.1635278   -6.1323021    114.78326  0.039201934  0.041022403            4 
  245000     1.167673   -6.1539633    115.05963  0.039135929  0.041008968            4 
  246000    1.1848397    -6.130522    115.50342  0.039127174  0.040995092            2 
  247000    1.1897745    -6.150353    116.12206  0.039177484   0.04098296            5 
  248000    1.1641767   -6.1584024    116.15673  0.039031158  0.040970422            4 
  249000    1.1648449   -6.1354392    117.02277  0.039164246  0.040956095            3 
  250000    1.1390784   -6.1574367    117.09253  0.039030843  0.040942255            4 
  251000    1.1696913   -6.1459919    117.40186  0.038978041  0.040926553            2 
  252000    1.1395557   -6.1373787    118.30454  0.039121872  0.040911764            4 
  253000     1.144026    -6.140077    118.69331  0.039095293   0.04089802           10 
  254000    1.1263548   -6.1373304    119.02789  0.039051145  0.040883318            4 
  255000    1.1552811   -6.1559062    119.34595  0.039001945  0.040867544            3 
  256000    1.1253326   -6.1497657    120.33209  0.039170603  0.040852775            4 
  257000    1.1504039    -6.134817    120.33867  0.039020322  0.040835612            4 
  258000    1.1476311   -6.1480111    120.44152  0.038902301  0.040818793            2 
  259000    1.1477683   -6.1707312    120.56552  0.038791994  0.040801047            3 
  260000    1.1588098   -6.1460971    121.36976  0.038900565  0.040783071            2 
  261000    1.1509418   -6.1692245       121.37  0.038751596  0.040764399            3 
  262000    1.1397624   -6.1693575    121.76063  0.038727935  0.040744165            3 
  263000    1.1462405   -6.1565946    122.76072  0.038897567  0.040724887            5 
  264000     1.152603   -6.1667595    122.64236  0.038712866  0.040705591            6 
  265000    1.1623789   -6.1451798    122.81686  0.038621655  0.040685493            3 
  266000    1.1234349    -6.105028    123.65151  0.038737941  0.040663676            3 
  267000    1.1367752   -6.1291893    123.98754  0.038697735  0.040642175            2 
  268000    1.1508578   -6.1708652     124.1956  0.038618035  0.040621023            3 
  269000    1.1512603   -6.1718742    124.58179  0.038594112  0.040598983            8 
  270000    1.1333342   -6.1639307    125.11631  0.038616146  0.040577639            4 
  271000    1.1762375   -6.1573095    125.61143  0.038625901  0.040556344            3 
  272000    1.1706263   -6.1676468    126.30464  0.038696274  0.040534573            7 
  273000     1.141552   -6.1746376    126.34419  0.038566601  0.040512647            4 
  274000    1.1499284   -6.1498733     126.3943   0.03844109  0.040489698            4 
  275000    1.1561437   -6.1727678    126.73296  0.038403926  0.040467033            3 
  276000    1.1733257   -6.1416585    127.31537  0.038440631  0.040442914            6 
  277000    1.1569048   -6.2030906     127.8076  0.038449939  0.040418632            2 
  278000    1.1477061   -6.1576279    128.26717  0.038449392  0.040395128            6 
  279000    1.1232999   -6.1428658    128.44863  0.038365778  0.040372961            3 
  280000     1.146618   -6.1403791    129.50417  0.038542908   0.04035155            4 
  281000    1.1437337   -6.1463986    129.87297  0.038515115  0.040331614            2 
  282000    1.1745204   -6.1466945    129.52461  0.038275594  0.040308836            2 
  283000     1.151243   -6.1862086    130.02722  0.038288347  0.040284893            8 
  284000    1.1553968   -6.1207054    130.93559  0.038420066   0.04026133            4 
  285000    1.1342297   -6.1304349    130.58216  0.038181917  0.040237666            2 
  286000    1.1241377   -6.1778779    130.70444  0.038084044  0.040212871            3 
  287000    1.1444807   -6.1797057    131.15674  0.038082676  0.040186054            5 
  288000      1.17039    -6.173193    131.95723  0.038182068  0.040159182            2 
  289000    1.1366706   -6.1738677    132.72196  0.038270461  0.040133475            2 
  290000    1.1470412   -6.1874546    132.90263  0.038190411  0.040107925            2 
  291000      1.14902   -6.1571733    133.12408  0.038122587  0.040082549            4 
  292000    1.1367049   -6.1824763    133.77362  0.038177403   0.04005817            4 
  293000    1.1493992   -6.1336819    134.47273  0.038245942  0.040034891            2 
  294000    1.1246838    -6.149944    134.75336  0.038195398   0.04001229            3 
  295000    1.1500669   -6.2395962      135.012  0.038138982  0.039988416            4 
  296000    1.1111135   -6.1974936    135.40326  0.038120288  0.039964784            6 
  297000    1.1433131    -6.154348    135.73505   0.03808503  0.039941152            4 
  298000    1.1334212   -6.1805833    136.07585   0.03805253  0.039918511            3 
  299000    1.1210403    -6.161742     136.8465   0.03814005  0.039895827            1 
  300000    1.1110092   -6.1715091    136.95662  0.038043504    0.0398734            4 
  301000    1.1279202   -6.1780224    137.50684  0.038069446  0.039851164            7 
  302000    1.1312207   -6.2082631    137.77387  0.038017073  0.039829394            5 
  303000    1.1408117   -6.1827267     138.5119  0.038094583  0.039806788            4 
  304000    1.1255869   -6.2017001    138.74043  0.038031915  0.039784482            3 
  305000    1.1392302   -6.1889179    139.10385  0.038006516  0.039762123            4 
  306000    1.1371333   -6.1504222    139.56466  0.038007805  0.039739338            2 
  307000    1.1362569    -6.190187    139.60757  0.037895648  0.039715498            4 
  308000    1.1519868   -6.1949487    140.34679  0.037972616  0.039690711            2 
  309000    1.1227689   -6.2180823     140.5864  0.037914346  0.039665194            2 
  310000     1.135922   -6.1824729    140.79626  0.037848457  0.039640936            3 
  311000    1.1340744   -6.1693378    141.56212  0.037931972  0.039617092            3 
  312000    1.1228514   -6.1756474    141.30919  0.037742838  0.039592224           10 
  313000    1.1539317   -6.2017254    141.17117  0.037585508  0.039566512            5 
  314000    1.0972173   -6.1540489    142.04549  0.037697848  0.039539711            5 
  315000    1.1469317   -6.1828958    142.34372   0.03765707  0.039514289            5 
  316000    1.1045788   -6.1821705    142.86313  0.037674876  0.039488508            2 
  317000    1.1306351    -6.163556    143.30838  0.037673076  0.039462337            5 
  318000    1.1452822   -6.1645242    143.31068  0.037555209   0.03943705            7 
  319000    1.1202974   -6.1648964    143.78276  0.037560806  0.039410298            5 
  320000     1.139032   -6.2210828    144.45039  0.037617289  0.039384544            6 
  321000    1.1131376   -6.2053799    144.83223   0.03759923  0.039358446            4 
  322000    1.1461205   -6.2067992    144.92548  0.037506595  0.039331141            3 
  323000      1.14026   -6.1550967     145.4166  0.037517182  0.039304602            3 
  324000    1.1429299   -6.1886825    145.88605  0.037522132  0.039278209            7 
  325000    1.1454386   -6.1884105    146.13575  0.037470705  0.039251479            4 
  326000     1.139123   -6.1563173    146.49517  0.037447642  0.039223605            6 
  327000     1.121024   -6.1717847    147.26198  0.037528538  0.039195772            6 
  328000    1.1229141    -6.204821    147.56484  0.037491068  0.039169683            5 
  329000    1.1254834   -6.2004017    148.09845  0.037512271  0.039143483           11 
  330000    1.0853286   -6.1773937    148.21293  0.037427507  0.039116653            1 
  331000    1.1086883   -6.1651925    148.44161  0.037372007   0.03908973            4 
  332000    1.1322771   -6.2204453    147.72659  0.037079968  0.039062653            5 
  333000    1.1172385   -6.2115465    148.78574  0.037233668  0.039034615            5 
  334000      1.14048   -6.1853607    148.70342  0.037101651  0.039006014            5 
  335000    1.1392854   -6.1826451    148.51351  0.036943659  0.038976985            5 
  336000     1.112931   -6.2073432    149.11874  0.036983815  0.038946832            3 
  337000    1.1165714   -6.1932443    149.57489  0.036986867  0.038915233            9 
  338000    1.1177358   -6.2119474    149.55157  0.036871688  0.038883906            3 
  339000    1.1105243   -6.1795232    150.15624  0.036911564  0.038851684            4 
  340000    1.1228041   -6.1997066    150.05277   0.03677764  0.038819797            4 
  341000    1.1261926   -6.1725167    150.68382  0.036824003  0.038788182            2 
  342000    1.1152558    -6.189194    150.79627   0.03674373  0.038756072            4 
  343000    1.1029785   -6.1822961     151.9213  0.036909937  0.038723716            4 
  344000    1.1003535   -6.1700862    151.77567  0.036767362  0.038691225            3 
  345000    1.1035852   -6.2229129    151.89545  0.036689721  0.038658144            2 
  346000    1.1069522   -6.1740573    152.39434  0.036703839  0.038625382            5 
  347000    1.1256838   -6.2006962     152.4871   0.03662034  0.038592508            6 
  348000     1.125385   -6.2181914    152.99995   0.03663792  0.038559659            8 
  349000    1.1090141   -6.1846582    153.15078  0.036568953  0.038525714            4 
  350000    1.1106513   -6.2536969    153.38412  0.036520028  0.038492376            3 
  351000    1.1057962   -6.2206124    153.94884  0.036550057  0.038459552            3 
  352000    1.1555296   -6.2135097    153.71989   0.03639202  0.038426799            4 
  353000    1.1113916   -6.1875361    155.22071  0.036643227  0.038393695            4 
  354000    1.1119989   -6.1990576     154.7384  0.036426177  0.038361236            8 
  355000    1.1150818   -6.2340177    155.00386  0.036385882  0.038328309            4 
  356000    1.1040194   -6.2130744    155.56721  0.036415545   0.03829636            6 
  357000    1.1131954   -6.1983118    156.12807  0.036444461  0.038265113            8 
  358000    1.0911282   -6.2483434    156.79994  0.036499055  0.038234053            4 
  359000    1.1227171   -6.2298423    156.41043  0.036306971  0.038202856            4 
  360000    1.1217111   -6.2266649    156.62791  0.036256462  0.038171049            4 
  361000    1.1107041   -6.2228579    157.54452  0.036367618  0.038139325            4 
  362000    1.1095857   -6.1911595    157.70137  0.036303263  0.038107561            6 
  363000    1.1024554   -6.2735448    157.69556  0.036201918  0.038075843            6 
  364000    1.1022284   -6.1946776    158.53292  0.036294166   0.03804449            4 
  365000    1.0972964    -6.210334    158.46632  0.036179525  0.038014278            4 
  366000    1.1083431    -6.244008    158.81463  0.036159979  0.037983387            4 
  367000    1.1247959   -6.2143833     159.3584  0.036184923   0.03795222            3 
  368000    1.0965037   -6.2387595     159.7547  0.036176336  0.037920283            2 
  369000    1.1089641   -6.2163883    160.35528  0.036213929  0.037889652            5 
  370000    1.0854864   -6.2182164    160.73312  0.036201153    0.0378597            4 
  371000    1.0963495   -6.2346707    161.14519  0.036196134  0.037830628            5 
  372000    1.1053694    -6.239332    162.23352  0.036342635   0.03780186            2 
  373000     1.120181   -6.2296519    162.14336  0.036225058   0.03777389            5 
  374000    1.1151007   -6.2209318    163.41318  0.036411137  0.037747394            2 
  375000    1.1081669    -6.258322    163.87371  0.036416381  0.037721913            2 
  376000    1.1157966   -6.2278951    163.68082  0.036276777  0.037696235            6 
  377000      1.10934   -6.2166197    164.42973  0.036346094  0.037671608            1 
  378000    1.1046868   -6.2514062    165.21113  0.036422207  0.037646588            2 
  379000    1.1167905   -6.2069526    164.98079  0.036275459   0.03762212            3 
  380000       1.0819   -6.2456378    165.04769  0.036194668  0.037596939            3 
  381000    1.0951063    -6.245764    166.32344  0.036378706  0.037572179            3 
  382000    1.1014132   -6.2709798    165.98348  0.036209311  0.037547144            5 
  383000    1.0908875   -6.2686132    166.54448  0.036236832  0.037522085            3 
  384000    1.0962047   -6.2328475    166.59323  0.036153044  0.037497477            3 
  385000    1.1159489   -6.2736877    167.23693  0.036198471  0.037472058            4 
  386000    1.0948529   -6.2304137    167.95773  0.036260305  0.037446739            4 
  387000    1.0956812   -6.2002352    168.14978  0.036207963  0.037422144            3 
  388000    1.1047938   -6.2252065    168.13607    0.0361117   0.03739818            4 
  389000    1.1028738   -6.2416433    168.74525  0.036149368  0.037373353            4 
  390000    1.1318017   -6.2332238     168.9573  0.036101987  0.037348272            2 
  391000    1.1114996   -6.2211795     169.0949  0.036038981  0.037323709            2 
  392000    1.1148302   -6.2402855    169.03314  0.035933916  0.037298292            5 
  393000    1.0834428   -6.2400161    170.01997  0.036051732  0.037272706            7 
  394000    1.0747518   -6.2876265    169.96143  0.035947849  0.037247444            6 
  395000    1.0836285    -6.245391    170.21768  0.035910902  0.037221893            5 
  396000    1.1223239   -6.2282963    170.64516  0.035910176  0.037197577            4 
  397000    1.0828844   -6.2477545    170.86394  0.035865647  0.037172833            6 
  398000    1.0951216   -6.2356265    171.71574  0.035953881  0.037148076            6 
  399000    1.0858822    -6.245732    172.26954  0.035979437  0.037124142            5 
  400000    1.0942033   -6.2672611     172.3012  0.035896084  0.037100244            8 
  401000    1.1026668     -6.17999    173.04762  0.035961683  0.037076313            7 
  402000    1.1036337    -6.269407    173.12158  0.035887558  0.037052936            4 
  403000    1.0594866   -6.2297292     173.6427  0.035906266  0.037028831            2 
  404000    1.0804166   -6.2359758    173.68769  0.035826668  0.037005371            7 
  405000    1.1066532   -6.2512045    174.90677  0.035989047  0.036982723            6 
  406000    1.1155792   -6.3076913    174.71029  0.035860076  0.036960547            2 
  407000    1.0669156    -6.232466     175.4882  0.035931244  0.036938507            5 
  408000    1.0888827   -6.2419323    176.29188  0.036007328  0.036918076           17 
  409000    1.0692253    -6.255857    176.59642  0.035981341   0.03689742           10 
  410000     1.089009   -6.2621544    176.93572  0.035962545  0.036876488            4 
  411000    1.0932357   -6.2530462    177.12464  0.035913349  0.036855348            4 
  412000    1.1020975   -6.2654947    177.96991  0.035997151  0.036834788           15 
  413000    1.0882278   -6.2567756    178.55639  0.036028327  0.036815137            4 
  414000    1.1058678    -6.258157     178.1196  0.035853381  0.036794629            3 
  415000    1.0821959   -6.2798176    179.02868  0.035949535  0.036774763            4 
  416000    1.1206638    -6.274004    179.44153   0.03594582  0.036754574            3 
  417000    1.0850826   -6.2687197     179.1345  0.035798262  0.036734496            6 
  418000    1.0692033   -6.2542253    180.06683  0.035898491  0.036714704            4 
  419000    1.1135261   -6.2423662    179.82125  0.035763972  0.036694741            6 
  420000    1.0829506    -6.269319    180.91787  0.035896403  0.036674439            5 
  421000    1.0510533   -6.2928707    181.08696  0.035844609  0.036654355           14 
  422000    1.0906697   -6.2629893    181.18228  0.035778491  0.036634158            4 
  423000    1.0895401   -6.2470773    181.67995  0.035791953  0.036615022            2 
  424000    1.1027459   -6.2462982    181.89478  0.035749761  0.036595412            4 
  425000    1.0844386   -6.2816943    181.61271  0.035610335  0.036574678            3 
  426000    1.0702116   -6.2577953    182.53309  0.035706786  0.036554278            2 
  427000    1.0713632   -6.2620779    182.22624  0.035563278  0.036533974            5 
  428000    1.0859073    -6.260544    182.99883  0.035630614  0.036513112            6 
  429000    1.1071703    -6.298236    183.58399  0.035661226  0.036492241            3 
  430000    1.0881776    -6.276481    184.26856  0.035710962  0.036472296            5 
  431000    1.0708452   -6.2662679    184.93913   0.03575776  0.036452169            5 
  432000    1.0658631   -6.2503417    184.64621  0.035618482  0.036432845            5 
  433000    1.0833908   -6.2853557    184.65129    0.0355372   0.03641348            4 
  434000     1.063281   -6.2862121    185.38512  0.035596222  0.036394364            4 
  435000    1.0860807   -6.2490752     186.1287  0.035656839  0.036375204            5 
  436000    1.0648016   -6.2534774    186.44165  0.035634872  0.036355739            3 
  437000    1.1095052   -6.2720071    186.09922  0.035488029  0.036336225            5 
  438000    1.0883837   -6.2583043    187.16383  0.035609556  0.036316862            3 
  439000    1.0871564    -6.241273    186.82125  0.035463411  0.036297996            7 
  440000    1.0668086   -6.2570083     187.1063  0.035436799  0.036278599           10 
  441000    1.0806877   -6.2619821    187.53169  0.035436827   0.03625882            4 
  442000    1.0834392   -6.2710594    187.71302   0.03539084  0.036239258            3 
  443000    1.0808975   -6.2465773    188.24083  0.035410238  0.036219325            2 
  444000    1.0754202    -6.302903    188.41426  0.035363036  0.036198667            3 
  445000    1.0863429   -6.2885968    189.08144  0.035408509  0.036178176            4 
  446000     1.080366   -6.2839851    188.59345  0.035237939  0.036157575            3 
  447000    1.0893606   -6.2971652    189.20376  0.035272885  0.036136944            4 
  448000    1.0439823   -6.2968614    189.25477  0.035203641  0.036116545            5 
  449000    1.0666463   -6.2670436    189.98628  0.035261001  0.036096219            2 
  450000    1.0715991   -6.3082446    190.21424  0.035224858  0.036076316            8 
  451000    1.0545185   -6.2833116    190.92115  0.035277374  0.036056539            3 
  452000    1.0684048   -6.2878958    191.41616   0.03529059  0.036037057            4 
  453000    1.1038382   -6.2761762    191.42969  0.035215174  0.036017869            3 
  454000     1.089079   -6.2943046    192.53646  0.035340759  0.035998174            5 
  455000    1.0663253    -6.314105    192.37633   0.03523376  0.035977988            8 
  456000    1.0767059   -6.2710868    192.89106  0.035250559  0.035958625            3 
  457000    1.0694364   -6.3279304    193.22136  0.035233654  0.035939308            8 
  458000    1.0571675    -6.272745    193.73155  0.035249555  0.035920173            3 
  459000    1.0773822   -6.2938208    193.38695  0.035110194  0.035900197            6 
  460000    1.0653548   -6.2726086    193.74577  0.035098872  0.035880115            4 
  461000    1.0588981   -6.2784941    194.27289   0.03511802  0.035859448           13 
  462000    1.0870333   -6.3138568    194.15876  0.035021421  0.035839268            4 
  463000    1.0823828   -6.2994723    194.89325  0.035077979  0.035819206            8 
  464000    1.0567154    -6.296472     194.6443  0.034957669  0.035798968            4 
  465000    1.0685232   -6.3300059    194.97601  0.034941937  0.035777747            6 
  466000    1.0808205   -6.2892293    195.57353  0.034973807  0.035757296           14 
  467000    1.0702303   -6.2815459    196.26489  0.035022286   0.03573665            3 
  468000    1.0681119   -6.2680795    195.89135  0.034880939   0.03571652            4 
  469000     1.049546   -6.2944625    196.58542   0.03492989  0.035695947            2 
  470000    1.0756799   -6.3108293    196.77735  0.034889602  0.035675598            4 
  471000    1.0584599   -6.3621787    197.65038   0.03496999  0.035655226           11 
  472000    1.0658919   -6.2994202    197.78293  0.034919303  0.035634283            9 
  473000    1.0651492   -6.2769472    197.90672  0.034867287  0.035614973            4 
  474000    1.0332557   -6.3170639    198.24048  0.034852405   0.03559564            9 
  475000    1.0798765   -6.3124998    198.36635  0.034801114    0.0355762            5 
  476000    1.0667917   -6.2793393    199.48187  0.034923296  0.035556569            7 
  477000    1.0691222   -6.2883864    199.49858  0.034853001  0.035537164            8 
  478000    1.0682693   -6.3105064    199.44135   0.03477011  0.035518523            4 
  479000    1.0600337    -6.288239    200.70129  0.034916717  0.035499242            4 
  480000     1.068426   -6.2774174    200.42201  0.034795488  0.035479973            3 
  481000    1.0627511   -6.3378697    200.84105  0.034795747  0.035460982            4 
  482000    1.0581556   -6.3131157    201.17628  0.034781514  0.035442266            6 
  483000    1.0663184   -6.3232014    201.70109  0.034800051  0.035423271           10 
  484000    1.0754263   -6.2973181    201.63337   0.03471649  0.035404548            4 
  485000    1.0598511   -6.3196962    202.15666  0.034734822  0.035385739            3 
  486000    1.0699594   -6.3092293    202.58461  0.034736729  0.035367009            6 
  487000    1.0526432   -6.3397517    202.09184  0.034581082  0.035347584            5 
  488000    1.0621528    -6.335627    202.97596  0.034661195  0.035328672            6 
  489000    1.0727546   -6.3099204    203.41266  0.034664734  0.035309678            3 
  490000    1.0761917   -6.3171025     203.5862  0.034623504   0.03529111            6 
  491000    1.0516406    -6.328918    204.33565  0.034680185  0.035272692            6 
  492000    1.0649698   -6.2779381    204.69896  0.034671232  0.035254845            3 
  493000    1.0679367   -6.3143218     204.9011  0.034635074  0.035236246            5 
  494000    1.0650129    -6.319295    205.36923  0.034643931  0.035217528            6 
  495000     1.055474   -6.2734293    205.40042  0.034579194  0.035199223            4 
  496000    1.0476526   -6.2949035    206.30427  0.034661335  0.035180543            4 
  497000    1.0458804   -6.3638472     205.6174  0.034476425  0.035161847            8 
  498000    1.0386945   -6.3427141    206.27349  0.034516982  0.035143066            7 
  499000    1.0549029   -6.2895143    207.50515  0.034653499  0.035124976            3 
  500000    1.0547648    -6.299936    206.86124  0.034476874  0.035106677            3 
  501000    1.0528517   -6.2972134    207.50072  0.034514425  0.035088125            4 
  502000    1.0466023   -6.3347309    207.49288  0.034444369  0.035069644            6 
  503000    1.0463595   -6.3223043    207.88834  0.034441408  0.035050797            6 
  504000    1.0425557   -6.3104321    207.97208  0.034386918  0.035032208            5 
  505000     1.030917   -6.3191964     208.3435  0.034380116  0.035012875            9 
  506000    1.0513921   -6.3146306    208.73175  0.034376111  0.034992866            7 
  507000    1.0658341   -6.2977467    208.76282  0.034313415  0.034973365            7 
  508000    1.0597079   -6.3297022     209.3263  0.034338303  0.034953965            2 
  509000    1.0514418    -6.334929    209.27131  0.034261838  0.034934536            5 
  510000     1.057595   -6.3339854    210.00894  0.034315186  0.034915118            3 
  511000    1.0611851   -6.3101383    210.16178  0.034272959  0.034896238            2 
  512000    1.0650569   -6.2973423    210.98933  0.034340712   0.03487713            3 
  513000    1.0518456   -6.3357351    210.59897  0.034210359  0.034858137            4 
  514000     1.051524   -6.3603431    210.96215  0.034202684  0.034838961            4 
  515000     1.053928   -6.3827349    210.33012     0.034034   0.03481953            3 
  516000    1.0365513   -6.3553639    211.63446  0.034178691  0.034800178            8 
  517000    1.0491168   -6.3090568    212.61074  0.034269945  0.034781049            7 
  518000    1.0843752   -6.3187778    212.74313  0.034225086  0.034761845            5 
  519000    1.0398958   -6.2916093    213.19152  0.034231137  0.034742854            5 
  520000    1.0281787   -6.3304169    213.03052  0.034139506  0.034723776            4 
  521000    1.0486126   -6.3372196    212.29894  0.033956964  0.034704125            5 
  522000    1.0174453    -6.332713    212.48786  0.033922073  0.034683977            3 
  523000    1.0468701   -6.3141988    213.73672  0.034056201  0.034663669            5 
  524000    1.0513775    -6.377828    213.65188  0.033977716  0.034643874            3 
  525000    1.0385751   -6.3333078     214.7185  0.034082301  0.034623701            5 
  526000    1.0306833   -6.3259453    213.71362  0.033858305  0.034603402            6 
  527000    1.0554762   -6.3091019    214.37996  0.033899424  0.034583297            3 
  528000    1.0510134   -6.3402686    214.40094  0.033838532  0.034562966            4 
  529000    1.0392775   -6.3300326    214.76125  0.033831325  0.034542295            6 
  530000     1.024092   -6.3457515    215.27375  0.033848074  0.034521442            3 
  531000    1.0752648   -6.3471282    215.33638  0.033794158  0.034500452            6 
  532000    1.0449157    -6.347218     215.6636  0.033781892  0.034479435            2 
  533000    1.0462374   -6.3614538    215.64479   0.03371557  0.034458644            3 
  534000    1.0429515   -6.3366751     215.5444  0.033636766  0.034437228            9 
  535000    1.0369954   -6.3632841    215.66389  0.033592506  0.034415569            4 
  536000    1.0427183   -6.3724982    216.07093  0.033593117  0.034393428            9 
  537000    1.0644765   -6.3668519    216.24614   0.03355775  0.034371484            5 
  538000    1.0569972    -6.355662    217.17159  0.033638722  0.034349937            7 
  539000    1.0210208    -6.348383    216.70831  0.033504686  0.034328766            3 
  540000    1.0253366   -6.3685268    217.72457   0.03359947   0.03430722            4 
  541000    1.0574013   -6.3643406    217.63759  0.033523966  0.034285926            4 
  542000    1.0441426   -6.3600769    218.70024  0.033625499  0.034264254            6 
  543000    1.0319963   -6.3757945    218.01627  0.033458605  0.034242703            8 
  544000    1.0497672   -6.3795094    218.19784  0.033424914  0.034221474            6 
  545000    1.0498703   -6.3241051    219.24982  0.033524437  0.034200569            4 
  546000    1.0538119   -6.3669731    218.92582  0.033413586  0.034179617            7 
  547000    1.0418789   -6.3541206    219.41842  0.033427547  0.034157963            9 
  548000    1.0230099   -6.3363384    219.07597  0.033314472  0.034136388            5 
  549000    1.0304568    -6.396792    219.70544  0.033349338  0.034114701            9 
  550000    1.0460593   -6.3402148    221.45423  0.033553671  0.034093574            5 
  551000    1.0566249   -6.3384761    220.73355  0.033383779  0.034072266            7 
  552000    1.0329558   -6.3581716    220.90918  0.033349817  0.034051135            7 
  553000    1.0717772   -6.3348726    221.13721  0.033323871  0.034029689            3 
  554000    1.0231411   -6.3783022    221.70289   0.03334881   0.03400859            2 
  555000    1.0300054   -6.3576973    221.77378  0.033299367  0.033987616            3 
  556000    1.0291876   -6.3279365    222.00092  0.033273519  0.033966636            5 
  557000    1.0422666   -6.3559589    222.12459  0.033232284  0.033945992            3 
  558000     1.016166   -6.3576833    222.64256  0.033250083  0.033925194            9 
  559000    1.0389174   -6.3659875    223.10167  0.033259044  0.033904233            5 
  560000    1.0445592   -6.3566037    223.32659  0.033233124  0.033883679            3 
  561000    1.0177048   -6.3670323    223.76556  0.033239091  0.033862749            6 
  562000     1.056759   -6.3603909    223.85589  0.033193341   0.03384232            3 
  563000    1.0268081   -6.3637812    224.06638  0.033165539  0.033821539            3 
  564000    1.0144153   -6.3832432    223.80496  0.033068109  0.033800179            5 
  565000    1.0599802   -6.3753351    224.37621  0.033093836  0.033779037           12 
  566000    1.0181146   -6.3859188    224.60782  0.033069468  0.033757355            8 
  567000    1.0416575   -6.3751393    224.54671  0.033002162  0.033735872            4 
  568000    1.0221987   -6.3467568    224.85254  0.032988929  0.033714732            7 
  569000    1.0339131   -6.3561042    225.58819  0.033038692   0.03369368            6 
  570000    1.0198507   -6.3616201    225.77288  0.033007731  0.033672423            4 
  571000    1.0308076   -6.3829395    225.54346  0.032916442  0.033651086            3 
  572000     1.040431   -6.3748121    226.58333  0.033010391  0.033630144            5 
  573000    1.0314209   -6.3729885    226.75912  0.032978348  0.033609593            4 
  574000    1.0559496   -6.3651182    227.03431  0.032960847  0.033589297            5 
  575000    1.0248336   -6.3944582    227.05782  0.032906931  0.033569004            3 
  576000    1.0421223   -6.3890711    227.78167  0.032954523  0.033548479            4 
  577000    1.0420657   -6.3543404    228.12095   0.03294641  0.033528065            7 
  578000    1.0291902   -6.3907714    228.13025  0.032890752  0.033507653            2 
  579000    1.0324687   -6.3735911    228.95636  0.032952844  0.033487127            6 
  580000    1.0073604   -6.3916632    228.35101  0.032809053  0.033466293            9 
  581000   0.99674043   -6.3162094    229.42049   0.03290598  0.033445694            4 
  582000    1.0459752   -6.4066262    228.87933  0.032771954  0.033425404            4 
  583000    1.0435424   -6.4090723     228.7868  0.032702516  0.033405044            5 
  584000     1.015543   -6.3844747    229.72546  0.032780459   0.03338455            4 
  585000    1.0190502   -6.3973929    229.63997  0.032712247  0.033364029            6 
  586000     1.017709   -6.4018093    230.11997  0.032724683  0.033343506            4 
  587000    1.0295045   -6.3799519    231.10115  0.032808227  0.033323537            4 
  588000    1.0334274   -6.4063016    230.67257  0.032691691  0.033302839            5 
  589000    1.0136839   -6.3901751    231.07862  0.032693636  0.033282003            7 
  590000    1.0497282   -6.3894058    231.11576  0.032643468  0.033261105            8 
  591000    1.0190766   -6.3946312    231.52463  0.032645887  0.033239955            3 
  592000    1.0362532   -6.3793033    231.76168   0.03262411  0.033219344            6 
  593000    1.0095439   -6.3892336    232.02228  0.032605717  0.033198442            8 
  594000    1.0157023   -6.3989066    231.67789  0.032502509  0.033177086            7 
  595000    1.0034587   -6.3901035    231.18542   0.03237891  0.033155291            7 
  596000    1.0153527   -6.3938884     232.2305  0.032470708  0.033134022            5 
  597000    1.0207758   -6.3714151    233.00491  0.032524415  0.033112739            5 
  598000   0.97789634   -6.4050223    231.97815  0.032326944  0.033090843            3 
  599000    1.0182391   -6.3817795    232.76536  0.032382493  0.033068872            9 
  600000    1.0223119   -6.3540117    232.64408  0.032311678  0.033046934            4 
  601000   0.99200313   -6.3702103     232.6618  0.032260372  0.033025164            6 
  602000    1.0270264    -6.409909    233.24409  0.032287388  0.033003745            5 
  603000    1.0220051   -6.3741861    234.08836   0.03235052  0.032981966            7 
  604000    1.0342559   -6.3860171    234.11436  0.032300547  0.032960507            6 
  605000   0.99006396   -6.3839346    234.07641   0.03224193  0.032938765           10 
  606000    1.0139687   -6.4197484    234.07978  0.032189188  0.032917012            2 
  607000   0.98252532   -6.4092359    234.10101  0.032139074  0.032895406            5 
  608000    1.0181869   -6.4061516    235.21752  0.032239244  0.032874064            5 
  609000    1.0113912   -6.3740207    235.86617  0.032275064  0.032852764           10 
  610000    1.0264785   -6.4234173    235.79486  0.032212412  0.032831288            5 
  611000    1.0150603   -6.4123191    235.50731  0.032120474  0.032809629            2 
  612000    1.0106945   -6.4431888    235.61799  0.032083059  0.032787903           13 
  613000    1.0538458   -6.3939415    236.50411  0.032151184   0.03276676            4 
  614000     1.014877   -6.4139311    236.93368  0.032157123  0.032745682            4 
  615000     1.010096   -6.3615415    237.98832  0.032247739  0.032725176            7 
  616000    1.0047112   -6.3907089    237.32979  0.032106302  0.032704726            6 
  617000    1.0006097   -6.4069148    238.27682  0.032182175  0.032684023            3 
  618000   0.98494683   -6.4024974    237.58972  0.032037449  0.032663299            5 
  619000    1.0076303   -6.4213475    237.46434  0.031968813  0.032642525            5 
  620000    1.0254697   -6.3926352    238.82471  0.032100095  0.032622078            6 
  621000    1.0143383   -6.3788133    239.49923   0.03213892  0.032602022            4 
  622000    1.0015495   -6.4121287     239.4971  0.032086964  0.032581847            3 
  623000   0.98918333   -6.3832824    238.95669  0.031963174  0.032561184            4 
  624000    1.0042046   -6.3663831    239.96554   0.03204668  0.032540469           10 
  625000    1.0025361   -6.4058338    239.35976  0.031914635  0.032519446            5 
  626000    1.0020619   -6.4060402    239.42176  0.031871906   0.03249851            3 
  627000   0.98575335   -6.4085524    239.99564  0.031897347  0.032477324            8 
  628000   0.99949511   -6.4335838    240.45912  0.031908057  0.032456098           10 
  629000    1.0051845   -6.4243563    240.16076  0.031817801  0.032435236            5 
  630000   0.96987253   -6.4291032    240.17583   0.03176929  0.032414474            6 
  631000    1.0009478    -6.430977    240.98922  0.031826363  0.032393343            8 
  632000   0.99753303   -6.3756177    241.13778  0.031795593  0.032372503            3 
  633000   0.99962073    -6.400087    241.44425  0.031785709   0.03235127            6 
  634000   0.98401523   -6.4168694    241.32496  0.031719894  0.032330265            3 
  635000     1.016161   -6.4396501    241.27752  0.031663717  0.032309467            9 
  636000   0.99432777    -6.390078     242.4375   0.03176592  0.032288773            5 
  637000    0.9808257   -6.4049834    242.54929  0.031730677  0.032268179            3 
  638000   0.97952398   -6.4603456    243.02897  0.031743596  0.032247683            3 
  639000    1.0233882   -6.4190777    242.49974  0.031624901  0.032227107            4 
  640000   0.96285787   -6.4199379    243.26635  0.031675306   0.03220624            4 
  641000   0.99506978   -6.4209323    243.24986  0.031623747  0.032185402            8 
  642000     1.005359   -6.4474177    243.91993  0.031661466  0.032164452            9 
  643000   0.97754564   -6.4324237    243.39265  0.031543889  0.032143549            4 
  644000      1.00218   -6.4154455    243.84168  0.031553012  0.032122634            5 
  645000   0.99613226   -6.4139769    244.09444  0.031536749  0.032101575            5 
  646000     1.006234   -6.4028238    245.05426  0.031611747  0.032080773            5 
  647000   0.98094457   -6.4359403    244.95254  0.031549786  0.032059728            5 
  648000     0.985743   -6.4325237    244.61317  0.031457455  0.032038587            9 
  649000   0.98811409   -6.4591226    245.13668  0.031476204  0.032017755            6 
  650000    1.0015117   -6.4388106    245.91085  0.031527032  0.031996905            4 
  651000   0.99031225   -6.4372157    245.96796  0.031485914  0.031976113            7 
  652000   0.98039972   -6.4153707     245.9996  0.031441667  0.031955142           20 
  653000   0.98393511   -6.4474424    246.51652  0.031459485  0.031934889            8 
  654000   0.97839166   -6.4464722    246.78999  0.031446227  0.031914744            3 
  655000   0.99545796   -6.4360054    246.82944  0.031403237  0.031894472            7 
  656000   0.98731739   -6.4498423    247.71013  0.031467242  0.031874593           10 
  657000   0.97535976   -6.4080326    248.41327  0.031508532  0.031855102            7 
  658000    1.0013843   -6.4199682    248.08341  0.031418871  0.031835507            5 
  659000    1.0016792   -6.4687071    247.90396  0.031348503  0.031815827            7 
  660000   0.96905017   -6.4449413    248.80886  0.031415261  0.031795867            5 
  661000    1.0046062   -6.4583062    248.60555  0.031342101   0.03177603            5 
  662000   0.99609258   -6.4309051    248.41162  0.031270345  0.031756173            8 
  663000    1.0018191   -6.4711492     248.7656  0.031267672  0.031736126           10 
  664000   0.99229346   -6.4628664    249.44846  0.031306282  0.031715896            8 
  665000   0.99565519   -6.4590209    249.74745  0.031296673  0.031696007            9 
  666000    1.0008587    -6.443179    250.33858  0.031323646  0.031676243            5 
  667000    1.0003577   -6.4271946    250.42283   0.03128721  0.031656485            9 
  668000   0.97351238   -6.4618971     250.0003  0.031187662  0.031636902            6 
  669000   0.99140699   -6.3958541    250.55226  0.031209798  0.031617467            4 
  670000   0.99022988   -6.4585719     250.8275  0.031197451  0.031598338            7 
  671000    1.0103546   -6.4390261     251.6564    0.0312539  0.031579398            4 
  672000    1.0042991   -6.4492365    251.24384   0.03115623  0.031560397           11 
  673000    0.9960855   -6.4959712    252.06107  0.031211129  0.031541451            5 
  674000   0.97950164   -6.4266402    252.38475  0.031204841  0.031522328           14 
  675000   0.97367494   -6.4610185    252.59893  0.031185053  0.031503469            5 
  676000   0.99016388   -6.4792633    252.35109  0.031108369  0.031484448            5 
  677000   0.97230461   -6.5002614     253.2235  0.031169806  0.031465522            5 
  678000   0.96825863   -6.4347009    253.68493  0.031180547    0.0314466            4 
  679000   0.96102149   -6.4636812    253.92966  0.031164661  0.031427678            5 
  680000   0.98610906   -6.4450996    253.85166  0.031109272  0.031408923            4 
  681000   0.98024911   -6.4720152    253.82955  0.031060885  0.031390015            9 
  682000   0.99959661   -6.4690862    254.05197  0.031042518  0.031371184            3 
  683000   0.99122134   -6.4407321    253.94095  0.030983523  0.031352491            7 
  684000   0.98493942   -6.4657673    255.51768  0.031130321  0.031334132            4 
  685000   0.98089232   -6.4697442    255.27404  0.031055236  0.031315445            4 
  686000   0.98569046   -6.4759551    254.68559  0.030938483  0.031296585            6 
  687000   0.96985861   -6.4755327    255.32948  0.030971553  0.031277523            7 
  688000   0.98878915   -6.4475148    256.14944  0.031025852  0.031258214            4 
  689000   0.98413396   -6.4875837    255.68245  0.030924341  0.031239303            7 
  690000   0.99466323   -6.4397009    256.25354  0.030948495  0.031220207           10 
  691000   0.98042916   -6.4454412    256.17669  0.030894439   0.03120162            3 
  692000   0.98315201   -6.4543202    256.70785  0.030913758   0.03118307            3 
  693000   0.97512232    -6.472555    256.99787  0.030904024  0.031164501            6 
  694000   0.97136721   -6.4684448    256.93275  0.030851675  0.031145942            9 
  695000   0.96767807   -6.4633267    256.98545  0.030813603  0.031127168            9 
  696000   0.98762832   -6.4867739    257.58794  0.030841468  0.031108381            7 
  697000   0.97803659   -6.4601991     257.4498  0.030780703   0.03108946            5 
  698000   0.96278555   -6.4809428    258.22285  0.030828898   0.03107068           12 
  699000   0.99537072   -6.4284284    258.33527  0.030798196  0.031052122            6 
  700000   0.94940727   -6.4795051     257.9359  0.030706654  0.031033397           14 
  701000   0.98474797   -6.4716919    258.42019  0.030720422  0.031014412            3 
  702000   0.96778909   -6.4662016    258.70401  0.030710353  0.030995716            6 
  703000   0.98299261   -6.4646133    258.74787  0.030671867  0.030977294            8 
  704000    0.9857163    -6.475051    259.26167  0.030689118  0.030958674            4 
  705000   0.97015054    -6.497889    258.92755  0.030606094  0.030939962            4 
  706000    0.9658964     -6.49553     259.3918   0.03061754   0.03092126            7 
  707000   0.97790785   -6.4364796    260.29211  0.030680352  0.030902614            4 
  708000   0.96247098   -6.4681819    260.69988  0.030685015  0.030884063            4 
  709000   0.95610313   -6.4854865    259.93317  0.030551618   0.03086541            4 
  710000   0.96097477   -6.4567668    260.59033   0.03058572  0.030846819            9 
  711000   0.98053874   -6.4662604    260.53212  0.030535879  0.030827839            6 
  712000   0.95851205   -6.5045199    260.77776  0.030521742  0.030808905            4 
  713000   0.98162774   -6.4692404    261.55085   0.03056929  0.030790107            5 
  714000   0.96766592   -6.4941002    260.96749  0.030458391  0.030771319            7 
  715000   0.97336855   -6.4984322    260.98742  0.030418114  0.030752399            8 
  716000   0.95953852   -6.5092213    261.44862  0.030429309  0.030733506            5 
  717000   0.98142688   -6.4996424    263.07366  0.030575739  0.030714851            6 
  718000   0.98545481   -6.4806005    263.12059  0.030538601  0.030696398            4 
  719000   0.93544242   -6.4887444     262.8508  0.030464859  0.030678083            6 
  720000   0.96320341    -6.484652    263.66297  0.030516547  0.030659813            6 
  721000   0.97265626    -6.529101    262.85745   0.03038112  0.030641443            9 
  722000   0.97120327   -6.4683876     263.9708  0.030467544  0.030622637            4 
  723000   0.96950001   -6.5037446    263.09349  0.030324284  0.030604157            8 
  724000   0.99196408   -6.4942797    263.61447  0.030342365   0.03058564            8 
  725000   0.98380032   -6.4637615    263.82954  0.030325235  0.030567316            5 
  726000   0.96452971   -6.4847016    264.99019  0.030416688  0.030549485            5 
  727000   0.95341849   -6.4794499    264.51232  0.030320074   0.03053182            6 
  728000   0.96998982   -6.4554487    264.62884  0.030291762  0.030513882           11 
  729000   0.95572887   -6.4652081    265.45385  0.030344518  0.030495833            5 
  730000   0.93344618   -6.4738519    265.35487  0.030291651  0.030477922            9 
  731000   0.97943023   -6.5047107    264.66542  0.030171617  0.030459943            4 
  732000   0.96796228   -6.5123971    265.78259  0.030257581  0.030441932            3 
  733000    0.9570859   -6.4992648    265.80618  0.030218984  0.030423821            6 
  734000   0.94459692   -6.4693804    266.27772  0.030231349  0.030405286            4 
  735000   0.97865476   -6.4882558    266.14363  0.030175015  0.030386822           15 
  736000   0.94615933   -6.4938839     266.5294  0.030177695  0.030368325            4 
  737000    0.9733352   -6.4936258    266.51712  0.030135359  0.030350157           14 
  738000   0.94540303   -6.4988082    267.02495  0.030151869  0.030331785           13 
  739000   0.94636147   -6.5003117    267.17872  0.030128408  0.030313444            5 
  740000   0.95393952   -6.4791496    267.46481  0.030119911   0.03029516            5 
  741000   0.96016857   -6.5415615    267.55534  0.030089445  0.030276966           10 
  742000   0.94141686   -6.5079382    268.83884  0.030193041  0.030258897            6 
  743000    0.9459472   -6.4637118    268.85883  0.030154647  0.030241228            3 
  744000   0.96587044   -6.4998773    267.64201  0.029977823  0.030223267            3 
  745000   0.95402964   -6.4848681    269.42115  0.030136594  0.030205173            4 
  746000   0.94372163   -6.4948829    269.16609  0.030067705   0.03018696            4 
  747000   0.94132181    -6.520867    268.40633  0.029942697  0.030168622           13 
  748000   0.94965409   -6.4833006    269.64921  0.030041133  0.030150377            4 
  749000   0.95528697   -6.4926871    269.27753  0.029959671  0.030131943            3 
  750000   0.96844711   -6.4924682    268.95643  0.029884048  0.030113721            6 
  751000   0.93652034   -6.5058403    270.53195   0.03001908  0.030095734            4 
  752000    0.9453922   -6.5188912    269.56277  0.029871761   0.03007793            9 
  753000   0.94445227   -6.5119533    269.57241  0.029833158  0.030059754            9 
  754000   0.95486561   -6.5249543    270.52982  0.029899405  0.030041893           12 
  755000   0.95391774   -6.4946157    270.91502   0.02990232  0.030023948            6 
  756000   0.96763217   -6.5250057    270.88629    0.0298596  0.030006089            5 
  757000   0.95931124   -6.5138088    270.65473  0.029794664  0.029987772            4 
  758000   0.95656615   -6.5338949    270.68592  0.029758786  0.029969426            5 
  759000   0.94816057   -6.5044785    272.38607  0.029906244  0.029951434            6 
  760000   0.92883364   -6.5012235    271.27211  0.029744749  0.029933382            4 
  761000   0.93944519   -6.5082771    271.71899  0.029754599  0.029915473            3 
  762000   0.94760816   -6.5107542     271.9448  0.029740245  0.029897503            5 
  763000   0.95839762   -6.4812372    273.49252  0.029870305  0.029879691            4 
  764000    0.9427609   -6.5193902    271.87805   0.02965511  0.029861767           12 
  765000   0.94511881   -6.5113444    271.99463  0.029629045  0.029843543            5 
  766000   0.94322282   -6.5326822    272.38563  0.029632902  0.029825439            8 
  767000   0.93280017   -6.5299949    272.24651  0.029579152  0.029807141            6 
  768000   0.95929018   -6.5160873    273.68267   0.02969647  0.029789001            3 
  769000   0.94533455    -6.536776    273.08234  0.029592798  0.029770972            8 
  770000   0.95020931   -6.5340398    274.05532  0.029659667   0.02975314           12 
  771000   0.93062829   -6.5399817    273.91768  0.029606321  0.029735469            2 
  772000   0.93150175   -6.5257329    274.33836  0.029613381  0.029717582            6 
  773000   0.92486901   -6.5140478    274.55151   0.02959805  0.029699937            4 
  774000   0.94327843   -6.5359473    274.88142  0.029595329  0.029682179            7 
  775000   0.94121041   -6.5173927     274.7013  0.029537774  0.029664158            5 
  776000   0.94258694   -6.5164592    275.51363  0.029586945  0.029646333            7 
  777000   0.95806165   -6.5174773    274.88095  0.029481011  0.029628457            8 
  778000   0.93026713   -6.5263604    275.30302  0.029488327  0.029610649            4 
  779000   0.91724892   -6.5273804    275.42981  0.029464036  0.029592892            4 
  780000   0.94690664   -6.5066572     274.9839  0.029378622  0.029574785            8 
  781000    0.9333063   -6.5257282    275.29792  0.029374511  0.029556636           19 
  782000   0.93604859   -6.5381092    274.93872   0.02929867  0.029538584           10 
  783000   0.94209183   -6.5352408    275.91818  0.029365494   0.02952043            8 
  784000   0.94058384   -6.5778486    275.57907  0.029291993    0.0295022           20 
  785000   0.93801823   -6.5208818    275.90685  0.029289475  0.029483987           13 
  786000   0.93462177   -6.5088682    276.95897  0.029363759  0.029465983           10 
  787000   0.93468696   -6.5233531    276.30841  0.029257562  0.029447573            6 
  788000    0.9369476   -6.5543243    276.79433   0.02927182  0.029429278            9 
  789000   0.94201445    -6.549376    277.18011  0.029275466  0.029411151            9 
  790000   0.94220298   -6.5546021    277.57475  0.029280037  0.029392989            4 
  791000   0.92914498   -6.5274496    277.31487  0.029215642  0.029374784            2 
  792000   0.94050114    -6.544806    277.69048  0.029218274  0.029356405            5 
  793000   0.91462527   -6.5599809    277.58039   0.02916986  0.029337906            6 
  794000   0.91790271   -6.5386672    277.44829  0.029119258  0.029319455            6 
  795000   0.93489484     -6.52913    278.42447  0.029184955   0.02930101            8 
  796000   0.94082838   -6.5319178    277.93508  0.029097056  0.029282492            9 
  797000    0.9457987   -6.5195364    277.38252  0.029002773  0.029263857           10 
  798000   0.94005687   -6.5399409     278.0108  0.029032039  0.029245175            5 
  799000   0.94346688   -6.5327826    278.24523  0.029020153  0.029226948            4 
  800000   0.93569546   -6.5478335    278.42296  0.029002392  0.029208288            5 
  801000   0.95454466   -6.5234659    278.92242  0.029018146  0.029189744            4 
  802000   0.94315959   -6.5771852    279.13716  0.029004277  0.029171244            5 
  803000   0.92464518   -6.5128667    279.46825  0.029002517  0.029152883            6 
  804000   0.95419346   -6.5228846    279.91905  0.029013169  0.029134485            4 
  805000     0.926362   -6.5733626    279.58062  0.028942093  0.029116157            3 
  806000   0.92697695   -6.5698597    279.31077  0.028878285  0.029097497           10 
  807000   0.93423738   -6.5346074    280.05616  0.028919471  0.029079014           15 
  808000   0.90950436     -6.55631    279.72059  0.028849071  0.029060617           11 
  809000    0.9210481   -6.5373809    280.95391  0.028940453  0.029042224            6 
  810000   0.92721935   -6.5741116      281.015  0.028911009  0.029024173            6 
  811000    0.9327952   -6.5785153    281.32963  0.028907689  0.029005898            7 
  812000   0.91864553   -6.5884722    281.18401  0.028857144  0.028987653           17 
  813000   0.91896996   -6.5624652    280.49119  0.028750634  0.028969362           21 
  814000   0.93573025   -6.5516297     281.6031  0.028829147  0.028951171           10 
  815000   0.93271691   -6.5103033    281.49058  0.028782268  0.028933175           18 
  816000    0.9239009   -6.5565741    282.42263   0.02884218  0.028915149           14 
  817000   0.93238792   -6.5467937    281.56613  0.028719515  0.028897061           14 
  818000   0.93418558   -6.5725756    282.78419  0.028808495  0.028879004            5 
  819000   0.92874623    -6.567585    282.11113  0.028704836  0.028861182            4 
  820000   0.91630815   -6.5751646     282.8114  0.028740996  0.028843264            6 
  821000   0.92764148   -6.5921368    283.29376  0.028754949  0.028825716            9 
  822000   0.93324446   -6.5560931    284.25217   0.02881713  0.028808289            3 
  823000   0.92090395   -6.5775678    284.34033  0.028791042  0.028790946            7 
  824000   0.91336129   -6.5812389     284.8683  0.028809497  0.028773537           10 
  825000   0.91630648    -6.542042    285.11397  0.028799391  0.028756445            8 
  826000   0.95280787   -6.5781828    284.40193  0.028692689  0.028739414           14 
  827000   0.92526158   -6.5383397    284.75065  0.028693133  0.028722236            9 
  828000   0.93902973   -6.5937579    284.63592  0.028646933  0.028704966            5 
  829000   0.90875113   -6.5500681    285.81897  0.028731299  0.028687734            4 
  830000   0.92544322   -6.5667725    286.07856  0.028722747  0.028670726            6 
  831000   0.93656015   -6.5640714    285.49088   0.02862925  0.028653827            8 
  832000    0.9096959   -6.5825838    286.78801  0.028724761  0.028636832            6 
  833000   0.91732275   -6.5805811     286.5991  0.028671379  0.028619778           20 
  834000   0.91922454    -6.562512    286.64398  0.028641485  0.028602873            5 
  835000   0.91115811   -6.5590921    286.88261  0.028630998  0.028586168            8 
  836000   0.92365651   -6.5669237    287.43711  0.028652025   0.02856974            4 
  837000   0.91647192   -6.5522816    287.33081  0.028607209  0.028553228            5 
  838000   0.90764254   -6.5914218    287.03269  0.028543425  0.028536641            4 
  839000   0.90993505   -6.5860357    288.11157  0.028616564  0.028519927            7 
  840000   0.93258255   -6.5491822    288.10991  0.028582333  0.028503327            4 
  841000   0.91279686   -6.5799241    288.48459  0.028585472  0.028486553            8 
  842000   0.91925514   -6.5799878    288.08597  0.028512071  0.028469871            3 
  843000   0.92431523   -6.5689725    288.84096  0.028552883  0.028453551            8 
  844000   0.93828333   -6.5540685    289.13141   0.02854773   0.02843713            8 
  845000   0.90787396   -6.6209458    288.66678  0.028468124  0.028420882            6 
  846000   0.94863971   -6.5569869    289.65262  0.028531582  0.028404607            7 
  847000   0.91597491   -6.5833891    289.96796  0.028528921  0.028388566           10 
  848000   0.91654164   -6.5848804    289.72659   0.02847156   0.02837251            9 
  849000   0.91694834   -6.5869035    290.22598  0.028487041  0.028356548            6 
  850000   0.88962232   -6.5812485    290.80307  0.028510105  0.028340562            8 
  851000    0.9250165   -6.6089013    291.12726  0.028508349  0.028324606           10 
  852000   0.89688441   -6.6027206    291.24342   0.02848625   0.02830886            8 
  853000   0.93559273   -6.5601611    292.31059  0.028557111  0.028293288            7 
  854000   0.91569293   -6.5918999    292.35064   0.02852758  0.028277843           16 
  855000   0.90957942   -6.5852676    292.31649  0.028490886  0.028262427            6 
  856000   0.92797217   -6.6121974    292.40109  0.028465838  0.028246867            7 
  857000   0.91041772   -6.5932925    292.81829   0.02847319  0.028231277            9 
  858000   0.91627961   -6.5656534    292.96539  0.028454292  0.028215582           23 
  859000   0.92043725   -6.5807751    292.95668  0.028420322  0.028200044           10 
  860000   0.92223354   -6.5814087    293.55789  0.028445532  0.028184575           12 
  861000   0.91106346   -6.5485986    294.41226  0.028495186  0.028169377            8 
  862000   0.90814706   -6.6160291    293.93102  0.028415605  0.028154249            7 
  863000   0.90375008   -6.6139963    294.60206  0.028447476  0.028138997           12 
  864000   0.89050072   -6.5928137    294.83228  0.028436755  0.028124036            4 
  865000   0.93044502   -6.5816296     295.1106  0.028430693  0.028109016            4 
  866000   0.90847106   -6.5784245    295.13207  0.028399929  0.028093936            9 
  867000   0.88649023   -6.5901537    295.36308  0.028389377   0.02807896            8 
  868000    0.8954963   -6.6013213    295.26263  0.028347026  0.028063728            7 
  869000   0.90778388   -6.6047572    295.00973  0.028290155  0.028048522            6 
  870000   0.91332482   -6.6124446    295.05991  0.028262443   0.02803329            8 
  871000   0.89962378   -6.5840608    296.70627  0.028387511  0.028018117            8 
  872000    0.9034307   -6.5874844    296.10691  0.028297679  0.028003121            5 
  873000   0.89641933   -6.6180703    295.72777  0.028229073  0.027987865           13 
  874000   0.89680087   -6.6240319    296.35865  0.028256927  0.027972335           16 
  875000    0.8921318   -6.6364854    295.95207  0.028185912   0.02795684            6 
  876000   0.91472289   -6.5933454    296.56286   0.02821184  0.027941367            7 
  877000   0.92021149   -6.6063567    296.67558  0.028190382  0.027926277            3 
  878000   0.89383016   -6.5896339    297.05262   0.02819406  0.027911211           12 
  879000   0.89826842   -6.6025891    296.79245   0.02813732  0.027895985            9 
  880000   0.88893058   -6.5891475    297.51601  0.028173865  0.027881105            8 
  881000   0.88429979   -6.6105786    297.63123  0.028152784  0.027866223            6 
  882000   0.90926802   -6.6331133    297.80564  0.028137343  0.027851382            8 
  883000   0.90885472   -6.5882403    298.11595  0.028134763  0.027836771            8 
  884000   0.89858216   -6.5689225    298.41334  0.028130971  0.027822172            8 
  885000   0.89768817   -6.6242405    298.76332   0.02813214  0.027807391           11 
  886000   0.88763459   -6.6212985    300.16186  0.028231928   0.02779289           16 
  887000   0.90790476   -6.5916015    299.56287  0.028143824  0.027778497            9 
  888000   0.89006612   -6.6208798    300.56782  0.028206439  0.027764192            8 
  889000   0.90728536   -6.6212932    300.54566  0.028172634  0.027749962           13 
  890000   0.89315618   -6.6190742     299.9027  0.028080777  0.027735829           19 
  891000   0.90644188    -6.603111    301.21658  0.028172146  0.027721674           16 
  892000   0.90703672   -6.6016051    301.40525  0.028158189  0.027707622           16 
  893000   0.90092397   -6.6039032     300.4147   0.02803422  0.027693274            9 
  894000   0.89637924   -6.5914959    301.55598  0.028109245  0.027679008           12 
  895000   0.89234191   -6.5918633    301.71924  0.028093039  0.027664922            7 
  896000   0.89661384   -6.5944258     301.3901  0.028031073  0.027650889           10 
  897000   0.88614298   -6.6247754    302.17254  0.028072513  0.027636946            9 
  898000   0.90280322   -6.6040578    302.64966  0.028085529  0.027623017           11 
  899000   0.92341624   -6.6321717    302.65498  0.028054782   0.02760901            8 
  900000   0.88894785   -6.6101229    302.57601  0.028016297  0.027594908            4 
  901000   0.91856449   -6.6232054    303.01701  0.028025991  0.027580956            9 
  902000   0.89632579   -6.6301228    302.64246  0.027960316  0.027566972           18 
  903000   0.90581883   -6.6100288    303.52905  0.028011171   0.02755289            6 
  904000   0.90370896    -6.611059    303.54821  0.027981951  0.027539259            4 
  905000   0.89234125   -6.6091522    304.16643  0.028007958  0.027525391            7 
  906000   0.90369082   -6.6373624    303.80225  0.027943547  0.027511712            6 
  907000   0.89354444   -6.6528525    304.27292  0.027955983  0.027497774            5 
  908000   0.87331613   -6.6439739    303.45532  0.027850158  0.027483818           23 
  909000   0.89179123   -6.6420939    304.45958  0.027911586  0.027469803            8 
  910000    0.9035825   -6.6462741    304.38897  0.027874447  0.027455889           19 
  911000   0.90356812   -6.6649243    304.70751  0.027872988  0.027441708           12 
  912000   0.86733884   -6.6385046    304.87101  0.027857366  0.027427709           10 
  913000   0.87703809   -6.6431628    304.79612  0.027820018  0.027413804            8 
  914000   0.87447135     -6.62853    304.67272  0.027778329  0.027399801           11 
  915000    0.8810655    -6.612765    305.39397  0.027813659  0.027385785            9 
  916000   0.88798673   -6.6643575    305.00054  0.027747502  0.027371844           13 
  917000   0.88918365   -6.6717979    305.93037  0.027801742   0.02735799           11 
  918000    0.8996638   -6.6367923    306.12004  0.027788675  0.027343952           16 
  919000   0.87582267   -6.6404481    306.92058  0.027831028  0.027329988            4 
  920000   0.90733412   -6.6045024    305.67987  0.027688394   0.02731595           21 
  921000   0.89929325   -6.6589433    306.31761  0.027716034  0.027301829            9 
  922000   0.88103507    -6.668099    306.36431  0.027690194  0.027287681           18 
  923000   0.88510237   -6.6398195    306.71437    0.0276918  0.027273613            4 
  924000   0.88619106   -6.6737955    306.95736  0.027683745  0.027259573            4 
  925000   0.88768861   -6.6502016    307.26862  0.027681857  0.027245695            8 
  926000   0.89012913   -6.6647836    306.25497  0.027560743  0.027231903           15 
  927000   0.89642327   -6.6559285    307.38636  0.027632719  0.027218071            7 
  928000   0.88125513   -6.6496943    308.29513  0.027684548   0.02720427            8 
  929000   0.88922694   -6.6477567    307.49119  0.027582633  0.027190327            5 
  930000   0.88217485   -6.6351545    308.68273  0.027659743  0.027176559            6 
  931000   0.87795058   -6.6386628    308.81985  0.027642307  0.027162868            4 
  932000   0.87102465   -6.6252796    309.29739  0.027655346  0.027149178            5 
  933000   0.87699402   -6.6308257    308.81223  0.027582371  0.027135537            5 
  934000   0.87918016   -6.6470192    308.90139  0.027560795   0.02712187            9 
  935000    0.8754751   -6.6483732    309.11522  0.027550376  0.027107968            6 
  936000   0.86951878   -6.6569738    308.81873  0.027494545   0.02709409            8 
  937000   0.86329654   -6.6720387    309.67121  0.027541018  0.027080112            6 
  938000   0.86565819   -6.6418159    309.90788  0.027532683  0.027066157            8 
  939000   0.88541903   -6.6498715    309.36294     0.027455  0.027052357            7 
  940000    0.8770438   -6.6338089    309.31091   0.02742118  0.027038503            7 
  941000   0.88592219   -6.6207568    310.78015  0.027522153  0.027024579            6 
  942000   0.87919563   -6.6380602    309.63988  0.027392063  0.027010692            6 
  943000   0.87421785   -6.6601841    309.73516  0.027371435  0.026996671           17 
  944000   0.87192198    -6.635659    310.17707  0.027381451  0.026982595            7 
  945000   0.87252505   -6.6750216    310.33575  0.027366468  0.026968586            9 
  946000   0.85715487   -6.6182521    310.93978  0.027390748  0.026954542            9 
  947000   0.87282533   -6.6526845    311.22695  0.027387095  0.026940705           22 
  948000   0.86134768   -6.6279061    311.04973  0.027342628  0.026926694           16 
  949000   0.85663033   -6.6428345    311.29844  0.027335655  0.026912721           19 
  950000   0.87533468   -6.6270534    310.84261  0.027266895  0.026898738           27 
  951000   0.87363377   -6.6824974    311.73789  0.027316675  0.026884691            9 
  952000   0.87479404   -6.6644472    310.38491  0.027169547  0.026870601            7 
  953000    0.8654427   -6.6646024    310.95531  0.027190916  0.026856433            7 
  954000   0.88055309   -6.6284271    312.10035  0.027262435  0.026842255           10 
  955000   0.86947426   -6.6890099    311.60614  0.027190763   0.02682811           16 
  956000   0.85641388   -6.6504902    312.38317  0.027230053  0.026814016            9 
  957000   0.87434548   -6.6682018    312.13739  0.027180198  0.026799832            5 
  958000    0.8657544   -6.6672525    312.27581  0.027163866  0.026785669            8 
  959000   0.86649688   -6.6663021    312.82265   0.02718306  0.026771566            9 
  960000   0.87992321   -6.6449319    313.12123  0.027180662  0.026757405            9 
  961000   0.86746247   -6.6643743    312.83386   0.02712746  0.026743091            5 
  962000   0.87744501   -6.6926594    312.31447  0.027054268   0.02672869            6 
  963000   0.87442299   -6.6884926      312.812  0.027069228  0.026714386           12 
  964000   0.86379486   -6.6894385    313.18522  0.027073411  0.026699931            7 
  965000   0.87496074   -6.6804368    312.39652  0.026977247  0.026685421           15 
  966000   0.86673154   -6.6613446    313.37237  0.027033503  0.026670865           11 
  967000   0.86981672   -6.6594697    313.05378  0.026978092  0.026656418            9 
  968000   0.86229343   -6.6745306    313.26301  0.026968234  0.026641967            4 
  969000   0.87232916   -6.6846248    313.64128  0.026972935    0.0266275           11 
  970000   0.84880363   -6.6903642    312.59684  0.026855398  0.026612838           12 
  971000   0.86733607   -6.6882193    313.28517  0.026886815  0.026598062            8 
  972000   0.85675367   -6.6751793    313.34775  0.026864519  0.026583283            7 
  973000   0.85425513   -6.6757967    313.12336  0.026817691   0.02656837           11 
  974000   0.87947765   -6.6672975     313.8685   0.02685391  0.026553578           11 
  975000   0.87490059   -6.6939362    314.21849  0.026856281  0.026538758           10 
  976000   0.86252859   -6.6717489    314.25912  0.026832234  0.026523858            9 
  977000   0.88350399   -6.6599388    314.17105  0.026797258  0.026509056           11 
  978000    0.8896161   -6.6800552    313.69651  0.026729423  0.026494252            9 
  979000    0.8511316   -6.6837043    314.40826  0.026762705  0.026479261           10 
  980000   0.84497529   -6.6779722    313.83044  0.026686262   0.02646436           14 
  981000   0.86708561   -6.7034922    315.57452  0.026807214  0.026449401           15 
  982000   0.86063731   -6.6756966    314.93977   0.02672605  0.026434673           10 
  983000   0.85666157   -6.7041738    315.03416  0.026706864  0.026419824           11 
  984000   0.84702093   -6.7009905    314.70634   0.02665196  0.026404877            9 
  985000   0.86796872   -6.6967376    314.98333  0.026648336  0.026389727            8 
  986000   0.86754302   -6.6986737    315.18452  0.026638313  0.026374836           15 
  987000   0.87710055   -6.6841648    315.35136   0.02662541  0.026359962           15 
  988000   0.87908677   -6.6769125     315.8437  0.026639988  0.026345129           10 
  989000   0.87381562   -6.6943801    316.23705  0.026646195  0.026330335            9 
  990000   0.85575954   -6.6894135    316.51171    0.0266424  0.026315407           11 
  991000   0.85153362   -6.6845012    316.55288  0.026618977  0.026300618            7 
  992000   0.83741724   -6.7060845    316.50243  0.026587906  0.026285943           18 
  993000   0.87384162   -6.7020455    316.89966  0.026594467  0.026271345           13 
  994000    0.8613305    -6.699609    317.17788  0.026591036  0.026256688           14 
  995000   0.84645101   -6.7185352    316.33933  0.026494081  0.026241921            6 
  996000   0.86561964   -6.7114645    317.19192  0.026538815  0.026227261            8 
  997000   0.84274619   -6.7051529    316.90917  0.026488563  0.026212541            6 
  998000   0.83807496   -6.7093788    317.87876  0.026542983  0.026198005           14 
  999000   0.84279793   -6.7175563    318.18105  0.026541629  0.026183402            8 
 1000000   0.84418568   -6.7001297    317.05122  0.026420935  0.026168834           12 
 1001000   0.85156411   -6.7223122    317.72116  0.026450313  0.026154151            6 
 1002000   0.84283018   -6.7087849     318.5051  0.026489114  0.026139566           15 
 1003000   0.84969246   -6.6829557    318.69191  0.026478224  0.026125088            8 
 1004000   0.86502477   -6.7068318    318.11999  0.026404382  0.026110772           13 
 1005000    0.8646717   -6.6833052    318.38992  0.026400491   0.02609623           11 
 1006000   0.85871079   -6.6965084     318.9652  0.026421902  0.026081547            8 
 1007000   0.84633033   -6.6825256      317.576  0.026280702  0.026066819           14 
 1008000   0.84083943   -6.6981999    318.61663  0.026340661  0.026052116            7 
 1009000   0.84192032    -6.677153    318.63698  0.026316236   0.02603741            7 
 1010000   0.83978138   -6.6656082    318.84403  0.026307263  0.026022604           11 
 1011000   0.86513162   -6.7041052     318.5895  0.026260262  0.026007808           12 
 1012000    0.8581739   -6.7285949    318.66384  0.026240435  0.025992961            8 
 1013000   0.84526636   -6.7087502    318.51147  0.026201996  0.025978184            8 
 1014000   0.84106605   -6.7018861     319.0343  0.026219124    0.0259632            8 
 1015000   0.87058625   -6.7441386    318.97002  0.026188015  0.025948351           15 
 1016000   0.85711921   -6.7092147    319.71851  0.026223631  0.025933569           16 
 1017000   0.84293502   -6.7088717    319.64751  0.026192028  0.025918847            8 
 1018000   0.83093664   -6.6965775    319.70454  0.026170967   0.02590408           12 
 1019000   0.83687344   -6.7159181    319.66654  0.026142177  0.025889222            7 
 1020000   0.84812741   -6.7011825    320.18444  0.026158859   0.02587438            8 
 1021000   0.86109795   -6.7018527     320.2942  0.026142197  0.025859541            7 
 1022000   0.85088305   -6.7339152    319.50846  0.026052549   0.02584471           25 
 1023000   0.81799619   -6.7003018    320.80376  0.026132597  0.025829861           13 
 1024000    0.8348658   -6.7221174    320.61497  0.026091713   0.02581498            6 
 1025000   0.82334028   -6.6942091    321.40889  0.026130804  0.025800025            6 
 1026000   0.84514616   -6.7246792    320.82699  0.026058073  0.025785265           16 
 1027000   0.82175884   -6.7307529    321.52379   0.02608924   0.02577055           10 
 1028000   0.85855454   -6.7045325    321.05099  0.026025534  0.025755709            9 
 1029000   0.84492703    -6.713654    321.56135  0.026041574  0.025740881           11 
 1030000   0.82233916   -6.7052724     322.0889  0.026058972   0.02572606            8 
 1031000   0.84953516   -6.7446904    321.46142  0.025982979  0.025711177            6 
 1032000   0.83527372   -6.7134523    321.52665   0.02596307  0.025696086            5 
 1033000   0.82905465   -6.7244335    320.93543  0.025890241  0.025681038            8 
 1034000   0.84228542   -6.7182384    321.20661  0.025887058  0.025665887           16 
 1035000   0.83804639   -6.7342899    321.74931  0.025905741  0.025650758           10 
 1036000   0.84334776   -6.7115116    322.04024  0.025904138    0.0256356           10 
 1037000   0.84002778   -6.7381051    321.49631  0.025835448  0.025620468           11 
 1038000   0.82800138    -6.739491    322.11145  0.025859943  0.025605289            5 
 1039000   0.82676582   -6.7250112    322.17977  0.025840533  0.025590253           12 
 1040000    0.8410327   -6.7224074    321.40859  0.025753893    0.0255752            6 
 1041000   0.84261887   -6.7229895    321.81809  0.025761935   0.02556011           12 
 1042000   0.84046037   -6.7326144    321.90616  0.025744255  0.025544884           11 
 1043000   0.83872437   -6.7664111    322.08855  0.025734145  0.025529633           14 
 1044000   0.84252554   -6.7179471     322.1318  0.025712947  0.025514381           23 
 1045000   0.84482505   -6.7550561    323.03862  0.025760656  0.025499066           12 
 1046000   0.81731846   -6.7331438    322.69668  0.025708785  0.025483853           14 
 1047000   0.83914025   -6.7464271    322.18026  0.025643128  0.025468504           12 
 1048000   0.83700226   -6.7276975    322.21654  0.025621544  0.025453125           18 
 1049000    0.8314543   -6.7286492    322.22447  0.025597749  0.025437799            8 
 1050000   0.84558527   -6.7393697    322.26965  0.025576956  0.025422463            9 
 1051000   0.84983021   -6.7661307    322.88878  0.025601711  0.025407121            9 
 1052000   0.84485039   -6.7152113    323.43844  0.025620916  0.025391852            6 
 1053000   0.84689978   -6.7564603    322.73842  0.025541185   0.02537667            9 
 1054000    0.8344112   -6.7315418    323.28103  0.025559854  0.025361451           16 
 1055000   0.85025688   -6.7602315    323.31052  0.025537956  0.025346205           13 
 1056000   0.83309347   -6.7493348    323.62564  0.025538639  0.025331043           12 
 1057000   0.83914552   -6.7362426    324.09665  0.025551613  0.025315908           15 
 1058000   0.81205009   -6.7261881    323.47369  0.025478394   0.02530065            5 
 1059000   0.81958621    -6.757944    322.73731  0.025396389  0.025285346           14 
 1060000   0.82935888   -6.7432329    323.53781  0.025435362  0.025269949           12 
 1061000    0.8352937   -6.7214187     324.2407  0.025466596  0.025254593            6 
 1062000   0.82781607   -6.7470426     323.9457  0.025419468  0.025239235           15 
 1063000   0.81715599    -6.756692    323.97694  0.025398004   0.02522375           19 
 1064000   0.81713197   -6.7635665      324.486  0.025414004  0.025208286            8 
 1065000   0.82033579    -6.747047    324.00424  0.025352445  0.025192998           30 
 1066000   0.81557908   -6.7406477    323.70014  0.025304889  0.025177594           19 
 1067000    0.8240999   -6.7509181     324.4596  0.025340487  0.025162039           10 
 1068000    0.8081446   -6.7424527     323.6336   0.02525231  0.025146526           28 
 1069000    0.8387352   -6.7665817    325.00834  0.025335854  0.025130908            6 
 1070000   0.82645031    -6.732427    324.99498  0.025311136  0.025115391           10 
 1071000   0.82029046   -6.7732655    324.31051  0.025234244  0.025099859           11 
 1072000   0.82488436   -6.7612398    324.63409  0.025235859  0.025084266            7 
 1073000    0.8091334   -6.7742058     324.1082  0.025171497  0.025068766           11 
 1074000   0.78859155   -6.7208849     325.0627  0.025222121  0.025053239           11 
 1075000   0.84485335   -6.7740639     325.5133  0.025233589  0.025037863           10 
 1076000   0.82968448   -6.7337509    325.62925  0.025219118  0.025022518            7 
 1077000    0.8355957   -6.7878958    325.70239  0.025201361  0.025007087            8 
 1078000   0.83313918   -6.7695171    325.08055  0.025129913  0.024991632            8 
 1079000    0.8284269   -6.7483425     326.0837  0.025184098  0.024976199           11 
 1080000   0.84283715   -6.7746584    325.99618  0.025154026  0.024960644           15 
 1081000   0.82110648   -6.7574318    326.17372  0.025144443  0.024945268           12 
 1082000   0.81919539    -6.761104    325.35848  0.025058417  0.024929838            7 
 1083000   0.83897613   -6.7587383    326.85385  0.025150343  0.024914522            7 
 1084000   0.82604541   -6.7568268    326.43328  0.025094809  0.024899156           13 
 1085000   0.82548474   -6.7791296     325.7408  0.025018495  0.024883764           11 
 1086000   0.81453141   -6.7548482    327.22938  0.025109682  0.024868426            9 
 1087000   0.82400203   -6.7752559    326.73459   0.02504865  0.024853138           10 
 1088000   0.81401334   -6.7877415    326.42491  0.025001908  0.024837734           11 
 1089000   0.80075576   -6.7639234    327.45711  0.025057936  0.024822321            7 
 1090000    0.8087625    -6.743298    326.78555  0.024983605  0.024806979           14 
 1091000   0.80833338   -6.7715037    327.03788  0.024979979  0.024791527           10 
 1092000   0.81696163   -6.7393257    326.47367  0.024914047  0.024776005           10 
 1093000   0.81695968    -6.760788    327.14021  0.024942071  0.024760521           16 
 1094000   0.82519726   -6.7493854    327.74057  0.024965004  0.024745052           14 
 1095000   0.81495294   -6.7554584    327.21564  0.024902255  0.024729561            8 
 1096000   0.82557663   -6.7829747    326.82233   0.02484963  0.024714103           10 
 1097000    0.7943627   -6.7929964    326.90903  0.024833564  0.024698389           12 
 1098000   0.81272123   -6.8043618    326.93823  0.024813162  0.024682658           19 
 1099000   0.80481351   -6.7912584    326.97266  0.024793196  0.024667026            5 
 1100000   0.82004965     -6.76901    327.32741  0.024797531  0.024651463           16 
 1101000   0.82945804   -6.7672295    327.35474  0.024777077  0.024636021           10 
 1102000    0.8223421   -6.7951121    328.00623  0.024803859   0.02462058           28 
 1103000   0.79447036   -6.7824058    328.11382    0.0247895  0.024605051           40 
 1104000   0.81212086   -6.7815685    328.10328   0.02476625  0.024589655           17 
 1105000   0.80169154   -6.7729278    329.01598  0.024812668  0.024574349           10 
 1106000   0.81142994   -6.7900782    328.47335  0.024749348  0.024558953           27 
 1107000   0.80097338   -6.7683205    328.14065  0.024701946  0.024543482           22 
 1108000    0.8177765   -6.7714566    328.44978  0.024702902  0.024527974            9 
 1109000   0.80103201   -6.7929087    328.20157  0.024661976  0.024512559           12 
 1110000   0.80723638   -6.7828409    328.80729  0.024685232  0.024497173           31 
 1111000   0.81069604   -6.7612332    328.63224  0.024649883  0.024481883           13 
 1112000   0.80139839   -6.7806111    329.28952  0.024676972   0.02446664            8 
 1113000    0.7975861   -6.8025796    328.65513  0.024607302   0.02445128           10 
 1114000   0.81957319   -6.7907522    329.46055  0.024645463  0.024435944            7 
 1115000   0.79981233     -6.79349    329.29708  0.024611142  0.024420546           24 
 1116000   0.82205906   -6.7950266    329.10034  0.024574398  0.024405099           18 
 1117000   0.80040824   -6.8160177    329.67328  0.024595142  0.024389692           10 
 1118000   0.80780879   -6.7935227    329.22065  0.024539404  0.024374359           21 
 1119000    0.8196275   -6.7575182    330.22731  0.024592442  0.024359052           18 
 1120000    0.7974222   -6.8083488    329.22698  0.024496055  0.024343688           10 
 1121000   0.81013186   -6.7838997    329.90462  0.024524578  0.024328182            8 
 1122000   0.81001895   -6.7678436    329.62081  0.024481641  0.024312742           11 
 1123000   0.81034892   -6.7966223    330.34163   0.02451333  0.024297304           15 
 1124000   0.78838966   -6.8102156    329.86046  0.024455847  0.024281863           11 
 1125000   0.78695132   -6.8038881    329.69156  0.024421597  0.024266331           13 
 1126000   0.81259647    -6.813814     328.8729  0.024339321  0.024250679           18 
 1127000   0.79803794    -6.809559    329.94634  0.024397097  0.024234968           29 
 1128000   0.78274623   -6.7993794    329.59683  0.024349648  0.024219381           13 
 1129000   0.78935515   -6.7840675     330.9983  0.024431525  0.024203823           23 
 1130000   0.81748352   -6.8075606    330.01006  0.024337025  0.024188443           20 
 1131000    0.7842954   -6.7879775    330.36866  0.024341929  0.024172997           11 
 1132000   0.79542343   -6.8100896    330.82454  0.024353985  0.024157599           15 
 1133000   0.80798811    -6.810907    331.71117  0.024397703  0.024142202           17 
 1134000   0.79615212   -6.8168027    331.08865  0.024330442  0.024126774           16 
 1135000   0.77665056   -6.7768241    331.36744  0.024329474  0.024111444            6 
 1136000   0.78757573   -6.7684701    330.62614  0.024253678   0.02409628           14 
 1137000   0.80588072   -6.8054761     331.1831  0.024273168  0.024081057           13 
 1138000   0.79362388   -6.8138939    331.23973  0.024255985  0.024065719           23 
 1139000   0.79601751   -6.8288455    331.37286  0.024244429  0.024050289           10 
 1140000   0.79426971   -6.8397271    331.37111  0.024223034  0.024034824           17 
 1141000   0.80079929   -6.7930026    332.05496   0.02425175  0.024019496           16 
 1142000   0.79596715   -6.8323492     332.3188  0.024249767  0.024004187           10 
 1143000   0.78989142   -6.8060381    331.98783   0.02420442  0.023988904            7 
 1144000   0.79280572   -6.8328632    331.46581  0.024145236  0.023973578            6 
 1145000   0.79255323   -6.8128784    331.70206  0.024141344  0.023958302            9 
 1146000   0.80461825    -6.826422    331.66465  0.024117557  0.023943037           25 
 1147000   0.79300047   -6.8204689    331.44716  0.024080729  0.023927722           13 
 1148000   0.80610343   -6.8403296    332.34487  0.024124918   0.02391233           13 
 1149000   0.80261658   -6.8070073    331.63943  0.024052758  0.023896925            9 
 1150000   0.79542281   -6.8444744    332.58158  0.024100115  0.023881656           24 
 1151000   0.79475584   -6.8222303    332.22274  0.024053196   0.02386635           19 
 1152000   0.79636452   -6.8327874    332.38234  0.024043861  0.023851052           15 
 1153000   0.80643908   -6.8325946    332.46821  0.024029214   0.02383577           23 
 1154000   0.78973373   -6.7915525    333.28395  0.024067298  0.023820558            8 
 1155000   0.80303535   -6.7875707    333.52698  0.024063996  0.023805382           13 
 1156000   0.80209212   -6.8222688    332.33854  0.023957507  0.023790111           17 
 1157000   0.80912509   -6.8153828    333.36157  0.024010485  0.023774898            6 
 1158000   0.78316686   -6.8106015    332.92088  0.023958037  0.023759758           10 
 1159000   0.77910581   -6.8007317    333.56098   0.02398339  0.023744668            9 
 1160000   0.80773335   -6.8291488    333.22571  0.023938628  0.023729578            7 
 1161000   0.80844125   -6.8253952    333.26114  0.023920553  0.023714389            7 
 1162000   0.78368632   -6.8172565    333.65625  0.023928302   0.02369917           17 
 1163000    0.7692636   -6.8210402    333.98354  0.023931179  0.023683963           17 
 1164000   0.79690389   -6.8200434    333.92304  0.023906289  0.023668862            8 
 1165000    0.7563712   -6.8378813    333.11561  0.023828012  0.023653767           19 
 1166000   0.76367999    -6.841647    334.70435  0.023921123  0.023638765           10 
 1167000   0.77490515   -6.8710187    334.43972  0.023881728  0.023623743           15 
 1168000   0.77980095   -6.8419774    334.26587  0.023848878  0.023608661           33 
 1169000   0.77996915   -6.8363949    335.24327  0.023898152  0.023593654            8 
 1170000    0.8064815   -6.8439495    334.96571  0.023857957  0.023578655           22 
 1171000   0.77126955   -6.8294546    335.18602  0.023853261   0.02356361           17 
 1172000   0.77268283   -6.8627383    334.44002  0.023779865  0.023548516           16 
 1173000   0.76886638   -6.8380057    334.93032  0.023794424  0.023533478           12 
 1174000   0.77623564    -6.829235    335.63994  0.023824527  0.023518496            8 
 1175000   0.75702266    -6.833422    335.35181  0.023783816  0.023503526           15 
 1176000   0.76775634   -6.8444509    335.92156  0.023803965  0.023488693           15 
 1177000   0.77314023   -6.8082051    335.53583  0.023756431  0.023473798           14 
 1178000   0.77535182   -6.8446425     335.8271  0.023756869     0.023459           26 
 1179000   0.77503436   -6.8262884    335.94239  0.023744868  0.023444081           15 
 1180000   0.78006229   -6.8289852    335.71983  0.023709028  0.023429245           17 
 1181000   0.78886065    -6.844761     335.4424  0.023669376  0.023414286           19 
 1182000   0.79618187   -6.8446863    335.31107  0.023640092   0.02339933           21 
 1183000   0.76745144   -6.8515028    335.49446  0.023633028  0.023384352           16 
 1184000   0.78854233   -6.8402029    335.42861  0.023608433  0.023369263           10 
 1185000   0.77204452   -6.8551219    335.72497  0.023609351  0.023354194           13 
 1186000    0.7612439    -6.842758    335.91636  0.023602892   0.02333918           12 
 1187000   0.77871478   -6.8642819    336.15973  0.023600093  0.023324188            7 
 1188000   0.78528229   -6.8259852     335.9762  0.023567354   0.02330923           10 
 1189000   0.77978921   -6.8671554    335.94966  0.023545673  0.023294309           12 
 1190000   0.78122853   -6.8326449    335.87453  0.023520626  0.023279428           20 
 1191000   0.78544083   -6.8142531     336.7451   0.02356179  0.023264607           11 
 1192000   0.77838267   -6.8091463    337.13332  0.023569164  0.023249895           11 
 1193000   0.78558469   -6.8443305     336.7094  0.023519796  0.023235063           10 
 1194000   0.78483987   -6.8602692    336.03177  0.023452804   0.02322011           10 
 1195000   0.77064624   -6.8803223    335.90351  0.023424234  0.023205068           25 
 1196000   0.78674961   -6.8811306    336.60975  0.023453856  0.023190068            7 
 1197000   0.77637081   -6.8418688    335.88721  0.023383961  0.023175112           22 
 1198000    0.7644443   -6.8832973    336.46402  0.023404564  0.023160074           14 
 1199000   0.77712675     -6.86299    336.07959  0.023358325  0.023145043           11 
 1200000   0.77452938   -6.8746324    336.88761  0.023394973  0.023130062           18 
 1201000   0.76294254   -6.8630975    336.02474  0.023315621  0.023115067           10 
 1202000   0.75000504   -6.8446727     337.0319  0.023366049  0.023100078            8 
 1203000   0.77121801   -6.8318931     337.4997  0.023379031  0.023085144            7 
 1204000   0.74983468   -6.8489091    336.77949  0.023309765  0.023070375            9 
 1205000   0.76435965   -6.8617615    337.23968  0.023322246  0.023055463           11 
 1206000   0.77472169    -6.853756    337.65907  0.023331887  0.023040552           11 
 1207000   0.76448682   -6.8705538    338.01701   0.02333727  0.023025746            9 
 1208000   0.76026252   -6.8614394     337.9398  0.023312624  0.023010937           17 
 1209000   0.74978189   -6.8836278    337.81171  0.023284512  0.022996136           21 
 1210000   0.76221434   -6.8479551    337.98556  0.023277242    0.0229813           15 
 1211000   0.77279184    -6.858523    338.52966  0.023295462  0.022966518           20 
 1212000   0.77183834   -6.8695553    338.72027  0.023289347  0.022951789           14 
 1213000   0.76950773   -6.8682206    338.50403  0.023255292  0.022937095           13 
 1214000    0.7908696   -6.8779956    338.82548  0.023258201   0.02292242           21 
 1215000   0.76357393   -6.8820201     338.2602  0.023200288  0.022907788           18 
 1216000   0.75873604   -6.8874734    339.26913  0.023250352  0.022893199           16 
 1217000   0.77969831   -6.8734326    338.67082  0.023190278  0.022878626           13 
 1218000   0.78218733   -6.8742887    339.32504  0.023215999  0.022864023           20 
 1219000   0.75477695   -6.8815879    337.99378  0.023105946  0.022849398           17 
 1220000   0.76187551   -6.8831415    338.40379  0.023115013  0.022834685           16 
 1221000   0.78253806   -6.8698253    338.92615  0.023131733  0.022819982           32 
 1222000    0.7680151   -6.8559121     338.1437  0.023059445  0.022805284           19 
 1223000   0.76533887   -6.8607686    339.33462  0.023121738  0.022790556           21 
 1224000   0.75203394   -6.8916038    339.18033  0.023092343  0.022775868           26 
 1225000   0.78269472   -6.8796993    339.77581  0.023114001  0.022761248           20 
 1226000   0.76667788   -6.8630603    339.17244  0.023054135  0.022746625           21 
 1227000   0.76229757    -6.871081    339.19977  0.023037203  0.022732061           31 
 1228000   0.77488093   -6.8834626    340.22313  0.023087889   0.02271754           24 
 1229000   0.76601225   -6.8614036    340.13262  0.023062966  0.022703014           16 
 1230000   0.73560299   -6.8628955    339.86551  0.023026119  0.022688374           15 
 1231000   0.75374909   -6.8830323    340.36547  0.023041259  0.022673778            9 
 1232000   0.75459884   -6.8477787    339.70362  0.022977788  0.022659224           25 
 1233000   0.74999486    -6.858075    339.77847  0.022964212  0.022644561           12 
 1234000   0.77538771    -6.860357    340.22966  0.022976071  0.022629938           11 
 1235000   0.73952049   -6.8619386    340.74467  0.022992218  0.022615448           14 
 1236000   0.77915962   -6.8865641     340.4831   0.02295598  0.022600937           31 
 1237000    0.7536192   -6.8956097    340.26244  0.022922557  0.022586432           18 
 1238000   0.77213156   -6.8804489    339.81207  0.022873726  0.022571854           32 
 1239000   0.76104762   -6.9035091    339.96037  0.022865239  0.022557195           14 
 1240000   0.76732583   -6.8628118     340.9661  0.022914389  0.022542588           18 
 1241000   0.73651467   -6.8665766    340.65767  0.022875213  0.022528045           18 
 1242000   0.76439276   -6.9130497    340.25591  0.022829838  0.022513492            9 
 1243000   0.73842928    -6.895161    340.37885  0.022819714  0.022498834           38 
 1244000   0.75223885   -6.9030617    340.76963  0.022827548  0.022484171           20 
 1245000   0.75211138   -6.8683689    340.59003  0.022797191  0.022469652           15 
 1246000   0.75912013   -6.8692294    341.79904  0.022859754  0.022455249           17 
 1247000   0.76392922   -6.8941567    341.81132  0.022842243  0.022440832           12 
 1248000   0.75484096   -6.8722248    341.24548  0.022786157  0.022426483           11 
 1249000   0.74790788   -6.8733243    342.56793  0.022856147  0.022412122           12 
 1250000   0.75442527   -6.8741031    342.35528  0.022823685  0.022397758            9 
 1251000   0.78288014   -6.8756069     341.2987  0.022735059  0.022383341           39 
 1252000   0.76815984   -6.9135809    340.73868  0.022679624  0.022368841           53 
 1253000   0.75111633    -6.904222    341.85799  0.022735966  0.022354356           25 
 1254000   0.74188606   -6.9034091    340.62633  0.022635987  0.022339842           35 
 1255000   0.74957152   -6.9029667     341.2704  0.022660717  0.022325372           39 
 1256000   0.74517026   -6.9166335    341.53418  0.022660177  0.022310938           15 
 1257000   0.74153726   -6.9094373    341.91083  0.022667119  0.022296554           19 
 1258000   0.75112681    -6.894157    341.73744  0.022637615  0.022282203           15 
 1259000   0.75804526   -6.9041195    341.84103  0.022626491  0.022267804           17 
 1260000   0.74025036    -6.920125    341.50922  0.022586588  0.022253343           18 
 1261000   0.74010695    -6.921512    341.75461  0.022584894  0.022238821           19 
 1262000   0.75831025   -6.9185139    342.37551  0.022607997  0.022224358           42 
 1263000    0.7372717   -6.9133713     341.6823  0.022544358  0.022209886           59 
 1264000   0.77119357   -6.9332552    341.38859  0.022507159   0.02219533           61 
 1265000    0.7401505   -6.9073619    342.02078  0.022531013  0.022180758           63 
 1266000   0.74605123   -6.9179257    342.21373  0.022525917  0.022166263           69 
 1267000   0.75083986   -6.9241447     341.9892   0.02249337   0.02215176           71 
 1268000   0.74708887   -6.9336851    342.01139  0.022477089   0.02213725           71 
 1269000   0.75567709   -6.9377135     342.5776  0.022496559  0.022122777           96 
 1270000   0.76578273    -6.916194    342.10381  0.022447757  0.022108205           86 
 1271000   0.74878327   -6.9293077    342.12765  0.022431658  0.022093695           80 
 1272000   0.74707072     -6.91995    342.12096  0.022413585   0.02207915           89 
 1273000   0.75063881   -6.9262216    342.63174  0.022429415  0.022064631           70 
 1274000   0.74483589   -6.9237955    341.96819  0.022368406  0.022050115           75 
 1275000   0.73961663   -6.9377647    341.70878  0.022333907    0.0220356          113 
 1276000   0.73684261   -6.9244852    341.92398  0.022330459  0.022021074          133 
 1277000   0.73391394   -6.9357997    341.94208  0.022314153  0.022006553          104 
 1278000     0.761201   -6.9361959      342.568  0.022337506  0.021992078           41 
 1279000   0.75397367   -6.9242555    342.78136  0.022333943  0.021977631           51 
 1280000   0.73990511   -6.9072651    342.87612  0.022322664  0.021963235           23 
 1281000   0.73960743     -6.90507     343.7221  0.022360272    0.0219489           31 
 1282000   0.73450848   -6.9243348    343.78818  0.022347125  0.021934564           26 
 1283000   0.74451585   -6.9187672     344.0497  0.022346694  0.021920249           25 
 1284000   0.72003902   -6.9348614    343.82674  0.022314819  0.021906027           17 
 1285000   0.73369047   -6.9280403    343.84989  0.022298955  0.021891885           45 
 1286000   0.74099634    -6.911936    343.84978  0.022281609  0.021877745           27 
 1287000   0.73987982   -6.9229036    344.35686  0.022297129  0.021863643           36 
 1288000   0.72580477   -6.9186282    343.58881  0.022230125  0.021849522           25 
 1289000   0.72412292   -6.9044096    344.69747  0.022284554  0.021835375           29 
 1290000   0.74601865   -6.9448676    343.86817  0.022213706  0.021821165           33 
 1291000   0.75383322   -6.9376839     343.9533  0.022201995   0.02180695           23 
 1292000   0.72757515   -6.9860317    344.35208  0.022210531  0.021792746           29 
 1293000   0.71617325   -6.9418535    343.71379  0.022152216  0.021778508           50 
 1294000   0.73745273   -6.9644826    343.77884  0.022139287  0.021764244           41 
 1295000   0.72737657   -6.9479765    344.14254  0.022145595  0.021749954           39 
 1296000   0.74569724   -6.9505845    343.67844  0.022098665  0.021735626           34 
 1297000    0.7359473   -6.9394523    343.99347  0.022101868  0.021721282           37 
 1298000   0.71404378   -6.9417486    343.73942   0.02206853  0.021706959           26 
 1299000    0.7241166   -6.9258574    343.81933  0.022056667   0.02169261           60 
 1300000   0.73596882   -6.9083575    344.26099  0.022068012  0.021678295           25 
 1301000   0.73142972   -6.9490308    344.23104  0.022049132  0.021663972           17 
 1302000   0.72964463   -6.9437816     344.0478  0.022020469  0.021649614           36 
 1303000   0.72484561   -6.9409382    344.71291  0.022046106  0.021635341           17 
 1304000   0.73724403   -6.9251786    344.49841  0.022015491  0.021621109           42 
 1305000   0.74092189     -6.92127    344.11696  0.021974263   0.02160682           17 
 1306000   0.74719082   -6.9883256    343.69309  0.021930391  0.021592504           29 
 1307000    0.7387838   -6.9530823    343.80738  0.021920899  0.021578152           16 
 1308000   0.71774352   -6.9573809    344.49893  0.021948199  0.021563858           36 
 1309000   0.73579195   -6.9143508    344.56465  0.021935616  0.021549591           17 
 1310000   0.74692654   -6.9642528    344.70484  0.021927789   0.02153539           13 
 1311000   0.73817935   -6.9548337    344.45803  0.021895375  0.021521192           41 
 1312000   0.73402564   -6.9362085    344.77389  0.021898748   0.02150695           19 
 1313000   0.74593796   -6.9527675    344.52919  0.021866539  0.021492699           50 
 1314000   0.72942111   -6.9339011    345.00511  0.021880081  0.021478412           12 
 1315000   0.74414743   -6.9672302     344.7219  0.021845494  0.021464135           22 
 1316000   0.72594042    -6.943807    345.07573    0.0218513  0.021449922           24 
 1317000   0.72026941   -6.9601445    345.21375  0.021843442   0.02143567           48 
 1318000   0.72040984   -6.9701587    345.06766  0.021817632  0.021421459           74 
 1319000   0.72841299   -6.9650325    345.16578  0.021807289  0.021407245          104 
 1320000   0.71082675    -6.972543    345.53804   0.02181427  0.021393061           74 
 1321000   0.70703046   -6.9451388    344.54188  0.021734916  0.021378918          175 
 1322000   0.72631632   -6.9637276    344.80186  0.021734863  0.021364775           76 
 1323000   0.73126022   -6.9863124    345.46914  0.021760465  0.021350594           94 
 1324000   0.71394515   -6.9550307    346.65884   0.02181891  0.021336543          144 
 1325000   0.72620384   -6.9822563     345.7699  0.021746535  0.021322512          159 
 1326000   0.71882137   -6.9793957    345.69199  0.021725238  0.021308429          133 
 1327000   0.72591668   -6.9727034    345.69324  0.021708945   0.02129444          103 
 1328000   0.72390785   -6.9699044    345.80546   0.02169964  0.021280428           98 
 1329000   0.72643201   -6.9917527     346.4481  0.021723608  0.021266459          114 
 1330000    0.7175411   -6.9538361    346.31643  0.021699024  0.021252577          104 
 1331000   0.73056768   -6.9919499    346.44894  0.021691018  0.021238674           47 
 1332000   0.70902618   -6.9614188    347.02709  0.021710904  0.021224745           50 
 1333000   0.71071121   -6.9746186    347.25325  0.021708755  0.021210858           53 
 1334000   0.70942101   -6.9516341    347.08527  0.021681988   0.02119695           26 
 1335000   0.73980157   -6.9477197    346.64293  0.021638135  0.021183052           92 
 1336000   0.70320795   -6.9977555    346.36315  0.021604488  0.021169157           68 
 1337000    0.7328807   -6.9625913    346.56729  0.021601053  0.021155163           38 
 1338000    0.7350624    -6.977067    346.76009  0.021596916  0.021141217           53 
 1339000   0.71815379    -7.002171    345.87548  0.021525733  0.021127199          102 
 1340000   0.72298623    -7.012007     345.6751  0.021497208  0.021113184           78 
 1341000   0.71954021   -6.9975247     346.3631  0.021523931   0.02109913           73 
 1342000   0.72181654   -7.0080377    346.78629  0.021534171  0.021085115           73 
 1343000   0.72299844   -6.9809664    346.32337  0.021489413  0.021071106           85 
 1344000   0.72156908   -6.9968565    346.54583  0.021487216  0.021057144          153 
 1345000   0.71460289   -6.9587672    347.01336  0.021500208  0.021043194           80 
 1346000   0.71634519   -7.0002745    347.34406  0.021504709  0.021029264          189 
 1347000   0.71099116   -6.9708697    347.40629  0.021492594  0.021015322          256 
 1348000   0.71611878   -7.0077344    347.87897  0.021505871  0.021001449          138 
 1349000   0.70648817   -7.0073735    346.78898  0.021422596   0.02098758          218 
 1350000   0.72196987   -7.0000685     346.6936   0.02140084  0.020973768           40 
 1351000    0.7155081   -6.9796152    347.26031  0.021419955  0.020959878           58 
 1352000   0.70175271   -6.9695713    347.39311  0.021412297  0.020946045           47 
 1353000   0.70604812   -6.9754903    348.21117  0.021446857  0.020932157           54 
 1354000    0.7359414   -6.9971783    346.83866  0.021346545  0.020918236           32 
 1355000   0.71929934   -6.9843129    346.91993  0.021335789  0.020904272           24 
 1356000    0.7105662   -6.9521948    347.09527   0.02133083  0.020890308           31 
 1357000   0.71134375    -7.004579     346.7207  0.021292109  0.020876355           55 
 1358000    0.7134876   -6.9678164    348.00943  0.021355513  0.020862456           27 
 1359000    0.7079414   -6.9817006    347.54267  0.021311177  0.020848591           29 
 1360000   0.71774844   -6.9946294    347.20168  0.021274613  0.020834725           35 
 1361000   0.71022554    -6.979381    347.56766   0.02128139  0.020820867           38 
 1362000   0.71477217   -7.0068744    347.05861  0.021234619  0.020806972           54 
 1363000   0.71522134   -6.9982298    347.10579  0.021221924  0.020792999           87 
 1364000   0.70255392   -6.9971327    348.33485  0.021281455  0.020779168           39 
 1365000   0.70293909   -6.9893933    348.06108   0.02124915  0.020765359           24 
 1366000   0.71955635   -6.9944357    347.79259  0.021217215  0.020751509           24 
 1367000   0.71265656   -6.9968118     347.7347  0.021198165  0.020737645           33 
 1368000   0.71015366   -6.9767481    347.65355  0.021177726  0.020723827           40 
 1369000   0.71359693   -6.9828824    347.38881  0.021146141  0.020709901           27 
 1370000   0.71378614   -6.9796791    347.66886  0.021147741  0.020696047           22 
 1371000   0.70823883   -6.9914214    347.08067  0.021096564  0.020682122           56 
 1372000   0.69831846   -7.0110248    348.37807   0.02115999  0.020668197           52 
 1373000   0.69015431      -7.0124    347.76231  0.021107205  0.020654278           98 
 1374000   0.69070317    -6.995876    347.52114  0.021077216  0.020640343           64 
 1375000   0.70938163   -7.0027037    346.96992   0.02102848  0.020626422           52 
 1376000   0.72061181   -7.0325798    347.51872  0.021046434  0.020612522           65 
 1377000   0.70209832   -7.0111237     348.2046  0.021072658   0.02059863           57 
 1378000   0.70532678   -7.0239909    347.06554  0.020988482  0.020584715          140 
 1379000   0.71709825   -7.0220362    346.95135  0.020966362  0.020570697          222 
 1380000   0.70520429    -7.011304     347.7246  0.020997862  0.020556734           90 
 1381000   0.70638602   -7.0303804    347.52342  0.020970518  0.020542746           79 
 1382000   0.69901487   -7.0305986    348.41922  0.021009359  0.020528797           45 
 1383000   0.70672947   -7.0197134    347.43255  0.020934716  0.020514882           61 
 1384000   0.70703753   -7.0005951    348.01591  0.020954715  0.020500954           50 
 1385000   0.69300983   -7.0366448    348.33843  0.020958991  0.020487028           69 
 1386000   0.70762575   -7.0297253    347.47034  0.020891675  0.020473032           63 
 1387000   0.70021522   -7.0149031    347.96967  0.020906613  0.020459045           91 
 1388000   0.69532442   -7.0215065    348.32221  0.020912716  0.020445093           34 
 1389000   0.69776027   -7.0402833    348.01537  0.020879252  0.020431192           43 
 1390000   0.68718139   -7.0093452    348.31569  0.020882235  0.020417246          114 
 1391000   0.70914851     -7.02959     347.3816  0.020811263  0.020403264           57 
 1392000   0.69768977   -7.0228562    347.14185   0.02078196  0.020389305           45 
 1393000   0.70069838   -6.9972964    347.66762  0.020798493  0.020375323           46 
 1394000   0.70676371   -7.0125294    347.66604  0.020783479  0.020361371           68 
 1395000   0.70399422   -7.0031082    348.20709  0.020800902  0.020347447           32 
 1396000   0.68796359   -7.0213614    347.57398  0.020748208  0.020333477           68 
 1397000   0.68384523   -7.0017894    348.09951  0.020764705  0.020319509           35 
 1398000   0.70283158   -7.0204848    347.27475  0.020700688   0.02030554           15 
 1399000   0.70531488   -7.0367086    347.84671  0.020719962  0.020291561           19 
 1400000   0.70415717    -7.018845     347.7708  0.020700643  0.020277607           28 
 1401000    0.6904862   -6.9991619    347.80133  0.020687683  0.020263632           25 
 1402000   0.70873507   -7.0210745    348.04338  0.020687315  0.020249633           20 
 1403000   0.69523101    -7.026676    347.66454  0.020650068  0.020235666           16 
 1404000   0.70187438   -7.0139173    347.69963  0.020637443  0.020221698           18 
 1405000   0.69467183   -7.0231318    347.73676  0.020624956  0.020207712           23 
 1406000   0.69592803    -7.025967    348.00052   0.02062592  0.020193797           30 
 1407000   0.69699159   -7.0501597    348.47085  0.020639117  0.020179835           28 
 1408000   0.68843282   -7.0155933    347.35992  0.020558707  0.020165832           51 
 1409000   0.70317126   -7.0432808    347.35034   0.02054355  0.020151823           73 
 1410000   0.69234951   -7.0228284    347.05733  0.020511663  0.020137844           30 
 1411000    0.6830863    -7.044183     347.6521  0.020532252  0.020123888           38 
 1412000    0.6832261   -7.0272367    348.18089   0.02054892  0.020109897           41 
 1413000   0.69108437   -7.0294942    348.24098   0.02053792  0.020095887           23 
 1414000   0.69325487   -7.0548334    348.33436  0.020528899  0.020081893           35 
 1415000   0.67398156   -7.0512137    348.07758  0.020499269  0.020067851           40 
 1416000   0.68865804   -7.0219274    347.24419  0.020435746  0.020053869           19 
 1417000   0.69619759   -7.0240967    347.22875  0.020420416  0.020039912           75 
 1418000   0.68127371   -7.0363647    348.07329  0.020455647  0.020025923           95 
 1419000   0.68173676   -7.0546458    347.92175  0.020432332  0.020011941           44 
 1420000   0.70017861   -7.0453598    347.66352  0.020402788  0.019997946           47 
 1421000   0.67804977   -7.0444239    347.81158  0.020397114  0.019983962           64 
 1422000   0.68691229   -7.0407569     347.1723  0.020345306  0.019969963          122 
 1423000   0.67976099   -7.0278865    347.73094  0.020363723  0.019955947           74 
 1424000   0.69071859   -7.0289136    348.41283  0.020389327   0.01994202          114 
 1425000   0.69894243    -7.052739    348.14788  0.020359525  0.019928139           75 
 1426000   0.67609317   -7.0269108    348.57482  0.020370197  0.019914252          105 
 1427000   0.67419521   -7.0440202    348.31153  0.020340547   0.01990032           83 
 1428000    0.6881585   -7.0254207    348.13123  0.020315781  0.019886325          147 
 1429000   0.68578058   -7.0322134    347.78292  0.020281252  0.019872331          104 
 1430000     0.675262   -7.0595154    347.90313  0.020274075  0.019858336          190 
 1431000   0.69766806   -7.0276592    347.97462  0.020264071  0.019844355          118 
 1432000   0.69346229   -7.0502305    348.03939  0.020253689  0.019830387          138 
 1433000   0.67261401   -7.0631822    347.96874  0.020235447  0.019816447           75 
 1434000   0.67974572   -7.0637823    348.23368  0.020236732  0.019802471           65 
 1435000   0.70172861   -7.0491136    347.60029  0.020185847  0.019788494           90 
 1436000    0.6713816   -7.0643873    348.41234  0.020218915   0.01977458           96 
 1437000    0.6794294   -7.0338671    347.93424  0.020177119   0.01976069           34 
 1438000   0.68432583    -7.041011    348.88997  0.020218473  0.019746799           50 
 1439000   0.68623913   -7.0612454    348.59461  0.020187318  0.019732905           95 
 1440000   0.68925571   -7.0467436    348.89389  0.020190619  0.019718996          139 
 1441000   0.68153574   -7.0682275    348.07714  0.020129374  0.019705091           77 
 1442000     0.684605   -7.0625685    347.91526   0.02010606  0.019691209           75 
 1443000   0.68212957   -7.0731969    348.59184  0.020131199  0.019677367           35 
 1444000   0.68356258   -7.0742741    348.40486  0.020106467  0.019663489           37 
 1445000   0.67124115   -7.0703129    348.74898  0.020112398  0.019649569           33 
 1446000   0.66209431   -7.0594068    348.20829  0.020067329  0.019635697           39 
 1447000   0.68824968   -7.0648358    348.53778  0.020072436  0.019621844           61 
 1448000   0.68878183   -7.0548591    348.68086  0.020066808  0.019608054           22 
 1449000   0.66848563   -7.0731351    349.03876  0.020073542  0.019594298           40 
 1450000   0.68235368   -7.0789367    348.44678  0.020025677  0.019580534           26 
 1451000   0.67054695   -7.0690986    348.81381  0.020032955   0.01956682           39 
 1452000   0.66904065    -7.062742    349.40697  0.020053201  0.019553145           50 
 1453000   0.66561551   -7.0481117    349.18518  0.020026679  0.019539454          107 
 1454000   0.66547768   -7.0845244    349.21338  0.020014522   0.01952576           32 
 1455000   0.65949584    -7.102899    349.18017  0.019998864  0.019512044           54 
 1456000   0.67623714   -7.0587286    349.84706  0.020023298  0.019498339           52 
 1457000   0.68039892   -7.0729083    348.22301  0.019916667  0.019484608           73 
 1458000   0.68056137   -7.0754626    349.55905   0.01997937  0.019470886           44 
 1459000    0.6691312   -7.1049229    348.91628  0.019928963  0.019457148           54 
 1460000   0.67106075   -7.0883227    348.44369  0.019888339  0.019443386           86 
 1461000   0.66400814   -7.0905116    348.51517  0.019878803  0.019429583           93 
 1462000   0.67316916   -7.0833649    348.50244   0.01986448  0.019415803           86 
 1463000   0.65857089   -7.0785174    348.79921  0.019867806  0.019402003           95 
 1464000   0.67953897   -7.0787797    348.97327  0.019864143  0.019388204           50 
 1465000   0.67271016   -7.0720186    348.98846  0.019851449  0.019374462           53 
 1466000   0.66918906   -7.0813539    348.67312  0.019819982  0.019360654           90 
 1467000   0.66690761   -7.0999622    348.68012  0.019806869  0.019346852           94 
 1468000   0.65732433   -7.0769006    348.38866  0.019776831  0.019333039           70 
 1469000   0.66455763   -7.0828145    348.17164  0.019751057  0.019319218           71 
 1470000   0.65389489   -7.0843506    348.40534   0.01975087  0.019305418           55 
 1471000   0.67443795   -7.0873778    348.08673  0.019719393  0.019291586           52 
 1472000   0.68404943   -7.1055427    348.47902  0.019728206  0.019277774           58 
 1473000   0.65674886   -7.1139603    348.02134  0.019688919   0.01926392           84 
 1474000   0.66259907   -7.1167548    347.83383  0.019664961  0.019250056           78 
 1475000   0.65049385   -7.0951503    348.17423  0.019670861  0.019236193           83 
 1476000   0.64960421   -7.0937271    349.12334  0.019711119  0.019222342           79 
 1477000   0.64523397    -7.104554    348.87178   0.01968358   0.01920852           47 
 1478000   0.67032642    -7.081258     348.5915   0.01965446  0.019194705           50 
 1479000   0.65559678   -7.0848407    348.95442  0.019661619   0.01918095           53 
 1480000   0.66223201   -7.1153295    348.48202  0.019621736  0.019167154           85 
 1481000   0.66062272   -7.0953038    347.85227  0.019573051  0.019153351           55 
 1482000   0.65247387   -7.0969399    347.99454  0.019567844  0.019139552           85 
 1483000   0.66816144   -7.1100391    347.83043  0.019545428  0.019125731           99 
 1484000   0.67027246   -7.1147292    348.98406  0.019597038  0.019111926           69 
 1485000   0.66240508   -7.0870264    349.23892  0.019598143  0.019098097          203 
 1486000   0.67525029   -7.1250121    348.21396  0.019527476  0.019084304          166 
 1487000    0.6650201   -7.1099352    347.79496  0.019490863  0.019070534          303 
 1488000   0.65438309   -7.0940768    349.38632  0.019566886  0.019056785          133 
 1489000   0.65827937   -7.0863578    348.64393  0.019512196  0.019043036           51 
 1490000   0.66544782   -7.0824169    348.29744  0.019479723  0.019029288          123 
 1491000   0.66577768   -7.1496508    348.53605  0.019479994  0.019015496          202 
 1492000   0.66946222     -7.10415    348.49546   0.01946467  0.019001693           97 
 1493000    0.6575512   -7.1078685    347.86936  0.019416687  0.018987895          185 
 1494000   0.66326312   -7.1320381     348.1202  0.019417682  0.018974153          183 
 1495000   0.64377045   -7.1102755     348.0336  0.019399866   0.01896039          254 
 1496000   0.64957837   -7.1061363    348.63731  0.019420528  0.018946698          201 
 1497000   0.66786915   -7.1330342    348.76046   0.01941441  0.018933041          162 
 1498000   0.65533559    -7.098635    348.51995   0.01938807  0.018919376          163 
 1499000   0.65606331   -7.0658579    348.64142  0.019381889  0.018905688           55 
 1500000   0.64866864   -7.1055081    348.23828  0.019346571  0.018892013          155 
 1501000   0.64688607   -7.1091631    348.43789  0.019344764  0.018878354          110 
 1502000   0.64511006    -7.110365    348.63566  0.019342857  0.018864707          182 
 1503000    0.6643922   -7.1310067    348.35787  0.019314586   0.01885101          124 
 1504000   0.64944772    -7.112199    348.34397  0.019300974  0.018837336          254 
 1505000   0.65598619   -7.1287436     348.7377   0.01930995  0.018823661          180 
 1506000   0.64927595   -7.1636304    349.05375  0.019314617  0.018809979          200 
 1507000   0.66846542   -7.1604544    348.90303  0.019293465  0.018796294          266 
 1508000   0.67070192   -7.1103383    349.33557  0.019304574  0.018782671          196 
 1509000     0.648686   -7.1279744    348.64038   0.01925339  0.018769084           83 
 1510000   0.65894196   -7.1197099     348.8337  0.019251308  0.018755467          183 
 1511000    0.6548949   -7.1280558     349.0212  0.019248908  0.018741817          273 
 1512000   0.65746359   -7.1295162    349.02893  0.019236603   0.01872819          138 
 1513000   0.65009218   -7.1480924    348.91594  0.019217666  0.018714618          148 
 1514000   0.64434815   -7.1349961    348.28185  0.019170071  0.018701072          127 
 1515000   0.64624796   -7.1368996    348.64467  0.019177374    0.0186875          208 
 1516000    0.6465811   -7.1283668     348.7523  0.019170641  0.018673917          248 
 1517000   0.65576596   -7.1325548    348.72465  0.019156485  0.018660341          239 
 1518000   0.63046808   -7.1396995    348.42092  0.019127191  0.018646762          430 
 1519000    0.6409492   -7.1348309    349.17542  0.019155992  0.018633206          301 
 1520000   0.64418617   -7.1152785    349.20265  0.019144882  0.018619643          366 
 1521000   0.65490412   -7.1318479    348.66806  0.019103006   0.01860607          291 
 1522000   0.65802362   -7.1523471    348.73095  0.019093898  0.018592549          327 
 1523000   0.64221777   -7.1336504    349.40035  0.019117988  0.018579014          332 
 1524000   0.65091134   -7.1389557    349.47119  0.019109317  0.018565484          307 
 1525000   0.63899854   -7.1404925    349.05275  0.019073921  0.018551985          387 
 1526000   0.66391994   -7.1487622    348.90316  0.019053252  0.018538464          432 
 1527000   0.64081866   -7.1506591    349.10665   0.01905188  0.018524978          458 
 1528000   0.62653138   -7.1204075     349.4945  0.019060564  0.018511523          388 
 1529000    0.6434788   -7.1709718    348.32793  0.018984517  0.018498021          449 
 1530000   0.62576406   -7.1492015    349.35404  0.019027998  0.018484492          471 
 1531000   0.65429734   -7.1494227    349.11203  0.019002397  0.018470979          451 
 1532000   0.64394315   -7.1523573    349.28702  0.018999512  0.018457476          503 
 1533000   0.65112205   -7.1608599     349.2452  0.018984845  0.018444018          475 
 1534000   0.64280711    -7.159645    348.69814   0.01894275  0.018430596          557 
 1535000   0.62932196   -7.1583423    348.80588  0.018936258   0.01841719          494 
 1536000   0.62300181   -7.1618284    349.12193  0.018941077  0.018403721          542 
 1537000   0.64162717   -7.1608718      349.088  0.018926914  0.018390256          530 
 1538000   0.63207215   -7.1687728    349.32915  0.018927674  0.018376809          608 
 1539000    0.6332529   -7.1817964    348.11216  0.018849478  0.018363361          620 
 1540000   0.64337082   -7.1495086    348.72285  0.018870284  0.018349904          516 
 1541000   0.64100296   -7.1721133    348.69055  0.018856292  0.018336441          641 
 1542000   0.63778373   -7.1543958    348.87853  0.018854222  0.018322962          626 
 1543000   0.63852267   -7.1623629    349.09076  0.018853465  0.018309524          624 
 1544000   0.64251827   -7.1779824    349.07338  0.018840316  0.018296092          647 
 1545000   0.63348374   -7.1934513    349.13287  0.018831331   0.01828268          822 
 1546000   0.62599856    -7.184853    349.61632  0.018845209  0.018269285          758 
 1547000   0.63743404   -7.1706815    349.17519  0.018809264  0.018255939          814 
 1548000   0.63170438   -7.1700203    349.39631  0.018809018  0.018242591          777 
 1549000   0.62814084   -7.1643492    349.79958   0.01881857  0.018229228         1000 
 1550000   0.64139655   -7.1832618    349.13183  0.018770529  0.018215877          962 
 1551000   0.63091333   -7.1848258    349.47578  0.018776906  0.018202557          951 
 1552000   0.63908043   -7.1951213     349.5191  0.018767134  0.018189236          987 
 1553000   0.64309472   -7.2105282     349.6957  0.018764525  0.018175921         1103 
 1554000   0.62975144   -7.1864398    349.25388  0.018728758    0.0181626         1123 
 1555000    0.6226388   -7.1806023    349.84493  0.018748389   0.01814927         1067 
 1556000   0.63556898   -7.2126379    348.73735  0.018677022   0.01813594         1139 
 1557000    0.6273487   -7.2169475    348.64311  0.018659982  0.018122563         1153 
 1558000   0.64006547   -7.2108753    348.60692   0.01864607  0.018109202         1106 
 1559000   0.64682165   -7.2015261    348.75942  0.018642261   0.01809585         1172 
 1560000   0.63313764   -7.2312941    348.31437  0.018606537  0.018082483         1254 
 1561000   0.63284453   -7.2087955    349.01338  0.018631934  0.018069137         1238 
 1562000   0.62930755   -7.2073904    349.01294  0.018619982  0.018055786         1206 
 1563000   0.63631434   -7.2195804     348.7284  0.018592898  0.018042422         1195 
 1564000   0.63530204   -7.2204866    348.46885  0.018567181  0.018029065         1233 
 1565000   0.63369194   -7.1829779    348.26394  0.018544406  0.018015706         1294 
 1566000   0.61907953   -7.2020284    348.32458  0.018535791   0.01800235         1329 
 1567000   0.63598961   -7.2229123    348.62916   0.01854016  0.017988999         1347 
 1568000   0.61992173   -7.2058575    347.93299  0.018491336  0.017975638         1382 
 1569000   0.63180858   -7.2241733    348.53314  0.018511427  0.017962284         1308 
 1570000   0.62749126   -7.2246372     347.3935  0.018439146  0.017948884         1337 
 1571000   0.62661486   -7.2295765    348.16284  0.018468218  0.017935468         1373 
 1572000   0.62718155   -7.2361916    348.03089  0.018449475  0.017922085         1348 
 1573000   0.62588878   -7.2093221    348.64059  0.018470046   0.01790871         1349 
 1574000    0.6343611   -7.2315832    348.61405  0.018456906  0.017895339         1466 
 1575000   0.60797097   -7.2108059    348.27131  0.018427053  0.017881952         1500 
 1576000   0.62396322    -7.233211    347.29912  0.018363955   0.01786858         1515 
 1577000   0.62923964   -7.2429101    348.96794  0.018440495  0.017855205         1462 
 1578000   0.63096612   -7.2266986    348.43331  0.018400576  0.017841823         1552 
 1579000   0.60891787   -7.2317555    348.88613  0.018412821   0.01782847         1488 
 1580000   0.62095743   -7.2243737    348.37614  0.018374269   0.01781516         1517 
 1581000   0.61663721   -7.2355566    348.44754   0.01836641  0.017801829         1475 
 1582000   0.62510088   -7.2524761    348.04931  0.018333824  0.017788507         1486 
 1583000   0.60897158    -7.247721    347.63503  0.018300433  0.017775168         1477 
 1584000   0.62531411   -7.2639013    348.26851  0.018322207  0.017761825         1530 
 1585000    0.6320872   -7.2373031     347.2313  0.018256115  0.017748498         1560 
 1586000   0.60863571     -7.23533    348.50193  0.018311367  0.017735156         1536 
 1587000   0.61133891   -7.2758468    348.38266  0.018293566  0.017721803         1588 
 1588000   0.62828766   -7.2728292    347.44634   0.01823291   0.01770845         1544 
 1589000   0.61808532    -7.270655    347.07735  0.018202085  0.017695094         1619 
 1590000   0.61296613   -7.2451307    347.90978  0.018234265  0.017681761         1623 
 1591000   0.62133234   -7.2776844    347.79392  0.018216736  0.017668441         1703 
 1592000   0.61930018   -7.2518749    347.56555  0.018193339  0.017655122         1684 
 1593000   0.60611874   -7.2650653    347.96242  0.018202679  0.017641772         1672 
 1594000   0.62659925   -7.2610231    347.18631  0.018150685  0.017628413         1663 
 1595000   0.62368447   -7.2648958    347.56118  0.018158891  0.017615077         1652 
 1596000   0.62379045   -7.2814968    347.27849  0.018132753  0.017601724         1691 
 1597000   0.61682555   -7.2710693     347.6028  0.018138322  0.017588379         1645 
 1598000   0.62157637   -7.2839866     347.7817  0.018136301  0.017575034         1662 
 1599000   0.61598931    -7.279557    347.78109  0.018124927  0.017561675         1747 
 1600000    0.6221859   -7.3037662    347.50141  0.018099032  0.017548321         1813 
 1601000   0.62460623   -7.2934787    347.33932   0.01807929  0.017534974         1794 
 1602000   0.62802154   -7.2959734     347.7307  0.018088363   0.01752165         1731 
 1603000   0.61076513   -7.3089356    347.58432   0.01806947  0.017508292         1787 
 1604000   0.59671584   -7.2919351    346.44962  0.017999253  0.017494933         1860 
 1605000   0.62435968   -7.2875712    347.50296  0.018042729  0.017481572         1789 
 1606000   0.61330197   -7.2748102    347.21079  0.018016334  0.017468236         1812 
 1607000   0.62004835   -7.2853245    347.81564  0.018036488  0.017454894         1790 
 1608000   0.59694755   -7.3105936     347.0576  0.017985987  0.017441549         1816 
 1609000   0.61332763   -7.2931697    347.72565  0.018009408  0.017428235         1816 
 1610000   0.61471318   -7.2853694    346.50216  0.017934895  0.017414917         1779 
 1611000    0.6230336   -7.3108039    347.43162   0.01797184  0.017401618         1953 
 1612000   0.61625163   -7.3078729    346.81766  0.017928952  0.017388282         1869 
 1613000   0.59945152    -7.309025    346.94769  0.017924555  0.017374962         1869 
 1614000   0.60450375   -7.3236672    346.54853   0.01789284  0.017361633         1979 
 1615000   0.60962038   -7.3373089    347.14735   0.01791266  0.017348304         1985 
 1616000   0.60725021   -7.3351215    346.83846  0.017885647  0.017334969         2060 
 1617000   0.62923725   -7.2937322     347.3889  0.017902953  0.017321637         2008 
 1618000   0.60612069   -7.3154972    346.94607  0.017869081  0.017308344         2051 
 1619000    0.6073744   -7.3189598    346.91608    0.0178565  0.017295042         2014 
 1620000   0.60114607   -7.3290501    347.10124  0.017855002  0.017281753         2019 
 1621000    0.6187702   -7.3168316    346.49165  0.017812649  0.017268447         2031 
 1622000   0.60992329   -7.3060446    346.28824  0.017791217  0.017255176         2012 
 1623000   0.60512767   -7.3131793    346.84282   0.01780873    0.0172419         2064 
 1624000   0.60328848   -7.3348457     346.9232  0.017801888  0.017228627         2104 
 1625000   0.60714429   -7.3121732     346.5721  0.017772928   0.01721538         2074 
 1626000   0.60292325   -7.3511351    346.96229  0.017781995  0.017202128         2102 
 1627000   0.61231313   -7.3460122    346.44972  0.017744813  0.017188876         2121 
 1628000   0.61976136   -7.3260558    346.76583  0.017750094  0.017175611         2020 
 1629000   0.59357746   -7.3388376    346.30125  0.017715431  0.017162375         2050 
 1630000   0.59576243   -7.3444265    346.36029  0.017707581  0.017149148         2041 
 1631000   0.61134176   -7.3342153    346.49451  0.017703582  0.017135907         2084 
 1632000   0.59846694   -7.3438433     346.7493  0.017705744  0.017122648         2061 
 1633000   0.59214993   -7.3293114    346.25471  0.017669663  0.017109405         2074 
 1634000   0.60393463    -7.337558     346.7453  0.017683869  0.017096179         2106 
 1635000   0.61120217    -7.345838    345.93361  0.017631682  0.017082963         2116 
 1636000   0.60347114   -7.3407752    345.94717  0.017621596  0.017069739         2120 
 1637000   0.60242267   -7.3533484    346.10752  0.017618994  0.017056554         2110 
 1638000   0.59644422   -7.3342998    346.27983  0.017617004  0.017043347         2071 
 1639000   0.60788207     -7.35892    345.92026  0.017587974  0.017030152         2117 
 1640000   0.60760157   -7.3553393    345.88669  0.017575543  0.017016924         2163 
 1641000   0.59816518    -7.325343    345.84729  0.017562832  0.017003707         2167 
 1642000   0.61176953   -7.3638972    345.97905  0.017558823  0.016990477         2208 
 1643000   0.60481044   -7.3358005    345.40088  0.017518811  0.016977267         2222 
 1644000   0.59795148   -7.3481152    346.04365  0.017540736  0.016964066         2165 
 1645000   0.59647034   -7.3635962    345.91458  0.017523535  0.016950871         2220 
 1646000   0.59423326   -7.3740848    345.35357  0.017484486  0.016937687         2236 
 1647000   0.58897213   -7.3609919    346.09559  0.017511414  0.016924511         2243 
 1648000   0.60465951   -7.3703206    345.63547  0.017477522  0.016911348         2270 
 1649000   0.59949132   -7.3688511    345.36138  0.017453072  0.016898196         2269 
 1650000   0.60382406   -7.3546552    346.01176  0.017475342  0.016885071         2193 
 1651000   0.60135404   -7.3451117     346.5375  0.017491293  0.016871967         2204 
 1652000    0.6099066   -7.3586786    345.69323  0.017438117  0.016858863         2236 
 1653000    0.6118412   -7.3614983    346.05318  0.017445714  0.016845753         2233 
 1654000   0.59284861   -7.3600704    345.40744  0.017402632  0.016832624         2206 
 1655000   0.59320003   -7.3598216    345.66434  0.017405052  0.016819507         2207 
 1656000   0.59656726   -7.3588159    346.62057  0.017442662  0.016806399         2212 
 1657000   0.59169806   -7.3749616    345.57063  0.017379332  0.016793312         2310 
 1658000   0.59228404   -7.3645718     345.8584  0.017383313  0.016780223         2311 
 1659000   0.59939748   -7.3623698    345.97895  0.017378891  0.016767128         2206 
 1660000   0.58811845   -7.3579997    346.33179  0.017386134  0.016754046         2298 
 1661000   0.59375021   -7.3769042    345.71974   0.01734496  0.016740992         2225 
 1662000   0.59865721    -7.368017    345.28299  0.017312625  0.016727946         2324 
 1663000   0.59845676     -7.35537    345.31753  0.017303945  0.016714921         2263 
 1664000   0.60349942   -7.3794013    345.85953  0.017320689  0.016701881         2310 
 1665000   0.57255601   -7.3793719    346.15863  0.017325257  0.016688841         2353 
 1666000   0.58900016   -7.3702977    345.59825  0.017286827  0.016675826         2286 
 1667000   0.59063304   -7.3723445    345.93815  0.017293449  0.016662809         2237 
 1668000   0.58178812   -7.3808486    345.49397   0.01726089  0.016649792         2394 
 1669000   0.58202058   -7.3750491    345.31688  0.017241705  0.016636793         2355 
 1670000    0.5883269   -7.3925441    345.18822  0.017224961  0.016623806         2327 
 1671000   0.58983058     -7.36812    345.63125  0.017236747  0.016610812         2302 
 1672000   0.60107967   -7.3684285    344.90047  0.017190015  0.016597811         2281 
 1673000   0.58868088   -7.4018028    345.67546  0.017218343  0.016584843         2249 
 1674000   0.58515801   -7.3779058    345.41098  0.017194892  0.016571892         2330 
 1675000   0.57988288   -7.3950518    345.97891  0.017212881  0.016558948         2328 
 1676000   0.59251395   -7.3794812    344.88207  0.017148074  0.016546008         2321 
 1677000    0.5763199   -7.3958014    345.37119  0.017162154  0.016533074         2348 
 1678000   0.58183365   -7.3875513    345.36638  0.017151687  0.016520151         2377 
 1679000   0.57134128   -7.3956554    345.61268  0.017153696  0.016507225         2401 
 1680000   0.57978998   -7.3938696    345.40216  0.017133043  0.016494323         2376 
 1681000   0.58453934   -7.3886064    345.62711  0.017134003  0.016481425         2388 
 1682000   0.59138576   -7.3745013    344.85677   0.01708565  0.016468526         2426 
 1683000   0.59091087    -7.401931    345.64476  0.017114516  0.016455652         2428 
 1684000   0.56329116   -7.3980688    346.11578  0.017127661   0.01644277         2389 
 1685000   0.58272191   -7.3841793    345.92089  0.017107858  0.016429908         2501 
 1686000   0.58758165   -7.3935566    345.25097  0.017064599  0.016417062         2473 
 1687000   0.59786575   -7.3992152    345.99381  0.017091178  0.016404206         2481 
 1688000   0.57914053   -7.3961331     344.9574  0.017029888  0.016391363         2517 
 1689000   0.58763248   -7.4181949    344.92558  0.017018235  0.016378524         2457 
 1690000   0.57947279   -7.4167162    345.27653   0.01702547  0.016365696         2513 
 1691000   0.57388955   -7.4079645    345.24326  0.017013762  0.016352879         2482 
 1692000   0.58023377   -7.3904866    344.95846   0.01698968  0.016340075         2533 
 1693000   0.58996491   -7.4036803    344.81847  0.016972754  0.016327276         2532 
 1694000   0.56455109   -7.4082046    344.81385  0.016962507  0.016314453         2544 
 1695000   0.59756826   -7.3973339     345.5346  0.016987935  0.016301632         2501 
 1696000    0.5704023    -7.426584    345.21265  0.016962099  0.016288847         2607 
 1697000   0.56666824   -7.3918373    344.94354  0.016938889  0.016276056         2559 
 1698000   0.57043714   -7.3976406     345.5255  0.016957475  0.016263273         2595 
 1699000   0.57962623   -7.4154255     345.2173  0.016932377  0.016250514         2567 
 1700000   0.57591239   -7.4264686    345.09726  0.016916533  0.016237755         2600 
 1701000   0.57369144   -7.3981147    344.72643   0.01688842  0.016225002         2622 
 1702000   0.55885108   -7.4087635    344.83225  0.016883678  0.016212245         2526 
 1703000   0.57348734   -7.3945296    345.32791  0.016898019  0.016199508         2553 
 1704000   0.57461959   -7.4081867    345.40196  0.016891723  0.016186786         2580 
 1705000   0.56723836   -7.4034102    345.22924  0.016873374  0.016174059         2595 
 1706000   0.57114145    -7.430129    344.73489  0.016839336  0.016161339         2655 
 1707000   0.56798078    -7.404675    344.58694  0.016822249   0.01614863         2690 
 1708000   0.57925943   -7.3881176    345.00606  0.016832848  0.016135937         2590 
 1709000    0.5714061   -7.4123259     344.9659  0.016821041  0.016123252         2582 
 1710000   0.56156425   -7.4136263    344.41736  0.016784472  0.016110582         2552 
 1711000   0.57209517   -7.4281369    345.67067  0.016835704  0.016097912         2602 
 1712000   0.57265712   -7.4274916    344.83298  0.016785094  0.016085271         2566 
 1713000    0.5653697   -7.4323956    344.88363   0.01677776  0.016072634         2522 
 1714000   0.56588223   -7.4150764    344.82814  0.016765273      0.01606         2570 
 1715000   0.56674346   -7.4208363    345.22256  0.016774663  0.016047397         2569 
 1716000    0.5626427   -7.4126277     344.9193   0.01675016  0.016034792         2563 
 1717000   0.56059966   -7.4075819    344.28389  0.016709566  0.016022189         2559 
 1718000    0.5759444   -7.4247521     344.4555  0.016708164  0.016009596         2565 
 1719000   0.56784608    -7.425014    344.80357  0.016715317  0.015997033         2618 
 1720000   0.56743247   -7.4184019    344.94838  0.016712615  0.015984451         2587 
 1721000   0.56437683   -7.4165979    344.31887  0.016672423  0.015971888         2571 
 1722000    0.5728139   -7.4362203    344.53312  0.016673109  0.015959345         2599 
 1723000   0.56414223   -7.4391206    345.07354   0.01668957  0.015946798         2610 
 1724000    0.5551163   -7.4251266    344.66141  0.016659968  0.015934247         2605 
 1725000   0.55749599   -7.4331982    344.87193   0.01666048  0.015921712         2611 
 1726000   0.56025091   -7.4394772      344.528  0.016634222  0.015909177         2582 
 1727000   0.56758384    -7.422774    344.81162  0.016638276  0.015896664         2590 
 1728000   0.56126639   -7.4453299    344.73598  0.016624999  0.015884162         2608 
 1729000   0.56294946   -7.4218991     344.6242  0.016609996  0.015871679         2598 
 1730000   0.56712094   -7.4581663    344.12607    0.0165764  0.015859204         2611 
 1731000   0.56480549    -7.438284    344.99172  0.016608498  0.015846735         2695 
 1732000   0.55664284    -7.435811    344.17307   0.01655952  0.015834264         2705 
 1733000   0.55279949   -7.4349725    344.29423  0.016555791  0.015821805         2713 
 1734000   0.57451838   -7.4198433    344.14849  0.016539239  0.015809351         2630 
 1735000   0.56016813   -7.4401349    344.80217  0.016561103  0.015796902         2635 
 1736000   0.57818112   -7.4367795    344.48879   0.01653652  0.015784454         2735 
 1737000     0.568649   -7.4478934    345.02612  0.016552779  0.015772008         2624 
 1738000   0.57041306   -7.4339505    344.24904  0.016505996  0.015759577         2675 
 1739000   0.56380022   -7.4447542    344.15302  0.016491902   0.01574713         2668 
 1740000   0.55071981   -7.4395546    344.35505    0.0164921  0.015734705         2664 
 1741000   0.56349465   -7.4430039    344.63375  0.016495967  0.015722278         2721 
 1742000   0.55534228   -7.4492695    344.58649  0.016484237  0.015709882         2643 
 1743000   0.57153075   -7.4395095    343.74199  0.016434404  0.015697485         2641 
 1744000   0.55378433   -7.4329375    344.05476  0.016439925  0.015685108         2690 
 1745000   0.57019179   -7.4343317    344.29039  0.016441757   0.01567275         2602 
 1746000   0.55450897   -7.4477677    344.27939  0.016431815  0.015660392         2670 
 1747000   0.56081109   -7.4552478    344.11289  0.016414467   0.01564805         2660 
 1748000   0.56049197   -7.4421662    344.53401  0.016425153  0.015635701         2687 
 1749000   0.54817598   -7.4422997    344.37647  0.016408256  0.015623367         2605 
 1750000   0.55803714   -7.4460751    344.15363  0.016388268  0.015611031         2698 
 1751000    0.5530568   -7.4509639    344.45735  0.016393363  0.015598706         2699 
 1752000   0.54786837   -7.4497966    343.51683  0.016339271  0.015586394         2721 
 1753000   0.56126788   -7.4335435    344.49275  0.016376343   0.01557409         2729 
 1754000   0.55254421   -7.4542248    344.54634  0.016369552  0.015561793         2659 
 1755000   0.55643565   -7.4377372    344.36506  0.016351617    0.0155495         2678 
 1756000   0.55140339   -7.4602354    343.83533  0.016317166  0.015537231         2746 
 1757000   0.54190663   -7.4640906    344.26021  0.016328031  0.015524957         2759 
 1758000    0.5443656   -7.4532851    343.80466  0.016297149  0.015512702         2742 
 1759000   0.54352424   -7.4469963    343.91825  0.016293265  0.015500457         2730 
 1760000   0.56137964   -7.4570006     344.0198  0.016288816  0.015488214         2742 
 1761000   0.55565367   -7.4678793    343.99076  0.016278192  0.015475977         2763 
 1762000   0.55006138    -7.462638    343.74162  0.016257171  0.015463749         2687 
 1763000   0.54931423   -7.4442521    344.14169   0.01626686  0.015451541         2717 
 1764000   0.55429873   -7.4491235    343.28938  0.016217374  0.015439337         2741 
 1765000    0.5411975   -7.4553379    343.64873  0.016225152  0.015427133         2754 
 1766000   0.54581502   -7.4689421     343.7992  0.016223065  0.015414962         2724 
 1767000   0.53286536   -7.4664527    344.00815  0.016223738  0.015402789         2796 
 1768000   0.55170095   -7.4603649    344.16553   0.01622198  0.015390632         2757 
 1769000   0.54606474   -7.4728929     343.8393  0.016197442  0.015378471         2776 
 1770000   0.54179676   -7.4656978    343.30165  0.016162978  0.015366317         2725 
 1771000   0.54797704   -7.4874665    343.66745  0.016171064  0.015354166         2745 
 1772000    0.5351766   -7.4842432    344.25452  0.016189547  0.015342036         2737 
 1773000   0.54575594    -7.477033    344.31219  0.016183126  0.015329917         2780 
 1774000    0.5571944   -7.5003123    343.74183  0.016147211  0.015317818         2767 
 1775000   0.54195378   -7.4860729     343.6572  0.016134141  0.015305719         2715 
 1776000   0.54998315   -7.4506498    343.24355  0.016105647  0.015293639         2709 
 1777000     0.536053   -7.4822845    343.46191  0.016106824  0.015281565         2748 
 1778000   0.52761853    -7.463665    343.38505  0.016094162  0.015269492         2762 
 1779000    0.5381382   -7.4434855    343.49014  0.016090038  0.015257439         2740 
 1780000   0.54708738   -7.4823895    343.83151  0.016096981  0.015245407         2771 
 1781000   0.55224755   -7.4721327    343.66394  0.016080102  0.015233378         2776 
 1782000   0.55034451   -7.4784629     343.8058  0.016077712  0.015221338         2763 
 1783000   0.53495358   -7.4747084      343.617  0.016059871  0.015209311         2752 
 1784000   0.54384347   -7.4876476    343.96093  0.016066934  0.015197304         2783 
 1785000   0.53777846   -7.4879345    343.70334  0.016045908  0.015185304         2806 
 1786000   0.53418641   -7.4659422    343.88565   0.01604543  0.015173327         2769 
 1787000   0.52687817   -7.4761081    343.52381  0.016019577  0.015161342         2792 
 1788000   0.54566166   -7.4821144    343.12456  0.015992009  0.015149368         2759 
 1789000   0.54551983   -7.4767872    344.13763  0.016030261  0.015137407         2746 
 1790000   0.53968907   -7.4858104    343.41968  0.015987881  0.015125464         2780 
 1791000   0.52948665    -7.460826    343.40437  0.015978242  0.015113521         2768 
 1792000    0.5478354    -7.455138    343.85795  0.015990418  0.015101586         2784 
 1793000   0.53393879   -7.4834265    343.74428  0.015976217  0.015089649         2792 
 1794000   0.54633354   -7.4656989    343.01746   0.01593355   0.01507772         2779 
 1795000   0.53955199   -7.4550767     343.8926  0.015965302  0.015065813         2775 
 1796000    0.5416914   -7.4770122    343.35434  0.015931437  0.015053909         2766 
 1797000   0.52609392   -7.4774021    343.14445  0.015912839  0.015042002         2748 
 1798000     0.546755   -7.4729686    343.76193  0.015932607  0.015030103         2766 
 1799000   0.54427288   -7.4966669    343.98951  0.015934293  0.015018223         2801 
 1800000   0.53071598   -7.4766975    343.45734  0.015900803  0.015006354         2772 
 1801000   0.53498984   -7.4938121    343.18752  0.015879489  0.014994485         2746 
 1802000   0.53591598   -7.4880963    343.21557  0.015871974  0.014982632         2827 
 1803000   0.53897235   -7.4839848    343.42228  0.015872725   0.01497078         2814 
 1804000   0.53664407   -7.4939324    343.10133  0.015849101  0.014958952         2766 
 1805000   0.51381446    -7.500606    343.56063  0.015861525  0.014947129         2778 
 1806000    0.5279852   -7.5027003    343.38131  0.015844468  0.014935294         2844 
 1807000   0.54243647   -7.4889832    343.72828  0.015851701  0.014923498         2850 
 1808000   0.53957986    -7.483042     343.1159  0.015814708  0.014911702         2788 
 1809000   0.53323617   -7.4936727    343.37957  0.015818112  0.014899912         2808 
 1810000   0.53354834   -7.4885831    343.34353  0.015807713   0.01488812         2857 
 1811000   0.52110761   -7.4894033    343.27252  0.015795717  0.014876354         2792 
 1812000   0.52506482   -7.4877504    343.57073  0.015800714  0.014864608         2853 
 1813000   0.52569938   -7.4790772     343.5823  0.015792531  0.014852868         2802 
 1814000   0.52932213   -7.4769709    343.07829  0.015760671  0.014841131         2830 
 1815000   0.52945128   -7.5009862    343.48076  0.015770467  0.014829415         2768 
 1816000    0.5260071   -7.4813746    342.70638  0.015726247  0.014817699         2811 
 1817000    0.5214317   -7.4866407    342.80683  0.015722199  0.014805996         2878 
 1818000   0.53015045   -7.4780139    342.76025  0.015711416  0.014794299         2827 
 1819000    0.5362293   -7.5067502    343.34431  0.015729536  0.014782621         2894 
 1820000   0.52886027   -7.5029655    343.31644  0.015719617  0.014770945         2803 
 1821000   0.53047443   -7.5086148    343.73321  0.015730057  0.014759285         2760 
 1822000   0.52451424   -7.4848378    343.07453  0.015691298  0.014747639         2827 
 1823000   0.53876801   -7.5135393     343.1398  0.015685674  0.014735997         2869 
 1824000   0.51885378   -7.4861611    342.84783  0.015663735  0.014724371         2826 
 1825000   0.52279015   -7.4847644    342.98289  0.015661319  0.014712754         2825 
 1826000   0.52518922   -7.4807363    343.58124  0.015680049  0.014701132         2822 
 1827000   0.51632075   -7.4993276    343.29191   0.01565827  0.014689524         2818 
 1828000   0.51068336   -7.5097627    343.44167  0.015656531   0.01467794         2879 
 1829000    0.5182328   -7.4923974    342.97848  0.015626867  0.014666367         2865 
 1830000   0.52920128   -7.4841541    342.96304  0.015617625  0.014654807         2908 
 1831000   0.53999025   -7.4949641    343.06229  0.015613612  0.014643258         2828 
 1832000   0.51269404   -7.5101861    342.96191  0.015600523  0.014631696         2786 
 1833000   0.51665448   -7.5038453    343.14853  0.015600497  0.014620153         2885 
 1834000   0.51005171   -7.4983668    342.65555   0.01556959  0.014608603         2858 
 1835000   0.51007947   -7.5032213    343.09071  0.015580868   0.01459707         2799 
 1836000   0.51517284    -7.524057    343.28163  0.015581047  0.014585534         2909 
 1837000   0.53021967   -7.4949921    342.36837  0.015531136  0.014574017         2855 
 1838000   0.52092959   -7.4896981     343.1117  0.015556388  0.014562507         2882 
 1839000   0.52214475   -7.5124471    343.45715  0.015563583  0.014551023         2807 
 1840000   0.51988652   -7.5172574    342.86704  0.015528399  0.014539542         2849 
 1841000   0.51827026   -7.4955731    343.07073  0.015529184  0.014528063         2816 
 1842000   0.52910355   -7.5019567    343.16455  0.015524998  0.014516602         2848 
 1843000   0.53379856   -7.5216589    342.83103  0.015501493  0.014505161         2786 
 1844000    0.5155369   -7.5149297    343.08541  0.015504583  0.014493735         2814 
 1845000   0.52241227    -7.522839    342.80155  0.015483358   0.01448232         2834 
 1846000   0.51643556   -7.5163089    342.73622  0.015472022  0.014470914         2853 
 1847000    0.5112085   -7.5135079    342.82076  0.015467459  0.014459526         2907 
 1848000   0.51456286    -7.504156    343.25553  0.015478695  0.014448136         2827 
 1849000   0.51986478   -7.4939818    342.67087  0.015443973   0.01443676         2843 
 1850000   0.50296469   -7.5203579    342.70426  0.015437129  0.014425386         2821 
 1851000   0.50066046   -7.5287587    343.22545  0.015452253  0.014414014         2883 
 1852000    0.5085645    -7.534968    343.28631  0.015446648  0.014402668         2834 
 1853000   0.51941399   -7.5099812     343.0802  0.015429043  0.014391328         2887 
 1854000   0.51580407   -7.5246017    343.34625  0.015432679  0.014379999         2852 
 1855000   0.50117774   -7.5073821    342.40717  0.015382173  0.014368667         2819 
 1856000   0.51672607   -7.5174171    342.51404  0.015378684  0.014357342         2779 
 1857000   0.52284151   -7.5341546    343.28461  0.015404982  0.014346029         2844 
 1858000   0.51378104    -7.514834    342.76547  0.015373407  0.014334729         2814 
 1859000   0.51468303   -7.5067913    342.71825   0.01536302   0.01432344         2938 
 1860000   0.51017961   -7.5060911    342.59015  0.015349021  0.014312164         2847 
 1861000   0.50138584   -7.5034378    342.16088  0.015321551  0.014300887         2906 
 1862000   0.50497701   -7.5286543    342.85736  0.015344494  0.014289631         2817 
 1863000   0.50444694   -7.5179037    342.04222  0.015299795  0.014278377         2845 
 1864000   0.50362274   -7.5217704    342.63552  0.015318112  0.014267127         2828 
 1865000   0.51219136   -7.5102412    343.18736  0.015334556  0.014255886         2823 
 1866000   0.50779692   -7.4952655    342.01703  0.015274072  0.014244664         2837 
 1867000   0.51211512   -7.5171371    342.62667  0.015293103  0.014233453         2870 
 1868000   0.50097543   -7.5034668    342.59818  0.015283645  0.014222257         2893 
 1869000   0.51162805   -7.5120416    342.32328   0.01526321  0.014211064         2863 
 1870000   0.50264744   -7.5324732     342.7018  0.015271916  0.014199881         2861 
 1871000   0.51235894   -7.5289865    342.41794  0.015251111  0.014188709         2848 
 1872000   0.49863497   -7.5278346    342.71807  0.015256324  0.014177551         2847 
 1873000   0.50656124    -7.538746    342.93249  0.015257719  0.014166408         2840 
 1874000   0.51306148   -7.5282322     342.5796  0.015233885  0.014155267         2808 
 1875000   0.49506607   -7.5220732    342.27829  0.015212368  0.014144136         2843 
 1876000   0.51477711   -7.5336309    342.56081  0.015216809  0.014133012         2811 
 1877000   0.50627153   -7.5203274    342.17976  0.015191785  0.014121899         2860 
 1878000   0.51445631   -7.5273445    342.68447  0.015206091  0.014110793         2850 
 1879000   0.50770165   -7.5114235    342.30505  0.015181171  0.014099702         2854 
 1880000   0.50712497   -7.5289717    342.91235  0.015200016  0.014088626         2902 
 1881000   0.50498352   -7.5219701     342.7196  0.015183396  0.014077551         2837 
 1882000   0.50207376   -7.5259504    342.32032  0.015157648  0.014066488         2807 
 1883000   0.49970875   -7.5329247    342.51342  0.015158144  0.014055432         2825 
 1884000   0.49358399   -7.5438532    342.37798  0.015144108  0.014044389         2833 
 1885000   0.50823199   -7.5377166    342.42804  0.015138286  0.014033363         2850 
 1886000   0.49834169   -7.5150799    343.00254  0.015155644  0.014022336         2823 
 1887000   0.50006699   -7.5307077    342.96094  0.015145775  0.014011321         2830 
 1888000   0.50539075   -7.5390106    342.62995  0.015123144  0.014000318         2825 
 1889000   0.49870598   -7.5378451    342.29748  0.015100471  0.013989325         2843 
 1890000   0.49984671    -7.525392    342.74724  0.015112312  0.013978336         2845 
 1891000   0.50876892   -7.5421982    342.39175  0.015088655  0.013967359         2929 
 1892000   0.48077051   -7.5254468    342.38317  0.015080302   0.01395641         2866 
 1893000   0.50340186   -7.5353025    342.53341  0.015078949  0.013945456         2880 
 1894000    0.5062447   -7.5403098    342.08081  0.015051074  0.013934513         2884 
 1895000   0.49933287   -7.5548222    342.67163  0.015069113  0.013923565         2789 
 1896000   0.50130619   -7.5154047    342.79709  0.015066679  0.013912643         2809 
 1897000   0.49830411   -7.5408958    342.23759  0.015034159  0.013901732         2910 
 1898000   0.49146459   -7.5542689      342.698  0.015046452  0.013890825         2830 
 1899000   0.50145705   -7.5650784    342.32239  0.015022046  0.013879924         2879 
 1900000   0.48782354     -7.53872    342.59008  0.015025881  0.013869042         2861 
 1901000   0.49963548   -7.5410457    342.27139  0.015004006  0.013858159         2864 
 1902000   0.48433859    -7.536266    342.42537  0.015002864  0.013847286         2854 
 1903000   0.49161387   -7.5429189    342.01255  0.014976903  0.013836431         2888 
 1904000   0.48841044   -7.5399592    342.49872  0.014990315  0.013825588         2868 
 1905000   0.48298745    -7.547045    342.58078  0.014986036  0.013814753         2862 
 1906000   0.49066262   -7.5481682    342.19581  0.014961342   0.01380393         2834 
 1907000   0.48889917   -7.5388298     342.9554   0.01498669  0.013793119         2844 
 1908000   0.49811978   -7.5296137      342.278  0.014949249  0.013782313         2839 
 1909000   0.49464897   -7.5529952    342.72685  0.014961012  0.013771525         2840 
 1910000   0.48854151   -7.5437518    342.32191  0.014935511  0.013760745         2846 
 1911000   0.49875119   -7.5320133    342.76234  0.014946901  0.013749987         2788 
 1912000   0.48895093   -7.5413834    341.87004  0.014900193  0.013739224         2792 
 1913000   0.49432442    -7.556635    342.19745  0.014906667  0.013728475         2825 
 1914000   0.49971446   -7.5474258    342.20326  0.014899132  0.013717735         2852 
 1915000   0.48629115   -7.5402941    341.50407  0.014860926  0.013706989         2847 
 1916000   0.49655553   -7.5366216    342.19245  0.014883109  0.013696265         2817 
 1917000   0.49576137    -7.526337    341.79162  0.014857921  0.013685543         2862 
 1918000   0.48932601   -7.5561358    342.47543  0.014879885  0.013674826         2877 
 1919000   0.47972561   -7.5402824    341.88639  0.014846552  0.013664129         2866 
 1920000   0.49502044   -7.5531905    341.98798  0.014843228   0.01365344         2862 
 1921000   0.49070175   -7.5642634    342.14685  0.014842393  0.013642751         2896 
 1922000   0.48748662   -7.5530953    342.08717  0.014832083  0.013632069         2875 
 1923000    0.4861022   -7.5507175    342.60779  0.014846932  0.013621404         2859 
 1924000   0.48633937   -7.5598348    342.21776  0.014822322   0.01361074         2869 
 1925000   0.47764456    -7.558429    342.30899  0.014818571  0.013600096         2881 
 1926000   0.47885359   -7.5590208    342.63414  0.014824946  0.013589448         2881 
 1927000   0.49030259   -7.5612934    342.47689  0.014810452  0.013578822         2787 
 1928000   0.48506397   -7.5474536    342.33599   0.01479668  0.013568207         2818 
 1929000    0.4870077   -7.5512783    341.99982  0.014774487  0.013557601         2878 
 1930000   0.49613416    -7.563791     342.1481  0.014773234  0.013547007         2876 
 1931000   0.48333951   -7.5556812    342.00475  0.014759397  0.013536413         2860 
 1932000   0.47556795   -7.5517252    342.68216  0.014780977  0.013525829         2895 
 1933000   0.48813321     -7.56628    341.91178  0.014740118  0.013515251         2852 
 1934000   0.47973216   -7.5625464    342.23151  0.014746273  0.013504682         2855 
 1935000   0.47639104   -7.5615883     342.0617  0.014731339  0.013494121         2896 
 1936000   0.48203763   -7.5504645    341.88754  0.014716233  0.013483579         2866 
 1937000   0.48730328   -7.5669803    342.25668  0.014724517  0.013473046         2889 
 1938000   0.49283525   -7.5788591    341.83409  0.014698748  0.013462528         2879 
 1939000   0.47748458   -7.5675408    342.59953  0.014724064  0.013452017         2868 
 1940000   0.47290918   -7.5745952    342.17776  0.014698357  0.013441511         2875 
 1941000   0.48365019    -7.569491    342.06539  0.014685961   0.01343102         2879 
 1942000   0.49041361   -7.5519287    342.07156  0.014678663  0.013420537         2835 
 1943000   0.48189853   -7.5636977    342.25735  0.014679077  0.013410061         2827 
 1944000   0.48092169   -7.5517778    341.66852  0.014646284  0.013399594         2855 
 1945000   0.48019604   -7.5811395    342.10341  0.014657387  0.013389144         2873 
 1946000   0.47549542   -7.5620514    341.94253  0.014642965  0.013378702         2881 
 1947000    0.4864169   -7.5596268    341.48913  0.014616039  0.013368267         2877 
 1948000   0.47301754   -7.5674073    341.78003   0.01462098  0.013357837         2871 
 1949000   0.46259158   -7.5600446    342.00224  0.014622979  0.013347419         2843 
 1950000   0.47080648   -7.5657396    341.35075  0.014587639     0.013337         2902 
 1951000    0.4910721   -7.5749494    342.32459  0.014621758  0.013326599         2803 
 1952000    0.4754848   -7.5763353    341.76794  0.014590503  0.013316207         2887 
 1953000   0.47580464   -7.5698894    341.34166  0.014564843   0.01330582         2887 
 1954000   0.48166199   -7.5641847    341.91548  0.014581861  0.013295444         2832 
 1955000   0.46449371    -7.592929    342.25603  0.014588919  0.013285078         2884 
 1956000   0.46742478   -7.5655869    341.30454  0.014540923  0.013274716         2910 
 1957000   0.46951666   -7.5631105    341.61415  0.014546676   0.01326437         2848 
 1958000   0.47029046   -7.5728704    341.70486  0.014543108  0.013254027         2876 
 1959000   0.47721387    -7.578678     342.0278  0.014549421    0.0132437         2873 
 1960000   0.46442171   -7.5885705    341.50187  0.014519638  0.013233371         2870 
 1961000   0.46806058   -7.5542872    341.59268  0.014516092  0.013223063         2859 
 1962000   0.47002371   -7.5752394    341.29494  0.014496048  0.013212757         2864 
 1963000   0.46240644   -7.5662001    341.88605  0.014513757  0.013202464         2859 
 1964000   0.48245911    -7.588438    341.75238  0.014500695  0.013192186         2869 
 1965000   0.46168121   -7.5604327    341.20376  0.014470049  0.013181922         2859 
 1966000    0.4627847   -7.5933021    342.43721  0.014514972  0.013171663         2901 
 1967000   0.45435056   -7.5775877    341.41325  0.014464211  0.013161415         2837 
 1968000   0.46075525   -7.5769949     341.3596   0.01445459  0.013151179         2884 
 1969000   0.47139407   -7.5840772    341.99688  0.014474221  0.013140953         2802 
 1970000   0.47200072   -7.5829988    341.66972  0.014453034  0.013130738         2868 
 1971000   0.48070821   -7.5746663    341.56432  0.014441245  0.013120531         2872 
 1972000   0.47158868    -7.577288    341.51488  0.014431832  0.013110327         2893 
 1973000   0.47568021   -7.5806619    341.56021  0.014426432   0.01310013         2828 
 1974000   0.45955273   -7.5886376    341.17873   0.01440302  0.013089942         2928 
 1975000   0.45953838   -7.5847102    341.39429  0.014404822  0.013079757         2857 
 1976000   0.46987841   -7.5697268    341.79135  0.014414277  0.013069594         2859 
 1977000   0.46340396   -7.5815312     341.5743  0.014397838  0.013059432         2904 
 1978000   0.44671775    -7.574182    341.40928  0.014383606  0.013049281         2920 
 1979000   0.46786301   -7.5816974    341.41093  0.014376408  0.013039137         2907 
 1980000   0.47796119   -7.5853676    341.18086  0.014359464  0.013029009         2845 
 1981000   0.45898712   -7.5988409    341.48117  0.014364848   0.01301888         2859 
 1982000   0.46461035   -7.5913644    342.07105  0.014382402  0.013008776         2862 
 1983000    0.4625179   -7.5809421    341.36524  0.014345488  0.012998676         2860 
 1984000   0.47113625   -7.5724738    341.29881  0.014335467  0.012988589         2815 
 1985000   0.45116539   -7.5809759    341.67184  0.014343906  0.012978504         2876 
 1986000   0.46225943   -7.5839274    341.26713  0.014319702  0.012968432         2937 
 1987000   0.45654334   -7.6017485    340.89996  0.014297096  0.012958357         2874 
 1988000   0.44911909   -7.5861707    341.41314  0.014311416  0.012948293         2828 
 1989000   0.45662968   -7.5778297    340.83937  0.014280182  0.012938245         2868 
 1990000   0.46224674   -7.5735738    341.57262  0.014303711  0.012928211         2831 
 1991000   0.45905452    -7.586628    341.25936  0.014283415  0.012918181         2905 
 1992000   0.45834208    -7.587717    341.10303  0.014269705  0.012908161         2856 
 1993000   0.45908688   -7.5800451    340.85214  0.014252055  0.012898154         2871 
 1994000    0.4629612   -7.5968749    342.00689  0.014293167  0.012888157         2962 
 1995000   0.45901531   -7.5907096    341.30925  0.014256861  0.012878165         2893 
 1996000   0.46184865   -7.5931628    340.93947   0.01423428  0.012868189         2893 
 1997000   0.45396767   -7.6118773    341.47483  0.014249492  0.012858213         2905 
 1998000   0.44344149   -7.6017499     341.1786  0.014230005  0.012848246         2901 
 1999000   0.44965988   -7.5843402    341.02878  0.014216641  0.012838297         2887 
 2000000   0.45254343   -7.6089461    340.79198  0.014199666  0.012828354         2876 
 2001000   0.44822365   -7.5921819    341.87242  0.014237566  0.012818416         2868 
 2002000   0.44896255   -7.5889401    341.03026  0.014195399  0.012808494         2899 
 2003000    0.4579396    -7.599175     341.7423  0.014217936   0.01279858         2930 
 2004000   0.45007119   -7.5923803    340.81695  0.014172361  0.012788675         2901 
 2005000   0.44540513    -7.613649    341.23417  0.014182634  0.012778779         2921 
 2006000   0.45141978   -7.6054569    341.29117  0.014177932  0.012768883         2900 
 2007000   0.46181038   -7.6039252    341.25931  0.014169544  0.012759001         2954 
 2008000   0.44340576   -7.6039964    341.31955  0.014164988  0.012749128         2894 
 2009000   0.46430006   -7.5887747    340.99638  0.014144532  0.012739268         2926 
 2010000   0.45830765   -7.5935405    340.73034  0.014126465  0.012729406         2913 
 2011000   0.45102294   -7.6168173    341.00433  0.014130794  0.012719558         2932 
 2012000   0.44585905   -7.6034357    341.40629   0.01414042  0.012709723         2902 
Loop time of 4292.26 on 48 procs for 2000000 steps with 4000 atoms

Performance: 80517.004 tau/day, 465.955 timesteps/s
99.4% CPU use with 48 MPI tasks x no OpenMP threads

MPI task timing breakdown:
Section |  min time  |  avg time  |  max time  |%varavg| %total
---------------------------------------------------------------
Pair    | 281.25     | 296.1      | 308.66     |  48.3 |  6.90
Neigh   | 26.762     | 27.189     | 27.607     |   3.7 |  0.63
Comm    | 238.37     | 251.27     | 264.06     |  42.8 |  5.85
Output  | 4.3065     | 4.3082     | 4.3445     |   0.3 |  0.10
Modify  | 3648.4     | 3664.8     | 3685.1     |  15.8 | 85.38
Other   |            | 48.56      |            |       |  1.13

Nlocal:        83.3333 ave          92 max          76 min
Histogram: 1 2 6 11 8 7 9 1 2 1
Nghost:        1752.29 ave        1764 max        1735 min
Histogram: 1 1 3 3 8 5 12 5 8 2
Neighs:        10606.0 ave       11823 max        9639 min
Histogram: 3 1 7 14 7 6 4 3 1 2
FullNghs:      21212.9 ave       23706 max       19187 min
Histogram: 1 3 6 12 10 5 7 2 1 1

Total # of neighbors = 1018220
Ave neighs/atom = 254.55500
Neighbor list builds = 107972
Dangerous builds = 2

#clear
#
#next RN
#
#jump SELF
Total wall time: 1:11:35
