
units lj                  # Use reduced LJ style units
atom_style atomic         # Uncharged point particles
atom_modify map hash      # Needed for indexing of clusters etc
                          # Used to be able to find where atoms are in relation to each other.

lattice fcc 1.0 spacing 1 1 1
Lattice spacing in x,y,z = 1.5874011 1.5874011 1.5874011
region box block 0 10 0 10 0 10 units lattice
create_box 2 box
Created orthogonal box = (0.0000000 0.0000000 0.0000000) to (15.874011 15.874011 15.874011)
  3 by 4 by 4 MPI processor grid
create_atoms 1 box
Created 4000 atoms
  using lattice units in orthogonal box = (0.0000000 0.0000000 0.0000000) to (15.874011 15.874011 15.874011)
  create_atoms CPU = 0.016 seconds
set type 1 type/fraction 2 0.63 78393
Setting atom values ...
  2531 settings made for type/fraction
mass 1 1.0
mass 2 1.0
pair_style lj/cut  3.5
pair_modify tail  yes
pair_coeff 1  1  1.0  1.0   # Intearaction between 1 and 1 set with epsilon = 1 and sigma = 1
pair_coeff 1  2  1.5  0.8
pair_coeff 2  2  0.5  0.88

write_data data.0
System init for write_data ...
Neighbor list info ...
  update every 1 steps, delay 10 steps, check yes
  max neighbors/atom: 2000, page size: 100000
  master list distance cutoff = 3.8
  ghost atom cutoff = 3.8
  binsize = 1.9, bins = 9 9 9
  1 neighbor lists, perpetual/occasional/extra = 1 0 0
  (1) pair lj/cut, perpetual
      attributes: half, newton on
      pair build: half/bin/atomonly/newton
      stencil: half/bin/3d
      bin: standard
WARNING: Not all mixed pair coeffs generated from mixing. Use write_data with 'pair ij' option to store all pair coeffs. (../write_data.cpp:312)


#############################
#   M E L T   S Y S T E M   #
#############################

velocity all create 2.4 5833274 mom yes dist gaussian # Assign velocities
                                                    # Temperature 2.4, random number seed, zero linear momentum
                                                                                # Gaussian distribution

timestep 0.002   # simulation timestep
thermo 1000       # output thermodynamic data every 1000 steps bf 100

# Define a fix  in this case with index 1 applied to all
# particles in the simulation. This fix is for simulations
# in the anisotropic NPT ensemble. Note that we use the MTK
# correction.
fix 1 all npt temp 2.4 2.4 0.1 iso 5.68 5.68 0.5 mtk yes tchain 5 pchain 5 # Use NPT ensemble
                                                                         # Set temperature and pressure and damping
                                                                         # Numbers of thermostats in chain and in barostat
run 10000          # run for 10000 steps
Per MPI rank memory allocation (min/avg/max) = 3.642 | 3.644 | 3.648 Mbytes
Step Temp E_pair E_mol TotEng Press Volume 
       0          2.4    -4.562992            0  -0.96389204   -3.9987934         4000 
    1000    2.3759864    -4.274149            0   -0.7110604    5.8290401    3609.0851 
    2000    2.4228562   -4.2937653            0  -0.66038956    5.7201045    3610.6044 
    3000    2.4054206   -4.2556886            0  -0.64845973    5.9756991    3606.0634 
    4000    2.3824579   -4.2667702            0  -0.69397675    5.9593941    3605.9942 
    5000    2.3689427   -4.3054996            0  -0.75297389    5.8498351    3594.9427 
    6000    2.4026626   -4.2851834            0  -0.68209051    5.6106163    3625.8924 
    7000    2.3782112   -4.3166957            0  -0.75027063    5.6056291    3609.2162 
    8000    2.3998504   -4.2636574            0  -0.66478177    5.5113528    3635.2445 
    9000    2.4653399   -4.3321184            0  -0.63503296    5.6606519    3599.7967 
   10000    2.3795241   -4.2811423            0  -0.71274847    5.4929169    3632.9884 
Loop time of 2.65963 on 48 procs for 10000 steps with 4000 atoms

Performance: 649713.805 tau/day, 3759.918 timesteps/s
99.7% CPU use with 48 MPI tasks x no OpenMP threads

MPI task timing breakdown:
Section |  min time  |  avg time  |  max time  |%varavg| %total
---------------------------------------------------------------
Pair    | 1.1909     | 1.2755     | 1.3973     |   3.4 | 47.96
Neigh   | 0.21734    | 0.22342    | 0.24857    |   1.0 |  8.40
Comm    | 0.78026    | 0.89715    | 1.0291     |   5.4 | 33.73
Output  | 0.00024452 | 0.00025032 | 0.00032061 |   0.0 |  0.01
Modify  | 0.19088    | 0.2476     | 0.30187    |   7.0 |  9.31
Other   |            | 0.01568    |            |       |  0.59

Nlocal:        83.3333 ave          92 max          75 min
Histogram: 1 2 7 6 8 7 10 5 1 1
Nghost:        1748.17 ave        1777 max        1717 min
Histogram: 2 3 1 11 7 4 6 8 3 3
Neighs:        10499.6 ave       11934 max        9048 min
Histogram: 1 2 4 9 9 6 10 6 0 1

Total # of neighbors = 503979
Ave neighs/atom = 125.99475
Neighbor list builds = 902
Dangerous builds = 195

# Equilibrate just above the melting temperature to avoid step fn in T

fix 1 all npt temp 1.25 1.25 0.1 iso 5.68 5.68 0.5 mtk yes tchain 5 pchain 5
run 2000
Per MPI rank memory allocation (min/avg/max) = 3.644 | 3.646 | 3.650 Mbytes
Step Temp E_pair E_mol TotEng Press Volume 
   10000    2.3795241   -4.2811423            0  -0.71274847    5.4929169    3632.9884 
   11000    1.2486336   -6.2819045            0   -4.4094223    5.7562051    2768.8531 
   12000    1.2359139   -6.3816009            0   -4.5281934     5.798763    2739.5866 
Loop time of 0.655977 on 48 procs for 2000 steps with 4000 atoms

Performance: 526847.498 tau/day, 3048.886 timesteps/s
99.6% CPU use with 48 MPI tasks x no OpenMP threads

MPI task timing breakdown:
Section |  min time  |  avg time  |  max time  |%varavg| %total
---------------------------------------------------------------
Pair    | 0.297      | 0.32284    | 0.35415    |   2.4 | 49.22
Neigh   | 0.041316   | 0.043793   | 0.046687   |   0.6 |  6.68
Comm    | 0.21056    | 0.24097    | 0.26973    |   3.2 | 36.73
Output  | 5.1599e-05 | 5.2978e-05 | 6.8974e-05 |   0.0 |  0.01
Modify  | 0.039156   | 0.043455   | 0.047408   |   1.1 |  6.62
Other   |            | 0.00487    |            |       |  0.74

Nlocal:        83.3333 ave          93 max          77 min
Histogram: 3 6 7 11 2 13 3 1 1 1
Nghost:        2121.44 ave        2141 max        2103 min
Histogram: 2 2 9 8 3 7 8 4 3 2
Neighs:        13908.3 ave       15875 max       12264 min
Histogram: 2 2 5 9 14 7 4 2 1 2

Total # of neighbors = 667600
Ave neighs/atom = 166.90000
Neighbor list builds = 144
Dangerous builds = 9

#############################
# L I N E A R  Q U E N C H  #
#############################

# Define solid atoms. This closely follows ten Wolde  Ruiz-Montero and Frenkel  Faraday Discuss  1996  104  93-110
# Compute components of the per-atom q6 vector
compute q6 all orientorder/atom degrees 1 6 components 6 nnn NULL cutoff 1.3 # compute the Q6 parameter.
                                                                             # Use all neighbours within 1.3 unit cell.

# get number of connections
compute coord_number all coord/atom orientorder q6 0.5

# An atom is solid if it has 8 or more connections (of a possible 14)
variable is_solid atom c_coord_number>=8
group solid dynamic all var is_solid    # Must be dynamic to update
dynamic group solid defined

# do clustering
compute cluster solid cluster/atom 1.3 # Create a cluster where all atoms within are solid and max 1.3 units from another member

# define chunks one chunk per cluster
compute clus_chunks solid chunk/atom c_cluster nchunk every compress yes  # Says which atoms are in which chunk

# count the size of each chunk
compute size_chunks solid property/chunk clus_chunks count


# Find the maximum entry in the vector of chunk sizes
variable max_n equal max(c_size_chunks)


# Thermo style which includes this variable
# thermo_style custom step temp pe vol v_max_n

thermo ${N}  # Print the thermo information every 100 steps
thermo 1000  

# Reset the npt fix at a lower temperature (below freezing)
fix 1  all npt temp  ${temp} ${temp}  0.1  iso  5.68  5.68  0.5  mtk yes tchain  5  pchain  5
fix 1  all npt temp  0.45 ${temp}  0.1  iso  5.68  5.68  0.5  mtk yes tchain  5  pchain  5
fix 1  all npt temp  0.45 0.45  0.1  iso  5.68  5.68  0.5  mtk yes tchain  5  pchain  5

dump dmp2 all dcd ${N} traj.dcd
dump dmp2 all dcd 1000 traj.dcd


compute msd all msd com yes
variable twopoint equal c_msd[4]/6/(step*dt+1.0e-6)
fix 9 all vector 10 c_msd[4]
variable fit equal slope(f_9)/6/(10*dt)
thermo_style custom step temp pe c_msd[4] v_twopoint v_fit v_max_n

fix 1 all npt temp 1.25 ${temp} 0.1 iso 5.68 5.68 0.5 mtk yes tchain 5 pchain 5
fix 1 all npt temp 1.25 0.45 0.1 iso 5.68 5.68 0.5 mtk yes tchain 5 pchain 5
run 2000000 # 5000000  # Run for this many steps
Neighbor list info ...
  update every 1 steps, delay 10 steps, check yes
  max neighbors/atom: 2000, page size: 100000
  master list distance cutoff = 3.8
  ghost atom cutoff = 3.8
  binsize = 1.9, bins = 8 8 8
  4 neighbor lists, perpetual/occasional/extra = 1 3 0
  (1) pair lj/cut, perpetual
      attributes: half, newton on
      pair build: half/bin/atomonly/newton
      stencil: half/bin/3d
      bin: standard
  (2) compute orientorder/atom, occasional
      attributes: full, newton on
      pair build: full/bin/atomonly
      stencil: full/bin/3d
      bin: standard
  (3) compute coord/atom, occasional
      attributes: full, newton on
      pair build: full/bin/atomonly
      stencil: full/bin/3d
      bin: standard
  (4) compute cluster/atom, occasional
      attributes: full, newton on
      pair build: full/bin/atomonly
      stencil: full/bin/3d
      bin: standard
Per MPI rank memory allocation (min/avg/max) = 9.848 | 9.853 | 9.857 Mbytes
Step Temp PotEng c_msd[4] v_twopoint v_fit v_max_n 
   12000    1.2359139   -6.3816009 4.976529e-30 3.4559228e-32 8.3333333e+20           10 
   13000    1.2607412   -6.3438748   0.52626248 0.0033734773   0.04339489            2 
   14000    1.2345025   -6.3867373   0.98235916 0.0058473758  0.039349761            2 
   15000    1.2495706   -6.3450506    1.4674294 0.0081523853  0.039725204            4 
   16000    1.2383549    -6.384268    1.9646649   0.01023263  0.039759624            2 
   17000    1.2259532   -6.3865157    2.3795777  0.011664596  0.039612582            1 
   18000     1.267861   -6.3651136    2.8570694  0.013227173  0.039049869            2 
   19000    1.2601661   -6.3960006    3.3424483  0.014659861  0.039048052            2 
   20000    1.2370751   -6.3783624    3.8042105  0.015850877  0.039019441            4 
   21000    1.2603105    -6.388524    4.3202847  0.017143987  0.039187904            3 
   22000    1.2407894   -6.4078366     4.813547  0.018233132  0.039439362            2 
   23000    1.2608348   -6.4053127    5.2810172   0.01913412  0.039634548            3 
   24000     1.244116    -6.382916    5.7158553  0.019846719  0.039536761            1 
   25000     1.248509   -6.3669265    6.0864871   0.02028829  0.039275115            2 
   26000    1.2515873   -6.4167804    6.5578916  0.021018883  0.039065525            2 
   27000    1.2270833   -6.3669861    7.0723583  0.021828266  0.038912066            5 
   28000    1.2652576   -6.4003966    7.6105633  0.022650486  0.038975945            2 
   29000    1.2569931   -6.3655021    8.1178329  0.023327106  0.039094361            2 
   30000    1.2378888   -6.3716619    8.5707165  0.023807545  0.039217342            1 
   31000    1.2529614   -6.4139845    9.1426466  0.024577007  0.039364421            2 
   32000    1.2219178   -6.4413485    9.4635357  0.024644624  0.039372714            2 
   33000    1.2680061   -6.4066617    9.9114661  0.025028955  0.039334007            1 
   34000     1.260866   -6.3875255    10.453147  0.025620458  0.039350688            1 
   35000    1.2285307   -6.4261778    10.837723  0.025804103  0.039344937            2 
   36000    1.2425931   -6.4314146    11.301005  0.026159733  0.039304613            2 
   37000    1.2671096   -6.3986255    11.678207  0.026302267  0.039203119            3 
   38000    1.2571663   -6.4167347    12.325088  0.027028702  0.039166126            2 
   39000    1.2510303    -6.422853     12.84556  0.027447777  0.039217646            4 
   40000    1.2359936   -6.4073926    13.247761  0.027599501  0.039262644            3 
   41000    1.2479544   -6.4351596     13.74387  0.027934696  0.039311458            1 
   42000    1.2469734   -6.4429961    14.248559  0.028270951  0.039334774            3 
   43000    1.2324092   -6.4182631    14.551429  0.028200444  0.039325294            4 
   44000    1.2464566   -6.4189657    15.054025  0.028511411  0.039281298            4 
   45000    1.2355652   -6.3930004    15.497523  0.028699115  0.039255354            3 
   46000    1.2483362   -6.3988022    15.976117  0.028942241  0.039222262            2 
   47000    1.2505563   -6.4534058      16.3734  0.029030851  0.039167775            2 
   48000    1.2252153   -6.4452973    16.613956  0.028843673  0.039062761            4 
   49000    1.2324668   -6.4391857    17.080703  0.029048815  0.038950808            4 
   50000    1.1866497    -6.451572    17.619428  0.029365714  0.038884337            2 
   51000    1.2367896   -6.4306177    18.120396   0.02960849  0.038825205            2 
   52000    1.2503182   -6.4002082    18.582253  0.029779252  0.038779537            3 
   53000    1.2470859   -6.4693641    18.866928   0.02966498  0.038709543            2 
   54000    1.2406345   -6.4236572    19.285946  0.029762262  0.038607498            3 
   55000    1.2246748   -6.4408372    19.645027  0.029765192  0.038521248            1 
   56000    1.2435289   -6.4370708     20.10597  0.029919598    0.0384369            2 
   57000    1.2502249   -6.4228728    20.688159  0.030245846  0.038358171            8 
   58000     1.228885   -6.4617022    21.057202  0.030254601  0.038289182            3 
   59000    1.2352252    -6.433062    21.506502  0.030376415  0.038222069            2 
   60000    1.2302937   -6.4209901    22.043862  0.030616475  0.038177456            3 
   61000    1.2677615   -6.4126683    22.634519  0.030921474  0.038156886            3 
   62000    1.2488058   -6.5031664     22.94815  0.030844287  0.038141652            2 
   63000    1.2201582   -6.4720416    23.326868  0.030855646  0.038102664            3 
   64000     1.235097   -6.4776802    23.761751  0.030939779  0.038067483            3 
   65000    1.2162613    -6.445953    24.111304  0.030911928  0.038025987            2 
   66000    1.2442421   -6.4412398    24.556122  0.031005205  0.037969353            2 
   67000    1.2187017   -6.4149766    25.214543  0.031361372  0.037939775            1 
   68000    1.2189328   -6.4526623    25.650616  0.031434579   0.03793299            2 
   69000    1.2254469   -6.4233382    26.210372  0.031655039  0.037931686            3 
   70000    1.2719198     -6.42454    26.646374  0.031721874  0.037922156            2 
   71000    1.2130183   -6.3923728    27.346144  0.032096413  0.037930171            2 
   72000    1.2420002   -6.4449056    27.815376  0.032193722  0.037945641            3 
   73000    1.2263965    -6.444195    27.850593  0.031792914  0.037939561            6 
   74000    1.2508461   -6.4682863    28.321821  0.031893942  0.037925722            3 
   75000    1.2258297   -6.4515571    28.842301  0.032047001  0.037907028            3 
   76000    1.1990759   -6.4350954    29.344434  0.032175914  0.037894508            1 
   77000    1.2390918   -6.4674479    29.526647  0.031955245  0.037881219            2 
   78000    1.2159243   -6.4286035    30.038516  0.032092432  0.037854915            4 
   79000    1.2248008   -6.4654084     30.30541  0.031967731  0.037824298            4 
   80000    1.2456112   -6.3972567    30.976422  0.032267106   0.03779021            3 
   81000    1.1997405   -6.4568774    31.373487   0.03227725  0.037767137            2 
   82000    1.2043869   -6.4415587    31.945172  0.032464605  0.037746896            2 
   83000    1.2135039   -6.4227237     32.46975  0.032600151  0.037735398            2 
   84000    1.1905999   -6.4449235    32.937203  0.032675796  0.037737583            3 
   85000    1.2114116   -6.4718861     33.55037   0.03289252  0.037743046            2 
   86000    1.2056174   -6.4467846    34.029715  0.032974529  0.037760871            2 
   87000    1.2055859     -6.45811    34.459128  0.033006827  0.037775016            3 
   88000     1.214108   -6.4753013    34.750168  0.032907356  0.037785724            1 
   89000    1.2193933   -6.4679767    35.200517  0.032959285   0.03778317            2 
   90000    1.2116871   -6.4529181    35.648216  0.033007607  0.037780696            4 
   91000    1.2199105    -6.443944    35.903108  0.032878304  0.037770973            3 
   92000    1.2253475   -6.4832888    36.260103  0.032844296  0.037758007            3 
   93000    1.1862136   -6.4348574    36.960691  0.033118898  0.037745424            5 
   94000    1.2350359   -6.4979311    37.080391  0.032872687  0.037728485            3 
   95000    1.2096597   -6.4325311    37.756442  0.033119686  0.037716215            3 
   96000    1.2393584   -6.4279072    38.293718  0.033241075   0.03770803            2 
   97000    1.2146642   -6.4808166    38.199964  0.032817838  0.037692459            2 
   98000    1.2334953   -6.4929242    38.917599  0.033093196  0.037666635            8 
   99000    1.2123281   -6.4603477    39.237936  0.033028565  0.037649475            3 
  100000      1.20127   -6.4684626    39.798688  0.033165573  0.037633787            1 
  101000    1.2025061   -6.5300636    40.122727   0.03310456  0.037613812            2 
  102000    1.2237727   -6.4488894    40.727618  0.033274197   0.03758951            4 
  103000     1.204771   -6.3976165    41.131023  0.033277527  0.037568884            2 
  104000    1.1739414   -6.5059641    41.344471  0.033128583  0.037545595            3 
  105000    1.2143418   -6.4388983    41.793682  0.033169589  0.037510955            3 
  106000    1.1880783   -6.4746446    42.074954  0.033077794  0.037475273            3 
  107000    1.2188349   -6.4595974    42.628941   0.03320011  0.037443278            4 
  108000    1.2058205    -6.453067     42.98956  0.033170957  0.037408129            2 
  109000    1.2260804   -6.4827645     43.23051  0.033050849  0.037378648            3 
  110000    1.2258174   -6.4990303    43.705185  0.033109989  0.037340923            5 
  111000    1.2339507   -6.4762366    44.105011   0.03311187  0.037308089            4 
  112000    1.1892226   -6.4936359    44.393895  0.033031172  0.037273276            5 
  113000    1.1910159   -6.4550915    44.752121  0.033003039  0.037230783            2 
  114000    1.2048082   -6.4684048    45.305169  0.033117813  0.037188772            2 
  115000    1.2083303   -6.5070485    45.614855  0.033054242  0.037147768            3 
  116000    1.1906341   -6.5224551    45.949179  0.033009467  0.037106769            4 
  117000    1.1883616   -6.5269936    46.437467  0.033075119  0.037065693            3 
  118000      1.18979   -6.5053131    46.896562   0.03311904  0.037024746            1 
  119000    1.1968931   -6.4846266    47.369167  0.033171686  0.036987333            2 
  120000     1.233034   -6.4702641    47.744339  0.033155791  0.036954112            3 
  121000    1.1814453   -6.5258542    48.091159  0.033120633  0.036924098            3 
  122000     1.205004   -6.5222668    48.386557  0.033050926  0.036889118            2 
  123000    1.1829799   -6.4832684    48.888352   0.03312219  0.036853681            3 
  124000    1.1805615   -6.5002533    49.304365  0.033134654  0.036816926            1 
  125000    1.2159025   -6.5206666    49.498941  0.032999294  0.036781843            2 
  126000     1.164966   -6.4646374    50.050766  0.033102358  0.036744002            2 
  127000    1.1923087   -6.4691628     50.68508  0.033257927   0.03670985            3 
  128000     1.196312   -6.4287169     51.27657  0.033383183  0.036683407            3 
  129000    1.2123824   -6.5407538    51.601952  0.033334594  0.036656778            4 
  130000    1.2052788   -6.4422965    52.053773  0.033367803  0.036628791            2 
  131000    1.2048432    -6.528847    52.204032  0.033208672   0.03659873            2 
  132000    1.2242185   -6.4629181     52.55349  0.033177708  0.036568434            2 
  133000    1.2115276   -6.4747766    52.840847    0.0331083  0.036538161            1 
  134000    1.2211196    -6.510823     53.26662  0.033126007  0.036505472            3 
  135000    1.2088559   -6.5393379    53.618227  0.033097671  0.036475333            4 
  136000    1.1950659   -6.5480748    54.191577  0.033205623  0.036451199            2 
  137000    1.1751462   -6.4529221    54.982362  0.033444259  0.036428582            3 
  138000    1.1878583   -6.5088406    55.343297  0.033419865  0.036403372            3 
  139000    1.1885752   -6.4936659    55.500614  0.033273749  0.036375771            2 
  140000    1.1985168   -6.4639219    56.001115  0.033333997  0.036346479            3 
  141000    1.2093468   -6.4765478    56.281062  0.033263039  0.036320862            4 
  142000    1.2046523   -6.5250456     56.38453  0.033089513  0.036289552            5 
  143000    1.2264793   -6.5063502    57.126774  0.033290661  0.036259117            7 
  144000    1.2299793   -6.5135264    57.266024   0.03314006   0.03622724            2 
  145000    1.2303953   -6.5181433    57.683528  0.033151453   0.03619782            2 
  146000    1.1870597   -6.5191178    58.038964  0.033127262  0.036167832            1 
  147000    1.2207108   -6.5624976    57.979497  0.032868195  0.036132083            3 
  148000     1.170393   -6.5165871    58.365548  0.032863484  0.036092673            2 
  149000    1.1776971   -6.5426183    58.776287  0.032872644  0.036051931            2 
  150000    1.2125415   -6.5618829     59.18911  0.032882839  0.036009414            3 
  151000    1.2010522   -6.5113751    59.541351  0.032859465  0.035968869            2 
  152000    1.1861238   -6.5042119    60.365644    0.0330952  0.035934777            2 
  153000    1.2050358   -6.4874586    60.731538   0.03307818  0.035901416            4 
  154000      1.19996    -6.569776    60.822648  0.032912688  0.035864098            7 
  155000    1.1862915   -6.5204596    61.318246  0.032966799  0.035832062            5 
  156000    1.1984661   -6.5417491    61.914529  0.033074001  0.035803361            5 
  157000    1.1852869   -6.5072154    62.365044  0.033102465  0.035775028            2 
  158000     1.176825   -6.5180313    62.716716  0.033078436  0.035750023            5 
  159000     1.185303     -6.56173    63.287078  0.033169328   0.03572539            3 
  160000    1.1880616   -6.5239521    63.941486  0.033302857  0.035704702            2 
  161000    1.1891982   -6.5190811    64.338444  0.033301472  0.035686215            4 
  162000    1.1428914   -6.5403498    65.027752   0.03345049  0.035674732            4 
  163000    1.2058397   -6.5413521    65.385276  0.033428055  0.035661748            2 
  164000    1.1653848   -6.5666434    65.792313  0.033431053  0.035652621            5 
  165000    1.1864489   -6.5680125    66.078561   0.03337301  0.035642081            3 
  166000    1.2016619   -6.5684922    66.442392  0.033354614  0.035629019            4 
  167000    1.1888696   -6.5450678    66.965382  0.033415859  0.035617963            2 
  168000    1.1927955   -6.5693433    67.399766  0.033432423  0.035609667            2 
  169000    1.1637782   -6.5447899    67.923039  0.033492623  0.035597824            3 
  170000    1.1636368   -6.5408252    68.172391  0.033417838  0.035586066            1 
  171000    1.1741009   -6.5520032    68.592832  0.033427306  0.035574569            4 
  172000     1.190941   -6.5311393    69.070833  0.033464551  0.035564291            8 
  173000    1.1812445   -6.5203883    69.436166  0.033447093  0.035550991            4 
  174000    1.1768002   -6.5528256    69.579076  0.033323312   0.03553972            3 
  175000     1.164367   -6.5443476    70.213817  0.033435151   0.03552727            3 
  176000    1.1901441   -6.5804715    70.664823  0.033458723  0.035513828            2 
  177000    1.1898916   -6.5716918    71.139208  0.033493036  0.035502283            2 
  178000    1.1850733   -6.5270345    71.557237  0.033500579  0.035494819            2 
  179000    1.1876634   -6.5558853    71.969393  0.033505304  0.035484992            2 
  180000    1.2100492   -6.5305113    72.176051  0.033414838  0.035472091            5 
  181000    1.1898005   -6.5662894    72.915504  0.033570674   0.03546086            3 
  182000    1.1702664   -6.5575669    73.394737  0.033605649  0.035451858            2 
  183000    1.1813105   -6.5873681    73.624368  0.033526579  0.035444399            2 
  184000    1.1639432   -6.5824162    74.145431  0.033580358  0.035436237            1 
  185000    1.1683986    -6.563558    74.645262  0.033623992  0.035429635            3 
  186000    1.1815579   -6.6028166    74.689185  0.033462897  0.035422919            3 
  187000    1.1871837    -6.600128    75.313001  0.033561943  0.035417164            1 
  188000    1.1523131   -6.5559049    75.816666  0.033606678  0.035411697            3 
  189000    1.1975356   -6.5676568    76.444806  0.033705823  0.035405772            3 
  190000    1.1910911   -6.5618481    76.671495  0.033627849  0.035400339            2 
  191000    1.1840972   -6.5513544    77.030725  0.033608519  0.035394269            2 
  192000    1.1680195   -6.5862725     77.34118  0.033568221  0.035386317            2 
  193000    1.1880789   -6.5958793    77.832838  0.033606579  0.035379197            3 
  194000    1.1789181   -6.5555285    78.340544  0.033651436  0.035373479            4 
  195000    1.1571278   -6.6365283    78.219904  0.033427309  0.035366053            3 
  196000    1.1698471   -6.5460225    79.363582  0.033743019  0.035359314            4 
  197000    1.1791605   -6.5757637     79.52733  0.033641002   0.03535214            2 
  198000    1.1828531   -6.5471614    80.069085   0.03369911  0.035341273            3 
  199000    1.1797473   -6.6067699    79.714604  0.033381325  0.035330757            2 
  200000    1.1660372   -6.6111789    80.105321  0.033377217  0.035316156            6 
  201000    1.1952272   -6.5587583    80.550257  0.033395629  0.035301137            4 
  202000    1.1880663   -6.6270145    80.528849  0.033221472  0.035286305            3 
  203000    1.2029879   -6.5543861    81.457495  0.033439037  0.035272014            2 
  204000    1.1748051   -6.5945323    81.923565  0.033465508  0.035260396            3 
  205000    1.1890706   -6.5928486    82.154925  0.033396311  0.035249121            4 
  206000    1.1710825   -6.6134863    82.606776  0.033416981  0.035236777            3 
  207000    1.1727483   -6.6017746    82.759387  0.033316983  0.035221764            4 
  208000    1.1698257   -6.5581422    83.235722  0.033347645   0.03520662            3 
  209000    1.1487335   -6.6204693    83.315151  0.033219757  0.035188284            3 
  210000    1.1828675   -6.6025818    83.702971  0.033215465  0.035169908            3 
  211000    1.1484457   -6.5554035    84.028091   0.03318645  0.035152405            2 
  212000    1.1714731   -6.6204153      84.2724  0.033125943  0.035133437            5 
  213000     1.169701   -6.5375947    85.022424  0.033263859  0.035113358            2 
  214000    1.1999411   -6.5769562    85.104904  0.033140539  0.035095045            5 
  215000    1.1952866   -6.6086511    85.383831  0.033094508  0.035076691            2 
  216000    1.1720933   -6.5674239    86.022415   0.03318766  0.035054966            3 
  217000    1.1524236   -6.5926892    85.929501   0.03299904  0.035034027            7 
  218000    1.2061803   -6.6098469    86.267393  0.032976832  0.035010743            2 
  219000    1.1794321   -6.5468691    87.427557  0.033267716  0.034990633            4 
  220000    1.1751559   -6.6086607    87.174291  0.033020565  0.034971235            2 
  221000    1.1682214   -6.6181875    87.439808   0.03297127  0.034952281            2 
  222000    1.1645599   -6.5936914      87.4962  0.032843919  0.034929213            5 
  223000    1.1829297   -6.6111469    87.925505  0.032857065  0.034902926            4 
  224000     1.164636   -6.5913435    88.230078   0.03282369  0.034876151            2 
  225000    1.1541624   -6.6006217    88.699586  0.032851698  0.034847918            3 
  226000     1.156742   -6.5700127    89.057581  0.032838341  0.034819985            5 
  227000    1.1741288   -6.6174178    89.390519  0.032815903  0.034793093            1 
  228000    1.1497186   -6.6370223    89.644076  0.032764648  0.034768298            2 
  229000    1.1627811   -6.5957069    90.190497  0.032820414  0.034742066            2 
  230000    1.1578942   -6.6019019     90.44285  0.032769149  0.034715414            2 
  231000    1.1447838   -6.5860209    90.917867  0.032798653  0.034689933            3 
  232000    1.1631688   -6.5929485    90.888506  0.032646733  0.034662955            3 
  233000    1.1711235   -6.5674315    91.570776  0.032750635  0.034636289            2 
  234000    1.1355812   -6.6613675     91.54225  0.032600516  0.034607154            4 
  235000    1.1570025    -6.591764    92.152287  0.032678116  0.034579092            3 
  236000    1.1769231   -6.5859319    92.762178  0.032755006  0.034552012            2 
  237000    1.1408798   -6.6077632    92.516488  0.032530411  0.034526699            2 
  238000    1.1665065   -6.6055856    92.892169  0.032525269  0.034501287            2 
  239000    1.1315006   -6.5809625    93.463786  0.032588489  0.034474573            4 
  240000    1.1652658   -6.5945999    93.499287   0.03246503  0.034448053            3 
  241000     1.186582   -6.6381597    93.769011  0.032423586   0.03442059            2 
  242000    1.1791111   -6.5819059    94.038977  0.032382568  0.034390793            3 
  243000    1.1557006    -6.610197    94.048185  0.032252464   0.03435951            3 
  244000    1.1812438   -6.5840056    94.795785   0.03237561   0.03432892            2 
  245000    1.1541251   -6.6113677    94.939271  0.032292269  0.034298695            2 
  246000    1.1762358   -6.6510836    95.008719  0.032184525  0.034267086            3 
  247000    1.1624794   -6.6549505    95.544963  0.032235143  0.034235708            4 
  248000    1.1683738   -6.6407128    96.029186  0.032267871  0.034204135            5 
  249000    1.1742768   -6.6639705    96.359059  0.032248681  0.034173337            2 
  250000    1.1429107   -6.6274419    96.495801  0.032165267  0.034143346            2 
  251000    1.1319649   -6.6551381    97.090051  0.032234413  0.034114227            2 
  252000    1.1485886   -6.6344426    97.685094  0.032303272  0.034085856            2 
  253000    1.1572695   -6.6285011    98.016327  0.032284692  0.034058832            2 
  254000    1.1649005   -6.6371407    98.288662  0.032246936  0.034032346            5 
  255000    1.1394574   -6.6066613    98.660037  0.032241842  0.034006299            3 
  256000    1.1417707   -6.6144419    99.071136  0.032249719  0.033978164            4 
  257000    1.1447291     -6.59118    99.010543  0.032104586  0.033951363            4 
  258000    1.1522126   -6.6121339    99.687454   0.03219879  0.033922969            2 
  259000    1.1632369   -6.6694604    99.577297  0.032039027   0.03389466            3 
  260000    1.1326242   -6.6654657    100.03945  0.032063926  0.033866684            3 
  261000    1.1525155   -6.6626342    100.28693  0.032020093  0.033837446            2 
  262000    1.1803392   -6.6359026    100.65644  0.032015408  0.033807793            3 
  263000    1.1777182   -6.6391965     101.2692  0.032087833  0.033778916            4 
  264000    1.1511388    -6.657205    101.35366  0.031992949  0.033750101            4 
  265000    1.1560834   -6.6738198    101.60961  0.031952709  0.033723396            2 
  266000    1.1594632   -6.6254797    102.51863  0.032117366  0.033694886            2 
  267000    1.1402121   -6.6091955    102.63149  0.032032301  0.033667743            2 
  268000    1.1631665   -6.6406389    103.07948  0.032052076  0.033640918            3 
  269000    1.1175443   -6.6217524    103.18394  0.031965286  0.033612567            3 
  270000    1.1680806   -6.5942011    103.57283  0.031966922  0.033586064            5 
  271000    1.1409645   -6.6672776    103.29538  0.031763647  0.033558392            4 
  272000    1.1607583   -6.6532162    103.82179  0.031808146  0.033528554            3 
  273000    1.1617402   -6.6334954    104.13782    0.0317881  0.033498789            3 
  274000    1.1145976    -6.628015     104.1999  0.031690966  0.033468748            1 
  275000     1.149448   -6.6782562    104.29521  0.031604611   0.03343831            2 
  276000    1.1611502   -6.6548904    104.94934  0.031687602  0.033407883            3 
  277000    1.1327821   -6.6464346    105.34081  0.031690977  0.033378082            3 
  278000    1.1412925   -6.6551749    105.57551  0.031647335  0.033349301            4 
  279000    1.1520659   -6.6668262    105.75329  0.031587005  0.033319722            4 
  280000    1.1509237   -6.6221035    106.56512  0.031715809  0.033290282            2 
  281000    1.1307462   -6.6640177    106.28602  0.031520172  0.033260189            6 
  282000    1.1479755   -6.6431794    106.95948   0.03160741  0.033229987            4 
  283000    1.1471188   -6.6615028    107.08812  0.031533603  0.033199661            4 
  284000    1.1530387   -6.6514317    107.25636  0.031471936   0.03316981            3 
  285000    1.1280059    -6.663681    107.27921   0.03136819   0.03314005            4 
  286000    1.1410897   -6.6399928    108.00175  0.031469041  0.033111298            2 
  287000    1.1683521   -6.6181322    108.73959  0.031573633  0.033083061            5 
  288000     1.148618    -6.667546    108.94027  0.031522069  0.033055895            3 
  289000    1.1240329   -6.6749653    108.63938  0.031326234  0.033027968            1 
  290000    1.1499956   -6.6616503    109.48402  0.031460924  0.033000064            7 
  291000    1.1547569    -6.657756    110.08368  0.031524535  0.032971678            2 
  292000    1.1469885   -6.6934977     109.6708  0.031298743  0.032944253            3 
  293000    1.1316773   -6.6639007    110.61447  0.031460316  0.032915797            2 
  294000     1.167854   -6.6636117    110.59036  0.031346473   0.03288829            2 
  295000    1.1461245   -6.7175384    110.80013  0.031299472  0.032861527            3 
  296000     1.129219   -6.6868702    111.07554  0.031271268  0.032834213            2 
  297000    1.1370699   -6.7008183    111.52279  0.031291468  0.032805753            2 
  298000    1.1355415   -6.6908608    111.66559  0.031226396  0.032778235            2 
  299000    1.1372199   -6.7134143    112.13607  0.031253086  0.032750921            7 
  300000    1.1344246   -6.6920842    112.76136    0.0313226  0.032722942            3 
  301000    1.1399716   -6.6789874     113.2946  0.031366168  0.032697349            3 
  302000    1.1271426   -6.6860459    113.65339   0.03136131  0.032672391            2 
  303000    1.1392067   -6.6905997    114.20803  0.031410349  0.032648988            4 
  304000    1.1287376   -6.6929493    114.13559  0.031287169  0.032625598            4 
  305000    1.1292326   -6.6838832    114.64144  0.031322798  0.032602751            2 
  306000    1.1477612   -6.6681164    115.14136  0.031356579  0.032580299            3 
  307000     1.122491   -6.6679178     115.8334  0.031442292  0.032557993            4 
  308000    1.1362368   -6.6991356      116.348  0.031479436  0.032536615            3 
  309000    1.1117405   -6.7016735    116.75209  0.031486539  0.032516316            5 
  310000    1.1237224   -6.6860647    117.30407  0.031533352  0.032497027            6 
  311000    1.1475906   -6.7233191    117.54204  0.031495723  0.032478274            2 
  312000    1.1198185   -6.6682353    117.87511  0.031483738  0.032459123            3 
  313000    1.1466117   -6.6960388    118.41943   0.03152807  0.032441843            3 
  314000    1.1269973   -6.6866855    119.14331  0.031619774  0.032425329            2 
  315000    1.1284532   -6.7031349    119.23357  0.031543273  0.032408913            6 
  316000    1.1318012   -6.6626804     119.9537  0.031633361  0.032392861            1 
  317000    1.1148227   -6.6829393    120.02112  0.031551294   0.03237763            2 
  318000    1.1093488   -6.6638498    120.62937   0.03161147  0.032362187            4 
  319000    1.1183166   -6.6609566    120.62334  0.031510799  0.032347139            3 
  320000    1.1219453    -6.658439    121.79908  0.031718509  0.032333133            3 
  321000    1.1403487   -6.6996843    121.82903  0.031627474  0.032319947            4 
  322000    1.1249906   -6.6331679    122.72884  0.031762123  0.032307184            5 
  323000    1.1361456   -6.6742914     122.4589  0.031594143    0.0322934            3 
  324000    1.1322271   -6.6745453    122.46723  0.031498773  0.032279206            6 
  325000    1.1324915   -6.7394219    123.01679  0.031542766  0.032264167            3 
  326000    1.1594442   -6.6994562    123.56488  0.031586113  0.032249847            2 
  327000    1.1462365   -6.7052119    123.07461   0.03136458  0.032234761            5 
  328000    1.1158912   -6.7116862    123.76081  0.031443296  0.032219142            3 
  329000    1.1123866   -6.7158298    123.94114    0.0313934  0.032203781            4 
  330000    1.1350299   -6.7142459    124.47435  0.031432917  0.032187899            2 
  331000    1.1044357   -6.6780644    124.97343  0.031463603  0.032171475            4 
  332000    1.1254353   -6.6948562    125.13485   0.03140935  0.032155963            1 
  333000    1.1262017   -6.7442363    125.17914  0.031326111  0.032139632            2 
  334000    1.0931971   -6.7223494    125.00507  0.031188889  0.032121629            5 
  335000    1.1479443   -6.7105726    125.85251  0.031306594  0.032104454            3 
  336000    1.1106661   -6.7542282    125.47682  0.031120244   0.03208656            4 
  337000    1.1214329   -6.6905312    126.58839  0.031302766  0.032069019            3 
  338000    1.1345618   -6.6849668     126.6169  0.031217184  0.032052716            4 
  339000    1.1274329   -6.7045456    127.12442  0.031249857  0.032036276            4 
  340000    1.1188855   -6.6998062     127.5537  0.031263162  0.032019809            4 
  341000    1.1142411   -6.6963525    127.91638  0.031260113   0.03200386            1 
  342000    1.1004918   -6.7677105    127.60291  0.031092328  0.031987538            3 
  343000    1.1534063   -6.7402773    128.13613  0.031131228  0.031970279            1 
  344000    1.1341964   -6.7376783    128.49786  0.031128358  0.031951867            3 
  345000     1.130947   -6.7153874    128.45836   0.03102859  0.031934615            6 
  346000    1.1186467   -6.7168381    128.67004  0.030989895  0.031916819            2 
  347000    1.0946591   -6.7338004    129.24176  0.031037887  0.031898637            7 
  348000    1.1190121    -6.708496    129.61514  0.031038108  0.031880379            2 
  349000    1.0973307   -6.7360329    129.24456  0.030860687  0.031861344            6 
  350000    1.1258964   -6.7194355     130.1722  0.030993381  0.031842802            3 
  351000    1.1158643   -6.7492664    130.13726  0.030896784  0.031824684            3 
  352000    1.1008542   -6.6872915    130.84838  0.030977364  0.031806666            2 
  353000    1.1188206   -6.7434872    130.93103   0.03090912  0.031788229            3 
  354000    1.1067786   -6.7018204    131.24231  0.030895082  0.031769167            3 
  355000    1.1206532   -6.6978966    131.80943   0.03094118  0.031751468            4 
  356000    1.1231677   -6.7663326    131.49259    0.0307801  0.031731627            6 
  357000    1.1115897   -6.7413017    131.99743  0.030811725  0.031712514            3 
  358000    1.1382929   -6.7421439    132.73205   0.03089666   0.03169447            3 
  359000    1.1216571   -6.7621387    132.94699  0.030860489  0.031676212            3 
  360000    1.1069152   -6.7036573     133.3582  0.030869954  0.031658143            1 
  361000    1.1018396   -6.7470991    133.35019  0.030782592  0.031641199            3 
  362000    1.1066826   -6.7598958    133.84685  0.030811891  0.031623033            2 
  363000    1.1193999   -6.7346463    134.12063  0.030789859  0.031605271            3 
  364000     1.122509   -6.7543238     134.6262  0.030821016  0.031588491            5 
  365000    1.1199694   -6.7419305    134.72223    0.0307585  0.031571556            3 
  366000    1.1179632   -6.7576069    135.40539  0.030830006  0.031553837            1 
  367000    1.1007949    -6.715892    136.23181  0.030933655  0.031537255            2 
  368000    1.1230211   -6.7123743    136.65601  0.030945655  0.031522646            2 
  369000    1.1397707   -6.7701943    135.59321  0.030621773   0.03150651            3 
  370000     1.119567   -6.7584955    136.35219  0.030709952  0.031489694            6 
  371000    1.1071999   -6.7516181     136.4017  0.030638297  0.031472301            4 
  372000    1.1011822   -6.6969992    137.87734    0.0308865  0.031454793            2 
  373000    1.1268499   -6.7697145    137.25463  0.030664573   0.03143724            4 
  374000    1.0981624   -6.7339097    137.49254  0.030635592  0.031420436            4 
  375000    1.1018914   -6.7469083    138.27476  0.030727725  0.031404266            3 
  376000    1.0871853    -6.713284    138.84528  0.030772448   0.03138783            5 
  377000     1.132608   -6.7507074    138.83685   0.03068896  0.031371739            4 
  378000    1.1039916   -6.7795021    138.77591  0.030594337  0.031354514            4 
  379000    1.1141607   -6.7591942     138.8936  0.030539489  0.031337481            1 
  380000    1.1310357   -6.7369044    139.88609  0.030676774  0.031320251            1 
  381000    1.1073224   -6.7575651    139.92797  0.030605418  0.031303089            3 
  382000     1.104367   -6.7898427    140.05304  0.030552583  0.031285508            5 
  383000    1.0965528   -6.7532297    140.09438  0.030481807  0.031267648            3 
  384000    1.0953604   -6.7676972    139.87325  0.030354438  0.031249062            2 
  385000    1.1012973    -6.801507    140.74951  0.030465263  0.031229882            6 
  386000    1.0947418   -6.7711036    140.59791  0.030353608  0.031210426            6 
  387000    1.0840378   -6.7762999    140.98548   0.03035863  0.031190698            2 
  388000    1.1078259   -6.7667425    141.17065  0.030320158    0.0311716            3 
  389000     1.112995   -6.7424262    141.15054  0.030237905  0.031152865            5 
  390000    1.0955794   -6.8145545    141.36246  0.030205654  0.031132995            4 
  391000    1.1021478   -6.7715694    142.18179  0.030303024  0.031112883            5 
  392000    1.0838747   -6.7637619     142.3584  0.030263266  0.031092876            4 
  393000    1.1034874   -6.7647182    142.35219  0.030184943  0.031073396            2 
  394000    1.0993505   -6.7637344      143.282  0.030304992  0.031053804            1 
  395000    1.0699092   -6.7981842    143.04927  0.030179171  0.031033693            3 
  396000    1.0739351    -6.743271    143.55118  0.030208581  0.031013313            7 
  397000    1.1008125   -6.7877485    143.54271  0.030130712  0.030993145            4 
  398000     1.120294    -6.782407    143.87319  0.030124202  0.030972921            5 
  399000    1.0931718   -6.7486955    143.99948  0.030075079    0.0309523            2 
  400000    1.1065606   -6.7760976    143.67939  0.029933205  0.030931508            3 
  401000    1.0571758   -6.7605099    144.19696  0.029966118  0.030910961            5 
  402000    1.0882474   -6.7706121    144.77445  0.030011288  0.030889426            4 
  403000    1.0866621   -6.7722498     145.0546  0.029994747  0.030868767            3 
  404000    1.0969969   -6.8120516    144.78304  0.029864488  0.030847307            4 
  405000    1.0792742   -6.8132499    144.73456  0.029780773  0.030824803            3 
  406000    1.0900841   -6.7506772    146.14482  0.029996884  0.030802945            5 
  407000    1.0736724   -6.7826676    145.53555  0.029798433  0.030781324            6 
  408000    1.1008466   -6.7980176    146.11678  0.029844113  0.030759255            2 
  409000    1.0901965   -6.8132162    145.79858  0.029706312  0.030736927            7 
  410000    1.0902317   -6.7516697    146.52166  0.029780825  0.030714366            4 
  411000     1.115663   -6.8285462    145.79434  0.029560897  0.030691896            1 
  412000    1.0903051   -6.8061004    146.54213  0.029640398  0.030669051            3 
  413000    1.0985872   -6.7726634     146.7481  0.029610189  0.030646115            7 
  414000    1.1008505    -6.770791    147.48721  0.029687442  0.030624003            3 
  415000    1.0897853   -6.7967422    147.84769  0.029688291  0.030601489            8 
  416000    1.0699879   -6.8120076    147.65121  0.029577566  0.030578393            3 
  417000    1.0630202   -6.7965936    148.34753   0.02964579  0.030555287            5 
  418000    1.0851478   -6.8480458     147.8497  0.029475619  0.030532647            4 
  419000    1.1031055   -6.7614224    148.74257   0.02958285  0.030510111            2 
  420000    1.0793937   -6.7892694    148.85798  0.029535314  0.030487864            8 
  421000    1.0848789   -6.7846873    149.36539  0.029565595  0.030466261            3 
  422000    1.1106109   -6.8038308    150.15388   0.02965124  0.030445398            2 
  423000    1.0991247    -6.777068    150.71184  0.029691064  0.030424705            4 
  424000    1.0896681   -6.7961847    150.48355   0.02957617  0.030403951            5 
  425000    1.0996787    -6.778687    151.16855  0.029640893  0.030383282            2 
  426000    1.0771332   -6.7914999    151.46826  0.029629941  0.030362967            6 
  427000    1.0688333   -6.8075505    151.74318  0.029614204  0.030342502            4 
  428000    1.0826651   -6.7906701    152.05218  0.029605174  0.030322621            4 
  429000    1.0866751   -6.8179517    152.22765   0.02957025  0.030302927            3 
  430000    1.0845361   -6.7876979    152.88057  0.029628017  0.030283241            5 
  431000    1.1006089   -6.7997997    152.91207  0.029565366  0.030263568            6 
  432000    1.0756202   -6.8120421     152.6673  0.029449711  0.030243644            6 
  433000    1.0927975   -6.8537778    153.11728  0.029468298  0.030223362            2 
  434000    1.0994011   -6.8109602    153.57853  0.029488964  0.030203492            2 
  435000    1.0769587   -6.8305492    153.69501  0.029443488  0.030183691            4 
  436000    1.0636204    -6.806951    154.38956  0.029508708  0.030163745            3 
  437000    1.0927448   -6.8400847    153.58516  0.029287788  0.030143513            7 
  438000    1.0731427   -6.8483627     153.9179  0.029284228  0.030123139            6 
  439000    1.0996325   -6.8485243    154.09904  0.029251905  0.030102373            5 
  440000     1.085885   -6.8244498    154.71368  0.029301834  0.030081307            2 
  441000    1.0563218   -6.8019206    155.18641  0.029324719  0.030060485            4 
  442000    1.0774943   -6.8287597    155.45038  0.029308142  0.030040642            3 
  443000    1.0537817   -6.8293531    155.66817  0.029282952   0.03002012            3 
  444000     1.065883   -6.8331733    156.02997  0.029284905  0.029999928            5 
  445000    1.0879886   -6.8241762    156.63237  0.029331904  0.029979667            5 
  446000    1.1029384    -6.818903    156.69795  0.029278391  0.029959672            3 
  447000    1.0742112    -6.865545    156.96546  0.029262764  0.029939294            3 
  448000    1.0745168   -6.8431236    156.75459  0.029158221  0.029918596            3 
  449000    1.0726924   -6.8455102    157.22548  0.029180675  0.029897774            3 
  450000    1.0898581   -6.8188685    157.40504  0.029149082  0.029877342            3 
  451000    1.0789603   -6.8827049    157.66566  0.029132605  0.029857398            2 
  452000      1.07395    -6.805214    158.44304  0.029211475  0.029837874            4 
  453000    1.0459659   -6.8155332    158.86908  0.029225364  0.029818361            3 
  454000    1.0833741   -6.8109422    158.49411  0.029092163   0.02979859            4 
  455000    1.0822727   -6.8393188    158.91902  0.029106048  0.029779166            3 
  456000     1.073958   -6.8078868    159.31269  0.029114162  0.029759587            6 
  457000    1.0659893   -6.8271893    158.83727  0.028963762   0.02973913            6 
  458000    1.0443328   -6.8549267    159.42707  0.029007836  0.029718175            5 
  459000    1.0657441   -6.7907254    159.93439  0.029036744  0.029697359            4 
  460000    1.0823642   -6.8396252    159.88138  0.028964019  0.029676606            3 
  461000    1.0663535    -6.879594     159.6551  0.028860285  0.029655652            4 
  462000    1.0821569   -6.8314391    160.56887  0.028962639  0.029635134            2 
  463000    1.0565679    -6.837209     160.7626  0.028934953  0.029615105            3 
  464000    1.0743695   -6.8706331    160.53543  0.028831795  0.029595009            4 
  465000    1.0837971   -6.9083349    161.01635  0.028855977  0.029574169            4 
  466000    1.0662187   -6.8554673    161.64943  0.028907266  0.029553331            9 
  467000     1.044325    -6.852303    161.96696  0.028902028  0.029532818            2 
  468000     1.078624   -6.8527276    161.28402  0.028718665  0.029512761            6 
  469000    1.0686027   -6.8717602    162.34605  0.028846135  0.029491911            4 
  470000    1.0671488   -6.8740929    162.42556  0.028798859  0.029471627            3 
  471000    1.0799337   -6.8313878    162.66798  0.028780605  0.029451283            2 
  472000    1.0872996   -6.8405174    162.98893  0.028776294   0.02943091            4 
  473000    1.0756084   -6.8426479    163.58843  0.028821077  0.029410836            2 
  474000    1.0503666   -6.8944676    162.79097  0.028620072  0.029390833            4 
  475000    1.0625688   -6.8763326    162.77203  0.028556497  0.029370115            3 
  476000     1.063508   -6.9061503    163.80807  0.028677883  0.029349246            2 
  477000    1.0788153   -6.8670952    164.03461  0.028657338   0.02932881            4 
  478000     1.055097   -6.8744139    164.29062  0.028642019  0.029308137            3 
  479000     1.055321   -6.8869026    164.39322  0.028600074  0.029288718            2 
  480000    1.0461685    -6.856308    165.82032   0.02878825   0.02926964            3 
  481000     1.041625    -6.887465    165.76108  0.028718136  0.029251303            4 
  482000     1.056996   -6.8698886    166.40987  0.028770724  0.029233165            6 
  483000    1.0368851   -6.8400167    166.68279  0.028758246  0.029214987            3 
  484000    1.0586491   -6.8684245    166.94626   0.02874419  0.029196834            3 
  485000    1.0796971   -6.8623123    166.64033  0.028632359  0.029178849            3 
  486000     1.069178   -6.8380495    167.17484  0.028665096  0.029160165            7 
  487000    1.0621705   -6.8324956    167.87822  0.028726594  0.029141944            5 
  488000    1.0757587   -6.8645681    167.78188  0.028651277  0.029123632            6 
  489000    1.0527788   -6.8583498     168.1884  0.028661964  0.029105005            8 
  490000    1.0534929   -6.8975924    167.89042  0.028552793  0.029086496            5 
  491000    1.0584999   -6.9045235    168.33152  0.028569505  0.029067465            5 
  492000    1.0828869   -6.9343596    167.59196  0.028386171  0.029048859            3 
  493000    1.0665921   -6.8671022    168.55329   0.02849109  0.029029681            4 
  494000    1.0427915   -6.8734867    168.35813  0.028400494  0.029010822            3 
  495000    1.0664413   -6.9250492    168.65161  0.028392526    0.0289921            3 
  496000    1.0598481   -6.8725796    169.55702  0.028487402  0.028972852            6 
  497000    1.0656539   -6.9043777    170.12144  0.028524721  0.028954641            3 
  498000    1.0093773   -6.8734204    170.73663  0.028570386  0.028936514            2 
  499000    1.0514285   -6.8968211    169.90071  0.028373531  0.028918693            2 
  500000    1.0428167   -6.8500156    170.84388   0.02847398   0.02890059            2 
  501000    1.0458024   -6.9147193    170.88603  0.028424156  0.028882696            4 
  502000    1.0494484   -6.8980591     170.9355  0.028375747  0.028864551            3 
  503000    1.0554781   -6.9033521    171.38523  0.028393842  0.028846294            3 
  504000    1.0412411   -6.9343867    170.34925  0.028166211  0.028827457            4 
  505000    1.0537696   -6.9055516    171.62127  0.028320341  0.028808477            3 
  506000    1.0493563   -6.8910366     171.9407  0.028316979  0.028789989            3 
  507000    1.0454539   -6.9198708    172.38359  0.028333924  0.028771696            4 
  508000    1.0347925   -6.8744412    172.74787  0.028337905  0.028753469            2 
  509000    1.0634353   -6.8636225    172.69267  0.028273194  0.028735236            5 
  510000    1.0686215   -6.8884071    173.21608  0.028303281  0.028717227            3 
  511000    1.0408222   -6.8883437    172.81161  0.028181932  0.028699167            3 
  512000    1.0459426   -6.8876538    173.32479  0.028210415  0.028680526            5 
  513000     1.038088   -6.9128875    173.69163  0.028215015  0.028662083            5 
  514000     1.036628   -6.9213392    173.82004  0.028180941  0.028643216            5 
  515000     1.039095   -6.8952115    174.21041  0.028189386  0.028624785           10 
  516000    1.0829035   -6.9166104    174.44353  0.028172405  0.028606417            7 
  517000    1.0363211   -6.9116051    174.19413  0.028077712  0.028587815            3 
  518000    1.0385828   -6.8827638    174.45231  0.028065043  0.028569487            5 
  519000     1.041439   -6.8745522    175.27212  0.028142602  0.028551093            4 
  520000    1.0330771   -6.9221309    174.85481  0.028021604   0.02853251            3 
  521000    1.0422174   -6.9098236    175.28404  0.028036475  0.028514015            2 
  522000    1.0608826   -6.9134133    175.74174  0.028055833  0.028494805            4 
  523000    1.0638252    -6.928486    175.52824  0.027968171  0.028476056            7 
  524000    1.0555813   -6.8930973    176.40216  0.028053779  0.028457719            3 
  525000     1.044586   -6.9179832    176.38367  0.027997409  0.028439384            6 
  526000    1.0519966   -6.9073292    176.74122  0.028000827  0.028420761            3 
  527000    1.0391042   -6.9211865    176.50631  0.027910549  0.028402392            4 
  528000     1.044423   -6.8916573    177.08858  0.027949587  0.028384386            6 
  529000    1.0623314   -6.9125052    177.24381  0.027921205  0.028366003            5 
  530000    1.0422812   -6.8991328    176.92957  0.027819114  0.028347166            2 
  531000    1.0865693   -6.9288507    177.21037  0.027810792  0.028328428            4 
  532000    1.0518097   -6.9140311    177.73805  0.027841173  0.028309453            4 
  533000    1.0554607    -6.926833    177.89245  0.027813078  0.028290502            2 
  534000    1.0327455   -6.9342929    178.33406  0.027829909  0.028271477            5 
  535000    1.0479052   -6.9640985    177.60685  0.027664619  0.028252223            8 
  536000    1.0213498   -6.8830935    179.16132  0.027854683  0.028232841            3 
  537000    1.0614096   -6.9612273    177.32208  0.027517393   0.02821291            2 
  538000    1.0220025   -6.9057646    177.96353  0.027565602  0.028192801            4 
  539000    1.0258864    -6.903086     178.4649  0.027591976  0.028172905            2 
  540000    1.0389817   -6.8923272    178.78149  0.027589736  0.028153117            3 
  541000    1.0534086     -6.94177    179.07002  0.027583182  0.028132993            6 
  542000    1.0417659   -6.9183626    179.03496    0.0275269  0.028112479            3 
  543000    1.0278982   -6.9444782    178.92909  0.027459959  0.028092329            3 
  544000    1.0255982   -6.9506742    179.51696  0.027499535  0.028072201            6 
  545000    1.0240422   -6.8693137     180.2945  0.027567966  0.028052306            4 
  546000    1.0107352   -6.9069486     179.9105  0.027458868  0.028032353            3 
  547000    1.0347337   -6.9550629     180.7966  0.027543663  0.028012379            2 
  548000    1.0263459   -6.9379617    180.86504  0.027503807  0.027992536            3 
  549000     1.041606    -6.941061    181.04205  0.027480578  0.027973207            4 
  550000    1.0187046   -6.9482002    181.53786  0.027505737  0.027954254            7 
  551000    1.0316806     -6.90601    182.21137  0.027557678  0.027935601            5 
  552000     1.015829   -6.9292336     182.4058  0.027537107  0.027917563            5 
  553000     1.026741   -6.9055823    182.36508  0.027481175  0.027899631            2 
  554000    1.0486805   -6.9704583    182.93565  0.027517396  0.027881228            5 
  555000   0.99912446    -6.990557    182.46242   0.02739676  0.027862613            2 
  556000    1.0348431   -6.9441143     183.0878  0.027441218   0.02784377            8 
  557000    1.0601717   -6.9510096    183.41242  0.027440517  0.027824782           13 
  558000    1.0345184    -6.941312    183.01755   0.02733237  0.027805981            4 
  559000    1.0494163   -6.9389077    183.65897  0.027379096  0.027786964            7 
  560000    1.0294177   -6.9609208    183.71676  0.027338804  0.027768019            6 
  561000     1.053368   -6.9465336    183.95145  0.027324933  0.027749352            2 
  562000    1.0161052   -6.9305876    184.07277  0.027294302  0.027731017            4 
  563000    1.0187798   -6.9451356    184.42775  0.027298365  0.027711917            4 
  564000    1.0185496   -6.9467835    184.89622  0.027319181  0.027693544            7 
  565000    1.0163047   -7.0061244    184.24408  0.027174644  0.027674464            3 
  566000    1.0118157   -6.9721499    184.71943  0.027196618   0.02765536            2 
  567000    1.0367044    -6.971457    185.24317  0.027225628  0.027636679            3 
  568000    1.0640439   -6.9820362    185.64228   0.02723625  0.027617581            2 
  569000    1.0275017   -6.9876672     185.0913  0.027107689  0.027598645            3 
  570000    1.0098281   -7.0223407    184.66196  0.026997362  0.027579304            3 
  571000    1.0195473   -6.9764614    186.09054  0.027158573  0.027560332            2 
  572000    1.0247224   -6.9787801    185.94442  0.027089804  0.027541446            2 
  573000    1.0303317    -6.985401    186.57748  0.027134595  0.027522773            5 
  574000    1.0398979   -6.9980266    186.41831  0.027064215  0.027503874            6 
  575000    1.0142563   -6.9668717    187.29242  0.027143829  0.027485067            3 
  576000    1.0148977   -7.0363292    186.62986  0.027000847  0.027466177            4 
  577000   0.99725993   -6.9702618    187.11549   0.02702419  0.027447206            3 
  578000     1.050168    -6.963117    187.54856  0.027039873  0.027428623            4 
  579000    1.0210492   -6.9723932    187.66342  0.027009704  0.027409941            5 
  580000    1.0199977   -6.9544751    188.10429  0.027026479  0.027391565            5 
  581000    1.0138887   -6.9553527    188.16856   0.02698918  0.027373199           10 
  582000    1.0121163   -6.9499767    188.71541  0.027021106   0.02735473            8 
  583000     1.031373    -7.011775    188.21047  0.026902582   0.02733633            4 
  584000    1.0278626     -6.96315    189.16876  0.026993259  0.027318108            6 
  585000    1.0118201   -6.9894878    188.60572  0.026866912  0.027299555            5 
  586000    1.0169837   -6.9883851    188.89998   0.02686291   0.02728094            3 
  587000    1.0126396   -6.9577609    189.57501  0.026912977  0.027262037            2 
  588000     1.013592   -6.9494151    189.73437  0.026889791  0.027243525            6 
  589000    1.0319011    -6.986419    189.45456   0.02680455  0.027224678            3 
  590000    1.0317154   -6.9628166    190.06473  0.026845301  0.027205725            5 
  591000    1.0026584   -7.0231059    188.74645  0.026613995  0.027186425            3 
  592000    1.0180882   -6.9789465    189.39484  0.026660309  0.027167445            4 
  593000    1.0031078   -6.9402345    190.27051  0.026738407  0.027149015            7 
  594000     1.033548   -6.9294827    190.94755  0.026788376  0.027130766            4 
  595000      1.02058   -6.9958292     191.0579   0.02675881  0.027112532            6 
  596000    1.0269253    -7.017416    190.97245  0.026701964   0.02709403            2 
  597000    1.0020099   -7.0165239    190.88747  0.026645375  0.027074929            2 
  598000    1.0203364   -6.9568633    191.59932  0.026700017  0.027055998            3 
  599000    1.0161963   -7.0178019    191.24363  0.026605958  0.027037146            4 
  600000   0.99575721   -7.0107584    191.62693  0.026614851  0.027017869            6 
  601000    1.0161435   -7.0081427    191.13274  0.026502044  0.026998291            3 
  602000    1.0236892   -7.0188809    191.91753  0.026566657  0.026979014            3 
  603000    1.0298302   -7.0276247    192.04324  0.026539973  0.026959935            5 
  604000    1.0478483   -7.0402342    191.18567  0.026377714  0.026940536            4 
  605000    1.0144438    -6.987861    193.58961  0.026665236  0.026921744            4 
  606000    1.0159858   -6.9909274    192.48903  0.026469888  0.026903046            3 
  607000    1.0249028   -7.0067845    192.63639  0.026446511  0.026884312            5 
  608000    1.0221812   -7.0275505    193.20901  0.026481498  0.026865083            3 
  609000     1.023909   -7.0378535    192.58184  0.026352195  0.026845877            9 
  610000     1.005606   -6.9937439    193.18897  0.026391935  0.026826967            3 
  611000   0.99889431   -7.0076046    193.99969  0.026459314  0.026808056            3 
  612000    1.0290717   -7.0076951    193.78211  0.026386453   0.02678907            4 
  613000    1.0305762   -6.9968002    194.07644   0.02638342  0.026770124            5 
  614000    1.0188951   -7.0206178    193.29792  0.026234788  0.026750651            8 
  615000   0.99485495   -7.0079242    194.23477  0.026319074  0.026731531            3 
  616000    1.0081627   -7.0083752    194.59908  0.026325634  0.026712397            4 
  617000    1.0372483   -6.9783534    194.27842  0.026239657  0.026693139            3 
  618000    1.0047763   -7.0461629    194.48373  0.026224883  0.026673139            6 
  619000    1.0035079   -6.9990577    194.65955  0.026206186  0.026653356            7 
  620000    1.0232689   -7.0027654    194.40446  0.026129631  0.026633472            6 
  621000    1.0007989    -7.029033    194.78887   0.02613914  0.026613409            3 
  622000   0.97605645   -7.0521654    195.00632  0.026126249   0.02659347            3 
  623000    1.0090106   -7.0417301    194.78494    0.0260547  0.026573078            8 
  624000   0.98788425   -7.0308533    194.88434  0.026026221  0.026552808            8 
  625000   0.99569356   -7.0374036    195.16834  0.026022445  0.026532403            4 
  626000   0.99608422   -7.0556169    195.10532  0.025972486  0.026512048            6 
  627000   0.98289691   -7.0456799    195.91225  0.026038311  0.026491544            3 
  628000    1.0145066   -7.0330626    195.86539  0.025990631  0.026471046            4 
  629000    1.0119607   -6.9868599    196.42673  0.026023678  0.026450981            5 
  630000    1.0123402   -7.0194631    196.36511  0.025974221  0.026430824            3 
  631000   0.99104786   -7.0537065    196.28293  0.025922204  0.026410158            6 
  632000    1.0056345   -7.1006709    196.18854  0.025868742  0.026389558           11 
  633000    1.0001327   -7.0403315    196.89825  0.025921307  0.026369464            3 
  634000    0.9963869   -7.0974085    196.74809  0.025860685  0.026349243            6 
  635000   0.99941503   -7.0278307    196.50254  0.025787735  0.026329183            5 
  636000    1.0151932   -7.0539377    196.92319  0.025802305  0.026308698            4 
  637000   0.99023746    -7.022101    197.29563  0.025810521  0.026288413            2 
  638000    1.0062064   -7.0146048    196.94381  0.025724113  0.026268123            6 
  639000   0.99871894   -7.0313615    197.73901   0.02578756  0.026247635            3 
  640000   0.97743985   -7.0332663    197.61949  0.025731704  0.026227227            4 
  641000    1.0060696   -7.0773281    196.99548  0.025610437  0.026206762            4 
  642000    1.0036208   -6.9904015    197.95485  0.025695074  0.026186334            6 
  643000    1.0026069   -7.0452738    197.95187  0.025654727  0.026166057            4 
  644000    1.0196976   -7.0340457    198.49129  0.025684691  0.026145699           10 
  645000    0.9543053   -7.0369769    198.57416  0.025655577  0.026125703            6 
  646000   0.97496507   -7.0760076    198.75256  0.025638875  0.026105425            7 
  647000    1.0070356   -7.0594204    198.85593  0.025612561  0.026085079            3 
  648000    0.9982553   -7.0677413    198.63908  0.025545149  0.026064783            4 
  649000   0.97779065   -7.0847464    198.84425  0.025532133  0.026044662            7 
  650000   0.98815419   -7.0568542    199.63247  0.025593907  0.026024122            6 
  651000    1.0017085   -7.0254378    198.96041  0.025468562  0.026003991            4 
  652000   0.98272793   -7.0215083    200.38854  0.025612032  0.025984304            2 
  653000   0.97948027   -7.0330101    199.77128  0.025494037  0.025964318            4 
  654000   0.96961968   -7.0389589    200.24801  0.025515801  0.025944074            2 
  655000   0.99475698   -7.0893322    199.39611  0.025368462  0.025924028            6 
  656000   0.99444024   -7.0581432       200.73  0.025499238  0.025904066            5 
  657000   0.98922453   -7.0727119    200.51406  0.025433037  0.025883929            5 
  658000   0.98337391   -7.0746155    200.55481  0.025399546  0.025863932            6 
  659000   0.98438524   -7.0912895    200.16968  0.025312302  0.025843897            5 
  660000   0.98855752   -7.0942223    200.94503  0.025371848   0.02582344            3 
  661000    1.0088952   -7.0594225    200.97765  0.025337576  0.025803191            9 
  662000   0.98304115    -7.071148    201.31876   0.02534224  0.025783104            4 
  663000   0.99482127   -7.0651051    201.60039  0.025339416  0.025763162            4 
  664000   0.99947611   -7.1024647    202.13397   0.02536822  0.025742867            5 
  665000   0.98274976   -7.0827383    201.72236  0.025278491  0.025722862            6 
  666000   0.97603019   -7.0816408    201.95928   0.02527018  0.025703023            3 
  667000   0.98552328   -7.0579412    201.86678  0.025220737  0.025683102            3 
  668000   0.95935045   -7.0948316    202.17576  0.025221526  0.025662983            3 
  669000   0.98138589   -7.1108514     201.8811  0.025147123   0.02564274            3 
  670000    1.0021157   -7.0985609    202.15541  0.025143708  0.025622578            5 
  671000   0.98327337   -7.1118498      202.525  0.025152137  0.025602336            4 
  672000   0.97913074   -7.1119452    202.78198  0.025146575  0.025581722            6 
  673000   0.98056024   -7.0822045    202.77931   0.02510888  0.025561616           11 
  674000   0.97559371   -7.0881403    202.87234  0.025083128  0.025541426            3 
  675000   0.98625876   -7.0890742    203.09961  0.025074026  0.025520863            3 
  676000   0.99578088   -7.1194854    202.97541  0.025021623  0.025500594           11 
  677000   0.99404557   -7.1065999    203.00231  0.024987975  0.025480115            3 
  678000    1.0050419    -7.107886     202.9706  0.024947223  0.025459612            4 
  679000   0.99237777   -7.0949501    202.84935    0.0248956  0.025438727            5 
  680000   0.99793692   -7.0824607      203.955  0.024994486  0.025417954            5 
  681000   0.97665601   -7.1026072    203.31053  0.024878919  0.025397286           10 
  682000   0.97015327   -7.1127469    203.41711  0.024855463  0.025376424            6 
  683000   0.98788805   -7.0860094    203.60892  0.024842474  0.025355553           12 
  684000   0.97937655   -7.1161345    203.48288  0.024790799  0.025334477            3 
  685000    1.0067248   -7.0813966    203.46617  0.024752575  0.025313283            6 
  686000   0.99472429   -7.0768147    204.05984   0.02478861  0.025292312            3 
  687000   0.97303033   -7.0613851    203.80864  0.024722057   0.02527116            4 
  688000   0.98777972   -7.0811515    204.35157  0.024751886  0.025250065            8 
  689000   0.97945154   -7.1270765    204.00812  0.024674422  0.025229031            3 
  690000   0.97505739   -7.0860425    204.18919   0.02466053  0.025208069            8 
  691000   0.99022676   -7.1370882    204.42277  0.024653011  0.025186949            7 
  692000   0.98885967   -7.1506855    204.59027  0.024637556  0.025165783            3 
  693000   0.97184683   -7.1104634     204.4058  0.024579822  0.025144368            8 
  694000   0.96196438   -7.1093425    204.72305  0.024582498  0.025123078           13 
  695000    0.9933401   -7.0861867      205.694  0.024663549  0.025102102            2 
  696000   0.97927151   -7.0932083    205.51028  0.024606116  0.025081267            5 
  697000    0.9628619   -7.1251014    205.02342  0.024512605  0.025060086            6 
  698000   0.98527877   -7.1190294    205.11095  0.024487936  0.025038701            6 
  699000   0.98380244   -7.1241618    205.40501   0.02448796   0.02501739            3 
  700000   0.97383637   -7.0977621    205.95244  0.024518148  0.024996087            3 
  701000   0.97936423   -7.1181227    205.01643  0.024371901  0.024974594            5 
  702000   0.96513525   -7.0937285    205.69099  0.024417258  0.024953418            4 
  703000   0.97044234   -7.1541266    205.31093  0.024337474  0.024932079            6 
  704000   0.96733744   -7.1601399    206.19822  0.024407934   0.02491054            4 
  705000   0.99149859      -7.1082    206.45993  0.024404247  0.024889282            5 
  706000   0.96692342   -7.0812187    206.35777  0.024357621   0.02486841            8 
  707000   0.98171842   -7.0785413    207.02216   0.02440148   0.02484767            9 
  708000   0.97775755   -7.1397038    206.31776  0.024284105  0.024826487            5 
  709000   0.98232733   -7.1367878    207.39706  0.024376712  0.024805505            7 
  710000   0.97590905   -7.1133306    206.38875  0.024224031  0.024784621            4 
  711000   0.97304024   -7.1591817    206.94041  0.024254619  0.024763374            5 
  712000   0.93740264   -7.1256568    207.64093  0.024302544  0.024742586            6 
  713000   0.98632942      -7.1298    207.41763   0.02424236   0.02472183           11 
  714000   0.98966548   -7.1518837    207.78146  0.024250871  0.024700953            7 
  715000   0.96700743   -7.0997897     208.1094  0.024255175   0.02468027            6 
  716000   0.94173165   -7.1549072    207.88186  0.024194816   0.02465972            5 
  717000   0.94448071   -7.1296895    207.68541  0.024138239  0.024638836            6 
  718000   0.97406148    -7.168248    207.65431  0.024101011  0.024618275            2 
  719000   0.96043217   -7.1543528    207.75613  0.024079291  0.024597594            5 
  720000   0.95899423   -7.1407614    207.80701  0.024051737  0.024576467            5 
  721000   0.97111993   -7.1446864    207.88709  0.024027635  0.024555536            7 
  722000   0.95640699   -7.0973949    208.87379   0.02410824    0.0245348            5 
  723000   0.96565971   -7.1260184    209.46957  0.024143565  0.024514265            2 
  724000   0.96624119   -7.1093833    209.61603  0.024127076  0.024493815            3 
  725000   0.95404376   -7.1237438    209.22068  0.024048354  0.024473376            4 
  726000    0.9789098   -7.1647312    208.94883  0.023984025  0.024452664            4 
  727000   0.98367631   -7.1486403    210.29711  0.024105584  0.024432144            4 
  728000   0.94189023   -7.0906671    210.15911  0.024056675  0.024411556            7 
  729000   0.95989826   -7.1466062    209.32843  0.023928718  0.024391079            6 
  730000   0.95010011   -7.1638132    209.90777  0.023962074  0.024370613            4 
  731000   0.97727269   -7.1467966    209.68916  0.023904373  0.024349987            6 
  732000   0.96250916   -7.1190238    210.76241  0.023993899   0.02432978            3 
  733000   0.95994104   -7.1208031    210.25218  0.023903158  0.024309649            7 
  734000   0.94427576   -7.1549309    210.83602  0.023936878  0.024289204            9 
  735000   0.95425304   -7.1457551    210.50883  0.023867214  0.024268727            8 
  736000   0.96557978   -7.1401873    210.60941  0.023846174  0.024248277           12 
  737000   0.96572893   -7.1857908    210.76838  0.023831793  0.024227981            8 
  738000    0.9688938   -7.1769261    211.31931  0.023861711   0.02420771            8 
  739000    0.9503756   -7.1446328    211.61146  0.023862366  0.024187453            6 
  740000   0.97155716   -7.1567248    211.49055  0.023816503  0.024167218            6 
  741000   0.96196761   -7.1821137     211.6126  0.023798088  0.024146935            8 
  742000   0.95108622   -7.1391993    211.58142  0.023762514  0.024126769            6 
  743000   0.96135822   -7.1614181     211.3838  0.023708367  0.024106953           10 
  744000   0.95702152   -7.1472054    212.36651  0.023786572  0.024086894            7 
  745000   0.94617377   -7.1404233    212.39193  0.023757486  0.024067047            4 
  746000   0.95133483   -7.1728515    212.23974   0.02370864  0.024047181            9 
  747000    0.9581056   -7.1537544    212.05867  0.023656701  0.024027098            5 
  748000   0.93703002    -7.218704    211.10595  0.023518934  0.024006931           11 
  749000    0.9476482   -7.1039985    213.45076  0.023748415   0.02398692            5 
  750000   0.96597901   -7.1415829    213.00463  0.023667181  0.023967121            4 
  751000   0.97205975     -7.15281    213.10644  0.023646964  0.023947134            8 
  752000   0.93984296   -7.1757081    212.81588  0.023583319  0.023927146            3 
  753000   0.96766389   -7.1924135    212.66136    0.0235349  0.023907269            3 
  754000   0.96540589   -7.1836693    212.92185  0.023532477  0.023887105            5 
  755000    0.9646412   -7.1706889    213.09413  0.023520324   0.02386688            5 
  756000   0.94431163   -7.1931024    212.60333  0.023435112  0.023846632            5 
  757000   0.95925764   -7.1986614    212.62032  0.023406024  0.023826163            4 
  758000   0.94511627   -7.2057411    212.98146  0.023414848  0.023805819            5 
  759000   0.94791227    -7.198781    212.55143  0.023336785  0.023785393            4 
  760000    0.9691004   -7.1681698    213.87254  0.023450937  0.023765234            4 
  761000   0.94921064   -7.1462762    213.97536   0.02343138  0.023745215           12 
  762000   0.96193384   -7.2135055    213.26684  0.023323145  0.023725159            5 
  763000   0.94367652   -7.2220403    212.92416  0.023255151  0.023704797            8 
  764000    0.9496545   -7.1943092    213.98342   0.02334025  0.023684447            4 
  765000   0.95393271   -7.2048788    213.37242  0.023243183   0.02366405            5 
  766000   0.98062478   -7.2126537    214.04571  0.023286087  0.023643775            6 
  767000   0.94925212   -7.2060315    214.69408  0.023326171  0.023623645            6 
  768000   0.96597336   -7.1962811    214.72021  0.023298634  0.023603609            8 
  769000   0.95117497   -7.1889224    215.29112  0.023330203  0.023583817            5 
  770000   0.92176476     -7.17219    214.80017  0.023246771  0.023563923            2 
  771000   0.95572867   -7.1540061    214.71771  0.023207708   0.02354418            6 
  772000   0.93799766   -7.2108021    214.62056  0.023167159  0.023524275            7 
  773000   0.94119387   -7.1543412    215.44778  0.023226367   0.02350427           10 
  774000    0.9546809   -7.1917317     215.3979  0.023190989  0.023484411            4 
  775000   0.95013078   -7.1996416    215.25937  0.023146169  0.023464412            5 
  776000   0.96012485   -7.1934969     215.9496  0.023190464  0.023444338            5 
  777000    0.9700299   -7.2545711    215.28804  0.023089666  0.023424373            8 
  778000   0.94453226   -7.2150961    215.63489  0.023097139  0.023404377            4 
  779000   0.95252216   -7.2278012    215.98663  0.023105117  0.023384523            5 
  780000   0.93912578   -7.1932035    215.33791  0.023006187  0.023364619            3 
  781000   0.93874657   -7.2248458    216.37575  0.023087468  0.023344957            7 
  782000   0.93831358   -7.1788042    216.86301  0.023109869  0.023325214            5 
  783000   0.92552303   -7.1877277    216.95976  0.023090651   0.02330559            5 
  784000   0.95177911   -7.2162792    216.93488  0.023058554   0.02328601            6 
  785000   0.94204834   -7.1982837    217.10124  0.023046841  0.023266486            4 
  786000   0.94554409   -7.2250959    217.24225  0.023032469   0.02324697            3 
  787000   0.92365948   -7.2209314    216.60523  0.022935751   0.02322723            8 
  788000   0.89788868   -7.1826908    217.58135  0.023009872  0.023207644            5 
  789000   0.93825446    -7.188606    217.18441  0.022938784   0.02318826           15 
  790000   0.94186276   -7.1970351    217.15567  0.022906716  0.023168942            3 
  791000   0.94484328   -7.2120911    217.94918  0.022961355  0.023149486            6 
  792000   0.94797574   -7.2686347     216.9149  0.022823537  0.023129575            7 
  793000   0.93764885   -7.2611024    217.30749  0.022836012  0.023109707            5 
  794000   0.93410405   -7.2482332    216.99513  0.022774468   0.02308976           11 
  795000    0.9193993   -7.2283289    218.20003  0.022872121  0.023069858            7 
  796000   0.94360539   -7.2278716    217.70714  0.022791786  0.023050155            6 
  797000   0.94858901   -7.2288045    218.20572   0.02281532  0.023030297            7 
  798000   0.92322762   -7.2694544    216.92669  0.022653163  0.023010499            8 
  799000    0.9156734   -7.2247092    218.03996  0.022740922  0.022990547           10 
  800000   0.90347669   -7.2296712    218.14217  0.022723142  0.022970929           10 
  801000   0.93648207   -7.2140033    218.19416  0.022700184  0.022951294            9 
  802000    0.9417749   -7.2343509    218.03332  0.022655166  0.022931468            5 
  803000   0.91892529   -7.2087459    218.25383  0.022649837  0.022911766            5 
  804000   0.93755807   -7.2460949     218.5812  0.022655597   0.02289212            6 
  805000   0.92618799   -7.2349542    218.55747  0.022624997  0.022872455            3 
  806000   0.91995663   -7.1855145    218.57454  0.022598691  0.022852667           10 
  807000   0.93618587   -7.2472792    218.22699  0.022534798  0.022833041            3 
  808000   0.94267176   -7.2632414    218.08403  0.022492165  0.022813164            6 
  809000   0.94849202   -7.2228007    218.48543   0.02250571  0.022793311           10 
  810000   0.92627851   -7.2370174    219.10473  0.022541638  0.022773541           13 
  811000   0.92113059   -7.2544961    218.48283  0.022449941  0.022753945            7 
  812000   0.92218527   -7.2556818    219.67522  0.022544666  0.022734304            3 
  813000   0.91243221   -7.2303365    219.50492  0.022499479  0.022714711            4 
  814000   0.92114106   -7.2558958    218.83916  0.022403681  0.022694921            6 
  815000   0.94913825   -7.2470877    219.42657  0.022436255  0.022675365            3 
  816000    0.9301551   -7.2147615    219.90579  0.022457699  0.022655965            5 
  817000   0.90950477   -7.2254573    219.65376  0.022404505  0.022636654            4 
  818000   0.92024352   -7.2635423    219.61152  0.022372811  0.022617313            4 
  819000   0.92520343   -7.2825424    220.08187  0.022393353  0.022597864            4 
  820000   0.91973415   -7.2598797    220.39514   0.02239788  0.022578309            3 
  821000   0.93747062   -7.2515475    219.58612  0.022288482  0.022558835            6 
  822000   0.90991985   -7.2740448    219.67198  0.022270071   0.02253913            5 
  823000   0.93296643   -7.2959346     219.8777  0.022263842  0.022519578            7 
  824000   0.92036504   -7.2301432    220.40818  0.022290471  0.022499959           10 
  825000   0.92972049   -7.2791908    220.74827  0.022297805   0.02248068           17 
  826000   0.93817521   -7.2382595    220.87298  0.022283392  0.022461296            6 
  827000   0.93522791    -7.284485    221.18941  0.022288332  0.022442071            6 
  828000   0.92125323   -7.3037339    220.28528  0.022170418  0.022422693            9 
  829000   0.92710711   -7.3192165    220.77071  0.022192471  0.022403289            6 
  830000   0.91068088    -7.267799    221.18804  0.022207634  0.022384082            4 
  831000   0.91237859   -7.2763725    221.56741  0.022218954  0.022365146            7 
  832000   0.91628836   -7.2700744    221.14241  0.022149681  0.022346092            5 
  833000    0.9215506   -7.2606145     222.0842  0.022217307  0.022327353            5 
  834000   0.91119376    -7.287122    222.33467  0.022215695  0.022308787            7 
  835000   0.94178056   -7.2776923    222.07589  0.022163263  0.022290107            5 
  836000   0.91754591   -7.2695318    222.27473  0.022156572  0.022271495           10 
  837000   0.92695703   -7.2895456    222.69662  0.022172105  0.022252973            7 
  838000   0.92464505   -7.2826842    222.51857  0.022127941  0.022234407            6 
  839000   0.92208962   -7.2431462    222.96549  0.022145957  0.022215959            6 
  840000   0.93533129    -7.279345    222.96244   0.02211929  0.022197465            5 
  841000   0.92279819   -7.3112175    222.22585  0.022020001   0.02217885           13 
  842000   0.91445001   -7.2957638     222.5856  0.022029454  0.022160306            6 
  843000    0.9295922    -7.243012    224.09482  0.022152513  0.022142089            6 
  844000   0.90818405   -7.2695135     223.8462  0.022101718  0.022123964            7 
  845000   0.89941333   -7.2828854    223.66735  0.022057924  0.022105664            3 
  846000   0.91620339   -7.2959111    223.95901   0.02206058  0.022087408            4 
  847000   0.89743837   -7.2993796    223.79291  0.022018193  0.022069096            9 
  848000   0.93149918   -7.2995831    223.12053  0.021926152  0.022050509            4 
  849000   0.93317245   -7.3070835    224.00588  0.021987228  0.022032076            4 
  850000   0.91488022   -7.3015616    223.77457  0.021938683  0.022013686            8 
  851000   0.91766003   -7.3139269      224.229  0.021957403  0.021995271            9 
  852000   0.89407486   -7.3044013    224.55493  0.021963511  0.021977115            8 
  853000   0.90637127   -7.3338885    223.77635  0.021861699     0.021959           14 
  854000   0.90912843    -7.263791    224.38481  0.021895473  0.021940876            8 
  855000   0.92066324    -7.285303    224.73504     0.021904  0.021922676            5 
  856000   0.90102065   -7.2774598    224.81315  0.021886016  0.021904418            5 
  857000   0.93277655   -7.2972049    224.98731  0.021877413   0.02188606            7 
  858000   0.91108494   -7.2958239    224.32985  0.021788058  0.021867936            6 
  859000   0.93112316   -7.3195417    224.59368  0.021788289  0.021849854            6 
  860000    0.8914871   -7.3098697    224.85522  0.021788297  0.021831804            5 
  861000   0.90323728   -7.2916148    225.13834  0.021790393  0.021813695            7 
  862000   0.92000889   -7.2804962    225.02641  0.021754294  0.021795344           12 
  863000   0.91168445    -7.323009    225.03515   0.02172993  0.021777061           12 
  864000   0.91804803   -7.3115794    224.51191  0.021654312  0.021758617            8 
  865000   0.90200275   -7.2878823     225.5854  0.021732698  0.021740465            7 
  866000   0.91975118   -7.3123861    224.53694  0.021606711  0.021722017            5 
  867000   0.91669228   -7.3703088    225.23262  0.021648656  0.021703505            8 
  868000   0.89748409   -7.3097793    224.79886  0.021582071  0.021685119            3 
  869000    0.9031932   -7.3187027    225.66721  0.021640507  0.021666727            3 
  870000   0.89202455   -7.3074867    225.28461  0.021578986  0.021648299            6 
  871000   0.91605234   -7.3140395    226.26778  0.021648276  0.021629926            5 
  872000   0.91124296   -7.3000009    226.38046  0.021634218  0.021611824            7 
  873000   0.89654895   -7.3123706    225.26565  0.021503021  0.021593481            7 
  874000   0.89599004   -7.3127358     226.1464  0.021562395   0.02157522            4 
  875000   0.91226369   -7.3202653     226.1471  0.021537819  0.021556951           15 
  876000    0.9214025   -7.3104199    226.38195  0.021535574  0.021538761            2 
  877000   0.90481553   -7.3423911    226.41985  0.021514619  0.021520851            6 
  878000   0.92435908   -7.3228408    226.56269  0.021503672  0.021502878            3 
  879000   0.90539269   -7.2767141    226.95409  0.021516315  0.021485125            3 
  880000   0.89190038   -7.2962546    227.16597  0.021511929  0.021467476            8 
  881000   0.91164717   -7.2748455    227.93087  0.021559862  0.021449827            5 
  882000   0.90644601   -7.3077289    227.42331  0.021487464  0.021432048            7 
  883000   0.88105084   -7.3067166    227.51395  0.021471683  0.021414286            4 
  884000   0.90713049   -7.3356038    227.44647  0.021441032  0.021396558           12 
  885000   0.89033891   -7.3589002    226.78687  0.021354696  0.021378807            5 
  886000    0.8799753   -7.3642667    226.92087  0.021343197   0.02136099           11 
  887000   0.89753315   -7.3392969    227.80895   0.02140257  0.021343337           15 
  888000   0.89829963   -7.3237759    227.92147  0.021389027  0.021325672            4 
  889000   0.89800711   -7.3505074    227.95518  0.021368127   0.02130795            9 
  890000   0.91354881   -7.3152088    228.44142  0.021389646  0.021290281            4 
  891000   0.91189675   -7.3452272     227.6561  0.021292191  0.021272736            4 
  892000   0.89311131   -7.3367124    228.09294  0.021309132  0.021255062            4 
  893000   0.89213617   -7.3143656    228.20629  0.021295847  0.021237456            3 
  894000   0.89931848   -7.3195373    228.33563  0.021284082  0.021219871           16 
  895000   0.90118686   -7.3232436    228.39877   0.02126618  0.021202365            7 
  896000   0.90288111   -7.3651923    228.35727  0.021238585  0.021184785            8 
  897000   0.88213957    -7.349481    228.46696  0.021225098  0.021167158            5 
  898000   0.87556423    -7.364379     229.1599  0.021265766  0.021149603           12 
  899000   0.88910635   -7.3243154      229.333  0.021258158  0.021132315            5 
  900000   0.88274388   -7.3206029    229.87334  0.021284568  0.021115164            6 
  901000   0.89129345   -7.3626453    228.82154  0.021163664  0.021097906            8 
  902000   0.87028614   -7.3895711    228.27265  0.021089491  0.021080633           10 
  903000   0.90058931   -7.3885247    229.28882  0.021159913  0.021063141            6 
  904000   0.88483939   -7.3497956    228.84516  0.021095609  0.021045574            8 
  905000   0.90762605   -7.3797464    229.37168  0.021120781  0.021028177            7 
  906000   0.87344478   -7.3705163     229.2627  0.021087445  0.021010885           11 
  907000    0.8860274    -7.388378    228.58807  0.021002211  0.020993568           15 
  908000   0.90418855   -7.3919274    229.19087  0.021034405  0.020976179           24 
  909000   0.88042171   -7.3495467    230.15809  0.021099935  0.020958576            6 
  910000   0.88376134   -7.3785814    229.90256  0.021053348  0.020941165            7 
  911000   0.89263692   -7.3582726    229.62168  0.021004545  0.020923709           13 
  912000   0.88572207   -7.3206009    230.59589  0.021070531  0.020906343            5 
  913000   0.89795467   -7.3656425    229.75734  0.020970915  0.020889033            6 
  914000   0.89153096   -7.3415699    230.15033  0.020983801  0.020871503           18 
  915000   0.89850044   -7.3507918    229.80499  0.020929417  0.020854052            4 
  916000   0.86386714   -7.3921018    229.32399  0.020862809  0.020836726            9 
  917000   0.87919666   -7.3408086    230.65864  0.020961345   0.02081927            3 
  918000   0.88466252   -7.3852342    229.66679  0.020848474  0.020801747            6 
  919000   0.88614502   -7.4322068    229.66132  0.020825292  0.020784207            8 
  920000   0.86995683   -7.4295099    229.56802  0.020794205  0.020766574            8 
  921000   0.89120238   -7.3918611    229.76655   0.02078959  0.020749028           15 
  922000   0.89902763   -7.3932982    230.60986  0.020843263  0.020731318            9 
  923000   0.88737832   -7.3723814    230.68798  0.020827733  0.020713761            7 
  924000   0.87175796   -7.4096581    229.67912  0.020714206  0.020696344           10 
  925000   0.88611872   -7.3637927    230.86403  0.020798561  0.020679033            6 
  926000    0.8693476   -7.3648264    230.93497  0.020782484  0.020661886            8 
  927000   0.88594147   -7.3685437     231.3821  0.020800261  0.020644597           28 
  928000   0.89160419   -7.4090543    230.65192  0.020712277  0.020627128            9 
  929000   0.88650756   -7.3731265    230.57839  0.020683387  0.020609648           11 
  930000   0.88630497   -7.3538304    230.77162  0.020678461  0.020592348            5 
  931000   0.88260957    -7.337035    230.99389  0.020676145  0.020575218            6 
  932000   0.88108625   -7.3777297    231.74734  0.020721329  0.020558183            9 
  933000    0.8854087   -7.3614346    231.61384  0.020687196  0.020541276           26 
  934000   0.86230546   -7.3661657    231.92721  0.020693006  0.020524245            5 
  935000   0.86222153   -7.3641998     231.6693  0.020647887  0.020507195           10 
  936000   0.89061441   -7.3761922    231.54663  0.020614907  0.020490065            7 
  937000   0.89440389   -7.4053349    231.70803   0.02060726  0.020472916            4 
  938000    0.8810518   -7.3679027    232.19565  0.020628611  0.020455846           10 
  939000   0.88129664    -7.407178    231.09234  0.020508727  0.020438777            9 
  940000   0.86211372   -7.3812917    231.37468   0.02051194  0.020421632            8 
  941000   0.87046846    -7.395099    231.82435  0.020529964  0.020404599           10 
  942000   0.86549199   -7.3825016    232.21351  0.020542596  0.020387698            9 
  943000   0.87222565   -7.3814398    231.79028  0.020483411  0.020370537           12 
  944000   0.86151877   -7.3962946     232.5223  0.020526333   0.02035347            6 
  945000   0.86971634   -7.4128338    232.24413  0.020480082  0.020336394           12 
  946000   0.87648578   -7.4285715    231.87256  0.020425702  0.020319255            9 
  947000   0.87560534   -7.4390663    231.99622  0.020415014  0.020302173           22 
  948000   0.88360713   -7.4322999    232.09422  0.020402094  0.020285031            6 
  949000   0.87484306    -7.407088    232.58592  0.020423772  0.020267937            3 
  950000   0.86161739   -7.4794293    231.20652  0.020281274  0.020250686           10 
  951000    0.8900345   -7.4500777    232.22083  0.020348829  0.020233436            5 
  952000   0.88354345   -7.4359073    232.15099   0.02032134  0.020216163            8 
  953000   0.86921593   -7.4088429    232.80839  0.020357502  0.020199174            6 
  954000   0.88336753   -7.4052496    232.88462  0.020342821  0.020182135            7 
  955000   0.85986636   -7.4003037    232.18854   0.02026078  0.020164988            4 
  956000    0.8714171   -7.4199945     232.8664  0.020298675  0.020147907            7 
  957000   0.88344386   -7.4281605    233.18049  0.020304814  0.020130751            8 
  958000   0.87792377   -7.4029203    233.39609  0.020302374  0.020113696            7 
  959000   0.85455196   -7.4048522    233.72144  0.020309475  0.020096608            6 
  960000   0.86978158    -7.453191    233.02414   0.02022779  0.020079613            5 
  961000   0.86688911   -7.4235185    233.11333  0.020214476  0.020062563            5 
  962000   0.86291489   -7.4138801      233.218   0.02020253  0.020045548           10 
  963000   0.85407484   -7.4489764    232.56854   0.02012535  0.020028542            7 
  964000   0.86359541   -7.4121241    233.18428    0.0201577  0.020011398            5 
  965000   0.87001429   -7.4114392    233.30519  0.020147253  0.019994131            3 
  966000   0.88012195   -7.4227187      233.013   0.02010119  0.019976833           16 
  967000   0.87176049   -7.4142767    233.05428   0.02008396  0.019959592            7 
  968000   0.88480418   -7.4462993    232.80517  0.020041767  0.019942306           11 
  969000   0.86882485   -7.3938818    233.06732  0.020043629  0.019924941            9 
  970000   0.86976078   -7.4137658    232.76696  0.019997161  0.019907776            4 
  971000   0.87189427   -7.4231756    233.38536  0.020029639  0.019890519            4 
  972000   0.86450177   -7.4566841    232.65067  0.019946045  0.019873229            7 
  973000   0.87875617   -7.4393091    233.49515  0.019997872   0.01985601            7 
  974000   0.85187544   -7.4639583    233.21882  0.019953698  0.019838762            9 
  975000   0.85653019   -7.4780359    232.68881  0.019887932  0.019821417           24 
  976000   0.86700772   -7.4610342    232.60059  0.019860023  0.019804106            9 
  977000   0.86981275   -7.3921646    233.72745  0.019935811  0.019786762            7 
  978000   0.86730487   -7.4491083    233.46795  0.019893315  0.019769665           12 
  979000   0.87454332   -7.4437889    233.91348   0.01991092    0.0197526            9 
  980000   0.87350448   -7.4550297    233.63737  0.019867123  0.019735466            6 
  981000   0.89161162   -7.4346528     233.7193  0.019853831  0.019718344            6 
  982000   0.86257972   -7.4129541    233.93598  0.019852001  0.019701348           15 
  983000   0.83677302   -7.4332664    234.08733  0.019844637   0.01968442            8 
  984000   0.87090925   -7.4364047    234.23422  0.019836909  0.019667597           11 
  985000   0.83393292   -7.4227145    234.52733  0.019841568  0.019650673            8 
  986000   0.85661668   -7.4554168     233.8557  0.019764681  0.019633779            9 
  987000   0.85261915    -7.435362    234.08558  0.019764064  0.019616816            5 
  988000   0.85110083   -7.4745298    234.12829  0.019747663  0.019599955            5 
  989000   0.85967012   -7.4718616    233.99159  0.019716177  0.019583007            7 
  990000   0.86786934   -7.4852701    234.51656  0.019740451  0.019566067           11 
  991000    0.8642593   -7.4916304    234.05643  0.019681839  0.019549201            8 
  992000   0.87185535   -7.4701259    234.58243  0.019706185   0.01953219           12 
  993000   0.85382836   -7.4949783    234.40624  0.019671554  0.019515206           12 
  994000   0.85845469   -7.4714663    234.69444  0.019675925  0.019498261            9 
  995000   0.86255323   -7.4679858    235.05479   0.01968633  0.019481437            7 
  996000   0.84609819   -7.4993725    234.54231  0.019623688  0.019464585            9 
  997000   0.86135699   -7.5039259    234.52234  0.019602335  0.019447654            5 
  998000    0.8621913   -7.4954358    234.20625    0.0195563  0.019430698            5 
  999000   0.86299273   -7.4878536    234.77574  0.019584229  0.019413728            3 
 1000000   0.85682256   -7.5125138    233.96663  0.019497219  0.019396768            6 
 1001000   0.85944699   -7.4487094    235.79521  0.019629971  0.019379945            5 
 1002000   0.87118176   -7.5116435    234.67851  0.019517507  0.019363117            8 
 1003000   0.84528833     -7.48033    235.11869  0.019534621  0.019346226            8 
 1004000   0.88132655   -7.4802664    235.08217  0.019512132  0.019329366           16 
 1005000   0.84045842    -7.479096    235.46364  0.019524348  0.019312455            5 
 1006000   0.84796912   -7.5035624     235.0101  0.019467371  0.019295642           10 
 1007000   0.85991879   -7.4538739    235.30073   0.01947209  0.019278789           10 
 1008000   0.85565956   -7.4956572    235.31584  0.019454021  0.019261982           10 
 1009000   0.85126098   -7.5066716     234.9813  0.019407111  0.019245122            6 
 1010000   0.84687415   -7.4957613    235.27586    0.0194122  0.019228334            9 
 1011000   0.86038861   -7.5280158    234.80001  0.019353776  0.019211578           22 
 1012000   0.87143582   -7.4671875    235.68528  0.019407549  0.019194848            5 
 1013000   0.84339863   -7.4871621    236.37316  0.019444979  0.019178331           12 
 1014000   0.85389293   -7.4940357    235.92622  0.019389072  0.019161866            8 
 1015000   0.85094398   -7.4811765    236.18376  0.019391114  0.019145277            6 
 1016000   0.84292579   -7.4676912    236.69329   0.01941382  0.019128709           11 
 1017000   0.83916667   -7.4608805     236.3777  0.019368871  0.019112243           12 
 1018000   0.86689315   -7.5110128    235.38231  0.019268362  0.019095831           17 
 1019000   0.84427416   -7.5291082    235.72523  0.019277497   0.01907919            6 
 1020000   0.86472345   -7.4602608    236.34377  0.019309132  0.019062676            6 
 1021000   0.83963846   -7.4796811    236.78195  0.019325984  0.019046275           12 
 1022000   0.85460212   -7.4895911    236.55193  0.019288318  0.019029837           11 
 1023000    0.8492118   -7.5025112    237.44769  0.019342431  0.019013471            8 
 1024000   0.85039903   -7.4918942    236.67974  0.019261046  0.018997158           15 
 1025000   0.84940719    -7.544212    235.98057  0.019185412  0.018980663            7 
 1026000    0.8426072   -7.5191594    236.53398  0.019211662  0.018964083           12 
 1027000   0.82326978     -7.52525    236.76657  0.019211828  0.018947604            8 
 1028000   0.83808016   -7.5081345    236.80092  0.019195924  0.018931184           10 
 1029000   0.84452067   -7.5105622    236.32456  0.019138691  0.018914883            8 
 1030000   0.84509835   -7.4844921    237.43534  0.019209979  0.018898591           10 
 1031000    0.8436121   -7.5205224    236.55218  0.019119963  0.018882282            6 
 1032000   0.85526396   -7.5371184    236.32003   0.01908269  0.018865903            7 
 1033000   0.85259318   -7.5484548    236.55916  0.019083508  0.018849497            5 
 1034000   0.84741696   -7.5219146    237.02598  0.019102674  0.018833121            9 
 1035000   0.85205998    -7.538473    236.25584   0.01902221  0.018816766           11 
 1036000   0.85262735   -7.5426916    236.72163  0.019041316  0.018800434           32 
 1037000   0.85999402   -7.5474473    236.85315  0.019033522  0.018784122           14 
 1038000    0.8318675    -7.512881    236.97353   0.01902485  0.018767773            9 
 1039000   0.82225762   -7.5245423    238.23614  0.019107807  0.018751455            7 
 1040000   0.84817016    -7.537453    237.76943  0.019052038  0.018735143            6 
 1041000   0.83776611   -7.5382422     237.6575  0.019024776  0.018718826            9 
 1042000   0.84868471   -7.5475058    236.99499  0.018953534  0.018702549            7 
 1043000    0.8267102   -7.5364366    237.30053  0.018959774  0.018686304            8 
 1044000    0.8289367   -7.5473653    236.50524  0.018878132  0.018670025           16 
 1045000   0.81544257   -7.5382934    237.72414  0.018957268  0.018653762           24 
 1046000   0.82447584   -7.5298807    237.87515  0.018951175  0.018637644           12 
 1047000   0.85475302   -7.5112181    237.69352  0.018918618  0.018621506           10 
 1048000   0.81929345   -7.5736393     237.5594  0.018889901  0.018605422            9 
 1049000   0.83497921     -7.54981    237.65742   0.01887968  0.018589242           17 
 1050000   0.82907389   -7.5714553    237.57675  0.018855297  0.018573087           26 
 1051000   0.83740319   -7.5588593    237.74846  0.018850972  0.018556857            9 
 1052000   0.82868161   -7.5501191    237.40208  0.018805614  0.018540755           17 
 1053000    0.8416314   -7.5751787    237.70941  0.018812077  0.018524673           13 
 1054000   0.84684803   -7.5998081    237.71276  0.018794494  0.018508489            6 
 1055000   0.84489776   -7.5516322    238.48894  0.018837989  0.018492352            9 
 1056000   0.83645097   -7.5486845    238.33023  0.018807626  0.018476195           14 
 1057000   0.83956667   -7.5510375    237.76219  0.018745048  0.018460086           12 
 1058000   0.83936345   -7.5448845     238.1826  0.018760444  0.018444002           35 
 1059000    0.8345598   -7.5910145    238.01778  0.018729759  0.018427889           11 
 1060000   0.84894914   -7.5656129    237.87277   0.01870069  0.018411765            9 
 1061000   0.84457202   -7.5801586    238.57273   0.01873804  0.018395662            7 
 1062000   0.83659968   -7.5766341    238.24677  0.018694819  0.018379604            7 
 1063000   0.84579138   -7.5636601    238.45359  0.018693445  0.018363609            9 
 1064000   0.82792824   -7.5590946    238.67691  0.018693367  0.018347705            7 
 1065000   0.82200467   -7.6018986    237.92933  0.018617319  0.018331744           10 
 1066000   0.82791505   -7.5408228    238.57214  0.018650105  0.018315894            6 
 1067000   0.82364959   -7.5629854    238.80539  0.018650843  0.018300015           11 
 1068000   0.84785993   -7.5289096    238.87985  0.018639189  0.018284191           10 
 1069000   0.83280819   -7.5689557    238.43336  0.018586947  0.018268253            9 
 1070000   0.82084318   -7.5902998    238.59798  0.018582397   0.01825233           14 
 1071000   0.82250882   -7.5962545    238.28061  0.018540352  0.018236359           27 
 1072000   0.82609111   -7.5916071    238.68112  0.018554191  0.018220476            9 
 1073000   0.82176113   -7.5552496    239.28237  0.018583595  0.018204601           16 
 1074000   0.81917736   -7.5931574    238.30878   0.01849075   0.01818883           25 
 1075000   0.81335301   -7.5740525    238.94161  0.018522606  0.018172995           19 
 1076000   0.82238266   -7.5706617    239.21145  0.018526289  0.018157188           18 
 1077000   0.81285228   -7.5512749    238.95028   0.01848888  0.018141524           14 
 1078000   0.81749332   -7.5732966    239.15414  0.018487487  0.018125911            7 
 1079000   0.83368088    -7.604521    238.55073  0.018423751   0.01811021           22 
 1080000   0.82003695   -7.6030984    238.85749  0.018430362   0.01809433           14 
 1081000   0.81406517   -7.5936687    239.12433  0.018433883  0.018078466           17 
 1082000   0.83194244   -7.6061764    239.70427  0.018461512  0.018062725           13 
 1083000   0.81805974   -7.5748579    239.53358  0.018431331  0.018047108           16 
 1084000    0.8142945   -7.5645227    239.08442  0.018379799  0.018031553           13 
 1085000    0.8148274   -7.5680686    239.29741  0.018379217  0.018015883           12 
 1086000   0.83083283   -7.5733675    239.09553  0.018346802  0.018000257           17 
 1087000   0.82965072   -7.5768603    239.33177  0.018348035  0.017984624           48 
 1088000   0.80278882   -7.5759916    239.11142  0.018314294  0.017968903           27 
 1089000   0.82481542   -7.6075854    238.51898  0.018252141  0.017953112           22 
 1090000   0.80802454   -7.6098969    239.48153  0.018308986  0.017937284           32 
 1091000   0.81713103   -7.5916609    239.83539  0.018319232  0.017921535           13 
 1092000   0.82093134   -7.6020379    239.55817  0.018281301  0.017905872           18 
 1093000   0.81787091   -7.5781306    239.37149  0.018250342  0.017890162           18 
 1094000   0.82744355   -7.5962985     239.2167  0.018221869  0.017874392           26 
 1095000    0.8091043   -7.5924838    240.23394  0.018282644  0.017858681           11 
 1096000   0.82404143    -7.597287     239.3375  0.018197803  0.017842994           14 
 1097000    0.8104673   -7.6026995     239.3358  0.018181085   0.01782724           16 
 1098000   0.79571738   -7.5845954    239.68773  0.018191236   0.01781156           16 
 1099000   0.82352191   -7.6125457    239.18466  0.018136538  0.017795888            9 
 1100000   0.80174566   -7.6064572    239.77601  0.018164849  0.017780167           11 
 1101000    0.7988769    -7.626897    239.42061  0.018121451   0.01776441           16 
 1102000   0.81311818   -7.6054577    239.75305  0.018130146  0.017748694           10 
 1103000   0.80022144   -7.6229225     239.7418  0.018112859  0.017733012           10 
 1104000   0.82591419   -7.6237331    239.86392   0.01810567  0.017717331           19 
 1105000   0.80181588   -7.6498219     239.2827  0.018045453   0.01770161           13 
 1106000     0.814647   -7.6026444    239.74749  0.018064157  0.017685943           27 
 1107000   0.82335409   -7.6345678    239.95969  0.018063813  0.017670246           14 
 1108000   0.83217121   -7.6197941    239.82913   0.01803769  0.017654574            9 
 1109000   0.79571123     -7.59886    240.30181  0.018056944  0.017638927           24 
 1110000    0.8086777   -7.6382338    240.17722  0.018031323  0.017623348           11 
 1111000   0.77946618   -7.6509508    239.32114  0.017950881  0.017607741           15 
 1112000   0.81389226   -7.6423472    240.27541  0.018006251  0.017592142           19 
 1113000   0.80121983   -7.6379208    239.58948  0.017938715  0.017576559           11 
 1114000   0.81053465   -7.6387004    240.43336  0.017985739  0.017561094           22 
 1115000   0.82398169   -7.6396977     240.2246  0.017954006  0.017545601           25 
 1116000   0.81623617   -7.6434603    240.29832  0.017943423  0.017530083           35 
 1117000   0.80695904    -7.647928     240.0063  0.017905573  0.017514555            8 
 1118000   0.80627918   -7.6199237    239.95447  0.017885694  0.017499049           21 
 1119000   0.81493059   -7.6607552    239.54967  0.017839564  0.017483494           12 
 1120000   0.81527591   -7.6344409    240.28197  0.017878123  0.017467893            8 
 1121000   0.80156862   -7.6452238    239.61553  0.017812632  0.017452308            8 
 1122000   0.81753969   -7.6493593    239.70304  0.017803256   0.01743667           20 
 1123000   0.81490499   -7.6613586    239.63787  0.017782566  0.017421147           17 
 1124000   0.79994038   -7.6401697    240.44469  0.017826564  0.017405591           14 
 1125000   0.80677095   -7.6619148    239.60028  0.017748169  0.017389957           16 
 1126000   0.82349572   -7.6464579    239.82924  0.017749351  0.017374323           25 
 1127000    0.7888803   -7.6172154    240.34303  0.017771593  0.017358738           12 
 1128000   0.80804292   -7.6473247    239.74566  0.017711707  0.017343233           12 
 1129000   0.79684895   -7.6433511    240.62554  0.017760964   0.01732783           15 
 1130000   0.79079587   -7.6783641    239.97095  0.017696973  0.017312412           22 
 1131000   0.80011208   -7.6601394    240.59648  0.017727416  0.017297009           14 
 1132000   0.80262143   -7.6479072    240.77963  0.017725238  0.017281652           21 
 1133000   0.79760186   -7.6865155     240.6327  0.017698786  0.017266334           12 
 1134000    0.8032831   -7.6882703     239.9521  0.017633165  0.017251023           10 
 1135000   0.81182755   -7.6779288    240.23047  0.017638067   0.01723559           18 
 1136000   0.78654034   -7.6671458    239.79564  0.017590643   0.01722013           13 
 1137000   0.80031026   -7.6794483     240.0926  0.017596937  0.017204776           38 
 1138000   0.78851659   -7.6674324    241.17226  0.017660534  0.017189497            8 
 1139000   0.80027108   -7.6662828    240.63617  0.017605807  0.017174219           17 
 1140000   0.79069507   -7.6623272    240.20378  0.017558756  0.017158979           21 
 1141000   0.78245074   -7.6240178    241.85539  0.017663993  0.017143771           36 
 1142000   0.79991472   -7.6611991     241.3819  0.017613974  0.017128563           31 
 1143000   0.78999553   -7.6637446    241.16671  0.017582875  0.017113328           28 
 1144000   0.78444317   -7.6669658    240.12117  0.017491344  0.017098163           31 
 1145000   0.80335466   -7.6743527    240.95695  0.017536896  0.017082975           22 
 1146000   0.78698036   -7.6754457    241.20589  0.017539695  0.017067811           24 
 1147000   0.80452243   -7.6738253    240.91922  0.017503576  0.017052597           42 
 1148000   0.77918723   -7.6625041    241.69226  0.017544444  0.017037427           37 
 1149000   0.78833824   -7.6687597    240.63711  0.017452648  0.017022265           25 
 1150000   0.80119589   -7.6611246     241.8816  0.017527652   0.01700713           23 
 1151000   0.80490874   -7.6530495    240.62247  0.017421262  0.016992006           18 
 1152000   0.78629212   -7.6893676    241.07451  0.017438839  0.016976813           37 
 1153000   0.77722745   -7.6973995    240.98983  0.017417594  0.016961612           51 
 1154000   0.80437852   -7.7072028    240.80567  0.017389202  0.016946459           31 
 1155000   0.80366411    -7.675851    240.79438  0.017373332  0.016931243           38 
 1156000   0.82443051   -7.6903961    241.09319  0.017379844  0.016916194           27 
 1157000   0.79429551   -7.7066027    240.91645  0.017352093  0.016901063           38 
 1158000   0.78948516     -7.69568    241.04093  0.017346066  0.016885989           21 
 1159000   0.78145825   -7.7051192    240.99467  0.017327773  0.016870936           19 
 1160000   0.78888315   -7.7288252    240.54167  0.017280292  0.016855836           25 
 1161000   0.77001583   -7.6785506    241.06558  0.017303013  0.016840761           17 
 1162000    0.7879354   -7.7287982    241.15665  0.017294654  0.016825726           31 
 1163000    0.8118523   -7.6886926    241.63471  0.017314038  0.016810737           15 
 1164000   0.77676652   -7.7152213    241.86344  0.017315539  0.016795755           19 
 1165000   0.79422149   -7.7117434    240.90519  0.017232131  0.016780775           37 
 1166000   0.77811802   -7.7080082    240.87357  0.017215092   0.01676577           32 
 1167000   0.77340588   -7.7284085    241.13078  0.017218708   0.01675077           27 
 1168000   0.78989383   -7.7170853    240.60926  0.017166757  0.016735731           31 
 1169000   0.79247462   -7.6548361     241.7964  0.017236698  0.016720743           32 
 1170000   0.78946734   -7.7458283    240.88749  0.017157228   0.01670573           30 
 1171000   0.78836054   -7.7387995    241.31019  0.017172658  0.016690764           18 
 1172000   0.79343772   -7.7362983    241.29034  0.017156594  0.016675776           22 
 1173000   0.77988425   -7.7278206    241.83814  0.017180885  0.016660827           20 
 1174000   0.78732892   -7.7234202    241.80566  0.017163945  0.016645904           26 
 1175000   0.79660539   -7.7552677    240.79671  0.017077781  0.016630976           24 
 1176000   0.75449098   -7.7205639    241.73922  0.017130047  0.016616051           17 
 1177000   0.79253501   -7.7029462    241.71951  0.017114097  0.016601199           11 
 1178000   0.76348448    -7.701341    241.62886  0.017093156  0.016586426           22 
 1179000   0.78288428   -7.7065256    240.95525  0.017031047  0.016571616           10 
 1180000   0.77900522   -7.7199815    241.83932  0.017079048  0.016556831           25 
 1181000   0.79260996   -7.7151293    242.05217  0.017079605  0.016541993           12 
 1182000   0.77923925   -7.7327194    240.58831   0.01696195  0.016527117           12 
 1183000   0.77993348   -7.7415788    241.44695  0.017008098  0.016512222           23 
 1184000   0.77311552   -7.7097089    241.28008  0.016981987  0.016497375           33 
 1185000   0.76895262   -7.7014319    241.68344  0.016996022  0.016482498           26 
 1186000   0.79402974   -7.7050732    242.08517  0.017009919  0.016467632           18 
 1187000   0.79130905   -7.7171277    241.02858  0.016921411  0.016452748           12 
 1188000   0.78566765   -7.7212989    241.42144  0.016934725  0.016437896           18 
 1189000    0.7922151   -7.7219328    241.58015  0.016931606  0.016423024           11 
 1190000   0.77966978   -7.7453709     241.4486  0.016908165  0.016408143           15 
 1191000   0.78017759   -7.7193119    241.67941  0.016910118  0.016393323           25 
 1192000   0.78048563   -7.7115917    241.17103  0.016860391  0.016378522           11 
 1193000   0.77516438   -7.7208596    241.47162  0.016867254  0.016363727           13 
 1194000   0.76902623   -7.7568636     241.3373  0.016843753   0.01634897           12 
 1195000   0.77935843   -7.7525992    241.38492  0.016832979  0.016334166           11 
 1196000   0.78200606   -7.7512976    241.51809  0.016828183  0.016319403           14 
 1197000   0.77072591   -7.7785395    241.64914  0.016823248  0.016304603            9 
 1198000   0.77859636   -7.7579305    241.59748  0.016805612  0.016289838            7 
 1199000   0.76615568   -7.7201707    242.01054  0.016820304  0.016275092            6 
 1200000   0.78309104   -7.7192549    241.52262  0.016772404  0.016260351            9 
 1201000   0.78222555   -7.7477163    241.69919   0.01677069  0.016245581            8 
 1202000   0.77152143   -7.7055316     242.2909  0.016797761  0.016230945           10 
 1203000   0.77560329   -7.7406989    241.92896  0.016758726  0.016216276            6 
 1204000   0.77794054   -7.7408127    241.92837  0.016744765  0.016201652           15 
 1205000   0.77606901   -7.7439959    241.63482  0.016710568  0.016186995           21 
 1206000   0.77676634   -7.7130991    241.94767   0.01671833  0.016172369           10 
 1207000   0.76585876   -7.7357896      241.909  0.016701809  0.016157752           21 
 1208000   0.75972287   -7.7410316    241.86596  0.016685014  0.016143197           12 
 1209000     0.761411   -7.7250632    242.33469  0.016703522  0.016128657           29 
 1210000   0.76643147   -7.7518959    241.98113  0.016665367  0.016114147           20 
 1211000    0.7892264   -7.7360818    242.35354  0.016677232  0.016099642           16 
 1212000   0.77052867   -7.7518602    242.21049  0.016653637  0.016085165           29 
 1213000   0.78208514   -7.7569158    242.10802  0.016632868  0.016070661           10 
 1214000   0.77284987   -7.7553201    241.78691  0.016597124  0.016056192           13 
 1215000   0.77370384   -7.7534828    242.22465  0.016613488  0.016041688           25 
 1216000   0.76022495   -7.7314095    242.20931  0.016598774  0.016027208           17 
 1217000   0.75725339   -7.7440874    242.09506  0.016577312  0.016012789           11 
 1218000   0.76488247   -7.7802721    242.14588  0.016567178  0.015998356           13 
 1219000   0.77122283   -7.7482381    242.29045  0.016563471  0.015983917           28 
 1220000   0.77921762   -7.7444899    242.35268  0.016554145  0.015969545           36 
 1221000   0.75584364   -7.7794596    242.37759  0.016542287   0.01595519           19 
 1222000   0.75715887   -7.7106464    242.94379  0.016567361  0.015940848           20 
 1223000   0.76751753   -7.7431132    242.23979  0.016505846  0.015926519           20 
 1224000   0.77307387   -7.7565001    242.14151  0.016485669  0.015912133           21 
 1225000   0.77470901   -7.7518277    242.33722  0.016485525  0.015897748           44 
 1226000   0.76166897   -7.7737413    242.15674  0.016459811  0.015883369           29 
 1227000   0.76239208    -7.761111    241.99468   0.01643539  0.015868967           21 
 1228000   0.78739081   -7.7703138    242.03227  0.016424557  0.015854577           19 
 1229000   0.74756162   -7.7276644     242.4892  0.016442175  0.015840209           24 
 1230000   0.77452618   -7.7907071    241.90131  0.016388978  0.015825896           38 
 1231000   0.76296997   -7.7549473    242.08238  0.016387922  0.015811573           52 
 1232000   0.77031952   -7.7355714    242.98283  0.016435527   0.01579723           37 
 1233000   0.75894299   -7.7886405     242.0951  0.016362199  0.015782905           25 
 1234000   0.75968249   -7.7849842    241.90234  0.016335923  0.015768578           16 
 1235000   0.76965975   -7.7570864    241.69863  0.016308949  0.015754214           19 
 1236000   0.78566951   -7.7947477    242.50244  0.016349949    0.0157399           19 
 1237000   0.75829398   -7.7288842    242.95536  0.016367243   0.01572567            8 
 1238000   0.75244761   -7.7464668     242.6265  0.016331886  0.015711443           15 
 1239000   0.75670261   -7.7652848     242.6407  0.016319659  0.015697193           25 
 1240000   0.76001175   -7.7657011    242.40142  0.016290418  0.015682962           42 
 1241000   0.74237196   -7.7504029    242.32281  0.016272013  0.015668691           21 
 1242000   0.76044051   -7.7646257    242.50636  0.016271227  0.015654386           27 
 1243000   0.76302039    -7.810418    242.15944  0.016234878    0.0156401           21 
 1244000   0.78248421   -7.7936008     242.1881  0.016223747  0.015625781            9 
 1245000   0.74892112    -7.754203    242.22445  0.016213149  0.015611514           15 
 1246000   0.75305106   -7.7518496     242.6024  0.016225415  0.015597248           19 
 1247000   0.76020323   -7.7971658    241.57804  0.016143948  0.015582952           34 
 1248000    0.7416025   -7.7880417    241.63455  0.016134786  0.015568673           47 
 1249000   0.74496954   -7.7547757    242.49147  0.016179041  0.015554383           35 
 1250000   0.75439338   -7.7739242    242.55557  0.016170371   0.01554011           52 
 1251000   0.75270151   -7.8033165    241.73125  0.016102535  0.015525821           45 
 1252000   0.75979132   -7.7914373    241.76609  0.016091992  0.015511528           61 
 1253000   0.74469632   -7.7773818    241.87693  0.016086521  0.015497261           38 
 1254000   0.75762236   -7.8100373    241.82971  0.016070555     0.015483           25 
 1255000   0.74306212   -7.8011917    241.84236   0.01605859  0.015468782           52 
 1256000   0.75135425   -7.8169734    241.87194  0.016047766  0.015454516           36 
 1257000   0.75696118   -7.8228918    242.21395  0.016057674  0.015440268           32 
 1258000   0.75008178   -7.8012025    242.04708  0.016033856  0.015426091           26 
 1259000   0.75225616   -7.8086302    242.02908  0.016019929  0.015411855           25 
 1260000   0.76377672   -7.8208307    241.65708  0.015982611  0.015397635           47 
 1261000   0.73297505   -7.8383514    241.73405  0.015975023  0.015383349           38 
 1262000   0.75040744   -7.8272411    241.70258  0.015960287  0.015369103           42 
 1263000   0.74837261   -7.8186272    242.32879  0.015988968  0.015354872           39 
 1264000   0.75709499   -7.8319299    241.16397  0.015899523  0.015340629           71 
 1265000   0.75327815   -7.8319144    242.11266  0.015949451  0.015326384           55 
 1266000   0.75525514   -7.8416967    241.44083  0.015892629  0.015312164           44 
 1267000   0.74909517   -7.8392984    241.75457  0.015900722  0.015297987           77 
 1268000   0.73246911   -7.8272481    241.51981  0.015872753  0.015283814           45 
 1269000   0.74524584   -7.8378224    242.03109   0.01589382  0.015269585           36 
 1270000   0.74855644   -7.8359485    241.21977  0.015828069  0.015255376           58 
 1271000   0.75022239   -7.8541886    241.64365  0.015843407  0.015241125           60 
 1272000   0.76863301   -7.8477588    242.23337  0.015869586  0.015226876           66 
 1273000   0.76163345   -7.8587053    241.31924  0.015797279  0.015212701           59 
 1274000   0.74761791   -7.8305085    242.03197    0.0158315  0.015198556           70 
 1275000   0.75255771   -7.8285597    241.72328  0.015798907  0.015184405           43 
 1276000   0.74544255   -7.8406528    241.97148  0.015802735  0.015170281           45 
 1277000   0.74367536   -7.8726921    241.28562  0.015745603  0.015156131           63 
 1278000   0.74401603   -7.8346147    242.55118  0.015815805  0.015142043           42 
 1279000   0.75098156   -7.8415055     242.4168  0.015794684  0.015127959           30 
 1280000   0.74244193   -7.8826234    241.70013  0.015735686  0.015113873           55 
 1281000   0.73253184   -7.8650575    242.04455  0.015745807  0.015099778           55 
 1282000   0.74592199   -7.8286071    242.13803  0.015739602  0.015085742           35 
 1283000   0.74417307   -7.8532872    242.21352  0.015732237  0.015071705           55 
 1284000   0.73868102   -7.8431232    241.97758  0.015704672  0.015057646           56 
 1285000   0.73950501   -7.8524295    241.84611  0.015683924  0.015043605           82 
 1286000   0.74108021   -7.8634514    241.37788  0.015641387  0.015029555           58 
 1287000   0.74827595   -7.8638585    241.59124  0.015643048  0.015015492           38 
 1288000   0.72833914   -7.8777355    241.44591    0.0156215  0.015001426           61 
 1289000   0.73091987   -7.8627193    242.05327  0.015648647  0.014987356           20 
 1290000   0.72429043   -7.8790113    241.91868  0.015627822  0.014973266           36 
 1291000   0.74839199   -7.8716939    242.02665  0.015622686  0.014959202           29 
 1292000   0.73227599    -7.891703    241.39842  0.015570073  0.014945172           24 
 1293000   0.73465131   -7.8735595    241.46127  0.015562083    0.0149311           63 
 1294000   0.70930773   -7.8807346    241.49928  0.015552504  0.014917109           57 
 1295000   0.73872458   -7.8922836    241.66175  0.015550949  0.014903104           98 
 1296000   0.72846374   -7.8923596    241.27136  0.015513847   0.01488913           74 
 1297000   0.72699005   -7.8612575     241.7072  0.015529889  0.014875204           42 
 1298000   0.74411843   -7.9053865     241.2211  0.015486717  0.014861237           35 
 1299000   0.73049459   -7.8765051    241.84219  0.015514639  0.014847298           38 
 1300000   0.73947472   -7.8846423    242.01983  0.015514092  0.014833383           66 
 1301000   0.72311296   -7.8804044    241.60858  0.015475825  0.014819478           60 
 1302000   0.74556803   -7.9193686    241.02708  0.015426721  0.014805581           75 
 1303000   0.72948449   -7.9130918    241.73965  0.015460454  0.014791699          148 
 1304000   0.72959556    -7.892699    241.43967  0.015429427  0.014777806          110 
 1305000   0.72559274   -7.9154018    241.66659  0.015432094  0.014763948           53 
 1306000   0.73057317    -7.896411    241.44774  0.015406313  0.014750042           80 
 1307000   0.73469717   -7.9081488    241.78835  0.015416243  0.014736209           41 
 1308000   0.73358293   -7.9032848    242.12186  0.015425704  0.014722441           58 
 1309000   0.73191739   -7.9097405    241.42101  0.015369303  0.014708657           47 
 1310000   0.73062044   -7.9128929    241.83586  0.015383961  0.014694905           56 
 1311000   0.73257232   -7.8650983    242.63003  0.015422707  0.014681177           83 
 1312000   0.71282277    -7.895506    241.72314   0.01535335  0.014667471           66 
 1313000   0.72192008   -7.8962751    242.08223  0.015364447  0.014653807           62 
 1314000   0.72341877    -7.893652    242.25538  0.015363736   0.01464016          145 
 1315000   0.74050539   -7.8909607    242.33881  0.015357339  0.014626494           95 
 1316000   0.73452273   -7.8913743    242.42147  0.015350904  0.014612865           48 
 1317000   0.72444023   -7.9012123    241.67448  0.015291982  0.014599228          157 
 1318000   0.72162601   -7.8820489    242.51034  0.015333228  0.014585654           58 
 1319000   0.72741423   -7.9042037    241.84305  0.015279445  0.014571994           60 
 1320000   0.71146954   -7.8731115    242.62573  0.015317281  0.014558424           83 
 1321000   0.70546099   -7.8888017    241.87955  0.015258614  0.014544874           64 
 1322000   0.73580091   -7.9171888    241.57434  0.015227833  0.014531282           65 
 1323000   0.72378451   -7.8911995    242.17936  0.015254432  0.014517703           44 
 1324000   0.71188806   -7.9018904    242.06096  0.015235458  0.014504136           62 
 1325000   0.73747994   -7.9136053     241.4077  0.015182874  0.014490509           96 
 1326000   0.72607088   -7.9184872    241.74513   0.01519263  0.014476892           50 
 1327000   0.73146289    -7.914186    241.29675  0.015153024  0.014463316           73 
 1328000    0.7258452   -7.9065166    242.15157  0.015195254  0.014449752           62 
 1329000    0.7218583    -7.917237    241.82231  0.015163175  0.014436211           86 
 1330000    0.7109595   -7.8723073    242.15887  0.015172862  0.014422699           56 
 1331000   0.73782649   -7.9068611    241.53789  0.015122583  0.014409161           95 
 1332000   0.73003591    -7.924062    241.81355  0.015128476  0.014395609           67 
 1333000   0.73785612   -7.9316819    241.58758     0.015103  0.014382076          101 
 1334000   0.71975428    -7.913196    241.53337  0.015088292  0.014368545           85 
 1335000   0.71242369   -7.9106107    241.91788  0.015100991  0.014355022           68 
 1336000   0.72135005   -7.9360694    241.40828  0.015057902  0.014341516          132 
 1337000   0.70251305   -7.9327859    242.45325  0.015111771  0.014328012           93 
 1338000   0.71334804   -7.9230269    241.87472  0.015064445   0.01431455           84 
 1339000   0.71061767   -7.9022202    241.73877  0.015044733  0.014301107           73 
 1340000   0.72229013   -7.9178537    241.73633  0.015033354  0.014287641          100 
 1341000   0.72466966   -7.9187638    241.63717  0.015015981  0.014274176          103 
 1342000   0.70846801   -7.9135215    241.59231  0.015002007   0.01426074           88 
 1343000   0.73161075   -7.9098645    241.33615  0.014974941  0.014247344           73 
 1344000   0.73266513   -7.9218189      241.625  0.014981709  0.014233952           90 
 1345000   0.71997139   -7.9223002    241.81862  0.014982566  0.014220595          104 
 1346000   0.72188427   -7.9260375    241.76938  0.014968387  0.014207216           77 
 1347000   0.71508942   -7.9194749    241.93227  0.014967352  0.014193854          127 
 1348000   0.69877138   -7.9103544    241.76977  0.014946202  0.014180529          118 
 1349000   0.72139413   -7.9175148    241.72782  0.014932531  0.014167181           97 
 1350000   0.70286413   -7.9303891    241.21937  0.014890085  0.014153831           62 
 1351000   0.72262337   -7.9354579    242.06336  0.014931123  0.014140522           68 
 1352000   0.72462989   -7.9373897    241.53772   0.01488768  0.014127235           70 
 1353000   0.71202422   -7.9652671    241.71913   0.01488785  0.014113901          118 
 1354000   0.73658956   -7.9633153    241.29574  0.014850797  0.014100563           62 
 1355000   0.71379574   -7.9824031    241.00919  0.014822214  0.014087234          101 
 1356000   0.71253368   -7.9771023    241.48947  0.014840798  0.014073905           91 
 1357000   0.69976407    -7.955946    241.28278  0.014817169  0.014060608           80 
 1358000   0.71663893   -7.9649987    241.86788  0.014842163  0.014047304           70 
 1359000   0.69397723   -7.9827378    240.96219  0.014775705  0.014034019           93 
 1360000   0.71637602   -7.9596811    241.14479  0.014776029  0.014020756           86 
 1361000   0.70256957   -7.9550263    241.70354  0.014799384  0.014007497           64 
 1362000   0.70053827   -7.9832414    241.35696  0.014767313  0.013994255          142 
 1363000   0.70458792   -7.9757897    241.40811  0.014759605   0.01398104          111 
 1364000   0.69366145    -7.972299    241.36268  0.014746009  0.013967837           91 
 1365000    0.7108154   -7.9806911    241.09044  0.014718586  0.013954631           85 
 1366000     0.702075   -7.9814509    241.72134  0.014746299  0.013941464          107 
 1367000   0.70871361   -7.9657655    241.82586  0.014741884  0.013928287          107 
 1368000   0.68971886   -7.9429447    242.15444  0.014751123  0.013915155          109 
 1369000   0.70141155    -7.980277    241.48562  0.014699636  0.013902025          102 
 1370000   0.71409902   -7.9683533    241.30176  0.014677723  0.013888905           88 
 1371000   0.71161839   -7.9653503    241.62577  0.014686711  0.013875739          151 
 1372000   0.70358736   -8.0003718    241.20861  0.014650669  0.013862589          141 
 1373000   0.69616319   -7.9756668    241.40627  0.014651995  0.013849477           92 
 1374000    0.7146401   -7.9954577    241.40057  0.014640986  0.013836368           82 
 1375000   0.70789075   -8.0076402    241.20603  0.014618547  0.013823306           78 
 1376000   0.70836726   -7.9736824    241.74504  0.014640567  0.013810235          130 
 1377000   0.71126686   -7.9618743    241.57786  0.014619817  0.013797179          145 
 1378000   0.71175773   -7.9924875    241.59504  0.014610247  0.013784126          148 
 1379000   0.70705252   -8.0009014    241.56939  0.014598102   0.01377109          160 
 1380000   0.69737571   -7.9931528     241.1416  0.014561691  0.013758092          169 
 1381000   0.70564484   -7.9809745    241.50465  0.014573054  0.013745063          126 
 1382000   0.69916265   -7.9999964    241.24966  0.014547134  0.013732026          159 
 1383000   0.71489913   -7.9605656    241.62307  0.014559115  0.013719045          110 
 1384000   0.70452084   -7.9869199    241.43847   0.01453748  0.013706066          101 
 1385000    0.6954276   -7.9960973    240.68588  0.014481701  0.013693076          125 
 1386000   0.71617016   -7.9844917    241.27323  0.014506567  0.013680141          141 
 1387000   0.69825156   -8.0109372    241.79532  0.014527476  0.013667164          133 
 1388000   0.69863825   -8.0228175    240.92014  0.014464466  0.013654174          185 
 1389000   0.70211054   -8.0112191    241.08181  0.014463751  0.013641218          114 
 1390000   0.68666001   -7.9949991     241.0079  0.014448915  0.013628281          183 
 1391000   0.71221042   -8.0014657    241.46184  0.014465722  0.013615343          162 
 1392000   0.69508796   -8.0187259    241.23709  0.014441876  0.013602403          200 
 1393000   0.70667591   -7.9828516    241.23496  0.014431381  0.013589492          156 
 1394000   0.69724757   -8.0112669    240.90111  0.014401071  0.013576605          302 
 1395000   0.69220511   -8.0092491    240.74809  0.014381606  0.013563665          234 
 1396000   0.69972243   -8.0249676    240.48425  0.014355555  0.013550781          272 
 1397000    0.6936327   -8.0131227    241.26954  0.014392123  0.013537909          185 
 1398000   0.69449166   -8.0351769    241.21975   0.01437886  0.013525054          147 
 1399000   0.68977206   -8.0330719    240.95147  0.014352601  0.013512206          254 
 1400000   0.68477336   -8.0160806    240.70559  0.014327714  0.013499338          235 
 1401000   0.69416957   -8.0161074    241.20233  0.014347034  0.013486489          135 
 1402000   0.69456516    -8.044412    240.83789  0.014315139  0.013473679          260 
 1403000   0.68762207   -8.0209522    241.22219  0.014327761  0.013460876          204 
 1404000   0.69518651   -8.0432548    241.27037  0.014320416  0.013448089          230 
 1405000   0.67706096   -8.0030173    240.89989   0.01428825  0.013435325          282 
 1406000   0.69214097   -8.0492814    240.83647  0.014274329  0.013422527          308 
 1407000   0.69085773   -8.0044097    241.04235  0.014276377  0.013409768          234 
 1408000   0.68466965   -8.0234895    241.24428  0.014278189  0.013397011          155 
 1409000   0.68274016   -8.0427698    241.08175  0.014258443  0.013384282          233 
 1410000   0.69264845    -8.030892    240.77739  0.014230342  0.013371548          270 
 1411000   0.69527266     -8.04914    241.17444  0.014243707  0.013358813          303 
 1412000   0.69012815   -8.0231498    240.25395  0.014179294  0.013346101          249 
 1413000   0.70781367   -8.0153492    241.31966   0.01423211  0.013333431          171 
 1414000   0.67232878    -8.050477    241.24415  0.014217595  0.013320749          193 
 1415000   0.69012776   -8.0252979    241.61066  0.014229132  0.013308123          174 
 1416000   0.68138853   -8.0368189    241.45573  0.014209965  0.013295501          213 
 1417000   0.69188636   -8.0355899    241.35783   0.01419418  0.013282904          216 
 1418000   0.69527694    -8.023636    241.14079  0.014171415  0.013270336          263 
 1419000   0.69315563   -8.0472065    241.08928  0.014158403  0.013257733          196 
 1420000   0.70014809   -8.0194862    241.40883  0.014167185  0.013245167          308 
 1421000   0.69840367   -8.0121207    240.92399  0.014128782  0.013232637          274 
 1422000   0.67892885   -8.0449702    241.02049  0.014124501  0.013220117          268 
 1423000   0.67676667   -8.0261587     241.3041  0.014131184  0.013207624          205 
 1424000   0.69089297   -8.0503106    241.37519  0.014125421  0.013195116          214 
 1425000   0.69170832   -8.0339395    241.01453  0.014094417  0.013182591          179 
 1426000   0.66774829   -8.0248967    241.15843  0.014092942  0.013170072          162 
 1427000   0.67225144    -8.057041    241.01937  0.014074945  0.013157605          184 
 1428000   0.70825589   -8.0280776    240.98664  0.014063179  0.013145153          167 
 1429000   0.67214255   -8.0316399    241.14922  0.014062819  0.013132691          178 
 1430000   0.67516195   -8.0391819    241.25799  0.014059324  0.013120246          192 
 1431000   0.69189116   -8.0443045    241.13415  0.014042287  0.013107809          173 
 1432000   0.67942104   -8.0423758    241.26508    0.0140401   0.01309538          198 
 1433000   0.68317957   -8.0323628    241.24032  0.014028863  0.013082968          224 
 1434000   0.68396504   -8.0661858     241.1537  0.014014046  0.013070549          263 
 1435000   0.68071849   -8.0543803    240.96444  0.013993289  0.013058155          251 
 1436000   0.68293871   -8.0259118    240.97887  0.013984382  0.013045762          300 
 1437000     0.678415   -8.0418607    240.29853  0.013935196  0.013033394          270 
 1438000   0.67874441   -8.0374331    241.13137   0.01397377   0.01302106          213 
 1439000   0.67242431   -8.0721576    240.85635  0.013948133  0.013008695          186 
 1440000   0.67472506   -8.0559971    240.90621  0.013941331  0.012996347          215 
 1441000   0.69214483   -8.0160842    241.12557  0.013944342  0.012983993          301 
 1442000   0.68436687   -8.0193308      240.853   0.01391892  0.012971654          252 
 1443000    0.6676532   -8.0451569    240.95962  0.013915432  0.012959303          250 
 1444000   0.68887756   -8.0797409    240.43067   0.01387527  0.012946965          352 
 1445000   0.67915244   -8.0664654    240.66544  0.013879207  0.012934594          276 
 1446000    0.6839157   -8.0761738    240.32929  0.013850235  0.012922246          233 
 1447000   0.67094964   -8.0900659    240.39717  0.013844573  0.012909905          260 
 1448000   0.67699845   -8.0705336    240.74897  0.013855259  0.012897581          234 
 1449000   0.67849564   -8.0416351    240.76794  0.013846788  0.012885274          349 
 1450000   0.66835706   -8.0747374    240.55595  0.013825054  0.012872994          275 
 1451000   0.68126906   -8.0660434    240.34547  0.013803438  0.012860684          229 
 1452000   0.68389023   -8.1018472    240.63684  0.013810654  0.012848412          235 
 1453000   0.66332365   -8.0783314    240.49665  0.013793109  0.012836174          229 
 1454000    0.6742338   -8.0652995    240.33681  0.013774462  0.012823958          231 
 1455000   0.67548779   -8.0683999    241.12138   0.01380993  0.012811731          280 
 1456000   0.66448093   -8.0586917    240.27755  0.013752149  0.012799525          350 
 1457000   0.66394202    -8.085077    240.69724  0.013766715  0.012787324          323 
 1458000   0.67543037   -8.0680662     240.2683  0.013732756  0.012775137          250 
 1459000   0.66125082   -8.0638405    240.41959  0.013731985  0.012762963          240 
 1460000   0.66658871   -8.0590581    240.78057  0.013743183  0.012750811          308 
 1461000   0.66732941    -8.072981     241.0302  0.013748015  0.012738698          247 
 1462000   0.66317869    -8.072513    240.56674  0.013712195   0.01272658          281 
 1463000   0.65302372   -8.0975647    240.26307  0.013685525  0.012714462          311 
 1464000    0.6801668   -8.0715292    240.30614  0.013678628  0.012702329          272 
 1465000   0.66404097   -8.0630258    240.88225  0.013702062  0.012690238          315 
 1466000   0.67340778   -8.0843414    240.21361  0.013654707   0.01267816          313 
 1467000   0.65883784   -8.0845501    240.22027  0.013645777  0.012666058          252 
 1468000   0.66674323   -8.0845861    240.13459  0.013631618  0.012653966          320 
 1469000   0.66665724   -8.0844929    240.37747  0.013636117   0.01264191          241 
 1470000   0.66980566   -8.0778284    240.14463  0.013613641  0.012629865          408 
 1471000    0.6705581   -8.0809005    240.63989  0.013632443  0.012617834          334 
 1472000   0.66568058   -8.1094178    240.26342  0.013601869  0.012605788          333 
 1473000   0.65313364   -8.0726611    240.30881  0.013595203  0.012593742          349 
 1474000   0.66325533    -8.082164    240.61634  0.013603366  0.012581733          283 
 1475000   0.64615122   -8.0606011    240.56537  0.013591264  0.012569742          285 
 1476000   0.67187786   -8.0961997    240.63567  0.013586025  0.012557764          412 
 1477000   0.67173323   -8.0968886     239.7484  0.013526766   0.01254576          381 
 1478000   0.67150511    -8.092392    240.08596  0.013536646  0.012533806          289 
 1479000   0.66589183   -8.0971164    239.63565  0.013502121  0.012521823          349 
 1480000   0.66242368   -8.1214878    240.16628  0.013522876  0.012509857          310 
 1481000   0.65848197   -8.1016597    240.29739  0.013521123  0.012497894          349 
 1482000   0.67075039   -8.1021034    240.35157  0.013515046  0.012485953          334 
 1483000   0.66327735   -8.1167627    239.74024   0.01347158  0.012474004          241 
 1484000   0.66000896   -8.1151448    240.29255  0.013493517  0.012462078          435 
 1485000   0.66946848   -8.0858764    240.41399  0.013491245  0.012450187          319 
 1486000    0.6625619   -8.1287898    240.08086  0.013463485  0.012438293          306 
 1487000   0.66689121   -8.0902925    239.85463  0.013441752  0.012426404          259 
 1488000   0.65364183   -8.0984209    240.36544  0.013461326   0.01241456          259 
 1489000   0.65845188   -8.1130106    240.15823  0.013440689  0.012402721          241 
 1490000    0.6565363   -8.0986136    239.94955  0.013419997  0.012390907          284 
 1491000    0.6501534   -8.1204657    240.19751  0.013424855   0.01237911          291 
 1492000   0.66264903   -8.1049616    240.47983  0.013431626  0.012367331          253 
 1493000   0.65775761   -8.1120697     239.7549  0.013382167   0.01235555          299 
 1494000   0.66175952   -8.1157739    239.82988  0.013377392  0.012343803          355 
 1495000   0.67421362   -8.1067989    240.42028  0.013401353  0.012332057          290 
 1496000   0.65666919   -8.1102544    240.64172   0.01340473  0.012320325          308 
 1497000     0.639043   -8.1035099    240.52436  0.013389243  0.012308611          343 
 1498000   0.64720878   -8.1030169    240.18701  0.013361538  0.012296906          296 
 1499000   0.67071631   -8.1199165     240.2397  0.013355554  0.012285191          330 
 1500000   0.65519558   -8.1302955    240.39022  0.013355012  0.012273482          292 
 1501000   0.65286676   -8.1406509    240.10593  0.013330332  0.012261778          333 
 1502000   0.65053305   -8.1169454    240.05899  0.013318852  0.012250109          423 
 1503000    0.6486363   -8.1258262    239.86169  0.013299051  0.012238445          326 
 1504000   0.65281355   -8.1517517    240.07428  0.013301988  0.012226785          393 
 1505000   0.64843398   -8.1334868    239.73811  0.013274535  0.012215141          306 
 1506000   0.63623958   -8.1314323    240.14163   0.01328805  0.012203528          266 
 1507000   0.64424267   -8.1213554    240.04215  0.013273731  0.012191954          288 
 1508000    0.6437288   -8.1374627    240.56922  0.013294055  0.012180389          341 
 1509000   0.66104576   -8.1409302    240.21509  0.013265689  0.012168799          311 
 1510000   0.65665193    -8.120449    240.29271  0.013261187  0.012157227          363 
 1511000   0.65295326   -8.1295818    240.18954  0.013246721  0.012145654          428 
 1512000   0.62982104   -8.1257157    240.02989  0.013229161  0.012134103          456 
 1513000   0.65129394   -8.1334933    240.26471   0.01323335  0.012122577          391 
 1514000   0.65076073   -8.1496404    239.44299  0.013179381  0.012111059          399 
 1515000   0.64410326   -8.1271227    240.41814   0.01322432  0.012099539          320 
 1516000   0.65860238   -8.1459197    240.07758  0.013196877  0.012088017          403 
 1517000   0.64688693   -8.1316218    239.95651  0.013181526  0.012076513          459 
 1518000   0.64843044   -8.1475917    239.51575  0.013148647  0.012065012          346 
 1519000   0.64600408   -8.1304411    239.97202  0.013165022  0.012053533          376 
 1520000   0.64553674   -8.1635629    240.15476  0.013166379  0.012042069          522 
 1521000   0.65144316   -8.1546687    239.77386  0.013136854  0.012030629          441 
 1522000   0.65202471   -8.1412918    240.31348  0.013157768  0.012019201          448 
 1523000   0.63964334   -8.1329216    239.96504  0.013130064  0.012007783          354 
 1524000   0.64888336    -8.150884    239.83738  0.013114467   0.01199638          389 
 1525000   0.64487641   -8.1467604    239.93068  0.013110966  0.011984966          343 
 1526000   0.62533449   -8.1454361    240.46898   0.01313177  0.011973578          386 
 1527000   0.65735874   -8.1564524     239.8594  0.013089904  0.011962203          453 
 1528000   0.64843681   -8.1443448    239.64261  0.013069514  0.011950846          319 
 1529000   0.64548003   -8.1547294    239.97264  0.013078954    0.0119395          418 
 1530000   0.64970174    -8.154653     239.4104  0.013039782  0.011928166          445 
 1531000   0.64099007     -8.15105    239.83497  0.013054375  0.011916833          406 
 1532000   0.65252315   -8.1387573    239.87795  0.013048191  0.011905503          436 
 1533000   0.63341058   -8.1293472    240.27164  0.013061081  0.011894199          392 
 1534000   0.64331114   -8.1612101    239.60977  0.013016611  0.011882916          460 
 1535000   0.62672364   -8.1683491     239.8483   0.01302108  0.011871644          464 
 1536000   0.64181024   -8.1557936    240.04549  0.013023302  0.011860394          382 
 1537000   0.64075548   -8.1372916    240.34979  0.013031326  0.011849147          396 
 1538000    0.6302278   -8.1601063    239.66111  0.012985539   0.01183791          529 
 1539000   0.63897257   -8.1726672    239.18954  0.012951567  0.011826688          452 
 1540000   0.63732665   -8.1488639    239.68859  0.012970162  0.011815482          585 
 1541000   0.62471394   -8.1689599    239.62446  0.012958277  0.011804283          434 
 1542000   0.63719093   -8.1510662     239.7827  0.012958425  0.011793083          523 
 1543000   0.62299367   -8.1877589    239.92806  0.012957877    0.0117819          450 
 1544000   0.64672654   -8.1625122    239.61231  0.012932443  0.011770721          389 
 1545000    0.6357936   -8.1663196     239.5535  0.012920901  0.011759555          422 
 1546000   0.63194424   -8.1820213    239.69239   0.01292003  0.011748396          445 
 1547000   0.64613543   -8.1550746    239.46124  0.012899227  0.011737252          384 
 1548000   0.61836343   -8.1814732    239.62724   0.01289983  0.011726119          446 
 1549000   0.62856508   -8.1627469    239.14752  0.012865694  0.011714985          351 
 1550000   0.63448324   -8.1575974    239.96535  0.012901363  0.011703861          426 
 1551000   0.62715893   -8.1711274    239.55111  0.012870788  0.011692744          413 
 1552000    0.6326142   -8.1738744    239.40589  0.012854698  0.011681656          420 
 1553000   0.63793516   -8.1630313    239.17799  0.012834191  0.011670557          384 
 1554000   0.62720416   -8.1532643    240.01642  0.012870894  0.011659479          632 
 1555000   0.62149856   -8.1930159    239.53207   0.01283666  0.011648404          460 
 1556000   0.62939533   -8.1828581      239.231  0.012812286  0.011637337          508 
 1557000   0.61999772    -8.175805    239.62971  0.012825397  0.011626307          354 
 1558000   0.65009081   -8.1674782    239.79125  0.012825805  0.011615277          542 
 1559000   0.62989845   -8.1547868    239.84979  0.012820707  0.011604273          512 
 1560000   0.62297068   -8.1461781    239.90955  0.012815681  0.011593274          457 
 1561000   0.65006951   -8.1784168    239.69063  0.012795784  0.011582298          453 
 1562000   0.63086572   -8.2014316    239.47459  0.012776067  0.011571343          429 
 1563000   0.62134223   -8.1654867    239.56476    0.0127727  0.011560364          516 
 1564000   0.60306781   -8.1921884     239.2687  0.012748759  0.011549424          469 
 1565000   0.64387006   -8.1769287    239.39241    0.0127472  0.011538484          496 
 1566000   0.62514378   -8.1724636    239.57437  0.012748743   0.01152755          449 
 1567000   0.63804517   -8.1817711    238.95961  0.012707914  0.011516643          388 
 1568000    0.6471734   -8.1930979     239.2987   0.01271783  0.011505728          448 
 1569000   0.62557007   -8.1765435    239.37648  0.012713856   0.01149483          457 
 1570000   0.63249308   -8.1616759     239.6197  0.012718668  0.011483968          571 
 1571000    0.6266278    -8.182774    239.44199  0.012701145  0.011473116          480 
 1572000   0.62506568   -8.1751543     239.7588   0.01270986  0.011462271          400 
 1573000   0.63164338   -8.1929699    239.91644  0.012710131  0.011451436          419 
 1574000   0.63772311   -8.1890784    239.41574  0.012675548  0.011440635          516 
 1575000   0.61976829   -8.1891275    239.47598  0.012670687  0.011429841          562 
 1576000   0.63127159   -8.1860164    239.41207  0.012659268  0.011419062          590 
 1577000   0.62957201   -8.1823744    239.03257  0.012631186  0.011408282          453 
 1578000   0.61966772   -8.1733697    239.42984  0.012644161  0.011397503          604 
 1579000   0.62911711   -8.1855977    239.30667  0.012629653  0.011386744          550 
 1580000   0.61657406     -8.17291     240.0789  0.012662389  0.011375999          455 
 1581000   0.63819866   -8.1967676     239.5383  0.012625886  0.011365269          439 
 1582000   0.63303892   -8.1723345    238.96413  0.012587659  0.011354557          587 
 1583000   0.62055655   -8.1890575    239.29237  0.012596987  0.011343848          518 
 1584000   0.62324073   -8.1774245    239.45994   0.01259785  0.011333157          527 
 1585000   0.61814313   -8.1960796    239.32905   0.01258302  0.011322473          525 
 1586000   0.62612378    -8.209562     238.7281  0.012543511  0.011311785          551 
 1587000   0.61602447   -8.2208911    238.83598  0.012541272  0.011301096          550 
 1588000   0.60825052   -8.2352643    238.82383  0.012532737  0.011290408          583 
 1589000   0.62013138   -8.1851673    239.69758  0.012570672  0.011279724          602 
 1590000   0.61226433   -8.1976109    238.97958  0.012525135  0.011269083          565 
 1591000   0.61872997   -8.1965431    239.27613  0.012532795  0.011258448          603 
 1592000   0.62975375   -8.1967608    239.35416  0.012529008  0.011247833          596 
 1593000   0.61825266    -8.193898    239.19383  0.012512756  0.011237237          548 
 1594000   0.61046273   -8.2015318    239.03273  0.012496483  0.011226643          527 
 1595000   0.60351247   -8.2157115    239.15198  0.012494879  0.011216054          560 
 1596000   0.62991662   -8.1960886    239.55374  0.012508027  0.011205488          592 
 1597000   0.61875921   -8.1886843     239.2096  0.012482238  0.011194931          550 
 1598000   0.61881201   -8.1853298    239.27235  0.012477698  0.011184357          527 
 1599000   0.60923204   -8.1930567    239.05741  0.012458694  0.011173805          565 
 1600000   0.61623744   -8.1765822    239.90844  0.012495231  0.011163291          612 
 1601000   0.61042368   -8.2151977    239.13451  0.012447143  0.011152776          625 
 1602000   0.61904939    -8.208369     239.5118  0.012458999  0.011142271          610 
 1603000   0.60497279   -8.2091299    239.07112  0.012428318  0.011131789          697 
 1604000   0.60113957   -8.2064831    239.14203  0.012424254  0.011121294          647 
 1605000   0.61506751   -8.2179303    239.26336  0.012422812  0.011110822          595 
 1606000   0.60850155   -8.2040694    238.74503  0.012388181  0.011100367          624 
 1607000   0.61140063   -8.1997182     239.0411  0.012395826  0.011089925          579 
 1608000   0.62219908   -8.2213515    238.84795  0.012378107  0.011079501          704 
 1609000   0.61961649   -8.2016595    238.69899  0.012362699  0.011069074          754 
 1610000    0.6128292   -8.2113818    238.61406  0.012350624  0.011058651          603 
 1611000   0.60628896   -8.2036189    239.07499  0.012366801  0.011048242          682 
 1612000   0.60971457   -8.2259056    239.18035  0.012364576  0.011037843          652 
 1613000   0.60747933   -8.2299491    238.66544  0.012330308  0.011027467          777 
 1614000   0.60547768   -8.2151598    239.12075  0.012346177  0.011017092          654 
 1615000   0.62112491   -8.2152771    239.02797  0.012333745  0.011006732          675 
 1616000   0.61985583   -8.2256999    238.79196  0.012313942  0.010996362          699 
 1617000   0.60622827   -8.2225889    238.96785  0.012315391  0.010986022          621 
 1618000   0.60224276   -8.2231293    238.90609  0.012304599  0.010975682          617 
 1619000   0.61345215   -8.2165254    239.22603  0.012313467  0.010965347          594 
 1620000   0.59591718   -8.2081125     239.2191  0.012305509  0.010955063          594 
 1621000   0.60812079   -8.2144469    239.22375  0.012298157  0.010944778          601 
 1622000   0.60052179   -8.2235459    238.58719   0.01225787  0.010934504          700 
 1623000   0.60792924   -8.2255081    239.03155  0.012273133  0.010924249          618 
 1624000   0.61714662   -8.2198323    238.82865  0.012255165  0.010913986          685 
 1625000    0.6053256    -8.235274    239.39282  0.012276555  0.010903741          645 
 1626000   0.61450127   -8.2462762    239.04544  0.012251201  0.010893514          604 
 1627000   0.59754666   -8.2210835    238.87655  0.012235021  0.010883281          765 
 1628000   0.61560336   -8.2191226     239.2441   0.01224632  0.010873057          625 
 1629000   0.59811532   -8.2375537    239.03467  0.012228088   0.01086286          656 
 1630000   0.61385048   -8.2263316    239.17277  0.012227647  0.010852657          673 
 1631000   0.58319605   -8.2352332    238.63573  0.012192711  0.010842462          644 
 1632000   0.60396035   -8.2273829    239.37094  0.012222781  0.010832272          746 
 1633000   0.59159624      -8.2386    238.62323   0.01217714  0.010822085          676 
 1634000   0.59817521   -8.2338217    238.74884  0.012176094  0.010811924          760 
 1635000   0.60438275   -8.2369308    238.90628  0.012176671  0.010801781          682 
 1636000   0.59515443   -8.2284687    238.94502  0.012171201  0.010791643          697 
 1637000   0.58928282   -8.2371863     238.9807  0.012165583  0.010781513          722 
 1638000   0.59446772   -8.2338287    238.96848  0.012157534  0.010771404          725 
 1639000   0.59103175   -8.2443569    238.73737  0.012138365    0.0107613          732 
 1640000   0.61027929   -8.2309842    238.62244  0.012125124   0.01075121          664 
 1641000   0.58844167   -8.2372288    238.85872  0.012129734  0.010741117          665 
 1642000   0.59828038   -8.2348887      238.833  0.012121041  0.010731038          674 
 1643000   0.60189362   -8.2485869    238.77041  0.012110489   0.01072098          667 
 1644000   0.60105517   -8.2531315    238.79199  0.012104217  0.010710926          688 
 1645000   0.58652326   -8.2615691    238.61817  0.012088053  0.010700872          749 
 1646000   0.60757988   -8.2541153    239.28552  0.012114496  0.010690842          720 
 1647000   0.58540987   -8.2639006    238.68555  0.012076783  0.010680819          750 
 1648000    0.6049314   -8.2424023    238.43887  0.012056982  0.010670811          745 
 1649000    0.5944411   -8.2548847     238.4726  0.012051374  0.010660819          634 
 1650000   0.58758642   -8.2593516    237.98491   0.01201944  0.010650815          678 
 1651000   0.58671279   -8.2534678    238.49813  0.012038064   0.01064083          724 
 1652000   0.59529275   -8.2606753    238.25302  0.012018413  0.010630853          700 
 1653000   0.58599455   -8.2461005    238.47025  0.012022094  0.010620883          749 
 1654000   0.60113408   -8.2589946    238.06937  0.011994628  0.010610936          647 
 1655000   0.59219928   -8.2801905    238.35284  0.012001654  0.010601012          696 
 1656000   0.58550965   -8.2441996    238.97357  0.012025643  0.010591077          727 
 1657000   0.58257343    -8.258707     238.3549  0.011987271  0.010581153          687 
 1658000    0.5996393   -8.2633103    238.39324  0.011981968  0.010571231          713 
 1659000   0.59992181   -8.2418445    238.48677  0.011979444  0.010561331          659 
 1660000   0.58972202   -8.2802696    238.58118  0.011976967  0.010551445          721 
 1661000   0.58540452   -8.2556261    238.77665  0.011979563  0.010541567          698 
 1662000   0.59430888   -8.2608435    238.88208  0.011977641  0.010531695          659 
 1663000   0.58762455   -8.2527498    238.68815  0.011960721  0.010521853          786 
 1664000   0.59116829   -8.2751351    238.10731  0.011924445  0.010512019          759 
 1665000   0.58953436   -8.2620085    239.08622  0.011966277  0.010502194          677 
 1666000   0.57925999   -8.2664963    238.50671  0.011930107  0.010492383          714 
 1667000    0.5909647   -8.2702024    238.49465  0.011922348  0.010482581          707 
 1668000   0.60104687   -8.2687231     238.6037  0.011920649  0.010472785          681 
 1669000   0.59295357   -8.2822431    238.67828   0.01191723  0.010463002          733 
 1670000   0.60768014   -8.2634625    238.63434  0.011907901  0.010453221          670 
 1671000   0.58211003   -8.2860183    238.36539  0.011887362  0.010443446          747 
 1672000    0.5905343   -8.2529247    238.41625  0.011882788  0.010433692          733 
 1673000   0.58849487   -8.2638521    238.10272  0.011860068  0.010423953          797 
 1674000   0.58264005   -8.2831423    238.50579  0.011873048  0.010414226          712 
 1675000   0.59920349   -8.2995762    237.91308  0.011836471  0.010404504          756 
 1676000   0.57481256   -8.2947406    237.92468  0.011829986   0.01039477          767 
 1677000   0.58280535   -8.2715696    238.15295  0.011834275  0.010385068          647 
 1678000   0.59086363   -8.2813143    238.09254  0.011824222  0.010375374          806 
 1679000    0.5817121   -8.2834829    238.10063  0.011817582  0.010365675          766 
 1680000   0.58334884   -8.2902125     238.0741  0.011809231   0.01035601          796 
 1681000   0.59464112   -8.2746924    238.40062  0.011818393  0.010346345          784 
 1682000   0.57260458   -8.3155141    238.11355  0.011797144   0.01033668          736 
 1683000   0.57923193    -8.304517    237.94922  0.011781997  0.010327022          805 
 1684000   0.58927215   -8.2901522    238.27255  0.011791001  0.010317374          765 
 1685000   0.57856185   -8.2993488    238.37325  0.011788984   0.01030775          750 
 1686000   0.57461852   -8.2546193    238.01302  0.011764187  0.010298143          743 
 1687000   0.56891397   -8.2766076    238.41253  0.011776948  0.010288549          787 
 1688000   0.56179875   -8.2817264    238.35394  0.011767078   0.01027897          751 
 1689000   0.59215224   -8.2882448     238.3719  0.011760997  0.010269397          756 
 1690000   0.57859948   -8.3123177    238.28851  0.011749926  0.010259835          667 
 1691000     0.570831   -8.2942486    238.39152  0.011748054  0.010250279          817 
 1692000   0.58868978   -8.2892791    238.41323   0.01174218  0.010240746          716 
 1693000   0.57990038   -8.2717988    238.83053  0.011755785  0.010231222          704 
 1694000   0.57118326   -8.3057658    237.91261   0.01170369  0.010221716          721 
 1695000   0.57782315   -8.3062896    238.13156   0.01170755  0.010212197          711 
 1696000   0.58250295   -8.2998087    238.09661   0.01169893  0.010202687          737 
 1697000   0.57361502   -8.3150255    237.51201  0.011663328  0.010193174          757 
 1698000   0.57031597   -8.2917463    238.02571   0.01168167  0.010183678          724 
 1699000   0.58278356   -8.2861013     237.8935   0.01166831  0.010174204          740 
 1700000   0.57334704   -8.2972758    238.31582  0.011682148  0.010164737          729 
 1701000   0.58153062   -8.2976004    237.96341  0.011658016  0.010155282          691 
 1702000   0.57191856   -8.3029175    237.72825  0.011639652  0.010145823          779 
 1703000   0.57807318   -8.2918643    238.12287  0.011652127  0.010136392          765 
 1704000   0.57303356   -8.3046639     237.8213  0.011630541  0.010126963          758 
 1705000   0.56015278   -8.3199327    237.86113  0.011625666  0.010117541          730 
 1706000   0.57730441   -8.3080163    238.21363   0.01163607  0.010108114          683 
 1707000   0.57425106     -8.29615    237.74491  0.011606371  0.010098708          766 
 1708000   0.57026635   -8.3273194    237.59619   0.01159232  0.010089309          756 
 1709000   0.57930659   -8.3019505    237.85955  0.011598379  0.010079924          669 
 1710000   0.55528267    -8.322436    238.26175  0.011611197  0.010070547          735 
 1711000   0.57011577   -8.3270067    237.76419  0.011580177   0.01006119          765 
 1712000   0.57185982   -8.3065264    238.36257   0.01160254  0.010051842          813 
 1713000    0.5634957   -8.2922506    237.92595  0.011574526  0.010042497          811 
 1714000   0.56475161   -8.3298972    237.55977   0.01154997  0.010033155          739 
 1715000   0.57130382   -8.3068931    238.01761  0.011565482  0.010023828          786 
 1716000   0.57055393   -8.3348133    237.79679  0.011548018  0.010014504          763 
 1717000   0.57035228   -8.2954727     237.9393  0.011548209  0.010005194          755 
 1718000   0.56175768   -8.2972825    237.91806  0.011540457 0.0099959099          763 
 1719000   0.57445543   -8.3216516    237.92847  0.011534248 0.0099866477          775 
 1720000   0.56621437   -8.3072496    237.93691  0.011527951 0.0099773945          765 
 1721000    0.5728399   -8.3221618    237.66621  0.011508145   0.00996815          762 
 1722000   0.58798304   -8.2900969     237.9699  0.011516159 0.0099589014          733 
 1723000   0.56823771   -8.3062151    237.87694  0.011504979 0.0099496678          718 
 1724000   0.57055261   -8.3049576    237.52839  0.011481458 0.0099404372          754 
 1725000   0.55565419   -8.3140782    237.52816  0.011474791 0.0099312087          719 
 1726000   0.56457146   -8.3118722    237.86467  0.011484389 0.0099219952          816 
 1727000   0.56081462   -8.3226278     237.4204  0.011456302  0.009912794          756 
 1728000   0.57403627   -8.3348787    237.83636  0.011469732 0.0099036102          708 
 1729000   0.56111531   -8.3285059    237.36796  0.011440523 0.0098944363          758 
 1730000   0.57108817   -8.3234542    237.89826  0.011459454 0.0098852731          787 
 1731000    0.5609918   -8.3224338    237.60389  0.011438662 0.0098761178          833 
 1732000    0.5621053   -8.3218373    237.58544   0.01143117 0.0098669674          820 
 1733000   0.55825695   -8.3010358    237.34467  0.011412996 0.0098578398          799 
 1734000   0.55905862   -8.3204341    237.53886  0.011415747 0.0098487194          716 
 1735000   0.56989402   -8.3144831    237.84084  0.011423671 0.0098396099          702 
 1736000   0.55436971   -8.3348548    237.45737  0.011398683 0.0098305101          833 
 1737000   0.55008961   -8.3355118     237.3351  0.011386255 0.0098214131          809 
 1738000   0.56382185   -8.3428109    237.84405  0.011404107 0.0098123252          790 
 1739000   0.56064557   -8.3185327    237.71868  0.011391541 0.0098032552          835 
 1740000   0.55307502   -8.3232001    237.96251  0.011396672  0.009794204          764 
 1741000   0.55641085   -8.3324575    237.74746  0.011379833 0.0097851538          787 
 1742000    0.5513962   -8.3164733    237.98529  0.011384677 0.0097761084          779 
 1743000   0.56544784   -8.3262444    237.72285  0.011365598 0.0097670761          750 
 1744000   0.54934445   -8.3376507    237.57616  0.011352072 0.0097580532          816 
 1745000   0.55613147   -8.3133599    237.42275   0.01133824 0.0097490382          754 
 1746000   0.55722702   -8.3184372    237.92754  0.011355839 0.0097400312          743 
 1747000   0.55965431   -8.3455068    237.84321  0.011345316 0.0097310328          738 
 1748000   0.54024243   -8.3366268    237.85618  0.011339444 0.0097220403          773 
 1749000   0.54614947   -8.3445478    237.41593  0.011311984 0.0097130636          755 
 1750000   0.54135459   -8.3574188    237.77732   0.01132273 0.0097040895          807 
 1751000    0.5533086   -8.3525913    237.44008  0.011300213  0.009695129          862 
 1752000    0.5556991   -8.3444929    237.58725  0.011300763 0.0096861757          899 
 1753000   0.55845899   -8.3418576    237.83313  0.011306006 0.0096772227          738 
 1754000   0.55548338    -8.331137    237.62698  0.011289765 0.0096682885          805 
 1755000   0.53846087   -8.3425499    236.85506  0.011246679 0.0096593526          768 
 1756000   0.55770997   -8.3394606    237.20575  0.011256917 0.0096504251          820 
 1757000   0.55835326    -8.338321    237.38502  0.011259013 0.0096415217          845 
 1758000   0.54615062   -8.3561676    236.97958  0.011233389 0.0096326307          826 
 1759000   0.54933827   -8.3526237    237.36966  0.011245483 0.0096237369          787 
 1760000   0.53550676    -8.334579     237.3243  0.011236946 0.0096148582          817 
 1761000   0.54205083   -8.3663421    237.31054  0.011229914 0.0096059772          917 
 1762000   0.54663081   -8.3465881    237.23261  0.011219855 0.0095971161          795 
 1763000   0.54648847   -8.3364328    237.11078  0.011207732 0.0095882629          796 
 1764000    0.5366583   -8.3454086     237.4949  0.011219525 0.0095794225          822 
 1765000   0.55788927   -8.3485075    237.49246  0.011213053 0.0095705943          814 
 1766000   0.54892761    -8.345853    237.34079  0.011199546 0.0095617766          824 
 1767000   0.55090856   -8.3572143    237.09532  0.011181632  0.009552958          864 
 1768000   0.55526277   -8.3638566     237.2979  0.011184856 0.0095441583          876 
 1769000   0.54240052   -8.3590373    236.77008  0.011153669 0.0095353761          856 
 1770000   0.54769504   -8.3591804    237.16481  0.011165951 0.0095265956          825 
 1771000    0.5399461   -8.3460753     237.3878  0.011170139 0.0095178267          859 
 1772000   0.53953907   -8.3536659    237.03959   0.01114746 0.0095090605          831 
 1773000   0.55785947   -8.3732193    237.18467  0.011147992 0.0095003066          875 
 1774000   0.53161423   -8.3486122    236.99713  0.011132898 0.0094915751          768 
 1775000   0.53880548    -8.363945    237.42477  0.011146703 0.0094828469          748 
 1776000    0.5381056   -8.3515813    237.52393  0.011145079 0.0094741279          776 
 1777000   0.54521302    -8.358733    237.17459  0.011122425 0.0094654235          789 
 1778000   0.55127818   -8.3641281    236.76039  0.011096756 0.0094567239          807 
 1779000   0.54449562   -8.3485921    236.89425  0.011096789 0.0094480432          825 
 1780000   0.54220416   -8.3590939    237.14632  0.011102356 0.0094393627          820 
 1781000   0.54590071   -8.3714446    236.90724  0.011084935 0.0094306947          765 
 1782000   0.54179749   -8.3514535    236.97445  0.011081858 0.0094220331          762 
 1783000   0.54553683   -8.3698288    237.15761  0.011084203 0.0094133797          780 
 1784000    0.5271981   -8.3683031     237.1963  0.011079797 0.0094047378          944 
 1785000   0.54911734   -8.3516982    237.43639  0.011084799 0.0093961193          924 
 1786000   0.54222888    -8.367341    237.04652  0.011060401 0.0093875035          845 
 1787000   0.53572798   -8.3616507    236.76855  0.011041249 0.0093788847          809 
 1788000   0.53496974    -8.361806    237.13668  0.011052232 0.0093702839          779 
 1789000   0.53050894   -8.3793561    236.88533  0.011034345 0.0093616915          842 
 1790000   0.53566212   -8.3860498    236.83925  0.011026036 0.0093531061          860 
 1791000   0.53461286   -8.3674751    236.82959   0.01101943 0.0093445322          822 
 1792000   0.52856168   -8.3500837    237.19475  0.011030262 0.0093359783          789 
 1793000   0.54346235    -8.363987    237.22315   0.01102543 0.0093274334          810 
 1794000   0.53524354   -8.3687546    236.73719  0.010996711 0.0093188971          739 
 1795000   0.52773859   -8.3820733    236.62645  0.010985443 0.0093103672          757 
 1796000    0.5322744   -8.3740264    237.38014  0.011014297  0.009301848          826 
 1797000   0.53767823   -8.3738983     236.7535  0.010979109 0.0092933315          790 
 1798000   0.52726333   -8.3584676    237.16952  0.010992284 0.0092848339          787 
 1799000   0.53068205   -8.3722758    237.14213  0.010984905 0.0092763388          837 
 1800000   0.53443547   -8.3684454    236.84256  0.010964933 0.0092678585          828 
 1801000    0.5417138   -8.3766368    236.71697  0.010953034 0.0092593757          797 
 1802000   0.53540791    -8.382305    237.19714  0.010969161   0.00925093          871 
 1803000   0.53185693   -8.3679525    236.97259  0.010952699  0.009242475          913 
 1804000    0.5326042   -8.3758451    236.58279  0.010928621 0.0092340225          812 
 1805000   0.53824155    -8.364964    236.86962  0.010935809 0.0092255897          820 
 1806000   0.52288186    -8.369944    236.92711  0.010932407 0.0092171687          778 
 1807000   0.53093959   -8.3577049    237.17775  0.010937915 0.0092087513          797 
 1808000   0.52606139    -8.381291    237.12978  0.010929654 0.0092003495          798 
 1809000   0.53129556   -8.3768253    237.24763  0.010929041 0.0091919606          848 
 1810000   0.52984349   -8.3763409    236.80631  0.010902685 0.0091835872          846 
 1811000   0.54138235    -8.384746    237.10719   0.01091051 0.0091752222          814 
 1812000   0.53021052    -8.355865    237.34448  0.010915401 0.0091668709          788 
 1813000   0.51837418    -8.380666    236.71249  0.010880331 0.0091585138          837 
 1814000   0.52800771   -8.3742947    236.59284  0.010868837 0.0091501838          794 
 1815000   0.53232135   -8.3912904    237.01672   0.01088231 0.0091418586          749 
 1816000   0.52290296   -8.3846638    236.58646  0.010856574 0.0091335433          788 
 1817000   0.53631534   -8.3727737    236.96983  0.010868182 0.0091252268          883 
 1818000   0.53753847    -8.382465    236.58121   0.01084439 0.0091169321          862 
 1819000   0.54046395   -8.3836767      236.547  0.010836861 0.0091086339          778 
 1820000   0.53425195    -8.395188    236.51117  0.010829266 0.0091003503          888 
 1821000   0.54027288   -8.3871868    237.00202  0.010845782 0.0090920763          808 
 1822000   0.53113761   -8.3907518    236.57687  0.010820384 0.0090838277          780 
 1823000   0.51474128   -8.3930451    236.28114   0.01080093 0.0090755724          825 
 1824000   0.53021194   -8.3742199    236.93601  0.010824927 0.0090673272          786 
 1825000   0.52843182   -8.3966914    236.55382  0.010801544 0.0090590935          770 
 1826000   0.52162525   -8.3971491    236.92167  0.010812417 0.0090508584          806 
 1827000   0.53141792   -8.3931677    236.96435  0.010808445 0.0090426419          763 
 1828000   0.51622519   -8.3931007    236.64329  0.010787896 0.0090344361          755 
 1829000    0.5238749   -8.3830212    237.11033  0.010803277 0.0090262416          822 
 1830000   0.52397714   -8.3951775    236.84047  0.010785085 0.0090180626          779 
 1831000   0.51984731   -8.3897642    236.92657  0.010783113 0.0090098844          784 
 1832000   0.52217339   -8.3980441    236.87685  0.010774966 0.0090017167          785 
 1833000   0.51354231   -8.3921546    236.83221  0.010767058 0.0089935626          819 
 1834000   0.50939408   -8.4087115    236.80093  0.010759766 0.0089854119          758 
 1835000   0.51296588   -8.4054169    236.35739   0.01073376 0.0089772656          803 
 1836000   0.51099877   -8.4101386    236.65353  0.010741355 0.0089691275          917 
 1837000    0.5325651   -8.3984169    237.08641  0.010755145 0.0089610019          797 
 1838000   0.52172338   -8.3865745    236.36602  0.010716631 0.0089529006          840 
 1839000   0.51844735   -8.3868275    236.41992  0.010713246 0.0089448007          753 
 1840000   0.52820838   -8.3887357    236.57594   0.01071449 0.0089367137          757 
 1841000   0.52053277   -8.3918583    236.78886  0.010718308 0.0089286329          814 
 1842000   0.52150288   -8.3834581    237.10835  0.010726943 0.0089205688          849 
 1843000   0.52101759   -8.3895798    236.58079  0.010697269 0.0089125109          891 
 1844000   0.52430542   -8.4038631    236.49465  0.010687575 0.0089044513          896 
 1845000   0.51071142   -8.4067199     236.4797  0.010681106  0.008896404          838 
 1846000   0.51174221   -8.4112734    236.74749  0.010687409 0.0088883681          902 
 1847000   0.51180138   -8.3982128    236.92079  0.010689442 0.0088803384          844 
 1848000   0.51635907   -8.3917912    236.70975  0.010674141 0.0088723116          823 
 1849000   0.52020525   -8.3994479    237.08893  0.010685457 0.0088643124          853 
 1850000   0.52131492   -8.4041738    236.34743   0.01064628 0.0088563212          796 
 1851000    0.5053263    -8.427388    236.53451  0.010648951 0.0088483304          871 
 1852000   0.52619114   -8.4116826     236.8121  0.010655692 0.0088403448          844 
 1853000   0.51545159   -8.4108342    236.86199  0.010652185 0.0088323805          802 
 1854000   0.50908772   -8.4047561    236.70776  0.010639507 0.0088244196          882 
 1855000   0.50189296   -8.4128541    236.88097  0.010641553 0.0088164757          850 
 1856000   0.50243123   -8.3938252    236.82931    0.0106335 0.0088085399          782 
 1857000   0.50603435   -8.3976749    236.11754  0.010595833 0.0088006052          805 
 1858000   0.51385337    -8.409848    236.66875  0.010614852  0.008792677          849 
 1859000   0.50639315   -8.4109939    236.05669  0.010581706 0.0087847647          768 
 1860000   0.51495988   -8.3892504    236.93977  0.010615581 0.0087768685          776 
 1861000   0.51972314    -8.416736    236.04783  0.010569937 0.0087689706          862 
 1862000   0.50130153   -8.4182264    236.50056  0.010584522 0.0087610802          840 
 1863000   0.49245307   -8.4097323    237.14719  0.010607765 0.0087532019          859 
 1864000   0.50776176   -8.4062372    236.55619  0.010575652 0.0087453412          814 
 1865000   0.51528133   -8.4162724    236.77797  0.010579891 0.0087374852          880 
 1866000   0.51977556   -8.4187523    236.40046  0.010557362 0.0087296389          874 
 1867000   0.50986021   -8.4021634    236.41378  0.010552302 0.0087217982          798 
 1868000    0.5164576   -8.4140621    236.14867  0.010534827 0.0087139596          895 
 1869000   0.52091863   -8.4283065    236.58796  0.010548777  0.008706135          822 
 1870000   0.50280447   -8.4360112    236.52613   0.01054038 0.0086983108          883 
 1871000   0.50831937   -8.4312065    236.73034  0.010543842 0.0086905005          862 
 1872000   0.51046451   -8.4275247    236.12681  0.010511343 0.0086827028          896 
 1873000   0.51499918    -8.419077    236.63063  0.010528147 0.0086749052          796 
 1874000   0.50170621   -8.4198929    236.40987  0.010512712  0.008667124          848 
 1875000    0.4970408   -8.4166721    236.38764  0.010506117 0.0086593464          837 
 1876000   0.49759323     -8.40865    236.56764  0.010508513 0.0086515859          798 
 1877000   0.50038934    -8.414122    236.18592  0.010485967 0.0086438298          869 
 1878000   0.50482808   -8.4280825    236.44807  0.010492016 0.0086360871          867 
 1879000   0.49539286   -8.4159469    236.65204  0.010495478 0.0086283486          860 
 1880000   0.49975428   -8.4306814    236.59054  0.010487169 0.0086206165          924 
 1881000   0.50825726    -8.405075    236.58648  0.010481414  0.008612903          855 
 1882000   0.50837058   -8.4222529    236.66793  0.010479451 0.0086051901          869 
 1883000   0.49414119   -8.4113125      236.164  0.010451584 0.0085974867          848 
 1884000   0.49954114   -8.4309926    236.15742  0.010445746 0.0085897884          862 
 1885000   0.49996773   -8.4122485    236.62579   0.01046091 0.0085821026          810 
 1886000   0.50018066   -8.4174867    236.75579  0.010461108 0.0085744314          782 
 1887000   0.51256095   -8.4183192    236.38338  0.010439118 0.0085667663          900 
 1888000   0.50241779   -8.4211998    236.44832  0.010436455 0.0085591112          804 
 1889000   0.50123495   -8.4446102    236.18007  0.010419096 0.0085514619          850 
 1890000   0.49925228   -8.4417374    236.22197  0.010415431 0.0085438246          752 
 1891000   0.49523027   -8.4260474    236.30713  0.010413676 0.0085361943          884 
 1892000   0.50806817   -8.4218087    236.29559  0.010407664 0.0085285703          856 
 1893000   0.49845901   -8.4353771    236.19109  0.010397565  0.008520954          821 
 1894000   0.49569995   -8.4449867    236.29439   0.01039662 0.0085133413          797 
 1895000     0.501096    -8.433794    236.45455  0.010398177 0.0085057415          808 
 1896000   0.50085042   -8.4263533    235.81109  0.010364411 0.0084981582          762 
 1897000   0.49436223   -8.4347206    236.41085  0.010385295 0.0084905818          842 
 1898000   0.50006598   -8.4473782    236.02391  0.010362834 0.0084830158          850 
 1899000   0.49432422   -8.4320093    236.41545  0.010374559 0.0084754602          842 
 1900000   0.49140061   -8.4216851    236.45528  0.010370846 0.0084679027          876 
 1901000   0.49485703   -8.4391259    236.28904  0.010358103 0.0084603535          860 
 1902000    0.4857922   -8.4185326    236.25283   0.01035107 0.0084528156          900 
 1903000    0.4985505   -8.4541468    236.62221  0.010361806 0.0084452785          812 
 1904000   0.48158332    -8.442989    235.99053  0.010328717 0.0084377613          820 
 1905000   0.49096608   -8.4523277    236.07483  0.010326983 0.0084302515          853 
 1906000   0.49916468   -8.4218954    236.05496  0.010320696 0.0084227527          826 
 1907000    0.4847448    -8.435674    236.30768  0.010326327 0.0084152633          846 
 1908000   0.50068977   -8.4409246    236.22516  0.010317311 0.0084077699          901 
 1909000   0.50080442   -8.4542365    236.35471  0.010317562 0.0084002928          892 
 1910000   0.49174849   -8.4506474    236.06528  0.010299532  0.008392826          846 
 1911000   0.49603704    -8.447222    236.13354  0.010297119 0.0083853642          793 
 1912000   0.49184455   -8.4454894    236.24597  0.010296634 0.0083779193          868 
 1913000   0.48887401   -8.4530054    236.20807  0.010289601 0.0083704724          862 
 1914000   0.48824776   -8.4382671    236.01554  0.010275842 0.0083630377          825 
 1915000   0.47893294   -8.4341229    235.98489  0.010269142 0.0083556094          779 
 1916000   0.48431435   -8.4400196    236.41826  0.010282631 0.0083481968          877 
 1917000   0.49851777   -8.4429944    236.22497  0.010268865 0.0083407923          865 
 1918000   0.49199453   -8.4429646    235.96192  0.010252082 0.0083333879          837 
 1919000    0.4929505   -8.4470434    236.00231  0.010248494 0.0083260036          858 
 1920000   0.49256412   -8.4501446    235.95675  0.010241178 0.0083186192          813 
 1921000   0.49415762    -8.451458    236.28484   0.01025008  0.008311249          768 
 1922000   0.48184413   -8.4584324    236.23681  0.010242664 0.0083038785          847 
 1923000   0.50379453   -8.4507212    235.83609  0.010219973 0.0082965256          899 
 1924000   0.48420451   -8.4480409    235.83834  0.010214758 0.0082891747          876 
 1925000   0.47761356   -8.4597307    235.67471  0.010202369 0.0082818336          869 
 1926000   0.48291823   -8.4440523    235.54589  0.010191497 0.0082745015          859 
 1927000   0.48224949   -8.4515881     235.7164  0.010193582  0.008267179          816 
 1928000   0.47180523   -8.4451441    236.21618  0.010209897 0.0082598686          899 
 1929000   0.47723526    -8.459286    236.15947  0.010202154 0.0082525604          830 
 1930000   0.47813653   -8.4380242    235.98486  0.010189329 0.0082452619          769 
 1931000   0.47732184   -8.4665106    235.87665  0.010179383 0.0082379719          848 
 1932000     0.485611    -8.455701    236.16378  0.010186498 0.0082306901          804 
 1933000   0.48719175   -8.4611767    236.00123  0.010174221 0.0082234155          875 
 1934000   0.48031024   -8.4391347    235.90083  0.010164634 0.0082161563          840 
 1935000   0.47524775   -8.4659439    235.86583  0.010157874 0.0082089019          809 
 1936000   0.48526252   -8.4560148    235.73988  0.010147206  0.008201656          879 
 1937000   0.47427034   -8.4518098     235.8777  0.010147896 0.0081944169          860 
 1938000   0.47635652   -8.4536388    236.09236   0.01015189 0.0081871906          878 
 1939000   0.48616907   -8.4551691    236.37256  0.010158697 0.0081799801          787 
 1940000   0.47022755   -8.4744504     235.7103  0.010125013 0.0081727621          834 
 1941000   0.47849415   -8.4694178    235.80315  0.010123783 0.0081655511          858 
 1942000   0.47951139   -8.4714301    236.12421  0.010132347 0.0081583501          809 
 1943000   0.48651325   -8.4684954    236.08917  0.010125629 0.0081511593          845 
 1944000   0.47745056     -8.45985    235.49357  0.010094889 0.0081439722          969 
 1945000   0.47820082   -8.4418146    235.64967  0.010096387 0.0081368044          780 
 1946000   0.48163514   -8.4778219    235.69605  0.010093185 0.0081296435          855 
 1947000   0.47004128   -8.4518927    235.98766  0.010100482 0.0081224783          814 
 1948000   0.47257354    -8.470284    235.82274  0.010088242 0.0081153364          896 
 1949000   0.46912898   -8.4674504    235.81506  0.010082737  0.008108194          850 
 1950000   0.47345022   -8.4647704    235.86076   0.01007952  0.008101065          840 
 1951000   0.47479717   -8.4770632    235.90329   0.01007617 0.0080939441          798 
 1952000    0.4792456   -8.4592563    235.92014  0.010071727 0.0080868306          825 
 1953000   0.47249075   -8.4646113    235.96883  0.010068648 0.0080797265          835 
 1954000   0.47271898   -8.4751975    235.55277  0.010045751 0.0080726267          852 
 1955000   0.47127364   -8.4588712    235.90794  0.010055752 0.0080655362          840 
 1956000   0.47026134   -8.4714166     236.0972  0.010058674  0.008058458          893 
 1957000   0.46902414   -8.4887266     235.7231  0.010037604 0.0080513819          842 
 1958000   0.47450049   -8.4847962    235.87308  0.010038861 0.0080443107          874 
 1959000   0.47178564   -8.4710322    235.39484  0.010013393 0.0080372507          878 
 1960000   0.47514299   -8.4651778    235.67319  0.010020119 0.0080302015          789 
 1961000   0.46118249   -8.4634373    236.00013  0.010028902 0.0080231608          853 
 1962000   0.46916392   -8.4785916    235.92387  0.010020552   0.00801613          822 
 1963000   0.47059002   -8.4643823    235.89798  0.010014348 0.0080091067          841 
 1964000    0.4674116   -8.4721406     235.4599 0.0099906611 0.0080020941          898 
 1965000   0.46084822   -8.4796157    235.82622  0.010001112 0.0079950783          840 
 1966000   0.47908063    -8.476093    235.77769 0.0099939678 0.0079880793          784 
 1967000   0.46116726   -8.4925421    235.33934 0.0099703162 0.0079810846          794 
 1968000   0.46673219   -8.4762477    235.32304 0.0099645594 0.0079741001          830 
 1969000   0.45307877   -8.4630578    235.45073  0.009964903 0.0079671171          849 
 1970000   0.46257533    -8.483649    235.80437 0.0099748042 0.0079601459          823 
 1971000   0.47177719   -8.4894437    235.80496 0.0099697682 0.0079531822          783 
 1972000   0.47057705   -8.4830085    235.72471 0.0099613213 0.0079462197          794 
 1973000   0.46481653   -8.4632369    235.52648 0.0099479001 0.0079392706          865 
 1974000   0.46369628   -8.4794338     235.7246 0.0099512242 0.0079323302          829 
 1975000   0.46295359   -8.4830673    235.79012 0.0099489502 0.0079253867          880 
 1976000   0.45834542   -8.4789082    235.53151 0.0099330091 0.0079184585          892 
 1977000   0.45660397   -8.4722296    235.35565 0.0099205721 0.0079115384          781 
 1978000   0.47001708   -8.4834825    235.39005 0.0099170057 0.0079046305          810 
 1979000    0.4600485   -8.4901689    235.45303 0.0099146466 0.0078977247          872 
 1980000   0.47910682   -8.4979235    235.39257 0.0099070948 0.0078908353          898 
 1981000   0.46562387   -8.4765147    235.57467 0.0099097539 0.0078839539          883 
 1982000   0.46800043   -8.4826894    235.77342 0.0099131104 0.0078770707          880 
 1983000    0.4571522   -8.4788376    235.52269 0.0098975748 0.0078701986          860 
 1984000   0.45095238   -8.4819145    235.65382 0.0098980939 0.0078633387          842 
 1985000   0.46656074   -8.4784294    235.61906 0.0098916483 0.0078564781          865 
 1986000   0.45090991   -8.4978203    236.03976 0.0099043204 0.0078496289          913 
 1987000   0.46550608   -8.4713642    235.92889  0.009894686 0.0078427874          867 
 1988000   0.46576481   -8.5068668     235.4175 0.0098682723 0.0078359553          917 
 1989000   0.45303188   -8.4959136    235.53098 0.0098680654 0.0078291322          880 
 1990000   0.45889835   -8.4890604    235.47737 0.0098608613 0.0078223134          899 
 1991000   0.45897277   -8.4938583    235.80245 0.0098695149 0.0078155037          871 
 1992000   0.45336005   -8.5012414    235.60542 0.0098563177 0.0078087001          875 
 1993000   0.45753946   -8.4957995    235.54197 0.0098487193 0.0078019034          921 
 1994000   0.44913029   -8.4872685    235.50564 0.0098422617   0.00779512          775 
 1995000   0.46500544   -8.4980117     235.1897  0.009824131 0.0077883377          895 
 1996000   0.45140535   -8.5026279    235.24789 0.0098216385 0.0077815612          924 
 1997000   0.45903507   -8.4894541    235.59313 0.0098311272 0.0077747958          866 
 1998000   0.45972693   -8.4908173    235.29578 0.0098138047  0.007768036          860 
 1999000   0.44703267   -8.5061744    234.96894   0.00979527 0.0077612864          884 
 2000000   0.46619526   -8.4952796    235.31952   0.00980498 0.0077545468          884 
 2001000   0.44240495   -8.4995342    235.20734 0.0097954082 0.0077478126          851 
 2002000   0.45920648   -8.5068832    235.00614 0.0097821404 0.0077410805          924 
 2003000   0.45663538   -8.4986927    235.72569  0.009807193 0.0077343625          903 
 2004000   0.45347682   -8.4802659     235.0241 0.0097731246 0.0077276449          903 
 2005000    0.4551506   -8.4931616    235.44793 0.0097858657 0.0077209397          901 
 2006000   0.46231451   -8.5032673    235.50688 0.0097834363 0.0077142454          862 
 2007000   0.45650337   -8.5111644    235.49503 0.0097780695 0.0077075564          898 
 2008000   0.44628077   -8.4996709    235.46708 0.0097720402 0.0077008742          834 
 2009000   0.44953313   -8.5032425    235.10286 0.0097520681 0.0076942063          893 
 2010000   0.45108282   -8.4905129    235.23201 0.0097525711 0.0076875412          886 
 2011000   0.45168912   -8.4920011    235.32213 0.0097514556 0.0076808807          806 
 2012000   0.45395652   -8.4976989    235.09014 0.0097370004 0.0076742291          886 
Loop time of 5238.24 on 48 procs for 2000000 steps with 4000 atoms

Performance: 65976.345 tau/day, 381.808 timesteps/s
99.4% CPU use with 48 MPI tasks x no OpenMP threads

MPI task timing breakdown:
Section |  min time  |  avg time  |  max time  |%varavg| %total
---------------------------------------------------------------
Pair    | 375.24     | 403.39     | 433.37     |  72.5 |  7.70
Neigh   | 37.017     | 38.314     | 39.801     |  10.4 |  0.73
Comm    | 331.37     | 361.73     | 393.51     |  79.2 |  6.91
Output  | 5.1933     | 5.1954     | 5.2505     |   0.4 |  0.10
Modify  | 4368.1     | 4381.7     | 4396       |  10.4 | 83.65
Other   |            | 47.95      |            |       |  0.92

Nlocal:        83.3333 ave          93 max          76 min
Histogram: 2 3 7 8 13 8 2 4 0 1
Nghost:        2438.06 ave        2458 max        2414 min
Histogram: 1 2 3 5 10 5 8 10 3 1
Neighs:        16858.7 ave       19345 max       14604 min
Histogram: 5 4 5 4 9 7 3 4 3 4
FullNghs:      33718.1 ave       37813 max       30825 min
Histogram: 2 3 7 12 11 6 2 4 0 1

Total # of neighbors = 1618470
Ave neighs/atom = 404.61750
Neighbor list builds = 106524
Dangerous builds = 0

#clear
#
#next RN
#
#jump SELF
Total wall time: 1:27:21
