
units lj                  # Use reduced LJ style units
atom_style atomic         # Uncharged point particles
atom_modify map hash      # Needed for indexing of clusters etc
                          # Used to be able to find where atoms are in relation to each other.

lattice fcc 1.0 spacing 1 1 1
Lattice spacing in x,y,z = 1.5874011 1.5874011 1.5874011
region box block 0 10 0 10 0 10 units lattice
create_box 2 box
Created orthogonal box = (0.0000000 0.0000000 0.0000000) to (15.874011 15.874011 15.874011)
  3 by 4 by 4 MPI processor grid
create_atoms 1 box
Created 4000 atoms
  using lattice units in orthogonal box = (0.0000000 0.0000000 0.0000000) to (15.874011 15.874011 15.874011)
  create_atoms CPU = 0.003 seconds
set type 1 type/fraction 2 0.68 78393
Setting atom values ...
  2740 settings made for type/fraction
mass 1 1.0
mass 2 1.0
pair_style lj/cut  3.5
pair_modify tail  yes
pair_coeff 1  1  1.0  1.0   # Intearaction between 1 and 1 set with epsilon = 1 and sigma = 1
pair_coeff 1  2  1.5  0.8
pair_coeff 2  2  0.5  0.88

write_data data.0
System init for write_data ...
Neighbor list info ...
  update every 1 steps, delay 10 steps, check yes
  max neighbors/atom: 2000, page size: 100000
  master list distance cutoff = 3.8
  ghost atom cutoff = 3.8
  binsize = 1.9, bins = 9 9 9
  1 neighbor lists, perpetual/occasional/extra = 1 0 0
  (1) pair lj/cut, perpetual
      attributes: half, newton on
      pair build: half/bin/atomonly/newton
      stencil: half/bin/3d
      bin: standard
WARNING: Not all mixed pair coeffs generated from mixing. Use write_data with 'pair ij' option to store all pair coeffs. (../write_data.cpp:312)


#############################
#   M E L T   S Y S T E M   #
#############################

velocity all create 2.4 8172548 mom yes dist gaussian # Assign velocities
                                                    # Temperature 2.4, random number seed, zero linear momentum
                                                                                # Gaussian distribution

timestep 0.002   # simulation timestep
thermo 1000       # output thermodynamic data every 1000 steps bf 100

# Define a fix  in this case with index 1 applied to all
# particles in the simulation. This fix is for simulations
# in the anisotropic NPT ensemble. Note that we use the MTK
# correction.
fix 1 all npt temp 2.4 2.4 0.1 iso 5.68 5.68 0.5 mtk yes tchain 5 pchain 5 # Use NPT ensemble
                                                                         # Set temperature and pressure and damping
                                                                         # Numbers of thermostats in chain and in barostat
run 10000          # run for 10000 steps
Per MPI rank memory allocation (min/avg/max) = 3.642 | 3.644 | 3.648 Mbytes
Step Temp E_pair E_mol TotEng Press Volume 
       0          2.4   -4.2819815            0  -0.68288149   -3.8317514         4000 
    1000    2.4283555   -3.9044386            0  -0.26281601    6.0436915    3630.6797 
    2000    2.3853142   -3.9346603            0  -0.35758347    5.8756397    3639.3274 
    3000    2.3647948   -3.9209384            0  -0.37463302    5.6844365    3648.9404 
    4000    2.4175646   -3.9435987            0  -0.31815831    5.6092408    3649.1655 
    5000    2.4640663   -3.9956063            0  -0.30043078    5.8296682    3598.1006 
    6000    2.4009617   -3.9570511            0  -0.35650895     5.653158    3624.5276 
    7000    2.3983356   -3.9312549            0  -0.33465078     5.480374    3662.1395 
    8000    2.3613844    -3.944496            0  -0.40330492    5.7038314    3631.7058 
    9000    2.3900475    -3.977057            0  -0.39288201    5.4351779    3634.6035 
   10000    2.4175351   -3.9430915            0  -0.31769551    6.1501977    3605.3103 
Loop time of 2.62809 on 48 procs for 10000 steps with 4000 atoms

Performance: 657512.193 tau/day, 3805.047 timesteps/s
99.6% CPU use with 48 MPI tasks x no OpenMP threads

MPI task timing breakdown:
Section |  min time  |  avg time  |  max time  |%varavg| %total
---------------------------------------------------------------
Pair    | 1.2174     | 1.2592     | 1.3214     |   2.1 | 47.91
Neigh   | 0.21818    | 0.22342    | 0.23819    |   0.7 |  8.50
Comm    | 0.81066    | 0.87885    | 0.92903    |   2.7 | 33.44
Output  | 0.00024089 | 0.00024785 | 0.00031578 |   0.0 |  0.01
Modify  | 0.23384    | 0.25092    | 0.26652    |   1.9 |  9.55
Other   |            | 0.01548    |            |       |  0.59

Nlocal:        83.3333 ave          92 max          73 min
Histogram: 3 0 2 7 7 11 5 8 2 3
Nghost:        1758.35 ave        1791 max        1730 min
Histogram: 3 3 5 6 8 10 8 3 1 1
Neighs:        10587.0 ave       11807 max        9206 min
Histogram: 3 2 4 7 6 4 10 5 4 3

Total # of neighbors = 508177
Ave neighs/atom = 127.04425
Neighbor list builds = 907
Dangerous builds = 192

# Equilibrate just above the melting temperature to avoid step fn in T

fix 1 all npt temp 1.25 1.25 0.1 iso 5.68 5.68 0.5 mtk yes tchain 5 pchain 5
run 2000
Per MPI rank memory allocation (min/avg/max) = 3.644 | 3.646 | 3.649 Mbytes
Step Temp E_pair E_mol TotEng Press Volume 
   10000    2.4175351   -3.9430915            0  -0.31769551    6.1501977    3605.3103 
   11000     1.247425   -5.8160751            0   -3.9454053    5.7094248    2773.1799 
   12000    1.2678674   -5.8423125            0   -3.9409869    5.7857584    2765.0713 
Loop time of 0.687479 on 48 procs for 2000 steps with 4000 atoms

Performance: 502706.087 tau/day, 2909.179 timesteps/s
99.6% CPU use with 48 MPI tasks x no OpenMP threads

MPI task timing breakdown:
Section |  min time  |  avg time  |  max time  |%varavg| %total
---------------------------------------------------------------
Pair    | 0.30166    | 0.32509    | 0.39886    |   3.2 | 47.29
Neigh   | 0.040942   | 0.04353    | 0.051425   |   1.0 |  6.33
Comm    | 0.19062    | 0.2693     | 0.30019    |   3.9 | 39.17
Output  | 5.1768e-05 | 5.2829e-05 | 6.8985e-05 |   0.0 |  0.01
Modify  | 0.038989   | 0.044503   | 0.049979   |   1.8 |  6.47
Other   |            | 0.005004   |            |       |  0.73

Nlocal:        83.3333 ave          90 max          75 min
Histogram: 1 0 5 3 8 5 16 2 5 3
Nghost:        2108.69 ave        2132 max        2092 min
Histogram: 2 1 9 10 9 9 6 1 0 1
Neighs:        13791.8 ave       15544 max       11534 min
Histogram: 1 0 3 3 12 10 7 8 2 2

Total # of neighbors = 662006
Ave neighs/atom = 165.50150
Neighbor list builds = 142
Dangerous builds = 14

#############################
# L I N E A R  Q U E N C H  #
#############################

# Define solid atoms. This closely follows ten Wolde  Ruiz-Montero and Frenkel  Faraday Discuss  1996  104  93-110
# Compute components of the per-atom q6 vector
compute q6 all orientorder/atom degrees 1 6 components 6 nnn NULL cutoff 1.3 # compute the Q6 parameter.
                                                                             # Use all neighbours within 1.3 unit cell.

# get number of connections
compute coord_number all coord/atom orientorder q6 0.5

# An atom is solid if it has 8 or more connections (of a possible 14)
variable is_solid atom c_coord_number>=8
group solid dynamic all var is_solid    # Must be dynamic to update
dynamic group solid defined

# do clustering
compute cluster solid cluster/atom 1.3 # Create a cluster where all atoms within are solid and max 1.3 units from another member

# define chunks one chunk per cluster
compute clus_chunks solid chunk/atom c_cluster nchunk every compress yes  # Says which atoms are in which chunk

# count the size of each chunk
compute size_chunks solid property/chunk clus_chunks count


# Find the maximum entry in the vector of chunk sizes
variable max_n equal max(c_size_chunks)


# Thermo style which includes this variable
# thermo_style custom step temp pe vol v_max_n

thermo ${N}  # Print the thermo information every 100 steps
thermo 1000  

# Reset the npt fix at a lower temperature (below freezing)
fix 1  all npt temp  ${temp} ${temp}  0.1  iso  5.68  5.68  0.5  mtk yes tchain  5  pchain  5
fix 1  all npt temp  0.45 ${temp}  0.1  iso  5.68  5.68  0.5  mtk yes tchain  5  pchain  5
fix 1  all npt temp  0.45 0.45  0.1  iso  5.68  5.68  0.5  mtk yes tchain  5  pchain  5

dump dmp2 all dcd ${N} traj.dcd
dump dmp2 all dcd 1000 traj.dcd


compute msd all msd com yes
variable twopoint equal c_msd[4]/6/(step*dt+1.0e-6)
fix 9 all vector 10 c_msd[4]
variable fit equal slope(f_9)/6/(10*dt)
thermo_style custom step temp pe c_msd[4] v_twopoint v_fit v_max_n

fix 1 all npt temp 1.25 ${temp} 0.1 iso 5.68 5.68 0.5 mtk yes tchain 5 pchain 5
fix 1 all npt temp 1.25 0.45 0.1 iso 5.68 5.68 0.5 mtk yes tchain 5 pchain 5
run 2000000 # 5000000  # Run for this many steps
Neighbor list info ...
  update every 1 steps, delay 10 steps, check yes
  max neighbors/atom: 2000, page size: 100000
  master list distance cutoff = 3.8
  ghost atom cutoff = 3.8
  binsize = 1.9, bins = 8 8 8
  4 neighbor lists, perpetual/occasional/extra = 1 3 0
  (1) pair lj/cut, perpetual
      attributes: half, newton on
      pair build: half/bin/atomonly/newton
      stencil: half/bin/3d
      bin: standard
  (2) compute orientorder/atom, occasional
      attributes: full, newton on
      pair build: full/bin/atomonly
      stencil: full/bin/3d
      bin: standard
  (3) compute coord/atom, occasional
      attributes: full, newton on
      pair build: full/bin/atomonly
      stencil: full/bin/3d
      bin: standard
  (4) compute cluster/atom, occasional
      attributes: full, newton on
      pair build: full/bin/atomonly
      stencil: full/bin/3d
      bin: standard
Per MPI rank memory allocation (min/avg/max) = 9.844 | 9.852 | 9.859 Mbytes
Step Temp PotEng c_msd[4] v_twopoint v_fit v_max_n 
   12000    1.2678674   -5.8423125 4.1539443e-30 2.8846834e-32 8.3333333e+20            3 
   13000    1.2527365   -5.8575998   0.59911341 0.0038404704  0.049705377            3 
   14000    1.2709534    -5.862515    1.2065369 0.0071817671  0.050258801            2 
   15000    1.2887357   -5.8579344    1.7707232 0.0098373506  0.049191237            1 
   16000    1.2324093   -5.8832123    2.2873754  0.011913413  0.048128289            1 
   17000    1.2374944   -5.8526018    2.8272907  0.013859268   0.04684769            3 
   18000    1.2486831   -5.8598557     3.365886  0.015582805  0.046394508            5 
   19000    1.2734508   -5.8906457    3.9335279  0.017252315  0.046035423            3 
   20000    1.2150813   -5.9122863    4.5281871  0.018867446  0.046245804            2 
   21000     1.280061   -5.9016532    5.0532457  0.020052562  0.046382776            2 
   22000    1.2467837   -5.8606443    5.5965751  0.021199148  0.046327745            4 
   23000    1.2717068   -5.8392932    6.2185776  0.022531078  0.046320355            2 
   24000    1.2582459    -5.859511    6.6859947  0.023215259   0.04626919            2 
   25000    1.2408583   -5.8807481    7.1852259  0.023950753  0.046049927            2 
   26000    1.2156997   -5.8547779     7.670671  0.024585483  0.045728741            2 
   27000    1.2654441   -5.8792401    8.1628061  0.025193846  0.045367489            1 
   28000     1.249313   -5.8667228    8.6755499  0.025820088   0.04510457            2 
   29000    1.2480161   -5.8703483    9.2349542  0.026537224  0.044859828            4 
   30000    1.2520228   -5.8538711    9.7551703  0.027097695  0.044759093            1 
   31000     1.236644   -5.8888378    10.328139  0.027763815  0.044722426            2 
   32000    1.2403438   -5.8591193    10.995058  0.028632963   0.04478801            2 
   33000    1.2405878   -5.8458009    11.582398  0.029248479   0.04486165            3 
   34000    1.2536314   -5.9116526    12.023202  0.029468631  0.044911081            3 
   35000    1.2735705   -5.8970136    12.673503  0.030175008  0.044997771            2 
   36000    1.2171393   -5.8646133    13.219631  0.030600998  0.045092813            2 
   37000    1.2271761   -5.9085754    13.615674  0.030665931  0.045128619            3 
   38000    1.2275456   -5.8953748    14.221892   0.03118836  0.045107167            2 
   39000    1.2514796   -5.8714051    14.806171  0.031637118  0.045129647            2 
   40000    1.2550582   -5.8251444    15.516852  0.032326774  0.045201605            1 
   41000    1.2208287   -5.8462283    16.181916  0.032890072  0.045337181            1 
   42000    1.2412775   -5.8880813    16.790358  0.033314203   0.04550183            2 
   43000    1.2381781    -5.897632    17.416327  0.033752572  0.045672281            3 
   44000     1.250499   -5.8841186    18.062681  0.034209624  0.045876297            2 
   45000     1.230303   -5.8674301    18.507149  0.034272498  0.046026303            2 
   46000     1.245892   -5.8795892    19.055085   0.03452008  0.046127665            1 
   47000    1.2285426   -5.9025766    19.541705  0.034648414  0.046196642            1 
   48000    1.2234454   -5.8649641    19.937738  0.034614128  0.046215858            3 
   49000    1.2612155     -5.92082    20.423604   0.03473402  0.046195511            3 
   50000    1.2378775   -5.9103736    20.856952  0.034761587  0.046150904            3 
   51000    1.2283804    -5.913295    21.474279  0.035088692  0.046093713            2 
   52000    1.2384155    -5.909194    22.081534  0.035387073  0.046076441            2 
   53000    1.2562604   -5.8591735     22.73621  0.035748757  0.046085314            5 
   54000    1.2611447   -5.8768795    23.150471  0.035726035  0.046084143            6 
   55000     1.214157   -5.8777577     23.58514   0.03573506  0.046065149            1 
   56000    1.2186713    -5.956368    23.966773  0.035664841  0.045993766            3 
   57000    1.2433267   -5.9470567    24.483654  0.035794815  0.045919548            2 
   58000    1.2299131   -5.8641351      25.0744  0.036026436  0.045828459            2 
   59000    1.2344935   -5.9395141    25.371763  0.035835824  0.045749771            1 
   60000    1.2591616   -5.9074313    26.196024  0.036383366  0.045667498            4 
   61000    1.2180844    -5.896886    26.699842  0.036475193  0.045610455            2 
   62000    1.2165971   -5.8936553    27.224094  0.036591523  0.045568504            3 
   63000    1.2555515   -5.9232209    27.707968  0.036650751  0.045532621            5 
   64000    1.2499637   -5.9341801    28.221212   0.03674637    0.0454916            5 
   65000    1.2231793    -5.936424     28.69598  0.036789718  0.045436324            4 
   66000    1.2339644   -5.9583908     29.16859  0.036829028  0.045385227            3 
   67000     1.212751   -5.9356088    29.751678  0.037004575  0.045335933            3 
   68000    1.2202121   -5.9177856    30.523945  0.037406796  0.045296056            3 
   69000    1.2359233   -5.9263567    30.854569  0.037263972  0.045260284            3 
   70000    1.2514336   -5.9363345    31.601689  0.037621058   0.04524231            3 
   71000    1.2136768   -5.9013097    32.019049  0.037581043  0.045220214            3 
   72000    1.2188861    -5.906343    32.513021  0.037630811  0.045188027            1 
   73000    1.2351756    -5.914448    33.004563  0.037676442  0.045157755            2 
   74000    1.2289828   -5.9473828    33.204537  0.037392496  0.045110449            2 
   75000    1.2394513   -5.9168242    33.808976  0.037565529  0.045058224            3 
   76000    1.1987945   -5.9463271    34.249949  0.037554768  0.044993787            1 
   77000    1.2590427   -5.9266716     34.91464  0.037786407  0.044930812            1 
   78000    1.2335633   -5.9159872    35.340765  0.037757227  0.044881938            1 
   79000    1.2073119   -5.9324369    35.747982  0.037708842  0.044826647            7 
   80000    1.2246857   -5.8875139    36.467856  0.037987349  0.044763503            2 
   81000    1.2277366   -5.9184807     36.72892  0.037786955   0.04470153            3 
   82000    1.2016584   -5.8795442    37.467176  0.038076398  0.044654604            3 
   83000    1.2208026   -5.8923766    38.124631  0.038277741  0.044608977            2 
   84000    1.2147152    -5.917161    38.582072  0.038275865  0.044570134            3 
   85000      1.20098   -5.9226545    39.172065  0.038403985  0.044541668            1 
   86000    1.1889425   -5.9281368    39.924777  0.038686799  0.044524353            3 
   87000    1.2429214   -5.8869943    40.530042  0.038821879  0.044516187            3 
   88000    1.2194992   -5.9603969    41.069684  0.038891746  0.044524761            5 
   89000    1.2281023   -5.9057367    41.525019  0.038881104  0.044528375            7 
   90000     1.211935   -5.9753512    42.231008  0.039102785  0.044535147            6 
   91000    1.2327666    -5.920027    42.697989  0.039100722  0.044543183            2 
   92000    1.2118254   -5.9383526    43.161293  0.039095373  0.044548949            4 
   93000    1.2102537   -5.9338226    43.733553  0.039187772    0.0445628            2 
   94000    1.2076822   -5.9433089    44.333562  0.039302803  0.044574976            2 
   95000    1.2066769   -5.9306522     44.70812  0.039217649  0.044574233            2 
   96000    1.2258646   -5.9357131    45.385818  0.039397411  0.044578143            2 
   97000    1.2112472   -5.9301172    45.757552  0.039310611   0.04457969            2 
   98000    1.2041223   -5.8901044     46.40627  0.039461114   0.04457582            2 
   99000    1.2145174   -5.9966552    46.416201  0.039070876  0.044560389            4 
  100000    1.1986977   -5.9564638    47.132298  0.039276915  0.044540254            3 
  101000    1.2102222   -5.9407592     47.50884  0.039198713  0.044515106            6 
  102000    1.2400479   -5.9067515    47.866271   0.03910643  0.044483087            6 
  103000    1.1926113   -5.9146137    48.567305  0.039293936  0.044441291            1 
  104000    1.2345776   -5.9599944    48.786703  0.039091909  0.044403281            3 
  105000    1.2302651    -5.945228    49.210856  0.039056235  0.044366036            3 
  106000     1.225189   -5.9825983    49.826032  0.039171409  0.044333431            3 
  107000    1.2206046   -5.9662751    50.449255  0.039290697  0.044301149            3 
  108000    1.2030198   -5.9769231    50.731072  0.039144345  0.044273316            3 
  109000    1.2126232   -5.9496113    51.564028   0.03942204  0.044242829            3 
  110000    1.2005662   -5.9217154    52.081241  0.039455485  0.044218039            4 
  111000    1.2221705   -5.9557089    52.435295  0.039365837  0.044196142            2 
  112000    1.2056193   -5.9502906    53.136742  0.039536266  0.044172183            3 
  113000    1.2144963   -5.9523046    53.641326    0.0395585  0.044157154            4 
  114000    1.2185647    -5.970976    54.037115  0.039500815  0.044141124            2 
  115000    1.1970153   -5.9751178    54.500502  0.039493117  0.044125215            2 
  116000    1.2184805   -5.9599389    55.241392  0.039684908  0.044102527            4 
  117000    1.1958033     -5.99279    55.824666  0.039761158  0.044086833            2 
  118000    1.2065287   -5.9216222    56.392979   0.03982555  0.044072318            2 
  119000    1.1876104   -5.9304314    56.991886  0.039910284  0.044059075            2 
  120000    1.2176735   -5.9749458    57.059025  0.039624322  0.044041878            3 
  121000    1.2094625     -5.90169     57.81725  0.039819042  0.044021782            1 
  122000    1.2151558   -5.9744238    57.852059  0.039516433   0.04399978            3 
  123000    1.1890873   -5.9392135    58.364108  0.039542079  0.043973859            2 
  124000    1.2229825   -5.9363754    58.994552  0.039646876  0.043949311            2 
  125000    1.2092269   -5.9173931    59.868241  0.039912161   0.04392966            2 
  126000    1.2015992   -5.9901639     59.93316  0.039638333  0.043903575            2 
  127000    1.1786245   -5.9601521    60.595498  0.039760826  0.043877888            3 
  128000    1.1926525   -5.9782874    60.969102  0.039693425   0.04385278            2 
  129000    1.1980916   -5.9960556    61.407108  0.039668674  0.043827661            7 
  130000    1.2076446    -5.939619    61.910719  0.039686358   0.04380214            2 
  131000    1.1998208   -5.9993395    62.296907  0.039629075  0.043774848            2 
  132000    1.1792131    -5.962659    62.925305  0.039725571    0.0437516            2 
  133000    1.1991401   -5.9558164    63.548683  0.039817471  0.043728106            3 
  134000    1.1710416   -5.9821306    64.262558  0.039964277  0.043706217            1 
  135000    1.2254585   -5.9656772       64.701  0.039938889  0.043689499            2 
  136000     1.205564   -5.9677067    65.397001  0.040071692  0.043673398            4 
  137000    1.1954005   -5.9959417    65.555642  0.039875695  0.043658401            3 
  138000    1.1858173    -5.957319    66.279688  0.040023966  0.043637086            6 
  139000    1.1750744   -5.9812313      66.6581  0.039962889  0.043619867            5 
  140000     1.180483   -5.9915206    66.845953  0.039789258   0.04359544            3 
  141000    1.2408222   -5.9554782    67.643161  0.039978228  0.043572578            1 
  142000      1.21723   -5.9307501    67.930804  0.039865495  0.043549747            2 
  143000    1.1973127   -5.9271201    68.447634  0.039887898  0.043519064            4 
  144000    1.1973719   -5.9883119    68.243066  0.039492515  0.043488132            2 
  145000    1.2020185    -6.008983    68.503579  0.039369873  0.043447981            2 
  146000    1.1880497   -6.0040173    69.366266  0.039592617  0.043411867            2 
  147000    1.2094334   -5.9609259     70.02716  0.039697936  0.043377195            2 
  148000    1.2138689   -5.9959049     70.21355  0.039534657  0.043340502            5 
  149000    1.1778487   -5.9817213    70.624758  0.039499305  0.043300246            2 
  150000    1.2057389   -6.0032375    71.032971  0.039462762  0.043262265            1 
  151000    1.1749698   -5.9770291    71.601469  0.039515159  0.043222919            1 
  152000     1.190852    -5.944416    72.139226  0.039550014  0.043187336            2 
  153000    1.2001111   -6.0058638     72.39631  0.039431541  0.043151115            4 
  154000     1.168422   -5.9951925     73.16352  0.039590649  0.043115285            2 
  155000    1.1696572   -6.0476175     73.23088  0.039371441  0.043076049            5 
  156000    1.1973735   -5.9433467    74.138046  0.039603657  0.043042118            2 
  157000    1.2039927   -5.9824577    74.629682  0.039612358  0.043007397            2 
  158000    1.1875482   -5.9903759    74.963784   0.03953786  0.042975846            3 
  159000    1.1825963   -5.9846285    75.895841  0.039777694  0.042951092            3 
  160000    1.1916028    -6.020036    75.972136  0.039568821  0.042927079            5 
  161000    1.1891027   -6.0541288     76.53272  0.039613209  0.042899681            1 
  162000    1.1769085   -5.9863159    77.189907  0.039706742  0.042873215            1 
  163000    1.1867508   -5.9908668    77.472949  0.039607847  0.042847182            4 
  164000    1.1881486   -6.0257286    78.130366  0.039700389  0.042819855            3 
  165000    1.2177094   -5.9857992    78.860878  0.039828726  0.042794289            3 
  166000    1.1664657   -6.0171593    79.331868  0.039825235  0.042775327            2 
  167000    1.1849971   -5.9677542    79.842322  0.039841478  0.042754797            7 
  168000    1.1923598   -6.0155951    80.114601  0.039739385  0.042731651            4 
  169000    1.1752612   -5.9701637    80.618997  0.039752957  0.042708479            5 
  170000    1.1715802   -5.9951539    81.313712  0.039859663   0.04269034            2 
  171000    1.1872961   -6.0305814    81.327184  0.039633131  0.042668567            4 
  172000    1.1928932   -6.0041326    82.155107  0.039803831  0.042645683            2 
  173000     1.188107   -6.0017178    82.312084  0.039649366  0.042622178            2 
  174000    1.1918672   -6.0298092    82.269755  0.039401224  0.042598486            2 
  175000    1.1937358   -6.0364048    83.469523  0.039747392  0.042578242            1 
  176000    1.1994674   -6.0168354    83.796405  0.039676328  0.042558043            3 
  177000     1.199109    -6.010096    83.962019  0.039530141   0.04253271            3 
  178000    1.1777109   -6.0375786     85.00631  0.039796962  0.042510914            4 
  179000     1.205953   -6.0376537    86.052389  0.040061633  0.042494361            2 
  180000    1.2045492   -6.0240013    86.193656   0.03990447  0.042476774            2 
  181000    1.1825628   -6.0256791    86.870474  0.039995614  0.042460166            4 
  182000    1.1863308   -6.0087062    87.548733  0.040086416  0.042448494            2 
  183000    1.1925457   -6.0107637    87.702133  0.039937219  0.042439933            2 
  184000    1.2008155   -5.9900466    88.198188  0.039944831  0.042427713            5 
  185000    1.1957274   -6.0197446    88.593344  0.039906912  0.042412233            3 
  186000    1.1578974   -5.9836542    89.263409  0.039992567  0.042392353            1 
  187000    1.2185796   -6.0172456    89.520601  0.039893316  0.042374435            8 
  188000    1.1756126   -5.9812922    89.819771  0.039813728  0.042355848            2 
  189000    1.1571804   -6.0397005    89.946202  0.039658819   0.04233542            4 
  190000    1.1613383   -6.0286345    90.390666  0.039645029  0.042314393            2 
  191000    1.1424052    -6.025418    90.772069  0.039603869  0.042289561            2 
  192000    1.1849942   -5.9818646    91.134651   0.03955497  0.042259788            2 
  193000    1.1831423   -6.0377544     91.35311  0.039444348  0.042229801            4 
  194000     1.165724   -6.0488805    91.466661  0.039289803  0.042195931            2 
  195000    1.1806007   -6.0253185    92.164693  0.039386621  0.042165059            4 
  196000    1.1790973   -6.0349958    92.468604  0.039314883  0.042133332            5 
  197000    1.1653691   -6.0491333    92.802441  0.039256532  0.042099171            3 
  198000    1.1639155   -6.0109213    93.713072  0.039441529  0.042066846            3 
  199000    1.1868889    -6.051159    93.275445  0.039060069  0.042033382            3 
  200000    1.1691551   -6.0424829     94.06829  0.039195121  0.041997803            4 
  201000    1.1666118   -6.0245831    94.970018  0.039373971  0.041965657            2 
  202000     1.172237   -6.0499414    95.339242   0.03933137  0.041932295            6 
  203000    1.1544464   -6.0454808     95.46938  0.039191043  0.041898593            4 
  204000    1.1703892   -6.0513801    95.920166  0.039183074  0.041867646            3 
  205000    1.1919084   -6.0230111    96.741068  0.039325637  0.041838505            3 
  206000    1.1920446   -6.0456312    97.376037  0.039391601  0.041810193            1 
  207000    1.1880309   -6.0439151    96.898929   0.03900923  0.041780958            2 
  208000    1.1703865   -6.0773726    97.388273  0.039017738  0.041747817            4 
  209000    1.1794183   -6.0632238    97.730279  0.038967416  0.041713787            2 
  210000    1.1681932   -5.9848972    98.493799  0.039084841  0.041678141            2 
  211000     1.163006   -6.0393133    98.982367  0.039092562  0.041646808            2 
  212000    1.1279361   -6.0822568    99.193219  0.038991045  0.041615737            3 
  213000    1.1707325   -6.0470144    99.518152  0.038935114  0.041583331            5 
  214000     1.160026   -6.0414007    100.35261   0.03907812  0.041551199            3 
  215000    1.1716491   -6.0335199    100.45939  0.038937747  0.041519443            4 
  216000    1.1489309   -6.0763886    100.79077  0.038885328  0.041488505            3 
  217000    1.1778738   -6.0521751     101.5972  0.039015823  0.041458247            5 
  218000    1.1789568    -6.026896    102.20196  0.039068029   0.04142808            1 
  219000    1.1739278   -6.0336046    102.43954  0.038980039  0.041396012            4 
  220000    1.1681383   -6.0446212    103.02052  0.039022925  0.041365613            3 
  221000    1.1670285   -6.0452788    103.42978  0.039000671  0.041334881            3 
  222000    1.1646106   -6.0553747    103.65693  0.038910257  0.041302363            2 
  223000     1.172573   -6.0619694    104.02037  0.038871589  0.041271469            3 
  224000    1.1569767   -6.0367462     104.4134  0.038844272  0.041239862            2 
  225000    1.1534755   -6.0441426    104.95641  0.038872744  0.041211094            4 
  226000    1.1423037   -6.0174977     105.4538  0.038884146  0.041182183            3 
  227000    1.1615525    -6.025809    105.90355  0.038877956   0.04115286            4 
  228000    1.1761319   -6.0712034    106.24356  0.038831711  0.041121273            3 
  229000    1.1491844   -6.0755832     106.4381  0.038732933  0.041091817            4 
  230000    1.1729304   -6.0223835    106.62523   0.03863233  0.041060603            4 
  231000    1.1555563   -6.0495952    107.56693   0.03880481  0.041027875            2 
  232000    1.1571259   -6.0542107    107.89133   0.03875407  0.040993329            2 
  233000    1.1756978   -6.0947483     107.5995   0.03848337  0.040959685            2 
  234000    1.1821071   -6.0786271    108.41041  0.038607696  0.040925958            4 
  235000     1.134609   -6.0734902    109.11947  0.038694846  0.040893222            9 
  236000    1.1424126   -5.9840737    109.68256  0.038729717  0.040860722            2 
  237000    1.1441016   -6.0940538    109.44074  0.038481274  0.040826621            3 
  238000    1.1764808   -6.0563988    109.61203  0.038379561  0.040793444            3 
  239000    1.1611318   -6.0365044    110.28374  0.038453189  0.040759324            3 
  240000    1.1765017   -6.0744676    110.75152  0.038455387  0.040726774            2 
  241000    1.1750021   -6.0878366    111.19896  0.038450538  0.040693053            3 
  242000    1.1235722   -6.0749254    111.76978  0.038488216  0.040663893            2 
  243000     1.143239   -6.1148635     112.1042  0.038444514   0.04063354            3 
  244000    1.1535031   -6.0993706    112.55768  0.038441831  0.040606119            3 
  245000    1.1579785   -6.0615696    113.54605  0.038621105  0.040576958            3 
  246000     1.138212    -6.057963    113.72502  0.038524737  0.040549403            1 
  247000    1.1491391   -6.0950972    114.42308  0.038604277  0.040524416            4 
  248000     1.164869   -6.0519728    115.13455  0.038687684  0.040501225            3 
  249000    1.1465778   -6.0807117    115.41093  0.038624808  0.040476197            2 
  250000    1.1602218   -6.1466274     115.0201  0.038340034   0.04044989            7 
  251000    1.1542597   -6.0854552    115.65271  0.038397314  0.040421761            2 
  252000    1.1699825   -6.1080963    115.80225  0.038294396  0.040394484            6 
  253000     1.174358   -6.0822381    116.79932   0.03847145  0.040367785            2 
  254000    1.1328567   -6.0488878    117.59179  0.038579984  0.040342443            1 
  255000    1.1579425   -6.0628221     117.8233  0.038504347  0.040317198            2 
  256000    1.1365826   -6.1480638    117.92509  0.038387075  0.040290794            5 
  257000    1.1599602   -6.0991292     118.4191  0.038397893  0.040264672            5 
  258000    1.1463055   -6.1091873    118.70645  0.038341877  0.040239144            3 
  259000    1.1594483   -6.0855509    119.20244  0.038353422  0.040211247            2 
  260000    1.1763197   -6.0297235    119.69025  0.038362258  0.040183939            4 
  261000    1.1442611   -6.0739211     119.8564  0.038268328  0.040155933            1 
  262000    1.1693618   -6.0491995    120.58341  0.038353503  0.040128297            2 
  263000    1.1508629    -6.090419    120.79212  0.038273803  0.040100419            2 
  264000    1.1498226    -6.072801    121.38936  0.038317348  0.040074346            1 
  265000    1.1499924   -6.1148911    122.15756  0.038414326  0.040050838            3 
  266000    1.1408497   -6.1053575    122.40685   0.03834801  0.040025772            2 
  267000    1.1633865   -6.0562838    122.91461  0.038362862  0.039999503            2 
  268000    1.1343125   -6.1175967    122.92014  0.038221436  0.039973408            1 
  269000    1.1476881   -6.0439067    123.95487  0.038399897   0.03994844            3 
  270000    1.1750893   -6.0997202    123.65889  0.038166324  0.039924017            3 
  271000     1.154342   -6.1062565    123.99689  0.038129426  0.039899561            5 
  272000    1.1362264   -6.0696701    124.31467  0.038086603  0.039872319            5 
  273000    1.1322291    -6.082385    125.16875  0.038207798  0.039845747            1 
  274000     1.148684   -6.1088964    125.65869  0.038217364  0.039819399            3 
  275000    1.1495326   -6.1313828    125.41194  0.038003617  0.039793934            3 
  276000    1.1239872     -6.08793    126.45617  0.038181212  0.039768908            3 
  277000     1.145244    -6.087027     126.4016  0.038026954  0.039744099            1 
  278000    1.1361263   -6.1260567    126.74064    0.0379918  0.039717454            3 
  279000    1.1422419   -6.1023029    127.14383  0.037976056   0.03968897            3 
  280000    1.1369264   -6.0831486    128.17096   0.03814612  0.039662568            2 
  281000    1.1647103   -6.1066476    128.53957  0.038119684  0.039638157            2 
  282000    1.1304652   -6.1158461    128.75618  0.038048517   0.03961345            3 
  283000    1.1452548   -6.1041274     128.7454  0.037910895  0.039587673            4 
  284000    1.1158831   -6.0987434    129.81152  0.038090235  0.039561777            4 
  285000    1.1299974   -6.1124411    129.82924  0.037961767  0.039535704            2 
  286000    1.1321601   -6.1146305    129.75313  0.037806857  0.039508698            3 
  287000    1.1462006   -6.1115434    130.99398  0.038035418  0.039483009            2 
  288000    1.1609231   -6.1396682    131.13467   0.03794406  0.039457908            3 
  289000    1.1432969   -6.1221581    131.84994  0.038019014  0.039433519            7 
  290000    1.1581042   -6.1157577    132.33455  0.038027169  0.039410332            4 
  291000    1.1524558   -6.1107365    132.19974  0.037857886  0.039387787            3 
  292000    1.1293185   -6.1669338    132.13612  0.037710079  0.039364151            1 
  293000    1.1557995   -6.1126645    133.17451  0.037876709  0.039339439            2 
  294000    1.1450183   -6.1181433    133.67841  0.037890706  0.039314918            1 
  295000    1.1428757   -6.1251964    133.58867  0.037736914  0.039289657            5 
  296000    1.1402933   -6.0793982    134.37833  0.037831737  0.039264796            4 
  297000     1.128338   -6.0917333    134.56361  0.037756343  0.039240576            3 
  298000    1.1366024   -6.0894844      135.407  0.037865492  0.039214993            3 
  299000    1.0916662   -6.1503543    134.83524  0.037579499  0.039189223            4 
  300000    1.1406614   -6.1062497    135.73141  0.037703169  0.039162613            3 
  301000     1.099493   -6.0637262    136.21085  0.037710645   0.03913675            2 
  302000    1.1376053   -6.1292145    136.11646  0.037559731  0.039110876            1 
  303000    1.1303506   -6.0956305    137.23555   0.03774355  0.039085561            3 
  304000    1.1290459   -6.1256392     137.1192  0.037587499  0.039060067            3 
  305000    1.1275283   -6.1470332    137.76751  0.037641396  0.039034423            3 
  306000    1.0894768   -6.1997386    137.56695  0.037463766  0.039008265            3 
  307000    1.1381771    -6.127835    137.86008  0.037421302  0.038981687            7 
  308000    1.1439945   -6.1193647    138.47441  0.037466021  0.038955999            1 
  309000    1.1236134   -6.1214043    138.91931  0.037464753  0.038930018            5 
  310000    1.1270283   -6.1273578    139.04853  0.037378638  0.038903486            2 
  311000    1.1304624   -6.1514058     139.5623  0.037396115  0.038877652            3 
  312000    1.1315593   -6.1186977    140.03138  0.037401543  0.038850872            3 
  313000    1.1480097   -6.0899556    140.33228  0.037362163  0.038824381            3 
  314000     1.140229    -6.110619     140.5305  0.037295781   0.03879866            5 
  315000    1.1403372   -6.1266717    141.12737  0.037335282  0.038771789            3 
  316000     1.111533   -6.0935283    141.27366  0.037255713  0.038744828            4 
  317000     1.139773   -6.1787528    142.00527  0.037330512  0.038718569            5 
  318000     1.128116   -6.1396044    142.44111  0.037327336  0.038693254            4 
  319000    1.1003704      -6.1604    142.25991  0.037162987  0.038667311            2 
  320000    1.1438147   -6.1763879    142.93296  0.037222124  0.038642154            3 
  321000     1.141368   -6.1711449    143.85048  0.037344363  0.038617514            5 
  322000    1.1227814   -6.1251215    144.28412  0.037340612  0.038594492            3 
  323000    1.1495454   -6.1316687    144.56166  0.037296609  0.038571229            3 
  324000     1.143363   -6.1958267    144.78529  0.037239016  0.038546531           12 
  325000    1.1368093   -6.1461122    145.73203  0.037367187  0.038522963            3 
  326000    1.1407088   -6.1318003    145.97039  0.037313495  0.038499293            8 
  327000    1.1024198   -6.1550453    146.40323  0.037309693  0.038476081            6 
  328000     1.135645    -6.198184    146.01255  0.037096683  0.038452946            1 
  329000     1.140376   -6.1568194    146.84884  0.037195754  0.038430306            3 
  330000    1.1519011   -6.1346734    147.30551  0.037198361  0.038406781            2 
  331000    1.1196361   -6.2134455     147.1501  0.037046853  0.038383736            3 
  332000    1.1363886   -6.1660807    147.79151  0.037096263  0.038360788            4 
  333000     1.116117   -6.1633646    148.49053  0.037159792  0.038338423            4 
  334000    1.1281831   -6.1608647    148.91576   0.03715463  0.038316199            2 
  335000    1.1242241   -6.1679091    149.12812  0.037096547  0.038294151            1 
  336000    1.1339204   -6.1854149    150.01067  0.037205028  0.038273185            5 
  337000    1.1125331   -6.1224734    151.32129  0.037418716  0.038253244            5 
  338000    1.1230039   -6.1413232    150.89957  0.037204035  0.038231829            1 
  339000    1.1109433    -6.166936    150.30633  0.036948459  0.038211743            1 
  340000    1.1108782   -6.1835573    150.81514  0.036964496  0.038189563            2 
  341000     1.114007   -6.1576926    151.44107  0.037009058  0.038168102            4 
  342000    1.1304024   -6.1568742    152.50856  0.037160956  0.038146927            2 
  343000    1.1117851   -6.1945283    152.00726   0.03693082  0.038125357            2 
  344000    1.1417134   -6.1511243    152.76985  0.037008201  0.038103472            3 
  345000    1.1047091   -6.1351429    153.77668  0.037144126  0.038082206            2 
  346000     1.080771   -6.1319337    153.55633  0.036983702  0.038062657            2 
  347000    1.1155442   -6.1786843    153.63682  0.036896451  0.038041661            4 
  348000    1.1173982   -6.1728187     154.3025  0.036949832  0.038021662            3 
  349000    1.1328137   -6.1055913    155.52298  0.037135381  0.038001757            3 
  350000    1.1193453   -6.1836279    154.97942  0.036899863  0.037981823            2 
  351000    1.1249872    -6.159688    154.93516  0.036784225   0.03796053            4 
  352000     1.120194   -6.1769733    155.55455   0.03682636  0.037939188            3 
  353000    1.1107202   -6.1761959    155.80106  0.036780232  0.037916046            5 
  354000    1.0947955   -6.1189955    156.37321  0.036811019  0.037892651            3 
  355000    1.1075138   -6.1179684    157.00155  0.036854824  0.037869343            1 
  356000    1.1138078   -6.1951523    156.91448  0.036730918   0.03784716            3 
  357000    1.1074945   -6.1720965    157.87734  0.036852787  0.037826016            3 
  358000    1.1207701   -6.1621165    158.39528  0.036870409  0.037804156            6 
  359000    1.1325062    -6.175075    158.11018  0.036701527  0.037783242            4 
  360000    1.1039646   -6.1720611     159.2447  0.036862199  0.037762266            3 
  361000    1.1185712   -6.1906897    159.25353  0.036762126  0.037742006            3 
  362000    1.1014784   -6.1435435    159.35779  0.036684574  0.037720683            2 
  363000    1.1185996   -6.2132181    159.10815  0.036526205  0.037699867            3 
  364000    1.0761029   -6.1638647    160.24244  0.036685539  0.037679039            2 
  365000    1.1125666   -6.2054433    160.48539  0.036640501  0.037657657            2 
  366000    1.0971243     -6.18119    161.43677  0.036757007  0.037636217            4 
  367000    1.1094297   -6.1785273    161.74105  0.036725941  0.037615517            4 
  368000    1.1049555   -6.1807824    162.11128  0.036709981  0.037595993            2 
  369000     1.099861   -6.1880766    162.06986  0.036601143  0.037576041            4 
  370000    1.1271493   -6.1550555    162.96708  0.036704296   0.03755645            5 
  371000    1.0986326   -6.1944138    163.10675  0.036636735  0.037536778            2 
  372000    1.1246283   -6.2262115    163.12261  0.036541803  0.037515966            5 
  373000    1.1223856   -6.1894117    162.40786   0.03628415    0.0374944            2 
  374000    1.1060817   -6.1981858    163.20915  0.036365675  0.037472164            2 
  375000    1.1169307      -6.2302    163.44156  0.036320347  0.037449557            3 
  376000    1.1103581   -6.2021672    164.58746  0.036477717  0.037427498            4 
  377000      1.09694   -6.1839115    164.95134  0.036461393  0.037406301            2 
  378000    1.1154507   -6.1943933    165.71418  0.036533108  0.037385927            6 
  379000    1.0755587    -6.204819    165.64502  0.036421509  0.037365754            3 
  380000    1.0974085   -6.2264453    166.04256  0.036412841  0.037345639            3 
  381000    1.1141398   -6.2162722    166.37039  0.036388975  0.037324339            3 
  382000    1.1393262   -6.1815341    167.52622   0.03654586  0.037303083            5 
  383000    1.1176976   -6.2095914    167.12833  0.036363867  0.037283299            3 
  384000    1.1057038   -6.2162182    167.52607  0.036355484  0.037262398            2 
  385000    1.0899633   -6.1816546    168.21971  0.036411193  0.037241929            3 
  386000    1.0928766   -6.2058015    168.12374  0.036296145  0.037222023            2 
  387000    1.1245612   -6.1866811    168.79192  0.036346236  0.037201904            2 
  388000    1.1012232   -6.1696799    169.28811   0.03635913  0.037181271            3 
  389000    1.1128721   -6.1812686    169.34711  0.036278301  0.037160259            8 
  390000     1.089193   -6.2350248    169.18503  0.036150648  0.037137688            3 
  391000    1.1020778   -6.2619904    169.49199  0.036123612  0.037115685            4 
  392000     1.119579   -6.2124669    169.93365  0.036125351  0.037094416            4 
  393000    1.0932234   -6.2504706    170.92464  0.036243562  0.037072713            4 
  394000    1.0944428   -6.1740415    171.32931  0.036237164  0.037052486            3 
  395000    1.0998244   -6.1679688    172.31418  0.036353203  0.037032319            4 
  396000    1.1202227    -6.185168    171.39222  0.036067386  0.037011613            2 
  397000    1.1022513   -6.2147522    172.06269  0.036117273  0.036989981            2 
  398000    1.0917542   -6.2240917    172.19784  0.036054824  0.036968802            2 
  399000    1.1020283   -6.2329027    173.28181  0.036190854  0.036946979            3 
  400000    1.0815654   -6.1894643     173.8313  0.036214854  0.036925558            5 
  401000     1.110469   -6.1786881    173.69834  0.036096911  0.036905351            6 
  402000    1.0843008    -6.228101    174.01041  0.036071809   0.03688427            4 
  403000    1.0787114   -6.2231662    174.29476  0.036041101  0.036863362            1 
  404000    1.0978693   -6.2362478    174.16688  0.035925512  0.036843064            2 
  405000     1.084456   -6.2014243    174.98629   0.03600541  0.036821561            6 
  406000    1.1048866   -6.2416126    174.86743  0.035892329  0.036800474            3 
  407000    1.0979218   -6.2281341     175.2276  0.035877887  0.036780056            5 
  408000    1.0639248   -6.2285556    175.73802  0.035894204  0.036759707            3 
  409000    1.1018135   -6.1984971    176.32343  0.035925719  0.036738796            3 
  410000    1.0962489   -6.2247678    175.72962  0.035717403  0.036718036            4 
  411000    1.1073794   -6.1828704    177.06387  0.035901028  0.036695811            6 
  412000    1.0919941   -6.2550797    176.84461  0.035769541  0.036673985            6 
  413000    1.1097369   -6.2629114    176.73459  0.035660732   0.03665168            5 
  414000    1.0801692   -6.2170826    176.82091  0.035591971   0.03662801            3 
  415000    1.1192286   -6.2426648    177.55007  0.035652624  0.036604992            3 
  416000    1.0782395   -6.2165489    177.77565  0.035612109   0.03658128            1 
  417000    1.0701832   -6.2224465    177.86559  0.035544681  0.036557647            3 
  418000     1.078147   -6.2689841    177.66683  0.035420022  0.036533274            3 
  419000    1.0828871   -6.2523918    178.21855  0.035445217  0.036508225            2 
  420000    1.0805707   -6.2375566    179.15402  0.035546432  0.036484136            2 
  421000    1.1035592   -6.2593175    179.15201  0.035461602  0.036460051            4 
  422000    1.1131305    -6.255107    179.24865  0.035396654  0.036436097            3 
  423000     1.096045   -6.2211985    180.01974  0.035464882  0.036412091            4 
  424000     1.074567   -6.2608536    180.28153  0.035432691  0.036389052            6 
  425000    1.0982789   -6.2609306    179.78834  0.035252615  0.036364868            5 
  426000    1.0723868   -6.2105492    181.43379  0.035491743  0.036341254            2 
  427000    1.1001906   -6.2561242    181.35372  0.035392998    0.0363182            2 
  428000    1.0633279   -6.2737572    181.25605  0.035291286   0.03629463            3 
  429000    1.1066052   -6.2348868    182.11374  0.035375629    0.0362712            9 
  430000    1.0672328   -6.2731069    182.19736  0.035309566  0.036248251            5 
  431000    1.0880902    -6.288439    182.71005  0.035326769  0.036224973            3 
  432000    1.0879217   -6.2489462    182.93279  0.035287962  0.036202226            5 
  433000    1.0827775   -6.2290215    183.10487  0.035239583  0.036179765            2 
  434000    1.0989891   -6.2293281    184.08245  0.035346093  0.036157454            4 
  435000    1.0645472   -6.2634866    184.26705  0.035300202  0.036134547            4 
  436000    1.0763935   -6.2738311    184.22563   0.03521132  0.036112525            6 
  437000    1.0795025   -6.2636626    184.38111  0.035160394  0.036089411            4 
  438000    1.1016553   -6.2422485    185.11172  0.035219125  0.036066614            2 
  439000    1.0856589   -6.2413136    185.18998  0.035153754  0.036042963            4 
  440000    1.0590803   -6.2657374    184.95276  0.035028931   0.03601914            4 
  441000    1.0682714   -6.2347034    185.18662  0.034993693  0.035995447            2 
  442000     1.068443    -6.291255    185.30196  0.034936267  0.035971188            4 
  443000    1.0732079   -6.2656018    185.47009   0.03488903  0.035946718            3 
  444000     1.080766   -6.2756023    185.83303  0.034878571  0.035922485            5 
  445000    1.0456034   -6.3187691    186.14715  0.034859016  0.035898073            4 
  446000    1.0664938   -6.2436328    187.54425    0.0350419  0.035874513            3 
  447000    1.0592959   -6.2574436    186.88667  0.034840915  0.035850996            5 
  448000    1.0770553   -6.2452362    187.88617  0.034949065  0.035827391            2 
  449000    1.0618017   -6.2785021     188.0087  0.034893969  0.035804625            4 
  450000    1.0971786   -6.2824104     188.7509   0.03495387  0.035781661            5 
  451000    1.0743037   -6.2748811    189.00774  0.034923825  0.035759449            5 
  452000    1.0510552   -6.2453924    189.82775  0.034997741  0.035736871            2 
  453000    1.0733466   -6.2600626    188.97097  0.034762871  0.035714037            3 
  454000    1.0641629   -6.2788036    188.97468  0.034686983  0.035690971            4 
  455000    1.0864918   -6.2520461    190.32062  0.034857257    0.0356677            4 
  456000    1.0837707   -6.2671955    190.11588    0.0347434  0.035644878            4 
  457000    1.0813334   -6.2844389    190.88656  0.034807906  0.035622402            4 
  458000    1.0722141   -6.2799336    190.76864  0.034710451  0.035599097            4 
  459000    1.0833747   -6.2878396    191.04588  0.034685164  0.035576401            6 
  460000      1.06773   -6.3033799    191.45804  0.034684427  0.035553928            6 
  461000    1.0768007   -6.2896517    192.26872  0.034755735  0.035530589            4 
  462000     1.044056   -6.2911318    192.05535  0.034642019  0.035508384            4 
  463000    1.0335793   -6.3194927    192.64153  0.034672701  0.035486093            2 
  464000    1.0628911   -6.2858271    194.31804  0.034899073  0.035463851            2 
  465000    1.0879935   -6.2905796    194.21215  0.034805044  0.035441761            3 
  466000    1.0673983    -6.293378    193.82075  0.034660363  0.035420594            3 
  467000    1.0469352   -6.2843912    193.99632  0.034617473  0.035398765            5 
  468000    1.0612504   -6.2476928    195.05089  0.034731284  0.035377867            3 
  469000    1.0402763   -6.2784079    195.19274  0.034682434  0.035356954            2 
  470000    1.0546666   -6.2380776    195.24397  0.034617725  0.035335677            4 
  471000    1.0680192   -6.2954994    195.60157  0.034607496  0.035315084            3 
  472000    1.0732751   -6.3205327    195.90076  0.034586998  0.035293613            4 
  473000     1.065146   -6.3131302     196.3046  0.034585024  0.035272287            3 
  474000    1.0849159   -6.2841706    196.82259  0.034603128   0.03525111            3 
  475000    1.0250141     -6.32463    196.98692  0.034559108  0.035230008            3 
  476000    1.0675805   -6.2645958    197.49695  0.034575796  0.035208822            6 
  477000    1.0927234    -6.285675    197.52871   0.03450886  0.035187061            3 
  478000    1.0686526   -6.2890601    197.68148  0.034463298    0.0351656            9 
  479000    1.0442122    -6.335642    197.44454  0.034350129  0.035143439            5 
  480000    1.0730412   -6.2803073    198.26357  0.034420759  0.035120697            4 
  481000    1.0439539    -6.237148     198.4346  0.034378829  0.035098469            5 
  482000    1.0630345   -6.2789412    198.84627  0.034378678  0.035075568            4 
  483000     1.041785   -6.2903548    198.71952  0.034285632  0.035053077            2 
  484000    1.0394421   -6.3083093    199.31928  0.034318059  0.035030405            5 
  485000    1.0774259   -6.3010822    199.64932  0.034304007  0.035008373            4 
  486000    1.0661495   -6.3129084    199.91643  0.034279223  0.034986897            3 
  487000     1.047953   -6.3213699    200.60244  0.034326222  0.034965099            3 
  488000    1.0475169   -6.3368826    200.19321  0.034185998  0.034943434            3 
  489000    1.0668304   -6.3116641    200.95894  0.034246581  0.034922488            2 
  490000    1.0597071   -6.2998699     201.5596  0.034278844  0.034901671            3 
  491000    1.0379714   -6.3361427    201.32688  0.034169531  0.034880422            3 
  492000    1.0654534   -6.3304782    202.31162  0.034266874  0.034859602            4 
  493000    1.0466255   -6.2918285    202.23525  0.034184457  0.034839393            3 
  494000     1.031149   -6.3178487    203.45102  0.034320348   0.03481884            7 
  495000    1.0792387   -6.2803059    203.64736  0.034284068  0.034798679            5 
  496000    1.0586421   -6.3080587    204.22313  0.034311682  0.034778753            4 
  497000    1.0571644   -6.3052312    203.89809  0.034188143  0.034758394            4 
  498000    1.0513678   -6.3604198    203.82709  0.034107611  0.034737882            6 
  499000    1.0410699   -6.3523673     204.1151  0.034087358  0.034716979            7 
  500000    1.0518559   -6.3182019    204.48688  0.034081147   0.03469676            2 
  501000    1.0500435   -6.3034944    204.82261  0.034068964  0.034676341            3 
  502000    1.0566049   -6.3130161    204.94113  0.034020772  0.034655091            4 
  503000    1.0405537   -6.3458075    204.96168  0.033956541  0.034633292            3 
  504000    1.0485129    -6.334816    205.36524  0.033955893  0.034611578            3 
  505000    1.0342444   -6.3461787    204.87398  0.033807587  0.034589433            2 
  506000    1.0562197    -6.330114    205.54401  0.033851121  0.034567262            3 
  507000    1.0573525   -6.2921343    207.27713  0.034069219  0.034545435            2 
  508000    1.0520363   -6.2973787    207.05174   0.03396518  0.034524251            2 
  509000    1.0526982   -6.3168839    206.92608  0.033877878  0.034503371            6 
  510000     1.068315   -6.2622031    208.23894   0.03402597  0.034482696            2 
  511000    1.0633685   -6.3010319    207.07367  0.033769352  0.034461777            3 
  512000    1.0693204   -6.2936494    207.67063  0.033800558  0.034440428            3 
  513000    1.0446032   -6.3740661    206.66619  0.033571506  0.034418264            9 
  514000    1.0427235   -6.3319249    207.76176  0.033683813  0.034395174            4 
  515000     1.067925   -6.3322401    207.41974  0.033563065  0.034372168            3 
  516000    1.0688604   -6.3205545    208.30604  0.033641156  0.034349129            3 
  517000    1.0503828   -6.3174138    207.98681   0.03352463  0.034325707            4 
  518000    1.0169999   -6.3081734    209.42757  0.033691694  0.034303336            3 
  519000     1.049288   -6.3607956    208.72548  0.033514046  0.034280896            2 
  520000    1.0498325   -6.3364864    209.54946  0.033581644   0.03425805            2 
  521000    1.0295208   -6.3521953    209.40116  0.033493468  0.034235021            2 
  522000     1.053562   -6.3328138    210.34813  0.033580481  0.034212216            4 
  523000    1.0480983   -6.3646726    209.87511  0.033440903  0.034189887            3 
  524000    1.0381143   -6.3424095    210.36803  0.033455476   0.03416746            4 
  525000      1.06483   -6.3512497    210.85092    0.0334684  0.034145232            5 
  526000    1.0340148   -6.3674951    210.92779  0.033416951  0.034122822            3 
  527000    1.0765554    -6.332737     211.7211  0.033478984   0.03410094            5 
  528000    1.0368169    -6.326092    211.98006  0.033456449  0.034079577            3 
  529000    1.0456354   -6.3685251    211.36067  0.033295631  0.034057227            4 
  530000    1.0117183   -6.3141169    212.33212  0.033385553  0.034035553            3 
  531000    1.0482498   -6.2960078    213.45822  0.033499407  0.034014216            2 
  532000    1.0584209   -6.3272512    213.58646  0.033456526  0.033992904            3 
  533000    1.0273489   -6.3418433    213.10557   0.03331857  0.033971452            5 
  534000     1.045749   -6.3548594    214.17281  0.033422723  0.033949884            2 
  535000    1.0306525   -6.3757616    214.72417  0.033446132  0.033928825            2 
  536000    1.0512561   -6.3403136    214.42656  0.033337463  0.033907473            2 
  537000    1.0396803   -6.3609461    215.68337  0.033470418  0.033886376            1 
  538000    1.0531833   -6.3517888    215.20113  0.033333508  0.033865719            7 
  539000    1.0602849   -6.3278464    216.16999  0.033421458  0.033844562            3 
  540000    1.0422496    -6.373241    215.22948  0.033214426  0.033823185            5 
  541000    1.0529533     -6.34833     215.5033   0.03319521  0.033801543            6 
  542000    1.0421157   -6.3397883    215.66819  0.033159316  0.033779601            2 
  543000    1.0241906    -6.400251    215.50397  0.033073047  0.033757115            3 
  544000    1.0303219   -6.3684844    216.02603  0.033092222  0.033735095            4 
  545000    1.0362033   -6.3972706    216.09548  0.033042122  0.033712865            3 
  546000    1.0426268   -6.3530171    216.35361  0.033021002  0.033690464            4 
  547000    1.0221048   -6.3818112    216.26415  0.032947006  0.033667879            5 
  548000    1.0307351   -6.3782444    217.21894  0.033032077  0.033645192            2 
  549000    1.0281539   -6.3629994    217.65882   0.03303868  0.033622856            3 
  550000    1.0410028   -6.3973933    216.62615  0.032822143  0.033600172            3 
  551000    1.0361424   -6.3485104    217.51763  0.032897404  0.033577109            2 
  552000    1.0325596   -6.3305883      217.971   0.03290625  0.033554235            6 
  553000    1.0180165     -6.37285    217.46095  0.032769884   0.03353109            3 
  554000    1.0201305   -6.3434737    218.00402  0.032792421  0.033507911            3 
  555000    1.0276151   -6.3791718    218.09685  0.032747274  0.033484601            4 
  556000    1.0239767   -6.3783959    218.59163  0.032762534  0.033461655            4 
  557000    1.0475585   -6.3978205    219.42059  0.032827737  0.033438594            6 
  558000    1.0458381   -6.3796476    218.96045  0.032700186  0.033415592            6 
  559000    1.0438243   -6.4109536      219.025  0.032651311  0.033392334            2 
  560000    1.0268651   -6.3614674    219.53827  0.032669385  0.033368727            4 
  561000    1.0298804    -6.396166    219.40652  0.032591581  0.033345476            3 
  562000    1.0441683   -6.4164727     219.3609  0.032526823  0.033321571            1 
  563000    1.0254968   -6.3581288     220.7732  0.032678094  0.033298272            5 
  564000    1.0544132   -6.3704506    220.32733  0.032554275  0.033275038            5 
  565000      1.02046     -6.37591    220.11221  0.032464927  0.033251926           12 
  566000    1.0276064   -6.4031793    220.72986  0.032498506   0.03322803            5 
  567000    1.0268761   -6.3496093    221.46107  0.032548657  0.033204858            2 
  568000    1.0364249   -6.3767727    222.27959  0.032611443  0.033182598            2 
  569000    1.0461443   -6.3805719    222.37475  0.032568065  0.033159772            5 
  570000    1.0165407   -6.3805974    222.05429  0.032464077  0.033136889            3 
  571000    1.0144999   -6.3914977    221.92131  0.032387815  0.033113586            5 
  572000    1.0319664    -6.359885    223.23557  0.032522665  0.033090742            3 
  573000    1.0217086   -6.3740545     222.9863  0.032429655  0.033067947            3 
  574000    1.0162134   -6.3979349    223.57444  0.032458542  0.033045286            6 
  575000     1.021375   -6.3732416    224.24434  0.032499179  0.033022368            4 
  576000    1.0395011   -6.3812905    223.90619  0.032393836   0.03300002            3 
  577000    1.0284035   -6.3797176     224.3392  0.032400231  0.032977638            3 
  578000    1.0361942   -6.3795756    223.89577  0.032280244  0.032954656            5 
  579000    1.0214381   -6.3997487    224.44661  0.032303773  0.032931577            6 
  580000    1.0473804   -6.3895489    225.01777  0.032330139  0.032908936            8 
  581000    1.0491459   -6.4086222     225.0333  0.032276721  0.032886135            8 
  582000    1.0268851    -6.416155    225.39294  0.032272758  0.032863807            2 
  583000    1.0417993   -6.3829793    226.42301  0.032364638  0.032841286            4 
  584000    1.0037316    -6.441184     224.9325  0.032096532  0.032818096            7 
  585000    1.0049946   -6.4085125    225.68263  0.032148523   0.03279498            6 
  586000    1.0078599   -6.4224672    226.10793  0.032154142  0.032772064            3 
  587000    1.0137832   -6.4346164    226.81048  0.032199103  0.032749019            3 
  588000    1.0314934   -6.4417966    226.43026  0.032090456  0.032726027            4 
  589000    1.0247902   -6.3950127    227.01595  0.032118839  0.032702686            4 
  590000    1.0033928    -6.433061    226.72465  0.032023256  0.032679709            3 
  591000    1.0232402   -6.4171638    227.57861  0.032089483  0.032656755            5 
  592000    1.0126195   -6.4346343    227.41343  0.032012026   0.03263424            3 
  593000    1.0404927    -6.394126    227.58608  0.031982304  0.032611713           15 
  594000    1.0140034    -6.397525    228.75245  0.032092095  0.032588799            2 
  595000     1.030304   -6.4165395    227.93199  0.031923248   0.03256614            4 
  596000    1.0361403   -6.3820963    228.79966  0.031991004   0.03254281            2 
  597000    1.0263574   -6.3973533    228.51903  0.031898245  0.032519615            7 
  598000    1.0343287   -6.4382044    228.44533  0.031834634  0.032496461            5 
  599000   0.99966597   -6.4204438     228.8932  0.031843795    0.0324727            3 
  600000    1.0136063    -6.442374    228.16559  0.031689665  0.032448926            4 
  601000    1.0454252   -6.4226214    229.06863  0.031762151  0.032424848            5 
  602000    1.0474493   -6.4408818    229.12556   0.03171727  0.032400787            3 
  603000   0.99028647    -6.432429    229.25446  0.031682485  0.032377116            5 
  604000    1.0071586   -6.4103536    229.96844  0.031728538  0.032353335            4 
  605000    1.0295556   -6.4095339    230.11151    0.0316958    0.0323301            3 
  606000    1.0072971   -6.4263955    230.11993  0.031644655  0.032306169            8 
  607000    1.0225453   -6.4322739    230.00745  0.031577079  0.032282293            4 
  608000     1.006763   -6.4293012    230.63849  0.031611635  0.032258609           13 
  609000    1.0200506   -6.4016084     231.9615  0.031740764  0.032235091            4 
  610000    1.0235237    -6.419243    230.75006  0.031523232  0.032211509            3 
  611000    1.0219604   -6.4303002    230.96271  0.031500642  0.032187318            9 
  612000    1.0145216   -6.4268919    231.00226  0.031454556  0.032163534            3 
  613000   0.99539105   -6.4585938     231.0076  0.031403969    0.0321392            8 
  614000     1.019147    -6.456636    230.97152  0.031347926  0.032114504            3 
  615000    1.0066668   -6.4549994    231.05274   0.03130796  0.032089885            8 
  616000    1.0074837    -6.419492    231.48413  0.031315493    0.0320657            5 
  617000   0.99051392     -6.41474    232.31698  0.031377226   0.03204166            3 
  618000     1.033825   -6.3992934    232.12907  0.031301115   0.03201739            4 
  619000    1.0007118   -6.4636703    231.87086  0.031215786  0.031993097            6 
  620000    1.0067773   -6.4191982    233.04668  0.031323479   0.03196876            8 
  621000     1.024857   -6.4457435    232.87706  0.031250276  0.031944517            7 
  622000   0.99478824    -6.475351    232.10634  0.031096777  0.031920141            7 
  623000    1.0176825   -6.4384653    233.49507   0.03123262  0.031895374            7 
  624000    1.0000957   -6.4526372    232.99385  0.031115632  0.031870967            6 
  625000   0.98216132   -6.4171815    234.41061  0.031254748  0.031846797            4 
  626000    1.0026895   -6.4017246     234.3337  0.031194582  0.031822143            3 
  627000     1.006517   -6.4047904     234.5469  0.031173166  0.031797899            7 
  628000    1.0054698    -6.425942    235.06471  0.031192239  0.031774008            5 
  629000    1.0182839   -6.4407545     234.4455  0.031060613  0.031749529            3 
  630000    1.0402832   -6.4737061    234.65104  0.031038497   0.03172544            5 
  631000    1.0031693   -6.4458813    235.05151  0.031042196  0.031701778            3 
  632000    1.0075521    -6.453673    235.98938  0.031116744  0.031678237            3 
  633000    1.0229396   -6.4570606    236.30555  0.031109209  0.031654816            2 
  634000    1.0087967   -6.4466133    235.59154  0.030966291  0.031631665            4 
  635000    0.9873938   -6.4464435    237.36343  0.031150056  0.031608766            3 
  636000     1.005064   -6.4474877    236.80179  0.031027489   0.03158583            3 
  637000    1.0233166   -6.4922734    236.98784  0.031003118  0.031562502            5 
  638000   0.99797412   -6.4210341    237.39918  0.031008253  0.031539071            2 
  639000   0.98637191   -6.4822166    236.90494  0.030895271  0.031515995            5 
  640000    1.0145181    -6.469362    237.75914  0.030958222  0.031492748            4 
  641000   0.96215157   -6.4432306    238.31666  0.030982405  0.031469641            5 
  642000    1.0017355   -6.4555645    237.63212  0.030845291  0.031446702            5 
  643000    0.9890613   -6.4572152    238.04842  0.030851273  0.031423383            7 
  644000   0.98336779   -6.4163956    238.66362  0.030882974   0.03140044            4 
  645000   0.99262778   -6.4586654    238.10098    0.0307624  0.031377856            2 
  646000    1.0046271   -6.4808823    238.82403  0.030808053  0.031354543            5 
  647000   0.99356903   -6.4752446    238.41437  0.030707672   0.03133108            5 
  648000   0.97860159   -6.4623654    239.92426  0.030854458  0.031308068            5 
  649000   0.99824059   -6.4557958    239.62721  0.030768774   0.03128547            2 
  650000   0.99597922   -6.4383446    240.08316  0.030779893  0.031262694            5 
  651000   0.97603169    -6.461652    239.99021  0.030720714  0.031240305            4 
  652000   0.97736758   -6.4744523    239.58185  0.030621402  0.031217527            2 
  653000   0.98822219   -6.4722715    239.76002  0.030597246  0.031194486            5 
  654000   0.98193108   -6.4354946     240.8416  0.030688277  0.031171611            5 
  655000    1.0074171   -6.4493607     240.7574  0.030630712  0.031149033            2 
  656000    1.0045445   -6.4991961    241.43587  0.030670207  0.031126299            4 
  657000   0.98437119   -6.5200677    240.51998  0.030507355  0.031103243            7 
  658000    1.0093224   -6.4667829    241.29157   0.03055871  0.031080347            9 
  659000   0.99799027   -6.4800567    241.30043  0.030513458   0.03105736            4 
  660000   0.98829191    -6.510322    241.82883  0.030533943  0.031034403            5 
  661000   0.99388926   -6.4749884     242.2238  0.030537544   0.03101128            4 
  662000   0.98423539   -6.4706138    242.70636   0.03055216  0.030988652           10 
  663000    0.9757454   -6.4654756    242.37722  0.030464709  0.030966347            7 
  664000   0.97300413   -6.5209106    242.59029  0.030445568  0.030943419            3 
  665000   0.97794702   -6.4569028     243.1389  0.030468534   0.03092064            2 
  666000    1.0070862   -6.4926372    243.32915   0.03044659  0.030897946            5 
  667000   0.98744453    -6.472076    243.97439  0.030481558  0.030875281            5 
  668000   0.98046186   -6.5076188    242.64752  0.030270399   0.03085307            3 
  669000    1.0023082   -6.5202929     243.0663  0.030277317  0.030830598            7 
  670000   0.97922344   -6.4830283    244.05955  0.030355665  0.030808271            4 
  671000   0.99353056   -6.4731574    244.61557   0.03037948  0.030785948            5 
  672000   0.99312197   -6.4754482     243.9628  0.030253324  0.030763323            5 
  673000   0.98167617   -6.4834194    243.91667  0.030202658  0.030740726            4 
  674000   0.97254413   -6.5044098    244.05566  0.030175032  0.030717752            4 
  675000   0.97911917   -6.4934441    245.32938  0.030287578  0.030695262            5 
  676000   0.96948266   -6.4866614    245.62868   0.03027967  0.030672932            5 
  677000   0.96739857    -6.512203    245.09442  0.030169181  0.030650553            2 
  678000   0.98190497   -6.4693487    245.55835  0.030181705  0.030628278            6 
  679000   0.97602932   -6.4840034    245.55817  0.030137232  0.030606507            3 
  680000   0.97454827   -6.5004362    246.09555  0.030158768   0.03058458            9 
  681000   0.95770634   -6.5005032    246.19471  0.030126617  0.030562294            3 
  682000   0.98492301    -6.540159    246.20362  0.030083531  0.030539763            6 
  683000   0.97292658   -6.4840724    246.66855  0.030096211   0.03051737            4 
  684000   0.97723629   -6.4525334    247.87291  0.030198942   0.03049548            5 
  685000    1.0065864   -6.4913251    247.52464  0.030112487   0.03047373            4 
  686000   0.97053007   -6.5244844    246.84348  0.029985846  0.030451839            4 
  687000   0.98652311   -6.5013878    247.86498  0.030066106  0.030430041            3 
  688000   0.99333814   -6.5222893     247.6203  0.029992769  0.030408039           10 
  689000   0.99191549   -6.4857225    248.83872  0.030096603  0.030386145            5 
  690000   0.99535294   -6.5382299    248.39353  0.029999219  0.030364279            5 
  691000   0.97369416   -6.5152338    247.97048  0.029904785  0.030342023            6 
  692000   0.96652296   -6.5266595    249.16843  0.030005832  0.030320342            5 
  693000    1.0089376    -6.487499    249.38441  0.029988506  0.030298499            3 
  694000   0.98333272   -6.5320678    249.33879  0.029939817  0.030276716            5 
  695000   0.96193377   -6.5101438    250.06503  0.029983817  0.030254761            7 
  696000   0.98827226   -6.4909857    249.34074  0.029854016  0.030233206            3 
  697000   0.99439491   -6.5476616    249.37465  0.029815238  0.030211508            4 
  698000   0.97073609   -6.5288026    249.30498  0.029764205  0.030190059            5 
  699000   0.97139888   -6.5423244    249.81828  0.029782818  0.030167853            6 
  700000    0.9937937   -6.5200418    250.52487   0.02982439  0.030145982            3 
  701000   0.97642028   -6.5170251      250.598  0.029790537  0.030124519            4 
  702000   0.95546605   -6.5122992    251.12952  0.029811197  0.030103249            4 
  703000   0.98747276   -6.5033848    251.96339  0.029867638  0.030082257            7 
  704000   0.98757279   -6.5449604     251.3136  0.029748296  0.030061509            3 
  705000   0.97303093   -6.5351458    251.95244  0.029781612  0.030040536           10 
  706000   0.97149635   -6.4930174    252.74487  0.029832964   0.03001965            6 
  707000   0.96726191   -6.5295998    252.64036  0.029778449  0.029998817            4 
  708000   0.95090717   -6.5081604    253.14388  0.029795654  0.029978428            5 
  709000   0.94254515   -6.5329284    253.33728  0.029776362  0.029958022            6 
  710000   0.96226186   -6.5390433    253.03925  0.029699443  0.029937406            5 
  711000   0.97530288   -6.5021286    253.12396    0.0296676  0.029916879            4 
  712000   0.96609826   -6.5407006    253.76107    0.0297005   0.02989606            3 
  713000   0.96358128   -6.4962217    254.27842   0.02971931  0.029875406            5 
  714000   0.95373793    -6.522733    254.69314   0.02972609  0.029854847            6 
  715000     0.982656   -6.5481112     253.8891  0.029590804  0.029833989            6 
  716000   0.95661831   -6.5437048    254.57754  0.029629601  0.029813103            8 
  717000   0.96210309   -6.5533019    254.43196  0.029571357  0.029792453            5 
  718000   0.96111563   -6.5854639    254.01814  0.029482142  0.029771307            7 
  719000   0.96378794   -6.5782418    254.45537  0.029491813  0.029750162            7 
  720000   0.96876477   -6.5812547    254.57633  0.029464852  0.029729049            6 
  721000   0.98321632   -6.5489817    255.39311   0.02951839  0.029708779            7 
  722000   0.97470316   -6.5731758    255.86122  0.029531535  0.029688115            3 
  723000   0.95739743   -6.5416031    255.23069  0.029418015  0.029667321            3 
  724000   0.98776863   -6.5439677    256.19374  0.029488229  0.029646625            9 
  725000   0.95076324   -6.5343006    255.98339  0.029423378  0.029626393            7 
  726000   0.95655656   -6.5574085    256.14967  0.029401937  0.029605852            6 
  727000   0.99289584   -6.5805871    257.20852  0.029482865  0.029585243            5 
  728000   0.93881331   -6.5778645    256.62728  0.029375834  0.029564685            2 
  729000   0.96809267    -6.591301    257.24436  0.029406077  0.029544321            7 
  730000    0.9493476   -6.5576326    257.22866  0.029364002  0.029523984            4 
  731000   0.97675035   -6.5785542    257.61158  0.029367486  0.029503564            5 
  732000   0.96926819   -6.5545239    258.18672  0.029392842  0.029483386            4 
  733000   0.97022349   -6.5919274     256.8606  0.029201978  0.029462952            6 
  734000   0.94572069   -6.5353413    257.39841  0.029223253  0.029442414            3 
  735000   0.96305378   -6.5435557     257.3172  0.029174286  0.029421544            8 
  736000   0.96803356   -6.5629133    257.47421  0.029152424  0.029400719            4 
  737000   0.99034109   -6.5863753    257.85432  0.029155848  0.029379756            5 
  738000   0.97108175    -6.578319    258.51584  0.029191039   0.02935904            3 
  739000    0.9515183   -6.6005845    258.49915  0.029149656  0.029338446            8 
  740000   0.96704448   -6.5425284    259.13018  0.029181326  0.029318265            4 
  741000   0.94124769   -6.5617141    259.09089  0.029137527  0.029298069            3 
  742000   0.97321567   -6.5490191    260.04737  0.029205679  0.029277584           10 
  743000    0.9692732   -6.5371862    259.80822  0.029139549  0.029257357           10 
  744000   0.95795242    -6.571411    259.84678  0.029104702  0.029237383            4 
  745000    0.9393334   -6.5803233    259.11787  0.028984102  0.029217198            3 
  746000   0.99840644   -6.5973401    258.81761  0.028911709  0.029196608            5 
  747000   0.97640611   -6.5639878    260.02679  0.029007897  0.029176128            5 
  748000   0.98546137   -6.5651255    259.15694  0.028872208  0.029155227            5 
  749000   0.95326795    -6.543545    260.96275  0.029034573  0.029134557            3 
  750000    0.9440431   -6.5629405    260.16584  0.028907315  0.029113705            5 
  751000   0.96624378   -6.5816691    260.56226  0.028912812  0.029093065            6 
  752000    0.9168048   -6.5580957    260.55935  0.028874041  0.029072291            4 
  753000   0.96316637   -6.5700006      260.923  0.028875941  0.029051856            7 
  754000   0.95840072   -6.5680341    260.72062  0.028815277  0.029031423            3 
  755000   0.95608735   -6.5877197     260.9724  0.028804901  0.029010824            6 
  756000   0.93070966    -6.571184    261.08588  0.028779308  0.028990015            3 
  757000   0.96270442   -6.6039375     260.8992  0.028720739  0.028969344            5 
  758000   0.97668279   -6.5635421    261.25561  0.028722033  0.028949027            4 
  759000   0.94693397   -6.5182052    262.01874  0.028767978  0.028928513            4 
  760000   0.95393512   -6.6024594    260.91476  0.028609074  0.028908042            5 
  761000   0.94054546   -6.6415603    261.41449  0.028626203  0.028887136            3 
  762000   0.95645892    -6.614577    261.45383  0.028592938  0.028866172            4 
  763000   0.94999526   -6.6152778    261.74751  0.028587539   0.02884504            3 
  764000   0.93732929   -6.6288526    262.42985  0.028624548  0.028824138            5 
  765000   0.95225425   -6.5902616    262.66879  0.028613158  0.028803402            4 
  766000    0.9507677    -6.580665    263.83552  0.028702733  0.028782962            4 
  767000   0.95467238   -6.5895671    263.80681  0.028662191  0.028762612            6 
  768000   0.93590195   -6.5883081    263.25981  0.028565517  0.028742409            4 
  769000   0.94768222   -6.5787518    263.60494  0.028565772   0.02872224            6 
  770000   0.93770424   -6.6217097    263.35317  0.028501426  0.028701753            9 
  771000   0.92740024   -6.5882866    264.05351  0.028540155  0.028681457            3 
  772000   0.94810189    -6.602446    264.31422  0.028531328  0.028661048            5 
  773000   0.95869172   -6.6046077    264.38601  0.028502157  0.028640523           13 
  774000   0.95120383    -6.583485    263.94912  0.028418294  0.028619914           17 
  775000   0.97844742   -6.5852445    263.91427  0.028377878  0.028599204            4 
  776000   0.92710488   -6.6307267    263.34768  0.028280464  0.028578319            3 
  777000   0.92841822   -6.6003419    264.36933  0.028353639  0.028557453           11 
  778000   0.93655957   -6.6065993    264.03359  0.028281232  0.028536508            3 
  779000   0.95311685   -6.5490431    265.74255  0.028427744  0.028515885            5 
  780000    0.9464794   -6.5891875    265.07736   0.02832023  0.028495622            5 
  781000   0.95545182   -6.6037635    265.16295  0.028293102  0.028474899            5 
  782000   0.94218014   -6.6110692    265.39479  0.028281628  0.028454489            3 
  783000   0.95210827   -6.5991239    265.31968  0.028237514  0.028433745            3 
  784000   0.91568895   -6.6143651    265.58623  0.028229829  0.028412902           15 
  785000   0.94916297   -6.6277667    265.38262  0.028172253  0.028392054            5 
  786000   0.92687719   -6.6072953    266.21747  0.028224923   0.02837141            4 
  787000   0.93213911   -6.5984234    267.28553  0.028302153  0.028350899            7 
  788000   0.91393364   -6.6118833    267.16218  0.028253192  0.028330221            6 
  789000   0.93877932   -6.6500682    265.85143  0.028078943  0.028309557            5 
  790000   0.91099202   -6.6157488    267.17879  0.028183417  0.028289209            3 
  791000   0.93651105    -6.611246     266.9666  0.028125432  0.028268944            5 
  792000   0.93491554   -6.6526699    267.36727  0.028132078  0.028248668            3 
  793000   0.93754449   -6.6524024    266.57762  0.028013621  0.028228348            6 
  794000    0.9342861   -6.6357594    266.82229  0.028004018  0.028207649            5 
  795000   0.94549552   -6.5941222    267.33502  0.028022539  0.028187488            6 
  796000   0.92315798    -6.631783    267.65978  0.028021334  0.028167459            7 
  797000   0.92980063   -6.5964589    268.05297  0.028027287   0.02814744            5 
  798000   0.92469444     -6.64728    268.49305  0.028038122  0.028127317            3 
  799000   0.92027276    -6.638781    268.61138  0.028015371  0.028107271            6 
  800000   0.93373069   -6.6162594    268.71196  0.027990829  0.028087008            3 
  801000   0.93587723   -6.6319417    268.84484  0.027969709     0.028067            4 
  802000   0.91039301   -6.5940819    269.00106  0.027951066  0.028047217            6 
  803000    0.9277353   -6.6083727    269.07374    0.0279238  0.028027238           12 
  804000   0.92959367   -6.7017871    268.87285  0.027868247  0.028006889            7 
  805000    0.9218967   -6.6415871    268.97579  0.027844285  0.027986633            5 
  806000   0.94261779   -6.6279165    269.32662  0.027846011  0.027966433            8 
  807000   0.93143079   -6.6415916    270.16634  0.027898217  0.027946445            3 
  808000   0.92741403    -6.649292    269.90074  0.027836297  0.027926163            3 
  809000    0.9388776   -6.6365711    269.61128  0.027772073  0.027906221            6 
  810000    0.9353336   -6.6241003    270.98668  0.027879288  0.027886179            5 
  811000    0.9507442   -6.6313352    270.58041  0.027803166   0.02786605            7 
  812000   0.91885699   -6.6804654    270.69274  0.027780453  0.027845977            7 
  813000   0.93240372   -6.6400227    270.70109  0.027747139  0.027826092           10 
  814000   0.93928594   -6.6393222    270.72603  0.027715605  0.027806101            3 
  815000   0.91738801   -6.6702398     271.3892  0.027749407  0.027785999            4 
  816000   0.92992028   -6.6154706    272.02238  0.027780063  0.027765813            9 
  817000   0.92783557   -6.6485049    270.95954  0.027637652  0.027745962            5 
  818000   0.93006026   -6.6680679    270.90493  0.027598302  0.027726009            6 
  819000     0.929361   -6.7032375    271.11202  0.027585675  0.027705874            4 
  820000   0.94353193   -6.6766923    270.65643  0.027505735  0.027685641            5 
  821000   0.91735451   -6.6465233    272.30323  0.027639385  0.027665815            5 
  822000   0.92465279   -6.6084668    272.85055  0.027661248  0.027646137            3 
  823000   0.92210008   -6.6580841    272.08483  0.027550104   0.02762632            4 
  824000   0.93995951   -6.6418842    272.54713  0.027563423   0.02760649            4 
  825000   0.93099519   -6.6469838    273.23683   0.02759968   0.02758677            3 
  826000   0.91890706   -6.6690272    272.92839  0.027535148  0.027566817            3 
  827000    0.9440144   -6.6486099    273.46007  0.027555428  0.027546882            6 
  828000    0.9200511    -6.638742    273.39743  0.027515845  0.027527322            6 
  829000   0.91352087   -6.6449309    272.72458  0.027415016  0.027507583            5 
  830000   0.92210137   -6.6469108    273.47896  0.027457727  0.027487784            6 
  831000   0.90774001   -6.6640036     273.7673  0.027453601  0.027468036            3 
  832000   0.93141941    -6.646227    274.22964  0.027466911  0.027448259            7 
  833000   0.91553801   -6.6515527    273.80642  0.027391599  0.027428632            6 
  834000   0.93829167   -6.6877429    273.22653  0.027300813  0.027408652            4 
  835000   0.94733746   -6.6315762    274.31502  0.027376749  0.027388612            2 
  836000   0.92935787   -6.6745393    273.82895  0.027295549   0.02736864            9 
  837000   0.92387128   -6.6737988    274.25576  0.027305433  0.027348539            2 
  838000   0.93542325   -6.6970989    274.33731  0.027280957  0.027328727            8 
  839000   0.92871459   -6.6704887    274.92498  0.027306811  0.027308584            3 
  840000   0.93354742    -6.682372    275.01209  0.027282945  0.027288412            4 
  841000   0.88585538   -6.6602135    274.70333   0.02721991  0.027268077            4 
  842000    0.9086062   -6.6766856    275.35488  0.027252067  0.027248076            4 
  843000   0.89732572   -6.6621793    275.30685  0.027214991  0.027228188            5 
  844000   0.91293321   -6.6859428     274.4941  0.027102498   0.02720806            5 
  845000   0.92465731   -6.6739978    275.15613  0.027135713  0.027187962            6 
  846000   0.91703342   -6.6536018      275.719  0.027159082  0.027167895            3 
  847000   0.94340449   -6.7120765    275.07812  0.027063963  0.027147725            5 
  848000   0.92251811   -6.6528971    275.56283  0.027079681  0.027127654            4 
  849000   0.91509302   -6.6614924    276.17184  0.027107562  0.027107759            7 
  850000    0.9114278    -6.657992    276.12744  0.027071318  0.027088188            4 
  851000    0.9348485    -6.684593    275.87878  0.027015157  0.027068246           15 
  852000    0.9143117   -6.6518619    276.37202  0.027031692  0.027048514           14 
  853000   0.89649859   -6.7174408    275.83087  0.026947135  0.027028747            4 
  854000    0.9084988   -6.6676221    276.97704  0.027027424  0.027008754            6 
  855000   0.92098877   -6.6901913    276.55874  0.026955043  0.026988704            7 
  856000   0.91041817   -6.7280407    275.99358  0.026868534  0.026968666            5 
  857000    0.9013875   -6.6920438    276.95113  0.026930292  0.026948683            4 
  858000   0.90548132   -6.6655277    277.45697  0.026948035  0.026928683            7 
  859000    0.9023368    -6.661885    276.94334  0.026866836  0.026908836            4 
  860000   0.90855887    -6.689889    277.01991  0.026843015  0.026889013            4 
  861000   0.92427286   -6.6592404    277.52931  0.026861141  0.026869306            5 
  862000   0.89989549   -6.7064972    277.18217   0.02679642  0.026849693           13 
  863000   0.89974729   -6.7004155    277.63378  0.026808978  0.026829786            4 
  864000   0.89250698   -6.7173824    277.40963   0.02675633  0.026810139            6 
  865000   0.91819722   -6.7133624    278.69324   0.02684906  0.026790401            9 
  866000   0.90468719   -6.6671762    278.58555  0.026807694  0.026771009            5 
  867000   0.91459721   -6.7041641    278.12229  0.026732247  0.026751556            5 
  868000   0.92191876   -6.7251519    277.56489  0.026647935  0.026731874            3 
  869000   0.91743186   -6.7411696    278.11657  0.026670173  0.026711972           10 
  870000   0.91198781   -6.7077942    278.28959  0.026656091  0.026691971            8 
  871000   0.91237067   -6.7298222    277.68974  0.026568097  0.026672037            5 
  872000   0.91302637    -6.707451    278.52943  0.026617874  0.026652286            5 
  873000   0.90226024   -6.7332391     278.5089  0.026585424  0.026632283            7 
  874000   0.89903117   -6.7310281    278.70637  0.026573834  0.026612182           12 
  875000   0.89805902   -6.7141557    278.58896  0.026532282  0.026592239            5 
  876000   0.90658651   -6.7181097    279.63045   0.02660107  0.026572352            4 
  877000   0.89332893   -6.7090664    278.82041  0.026493768   0.02655239            5 
  878000   0.88565406    -6.740488    279.12445   0.02649245  0.026532438            4 
  879000   0.89917474   -6.7006172    279.09129  0.026459167  0.026512361            9 
  880000   0.90259908   -6.7092786    279.40362  0.026458676  0.026492509            4 
  881000   0.88696241   -6.6562776    280.30264  0.026513681  0.026472674            9 
  882000   0.92933675   -6.7021769    279.69525  0.026426233  0.026452958           11 
  883000   0.89162472   -6.6808067    280.39409  0.026462259  0.026433245            5 
  884000   0.88132093   -6.7301681    279.52072  0.026349992  0.026413572            5 
  885000   0.89453015   -6.7130899    280.03924  0.026369043  0.026393851            8 
  886000   0.90279951   -6.6900124    280.05847   0.02634109  0.026373927            9 
  887000   0.89189297   -6.7183005    278.89196    0.0262018  0.026353928           12 
  888000   0.91247667   -6.7456339    278.84967  0.026168325  0.026333797            4 
  889000    0.9035015   -6.6872005    279.95651  0.026242642  0.026313733            7 
  890000    0.8982611   -6.7196964    280.37831  0.026252651  0.026293804            4 
  891000   0.90397346   -6.7192479    280.39447  0.026224697  0.026273848            7 
  892000   0.90244926   -6.7349568    280.57716  0.026212366  0.026253849            4 
  893000   0.89213527   -6.7367913    280.32524  0.026159504  0.026233834            4 
  894000   0.89221532   -6.7422917    280.92519  0.026186166  0.026214037           11 
  895000   0.90413883   -6.7269918    281.46527  0.026207194  0.026194021            4 
  896000   0.90074556   -6.7084109    281.83097  0.026211958  0.026174341            8 
  897000   0.89586562   -6.7529243    281.38058  0.026140894  0.026154635            6 
  898000   0.88941683   -6.7209776    281.89726  0.026159731  0.026134722            5 
  899000   0.89095162    -6.699205    282.37423  0.026174845  0.026114952            9 
  900000   0.89579243   -6.7786638    281.45195  0.026060366  0.026095324            4 
  901000   0.88925864    -6.721971    282.95089  0.026170078  0.026075705           15 
  902000   0.91456813    -6.730436    282.28135  0.026079208   0.02605623            5 
  903000   0.89311414   -6.7688183    281.96035  0.026020704  0.026036702            4 
  904000   0.89071582   -6.7649513    282.47779  0.026039619  0.026017348            8 
  905000   0.89777044   -6.7493063    283.00758   0.02605963  0.025998046            5 
  906000   0.86703716    -6.741009    283.00515  0.026030643   0.02597886            3 
  907000   0.89645921   -6.7610261    282.53964  0.025959173  0.025959601            7 
  908000   0.91276875    -6.745734    283.71619  0.026038563  0.025940411            7 
  909000   0.90192525   -6.7878077    282.32672  0.025882538  0.025920951            5 
  910000   0.89249307   -6.7662566    282.37587  0.025858596   0.02590141            7 
  911000   0.90649116   -6.7696868    282.76125  0.025865464  0.025881784            5 
  912000   0.88554243   -6.7393821    283.18859   0.02587615  0.025861953           13 
  913000    0.9046526   -6.7595426    282.92997  0.025824203  0.025842307            7 
  914000   0.87623568   -6.7223048    282.67899  0.025773066  0.025822649            4 
  915000   0.90628632   -6.7126466    284.36021  0.025898015  0.025803072            8 
  916000   0.88164455   -6.7567316    283.84875  0.025823212  0.025783797            4 
  917000   0.88090539   -6.7349391    284.14114  0.025821623   0.02576439           12 
  918000   0.87957642   -6.7933113    283.46176  0.025731823  0.025745036           15 
  919000   0.90621439   -6.7576291    284.53003  0.025800692  0.025725641            3 
  920000   0.88031907   -6.7793703    285.03223  0.025818137  0.025706534            9 
  921000   0.88700184   -6.7405524       284.89  0.025777235  0.025687266            4 
  922000   0.88943545   -6.7728814    284.63627  0.025726344  0.025668257           12 
  923000   0.88366574   -6.7589215    283.91446  0.025633302  0.025648884            9 
  924000   0.87825191   -6.7833552    284.72844  0.025678972  0.025629545            8 
  925000   0.88136853    -6.764285    284.76868  0.025654836  0.025609977            6 
  926000   0.88926379   -6.7544627    284.93401   0.02564201  0.025590617            5 
  927000   0.90371758   -6.7471601    285.07927  0.025627407  0.025571547            5 
  928000    0.8691438   -6.7660822    285.03633  0.025595935   0.02555246           10 
  929000   0.86576922   -6.7455147    285.86869  0.025643047  0.025533329           15 
  930000   0.87665826   -6.7615558    285.41715  0.025575014  0.025514258            8 
  931000   0.87802536   -6.7578945    285.56852  0.025561092  0.025495259            7 
  932000   0.87428431   -6.7718853    285.99563  0.025571855  0.025476242            4 
  933000   0.86234138   -6.7537366    285.84437  0.025530937  0.025457164           16 
  934000   0.89745741   -6.7507256    285.50977  0.025473748   0.02543792            6 
  935000   0.89174125   -6.7538468    285.75262  0.025468148  0.025418515            9 
  936000   0.87937227   -6.7498082    286.50944  0.025508319  0.025398983            9 
  937000   0.86584492   -6.7519222    286.61344  0.025490345  0.025379622            9 
  938000   0.87883575   -6.7803937    285.92938  0.025402397  0.025360142            5 
  939000   0.86315625    -6.746851    286.71451  0.025445022  0.025340682            5 
  940000   0.87752446   -6.8139968    284.92068  0.025258925   0.02532103            5 
  941000   0.88740999   -6.7870939    286.19525  0.025344956    0.0253014            7 
  942000   0.87339502   -6.7894024    286.63507   0.02535696  0.025281876            6 
  943000   0.87847406   -6.7934358    286.46187  0.025314764  0.025262219            4 
  944000   0.87335926   -6.8003233     285.9064  0.025238912  0.025242621            7 
  945000   0.89931759   -6.8162399    286.51684  0.025266035  0.025223081           14 
  946000   0.87619966    -6.763934     286.3834  0.025227572  0.025203708            8 
  947000   0.86990458   -6.8003706     286.4454  0.025206388  0.025184202            8 
  948000     0.911314   -6.7881553    286.73196   0.02520499  0.025164767            5 
  949000   0.86643185   -6.7635065    287.49341  0.025245294  0.025145307            5 
  950000   0.87029255   -6.7910331    287.52614  0.025221592  0.025126004            4 
  951000   0.87964675   -6.7871739    287.01505  0.025150284  0.025106585            7 
  952000   0.89701877   -6.8027388    286.73509   0.02509936  0.025087204           10 
  953000   0.87003554   -6.7467234    287.40091  0.025131244  0.025067823           12 
  954000   0.86532964   -6.7972428    288.60792  0.025210336   0.02504841            2 
  955000   0.88418934   -6.7821928    287.57606  0.025093897  0.025028998            5 
  956000   0.87919201   -6.7742687    288.14892  0.025117583  0.025009674            4 
  957000   0.88046608   -6.8226343    287.48317  0.025033366  0.024990186           10 
  958000   0.86474977   -6.7722836    287.13386   0.02497685  0.024970574            4 
  959000   0.88757391   -6.8235782    286.81343   0.02492296  0.024951141            5 
  960000   0.86745687   -6.8088661    287.85055  0.024987027  0.024931677            4 
  961000   0.87776857   -6.8237782    287.08924  0.024895009  0.024912004            6 
  962000   0.86404718   -6.8305506    288.02694  0.024950359  0.024892505            8 
  963000   0.84348536   -6.8095393    287.75656  0.024901052   0.02487299           10 
  964000   0.87402712   -6.7974527    288.69183  0.024956071  0.024853726           16 
  965000   0.87831026   -6.7825069    289.05824  0.024961851  0.024834368            7 
  966000   0.86388652   -6.8071559    289.00938  0.024931796  0.024815157            4 
  967000   0.88091739   -6.7923606    288.06123  0.024824305  0.024795961            6 
  968000   0.88453801   -6.7886629    288.86948  0.024868241  0.024776839            4 
  969000   0.88117868   -6.8002816    289.58811  0.024904379  0.024757759            5 
  970000   0.87436342   -6.8170766    288.18085  0.024757805  0.024738612            9 
  971000   0.85379621   -6.8196894     289.1127  0.024812281  0.024719419           15 
  972000   0.85381561   -6.8317096    288.20858   0.02470924  0.024700167            4 
  973000   0.88693217   -6.7971062    289.76956  0.024817537  0.024681174           12 
  974000   0.86327832    -6.814743    289.52069  0.024770764  0.024662207            4 
  975000   0.88449285   -6.7993921    289.97996  0.024784612   0.02464322            9 
  976000   0.86348469   -6.8327898    289.50658    0.0247188  0.024624036            7 
  977000   0.84888587   -6.8032711    289.58434  0.024700132  0.024604978            9 
  978000   0.84928565   -6.8232194    289.44982  0.024663413   0.02458584           14 
  979000    0.8556264   -6.8391483    289.40455  0.024634367  0.024566641            4 
  980000   0.87650496   -6.8174759    289.63094  0.024628481  0.024547452            6 
  981000   0.83153943   -6.8347099    289.00795  0.024550454  0.024528193            7 
  982000   0.84940356   -6.8541174    288.76797  0.024505089  0.024508986            5 
  983000   0.86221985   -6.8084315    290.34134  0.024613542  0.024489771           10 
  984000   0.86305509   -6.7862307    290.24613  0.024580465  0.024470824            7 
  985000   0.84843225   -6.8096792    290.62301  0.024587395    0.0244517            6 
  986000   0.84665643   -6.8439997     290.2708  0.024532691  0.024432475            7 
  987000   0.87908547   -6.8764603     289.4613  0.024439488  0.024412954            7 
  988000   0.85989082   -6.8486935    290.13106  0.024471243   0.02439355            7 
  989000    0.8560982   -6.8265212    290.44596  0.024473033  0.024374269            7 
  990000   0.84943401   -6.8411975    289.75252  0.024389942  0.024355145           16 
  991000   0.86120666   -6.8390662    290.74319  0.024448637  0.024335866            7 
  992000   0.85967426   -6.8346982    290.92242  0.024439047  0.024316327            7 
  993000   0.86239545   -6.8605188    289.59898  0.024303372  0.024297002            7 
  994000   0.86176165   -6.8101705    290.79017  0.024378787  0.024277616            7 
  995000   0.84877235   -6.8240636    290.07479  0.024294371  0.024258267            6 
  996000   0.85107246   -6.8169172     290.2466  0.024284354  0.024239044            5 
  997000   0.84309187   -6.8336466    290.48114  0.024279601  0.024219929            5 
  998000   0.84425313   -6.8320016    290.07575  0.024221422  0.024200875            6 
  999000   0.86112104   -6.8595396    290.51183  0.024233553  0.024181559            4 
 1000000   0.84811198   -6.8589801    291.22749  0.024268958  0.024162151            6 
 1001000   0.85145709   -6.8275131    290.44773  0.024179798  0.024142882            7 
 1002000   0.85728246   -6.8491795    290.46712  0.024157279  0.024123602            7 
 1003000   0.84940827   -6.8307252    290.58061  0.024142623   0.02410399            6 
 1004000   0.85443054   -6.8474116    291.11456  0.024162895  0.024084575            6 
 1005000   0.85187714   -6.8869196    290.28341  0.024069934  0.024065036            7 
 1006000   0.84384989    -6.863288    290.42153  0.024057449  0.024045437           11 
 1007000   0.86124169   -6.8212361    290.69828  0.024056462  0.024025963            7 
 1008000   0.84023825   -6.8582446      291.265  0.024079447  0.024006555           16 
 1009000   0.85020634   -6.8674236    291.01041  0.024034557  0.023987249            5 
 1010000   0.85243478   -6.8414505     291.0582  0.024014703  0.023967836            6 
 1011000   0.86706241    -6.818534    291.76528  0.024049232  0.023948458            6 
 1012000   0.84469874   -6.8244456    291.86296  0.024033511  0.023929074            7 
 1013000   0.83373329   -6.8581642    291.67343  0.023994195  0.023909831           15 
 1014000   0.85482879   -6.8450764    291.39038  0.023947269  0.023890495            6 
 1015000   0.84978842   -6.8507285    291.87677   0.02396361  0.023871306            9 
 1016000   0.85768555   -6.8841012    291.84184  0.023937159  0.023851946            9 
 1017000   0.83795046   -6.8526432    292.15778   0.02393951  0.023832748            5 
 1018000   0.85402894   -6.8757573    291.99944  0.023903032  0.023813614           14 
 1019000   0.84226796    -6.862791    291.58582  0.023845749  0.023794378            6 
 1020000   0.82504145   -6.8533391    292.27493  0.023878671  0.023775207            3 
 1021000     0.860523   -6.8724846    292.46948  0.023871162  0.023755977            4 
 1022000   0.83395429   -6.8421068    292.32517  0.023836038  0.023736781            6 
 1023000   0.83172262    -6.868919    292.72901  0.023845635  0.023717431            6 
 1024000   0.85019816   -6.8956153    292.11061  0.023772022  0.023698045            9 
 1025000   0.85463137   -6.8747931    292.11588  0.023749259  0.023678693            7 
 1026000   0.85110721   -6.8942258    291.96124  0.023713551  0.023659443            6 
 1027000   0.86350503   -6.8723905    292.22198  0.023711618    0.0236401            6 
 1028000   0.82400975   -6.8528535    292.71058   0.02372816  0.023620943           11 
 1029000    0.8492622   -6.8773656    292.09836   0.02365552  0.023601741            8 
 1030000   0.84298751   -6.8595294    293.27221  0.023727525  0.023582813            8 
 1031000   0.82581418   -6.8538428    293.53671   0.02372589  0.023563862            8 
 1032000   0.84879241   -6.8518707    292.81181  0.023644364  0.023544882            8 
 1033000   0.86278145   -6.8751962    292.89907  0.023628515  0.023525895           13 
 1034000   0.83897621   -6.9085049    292.96871  0.023611276  0.023506748           11 
 1035000     0.846303   -6.8912561    293.26979  0.023612704  0.023487557            4 
 1036000   0.85102447   -6.8824473    293.35336  0.023596635  0.023468434            4 
 1037000   0.83501928   -6.8870991    293.59233  0.023593083  0.023449406            6 
 1038000   0.84942999   -6.8722287    293.46964  0.023560504    0.0234307           10 
 1039000   0.84078428   -6.8625281    294.02641  0.023582484  0.023411815            6 
 1040000   0.83223386    -6.915062    293.83463  0.023544442  0.023393089           12 
 1041000   0.86024958   -6.8837403    293.58373  0.023501739  0.023374338            7 
 1042000   0.83402555   -6.9183629    294.15226  0.023524653  0.023355477            5 
 1043000   0.83049148   -6.8495157    294.29892  0.023513816  0.023336635            6 
 1044000   0.84121764   -6.8953187    293.41617  0.023420831  0.023317853            4 
 1045000   0.81866542   -6.9151559    293.39731  0.023396915   0.02329891            7 
 1046000   0.81336757   -6.8845521    294.78647  0.023485219  0.023280165            8 
 1047000    0.8164332   -6.9152516    294.46718  0.023437375  0.023261557           12 
 1048000   0.84186385   -6.9241765    294.82128  0.023443168  0.023242916            8 
 1049000   0.82365539   -6.8711467    295.36006  0.023463621  0.023224308            7 
 1050000   0.83174625    -6.925333    295.01216  0.023413664  0.023205691           14 
 1051000   0.82798247   -6.8847584    295.22796  0.023408496   0.02318713            6 
 1052000   0.82639016   -6.8988254    295.58024  0.023414151  0.023168639            7 
 1053000   0.85164873   -6.9211325     295.1618    0.0233588  0.023150104            9 
 1054000   0.84269949   -6.9310255    295.38951  0.023354642  0.023131543            8 
 1055000   0.85377768   -6.9099545     295.1249  0.023311604  0.023113114           16 
 1056000   0.82396315   -6.9261221    294.72692  0.023258122   0.02309458            6 
 1057000    0.8425724   -6.8996341    295.54783  0.023300838  0.023076061            6 
 1058000   0.81629436   -6.9270896    295.68428  0.023289562  0.023057528           10 
 1059000   0.82178012   -6.9180865    295.72484  0.023270762  0.023039192           10 
 1060000    0.8327777    -6.898753    295.18993  0.023206756  0.023020874            7 
 1061000   0.83525803   -6.9311659    295.96369  0.023245656  0.023002446            7 
 1062000   0.83772718   -6.8928307    296.87145  0.023294998  0.022984178            5 
 1063000    0.8438931   -6.8916198    296.42726  0.023238261  0.022966037            6 
 1064000   0.82339608   -6.8942116    296.47047  0.023219805  0.022947828            5 
 1065000   0.84560691   -6.9086591    295.74725  0.023141412   0.02292975            8 
 1066000   0.82256159   -6.9312557    296.30846  0.023163575  0.022911537           15 
 1067000   0.82253344   -6.8971027    297.14866  0.023207487  0.022893378           15 
 1068000   0.82730604   -6.9354931    296.79667  0.023158292  0.022875224           11 
 1069000   0.82380855   -6.9209546    296.65575  0.023125643  0.022856959            8 
 1070000   0.82533016   -6.9556602    296.41774  0.023085493  0.022838703           10 
 1071000   0.82455659   -6.9183056     296.3338  0.023057408  0.022820637            8 
 1072000   0.81032172   -6.9290514    296.66003  0.023061259  0.022802456            7 
 1073000   0.82951495   -6.8910636    297.75516  0.023124818  0.022784539            5 
 1074000   0.82075032   -6.9169708    296.98283   0.02304336  0.022766605            9 
 1075000   0.83640044   -6.9245391    297.63605  0.023072562  0.022748658            4 
 1076000   0.83388878   -6.9233637    296.95471  0.022998351  0.022730619            6 
 1077000   0.81813897   -6.9323838    297.34009  0.023006816  0.022712641           10 
 1078000   0.81196245   -6.9569583    297.06359    0.0229641  0.022694516            7 
 1079000   0.79958901    -6.959754    297.02578  0.022939896    0.0226764            6 
 1080000   0.82024169   -6.9369462    297.69336  0.022970167  0.022658278            8 
 1081000   0.82592303   -6.9455633    297.37877  0.022924666    0.0226401           17 
 1082000   0.82632823    -6.919647    298.05653  0.022955678  0.022622053            9 
 1083000   0.81896509   -6.9491667    297.72763  0.022909175   0.02260398           12 
 1084000   0.81526194   -6.9244346     297.4089  0.022863538  0.022585988            9 
 1085000   0.81845742   -6.9480113     297.9456  0.022883686  0.022567985            8 
 1086000   0.82141746   -6.9495168    297.33546  0.022815797  0.022549918           12 
 1087000   0.81737374   -6.9618506    297.60651  0.022815587  0.022531792            8 
 1088000   0.82657392   -6.9828569    297.46182  0.022783534  0.022513751           13 
 1089000   0.81570097   -6.9382267    298.13465  0.022814099  0.022495675           17 
 1090000   0.82411592   -6.9617208    297.52823  0.022746806  0.022477761           15 
 1091000   0.82656915   -6.9620526    297.10607  0.022693712  0.022459863           21 
 1092000   0.82483706   -6.9560934     298.0991  0.022748711  0.022441739           18 
 1093000   0.80832673   -6.9650083    298.34764  0.022746846  0.022423769           17 
 1094000   0.81256806   -6.9315209     298.8714  0.022765951  0.022405855            7 
 1095000   0.82064985   -6.9437004    298.09745  0.022686259  0.022387939            5 
 1096000   0.80727847   -6.9497775    297.45123  0.022616426  0.022370048           15 
 1097000   0.82653914   -6.9256056    299.02882   0.02271565  0.022352088           11 
 1098000   0.83498283    -6.950358    298.93783  0.022688057  0.022334195           14 
 1099000   0.81821189   -6.9612094    298.40739   0.02262719  0.022316283           10 
 1100000   0.81027896    -6.949899    298.72271  0.022630508  0.022298394           11 
 1101000   0.81385055   -6.9740767    297.91779   0.02254903  0.022280432            8 
 1102000   0.81314198   -6.9593107    298.31492    0.0225586   0.02226244            6 
 1103000   0.83472279   -6.9475749    298.77504   0.02257291  0.022244491            9 
 1104000   0.83590416    -6.935014    298.60242  0.022539434  0.022226695            7 
 1105000    0.7931531   -6.9355649    299.71651  0.022603055  0.022208975           11 
 1106000   0.81212788   -6.9207596    300.07534  0.022609655  0.022191251           14 
 1107000   0.80330667   -6.9889544    297.74339  0.022413685  0.022173454           17 
 1108000   0.81853856   -6.9565029    298.88057  0.022478984  0.022155679            3 
 1109000   0.80589272   -6.9735399    299.76908  0.022525479  0.022137965            8 
 1110000   0.81567425   -6.9523191    299.70527  0.022500396  0.022120199            9 
 1111000   0.80010249   -6.9552722    299.25271  0.022446198  0.022102451            8 
 1112000   0.80418732   -6.9913897    298.57319  0.022375089  0.022084582            9 
 1113000   0.81566503    -6.972625    298.26071   0.02233159  0.022066604            7 
 1114000   0.81142074   -7.0256109     299.1748  0.022379922  0.022048632           19 
 1115000    0.7965861   -6.9728859    299.74653   0.02240258  0.022030742            8 
 1116000   0.78547154   -7.0085569    299.29523  0.022348807  0.022012916            9 
 1117000   0.81264333   -6.9634887    299.66213  0.022356172  0.021995157            6 
 1118000   0.80571276   -6.9536038    299.42612  0.022318583  0.021977398           14 
 1119000   0.81615691   -6.9594828    299.91723  0.022335212  0.021959597           15 
 1120000   0.80282524   -6.9859664    299.60472  0.022292018  0.021941893           13 
 1121000   0.80365732   -7.0155132    299.23479  0.022244632  0.021924223           15 
 1122000   0.80332774   -6.9852533    300.07101  0.022286914  0.021906519           10 
 1123000   0.80887094   -6.9963704    299.74475  0.022242858  0.021888932           15 
 1124000   0.79942474   -7.0159059    299.65738  0.022216591  0.021871194            7 
 1125000   0.79410654    -6.993119    299.29019  0.022169644  0.021853557           15 
 1126000   0.82576736   -6.9892146     299.7573  0.022184525  0.021836002           10 
 1127000   0.81044667   -6.9895188    299.95146  0.022179197  0.021818413           10 
 1128000   0.80505492   -6.9902265    300.17374  0.022175956  0.021800843           16 
 1129000   0.80570438    -6.974816    300.10364   0.02215114  0.021783215           12 
 1130000   0.78955995   -6.9538422    300.91084  0.022191065  0.021765702            9 
 1131000   0.80281204   -6.9675391    301.78626  0.022235946  0.021748204            9 
 1132000   0.80244496    -6.995191    301.54327  0.022198415  0.021730841            9 
 1133000   0.78417149   -7.0159124    300.43442  0.022097265  0.021713488           17 
 1134000   0.79785672   -7.0144582    300.14616  0.022056596  0.021695939           17 
 1135000   0.78425315     -6.99274    300.70485  0.022078183  0.021678426            7 
 1136000   0.79079037   -7.0220628    300.70274  0.022058593  0.021660999           13 
 1137000   0.80237379   -6.9969883    301.46162  0.022094812  0.021643633           16 
 1138000   0.78558159   -7.0220519    300.49747  0.022004794  0.021626271           12 
 1139000    0.7891959   -7.0317055    300.82796  0.022009654  0.021608824           12 
 1140000   0.80196296   -6.9728433    301.99696  0.022075801  0.021591466           26 
 1141000   0.78440464   -6.9957537    301.23709  0.022000956  0.021574365           17 
 1142000   0.80643594   -7.0105635    301.74758  0.022018942  0.021557222           14 
 1143000   0.79621286   -7.0027395    301.58161  0.021987577   0.02154008           22 
 1144000     0.786184   -7.0306595    300.62068   0.02189836  0.021522874            7 
 1145000   0.80364706    -6.991716    301.23383  0.021923859  0.021505578            5 
 1146000   0.78726994   -6.9906212    301.58639  0.021930366  0.021488349           13 
 1147000   0.80238603    -7.017105    301.38641  0.021896717  0.021471163            8 
 1148000   0.78805487   -7.0309367    300.93959  0.021845208  0.021453928            6 
 1149000   0.78969023   -7.0093606    301.89654  0.021895601  0.021436769            5 
 1150000   0.80753536    -7.001729    302.51932   0.02192169  0.021419818           10 
 1151000   0.79715575   -7.0019438    302.28233  0.021885486  0.021402812            7 
 1152000   0.79622951    -6.997236    302.26815  0.021865462  0.021385808            9 
 1153000   0.79258506   -6.9964745    302.10696  0.021834848  0.021368884            5 
 1154000   0.78023785   -7.0319939    302.66127  0.021855955  0.021351926           17 
 1155000   0.79668613   -6.9987939    303.15952  0.021872981  0.021335027            9 
 1156000   0.79509621     -7.03088    303.12819  0.021851802   0.02131819            8 
 1157000   0.78316963   -7.0011045    302.75656  0.021806148  0.021301313           14 
 1158000   0.78340849   -6.9990826    303.23174  0.021821513  0.021284513            7 
 1159000    0.7855478   -7.0273273    302.77942  0.021770162  0.021267786           20 
 1160000   0.78000938   -7.0272016     302.8135  0.021753843     0.021251           16 
 1161000   0.80061835   -7.0151177    303.35917  0.021774273  0.021234311           11 
 1162000   0.79009277   -7.0268495     302.3575  0.021683699   0.02121755           12 
 1163000   0.79337781    -7.020756    303.45312  0.021743559  0.021200823            7 
 1164000   0.80286882   -7.0283485    302.75545  0.021674932  0.021184095           19 
 1165000   0.78554955   -7.0340265     303.2519  0.021691838   0.02116729           10 
 1166000   0.78970317   -7.0245209    303.76168  0.021709668  0.021150495           15 
 1167000   0.78205585     -7.04399    303.89886  0.021700861  0.021133797            9 
 1168000   0.78632408   -7.0337481      303.926  0.021684218  0.021117068           16 
 1169000   0.79578389   -7.0303873    303.69104  0.021648919   0.02110035            6 
 1170000   0.79239451   -7.0232312    303.47772  0.021615222   0.02108362            8 
 1171000   0.78501661   -7.0746136    303.50258  0.021598533  0.021066964            5 
 1172000   0.79296781   -7.0438831    302.80053  0.021530186   0.02105009           17 
 1173000    0.7885293   -7.0306448    302.77986  0.021510363  0.021033338           13 
 1174000   0.78501851   -7.0538866    303.04203  0.021510649  0.021016678           25 
 1175000    0.7915401   -7.0674427    303.18757  0.021502665  0.021000009           10 
 1176000   0.77980908   -7.0501909    303.70656  0.021521156   0.02098328           13 
 1177000   0.78892895   -7.0473748    304.64611  0.021569393  0.020966766           13 
 1178000   0.78112623   -7.0643522    303.60682  0.021477562  0.020950254           18 
 1179000   0.77364086   -7.0446919    304.14648  0.021497489  0.020933686           10 
 1180000   0.78169335   -7.0602165     304.4923  0.021503693  0.020917149           24 
 1181000   0.79578044   -7.0506338    303.69948  0.021429543  0.020900551           15 
 1182000   0.77353277   -7.0658346    303.77424  0.021416684  0.020883968           26 
 1183000    0.7727667   -7.0587509    303.64554  0.021389514  0.020867304           17 
 1184000   0.79565303   -7.0984534    302.95002  0.021322496  0.020850517            9 
 1185000   0.77252692    -7.075606    303.31559   0.02133021  0.020833775            7 
 1186000   0.77537458   -7.0817405    303.87885  0.021351802  0.020817011           19 
 1187000   0.77560321    -7.085646    303.62198  0.021315781  0.020800332           17 
 1188000   0.76876003   -7.0433889    304.37798  0.021350868  0.020783667            8 
 1189000   0.77902042   -7.0638651    303.46714  0.021269074  0.020766953           16 
 1190000   0.79051893    -7.099471    303.53313  0.021255822  0.020750196           13 
 1191000   0.78405855   -7.0772369    304.20542  0.021285014  0.020733356           16 
 1192000   0.78116885   -7.0733466    303.79246  0.021238287  0.020716605           10 
 1193000   0.77463013   -7.0689973     304.4718  0.021267938  0.020699946           23 
 1194000   0.77861467   -7.0545497    304.26202  0.021235484  0.020683332           11 
 1195000   0.77697116   -7.0637983    304.10645  0.021206865  0.020666749           17 
 1196000   0.77495881   -7.0623534    304.71713  0.021231684  0.020650137            8 
 1197000   0.78521651   -7.0692986    303.93172  0.021159267  0.020633566           11 
 1198000   0.76682442   -7.1217723    303.87199   0.02113745  0.020616962           15 
 1199000   0.76622831   -7.0856666    304.49564  0.021163167   0.02060033           14 
 1200000   0.78112008   -7.0948153    304.11574  0.021119149  0.020583767           24 
 1201000   0.76964304   -7.0904851    303.59049  0.021065119  0.020567145            9 
 1202000   0.77354101   -7.0596091    304.39115  0.021103102  0.020550625            7 
 1203000   0.78676751   -7.0536464    304.72179  0.021108464  0.020534135           10 
 1204000   0.75425451   -7.1009317    304.10166  0.021048011  0.020517686           19 
 1205000   0.78561174   -7.0983514    304.44976  0.021054617  0.020501242           11 
 1206000   0.78447466   -7.1030369    304.47132  0.021038648  0.020484821           16 
 1207000   0.77025484   -7.0816402    304.67073  0.021034986  0.020468342           14 
 1208000   0.75374983   -7.0936997    304.04885  0.020974672  0.020451919            8 
 1209000   0.77393565   -7.1074954    304.63756  0.020997902  0.020435549            5 
 1210000   0.76293254   -7.0877452    304.86019  0.020995881  0.020419268           14 
 1211000   0.77664657   -7.0769796    305.41684  0.021016849  0.020403069           19 
 1212000   0.76304463    -7.076575    304.76557  0.020954728  0.020386774           12 
 1213000   0.76733996   -7.0912331    306.04362  0.021025255  0.020370488            9 
 1214000   0.77575763   -7.1134478    305.13093  0.020945286  0.020354208           12 
 1215000   0.75831406   -7.0808258    305.28338  0.020938503  0.020337897            6 
 1216000   0.78526874   -7.0959183    305.46304  0.020933597  0.020321721           15 
 1217000   0.76766389   -7.0807653     306.2306  0.020968954  0.020305551            8 
 1218000   0.76331167   -7.0903575    306.44471  0.020966387  0.020289466           13 
 1219000   0.75862974    -7.079668    306.33127  0.020941432  0.020273364           18 
 1220000   0.75448807   -7.1030709    305.64825  0.020877613   0.02025722            9 
 1221000   0.76189866   -7.0997712    306.04119  0.020887332  0.020241056           12 
 1222000   0.77384494   -7.0912579    305.61139  0.020840929  0.020224873           19 
 1223000   0.76311034   -7.1212704    304.47971  0.020746777  0.020208659            8 
 1224000   0.75252947   -7.0957475    305.96889  0.020831215  0.020192446           19 
 1225000   0.74016958   -7.1145282    305.68449  0.020794863   0.02017626           16 
 1226000   0.75414693    -7.088851    305.12189  0.020739661  0.020160103           14 
 1227000   0.76454693   -7.1094757    305.23607  0.020730513   0.02014401           14 
 1228000   0.76187108   -7.1124715    306.07355  0.020770464  0.020127895           20 
 1229000   0.78077068    -7.112516     304.8322  0.020669392  0.020111827            7 
 1230000   0.77320593   -7.1375896     304.9421  0.020660034   0.02009565           21 
 1231000   0.75936469   -7.1472348    305.70956  0.020695204  0.020079496           12 
 1232000   0.75653095   -7.1148056    305.64495  0.020674036  0.020063343           31 
 1233000   0.75798799   -7.1131872    306.43994  0.020710999  0.020047327           20 
 1234000   0.76066868   -7.1159249    305.59691  0.020637285  0.020031324           10 
 1235000   0.74869172   -7.1239964    305.35857  0.020604492  0.020015201           23 
 1236000   0.76518819   -7.1417357    306.86356  0.020689291  0.019999045           31 
 1237000   0.76272365   -7.1315449    305.89219  0.020607127  0.019983001           16 
 1238000    0.7604688   -7.1286435     305.8726  0.020589163  0.019966959           11 
 1239000   0.73242278   -7.1430967    305.59414  0.020553816  0.019950851           31 
 1240000   0.75251101   -7.1707995     306.1011   0.02057131  0.019934702           21 
 1241000   0.74585612   -7.1423915          306  0.020547945  0.019918622           34 
 1242000   0.76827381    -7.150508    305.87442  0.020522975  0.019902535            9 
 1243000   0.74193636   -7.1660096    305.31996  0.020469292    0.0198864           28 
 1244000    0.7743609    -7.136583    306.80373  0.020552233  0.019870366            9 
 1245000   0.75595161   -7.1346949    306.33016  0.020504027  0.019854354           11 
 1246000   0.76564803   -7.1455543    307.02065  0.020533752  0.019838316            6 
 1247000   0.76266077   -7.1404049    305.88044  0.020441088  0.019822283           11 
 1248000   0.74342473   -7.1256533    306.68052  0.020478133  0.019806298            5 
 1249000   0.75437583   -7.1567141    305.41555  0.020377339  0.019790365            8 
 1250000   0.73793461   -7.1570135    306.46985  0.020431323  0.019774338           19 
 1251000   0.75116549   -7.1367273    306.05464  0.020387333  0.019758351           15 
 1252000   0.73489202   -7.1503019    306.10864  0.020374643  0.019742398           12 
 1253000   0.75050733    -7.132068    306.19529  0.020364145  0.019726472           12 
 1254000   0.74317891   -7.1597312    306.39499  0.020361177  0.019710548           14 
 1255000    0.7556959   -7.1086663    306.95975  0.020382453  0.019694648           13 
 1256000   0.76960725   -7.1245736    305.86111  0.020293332  0.019678808           18 
 1257000   0.74313458   -7.1433203    306.44277   0.02031575  0.019662944           24 
 1258000   0.77380901   -7.1537263    306.69039  0.020316003  0.019647055           14 
 1259000   0.75294124    -7.117192    306.21941  0.020268693  0.019631202           14 
 1260000    0.7616653    -7.115945    306.51497  0.020272154  0.019615367           11 
 1261000   0.74159189   -7.1664196    306.52101  0.020256477  0.019599474           19 
 1262000   0.74873005   -7.1416535    306.50301  0.020239237  0.019583592           24 
 1263000   0.73230723   -7.1424758    306.97843  0.020254581  0.019567687           10 
 1264000   0.75722859   -7.1300154    306.25976  0.020191176  0.019551777           14 
 1265000   0.74568831   -7.1632775    306.49424  0.020190661  0.019535825           37 
 1266000   0.75095379   -7.1429142     306.5723  0.020179851  0.019519784           44 
 1267000    0.7536896   -7.1896645    305.68656  0.020105667  0.019503802           22 
 1268000   0.74812428   -7.1509892    306.25606  0.020127238  0.019487817           23 
 1269000   0.74759864    -7.152548    306.88342  0.020152576  0.019471895           10 
 1270000   0.73974401   -7.1690224    306.51305  0.020112405  0.019456002           14 
 1271000   0.74298485   -7.1652407    305.87034  0.020054441   0.01944011           20 
 1272000    0.7305768   -7.1492679    306.30788   0.02006734  0.019424302            9 
 1273000    0.7504969   -7.1680517    306.83488  0.020086075  0.019408428           18 
 1274000   0.73714537   -7.1438182    306.73339   0.02006367   0.01939267           22 
 1275000   0.73790905   -7.1431611    306.49543  0.020032381  0.019376926           17 
 1276000   0.72684518   -7.1450637    306.95682  0.020046814  0.019361187           17 
 1277000   0.74213594   -7.1651964    306.26815  0.019986175  0.019345406           17 
 1278000    0.7384018   -7.1914571    306.16963  0.019964112   0.01932955           11 
 1279000   0.73893836   -7.1998094    305.99314  0.019937004  0.019313533           19 
 1280000   0.74840146   -7.1688408    306.24721  0.019937969  0.019297516           13 
 1281000   0.73800321   -7.1807317    306.43223  0.019934441  0.019281587           10 
 1282000   0.74533335   -7.1735614    306.84386  0.019945649  0.019265619           17 
 1283000   0.74561713   -7.1702282    307.10058  0.019946777  0.019249765           12 
 1284000   0.72956691    -7.166042    306.14297  0.019869092  0.019233907           13 
 1285000   0.73864198   -7.2125407    306.29155  0.019863265  0.019218034           13 
 1286000   0.74743782   -7.1691481    307.04549  0.019896675  0.019202233           18 
 1287000   0.73822466   -7.1967437    306.32736  0.019834716  0.019186433           19 
 1288000   0.73820654   -7.1908317    306.72761  0.019845213  0.019170691           53 
 1289000   0.72953811   -7.1398548    307.05009  0.019850665  0.019154911           16 
 1290000     0.736269    -7.178989     306.2216  0.019781757  0.019139095           16 
 1291000   0.73489065   -7.1650879    306.79142  0.019803216  0.019123366           12 
 1292000   0.74877737   -7.1787539    306.99033  0.019800718  0.019107663           10 
 1293000   0.73774031   -7.1877534    306.44839  0.019750476  0.019091809           20 
 1294000   0.72995603   -7.1910965    306.54123  0.019741192  0.019076015           22 
 1295000   0.72595506   -7.1967521    306.20959  0.019704607  0.019060229           16 
 1296000   0.74284392   -7.2283435    306.96978  0.019738283  0.019044443           16 
 1297000    0.7354351   -7.2060231    306.63817  0.019701758  0.019028675           50 
 1298000   0.73856769   -7.1786048    307.20543  0.019722999  0.019012888           35 
 1299000   0.72797352   -7.1997877    306.14496  0.019639784   0.01899717            8 
 1300000   0.74510284   -7.2050657    306.88542  0.019672143  0.018981518           19 
 1301000   0.73570447   -7.2320491    305.98346  0.019599248  0.018965765           31 
 1302000   0.73336813   -7.2180214    306.63028  0.019625594  0.018950053           21 
 1303000   0.74128445   -7.2005805    306.65615  0.019612187  0.018934424           33 
 1304000   0.74149538   -7.2122107    307.01365  0.019619993  0.018918802           27 
 1305000    0.7398158   -7.2131557    307.12833  0.019612282  0.018903168           47 
 1306000    0.7325137   -7.2096478    306.80743  0.019576789   0.01888751           40 
 1307000   0.73084427   -7.2034945    306.63546  0.019550846  0.018871869           28 
 1308000   0.72767829   -7.2047858    307.11849  0.019566672  0.018856154           30 
 1309000   0.72719166   -7.2095368    307.14277   0.01955327  0.018840511           45 
 1310000   0.72197672   -7.2339704    307.10293   0.01953581  0.018824899           64 
 1311000   0.73951911   -7.2050201     307.1521  0.019524034  0.018809277           12 
 1312000   0.72916026    -7.202669     306.8168  0.019487855  0.018793693           16 
 1313000   0.72995298    -7.200967    307.26685  0.019501577  0.018778198           23 
 1314000   0.73382788   -7.1932651    307.22916  0.019484345  0.018762723           31 
 1315000   0.71706324   -7.2059114     307.1444  0.019464157  0.018747244           22 
 1316000   0.72603587   -7.2231902    307.50288  0.019472067  0.018731824           20 
 1317000   0.73618028   -7.2381884    307.19305  0.019437677  0.018716348           56 
 1318000   0.70675988     -7.18963    307.98794  0.019473188  0.018700936           32 
 1319000   0.71571653   -7.2066247    307.29515  0.019414654  0.018685531           52 
 1320000   0.72804617   -7.2196364    306.99222  0.019380822  0.018670048           37 
 1321000   0.71302964   -7.2259128    307.05769   0.01937028  0.018654545           27 
 1322000   0.72528711   -7.2286513    306.80763  0.019339866   0.01863905           33 
 1323000   0.72534079   -7.2217805    306.97009   0.01933548   0.01862359           51 
 1324000   0.71467496    -7.227133    307.19041  0.019334744  0.018608143           38 
 1325000   0.71510197    -7.218381    307.27925  0.019325739  0.018592787           18 
 1326000   0.71486844   -7.2082967    307.13447  0.019302066  0.018577464           57 
 1327000   0.72659981    -7.244291    306.63922  0.019256419  0.018562102           78 
 1328000   0.72187371   -7.2355592    307.14142  0.019273433  0.018546739           23 
 1329000   0.72200043   -7.2509732    307.01897  0.019251252  0.018531369           18 
 1330000   0.74233769   -7.2377323    307.70374  0.019279683  0.018516007           62 
 1331000   0.73214406   -7.2411839    307.13335  0.019229486  0.018500709           34 
 1332000   0.71582017   -7.2406835    308.11048  0.019276181  0.018485416           35 
 1333000   0.71439171   -7.1998587    308.17042  0.019265468  0.018470065           17 
 1334000   0.72162935   -7.2175638     308.2083  0.019253392  0.018454812           37 
 1335000   0.72399002   -7.2254417    308.47416  0.019255566  0.018439536           63 
 1336000   0.71941167    -7.250634    307.54417  0.019183144   0.01842424           30 
 1337000   0.71261386   -7.2669803    306.93236  0.019130663  0.018408861           38 
 1338000   0.72477871   -7.2998651    306.22995  0.019072618  0.018393396          116 
 1339000   0.70996625   -7.2626328    306.39869  0.019068876  0.018377897           40 
 1340000   0.72187283    -7.284553    306.35865  0.019052155  0.018362481           65 
 1341000    0.7129441   -7.2802829    306.91045  0.019072238   0.01834707           18 
 1342000   0.72189126   -7.2955382    305.93544  0.018997481  0.018331687           33 
 1343000   0.69870946   -7.3158984     306.4838  0.019017362  0.018316226           50 
 1344000   0.72460718   -7.2788163    307.31654  0.019054845  0.018300823           28 
 1345000   0.71073911   -7.2809263    306.89358  0.019014472  0.018285456           44 
 1346000   0.69840668   -7.2883411    307.28799  0.019024764  0.018270109           33 
 1347000   0.71493677   -7.2530814    307.08019  0.018997784  0.018254774           23 
 1348000    0.7198748   -7.2780531    307.87177  0.019032627  0.018239488           40 
 1349000   0.71567623   -7.2874462    306.64033  0.018942447  0.018224154           31 
 1350000   0.71413608    -7.274334    306.82891  0.018940056  0.018208854           26 
 1351000   0.71907773   -7.2772282    307.22232  0.018950303   0.01819359           28 
 1352000   0.71975264   -7.2578519    307.55732  0.018956936  0.018178387           39 
 1353000    0.7219051   -7.2563403    307.66681  0.018949668   0.01816322           25 
 1354000   0.69389919   -7.2686275    307.55367  0.018928709  0.018148045           34 
 1355000   0.71106311   -7.2893582    307.50223  0.018911576  0.018132869           61 
 1356000   0.71040887   -7.2989058    306.80966  0.018855067  0.018117612           66 
 1357000   0.71528093   -7.3223672    307.05684  0.018856352  0.018102305           47 
 1358000   0.72370074   -7.3161064     307.5614  0.018873429  0.018087073           34 
 1359000   0.70127454   -7.2997821    307.02759  0.018826808  0.018071863           48 
 1360000    0.7143235    -7.274447    306.79198  0.018798528  0.018056667           21 
 1361000    0.7092633   -7.3026563    307.03585  0.018799648  0.018041529           32 
 1362000   0.72070885   -7.2867265    307.26264  0.018799721  0.018026408           28 
 1363000   0.72025856   -7.3116661    307.17826  0.018780769  0.018011189           31 
 1364000   0.72394614   -7.2858827    307.33859  0.018776796   0.01799604           65 
 1365000   0.71412706   -7.3098722     307.5905  0.018778419  0.017980913          114 
 1366000   0.70888635   -7.2859771    307.40832  0.018753558  0.017965763           96 
 1367000   0.69217437    -7.297682    307.58087  0.018750358  0.017950617          109 
 1368000   0.69531739   -7.2862815    307.38624  0.018724795  0.017935495           72 
 1369000   0.72280181   -7.3028884    307.26397  0.018703675  0.017920367          106 
 1370000   0.70841295     -7.31971    307.57799  0.018709123  0.017905248          132 
 1371000   0.69836756   -7.3271457    306.57615  0.018634582  0.017890096           76 
 1372000   0.70411184   -7.3104424    306.69342  0.018628123  0.017874943           43 
 1373000   0.70244751   -7.3125831    307.13309  0.018641241  0.017859815           80 
 1374000   0.71397393   -7.3258188    306.15355  0.018568265  0.017844644           94 
 1375000   0.70632204   -7.3165368    307.69481   0.01864817  0.017829494           48 
 1376000   0.70469269   -7.3300979    306.66278  0.018572116   0.01781442          127 
 1377000   0.70393357   -7.3235693    306.89283  0.018572551  0.017799346           75 
 1378000    0.6896762   -7.3135012    307.10163    0.0185717  0.017784258           93 
 1379000   0.71960342   -7.3209088    308.01544  0.018613454  0.017769257           53 
 1380000   0.69960305   -7.3079724    307.74143   0.01858342  0.017754232           84 
 1381000   0.71393848    -7.331042    307.64578  0.018564192  0.017739233           79 
 1382000   0.69777175    -7.320145    307.28711  0.018529131  0.017724175           94 
 1383000   0.69339904   -7.3175539    307.21621  0.018511461  0.017709148          175 
 1384000   0.68907657   -7.3371815    306.88016  0.018477851  0.017694126           79 
 1385000   0.70024221   -7.3093136    307.68629  0.018513014  0.017679078          106 
 1386000    0.7080245   -7.3135428    306.88691  0.018451594   0.01766405           99 
 1387000   0.69449986   -7.3237224    307.11085  0.018451746  0.017648971          170 
 1388000   0.70833652   -7.3223404    307.35757  0.018453264  0.017633989          132 
 1389000   0.70861677   -7.3565072    307.35083  0.018439575  0.017619008          128 
 1390000   0.69994466   -7.3322825    306.44723  0.018372136  0.017604019          176 
 1391000   0.69073242   -7.3300187     307.0962  0.018397807  0.017589045           56 
 1392000   0.69750765   -7.3455486    306.43397  0.018344946  0.017574034           70 
 1393000    0.7028287   -7.3225658    307.08087  0.018370475  0.017559049           82 
 1394000   0.70462118   -7.3402514    306.97693  0.018351084  0.017544058           47 
 1395000    0.6944815   -7.3323319    306.73782  0.018323645  0.017529034           81 
 1396000   0.69642969   -7.3697311    306.22894  0.018280142  0.017514042          127 
 1397000   0.69507334   -7.3562601    306.73642  0.018297329   0.01749906           50 
 1398000   0.68826056   -7.3487776    306.46766   0.01826822  0.017484068           81 
 1399000   0.68160513   -7.3526734    306.79598  0.018274719  0.017469105           99 
 1400000   0.69403082   -7.3476615    306.74414   0.01825858  0.017454164          108 
 1401000   0.68269811   -7.3516663    306.94807  0.018257677  0.017439241          175 
 1402000   0.70811689   -7.3687924    306.58174  0.018222881  0.017424337          217 
 1403000   0.69677358   -7.3293208    307.24321  0.018249181  0.017409447           46 
 1404000   0.69914804   -7.3210256    307.98144      0.01828  0.017394629           97 
 1405000    0.7054133    -7.330543    307.62481  0.018245837  0.017379796          156 
 1406000   0.69480705   -7.3587517    306.82579  0.018185502  0.017364924          127 
 1407000   0.68708308   -7.3437513    307.34692  0.018203442  0.017350096          228 
 1408000   0.69426336   -7.3610165    306.94203   0.01816655  0.017335246          101 
 1409000   0.69425377   -7.3113131    307.14348  0.018165572  0.017320409          203 
 1410000   0.68630209   -7.3452099    307.35797  0.018165365  0.017305635          244 
 1411000   0.70095302   -7.3374223    307.17438  0.018141648  0.017290899          178 
 1412000    0.6969844   -7.3255145    306.95895  0.018116085  0.017276169          236 
 1413000   0.68287161   -7.3768057    306.74826  0.018090839  0.017261393          137 
 1414000   0.68624288    -7.389301     306.6261  0.018070845  0.017246636          205 
 1415000   0.67362847   -7.3308917    307.48993  0.018108948  0.017231903          109 
 1416000   0.68476786   -7.3617525    307.28857  0.018084309  0.017217205           88 
 1417000   0.69797453   -7.3283801    306.98797  0.018053868  0.017202488          119 
 1418000   0.70517607   -7.3480515    308.33157  0.018120097   0.01718786          161 
 1419000     0.697128   -7.3273965    307.22239  0.018042188  0.017173266          151 
 1420000   0.69000644   -7.3713931    307.83889  0.018065662  0.017158628          117 
 1421000   0.68828231   -7.3659535    306.99308  0.018003348  0.017144026           74 
 1422000   0.69112683   -7.3445943    307.44568  0.018017211  0.017129373           72 
 1423000     0.691924   -7.3993719    306.88183  0.017971529  0.017114714          161 
 1424000    0.6819359   -7.3666042    307.17717  0.017976192  0.017100068           75 
 1425000   0.69519688   -7.3762424    307.02263   0.01795454  0.017085423          120 
 1426000   0.69257849   -7.3890014    306.69382  0.017922734  0.017070786           87 
 1427000   0.68115412   -7.3725513    306.87054  0.017920494  0.017056113           95 
 1428000   0.69161358   -7.3676145    306.66305  0.017895836  0.017041477           76 
 1429000   0.68599435   -7.3940394    306.58516  0.017878771   0.01702684          248 
 1430000   0.68495408   -7.3927751    306.57296  0.017865557  0.017012214          194 
 1431000   0.68349436   -7.3767447    306.95762  0.017875473  0.016997552          202 
 1432000   0.68471645   -7.4037022    307.15463  0.017874455  0.016982905          129 
 1433000   0.67879717   -7.4074168    306.84467  0.017843956   0.01696825          120 
 1434000    0.6809063   -7.3912929    306.24946  0.017796923    0.0169536           87 
 1435000   0.67900968   -7.3922737    306.71911  0.017811795  0.016939005          332 
 1436000   0.68346155   -7.3990425    306.82847  0.017805737  0.016924381          129 
 1437000   0.68546994   -7.3895639    306.30257  0.017762849  0.016909815           87 
 1438000   0.67252576   -7.3972073    306.39289  0.017755731  0.016895244          186 
 1439000   0.67478335   -7.3965102    306.68747  0.017760451  0.016880735           77 
 1440000   0.67754422   -7.3940433    306.61082  0.017743681  0.016866207          172 
 1441000   0.66960153   -7.4227613    305.97147  0.017694395  0.016851644          217 
 1442000   0.68750308   -7.3860672    306.89918  0.017735736  0.016837114           92 
 1443000   0.66512058   -7.4275156    306.16584  0.017681095  0.016822616          330 
 1444000   0.66964143   -7.3911817    306.93538  0.017713261  0.016808148          317 
 1445000   0.67161428   -7.4270785    307.00754  0.017705164  0.016793652          310 
 1446000   0.68712365   -7.4052244    306.71895  0.017676288  0.016779177          175 
 1447000   0.66552139   -7.4106581     306.4178  0.017646729  0.016764697          159 
 1448000   0.68057108   -7.3987835    307.22276  0.017680868  0.016750229           67 
 1449000    0.6618595    -7.423611    306.58477  0.017631974  0.016735773          179 
 1450000   0.67050735   -7.4023782    307.21441  0.017656001  0.016721268          158 
 1451000    0.6878467   -7.4184618    306.50712  0.017603212  0.016706858          237 
 1452000   0.68590997   -7.4264198    306.83328  0.017609807  0.016692435          207 
 1453000   0.68912338   -7.4107557    306.61985  0.017585447  0.016678032          215 
 1454000   0.68788324   -7.4046796    306.58943  0.017571609  0.016663613          166 
 1455000   0.68187672   -7.4140569    306.58568  0.017559317  0.016649274          205 
 1456000   0.67172159   -7.4257718    307.49515   0.01759931  0.016634947          168 
 1457000   0.66675332   -7.4199369    306.84461  0.017550023  0.016620601          153 
 1458000   0.65992476   -7.4236267    306.68141  0.017528659  0.016606284          118 
 1459000   0.67893909   -7.4131284    306.87779  0.017527861  0.016591976          285 
 1460000   0.66083349   -7.4239019    306.41841  0.017489635  0.016577683          147 
 1461000   0.67074279   -7.4405133    306.53012  0.017484036  0.016563368          177 
 1462000   0.67021844   -7.4409258    306.35326  0.017461996  0.016549035          170 
 1463000   0.66700557   -7.4258317    307.21102  0.017498919  0.016534653          254 
 1464000   0.65453296   -7.4303242    306.97858  0.017473735  0.016520299          238 
 1465000   0.67325836    -7.430762    306.82629  0.017453145  0.016505987          228 
 1466000   0.66393651   -7.4336075    306.87005  0.017443727  0.016491629          123 
 1467000   0.65964097   -7.4567381    306.22223  0.017395037   0.01647727          187 
 1468000   0.67358623   -7.4341852    306.02737  0.017372126  0.016462951          256 
 1469000   0.66414423   -7.4704465    306.16395  0.017368048  0.016448634          188 
 1470000   0.64451473    -7.436356    305.77659  0.017334274  0.016434306          231 
 1471000   0.67477109   -7.4389207    305.57007  0.017310791      0.01642          279 
 1472000   0.65165041   -7.4188782    306.39201  0.017345562  0.016405692          286 
 1473000   0.66464016   -7.4388675    306.40834   0.01733471  0.016391404          271 
 1474000   0.66599906   -7.4693575    306.68609  0.017338653  0.016377123          221 
 1475000   0.67064359   -7.4670938    306.47338   0.01731488  0.016362825          215 
 1476000   0.66904443   -7.4541502    306.13056  0.017283794  0.016348537          247 
 1477000   0.65354642   -7.4613431    305.49816  0.017236412  0.016334252          370 
 1478000   0.66561874   -7.4485196    305.49564  0.017224608  0.016319982          290 
 1479000   0.65631845   -7.4423129    306.49029  0.017269004  0.016305726          336 
 1480000   0.67062687   -7.4696794    305.98861  0.017229088  0.016291464          264 
 1481000   0.66011094   -7.4588752    305.55268  0.017192926  0.016277198          281 
 1482000   0.65643581   -7.4540612    305.99488   0.01720619   0.01626298          377 
 1483000   0.66706661   -7.4684587    305.56025  0.017170165   0.01624876          299 
 1484000   0.66112114   -7.4625917    305.81527  0.017172915  0.016234538          321 
 1485000   0.66019737   -7.4408428    305.84673  0.017163116  0.016220309          601 
 1486000   0.64525798   -7.4690853    305.55306  0.017135098   0.01620608          500 
 1487000   0.64783695   -7.4740785    305.25156  0.017106678  0.016191868          603 
 1488000   0.64870532   -7.4700146    306.01178  0.017137756  0.016177693          300 
 1489000   0.67330762   -7.4799026    305.62785   0.01710476    0.0161635          346 
 1490000   0.65964516   -7.4611453     306.0851  0.017118854  0.016149379          575 
 1491000   0.67483983   -7.4671443    305.61128   0.01708089  0.016135218          524 
 1492000   0.65790623   -7.4680408    306.16036  0.017100109  0.016121098          675 
 1493000   0.65781725   -7.4550084    305.54669  0.017054404  0.016106976          639 
 1494000   0.65929739   -7.4553907    305.47136  0.017038786  0.016092885          269 
 1495000   0.66651214   -7.4613714    305.67736  0.017038872  0.016078801          320 
 1496000   0.66235188   -7.4432339    306.27641  0.017060852  0.016064735          283 
 1497000   0.65588627   -7.5097197    305.06851  0.016982215  0.016050684          650 
 1498000   0.64497752   -7.4638232    305.25273  0.016981127  0.016036624          591 
 1499000   0.64898538   -7.4638672     306.5119  0.017039799  0.016022601          318 
 1500000   0.65321435   -7.4803862     305.6619  0.016981216  0.016008569          404 
 1501000    0.6575367    -7.486571    305.44402  0.016957807  0.015994537          303 
 1502000   0.65774278   -7.4820957    306.06628  0.016981041  0.015980527          295 
 1503000   0.67309198   -7.4967176    305.45021  0.016935585  0.015966519          244 
 1504000   0.65874404   -7.4923209    305.79374  0.016943359  0.015952559          653 
 1505000   0.64295719   -7.4854854    305.82698  0.016933941  0.015938609          540 
 1506000   0.65125367   -7.4612429    306.61218  0.016966146  0.015924706          606 
 1507000   0.65306985   -7.4844075    305.87047  0.016913873  0.015910812          531 
 1508000   0.66295855    -7.478336    306.14613  0.016917889  0.015896893          559 
 1509000   0.65830133   -7.4968351    305.81796  0.016888555  0.015882972          609 
 1510000   0.66165481   -7.4977822    305.75124  0.016873689  0.015869072          482 
 1511000    0.6422582   -7.4948095    305.49914  0.016848618  0.015855203          652 
 1512000   0.64032274   -7.4960196     306.4085  0.016887594  0.015841314          337 
 1513000   0.64264536   -7.4954294    305.83055    0.0168446  0.015827453          379 
 1514000   0.65719626   -7.5201762    305.87373   0.01683585  0.015813615          278 
 1515000   0.64968545   -7.5177003    305.57343  0.016808219  0.015799778          595 
 1516000    0.6571075   -7.4854202     306.2084  0.016832036  0.015785972          610 
 1517000   0.64202256   -7.4912716    306.24615  0.016823014  0.015772169          599 
 1518000   0.64740355   -7.4880974    306.14831   0.01680656  0.015758359          504 
 1519000    0.6475819   -7.5276973    305.25688  0.016746592  0.015744539          611 
 1520000   0.64313425   -7.4965077    305.58251  0.016753427  0.015730742          627 
 1521000   0.64346971   -7.4816915     305.8887  0.016759188  0.015716995          647 
 1522000   0.65985476   -7.5087689    306.37588  0.016774851  0.015703213          539 
 1523000   0.65666105   -7.5233337    306.02077  0.016744406  0.015689444          280 
 1524000   0.64681215   -7.4999803    305.70659  0.016716239  0.015675688          600 
 1525000    0.6348504   -7.5358634    305.07853  0.016670958  0.015661912          682 
 1526000   0.64376967   -7.4939245    305.41024  0.016678148  0.015648166          587 
 1527000   0.64784688   -7.5119904    306.41877  0.016722264  0.015634447          558 
 1528000   0.65741997   -7.5223231    305.36483  0.016653841  0.015620751          628 
 1529000   0.64679264   -7.4986001    306.03022  0.016679214  0.015607082          281 
 1530000   0.63665657   -7.4859737    306.24612  0.016680072  0.015593454          390 
 1531000   0.64020389   -7.5278069    305.49519  0.016628304  0.015579783          334 
 1532000   0.63840038   -7.5200728    305.93739  0.016641503  0.015566149          698 
 1533000    0.6516909   -7.5410841    305.76184  0.016621105  0.015552547          472 
 1534000   0.64964072   -7.5238237    305.86524  0.016615886  0.015538964          682 
 1535000   0.64445623    -7.514512     305.3338  0.016576211  0.015525371          293 
 1536000   0.63666129   -7.5059848    305.51258  0.016575118  0.015511785          353 
 1537000    0.6487379   -7.5155547    306.05317  0.016593644   0.01549823          705 
 1538000   0.63708766   -7.5219536    305.61116  0.016558905  0.015484689          782 
 1539000   0.63618737   -7.4998489    305.89738  0.016563644  0.015471155          671 
 1540000   0.64419289   -7.4929014    305.42927  0.016527558  0.015457636          383 
 1541000   0.64203391   -7.5026204    306.00627  0.016548035  0.015444153          672 
 1542000    0.6388797   -7.5242258    305.76553  0.016524294  0.015430661          761 
 1543000    0.6375976   -7.5081053    305.11959  0.016478699  0.015417163          795 
 1544000    0.6392005   -7.5094532    305.76421  0.016502818  0.015403679          762 
 1545000   0.61654176   -7.5245773    305.87289  0.016497998  0.015390231          542 
 1546000   0.61746758   -7.5168081    305.32492   0.01645779  0.015376781          308 
 1547000   0.62868153    -7.515389    305.27787  0.016444617  0.015363328          715 
 1548000   0.63761224   -7.5209273    305.67695  0.016455477  0.015349863          428 
 1549000   0.63343683   -7.5425541      305.135  0.016415698  0.015336446          743 
 1550000    0.6357258   -7.5151393    305.27386  0.016412573  0.015323034          520 
 1551000   0.63816663   -7.5392046    305.32424  0.016404698  0.015309636          615 
 1552000   0.63177999   -7.5252746    305.81179  0.016420306  0.015296261          730 
 1553000   0.62347467   -7.5322669    305.40675  0.016387999  0.015282852          746 
 1554000   0.64853942   -7.5077233    304.91883  0.016351288  0.015269461          867 
 1555000   0.63947339   -7.5274368    305.39623  0.016366357  0.015256077          463 
 1556000   0.62802739   -7.5063152    304.97871  0.016333478  0.015242739          740 
 1557000   0.63751329   -7.5279466    305.04986  0.016326796  0.015229399          643 
 1558000   0.63350369   -7.5208317    305.98194  0.016366172  0.015216068          695 
 1559000   0.63037178   -7.5319306    305.42936  0.016326136   0.01520275          416 
 1560000   0.62807768   -7.5309064    305.60143  0.016324862  0.015189447          750 
 1561000   0.62887389   -7.5412627    305.12299  0.016288864  0.015176164          680 
 1562000   0.63200783   -7.5086717    305.72948  0.016310792  0.015162893          729 
 1563000   0.63053336   -7.5460433    305.42285  0.016284008  0.015149624          648 
 1564000   0.63185667   -7.5268749    305.54804  0.016280266  0.015136335          743 
 1565000   0.62775681   -7.5461948    305.75862  0.016281077  0.015123089          750 
 1566000   0.61959893   -7.5233067    305.24499  0.016243348  0.015109836          775 
 1567000   0.63069932   -7.5411954     305.4318  0.016242916  0.015096591          780 
 1568000   0.64429555    -7.518641     304.8866  0.016203582  0.015083346          465 
 1569000   0.63235591   -7.5607527    305.31914  0.016216228  0.015070141          681 
 1570000   0.62432396   -7.5609293    305.00015  0.016188968  0.015056956          724 
 1571000   0.62751176    -7.547871    304.75868  0.016165854  0.015043781          587 
 1572000   0.63314533   -7.5461401    305.48204  0.016193916  0.015030603          757 
 1573000   0.63721078   -7.5270564    305.70646  0.016195511  0.015017447          715 
 1574000   0.63304626   -7.5335546    305.36828  0.016167317  0.015004281          758 
 1575000   0.62496484   -7.5422553    304.95683  0.016135282  0.014991127          727 
 1576000   0.62185124   -7.5584179    304.67923  0.016110365  0.014977957          763 
 1577000   0.61739396   -7.5787521    304.80002  0.016106533  0.014964809          726 
 1578000   0.62927412   -7.5534377    304.87072  0.016100059   0.01495165          718 
 1579000   0.62379453   -7.5671888    304.43497  0.016066866  0.014938502          766 
 1580000   0.62671321    -7.578057    304.46858  0.016058469  0.014925348          746 
 1581000   0.62786421   -7.5610715    304.95449  0.016073924  0.014912216          377 
 1582000   0.62541409   -7.5356617        305.3  0.016081964  0.014899082          664 
 1583000   0.62214505    -7.563287    304.90468  0.016050994  0.014885986          749 
 1584000   0.62481784   -7.5253775    305.23362  0.016058166  0.014872875          678 
 1585000   0.62284345    -7.575712    305.03928  0.016037817  0.014859807          783 
 1586000   0.62845985   -7.5594063      304.383  0.015993222  0.014846754          643 
 1587000   0.62926103   -7.5723854    304.60221  0.015994655  0.014833743          668 
 1588000   0.60294183   -7.5621324    304.67345  0.015988321  0.014820735          752 
 1589000   0.63499452   -7.5609254    304.52465  0.015970456   0.01480769          778 
 1590000    0.6279493   -7.5638764    305.07388  0.015989197  0.014794669          747 
 1591000   0.61600036    -7.578436     304.9514  0.015972732  0.014781652          357 
 1592000   0.60864913   -7.5758772    305.01114  0.015965826   0.01476867          829 
 1593000   0.62817147   -7.5534529    305.02229  0.015956387  0.014755684          881 
 1594000   0.61553951   -7.5655387    304.64239  0.015926515  0.014742739          870 
 1595000   0.61644358   -7.5702158      304.603  0.015914473  0.014729794          880 
 1596000   0.62522827   -7.5768414    305.32729  0.015942319  0.014716855          726 
 1597000   0.60211053   -7.5666491    304.51787    0.0158901  0.014703957          721 
 1598000   0.63023895   -7.5858872    304.63467  0.015886247  0.014691063          816 
 1599000   0.61881333   -7.5852023    304.97811  0.015894211  0.014678193          764 
 1600000   0.61785178   -7.5927424    304.78632  0.015874288  0.014665312          660 
 1601000   0.60402911   -7.5903281    305.03475  0.015877303  0.014652421          803 
 1602000   0.61679732   -7.5860554     304.5484  0.015842093  0.014639572          729 
 1603000    0.6135974   -7.5605662    305.03349  0.015857428  0.014626716          719 
 1604000   0.61728181    -7.576328     305.0828  0.015850104  0.014613876          858 
 1605000   0.62233257   -7.5582738    304.72683  0.015821746  0.014601061          714 
 1606000   0.62109193   -7.5697974    304.31401  0.015790474  0.014588261          791 
 1607000   0.60782082   -7.5527315    304.77073  0.015804332  0.014575466          762 
 1608000   0.61414825   -7.5596185    304.99004  0.015805869  0.014562697          794 
 1609000   0.61367721   -7.5913085     304.9643  0.015794712  0.014549947          706 
 1610000   0.61391163   -7.5855483    305.53136  0.015814253   0.01453722          451 
 1611000   0.60889661   -7.5815386    304.56502   0.01575445  0.014524485          833 
 1612000    0.6054018   -7.5580509    305.05019  0.015769758  0.014511765          850 
 1613000   0.60310286   -7.5911187    304.77693  0.015745863  0.014499031          598 
 1614000   0.61241229   -7.5979691    305.04198  0.015749792  0.014486288          832 
 1615000   0.61011175   -7.6033806    304.04894    0.0156888  0.014473551          805 
 1616000   0.60883417    -7.581659    305.12835  0.015734754  0.014460848          796 
 1617000    0.6087008   -7.6035789    304.41489  0.015688254  0.014448152          838 
 1618000   0.60057324   -7.6082874    304.44773   0.01568025  0.014435463          829 
 1619000   0.60119337   -7.5870175    304.54842  0.015675748  0.014422781          804 
 1620000   0.61369423    -7.594551    304.46656   0.01566186  0.014410104          914 
 1621000   0.59813367   -7.5854965    304.48052  0.015652916  0.014397438          805 
 1622000   0.60488736   -7.5828346    304.46632  0.015642536  0.014384774         1011 
 1623000   0.60330061   -7.6292961     303.5299  0.015584817  0.014372112          937 
 1624000   0.60925762   -7.5831136    304.26578  0.015612981   0.01435947          848 
 1625000   0.60585569   -7.6274442    303.57008  0.015567696  0.014346833          867 
 1626000   0.62312613   -7.6196449    304.07433  0.015583965  0.014334234          794 
 1627000   0.60581671   -7.6335657     303.9952  0.015570334  0.014321613          935 
 1628000   0.60244611   -7.6279676    304.49025   0.01558611  0.014309025          859 
 1629000   0.61863396   -7.6033797    304.81235  0.015593019  0.014296456          877 
 1630000   0.60199191    -7.607066    304.43175  0.015563995  0.014283911          877 
 1631000   0.59801127   -7.6296629    304.10978  0.015538002  0.014271348          850 
 1632000   0.60230594   -7.6179778    304.23316  0.015534781  0.014258806          841 
 1633000   0.61115251   -7.6383704    304.33978  0.015530709  0.014246272          862 
 1634000   0.60376864    -7.621241    303.79808  0.015493578  0.014233765          840 
 1635000   0.59468317    -7.596458    304.18076  0.015503607  0.014221271          794 
 1636000    0.5914854   -7.6156761    304.31666  0.015501052  0.014208766          809 
 1637000   0.60055835   -7.6277647    304.36607  0.015494099  0.014196286          764 
 1638000   0.59607893   -7.6123468    304.44044  0.015488423  0.014183811          808 
 1639000   0.60284102   -7.6387214    304.11985  0.015462673  0.014171355          807 
 1640000    0.6055157   -7.6138801    304.18459  0.015456534  0.014158899          870 
 1641000   0.60436468   -7.6383974    304.13144  0.015444416  0.014146468          811 
 1642000   0.59385807   -7.6125037    303.91249  0.015423898  0.014134051          801 
 1643000   0.59232464   -7.6350952    304.40454  0.015439468  0.014121626          858 
 1644000   0.60661124   -7.6133245    304.32991  0.015426293  0.014109238          880 
 1645000    0.6034936   -7.6209638    303.64456  0.015382197  0.014096843          808 
 1646000   0.59478498   -7.6076111    304.74961  0.015428798  0.014084473          901 
 1647000   0.59348065   -7.6131053     304.0951  0.015386313  0.014072105          863 
 1648000   0.59743485   -7.6305944    304.34966  0.015389849  0.014059745          913 
 1649000   0.59728563   -7.6089399    304.28016  0.015377004  0.014047394          449 
 1650000   0.58357096   -7.6356139    303.58937  0.015332797  0.014035027          840 
 1651000    0.5884049   -7.6269842    304.56995  0.015373004  0.014022686          923 
 1652000   0.58644363   -7.6404709    303.41428  0.015305401  0.014010362          852 
 1653000   0.60164783   -7.6305781     303.7688  0.015314015  0.013998041          874 
 1654000    0.5848948   -7.6339403    303.76355  0.015304492  0.013985708          853 
 1655000   0.59702813   -7.6371189    304.05281  0.015309809  0.013973419          753 
 1656000   0.58881841   -7.6364692    303.97048  0.015296421  0.013961139          917 
 1657000   0.58804558   -7.6406707    303.81142   0.01527919  0.013948871          870 
 1658000   0.59009916   -7.6571185    304.49672  0.015304419  0.013936617          569 
 1659000   0.59530121    -7.663953     303.1178  0.015225929  0.013924356          830 
 1660000    0.5889369   -7.6425737    304.38043  0.015280142  0.013912106          893 
 1661000   0.59371883   -7.6452848    303.19385  0.015211412   0.01389988          892 
 1662000   0.58747892   -7.6398006    304.36326  0.015260894   0.01388766          939 
 1663000    0.6023808   -7.6384856    303.70701  0.015218832   0.01387544          907 
 1664000   0.59406289   -7.6502327    303.45095  0.015196863  0.013863215          969 
 1665000   0.58187171   -7.6535694    303.68054  0.015199226  0.013851002         1006 
 1666000   0.59796398    -7.642683    303.52433  0.015182289  0.013838786          850 
 1667000   0.58660221   -7.6586455    303.56703  0.015175317  0.013826588          966 
 1668000   0.58444243   -7.6372035    303.93827  0.015184766  0.013814428          986 
 1669000   0.58664254   -7.6579289    303.30646  0.015144121  0.013802223         1067 
 1670000   0.58469254   -7.6689932    303.28579  0.015134022   0.01379004          963 
 1671000   0.58743802   -7.6441375    303.50811  0.015136052  0.013777866          906 
 1672000   0.59053753   -7.6466908    303.03989  0.015103663  0.013765707         1001 
 1673000   0.59172659   -7.6629799     303.3325   0.01510921  0.013753568         1070 
 1674000   0.59524013   -7.6529607    303.36897     0.015102  0.013741422         1107 
 1675000   0.58493523   -7.6627184    303.10839  0.015080019  0.013729278         1208 
 1676000   0.57611749   -7.6557525    303.11682  0.015071441  0.013717132         1094 
 1677000   0.56917051   -7.6581228    303.26866  0.015069999  0.013705026          911 
 1678000   0.58354113   -7.6728133    303.48693  0.015071858  0.013692937         1069 
 1679000   0.57659465   -7.6601836    303.60928  0.015068954  0.013680862         1086 
 1680000   0.57956772   -7.6704556    302.91051  0.015025323  0.013668756         1135 
 1681000   0.58721603   -7.6735321    303.47679  0.015044457   0.01365668         1087 
 1682000   0.59220066   -7.6766659    303.44998  0.015034185  0.013644626         1073 
 1683000   0.59309358   -7.6539152    303.45237   0.01502537  0.013632574         1079 
 1684000   0.59361682   -7.6608727    303.24695  0.015006282  0.013620523          966 
 1685000   0.57739206   -7.6953499    303.01167   0.01498574  0.013608481         1060 
 1686000   0.58181881   -7.6633791    303.35466  0.014993805  0.013596469         1159 
 1687000   0.57712582   -7.6834603    302.59145  0.014947217  0.013584455         1069 
 1688000   0.58775148   -7.6582462    303.19307  0.014968062  0.013572452         1159 
 1689000   0.57217417   -7.6672829    303.32543  0.014965731   0.01356047         1202 
 1690000   0.57864321   -7.6882043    303.00982  0.014941312  0.013548487         1215 
 1691000   0.58249666   -7.6743092    302.84439  0.014924324   0.01353652         1051 
 1692000   0.57776462   -7.6834595    302.97822  0.014922095  0.013524561         1185 
 1693000   0.57738736   -7.6919159    302.65488  0.014897366  0.013512607         1163 
 1694000   0.57392133   -7.6766845    302.87364  0.014899333  0.013500666         1128 
 1695000   0.56839805   -7.6948058    302.48436  0.014871404  0.013488741         1133 
 1696000   0.57339175    -7.687226    302.65764   0.01487115  0.013476812         1208 
 1697000   0.59102832   -7.6813227    302.74392  0.014866624   0.01346494         1172 
 1698000   0.57595281   -7.6840532    302.88499  0.014864792  0.013453061         1160 
 1699000   0.56944878   -7.6708862    302.64575  0.014844308  0.013441213         1145 
 1700000   0.56631988   -7.6802941    302.26167  0.014816749  0.013429358         1199 
 1701000   0.57450021   -7.6864201     302.8131  0.014835053  0.013417502         1183 
 1702000   0.58840886   -7.6997351    302.39317  0.014805776  0.013405661         1203 
 1703000   0.58045647   -7.6930744    302.88435  0.014821117  0.013393841         1173 
 1704000   0.58244998   -7.6805444    302.67243  0.014802056  0.013382025         1087 
 1705000   0.58216688   -7.6912981    303.14139  0.014816294  0.013370261         1051 
 1706000   0.57507265   -7.7054776    302.63128  0.014782692  0.013358478         1173 
 1707000   0.57482974   -7.6637416    302.72947  0.014778826  0.013346717         1143 
 1708000   0.56762386   -7.7044651     302.6378  0.014765701  0.013334967         1154 
 1709000   0.56127616   -7.6864478    302.93932  0.014771763  0.013323225         1126 
 1710000   0.57550043   -7.7054571    302.90773  0.014761585  0.013311499         1057 
 1711000   0.56437698   -7.6873785    302.89593  0.014752383  0.013299781         1146 
 1712000   0.57043219   -7.6853604    302.50524  0.014724749  0.013288074         1193 
 1713000   0.57480501   -7.7108282    302.64827  0.014723111  0.013276368         1144 
 1714000   0.56312157   -7.6868657    303.15459  0.014739138  0.013264691         1145 
 1715000   0.57767623   -7.7152489    302.60667   0.01470392  0.013253002         1098 
 1716000   0.57877814   -7.6943953    302.49159  0.014689763  0.013241346         1158 
 1717000    0.5616984    -7.689592    303.20148  0.014715661  0.013229698         1147 
 1718000   0.56885487   -7.6902378    302.31626  0.014664157  0.013218062         1190 
 1719000   0.56818185   -7.6964386    302.42615  0.014660954   0.01320643         1208 
 1720000   0.58404218    -7.685121    302.84713  0.014672826  0.013194817         1211 
 1721000   0.56189421   -7.6822847    303.17604  0.014680227  0.013183216         1139 
 1722000   0.56168608     -7.70374    303.13137   0.01466954  0.013171623         1139 
 1723000   0.54866151   -7.7046923    302.36903  0.014624155  0.013160054         1195 
 1724000   0.56947788   -7.7215503      302.171    0.0146061  0.013148474         1155 
 1725000   0.56294805   -7.7032971    302.44707   0.01461097  0.013136914         1139 
 1726000   0.56604206   -7.6930714    302.94182  0.014626392  0.013125376         1188 
 1727000   0.56445645   -7.6944609    302.43946  0.014593682  0.013113845         1153 
 1728000   0.56700294    -7.699032    302.43673  0.014585105  0.013102336         1071 
 1729000   0.57002852   -7.7087298    302.73047  0.014590827  0.013090823         1239 
 1730000   0.57200491   -7.7227557    302.23046  0.014558308   0.01307932         1095 
 1731000   0.55659654   -7.7093368    302.25993  0.014551316  0.013067815         1114 
 1732000   0.56686491   -7.7090444    302.03814  0.014532243  0.013056325         1200 
 1733000   0.55815662   -7.7018886    302.56815  0.014549344  0.013044843         1103 
 1734000    0.5610666   -7.7180695    302.08452   0.01451771  0.013033393         1137 
 1735000   0.56558057   -7.7017472    302.74086  0.014540867  0.013021943         1152 
 1736000   0.55406732   -7.7189689    302.35336   0.01451389  0.013010511         1159 
 1737000   0.57036331   -7.7008868    302.37243  0.014506449  0.012999093         1146 
 1738000   0.56629248    -7.700289    302.19957  0.014489814  0.012987682         1175 
 1739000   0.54495587   -7.7050756    303.07984  0.014523665   0.01297628         1268 
 1740000   0.55933587   -7.7088183    302.04108  0.014465569  0.012964882         1224 
 1741000   0.55730021   -7.7072864    302.46516  0.014477559  0.012953489         1156 
 1742000   0.56490322   -7.7013374    302.36928  0.014464661  0.012942115         1182 
 1743000   0.54766961   -7.7044296    302.12185  0.014444533  0.012930739         1271 
 1744000   0.55824146   -7.7053821    302.67709  0.014462782  0.012919367         1222 
 1745000   0.55394936   -7.7083566    302.34271  0.014438525   0.01290803         1269 
 1746000   0.56521574   -7.7194692    302.62032  0.014443505  0.012896688         1247 
 1747000   0.56160545   -7.7154006    302.72379  0.014440173  0.012885385         1190 
 1748000   0.55561432   -7.7131185    302.45696  0.014419191  0.012874079         1206 
 1749000   0.56024928   -7.7080298    302.04418   0.01439128   0.01286278         1246 
 1750000   0.54845946   -7.7294224    302.03641  0.014382686  0.012851496         1204 
 1751000    0.5497577   -7.7134165    302.24606   0.01438445  0.012840224         1144 
 1752000   0.55742195   -7.7269805    302.55178  0.014390781  0.012828958         1300 
 1753000   0.55654836   -7.7455299    301.41575  0.014328568  0.012817683         1317 
 1754000   0.55115894   -7.7422374    302.29966  0.014362394  0.012806418         1323 
 1755000   0.54511459   -7.7277496    301.96865  0.014338492  0.012795184         1239 
 1756000   0.55557901   -7.7205087    301.81253  0.014322918  0.012783952         1296 
 1757000    0.5476783   -7.7374931    301.60401  0.014304876  0.012772738         1302 
 1758000   0.55566647   -7.7401471     301.9152   0.01431149  0.012761539         1330 
 1759000   0.55569925   -7.7244921    302.04269  0.014309394  0.012750325         1304 
 1760000   0.54773622   -7.7286785    302.15118  0.014306401  0.012739136         1292 
 1761000   0.53789738   -7.7540521    302.51169  0.014315336  0.012727965         1259 
 1762000   0.55251758   -7.7193727    302.54879  0.014308966  0.012716811         1284 
 1763000   0.55839065   -7.7357687    301.63229  0.014257529  0.012705677         1311 
 1764000   0.54538614   -7.7391202    302.01699  0.014267621  0.012694551         1380 
 1765000   0.55488696   -7.7360926    302.51456  0.014283029  0.012683438         1422 
 1766000   0.54599804   -7.7461922    302.02764  0.014251965  0.012672333         1295 
 1767000   0.54065753   -7.7409172    302.42382  0.014262583  0.012661238         1282 
 1768000   0.54438909   -7.7563106    302.39739   0.01425327  0.012650155         1299 
 1769000    0.5645589   -7.7474286    302.36418  0.014243649  0.012639099         1388 
 1770000   0.55294371   -7.7318408    302.51811  0.014242849  0.012628051         1252 
 1771000   0.56031254   -7.7401109    301.82802  0.014202335  0.012617005         1340 
 1772000   0.54829054    -7.748815    301.60892  0.014184016  0.012605955         1304 
 1773000    0.5442146   -7.7457906    302.20446  0.014204008  0.012594931         1212 
 1774000   0.54561201   -7.7487214    301.55355  0.014165424  0.012583897         1279 
 1775000   0.55023551   -7.7329045    301.68054  0.014163405  0.012572892         1225 
 1776000   0.55011887   -7.7308255    301.78587  0.014160373  0.012561909         1199 
 1777000   0.53720229   -7.7191723    301.86888  0.014156297  0.012550937         1196 
 1778000   0.52562538   -7.7450125     301.9206  0.014150759  0.012539958         1195 
 1779000   0.54968881   -7.7451587    301.56928  0.014126348  0.012529005         1238 
 1780000   0.53816738   -7.7366031    301.80099   0.01412926  0.012518085         1171 
 1781000    0.5504634   -7.7382273    302.42915  0.014150718  0.012507168         1157 
 1782000   0.52947824   -7.7333317    301.69934  0.014108649  0.012496252         1204 
 1783000   0.54155994   -7.7469058    302.06069  0.014117624  0.012485349         1266 
 1784000   0.52942339   -7.7443938    302.07629   0.01411044  0.012474454         1264 
 1785000   0.53697389   -7.7330628    301.98211  0.014098138  0.012463587         1278 
 1786000   0.54114274   -7.7572255    302.35606  0.014107692  0.012452726         1335 
 1787000   0.54300403   -7.7669082    302.02317  0.014084274  0.012441852         1264 
 1788000   0.53185252   -7.7648622     301.2639   0.01404101  0.012431006         1256 
 1789000   0.53574599    -7.749354    301.77616  0.014057023  0.012420164         1282 
 1790000   0.53653317   -7.7617679    301.63577  0.014042634  0.012409332         1237 
 1791000   0.52394086   -7.7605923    301.87202  0.014045785   0.01239851         1301 
 1792000   0.54612636   -7.7465399    301.75751  0.014032623  0.012387704         1207 
 1793000   0.54709991   -7.7507974    301.83316  0.014028312  0.012376905         1175 
 1794000   0.54610687   -7.7634652    301.88204  0.014022763  0.012366108         1240 
 1795000   0.52724266   -7.7626321    301.57443   0.01400067   0.01235531         1308 
 1796000   0.54443245     -7.74597    301.86847  0.014006518  0.012344538         1261 
 1797000   0.52686303   -7.7450345    301.95571  0.014002769  0.012333774         1346 
 1798000   0.53799752   -7.7662235     301.8529  0.013990216  0.012323011         1381 
 1799000   0.54066178   -7.7644239    301.35213  0.013959243  0.012312261         1341 
 1800000   0.52431294   -7.7747108    301.54967  0.013960633   0.01230152         1385 
 1801000   0.52237461   -7.7565276    301.98681  0.013973108  0.012290792         1295 
 1802000   0.51644254   -7.7637879    301.73874  0.013953882  0.012280088         1263 
 1803000   0.52755128   -7.7866415    301.63725  0.013941452  0.012269401         1305 
 1804000   0.53393073   -7.7564945    301.36468  0.013921133  0.012258724         1313 
 1805000   0.53014407   -7.7763286    301.30017  0.013910442  0.012248055         1287 
 1806000    0.5263561   -7.7627273    301.52627  0.013913172    0.0122374         1318 
 1807000   0.52347194   -7.7605642     301.7048  0.013913706  0.012226746         1309 
 1808000   0.53317949   -7.7814762    301.25653  0.013885349  0.012216103         1339 
 1809000   0.51802702   -7.7719274    301.30586  0.013879946  0.012205473         1257 
 1810000   0.52966758   -7.7847734    301.26604  0.013870444  0.012194856         1296 
 1811000    0.5299854   -7.7583645    301.36004   0.01386711   0.01218425         1284 
 1812000   0.53340856   -7.7687518    301.26129  0.013854916  0.012173649         1299 
 1813000   0.53647132   -7.7837199    301.75951  0.013870174   0.01216306         1280 
 1814000   0.51886048   -7.7835438    301.32821  0.013842714  0.012152482         1318 
 1815000   0.53631952   -7.7702033    301.41691   0.01383916  0.012141928         1258 
 1816000   0.53555881   -7.7696575    301.52677  0.013836581  0.012131374         1340 
 1817000   0.53774815   -7.7829745    301.00255  0.013804924  0.012120841         1345 
 1818000   0.52824202   -7.7737886    301.33728  0.013812673  0.012110302         1332 
 1819000   0.53616964   -7.7470808    301.42373   0.01380904  0.012099771         1324 
 1820000    0.5278049    -7.785268    301.49278  0.013804614  0.012089257         1288 
 1821000   0.52870503   -7.7709101     301.1705  0.013782285  0.012078754         1208 
 1822000   0.51659477   -7.7708638    301.27203  0.013779365  0.012068251         1272 
 1823000   0.51673606   -7.7657098    301.44114  0.013779536  0.012057771         1265 
 1824000   0.52361106     -7.79024    301.38882  0.013769591  0.012047297         1307 
 1825000   0.50906137   -7.7940706    300.75451  0.013733083  0.012036814         1352 
 1826000   0.52599086    -7.775565    301.61551  0.013764855  0.012026352         1284 
 1827000   0.51909373   -7.7893111     301.0298  0.013730606  0.012015883         1353 
 1828000   0.52320362    -7.780771    301.80221  0.013758306   0.01200544         1368 
 1829000   0.51878297   -7.7810216    300.54403  0.013693459  0.011995025         1328 
 1830000   0.52433377    -7.763718    300.85172  0.013699987  0.011984609         1380 
 1831000   0.51129787   -7.8038915    301.36462  0.013715848  0.011974209         1245 
 1832000   0.51785785   -7.7985945    300.72574  0.013679301   0.01196381         1372 
 1833000   0.52090365   -7.7718847    301.33906  0.013699721  0.011953424         1272 
 1834000   0.51177762   -7.7913933     300.6078  0.013659024  0.011943047         1331 
 1835000   0.51645196   -7.8095806    301.22601  0.013679655  0.011932701         1261 
 1836000   0.52466241   -7.7955644    300.98992  0.013661489  0.011922346         1274 
 1837000   0.52152216   -7.7841186    300.51908  0.013632693  0.011912004         1360 
 1838000   0.52477482   -7.7827458    300.87962  0.013641622  0.011901663         1377 
 1839000   0.52845842   -7.7906304    300.76389   0.01362896  0.011891351         1337 
 1840000   0.52080011   -7.7911215      301.235  0.013642889  0.011881041         1374 
 1841000   0.51231625   -7.7733937    301.20221  0.013633995  0.011870747         1379 
 1842000   0.51976483   -7.7842517    300.77345  0.013607196  0.011860464         1342 
 1843000   0.51888281   -7.7918504     300.4718  0.013586173  0.011850194         1438 
 1844000   0.51878666   -7.7901247     301.3573  0.013618823  0.011839932         1280 
 1845000   0.51977192   -7.7991499    300.63641   0.01357888   0.01182969         1370 
 1846000   0.52472217   -7.8014465    300.74493  0.013576423  0.011819452         1350 
 1847000    0.5208254   -7.7943312    300.92317  0.013577115  0.011809211         1340 
 1848000    0.5278776    -7.784293     301.5263  0.013596965  0.011798998         1300 
 1849000   0.51378794   -7.8045004    301.11346  0.013571005  0.011788794         1425 
 1850000   0.50729629   -7.8142782    300.70808  0.013545409  0.011778609         1333 
 1851000   0.50792552   -7.8202323    300.95107  0.013549031  0.011768414         1295 
 1852000   0.51513648   -7.7972959    300.96054  0.013542141  0.011758226         1333 
 1853000   0.52164638   -7.7927574    301.43293  0.013556077  0.011748061         1400 
 1854000   0.51297603   -7.8039711    300.98159  0.013528478    0.0117379         1327 
 1855000   0.51769262   -7.8008673    300.77365  0.013511844  0.011727759         1354 
 1856000    0.5126701   -7.8096168    300.86927  0.013508857  0.011717614         1352 
 1857000   0.51094481   -7.8008937    300.64356  0.013491454  0.011707489         1356 
 1858000   0.51182658   -7.7998426    300.81915  0.013492068  0.011697375         1331 
 1859000   0.51287993   -7.8050823    300.75838  0.013482086  0.011687259         1351 
 1860000   0.51536433   -7.8093302    300.74743  0.013474347  0.011677162         1371 
 1861000   0.51693804   -7.8052846      300.724  0.013466058  0.011667072         1302 
 1862000   0.51219842   -7.8038343    300.20325   0.01343552  0.011656987         1397 
 1863000   0.50176507   -7.8067018     300.6558  0.013448551  0.011646921         1339 
 1864000   0.51694653   -7.8203396    300.37265  0.013428677   0.01163687         1369 
 1865000   0.51097135   -7.8172043    300.30702  0.013418544  0.011626822         1303 
 1866000   0.50909879   -7.7986501    300.22158  0.013407538  0.011616779         1302 
 1867000    0.5109331   -7.8053491    300.82754  0.013427403  0.011606751         1307 
 1868000   0.51097251   -7.8081725    301.26461  0.013439713  0.011596733         1327 
 1869000   0.50832506   -7.8181616     300.7494  0.013409551  0.011586735         1369 
 1870000   0.49332385   -7.8156141    300.54189  0.013393132  0.011576756         1375 
 1871000   0.50482647   -7.8392446    300.69568  0.013392824  0.011566772         1312 
 1872000   0.50757521   -7.8138468    300.63318  0.013382887   0.01155681         1291 
 1873000   0.51232202   -7.8377478    300.20289  0.013356598  0.011546864         1353 
 1874000   0.49581419   -7.8198701    300.45077  0.013360493  0.011536919         1422 
 1875000   0.50433952   -7.8082825    300.36794  0.013349686  0.011526968         1378 
 1876000   0.49891631   -7.8133494    300.51071  0.013348912  0.011517041         1356 
 1877000   0.49205875   -7.8100505    300.20926  0.013328417  0.011507129         1359 
 1878000   0.51114991   -7.8282019    300.69291  0.013342781  0.011497223         1313 
 1879000   0.49155775    -7.829871    300.57743  0.013330559  0.011487347         1437 
 1880000   0.50308358   -7.8282455    300.45521   0.01331805   0.01147748         1375 
 1881000   0.49853787   -7.8162901    300.64205  0.013319247  0.011467606         1329 
 1882000   0.48783815   -7.8288654    301.24237  0.013338752  0.011457754         1311 
 1883000   0.50147349   -7.8230541     300.7505    0.0133099  0.011447907         1337 
 1884000   0.50419917   -7.8025281    300.72998  0.013301927  0.011438084         1313 
 1885000   0.50445801    -7.812326    300.79955  0.013297947  0.011428264         1301 
 1886000   0.50327542   -7.8151262    300.55835  0.013280238  0.011418454         1357 
 1887000    0.4928206   -7.8443761    300.55639  0.013273114  0.011408649         1381 
 1888000   0.49818984   -7.8517258    300.66194  0.013270743  0.011398848         1386 
 1889000   0.50126483    -7.835493    300.38947  0.013251697  0.011389063         1305 
 1890000   0.49070502   -7.8197965    300.53563   0.01325113  0.011379286         1340 
 1891000    0.4989867   -7.8237131    300.35951  0.013236361  0.011369532         1293 
 1892000   0.49286791   -7.8278105    300.12185  0.013218898  0.011359765         1380 
 1893000   0.50562924   -7.8408217     300.3872  0.013223596  0.011350028         1312 
 1894000   0.49297613   -7.8297569    300.34619  0.013214809  0.011340284         1357 
 1895000    0.4959504   -7.8376435    300.69208  0.013223047  0.011330552         1324 
 1896000   0.49052345   -7.8311925    300.22946  0.013195739  0.011320826         1351 
 1897000   0.48966089   -7.8283262    300.48898  0.013200184  0.011311111         1377 
 1898000   0.50176831   -7.8365526    299.91783  0.013168152  0.011301403         1396 
 1899000   0.48049828   -7.8375527    300.03139  0.013166201  0.011291718         1311 
 1900000   0.49220272   -7.8459235    300.44207  0.013177284  0.011282039         1321 
 1901000   0.48668434   -7.8395181     300.0334  0.013152437  0.011272369         1364 
 1902000   0.49459171   -7.8312089    299.94481  0.013141641  0.011262708         1347 
 1903000   0.49830803   -7.8383055    300.22277  0.013146907  0.011253051         1359 
 1904000   0.49083159   -7.8470952    300.47321  0.013150963  0.011243411         1360 
 1905000   0.50264754   -7.8321003    299.78399   0.01311391  0.011233791         1361 
 1906000   0.49863454   -7.8349719    300.49124  0.013137952  0.011224176         1414 
 1907000    0.5086378   -7.8257083      300.131  0.013115321   0.01121456         1316 
 1908000   0.48980826   -7.8322425    300.40312  0.013120332  0.011204962         1318 
 1909000   0.47768208   -7.8361355    300.44145  0.013115132  0.011195377         1313 
 1910000   0.49025012   -7.8444117     299.7395   0.01307764  0.011185806         1324 
 1911000   0.48672123   -7.8462137    299.96272   0.01308053  0.011176236         1369 
 1912000   0.49629049   -7.8459569    300.09869  0.013079615  0.011166673         1429 
 1913000   0.49416581   -7.8331937    299.81055  0.013060226   0.01115712         1312 
 1914000   0.48756223   -7.8489417     300.3746  0.013077961  0.011147582         1319 
 1915000    0.4894393   -7.8434358    300.82866   0.01309089  0.011138055         1360 
 1916000   0.48736444   -7.8267775    299.77046  0.013038033  0.011128531         1303 
 1917000   0.49097067   -7.8441516    300.14621  0.013047566  0.011119026         1405 
 1918000   0.49858233   -7.8463326    300.21592  0.013043792  0.011109527         1313 
 1919000   0.48183912   -7.8383135     300.2857  0.013040025  0.011100049         1292 
 1920000   0.49215887   -7.8364655    300.67419  0.013050095  0.011090577         1292 
 1921000   0.49260594   -7.8363848    300.23041   0.01302405  0.011081114         1316 
 1922000   0.49337426    -7.846016    300.06001  0.013009886  0.011071661         1262 
 1923000   0.48070377   -7.8571267    299.85597  0.012994278  0.011062211         1300 
 1924000   0.49324377   -7.8585411     299.9543  0.012991783  0.011052771         1343 
 1925000    0.4791209   -7.8554648    300.57964  0.013012106  0.011043341         1369 
 1926000   0.48994532    -7.854847    300.25715  0.012991396  0.011033926         1356 
 1927000   0.48200936   -7.8557764    300.33735  0.012988123  0.011024537         1350 
 1928000   0.47638067   -7.8637526    299.63581  0.012951064  0.011015139         1402 
 1929000   0.48155477   -7.8699212    300.05214  0.012962335  0.011005754         1420 
 1930000   0.47834219   -7.8582058     300.1112  0.012958169  0.010996378         1378 
 1931000   0.49562869    -7.875401    299.89682  0.012942207  0.010987014         1454 
 1932000   0.48398795   -7.8582021    299.69246  0.012926693  0.010977658         1362 
 1933000   0.48719643   -7.8443787    299.88014  0.012928097  0.010968326         1370 
 1934000   0.48082555   -7.8492109    300.59254  0.012952109  0.010958995         1435 
 1935000   0.47275565   -7.8546578    300.25217  0.012930757  0.010949673         1353 
 1936000   0.46972285   -7.8462932    300.28911  0.012925667  0.010940365         1397 
 1937000   0.48177598   -7.8648283    299.84745  0.012899994   0.01093106         1338 
 1938000   0.48120445   -7.8624189    300.24886  0.012910598   0.01092177         1493 
 1939000   0.48412621   -7.8476806    300.24687  0.012903854  0.010912485         1410 
 1940000   0.47067043   -7.8767475    300.01907  0.012887417  0.010903212         1331 
 1941000   0.47053758   -7.8627191    299.98413  0.012879277  0.010893941         1370 
 1942000   0.46845186   -7.8439158    300.21031  0.012882351  0.010884692         1352 
 1943000   0.48374879   -7.8608314    299.74625  0.012855818  0.010875447         1352 
 1944000   0.47297517   -7.8670189    299.95348  0.012858088   0.01086621         1420 
 1945000   0.47652443   -7.8861924    299.84574  0.012846861  0.010856979         1296 
 1946000   0.46430414   -7.8656365    299.47916  0.012824562   0.01084775         1382 
 1947000   0.48504823   -7.8672939    299.96597   0.01283881  0.010838534         1332 
 1948000   0.48413943   -7.8712353    299.75643  0.012823256   0.01082933         1306 
 1949000   0.47244449   -7.8438323    299.81775  0.012819298  0.010820142         1330 
 1950000   0.47220301   -7.8634489    299.47793  0.012798202  0.010810963         1333 
 1951000   0.48337287   -7.8744178    299.78304  0.012804675  0.010801793         1385 
 1952000   0.47219259   -7.8583678    300.19517  0.012815709  0.010792626         1398 
 1953000   0.47216881   -7.8513765    299.32459     0.012772  0.010783468         1347 
 1954000     0.480268   -7.8650729    300.08281    0.0127978   0.01077433         1385 
 1955000    0.4698492   -7.8705121    299.26647  0.012756456  0.010765195         1399 
 1956000    0.4658247   -7.8640596    300.51777  0.012803245  0.010756081         1378 
 1957000   0.47033223    -7.866711    299.60898  0.012758004  0.010746961         1365 
 1958000   0.47252626   -7.8549595    299.57673  0.012750116  0.010737853         1344 
 1959000   0.46785514    -7.891099    299.75922  0.012751371  0.010728766         1376 
 1960000   0.47314938   -7.8735306    299.34242  0.012727144  0.010719679         1407 
 1961000     0.463347   -7.8644168    299.83284  0.012741494  0.010710606         1349 
 1962000   0.48229747   -7.8656511    300.03693  0.012743669  0.010701541         1356 
 1963000   0.47695862   -7.8715718    299.91721  0.012732094  0.010692491         1387 
 1964000   0.46660027   -7.8847487    299.74655   0.01271837  0.010683444         1342 
 1965000   0.46709882   -7.8737982    299.94832  0.012720455  0.010674407         1285 
 1966000   0.48170083   -7.8727062    299.39235  0.012690418  0.010665395         1325 
 1967000   0.46794113   -7.8926513    300.23462   0.01271965  0.010656386         1374 
 1968000     0.465109   -7.8844404    299.48108  0.012681279  0.010647374         1383 
 1969000   0.47092317   -7.8798364    299.38313  0.012670693  0.010638379         1346 
 1970000   0.47112137   -7.8717044    299.94222  0.012687911  0.010629384         1390 
 1971000   0.46086526   -7.8925314    299.40652  0.012658824  0.010620403         1382 
 1972000   0.46483132   -7.8838194    299.81068  0.012669485   0.01061143         1326 
 1973000   0.46023162   -7.8820198    299.44973  0.012647818   0.01060246         1384 
 1974000   0.46435694   -7.8818292    299.48865  0.012643054  0.010593501         1271 
 1975000   0.47400168   -7.8649422    299.16076  0.012622817  0.010584561         1346 
 1976000   0.47022637   -7.8923821    299.08955  0.012613426  0.010575624         1350 
 1977000   0.46702351   -7.8958025    299.10405  0.012607657  0.010566702         1445 
 1978000   0.46052973   -7.8888449    299.45163  0.012615926   0.01055778         1371 
 1979000   0.46556102   -7.8850306    299.54821  0.012613618  0.010548874         1351 
 1980000   0.46073596   -7.8824468     299.3706  0.012599773  0.010539979         1351 
 1981000   0.46077762    -7.876293    299.77459  0.012610407  0.010531095         1394 
 1982000   0.46635996   -7.8810215    299.38431  0.012587635   0.01052221         1379 
 1983000   0.47163871   -7.8917551    299.31352  0.012578312  0.010513344         1390 
 1984000    0.4699261   -7.9000602    299.60885  0.012584377  0.010504486         1315 
 1985000   0.45968621   -7.8812667    299.06388  0.012555159  0.010495637         1385 
 1986000   0.45492953   -7.8779923    298.97482    0.0125451  0.010486804         1362 
 1987000   0.46942014   -7.9047653    299.73408  0.012570629  0.010477967         1366 
 1988000   0.46968285   -7.8913265    299.82471  0.012568105  0.010469166         1428 
 1989000   0.45758107    -7.879058    299.36863  0.012542677  0.010460349         1435 
 1990000    0.4485196     -7.88446    299.84167  0.012556184  0.010451547         1425 
 1991000   0.45529561   -7.8973465    299.34046  0.012528899   0.01044275         1366 
 1992000   0.45071472   -7.8899244    299.41779  0.012525845  0.010433977         1376 
 1993000   0.46784006   -7.8840132    299.32663  0.012515748  0.010425202         1330 
 1994000   0.46237879   -7.9114643    299.55248   0.01251891  0.010416445         1378 
 1995000    0.4557025   -7.8829532    299.34635  0.012504025  0.010407689         1419 
 1996000   0.46535737   -7.8982249    298.83984  0.012476613  0.010398941         1368 
 1997000   0.45606598   -7.8959338    299.57083  0.012500869  0.010390207         1378 
 1998000   0.44568686   -7.9064683    299.27399  0.012482232  0.010381478         1361 
 1999000   0.45076899    -7.876377    299.40928  0.012481627  0.010372765         1421 
 2000000   0.45088325    -7.894404    299.57002  0.012482084  0.010364063         1386 
 2001000   0.45677757   -7.8993231    299.23675  0.012461967  0.010355365         1367 
 2002000    0.4514056   -7.8898242    298.99724  0.012445772  0.010346677         1372 
 2003000   0.44716608   -7.8924462    299.24385  0.012449819     0.010338         1399 
 2004000   0.45863694     -7.89984    299.38454  0.012449457  0.010329322         1484 
 2005000   0.45360732   -7.9093542    299.02666  0.012428373  0.010320651         1398 
 2006000   0.45083791   -7.9061975    299.19938  0.012429353  0.010311995         1374 
 2007000   0.45566635   -7.8987413    299.41885  0.012432273  0.010303345         1376 
 2008000   0.45507265   -7.8903025    298.92245   0.01240548  0.010294707         1425 
 2009000   0.44613072   -7.9047083      299.512   0.01242376  0.010286087         1351 
 2010000   0.44717457    -7.902358    299.29941  0.012408765  0.010277477         1388 
 2011000     0.460394   -7.8967967    298.95708  0.012388409   0.01026886         1474 
 2012000   0.45994763   -7.9039907    298.93479  0.012381328   0.01026026         1417 
Loop time of 5221.89 on 48 procs for 2000000 steps with 4000 atoms

Performance: 66182.936 tau/day, 383.003 timesteps/s
99.4% CPU use with 48 MPI tasks x no OpenMP threads

MPI task timing breakdown:
Section |  min time  |  avg time  |  max time  |%varavg| %total
---------------------------------------------------------------
Pair    | 378.89     | 400.63     | 421.29     |  55.2 |  7.67
Neigh   | 37.118     | 38.218     | 39.6       |   9.3 |  0.73
Comm    | 335.93     | 360.63     | 381.27     |  58.3 |  6.91
Output  | 5.3526     | 5.3546     | 5.4051     |   0.3 |  0.10
Modify  | 4352.3     | 4368.5     | 4385.7     |  12.2 | 83.66
Other   |            | 48.51      |            |       |  0.93

Nlocal:        83.3333 ave          90 max          75 min
Histogram: 2 1 1 2 15 2 14 4 4 3
Nghost:        2433.17 ave        2457 max        2418 min
Histogram: 5 4 9 7 8 7 6 1 0 1
Neighs:        16888.7 ave       19347 max       14019 min
Histogram: 1 2 4 11 3 6 9 3 6 3
FullNghs:      33775.6 ave       36456 max       30228 min
Histogram: 2 1 1 4 11 7 10 6 2 4

Total # of neighbors = 1621231
Ave neighs/atom = 405.30775
Neighbor list builds = 106795
Dangerous builds = 0

#clear
#
#next RN
#
#jump SELF
Total wall time: 1:27:05
