
units lj                  # Use reduced LJ style units
atom_style atomic         # Uncharged point particles
atom_modify map hash      # Needed for indexing of clusters etc
                          # Used to be able to find where atoms are in relation to each other.

lattice fcc 1.0 spacing 1 1 1
Lattice spacing in x,y,z = 1.5874011 1.5874011 1.5874011
region box block 0 10 0 10 0 10 units lattice
create_box 2 box
Created orthogonal box = (0.0000000 0.0000000 0.0000000) to (15.874011 15.874011 15.874011)
  3 by 4 by 4 MPI processor grid
create_atoms 1 box
Created 4000 atoms
  using lattice units in orthogonal box = (0.0000000 0.0000000 0.0000000) to (15.874011 15.874011 15.874011)
  create_atoms CPU = 0.002 seconds
set type 1 type/fraction 2 0.87 78393
Setting atom values ...
  3472 settings made for type/fraction
mass 1 1.0
mass 2 1.0
pair_style lj/cut  3.5
pair_modify tail  yes
pair_coeff 1  1  1.0  1.0   # Intearaction between 1 and 1 set with epsilon = 1 and sigma = 1
pair_coeff 1  2  1.5  0.8
pair_coeff 2  2  0.5  0.88

write_data data.0
System init for write_data ...
Neighbor list info ...
  update every 1 steps, delay 10 steps, check yes
  max neighbors/atom: 2000, page size: 100000
  master list distance cutoff = 3.8
  ghost atom cutoff = 3.8
  binsize = 1.9, bins = 9 9 9
  1 neighbor lists, perpetual/occasional/extra = 1 0 0
  (1) pair lj/cut, perpetual
      attributes: half, newton on
      pair build: half/bin/atomonly/newton
      stencil: half/bin/3d
      bin: standard
WARNING: Not all mixed pair coeffs generated from mixing. Use write_data with 'pair ij' option to store all pair coeffs. (../write_data.cpp:312)


#############################
#   M E L T   S Y S T E M   #
#############################

velocity all create 2.4 3143649 mom yes dist gaussian # Assign velocities
                                                    # Temperature 2.4, random number seed, zero linear momentum
                                                                                # Gaussian distribution

timestep 0.002   # simulation timestep
thermo 1000       # output thermodynamic data every 1000 steps bf 100

# Define a fix  in this case with index 1 applied to all
# particles in the simulation. This fix is for simulations
# in the anisotropic NPT ensemble. Note that we use the MTK
# correction.
fix 1 all npt temp 2.4 2.4 0.1 iso 5.68 5.68 0.5 mtk yes tchain 5 pchain 5 # Use NPT ensemble
                                                                         # Set temperature and pressure and damping
                                                                         # Numbers of thermostats in chain and in barostat
run 10000          # run for 10000 steps
Per MPI rank memory allocation (min/avg/max) = 3.642 | 3.644 | 3.648 Mbytes
Step Temp E_pair E_mol TotEng Press Volume 
       0          2.4   -3.3406884            0   0.25841159    -2.808294         4000 
    1000    2.4435296   -2.4466959            0    1.2176821    5.8928641    3925.9678 
    2000    2.3763665   -2.4496991            0    1.1139595    5.3944201    3984.7312 
    3000    2.4288704   -2.5297075            0    1.1126873    5.7455686    3902.0461 
    4000    2.3837823   -2.4538315            0    1.1209481    5.9347363    3928.8935 
    5000    2.4039212   -2.4211751            0    1.1838052    6.0119038     3937.617 
    6000    2.3945779   -2.4657109            0     1.125258    5.9876485    3890.2494 
    7000    2.4122833   -2.4346108            0    1.1829095    5.9133164    3946.3154 
    8000    2.3839439    -2.483744            0     1.091278    5.5549497    3948.4562 
    9000    2.3862364   -2.4563597            0       1.1221    5.7951271    3932.8022 
   10000    2.4294391   -2.4332049            0    1.2100427    6.0247912    3927.6388 
Loop time of 2.54783 on 48 procs for 10000 steps with 4000 atoms

Performance: 678224.300 tau/day, 3924.909 timesteps/s
99.6% CPU use with 48 MPI tasks x no OpenMP threads

MPI task timing breakdown:
Section |  min time  |  avg time  |  max time  |%varavg| %total
---------------------------------------------------------------
Pair    | 1.0967     | 1.179      | 1.3333     |   4.1 | 46.28
Neigh   | 0.20846    | 0.21697    | 0.24097    |   1.2 |  8.52
Comm    | 0.75233    | 0.88297    | 0.99215    |   5.4 | 34.66
Output  | 0.00024705 | 0.00025249 | 0.00031746 |   0.0 |  0.01
Modify  | 0.20522    | 0.25348    | 0.29402    |   4.9 |  9.95
Other   |            | 0.01513    |            |       |  0.59

Nlocal:        83.3333 ave          90 max          76 min
Histogram: 2 0 11 4 3 12 2 7 3 4
Nghost:        1659.06 ave        1686 max        1637 min
Histogram: 3 4 4 7 7 13 4 4 1 1
Neighs:        9712.48 ave       10821 max        8641 min
Histogram: 1 1 6 11 8 7 7 3 2 2

Total # of neighbors = 466199
Ave neighs/atom = 116.54975
Neighbor list builds = 909
Dangerous builds = 227

# Equilibrate just above the melting temperature to avoid step fn in T

fix 1 all npt temp 1.25 1.25 0.1 iso 5.68 5.68 0.5 mtk yes tchain 5 pchain 5
run 2000
Per MPI rank memory allocation (min/avg/max) = 3.643 | 3.645 | 3.649 Mbytes
Step Temp E_pair E_mol TotEng Press Volume 
   10000    2.4294391   -2.4332049            0    1.2100427    6.0247912    3927.6388 
   11000    1.2375538   -3.6843328            0   -1.8284662    5.6836859    3035.6046 
   12000    1.2438324   -3.6679357            0   -1.8026536    5.4502823    3062.8754 
Loop time of 0.610336 on 48 procs for 2000 steps with 4000 atoms

Performance: 566245.777 tau/day, 3276.885 timesteps/s
99.6% CPU use with 48 MPI tasks x no OpenMP threads

MPI task timing breakdown:
Section |  min time  |  avg time  |  max time  |%varavg| %total
---------------------------------------------------------------
Pair    | 0.27385    | 0.29737    | 0.31942    |   2.1 | 48.72
Neigh   | 0.039484   | 0.041919   | 0.044276   |   0.5 |  6.87
Comm    | 0.19669    | 0.22309    | 0.25146    |   2.7 | 36.55
Output  | 5.0541e-05 | 5.2219e-05 | 6.7176e-05 |   0.0 |  0.01
Modify  | 0.040316   | 0.043158   | 0.046011   |   0.8 |  7.07
Other   |            | 0.004752   |            |       |  0.78

Nlocal:        83.3333 ave          93 max          75 min
Histogram: 2 6 7 6 6 6 4 4 5 2
Nghost:        1968.00 ave        1989 max        1949 min
Histogram: 1 4 7 6 7 8 8 2 1 4
Neighs:        12462.8 ave       14462 max       10550 min
Histogram: 1 2 7 8 7 11 3 5 2 2

Total # of neighbors = 598216
Ave neighs/atom = 149.55400
Neighbor list builds = 144
Dangerous builds = 16

#############################
# L I N E A R  Q U E N C H  #
#############################

# Define solid atoms. This closely follows ten Wolde  Ruiz-Montero and Frenkel  Faraday Discuss  1996  104  93-110
# Compute components of the per-atom q6 vector
compute q6 all orientorder/atom degrees 1 6 components 6 nnn NULL cutoff 1.3 # compute the Q6 parameter.
                                                                             # Use all neighbours within 1.3 unit cell.

# get number of connections
compute coord_number all coord/atom orientorder q6 0.5

# An atom is solid if it has 8 or more connections (of a possible 14)
variable is_solid atom c_coord_number>=8
group solid dynamic all var is_solid    # Must be dynamic to update
dynamic group solid defined

# do clustering
compute cluster solid cluster/atom 1.3 # Create a cluster where all atoms within are solid and max 1.3 units from another member

# define chunks one chunk per cluster
compute clus_chunks solid chunk/atom c_cluster nchunk every compress yes  # Says which atoms are in which chunk

# count the size of each chunk
compute size_chunks solid property/chunk clus_chunks count


# Find the maximum entry in the vector of chunk sizes
variable max_n equal max(c_size_chunks)


# Thermo style which includes this variable
# thermo_style custom step temp pe vol v_max_n

thermo ${N}  # Print the thermo information every 100 steps
thermo 1000  

# Reset the npt fix at a lower temperature (below freezing)
fix 1  all npt temp  ${temp} ${temp}  0.1  iso  5.68  5.68  0.5  mtk yes tchain  5  pchain  5
fix 1  all npt temp  0.45 ${temp}  0.1  iso  5.68  5.68  0.5  mtk yes tchain  5  pchain  5
fix 1  all npt temp  0.45 0.45  0.1  iso  5.68  5.68  0.5  mtk yes tchain  5  pchain  5

dump dmp2 all dcd ${N} traj.dcd
dump dmp2 all dcd 1000 traj.dcd


compute msd all msd com yes
variable twopoint equal c_msd[4]/6/(step*dt+1.0e-6)
fix 9 all vector 10 c_msd[4]
variable fit equal slope(f_9)/6/(10*dt)
thermo_style custom step temp pe c_msd[4] v_twopoint v_fit v_max_n

fix 1 all npt temp 1.25 ${temp} 0.1 iso 5.68 5.68 0.5 mtk yes tchain 5 pchain 5
fix 1 all npt temp 1.25 0.45 0.1 iso 5.68 5.68 0.5 mtk yes tchain 5 pchain 5
run 5000000 # 5000000  # Run for this many steps
Neighbor list info ...
  update every 1 steps, delay 10 steps, check yes
  max neighbors/atom: 2000, page size: 100000
  master list distance cutoff = 3.8
  ghost atom cutoff = 3.8
  binsize = 1.9, bins = 8 8 8
  4 neighbor lists, perpetual/occasional/extra = 1 3 0
  (1) pair lj/cut, perpetual
      attributes: half, newton on
      pair build: half/bin/atomonly/newton
      stencil: half/bin/3d
      bin: standard
  (2) compute orientorder/atom, occasional
      attributes: full, newton on
      pair build: full/bin/atomonly
      stencil: full/bin/3d
      bin: standard
  (3) compute coord/atom, occasional
      attributes: full, newton on
      pair build: full/bin/atomonly
      stencil: full/bin/3d
      bin: standard
  (4) compute cluster/atom, occasional
      attributes: full, newton on
      pair build: full/bin/atomonly
      stencil: full/bin/3d
      bin: standard
Per MPI rank memory allocation (min/avg/max) = 9.825 | 9.830 | 9.834 Mbytes
Step Temp PotEng c_msd[4] v_twopoint v_fit v_max_n 
   12000    1.2438324   -3.6679357 1.105983e-30 7.6804371e-33 8.3333333e+20            3 
   13000    1.2518618   -3.6732625   0.93919862 0.0060205037  0.079172278            2 
   14000    1.2351486   -3.6985218    1.9446965  0.011575574  0.082632143            3 
   15000    1.2593588    -3.678499    2.8940791  0.016078216   0.08180768            3 
   16000    1.2507062   -3.6948154    3.9609427  0.020629909  0.082724791            2 
   17000     1.243831   -3.6493881     4.922434  0.024129578  0.082831614            1 
   18000    1.2396796   -3.6682204    5.9954341  0.027756639  0.083223534            1 
   19000    1.2581223   -3.6873817    7.1132974  0.031198672  0.084328306            4 
   20000    1.2519069   -3.6752467    8.0898685  0.033707785  0.084980571            1 
   21000    1.2509149   -3.6922836    9.2074305  0.036537422  0.085571479            3 
   22000    1.2634308   -3.6950517    10.186546  0.038585402  0.085985978            1 
   23000    1.2473654   -3.7107579    11.094845  0.040198711  0.085775444            3 
   24000    1.2616687   -3.6639022     11.97625  0.041584201  0.085101296            1 
   25000    1.2514108   -3.6946741    12.990775  0.043302582  0.084553358            1 
   26000    1.2289774   -3.7002442    13.904655  0.044566202  0.084042202            1 
   27000    1.2440216   -3.6488964     15.03844  0.046414938   0.08379651            2 
   28000    1.2347631   -3.6720208    16.056061  0.047785894  0.083693115            2 
   29000    1.2397986   -3.6603676    17.080761  0.049082645  0.083735887            2 
   30000    1.2297878   -3.7178928    18.083744  0.050232622  0.083750213            1 
   31000     1.251932   -3.7114609    19.215007  0.051653244  0.083856544            1 
   32000    1.2803426   -3.6752448    20.459323  0.053279487  0.084166389            2 
   33000    1.2361714   -3.6949808    21.567485  0.054463345  0.084544311            2 
   34000    1.2586797   -3.6586766    22.560844  0.055296185  0.084892073            3 
   35000    1.2182659   -3.7246789    23.644204  0.056295724  0.085184365            1 
   36000    1.2328498   -3.7081993    24.457491  0.056614562  0.085242037            2 
   37000    1.2192017   -3.6977981    25.588889  0.057632632  0.085302409            3 
   38000    1.2627798   -3.6969295    26.532174  0.058184592  0.085364778            1 
   39000    1.2697848   -3.6796453    27.562367  0.058893946  0.085354848            3 
   40000    1.2377497   -3.6964821    28.539677  0.059457659  0.085385963            5 
   41000    1.2676482   -3.6975407    29.799036  0.060567145  0.085425047            2 
   42000    1.2355038   -3.7171646    30.627101  0.060768056  0.085499341            1 
   43000    1.2598353   -3.6842844    31.579368  0.061200324  0.085547208            1 
   44000    1.2560679   -3.7132018    32.395221  0.061354584   0.08548352            2 
   45000    1.2257808   -3.6628375    33.605091  0.062231649  0.085356211            2 
   46000    1.2318426   -3.6704024    34.584402  0.062652902  0.085272703            1 
   47000    1.2418034   -3.7188724    35.651923  0.063212628  0.085259802            3 
   48000    1.2731666   -3.7231612    36.774993  0.063845474  0.085306656            2 
   49000    1.2440816   -3.6964296    38.048684  0.064708646  0.085368288            4 
   50000    1.2554836   -3.7139935    39.025271  0.065042118  0.085442538            1 
   51000    1.2350182   -3.6946294    40.315981  0.065875785  0.085537193            2 
   52000    1.2136243   -3.7054435    41.042642  0.065773464  0.085631679            2 
   53000    1.2496989   -3.6628851    42.218949  0.066381995  0.085727141            2 
   54000    1.2349212   -3.6694788     42.98173  0.066329829  0.085808759            2 
   55000    1.2554955    -3.713853    44.348967  0.067195404  0.085872035            1 
   56000    1.2567017   -3.6750291    45.217268    0.0672876  0.085942217            2 
   57000    1.2549528   -3.7095119    46.368504   0.06779021  0.086009964            1 
   58000    1.2556446   -3.6948777    47.265454  0.067910134  0.086044187            1 
   59000    1.2512084   -3.6836792    48.347915  0.068288015  0.086043455            1 
   60000    1.2339454   -3.6678129    49.374011  0.068575014  0.086055714            4 
   61000    1.2822246     -3.68016     50.45449  0.068926898  0.086078256            4 
   62000    1.2115342   -3.7037892    51.438723  0.069138068  0.086096323            3 
   63000    1.2707574   -3.7082677    52.276855  0.069149278  0.086085494            2 
   64000    1.2286419    -3.664898    53.593126  0.069782715  0.086061768            2 
   65000    1.2484741   -3.6911968    54.276954  0.069585838  0.086027618            1 
   66000    1.2127813   -3.7217718    55.209348  0.069708772  0.085992733            2 
   67000    1.2433337   -3.6686152    56.178873  0.069874219  0.085936826            2 
   68000    1.2326602   -3.6882897    56.906606  0.069738488  0.085864847            1 
   69000    1.2228872   -3.6657145    58.078786  0.070143461  0.085802355            2 
   70000    1.2367048   -3.6917268    59.034815  0.070279541   0.08573916            1 
   71000    1.2377748   -3.6866355    59.929465  0.070339747  0.085677101            3 
   72000    1.2202764    -3.695838    60.970382  0.070567572  0.085608526            1 
   73000    1.2480344   -3.7264535    61.675778  0.070406139  0.085496804            2 
   74000    1.2492098   -3.6760042    62.856698   0.07078457  0.085403226            3 
   75000    1.2335154   -3.6910377    63.131783  0.070146426  0.085262682            4 
   76000    1.2329484    -3.695699    64.132755  0.070321003  0.085104743            2 
   77000    1.2350237   -3.6986316    65.303353  0.070674624  0.084976872            2 
   78000    1.2567778   -3.7283449    66.200783  0.070727332  0.084866148            1 
   79000    1.2148702   -3.7220039    67.628076  0.071337633  0.084780813            2 
   80000    1.2421145   -3.7097377     68.51647  0.071371322  0.084693004            1 
   81000    1.2208923    -3.687292    69.331278  0.071328475  0.084611924            3 
   82000    1.2538273   -3.6915586    70.388369  0.071532895  0.084535268            4 
   83000    1.2484822   -3.6870017    71.328556  0.071615015  0.084456914            3 
   84000    1.2066642   -3.7471233    72.575336  0.071999341  0.084402521            2 
   85000    1.2390021   -3.6841055    73.686088  0.072241262  0.084363587            3 
   86000    1.2453016   -3.7070802     75.18338  0.072852112  0.084343204            1 
   87000    1.2144276   -3.6642026    75.948439  0.072747547  0.084333045            2 
   88000    1.2486964   -3.6962115    77.234936  0.073139144   0.08433522            2 
   89000    1.2414319   -3.6751595    77.966817  0.073002638   0.08431149            3 
   90000    1.2488985   -3.6974672    78.874382  0.073031835  0.084283288            4 
   91000    1.2254451   -3.6776298    80.255885    0.0734944  0.084269913            2 
   92000    1.2206045   -3.7159153    80.432141    0.0728552  0.084247225            2 
   93000    1.2397229   -3.7225531    81.538463  0.073063139  0.084211922            3 
   94000    1.2404315   -3.7333919    82.211433  0.072882476  0.084177678            2 
   95000    1.2704746   -3.6855016    83.362283   0.07312481  0.084131593            2 
   96000    1.2596917   -3.7221401    84.373706  0.073241064  0.084091965            2 
   97000    1.2344041    -3.705002    85.211558  0.073205805  0.084042981            1 
   98000    1.2317489   -3.7060682    86.372299  0.073445832  0.083999117            1 
   99000    1.2109181   -3.6882894    87.414239  0.073581009  0.083969213            2 
  100000    1.2646499   -3.7119664    88.869546  0.074057955  0.083951497            1 
  101000    1.2116528   -3.6854359    89.952587  0.074218306  0.083936367            2 
  102000     1.242029    -3.698807    91.164296  0.074480634  0.083943325            4 
  103000    1.2496163   -3.7036994    92.224753  0.074615496  0.083956433            1 
  104000    1.2106841   -3.7055752    93.092657  0.074593475  0.083959938            2 
  105000     1.249456   -3.7009174    94.225878  0.074782442  0.083963259            1 
  106000    1.2231821   -3.7288027    94.807419  0.074534134   0.08394865            2 
  107000    1.2263143   -3.7267099    95.522891  0.074394774  0.083936152            1 
  108000    1.2512181    -3.710086    96.424051  0.074401274  0.083911908            2 
  109000    1.2357825   -3.7119413    96.944405  0.074116517   0.08387634            2 
  110000    1.2334199     -3.72333    97.444984  0.073821957  0.083820075            2 
  111000    1.2429303   -3.6898988    99.399712  0.074624408   0.08378005            4 
  112000    1.2021246   -3.6971463     100.4747  0.074757959  0.083753228            2 
  113000     1.219513   -3.6702971    101.84483  0.075106805  0.083738819            1 
  114000    1.1881207   -3.6904461    102.60108   0.07500079  0.083727552            2 
  115000    1.2444249   -3.7216031    103.77504  0.075199303  0.083712413            2 
  116000     1.236167   -3.6841312    104.68802  0.075206909  0.083706154            1 
  117000    1.2354115   -3.7091771    105.71935  0.075298683  0.083705485            1 
  118000     1.233881   -3.7315158    106.53068  0.075233528  0.083695107            3 
  119000    1.2590438   -3.7010874    107.53359  0.075303638  0.083691993            2 
  120000    1.2373127   -3.6992646     109.0675  0.075741318  0.083700398            1 
  121000     1.244555   -3.7147062    109.70197   0.07555232  0.083695903            3 
  122000    1.2222679   -3.6932531    110.44338  0.075439467  0.083695308            2 
  123000    1.2512431   -3.7064036    111.93937  0.075839683  0.083691807            3 
  124000     1.237874    -3.723555    113.33768  0.076167793  0.083701053            1 
  125000    1.2120013   -3.7556996    114.07606  0.076050708  0.083711322            3 
  126000    1.2352011   -3.7335262    114.82751   0.07594412  0.083706686            2 
  127000    1.2289842   -3.7240191    115.18431  0.075580256  0.083688918            2 
  128000    1.2238024   -3.6889427    116.12768  0.075603959  0.083661284            2 
  129000    1.2171439   -3.6998581    117.45063    0.0758725  0.083634392            1 
  130000    1.2444505   -3.7248598    118.08367  0.075694662  0.083611317            1 
  131000    1.2215085   -3.7028781    119.13563  0.075786024  0.083578555            1 
  132000     1.246853   -3.7357839    119.72029  0.075580992  0.083542038            1 
  133000    1.2244605   -3.7232843    120.70084  0.075627094  0.083510198            1 
  134000    1.2358891   -3.7128674    122.57906  0.076230756  0.083485484            2 
  135000     1.251497   -3.7083422    122.86087  0.075840042  0.083465778            2 
  136000    1.2128216    -3.722354    123.89501  0.075916058  0.083435384            2 
  137000     1.221251   -3.7206369    123.90699  0.075369213  0.083395182            3 
  138000    1.2185642   -3.7199285    125.38619  0.075716298  0.083354276            1 
  139000    1.2204299   -3.7085364    126.43545  0.075800631  0.083321455            1 
  140000    1.2293875   -3.7278378    126.96384  0.075573715  0.083278061            5 
  141000    1.2330352   -3.7204604    128.11383  0.075717391  0.083247676            3 
  142000    1.2321773   -3.7118505    128.81119  0.075593418  0.083207155            1 
  143000    1.2457667   -3.7329116     129.3905  0.075402391   0.08316366            2 
  144000    1.2242857   -3.6864961    131.48681  0.076091904  0.083120596            1 
  145000    1.2374376   -3.7416856    131.62219  0.075644936  0.083080235            2 
  146000    1.2546827    -3.724003    133.24428  0.076052674  0.083044704            2 
  147000    1.2185351   -3.7058196    133.79879  0.075849654  0.083013617            1 
  148000    1.2401533   -3.6859981    135.02644  0.076028403   0.08297932            4 
  149000    1.2311799   -3.7127623    135.95433  0.076037095  0.082950134            2 
  150000    1.2219317   -3.7169865    136.48974  0.075827635  0.082918222            2 
  151000    1.2076622   -3.7158332    137.57419  0.075923947  0.082887652            1 
  152000    1.2400367   -3.7560322    138.71757    0.0760513   0.08285802            2 
  153000    1.2154968   -3.7789135     139.1322  0.075780068  0.082820527            3 
  154000    1.2052244   -3.7344261    139.86323  0.075683568  0.082787207            1 
  155000    1.2097683   -3.7237939    141.11319  0.075867308  0.082749644            3 
  156000    1.2255299   -3.7310254      141.649    0.0756672  0.082710148            2 
  157000    1.2448715   -3.7253544    143.06169   0.07593508  0.082674366            2 
  158000    1.2233089   -3.7282814    144.28614  0.076100282  0.082638136            4 
  159000    1.2071201   -3.6836017    145.63483  0.076328526  0.082607144            1 
  160000    1.2373775   -3.6964222    146.76447  0.076439827  0.082579205            2 
  161000    1.2058418   -3.7101294    147.09933  0.076138372  0.082550339            1 
  162000    1.2202574   -3.7322279    148.65364  0.076467919  0.082516076            1 
  163000    1.2519967   -3.7456565    148.43138  0.075885165  0.082487995            3 
  164000    1.2337479   -3.6806108    150.67357  0.076561775  0.082460019            1 
  165000    1.2345137   -3.7333015    150.19927  0.075858218  0.082425189            4 
  166000    1.2240863   -3.7473594    151.54642  0.076077522  0.082391027            2 
  167000    1.2069306   -3.6575787    153.06067  0.076377579   0.08236135            2 
  168000    1.1940402   -3.7150453    154.14642  0.076461516  0.082331097            2 
  169000    1.2048357   -3.7013935    154.59027  0.076227942  0.082291664            2 
  170000    1.2076138   -3.7290073    154.73745  0.075851692   0.08225436            1 
  171000    1.2167786   -3.7328648     156.2199  0.076130558  0.082214796            2 
  172000     1.244337   -3.7124078    157.40533  0.076262273  0.082179676            1 
  173000    1.2018791   -3.7102336    158.39626  0.076298775  0.082145893            2 
  174000    1.2216303   -3.7489188     158.9994  0.076149139  0.082110951            2 
  175000    1.2150693    -3.705231    161.00695  0.076669974  0.082082647            1 
  176000    1.2072457   -3.7486321    161.17088  0.076311971  0.082064682            2 
  177000    1.2349746    -3.739503    162.57559  0.076542181  0.082037246            3 
  178000    1.2409098   -3.7117613    163.09617  0.076355883  0.082017847            1 
  179000    1.2227039   -3.7135414    165.12298  0.076872893   0.08199934            1 
  180000    1.2401441   -3.7321044    165.03572  0.076405427  0.081978087            3 
  181000    1.2371877   -3.7354701    165.80375  0.076336903  0.081954307            3 
  182000    1.2226054   -3.7181801    167.43853  0.076665991  0.081928051            4 
  183000    1.2227845   -3.6931059    168.51865  0.076738913  0.081903915            1 
  184000    1.2098724   -3.7249501    169.09337  0.076582142  0.081878803            2 
  185000    1.1965092   -3.7337362    170.12468  0.076632738  0.081855989            1 
  186000    1.2157884   -3.7301738    170.61974  0.076442535  0.081836326            1 
  187000    1.2205637   -3.7733868    171.42004  0.076390393   0.08181417            2 
  188000    1.2131096   -3.7103091     173.1571  0.076754036  0.081796203            2 
  189000    1.2481821   -3.7518301    173.34926  0.076432655  0.081776087            2 
  190000    1.2125388   -3.6933148    175.04566  0.076774412  0.081761351            3 
  191000     1.217303   -3.7010906    176.11544  0.076839198  0.081750292            1 
  192000    1.2140241   -3.7109665    176.84682   0.07675643  0.081735388            1 
  193000    1.2275277   -3.7480291    178.55841   0.07709776  0.081718879            2 
  194000    1.2098207   -3.7369136    177.99247  0.076457247  0.081705554            5 
  195000    1.2273073   -3.7500126    179.27911  0.076615004  0.081683461            2 
  196000    1.2081112   -3.6884069    180.65043  0.076807157  0.081658305            1 
  197000    1.2049289   -3.7037945    181.15041  0.076628769  0.081637847            1 
  198000    1.1914104   -3.7314584    181.99984  0.076599259  0.081618073            3 
  199000    1.2584929   -3.7171581    183.15137  0.076696555  0.081595607            2 
  200000    1.2256954   -3.7426385    183.75141  0.076563088  0.081573848            2 
  201000    1.2298081   -3.7346758    184.85138  0.076638217  0.081554695            2 
  202000    1.2004534   -3.7422394    186.04353   0.07675063  0.081540242            2 
  203000    1.2138872   -3.7215663    187.55916  0.076994728  0.081524337            3 
  204000    1.2214166   -3.7257302    188.82171   0.07713305  0.081512709            2 
  205000     1.214734   -3.7410223    189.24558  0.076929099  0.081500416            2 
  206000    1.1956423   -3.7198065    189.91252  0.076825454  0.081485571            3 
  207000    1.2083223   -3.7510749    191.00904   0.07689575   0.08147302            2 
  208000    1.2118747   -3.7344591    192.89684  0.077282386  0.081460882            3 
  209000    1.2295046    -3.673458    194.02086  0.077360789  0.081457935            1 
  210000     1.206922   -3.7042382    195.43993   0.07755553  0.081453084            2 
  211000    1.2265919   -3.7537816    195.29131  0.077129269  0.081448346            3 
  212000    1.2275897   -3.7074735    196.75294  0.077339992  0.081443088            3 
  213000    1.2066781   -3.7274386    198.54927  0.077679681  0.081439349            1 
  214000    1.2029248   -3.7318474    199.05239  0.077512611  0.081435971            1 
  215000    1.2042562    -3.774688    199.61418  0.077369837  0.081432369            2 
  216000    1.2099936   -3.7363833    200.81281  0.077474078   0.08142602            2 
  217000    1.2039917   -3.7482792    200.25464  0.076902702   0.08141889            2 
  218000     1.231654    -3.745158    202.29739  0.077330805  0.081414945            3 
  219000     1.223464   -3.7211139    204.49794  0.077815046  0.081416651            1 
  220000    1.2146466   -3.7259605    205.59877  0.077878321  0.081419727            1 
  221000    1.2225665   -3.7306271    206.22324  0.077761401  0.081423318            4 
  222000    1.2159431   -3.6994728    207.08718  0.077735427    0.0814242            1 
  223000    1.1945222   -3.7272235    207.99298   0.07772533  0.081426583            2 
  224000    1.2070662   -3.7408648    208.55809  0.077588576  0.081429874            1 
  225000    1.2121005   -3.7208172    210.58668  0.077995068  0.081433672            2 
  226000    1.2178026   -3.7420336    211.66606  0.078047957  0.081440977            1 
  227000    1.2116886   -3.7258762    212.69432  0.078081615  0.081445216            1 
  228000    1.2392019   -3.7575458    213.99677  0.078215193  0.081452013            2 
  229000    1.2068889   -3.7547931    213.47435  0.077683535  0.081453885            2 
  230000    1.2177777   -3.7444565    214.31905   0.07765183  0.081457408            2 
  231000    1.2377146   -3.7446743    216.28479  0.078024817  0.081466195            1 
  232000    1.1989369   -3.6987888    216.88196  0.077903001  0.081471071            3 
  233000    1.2350792   -3.7488104    218.67391  0.078209554  0.081472994            2 
  234000    1.2256314   -3.7312063    218.83777   0.07793368  0.081478382            7 
  235000    1.1912189   -3.7380764    218.96314  0.077646502   0.08148155            3 
  236000    1.2252472   -3.6881409    220.62616  0.077904717   0.08148152            1 
  237000    1.2264845   -3.7372562     221.5938  0.077916245  0.081478503            1 
  238000    1.1888422   -3.7284091    222.49931  0.077905921  0.081474374            5 
  239000    1.2211236   -3.7115756     222.6721  0.077640202  0.081468804            2 
  240000    1.1982088   -3.7524544    224.13408  0.077824333  0.081467363            2 
  241000    1.2164616   -3.7146926    225.38292  0.077933237  0.081457637            2 
  242000    1.2030019   -3.7444302    225.50893  0.077654589  0.081451923            1 
  243000    1.2327119   -3.7515835    226.08325  0.077531977  0.081440948            2 
  244000    1.2097145   -3.7739299     227.1477  0.077577768  0.081431431            1 
  245000     1.204861    -3.723753    228.52608  0.077729958   0.08142269            2 
  246000    1.2217594    -3.728809    229.74046   0.07782536  0.081415251            1 
  247000    1.2195935    -3.748933    230.04664  0.077613575  0.081410342            2 
  248000    1.2202932   -3.7280436     232.1607  0.078010989  0.081398865            1 
  249000    1.2071299   -3.7677279    232.24951  0.077727412  0.081390601            3 
  250000    1.1990947   -3.7336724    233.05795  0.077685982  0.081379848            1 
  251000    1.2158241   -3.7660108    233.73493   0.07760124  0.081369952            2 
  252000    1.1991205   -3.7361426    234.90194  0.077679211   0.08135815            4 
  253000    1.2041461    -3.719697    236.03687  0.077746004  0.081344124            2 
  254000    1.2007007   -3.7653719    235.86637   0.07738398  0.081329465            2 
  255000     1.211353   -3.7377501    237.39322  0.077579485  0.081310456            1 
  256000    1.2019555    -3.750722    237.44083  0.077291936  0.081287067            4 
  257000     1.229224   -3.7125169      238.825  0.077440013  0.081269916            1 
  258000    1.1993724      -3.7281    239.98496  0.077514522  0.081252456            2 
  259000    1.2161711   -3.7297495    241.01326  0.077546093  0.081237509            4 
  260000    1.1992654    -3.747591    241.53439  0.077414867  0.081220675            1 
  261000    1.2108135   -3.7774086    242.02265  0.077274153  0.081204115            3 
  262000    1.2046276   -3.7606868    243.25329  0.077370638  0.081190518            2 
  263000     1.212618   -3.7251731    245.09856   0.07766114  0.081172143            2 
  264000    1.2209139   -3.7645526    245.60367   0.07752641  0.081155707            2 
  265000     1.228496   -3.7690354    244.59893  0.076917902  0.081138183            3 
  266000    1.2048263   -3.7397696     246.9774  0.077373873   0.08111408            2 
  267000    1.2085854   -3.7088569    247.28757  0.077180889  0.081095851            2 
  268000    1.2158188   -3.7385713    248.07602  0.077138065  0.081076093            3 
  269000    1.2271179   -3.7151451    251.01498  0.077761765   0.08105655            2 
  270000     1.211017   -3.7668752    251.07706   0.07749292  0.081037423            2 
  271000     1.207343   -3.7371181    251.21338  0.077248888  0.081020474            5 
  272000    1.2326227    -3.780667    252.76202  0.077439344  0.081002535            1 
  273000    1.2013831   -3.7236086    254.55813  0.077703945  0.080985522            2 
  274000    1.2043688   -3.7574421    255.19131  0.077612929  0.080970295            1 
  275000    1.1915493   -3.7844417    253.70952  0.076881671  0.080955358            7 
  276000    1.2189643    -3.698997    256.51855  0.077451252   0.08094065            4 
  277000    1.2166263   -3.7278261    256.93976  0.077298362  0.080923301            3 
  278000    1.1925004   -3.7783759    257.07494  0.077060832  0.080906164            2 
  279000    1.1977318   -3.7576182    258.12016   0.07709682  0.080884694            1 
  280000    1.2191622   -3.7604237    260.07857  0.077404335  0.080866332            3 
  281000    1.1886085   -3.7368554    259.76129  0.077034783  0.080844089            1 
  282000    1.1959016   -3.7467751    261.06112  0.077145722   0.08082187            2 
  283000    1.2067962   -3.7467777    260.80551  0.076797852   0.08079722            1 
  284000    1.1895256   -3.7260582     262.5698  0.077045129  0.080773269            1 
  285000    1.1932063   -3.7957381    261.95693  0.076595593   0.08074974            2 
  286000    1.2012621   -3.7347276    264.41947    0.0770453  0.080727578            2 
  287000    1.2325476   -3.7548091    264.59575  0.076828035  0.080707485            1 
  288000    1.1873933   -3.7618335     265.5413  0.076834866  0.080686416            1 
  289000    1.2314974   -3.7666685    268.08041  0.077301156  0.080663993            1 
  290000    1.2077161   -3.8056726    265.85804  0.076395987  0.080635476            5 
  291000    1.1686633   -3.7645217    267.75718  0.076677315  0.080607045            3 
  292000    1.2220113    -3.768684    269.14706  0.076811375  0.080578264            1 
  293000    1.2353284   -3.7679198    269.38984  0.076618272  0.080549723            1 
  294000     1.218505   -3.7706428    270.96318  0.076803623  0.080523752            4 
  295000    1.2098296    -3.768971     271.6269  0.076730762  0.080496213            3 
  296000    1.2085248   -3.7560207    271.61249   0.07646748  0.080474051            5 
  297000    1.1931982   -3.7495811    274.68817  0.077072998  0.080451249            3 
  298000    1.1872781    -3.756864    274.64615  0.076802616  0.080428276            3 
  299000     1.181637   -3.7577083    275.48666  0.076780005  0.080404541            1 
  300000    1.2128258   -3.7446866    277.36394  0.077045539  0.080381686            2 
  301000     1.199729   -3.7585678    277.28745  0.076768396  0.080358717            2 
  302000    1.2004299   -3.6980846    279.48725  0.077121205  0.080335385            1 
  303000    1.2122558   -3.7014798    281.38888  0.077389681  0.080313803            1 
  304000    1.2093568   -3.7443958    279.37894  0.076584139  0.080290095            1 
  305000    1.2158584   -3.7235993     280.7432  0.076705792   0.08026356            3 
  306000    1.1960078   -3.7437475    283.54904  0.077219238  0.080241005            1 
  307000    1.1867717   -3.7182612    283.25856  0.076888859  0.080221159            4 
  308000     1.210836   -3.7291891     283.9939  0.076838177  0.080200349            2 
  309000     1.217458   -3.7627722    285.94612  0.077115997  0.080184135            2 
  310000    1.1824724   -3.7373638    287.12662  0.077184574  0.080169583            1 
  311000    1.1742927   -3.7351313    287.18527  0.076952109   0.08015382            1 
  312000    1.2186077   -3.7435111    288.46683  0.077047764  0.080136802            2 
  313000    1.1879197   -3.7678092    289.43463  0.077059274  0.080122886            2 
  314000    1.1957093   -3.7590642    289.70773   0.07688634  0.080106911            1 
  315000    1.2060293   -3.7488413    291.57038  0.077135021  0.080089594            1 
  316000    1.2054328     -3.78113    292.21673  0.077061375  0.080075206            2 
  317000    1.1927093   -3.7301947    295.48576  0.077677644  0.080065137            3 
  318000    1.2021652   -3.7587059    293.98991   0.07704138  0.080056303            1 
  319000    1.2123501   -3.7754172    295.21361  0.077119542  0.080043429            1 
  320000    1.1861379   -3.7467796    296.21518  0.077139369  0.080028382            2 
  321000     1.223018   -3.7499648    297.93978  0.077346777  0.080016798            2 
  322000     1.183582   -3.7717341    299.50128  0.077510683  0.080006381            2 
  323000    1.2022349   -3.7647044    300.40178   0.07750304  0.079997838            2 
  324000    1.1838873   -3.7444532    302.37708  0.077771882  0.079990968            2 
  325000    1.2107381    -3.784783    302.47503  0.077557699  0.079985566            1 
  326000    1.2079012   -3.7170189     304.0273   0.07771659  0.079982092            1 
  327000    1.1952139   -3.7644383    305.75155  0.077918335  0.079979997            3 
  328000    1.1946742   -3.7733953    306.19811  0.077794234  0.079978769            1 
  329000    1.2073978   -3.7556345    307.55201  0.077900712  0.079977378            1 
  330000    1.1984469   -3.7671309    307.86228  0.077742999  0.079975824            3 
  331000    1.1785456   -3.7388585    308.85674  0.077758494  0.079976976            2 
  332000     1.181698   -3.7498186    310.56425  0.077952875  0.079974984            1 
  333000    1.1994075   -3.7371674    311.71884  0.078007717  0.079972506       -1e+20 
  334000    1.1951622   -3.7540646    311.59519  0.077743312  0.079969593            3 
  335000    1.2131919   -3.7902362    311.40635  0.077464266  0.079965088            2 
  336000    1.1971507   -3.7690474    313.24061  0.077688643  0.079961314            2 
  337000    1.1896565   -3.7745111    314.77422  0.077837343  0.079957912            3 
  338000    1.2091316   -3.7724815    314.97439  0.077656407  0.079951606            3 
  339000    1.1957808   -3.7237788    314.50788  0.077312655  0.079946505            3 
  340000    1.1855298   -3.7506531    316.07483  0.077469321  0.079940822            1 
  341000    1.1897757   -3.7348566    316.46874  0.077338402  0.079931869            1 
  342000    1.2068444    -3.748734    317.85782  0.077450736  0.079923369            4 
  343000    1.2220086   -3.7393781    320.26469  0.077809692   0.07991565            1 
  344000    1.1896041   -3.7579968    319.97656  0.077513701  0.079907387            2 
  345000     1.189365   -3.7632451    321.23623  0.077593292  0.079900218            2 
  346000    1.2253947    -3.765683    322.36951  0.077641982  0.079894755            1 
  347000    1.2061801   -3.7493997    325.52579  0.078176223  0.079892164            2 
  348000    1.1815867   -3.7891796     325.0382  0.077834817  0.079888436            2 
  349000    1.2200596   -3.7134057    326.18092  0.077884652  0.079884063            2 
  350000    1.2206368   -3.7380328    326.87859  0.077828235  0.079881123            2 
  351000    1.2030111   -3.7875433    326.35065  0.077481161  0.079876213            3 
  352000    1.1793959   -3.7925875    326.53132  0.077303817  0.079871797            2 
  353000    1.1795881   -3.7471412    330.58905  0.078042741  0.079869004            3 
  354000    1.2173187   -3.6926521    332.16004  0.078192099  0.079868434            3 
  355000    1.2116889   -3.7467772    333.44474  0.078273414  0.079866991            2 
  356000    1.1971002   -3.7476861    333.81284   0.07813971  0.079868878            2 
  357000     1.186505   -3.7313408    335.01973   0.07820255  0.079868748            1 
  358000    1.2001398   -3.7824516    335.04523  0.077990043  0.079871317            1 
  359000    1.1760792   -3.7501849    336.67592  0.078151327  0.079872254            4 
  360000     1.159675   -3.7736607    337.17693  0.078050215  0.079874103            3 
  361000    1.1787465   -3.7665674    337.74137  0.077964305  0.079875355            2 
  362000    1.2000558   -3.7569902    339.44685  0.078141541  0.079874265            2 
  363000    1.1807785   -3.7750301    340.24015   0.07810839  0.079874804            2 
  364000    1.2122556    -3.769552    341.29651  0.078135648  0.079873582            3 
  365000    1.1885367   -3.7685083     343.3158  0.078382603  0.079875155            2 
  366000    1.2033182   -3.7387358    342.01123  0.077871409  0.079876384            2 
  367000    1.1885238   -3.7625143    343.79741  0.078064807  0.079876761            3 
  368000     1.198035   -3.7648148     345.1473  0.078158356  0.079876882            1 
  369000    1.1987646   -3.8047921    346.17209  0.078177979  0.079878795            3 
  370000    1.2229175    -3.776305    346.56575  0.078055348  0.079879738            1 
  371000    1.2103038   -3.7314778    346.68492  0.077871725  0.079879028            4 
  372000    1.2078394   -3.7453779      348.158  0.077992384  0.079877561            3 
  373000    1.1929183   -3.7703479    349.81354   0.07815316  0.079874743            2 
  374000    1.2236849   -3.7948545    349.45813  0.077865002  0.079873156            3 
  375000    1.1722525   -3.7724382    350.55646  0.077901436  0.079871063            1 
  376000    1.1774478    -3.788651    352.96388  0.078227811    0.0798701            1 
  377000    1.1814646   -3.7346434    354.00174  0.078249722  0.079868846            2 
  378000    1.2064434   -3.7720923    355.22125  0.078311563  0.079867525            1 
  379000    1.1771128   -3.7526004    355.10293  0.078078919  0.079865303            1 
  380000    1.1918628   -3.7582213    355.03232  0.077857965  0.079861986            2 
  381000    1.2117745   -3.8239536    355.71465  0.077802855  0.079859678            3 
  382000    1.1727464   -3.7635956    357.91238  0.078078618  0.079858179            7 
  383000    1.2104522   -3.7843453    357.70354  0.077829317  0.079857398            2 
  384000    1.1877515   -3.7797554    359.47006  0.078009995  0.079856011            1 
  385000    1.1935622   -3.7521668    359.99884  0.077921826   0.07985427            1 
  386000    1.1784584   -3.7751394    360.88335  0.077910914  0.079851866            1 
  387000    1.1861382   -3.7710772    360.40918  0.077607489  0.079848384            1 
  388000    1.1747623   -3.7428288    363.67894  0.078109737  0.079844737            2 
  389000    1.2001648   -3.7612119    364.39559  0.078062465  0.079840707            1 
  390000    1.1644517   -3.7953582    364.35188  0.077852966  0.079834878            2 
  391000     1.170374   -3.7769074    364.32222  0.077647532   0.07982726            2 
  392000    1.1963275   -3.7802759    366.53407  0.077919658  0.079821131            2 
  393000    1.1800602   -3.7590753    364.78326  0.077350141  0.079812723            3 
  394000    1.1777603   -3.8059986    366.67371  0.077553662   0.07980221            1 
  395000    1.1974825   -3.7668051    368.78994  0.077803784  0.079794161            3 
  396000    1.2046553   -3.7864751    368.46163  0.077538222  0.079786926            1 
  397000    1.2113875   -3.7676185    370.39967   0.07774972  0.079778128            2 
  398000    1.1675102   -3.7839051    370.34669  0.077543277  0.079770031            2 
  399000    1.1677968    -3.790337    369.93085  0.077262082  0.079761917            2 
  400000    1.2109827   -3.7643473     372.5858  0.077622042  0.079753797            2 
  401000    1.1883766   -3.7719335    371.83985  0.077273452   0.07974561            2 
  402000    1.2046496   -3.8048925    373.94324  0.077517255  0.079737114            2 
  403000    1.1929805   -3.7330592    375.52363  0.077651702  0.079727485            1 
  404000    1.1794284   -3.7632977    375.71356  0.077498671  0.079718198            2 
  405000    1.1821971    -3.799662    374.67495  0.077093612  0.079708634            2 
  406000    1.1892715   -3.7688323    377.84629  0.077554657  0.079697842            1 
  407000    1.2026092   -3.7569291    376.83001  0.077156022  0.079685538            2 
  408000    1.2221421   -3.7696234    378.08686  0.077223623  0.079672903            4 
  409000    1.1887019   -3.7508539    377.80912  0.076978223  0.079660155            2 
  410000    1.1806314   -3.7680402    379.10677  0.077054222  0.079647129            4 
  411000    1.1757798   -3.7637642        382.1  0.077473642  0.079631938            2 
  412000    1.1725255   -3.7888754    381.15006  0.077093459  0.079617837            1 
  413000    1.1726638   -3.7775367      382.716  0.077222759  0.079605077            2 
  414000    1.1724082   -3.7885162    385.17794  0.077531792  0.079590152            1 
  415000    1.1758314    -3.768162    385.31533  0.077372556  0.079578234            4 
  416000    1.1660514   -3.7402398    386.39391  0.077402627  0.079566941            3 
  417000    1.1887083    -3.767618    388.38358  0.077614624  0.079555667            1 
  418000     1.201392   -3.7642343    386.80023  0.077113284  0.079545893            3 
  419000    1.2044625   -3.7766386    388.73278    0.0773136  0.079536489            2 
  420000    1.1937193   -3.7979591    388.60805  0.077104771  0.079526086            1 
  421000       1.1835   -3.7893485    389.85313  0.077168078  0.079514985            1 
  422000    1.1867642   -3.7558917    391.33588  0.077278017  0.079502227            1 
  423000    1.2093235   -3.7923485    391.18406  0.077065418  0.079488115            2 
  424000    1.2092176   -3.7732407    392.01032  0.077046053  0.079473299            4 
  425000     1.154878    -3.741966    395.17693  0.077485673  0.079458698            1 
  426000    1.1730119   -3.7826899    394.96332  0.077261996   0.07944523            4 
  427000    1.2041494   -3.7785993    395.81242  0.077246764  0.079430949            2 
  428000    1.2377336    -3.744934     396.2458  0.077150662  0.079418142            3 
  429000    1.2101779   -3.7938558    397.33603  0.077182602   0.07940675            2 
  430000    1.1887709   -3.7847387    397.96431  0.077124866  0.079394642            1 
  431000    1.1875594   -3.7651216    399.45351  0.077233857  0.079384589            4 
  432000    1.1816888   -3.7733808    401.99504  0.077545339  0.079373664            3 
  433000    1.1693201   -3.7837375    401.14458  0.077202576  0.079362254            4 
  434000    1.1670249   -3.8154436    401.86988  0.077163955  0.079350913            2 
  435000    1.1768235   -3.7730528    403.13653  0.077229221  0.079337389            2 
  436000    1.1485025   -3.7929737    402.06277  0.076846859  0.079324325            2 
  437000    1.1919712   -3.7720129      403.971  0.077034898   0.07931087            2 
  438000    1.2153148    -3.758911    405.99969  0.077244995  0.079295684            1 
  439000    1.1827028   -3.7379289     406.6917  0.077200398  0.079280543            3 
  440000    1.1917984   -3.7744657    408.15735  0.077302528  0.079266673            3 
  441000     1.165898    -3.765157    407.89078  0.077076867  0.079251368            1 
  442000    1.1649424   -3.7896723    408.12662  0.076946949  0.079235033            2 
  443000    1.1920574   -3.7935736    407.54869   0.07666454  0.079218353            2 
  444000    1.1636212    -3.813119    408.65632   0.07669976  0.079202813            3 
  445000    1.1579041   -3.7858859    408.47164  0.076492816  0.079185384            3 
  446000    1.1948892   -3.7760979    410.35741  0.076673657  0.079169253            1 
  447000    1.1680831   -3.7993642    410.91186  0.076605491  0.079153996            3 
  448000    1.1874549   -3.8112239    411.92079  0.076622171  0.079139003            2 
  449000    1.1866693   -3.7905451      414.257  0.076885115  0.079123735            2 
  450000    1.1937456   -3.7726435    414.54512  0.076767615  0.079110005            1 
  451000    1.1764004   -3.8114539    415.88025  0.076844097  0.079096381            2 
  452000    1.1733418    -3.782901    418.01009  0.077066757  0.079081602            2 
  453000    1.1702132     -3.76251    418.30037  0.076950032  0.079069225            2 
  454000     1.160893   -3.7898218    417.36585  0.076609004   0.07905473            2 
  455000    1.1671818   -3.7808327    419.72369   0.07687247  0.079040969            1 
  456000    1.1752862   -3.7955294    421.04547  0.076945445  0.079028505            4 
  457000    1.1763741   -3.7735711    422.75437  0.077088688  0.079015802            1 
  458000    1.1576699   -3.7931667    422.35842  0.076848329   0.07900229            2 
  459000    1.1777577   -3.7995681    422.70198  0.076743279  0.078987608            3 
  460000    1.1909298   -3.7703762    424.27074  0.076860641  0.078971982            4 
  461000    1.1641892   -3.7984396    425.66732   0.07694637  0.078958307            2 
  462000    1.1580937     -3.78092    426.24257   0.07688358  0.078944603            4 
  463000    1.1832918   -3.7519165    427.48893  0.076941853  0.078933054            1 
  464000    1.1608903   -3.7623056    428.65156  0.076984835  0.078922386            2 
  465000    1.1810551   -3.8127513    430.32388  0.077118975  0.078912562            2 
  466000    1.1660527   -3.7826799    430.74592  0.077028955  0.078903753            3 
  467000    1.2167824   -3.7926086      432.538  0.077183797   0.07889233            4 
  468000    1.1402589   -3.7979225      432.727  0.077052528  0.078881058            2 
  469000    1.1833988   -3.7833826    433.47532  0.077021202  0.078870385            1 
  470000    1.1714713   -3.8251628    433.25517  0.076818293  0.078859484            7 
  471000    1.1460573   -3.7596824    435.31978  0.077020485  0.078850285            2 
  472000    1.1524414   -3.7543563    435.33392  0.076859801  0.078841248            1 
  473000     1.188769   -3.7926109    437.19125  0.077024533  0.078832616            2 
  474000    1.1877366   -3.7928887     439.0625  0.077191015  0.078824124            3 
  475000     1.191602   -3.7888548    440.37966  0.077259589  0.078814902            3 
  476000    1.1761658   -3.8039557    440.90021  0.077188412  0.078806343            2 
  477000    1.1653924   -3.7680096    441.17781  0.077075089  0.078797996            3 
  478000    1.1861267   -3.8099641    440.69984  0.076830517  0.078788061            1 
  479000     1.167765    -3.803554    441.46475  0.076803193  0.078777594            2 
  480000      1.16269   -3.7939568    443.78813   0.07704655  0.078767164            1 
  481000    1.1629783   -3.8078593    444.25145   0.07696664  0.078756635            3 
  482000    1.1845563   -3.7757212    445.50732  0.077024088  0.078745981            2 
  483000    1.1571458   -3.7861215    444.59657  0.076707483  0.078732875            2 
  484000    1.1856043   -3.7807239    445.04556  0.076626302  0.078720916            1 
  485000    1.1865021   -3.7972065    445.05958  0.076470718  0.078706224            2 
  486000    1.1610296   -3.8002382    447.37706  0.076710744  0.078690483            3 
  487000    1.1782515    -3.827643    445.67095  0.076261285  0.078674949            3 
  488000    1.1788203   -3.7915215    450.21801   0.07688149  0.078659258            2 
  489000    1.1732843   -3.7998221    448.84647  0.076490536  0.078644359            3 
  490000    1.1565307    -3.805553    446.06206  0.075860895  0.078626471            1 
  491000    1.1541974   -3.8124599    449.67965  0.076320374  0.078610367            3 
  492000    1.2017129   -3.7905496    452.89659  0.076710127  0.078595921            2 
  493000    1.1518513   -3.7917805    453.39717  0.076639142  0.078582518            3 
  494000    1.1876557   -3.7757497    454.95487  0.076746773  0.078569294            3 
  495000    1.2053305   -3.7965196    455.24351  0.076640321  0.078556338            3 
  496000    1.1528932   -3.8112725    455.17732  0.076474683   0.07854258            2 
  497000    1.1791762    -3.787721    458.65029  0.076903133  0.078529985            2 
  498000    1.1813571   -3.8222188    455.04525  0.076145457  0.078517355            2 
  499000    1.1622737   -3.7843718    458.34306  0.076543597  0.078502571            2 
  500000    1.1700446   -3.7881185    459.52802  0.076588004  0.078488706            3 
  501000    1.1802835   -3.8072722     460.7591  0.076639903  0.078475913            3 
  502000     1.176066   -3.7859366    463.01052  0.076860976  0.078463747            1 
  503000    1.1689647    -3.803498    462.44194  0.076613973  0.078452332            2 
  504000    1.1573818   -3.8016301    463.56492  0.076647638  0.078441444            1 
  505000    1.1703177   -3.8144359    464.16677  0.076595176  0.078430437            2 
  506000    1.1761654   -3.8471104    463.37281  0.076313046  0.078419144            2 
  507000    1.1899885   -3.7934554    467.25538  0.076800687  0.078406887            4 
  508000     1.142053    -3.818392    466.21274  0.076478468  0.078395615            3 
  509000    1.1654018   -3.8036845    467.33741  0.076512346  0.078383145            2 
  510000     1.167336   -3.8176128    467.74849  0.076429492  0.078370512            1 
  511000    1.1710637   -3.7911269    470.47526  0.076724602  0.078358664            2 
  512000    1.1661506    -3.787335    470.15293  0.076522287  0.078345998            1 
  513000    1.1424564   -3.8060497    472.22002  0.076708905  0.078332883            2 
  514000    1.1599343   -3.7803735    471.33585  0.076416318  0.078320682            1 
  515000    1.1495193   -3.7664933    472.36024  0.076433696  0.078308341            3 
  516000    1.1642299   -3.7785662    474.55986  0.076640804   0.07829649            2 
  517000    1.1862814   -3.7829967    475.50503  0.076644912  0.078284884            3 
  518000    1.1663083   -3.8275927    474.38437  0.076316662  0.078274529            3 
  519000    1.1572111   -3.8414398    474.74018  0.076226747  0.078262756            3 
  520000    1.1529484   -3.7922448    477.17425  0.076470232  0.078250102            2 
  521000    1.1768825   -3.7964707    478.46107  0.076529282  0.078238033            1 
  522000    1.1868809   -3.8019178    478.44092  0.076379457  0.078226477            1 
  523000    1.1781772   -3.7835423    480.19067  0.076512216   0.07821509            2 
  524000    1.1445632   -3.8295342    481.58623   0.07658814  0.078203691            1 
  525000    1.1935075   -3.7775677    483.41368   0.07673233  0.078193858            2 
  526000    1.1630983   -3.8036761    483.90781  0.076664735  0.078182955            1 
  527000    1.1497387   -3.8253636    480.88405  0.076041121  0.078173251            3 
  528000    1.1822092   -3.8027628    487.55144  0.076949406  0.078163653            4 
  529000    1.1603213    -3.810439    486.82634  0.076689719  0.078154493            1 
  530000    1.1854237   -3.8114276    487.92421  0.076717644  0.078145686            1 
  531000    1.1742101   -3.8002885    487.46138  0.076500531  0.078136995            1 
  532000    1.1586014   -3.7815531    491.32403  0.076961784  0.078127927            2 
  533000    1.1370535   -3.7985259    489.25108  0.076493289  0.078120223            3 
  534000     1.158157   -3.7921813    494.19613  0.077121743  0.078112456            3 
  535000    1.1576311   -3.8155362    493.20207  0.076822752  0.078105767            2 
  536000    1.1686434   -3.8141646    494.13258  0.076824096  0.078098996            1 
  537000    1.1697118   -3.7808267    495.03787   0.07682152  0.078091906            3 
  538000    1.1707808   -3.8007299    495.27777  0.076715887  0.078083916            2 
  539000    1.1436713   -3.7737282    497.36911  0.076896894     0.078077            4 
  540000    1.1476466   -3.8176398    493.67333  0.076184156   0.07806834            2 
  541000    1.1646762   -3.7916442    497.31908  0.076604911  0.078058943            2 
  542000    1.1834624   -3.8136326     497.3371  0.076466343  0.078049482            2 
  543000    1.1410067   -3.7833689    499.13209  0.076600996  0.078039773            2 
  544000    1.1788478   -3.8046903    498.92527  0.076428503  0.078029569            1 
  545000    1.1785081    -3.783626     498.3891  0.076206284  0.078018425            1 
  546000    1.1601238   -3.8235538    499.40208  0.076221319  0.078006673            2 
  547000    1.1803911   -3.8063274    498.64666  0.075966888   0.07799398            3 
  548000     1.200851   -3.7958701     501.0875  0.076199437  0.077981126            1 
  549000    1.1518278   -3.8221323    500.22634  0.075929924  0.077967826            2 
  550000    1.1775492   -3.7974602    506.19177  0.076695723  0.077956104            5 
  551000    1.1848412   -3.7798167    505.44148  0.076443055  0.077942879            1 
  552000    1.1964372   -3.8252895     505.6819  0.076340867  0.077931481            2 
  553000    1.1618383   -3.8252874    505.75363  0.076213627  0.077919168            2 
  554000    1.1860391   -3.8000673    505.14933  0.075985157  0.077906262            2 
  555000    1.1653155   -3.8319488    506.37383  0.076032106  0.077893498            3 
  556000    1.1814708   -3.8269611    507.48834  0.076062401  0.077881008            2 
  557000    1.1749639   -3.8035811    510.64859  0.076398653   0.07786928            3 
  558000    1.1697839   -3.8071274    510.67707  0.076265989  0.077857449            4 
  559000    1.1633653   -3.8182884    509.38563  0.075937035  0.077846057            2 
  560000    1.1822481   -3.8124482    511.29413  0.076085436  0.077834938            3 
  561000    1.1598722   -3.8335532    512.86156  0.076182645  0.077821188            2 
  562000    1.1716248    -3.797032    514.21604  0.076247929  0.077808535            3 
  563000     1.132826   -3.8068992    515.43055  0.076292266  0.077795868            1 
  564000    1.1644886   -3.8244569    513.46177  0.075866101  0.077782348            2 
  565000    1.1561597    -3.788509    515.30717  0.076004008  0.077769229            2 
  566000    1.1884129   -3.7935823    516.97622  0.076115462  0.077756564            1 
  567000    1.1716128   -3.7892306    518.33044  0.076180253  0.077745311            1 
  568000    1.1485035   -3.8249558    520.72598  0.076397591   0.07773309            1 
  569000    1.1421622   -3.8336939    519.26524  0.076049391  0.077721057            4 
  570000    1.1385681   -3.8133707    521.79011  0.076285104  0.077710015            3 
  571000    1.1561015   -3.8330314    518.35758  0.075650552  0.077698091            2 
  572000    1.1904938   -3.8061358     520.3976  0.075815501  0.077685378            2 
  573000    1.1713646   -3.8411513    522.07326  0.075926885  0.077671159            1 
  574000    1.1505887   -3.7925298    520.59293  0.075579694  0.077657428            3 
  575000    1.1685551   -3.7930691    526.04564  0.076238498  0.077644176            1 
  576000    1.1762574   -3.8218591    524.69358  0.075910529  0.077633247            3 
  577000    1.1550551    -3.824193    524.40209   0.07573687  0.077621077            5 
  578000    1.1511264   -3.7730943    526.85096  0.075958904  0.077609283            5 
  579000    1.1764056   -3.8042969    528.67938  0.076090872  0.077598373            2 
  580000     1.173218   -3.8038827    530.66086  0.076244376  0.077587594            2 
  581000    1.1613927   -3.7942104    531.35976  0.076213391  0.077578111            3 
  582000    1.1724182   -3.8173704    530.60263   0.07597403  0.077568445            1 
  583000    1.1806623   -3.7824286     535.7457  0.076578859  0.077559201            3 
  584000    1.1621463   -3.8075676    533.79789   0.07616979  0.077549348            3 
  585000    1.1500001   -3.7871429    534.49984  0.076139579  0.077537937            2 
  586000    1.1694899   -3.8543006    536.92948  0.076355159    0.0775279            2 
  587000    1.1601677   -3.8310626    534.23231   0.07584218  0.077518114            5 
  588000    1.1670886    -3.812084    538.79662  0.076360065  0.077509462            3 
  589000    1.1474112   -3.7962903    538.60754   0.07620367  0.077502356            1 
  590000    1.1425053   -3.7902442    539.80953  0.076244284  0.077494457            2 
  591000    1.1516373   -3.8157787    543.17129  0.076589296  0.077486882            3 
  592000    1.1349612   -3.8301924    541.02492  0.076157787  0.077479259            2 
  593000    1.1267943   -3.7651938    546.65228  0.076820163  0.077471679            2 
  594000    1.1590299   -3.8293722    543.53651  0.076253719  0.077463834            2 
  595000     1.131826    -3.809378    544.11015  0.076205903  0.077455809            2 
  596000    1.1799498    -3.841832    544.87983  0.076185659   0.07744799            3 
  597000    1.1388011   -3.7999078    546.94617  0.076346478  0.077441183            1 
  598000    1.1813388   -3.8307403    547.48322  0.076293648  0.077434695            1 
  599000    1.1318962   -3.8183468    547.18518  0.076124816  0.077427002            2 
  600000    1.1664418   -3.8259219    550.69698  0.076485692  0.077420186            1 
  601000    1.1434361    -3.809802    550.98547  0.076398429  0.077412946            5 
  602000    1.1352014   -3.8110752    550.45606  0.076198236  0.077404546            6 
  603000    1.1606979   -3.7814635    553.68401  0.076517967  0.077396044            2 
  604000    1.1366886   -3.8562512    550.64515  0.075972013  0.077388183            3 
  605000     1.198758   -3.8037037    553.39032  0.076224562  0.077380413            2 
  606000     1.144897    -3.828505    554.31589  0.076226057  0.077372666            2 
  607000    1.1327315   -3.8392553    555.40862  0.076250497  0.077365581            2 
  608000    1.1621513   -3.8140572    554.65471  0.076021753  0.077357564            2 
  609000    1.1369047   -3.8308887    556.06753  0.076090247  0.077349404            3 
  610000    1.1458493   -3.8082233    556.40002  0.076010932   0.07734043            3 
  611000    1.1773169   -3.7861286    560.11145  0.076392723  0.077334042            2 
  612000    1.1955254    -3.833547     559.4725  0.076180896  0.077327006            3 
  613000    1.1329047   -3.8328296    563.10106    0.0765499  0.077320845            2 
  614000    1.1879732   -3.8162389    561.29015  0.076179445  0.077315194            2 
  615000    1.1468037   -3.7977115    565.01118   0.07655978  0.077309085            3 
  616000    1.1453939   -3.8352527    563.64795  0.076251076  0.077304532            3 
  617000    1.1517967   -3.8298041    565.23555  0.076341917  0.077297834            1 
  618000    1.1756382   -3.8533916    567.17978  0.076480552  0.077292759            3 
  619000    1.1882694   -3.7714002    569.11434   0.07661744  0.077288471            2 
  620000    1.1760107   -3.8615569    568.72845  0.076441996  0.077283881            2 
  621000    1.1863352   -3.8534084    570.94914  0.076616901  0.077278134            4 
  622000    1.1245185   -3.8458424    568.33724  0.076143789  0.077272053            1 
  623000    1.1690521   -3.8315222    572.45813  0.076572783  0.077265952            2 
  624000    1.1484651   -3.8335942    570.81768  0.076230994  0.077260544            2 
  625000    1.1619609    -3.836499    572.60102  0.076346803  0.077255779            2 
  626000     1.158619   -3.8429091    572.96471  0.076273257  0.077250942            2 
  627000    1.1300084   -3.8203324    576.96981  0.076683919  0.077246899            2 
  628000    1.1280018   -3.8243663    576.71656  0.076528205  0.077243042            4 
  629000    1.1445342   -3.8270836     579.0368  0.076713937  0.077238945            2 
  630000    1.1429274   -3.7887027     579.7826   0.07669082  0.077234749            2 
  631000    1.1574259   -3.7927483    580.56052  0.076672018  0.077231508            3 
  632000    1.1377176   -3.7890807    580.17854  0.076500335  0.077228167            2 
  633000    1.1392775   -3.8336967    580.85687  0.076468782  0.077224527            2 
  634000    1.1574303   -3.8349127    583.22071  0.076658873  0.077220108            3 
  635000    1.1414071   -3.8380754    582.33994  0.076422564   0.07721672            4 
  636000    1.1783206    -3.837726    582.82019  0.076365329  0.077212286            2 
  637000    1.1268653    -3.850675    585.91751  0.076650643  0.077209693            3 
  638000    1.1561975   -3.8148901    585.84868   0.07652151  0.077205919            3 
  639000    1.1622636   -3.8319836    587.65388  0.076637178  0.077203027            4 
  640000    1.1471339   -3.8828912       588.73  0.076657553  0.077200301            1 
  641000    1.1323051   -3.8443997    588.50649  0.076508905  0.077197638            1 
  642000    1.1345013   -3.8579904    588.43977  0.076381071  0.077194007            4 
  643000    1.1350606   -3.8524215    590.65172  0.076548953  0.077190313            2 
  644000    1.1750158   -3.8025367     590.8208  0.076451966  0.077186472            2 
  645000    1.1808784   -3.8291925    592.53155  0.076554464  0.077182197            2 
  646000     1.128065   -3.8534645    589.28098  0.076016638  0.077176832            2 
  647000    1.1163015   -3.8276632    593.55808  0.076450036  0.077172031            1 
  648000    1.1279671   -3.8345893    594.11731  0.076403975  0.077166574            2 
  649000    1.1325623   -3.8524218    594.94587  0.076392639   0.07716145            3 
  650000    1.1585709   -3.8238687    595.13139  0.076298896  0.077156133            1 
  651000    1.1411622   -3.8244109     595.7012  0.076254634  0.077149374            2 
  652000    1.1554383   -3.8450831    596.65436  0.076259504  0.077143191            1 
  653000    1.1569665   -3.8492667    597.05348  0.076193655   0.07713626            2 
  654000    1.1859291   -3.8664868    594.78238  0.075787765  0.077128737            2 
  655000    1.1520524   -3.8510387    600.42875  0.076390426  0.077121872            2 
  656000    1.1612036    -3.843106    601.08934  0.076357894  0.077115153            1 
  657000     1.138646   -3.8584427    596.71646   0.07568702   0.07710677            4 
  658000     1.157373   -3.8355363    601.72351  0.076206118  0.077098486            1 
  659000    1.1592569   -3.8099668    604.58334  0.076452117  0.077090562            2 
  660000    1.1424711   -3.8111261    602.73243   0.07610258  0.077082197            3 
  661000    1.1463283   -3.8282683    602.86708  0.076004422  0.077073056            1 
  662000    1.1323364    -3.822205    603.47802  0.075966518  0.077064077            5 
  663000    1.1545603   -3.8508295    603.41439   0.07584394  0.077053636            3 
  664000    1.1348667   -3.8389177     602.8447   0.07565822  0.077042541            2 
  665000    1.1457719   -3.8279139    606.42402  0.075992985  0.077031526            1 
  666000    1.1273938   -3.8140524    606.65566  0.075907865  0.077020991            4 
  667000    1.1369132   -3.8570604    606.66937  0.075795774   0.07701015            1 
  668000    1.1441051    -3.854329    604.43752  0.075403882  0.076999877            4 
  669000    1.1466332   -3.8586772    607.87763  0.075719684  0.076990318            4 
  670000     1.154058   -3.8568053    606.31577  0.075412409  0.076979358            1 
  671000    1.1654276   -3.8498183    609.56856  0.075703994   0.07696836            2 
  672000    1.1370731   -3.8335886    610.38726  0.075692864  0.076958112            3 
  673000    1.1753439   -3.8186914    612.65046  0.075860631  0.076948242            2 
  674000    1.1172961   -3.8421301     612.6258   0.07574503   0.07693793            2 
  675000    1.1449289   -3.8681315    611.99804  0.075555313   0.07692826            4 
  676000    1.1449623   -3.8303353    614.90712   0.07580216  0.076918379            4 
  677000    1.1187168   -3.8272177    614.73909  0.075669509  0.076907868            2 
  678000     1.144219    -3.856866    614.79017   0.07556418  0.076896815            3 
  679000     1.118594   -3.8216637    617.77097  0.075818725  0.076886142            5 
  680000    1.1330696   -3.8254315    616.90469  0.075601065  0.076875758            2 
  681000    1.1443924   -3.8436144    620.85057  0.075972904  0.076864334            1 
  682000    1.1202419   -3.8784267    616.01127  0.075270194  0.076853481            2 
  683000    1.1516688   -3.8217767     621.0017  0.075768875  0.076843607            2 
  684000    1.1550856   -3.8266115    618.90327  0.075402445  0.076833338            3 
  685000    1.1691838   -3.8267982    620.23704  0.075454628  0.076823341            1 
  686000    1.1646131   -3.8336905    619.64403  0.075272599  0.076812228            2 
  687000    1.1564572   -3.8102506    621.60647  0.075401076  0.076801066            3 
  688000    1.1325128   -3.8321392    622.51784   0.07540187  0.076789805            4 
  689000    1.1298548   -3.8609844    625.79908  0.075689293  0.076778947            2 
  690000    1.1267746   -3.8292611     626.1143  0.075617669   0.07676915            1 
  691000    1.1366477   -3.8388303    626.56005  0.075561993   0.07675958            2 
  692000    1.1276316   -3.8318438    625.93109  0.075377057  0.076749807            5 
  693000    1.1405945   -3.8348506    629.31727  0.075675477   0.07673935            3 
  694000    1.1516093   -3.8689906    625.94538  0.075161549  0.076729406            3 
  695000    1.1493112   -3.8329393     629.3682  0.075463813  0.076720011            3 
  696000    1.1468032    -3.851231    627.94075  0.075184476  0.076709645            1 
  697000    1.1617443    -3.838199    632.09424    0.0755732  0.076699016            2 
  698000     1.146429   -3.8371954    631.81282   0.07543133  0.076686973            3 
  699000    1.1385078   -3.8679363    631.30777  0.075263206  0.076676703            2 
  700000    1.1484069   -3.8445818     633.2096  0.075382095  0.076665606            2 
  701000    1.1274244   -3.8573458    632.64887  0.075207901  0.076655721            1 
  702000    1.1565458   -3.8719912    630.25032   0.07481604   0.07664528            2 
  703000    1.1324404   -3.8557477     636.1695  0.075411273  0.076635577            2 
  704000    1.1281837   -3.8375035    636.23473  0.075311877  0.076624627            1 
  705000     1.145346   -3.8488393    637.78361  0.075388133  0.076614876            3 
  706000    1.1568694   -3.8183381    636.85077  0.075171243    0.0766052            2 
  707000    1.1405483   -3.8507841    636.45117  0.075017818  0.076593572            2 
  708000    1.1253872    -3.845593    636.87343  0.074961562  0.076581484            3 
  709000    1.1255196   -3.8518822    641.14436  0.075357824  0.076569231            5 
  710000    1.1515291   -3.8419388    642.83553   0.07545018  0.076558395            2 
  711000    1.1390088   -3.8452576    640.89041  0.075116082  0.076547522            3 
  712000    1.1348345   -3.8229693    642.06899  0.075148524  0.076536356            2 
  713000     1.140873   -3.8672187    644.52447  0.075330116  0.076525939            3 
  714000    1.1519858    -3.872915    643.13161  0.075062046  0.076514433            2 
  715000    1.1428597   -3.8374356    643.98062  0.075056017   0.07650307            3 
  716000    1.1401198   -3.8534784    645.79027   0.07516181   0.07649263            3 
  717000    1.1461933   -3.8707598    645.77427  0.075055122  0.076482028            2 
  718000    1.1268822   -3.8632774    645.55944  0.074925654  0.076471089            1 
  719000    1.1442734   -3.8766747    649.43068   0.07527013  0.076461517            3 
  720000    1.1591273   -3.8585348    651.99562  0.075462456  0.076451426            1 
  721000    1.1549158   -3.8763657    649.11115  0.075024405  0.076441282            4 
  722000    1.1263152   -3.8729585     650.4792  0.075078393  0.076431282            2 
  723000    1.1239058   -3.8276926    651.99475  0.075149233  0.076421995            1 
  724000    1.1307654    -3.836285    654.84021  0.075372953  0.076411906            1 
  725000    1.1477768   -3.8466439    656.34134  0.075441533  0.076401861            2 
  726000    1.1293688   -3.8450623    654.65383   0.07514392   0.07639029            2 
  727000     1.126006   -3.8539628    654.14335  0.074982043  0.076378812            2 
  728000    1.1577418   -3.8737334    654.38527  0.074906738  0.076367381            3 
  729000    1.1496195    -3.833788    657.21315  0.075127247  0.076356921            1 
  730000    1.1197928   -3.8779423    656.79608  0.074976721  0.076346365            1 
  731000    1.1228115   -3.8512354     659.0103  0.075126573  0.076335809            2 
  732000    1.1178995   -3.8470637    656.58233  0.074747533  0.076325678            4 
  733000       1.1299   -3.8694799     660.1456  0.075050659  0.076313527            3 
  734000     1.135101   -3.8436266    661.32516  0.075082329  0.076302319            2 
  735000    1.1210702   -3.8213068    659.17677  0.074736595  0.076290196            2 
  736000    1.1098697   -3.8735178    659.68536  0.074692636  0.076277081            2 
  737000    1.1309166   -3.8496856    661.88058  0.074839505    0.0762642            2 
  738000    1.1162416   -3.8129013    665.76954  0.075177228  0.076252398            3 
  739000    1.1300959   -3.8443936    662.80304  0.074740983  0.076239609            1 
  740000    1.1064014   -3.8210955    668.20051  0.075247805  0.076226687            2 
  741000    1.1390133   -3.8343183     666.0615  0.074905702  0.076214875            2 
  742000    1.1645048   -3.8688433    666.67039  0.074873135  0.076202685            3 
  743000    1.1341491   -3.8634556    666.17353  0.074716636  0.076190867            3 
  744000    1.1542738   -3.8630172    667.61015  0.074777122  0.076178459            2 
  745000     1.141894   -3.8263073    671.38889  0.075099428  0.076165933            1 
  746000    1.1481948   -3.8375016     668.4304  0.074668276  0.076153599            3 
  747000    1.1495554   -3.8699204    670.84756  0.074837969  0.076140749            1 
  748000       1.1331   -3.8379955    668.52952   0.07447967  0.076128182            3 
  749000    1.1332541   -3.8709802    671.48949  0.074709555  0.076115257            1 
  750000    1.1325311   -3.8720955     670.6033  0.074511478  0.076102339            4 
  751000    1.1349964   -3.8675255    674.38745  0.074832162  0.076087994            2 
  752000    1.1366738    -3.855742    672.76239  0.074552569  0.076074594            4 
  753000     1.151084   -3.8695082    675.89616  0.074800371  0.076061429            3 
  754000    1.1514045   -3.8213736    678.64845  0.075005354  0.076048835            3 
  755000    1.1723046   -3.9098995    673.09205   0.07429272  0.076036242            3 
  756000    1.1185216   -3.8674149    675.41955  0.074451009   0.07602314            2 
  757000    1.1476713   -3.8081184    682.60254  0.075143389  0.076010367            3 
  758000    1.1266099   -3.8357179    679.54323  0.074707918  0.075998777            3 
  759000    1.1352257   -3.8694118    681.11147  0.074781672  0.075986616            3 
  760000     1.133789   -3.8537651    680.41556   0.07460697   0.07597434            3 
  761000    1.1427495   -3.8324075    681.83736  0.074664626  0.075962133            3 
  762000      1.14178   -3.8216062    685.81081  0.075001182  0.075951924            5 
  763000    1.1627346    -3.835319    685.42551  0.074860803  0.075941203            4 
  764000    1.1433633   -3.8608435    683.64569  0.074568683  0.075930373            2 
  765000     1.137871   -3.8338954    684.25758  0.074537862  0.075918595            2 
  766000    1.1249549   -3.8587098    687.18054  0.074758544  0.075907477            3 
  767000    1.1322071   -3.8603793    684.11895  0.074328438  0.075897071            3 
  768000    1.1301488   -3.8488293     685.6318  0.074395812  0.075885874            4 
  769000     1.116358   -3.8692796    687.70602  0.074523842  0.075873221            1 
  770000    1.1419585   -3.8429044     687.2415  0.074376785  0.075860835            6 
  771000    1.1477766   -3.8765397    686.36009  0.074185051  0.075849348            2 
  772000    1.1330867   -3.8471313    693.55506  0.074865616   0.07583785            1 
  773000    1.1459433   -3.8743731    688.87937  0.074264701  0.075826628            1 
  774000    1.1176422   -3.8409683    692.05307  0.074510451  0.075814283            2 
  775000    1.1179512    -3.904321    691.25431  0.074328421  0.075802718            1 
  776000    1.1076495    -3.899542    689.97555  0.074095312  0.075791222            2 
  777000     1.147326    -3.841137    696.41469   0.07469055  0.075780118            4 
  778000    1.1465477   -3.8838945    693.68532  0.074302198  0.075767669            4 
  779000    1.1198143    -3.855725    697.48264  0.074613034  0.075755682            2 
  780000    1.1461435   -3.8499692    699.76467  0.074761183  0.075745146            2 
  781000    1.1240424   -3.8287264    701.09003  0.074806875  0.075735035            1 
  782000     1.140217    -3.870027    702.19632  0.074829105  0.075724826            3 
  783000    1.1118556   -3.8495679    701.44355  0.074653422  0.075714773            2 
  784000    1.1156021   -3.8437224    704.10581  0.074841179  0.075704014            2 
  785000    1.1486597   -3.8862243    700.43545  0.074356204  0.075693245            2 
  786000    1.1270293   -3.9075594    698.41816  0.074047727  0.075680934            1 
  787000     1.122178    -3.878332    701.66013  0.074296922  0.075668607            4 
  788000    1.1231071    -3.872575    703.81143  0.074430143  0.075655841            3 
  789000    1.1196724   -3.9032388    700.58381   0.07399491  0.075642916            3 
  790000    1.1086806   -3.8503876    705.67332  0.074438114  0.075630503            2 
  791000    1.1500673    -3.849941    705.52414  0.074328291  0.075618719            2 
  792000    1.1252338   -3.8356581    708.38317  0.074535266  0.075607115            1 
  793000    1.1298599   -3.8839394    708.54145  0.074457907   0.07559507            3 
  794000    1.1183647   -3.8760218    708.58822   0.07436904   0.07558334            3 
  795000    1.1263339   -3.8227313     710.8631  0.074513952  0.075571585            1 
  796000    1.1434072   -3.8562994    707.77745  0.074097305  0.075559329            2 
  797000    1.1459586   -3.8502917    710.37297  0.074275718  0.075547612            4 
  798000     1.083004   -3.8301437    714.48597  0.074612152  0.075535004            1 
  799000    1.1164832   -3.8900868    710.54063  0.074107283  0.075522776            5 
  800000     1.139904   -3.8585455    709.83475  0.073941119  0.075510393            3 
  801000    1.1235295   -3.8968178    711.73604  0.074046613  0.075497508            1 
  802000    1.1113529   -3.8623965    715.71008  0.074367215  0.075484914            2 
  803000    1.1245502   -3.8758256    716.64022  0.074371131  0.075472734            3 
  804000    1.1239584   -3.8703924    714.72182  0.074079791  0.075460733            2 
  805000    1.1323387    -3.851182    716.92474  0.074215811  0.075448279            3 
  806000    1.1073572   -3.8641018    717.68932  0.074202783  0.075435898            4 
  807000    1.1192075   -3.8697231    715.29106  0.073863182  0.075422388            2 
  808000    1.1059484    -3.871393    715.54545  0.073798004   0.07540961            3 
  809000    1.1277336    -3.886792    719.09117   0.07407202  0.075397148            2 
  810000    1.1587878   -3.8791578     720.2142  0.074096111  0.075384602            2 
  811000    1.1193717   -3.8911744    722.02557  0.074190872  0.075372216            4 
  812000     1.123983   -3.8496196    721.50023   0.07404559  0.075360009            3 
  813000    1.1202843   -3.9004819    723.85697  0.074196081  0.075347968            3 
  814000    1.1415152   -3.8802487    723.41191  0.074059368  0.075336774            4 
  815000    1.1371214   -3.8767653    724.69714  0.074099912  0.075324238            2 
  816000    1.1120933    -3.866969    727.31492  0.074276442  0.075312589            3 
  817000    1.1451232   -3.8879296    724.67386  0.073916142  0.075301037            4 
  818000    1.1447149   -3.8844554    727.94569  0.074159096  0.075288896            1 
  819000    1.1167702   -3.8590519    728.13104  0.074087408  0.075276494            3 
  820000    1.1301834   -3.8459537    727.33174  0.073915827  0.075265508            2 
  821000    1.1562371   -3.8403221    729.92733  0.074089254  0.075253939            2 
  822000    1.1242494   -3.8775003    730.24248  0.074031071  0.075241836            1 
  823000    1.1096958   -3.8869669    728.29715  0.073744143  0.075229121            2 
  824000    1.1095763    -3.856578    732.17325  0.074046648  0.075216453            1 
  825000    1.1154375   -3.8958465      729.748  0.073711919  0.075203835            1 
  826000    1.1053096   -3.8733023    732.64701  0.073915154  0.075191422            3 
  827000     1.136197   -3.8652711    731.33963  0.073694037   0.07517867            3 
  828000    1.1196546   -3.8693011    735.01839  0.073975281  0.075166357            4 
  829000    1.1362559   -3.8810567    734.32542  0.073816387  0.075153792            5 
  830000    1.1319057   -3.8624088    735.00743  0.073795927  0.075141318            4 
  831000     1.149903   -3.8683805    736.07167  0.073813846  0.075128215            3 
  832000    1.1117498   -3.8835082    736.11844  0.073729812  0.075115049            5 
  833000    1.1311633   -3.8715519    738.78282  0.073907845  0.075102457            2 
  834000    1.1476004   -3.8604725     741.4444  0.074085172  0.075090066            3 
  835000    1.1363091   -3.8456875    740.35851  0.073888074  0.075077994            3 
  836000    1.1072117   -3.8607943     743.0858  0.074071551  0.075065869            3 
  837000    1.1191211   -3.8838736     737.9004  0.073466787  0.075052652            4 
  838000     1.127012    -3.892168    739.88925  0.073576895  0.075040171            2 
  839000    1.1208156   -3.9003252    743.65293  0.073863024  0.075027433            2 
  840000    1.1424753   -3.8812694    740.79728  0.073491793  0.075014601            3 
  841000    1.1104968   -3.8657147    748.05896  0.074123956  0.075002876            1 
  842000    1.1227038   -3.8681999     743.3501  0.073569884  0.074990852            3 
  843000    1.1138098   -3.8981645    744.58349  0.073604536   0.07497737            2 
  844000    1.1167168   -3.9085349    745.84599  0.073641982   0.07496517            2 
  845000    1.1155648   -3.8696739    743.76714  0.073349817  0.074952217            3 
  846000    1.0967687   -3.8790402    747.71088  0.073651584  0.074938587            2 
  847000    1.0944871   -3.8911671    746.91355  0.073486182  0.074925199            2 
  848000    1.1154275   -3.8840681    745.42938  0.073253673  0.074911578            2 
  849000    1.1061764   -3.8802969    747.13273  0.073334583   0.07489734            1 
  850000     1.123589   -3.9046345    746.80234  0.073215915  0.074882353            2 
  851000    1.0925425   -3.8496781    750.97469  0.073538453   0.07486812            1 
  852000     1.125981   -3.8903336     746.1494  0.072980184  0.074852943            6 
  853000    1.1273355   -3.8584697    749.22367  0.073194966  0.074837138            3 
  854000     1.124888   -3.8809274     748.9763  0.073085119  0.074822458            1 
  855000    1.1087662   -3.8493857    751.45006  0.073240746  0.074808092            1 
  856000    1.1289925   -3.8849576    751.10778  0.073121863  0.074792654            2 
  857000    1.1218996    -3.859665    754.86589  0.073401973  0.074777996            6 
  858000    1.1124919   -3.9136948    749.60663  0.072805617  0.074763072            2 
  859000    1.0983087   -3.8905621    753.16466  0.073066032  0.074747441            2 
  860000    1.1189968   -3.8689524    754.48809  0.073109311  0.074731373            2 
  861000    1.1146155   -3.8853957    752.58196  0.072839911  0.074716039            2 
  862000    1.0831479   -3.8572799    752.84824  0.072781152  0.074699895            2 
  863000    1.0910498   -3.8612687    760.67057   0.07345216  0.074684801            3 
  864000    1.1054189    -3.886772    756.28516   0.07294417   0.07466964            1 
  865000    1.1391121   -3.8713276    759.62373  0.073181477  0.074654385            3 
  866000    1.1218245    -3.880143    760.59347  0.073190288  0.074640208            4 
  867000    1.0780148   -3.9054178    764.06951  0.073439976  0.074625619            2 
  868000    1.1351025   -3.8967646    759.95477  0.072960327   0.07461089            2 
  869000    1.1292505   -3.8602094    764.13701  0.073277427  0.074596423            2 
  870000    1.0953525   -3.8674225    762.44037  0.073030687  0.074582924            1 
  871000    1.1112533   -3.8465725    767.07696  0.073390448  0.074568464            1 
  872000    1.1011788   -3.8542982    764.86993  0.073095368  0.074554092            2 
  873000    1.1286868   -3.8788565    764.34652  0.072961676  0.074539659            2 
  874000     1.111243   -3.8691349    764.79833  0.072921275  0.074524711            2 
  875000    1.1011236    -3.859696    768.14342  0.073156516  0.074509802            2 
  876000    1.1331194   -3.8652527    767.92892  0.073052599  0.074495083            1 
  877000    1.1015169   -3.8569314    769.78221  0.073145402  0.074479408            2 
  878000    1.1116241   -3.8828603    769.69671  0.073053978  0.074463903            2 
  879000    1.1272188   -3.8875555    764.75054  0.072501947  0.074447889            3 
  880000    1.0812169   -3.9099534    765.52433  0.072492834  0.074431932            1 
  881000    1.1022935   -3.9053448    764.03881  0.072270035   0.07441527            3 
  882000    1.1290194   -3.8701319    773.61412  0.073092793  0.074398803            6 
  883000    1.1266021   -3.9023114    765.96584  0.072288207  0.074382555            3 
  884000    1.0941427   -3.8785165    770.42531   0.07262682  0.074366551            2 
  885000    1.0988465   -3.8921732    770.46096  0.072548113  0.074350837            2 
  886000    1.0939776   -3.8703054    771.11033  0.072527307   0.07433409            3 
  887000     1.118647   -3.8794713    774.24714  0.072740242  0.074318359            6 
  888000    1.0947259    -3.863235    772.39441  0.072484461  0.074302318            1 
  889000    1.1168763   -3.8978852    773.79296  0.072534024  0.074286284            4 
  890000    1.0963152   -3.8719248    776.70128  0.072724839  0.074270005            1 
  891000    1.1195631   -3.9116566    774.42686  0.072430495  0.074253047            2 
  892000    1.1122716   -3.8767521    779.84594  0.072855563  0.074237223            2 
  893000    1.1102758   -3.8596683    779.71288   0.07276156  0.074221661            1 
  894000    1.1259976   -3.8305429    779.03182  0.072616687  0.074205701            3 
  895000     1.088134   -3.8976291    779.79129  0.072606266  0.074189905            3 
  896000    1.1092682   -3.8711881    781.39505  0.072674391  0.074174519            2 
  897000    1.1044115   -3.8662833    780.93207   0.07255036  0.074159091            2 
  898000    1.0950902    -3.924536    778.28868  0.072224265  0.074143903            2 
  899000     1.125387   -3.9206297    782.69392  0.072552273  0.074127815            2 
  900000    1.1200661   -3.8775362    786.82593  0.072854253  0.074112927            2 
  901000    1.1198147   -3.8875686    785.46112  0.072647162   0.07409841            1 
  902000    1.1175988    -3.894743     785.9043  0.072607567  0.074083948            2 
  903000    1.1066149   -3.8795525    785.98487  0.072534594   0.07406857            2 
  904000    1.1025147    -3.918888     786.5135  0.072503088    0.0740535            3 
  905000    1.0908247   -3.8707093    784.63353  0.072249865  0.074037936            1 
  906000     1.108914   -3.8978317    786.52146  0.072343769  0.074022707            2 
  907000    1.0854223   -3.9430938    787.33154  0.072338437  0.074007218            1 
  908000    1.1016685   -3.8822342    789.93548  0.072497749  0.073991911            4 
  909000    1.1124244   -3.8821803    794.08739  0.072798624  0.073976641            2 
  910000    1.1505472   -3.9166768    787.88182  0.072150349  0.073961547            5 
  911000    1.0850569   -3.9263508    790.96394  0.072353086  0.073946453            2 
  912000    1.0857639   -3.9076431     790.9269  0.072270367  0.073930549            1 
  913000    1.1092375   -3.8642494    794.61813  0.072528125  0.073914794            2 
  914000    1.1047075   -3.9023761    789.59713  0.071990985  0.073898426            1 
  915000    1.1281838   -3.8913864    791.78449   0.07211152  0.073881666            1 
  916000    1.0643636    -3.884429    790.86877  0.071949487  0.073864656            6 
  917000    1.1148837   -3.9109033    793.98465  0.072154185  0.073847936            1 
  918000    1.0982242   -3.8596528    797.59562  0.072403379  0.073831377            2 
  919000    1.1232448   -3.9297305     794.6142  0.072054243  0.073814579            3 
  920000    1.0949398   -3.9068551    798.98147   0.07237151  0.073798476            2 
  921000    1.1058773   -3.9368062    797.54015  0.072162518  0.073782399            4 
  922000    1.1064289   -3.9465481    795.47269  0.071897387  0.073765752            2 
  923000    1.0952315   -3.8805092    798.15224  0.072061416  0.073749559            2 
  924000    1.1159865   -3.8852847    800.15822  0.072164341  0.073733194            5 
  925000    1.1142564   -3.8948284    800.52653  0.072119507  0.073717365            2 
  926000     1.106741   -3.8745644    800.62445  0.072050437   0.07370131            1 
  927000    1.0925422   -3.9181221    800.06248  0.071922194  0.073685277            3 
  928000    1.0933396   -3.9329762    799.21178  0.071768299  0.073668617            2 
  929000    1.1070819   -3.9234589    800.32338  0.071790759  0.073651757            3 
  930000     1.123494   -3.8788088    800.51545  0.071730775  0.073635203            4 
  931000    1.0763287   -3.8924361    802.83371  0.071861235  0.073618396            2 
  932000    1.1001253   -3.9041093    805.72871  0.072042982  0.073600826            2 
  933000    1.0976227   -3.9328198    806.10687  0.071999542  0.073584549            2 
  934000    1.1186485   -3.8764654    806.71575   0.07197678  0.073568633            1 
  935000     1.110178   -3.9101824    806.13357  0.071847912  0.073552646            2 
  936000    1.1154104   -3.9233226     807.3302  0.071877688  0.073535955            3 
  937000    1.0696649   -3.8890487    811.71834  0.072191243  0.073519044            2 
  938000    1.1085209   -3.9097901    806.17246  0.071621576  0.073501174            3 
  939000    1.1073468   -3.8936514    807.65267  0.071676666  0.073484042            2 
  940000    1.0774657   -3.9126552    806.87707  0.071531655  0.073466521            1 
  941000    1.1224258   -3.8935712    811.46803  0.071862206  0.073449232            2 
  942000    1.0946308   -3.9135731    809.80303  0.071638626  0.073432288            3 
  943000    1.1033852   -3.9177483     810.9881  0.071667382  0.073415149            2 
  944000    1.0771017    -3.913136    812.57491  0.071731542  0.073397887            2 
  945000    1.0899371   -3.9086633    811.48135  0.071559202  0.073380799            1 
  946000    1.0984865    -3.911369    810.17408    0.0713684  0.073363257            2 
  947000    1.0876798   -3.9263588     809.4598  0.071230183  0.073345176            3 
  948000    1.1139169   -3.8769259     814.6689  0.071612949  0.073327988            1 
  949000    1.1211512   -3.8883912    815.03344  0.071569497  0.073310202            3 
  950000    1.0834904   -3.8893655    815.14766  0.071504181  0.073292389            1 
  951000    1.1072156   -3.8947129    813.14213  0.071253254  0.073275239            5 
  952000    1.0936869   -3.9050534    815.69701  0.071402049  0.073257662            1 
  953000     1.069108   -3.8818829    818.57855  0.071579097  0.073240916            3 
  954000    1.1195089   -3.8929347    819.84207  0.071614436  0.073224027            4 
  955000    1.0997821    -3.935361    817.85548  0.071366097  0.073207453            2 
  956000    1.0894297    -3.904066    816.51775  0.071174839  0.073190677            3 
  957000    1.0768747   -3.9154919     821.4874  0.071533211   0.07317417            1 
  958000    1.0963016   -3.8801454     827.1584  0.071951844  0.073157812            8 
  959000    1.0745241   -3.8771108    828.50789  0.071994081  0.073142133            2 
  960000    1.0968941    -3.904535    825.15532  0.071628066   0.07312575            2 
  961000    1.1019508   -3.9066824    825.84295  0.071613159  0.073109404            1 
  962000    1.1028382   -3.9232581    822.60415  0.071258156  0.073092972            3 
  963000    1.0738337   -3.8986928    824.72423  0.071367621  0.073076226            2 
  964000    1.1119558   -3.9167104    825.93983  0.071398671  0.073059982            4 
  965000    1.1169793   -3.9102645    826.04636  0.071333882  0.073043476            2 
  966000     1.126939   -3.8725423    832.64445  0.071829231   0.07302715            2 
  967000    1.1068711   -3.9428371    828.75829  0.071420052  0.073010803            2 
  968000    1.1074891   -3.9073265    829.33708  0.071396099  0.072994338            2 
  969000    1.0927335   -3.9201243    832.35638  0.071582076  0.072977789            4 
  970000       1.0952    -3.922948    829.49308  0.071262292  0.072961409            3 
  971000    1.1098882   -3.9110119    832.97372  0.071487618  0.072944792            4 
  972000    1.0867175   -3.9107429    832.42027  0.071366621  0.072928209            4 
  973000    1.0747824   -3.9348374    831.45384  0.071210503  0.072911833            1 
  974000    1.0867931   -3.8772547    835.88353  0.071516387  0.072895894            4 
  975000    1.0927908   -3.8893845    832.12681   0.07112195  0.072880232            1 
  976000    1.0886026   -3.8818248    836.37658  0.071411935  0.072864383            2 
  977000    1.0857696   -3.9214046    834.04183  0.071139699  0.072847904            3 
  978000    1.1103167   -3.8781632    841.60479  0.071711383  0.072832228            4 
  979000    1.1068325    -3.945172    835.72283  0.071137456  0.072816461            3 
  980000    1.1053255   -3.8999129    837.36002  0.071204084  0.072800041            3 
  981000    1.0880889   -3.8802365    839.39813  0.071304632  0.072783489            6 
  982000    1.0859143   -3.9208205    838.09635   0.07112155  0.072767176            3 
  983000    1.1077264   -3.9442314    839.66618   0.07118228  0.072750923            2 
  984000    1.0742444   -3.8990785    840.04521   0.07114204  0.072734695            2 
  985000    1.0830545    -3.933209    840.65398  0.071121318  0.072718197            2 
  986000    1.0669894   -3.9298456    840.10755  0.071003004  0.072701609            2 
  987000    1.0935734    -3.901251    845.84114  0.071415159  0.072684825            1 
  988000    1.1006548   -3.8797822    841.98807  0.071017887  0.072668021            5 
  989000    1.1082141   -3.8803524    845.55429   0.07124657  0.072651405            2 
  990000    1.0931839    -3.911456    843.89006  0.071034517   0.07263427            2 
  991000    1.0972902   -3.8760034    845.64277  0.071110223   0.07261704            3 
  992000    1.1184163   -3.8766953     845.8105  0.071052629  0.072599573            1 
  993000    1.0982715   -3.9047925    844.12066  0.070839263  0.072583313            3 
  994000    1.1089956   -3.9186694    843.49832  0.070715821  0.072566286            2 
  995000    1.0826983    -3.927524    844.01305   0.07068786  0.072548714            4 
  996000    1.1083097   -3.9132476    847.66577  0.070922504  0.072531241            3 
  997000    1.0643691   -3.9305665    848.40296  0.070912986  0.072514254            2 
  998000    1.0925872   -3.9000593    849.55814  0.070938389  0.072496449            5 
  999000    1.1006019   -3.9309749    848.83904  0.070807394  0.072479372            2 
 1000000    1.1044137    -3.944216    847.25344  0.070604453  0.072461642            3 
 1001000    1.0756751   -3.9090772    854.22566  0.071114357  0.072444256            2 
 1002000    1.1215344   -3.9416508    852.81926  0.070926419  0.072427336            1 
 1003000     1.117225   -3.9228006    852.47904  0.070827438  0.072410639            2 
 1004000    1.0861032   -3.9164484     854.3589  0.070912923  0.072394772            1 
 1005000    1.1033228   -3.9176762    852.73748  0.070707917  0.072377659            2 
 1006000     1.106893   -3.9273163    857.23573  0.071010249    0.0723613            5 
 1007000    1.0626728   -3.9135516    855.13765  0.070766108  0.072345157            2 
 1008000    1.0853674   -3.9136009    856.46439  0.070805588  0.072328471            1 
 1009000    1.0921863   -3.8992064     859.0139  0.070945978  0.072311594            4 
 1010000    1.0777575   -3.9422338    859.06653  0.070880077  0.072294567            3 
 1011000    1.0980599   -3.9243818    856.88259  0.070629953   0.07227737            5 
 1012000     1.080116   -3.9268755    858.65817  0.070706371   0.07226017            2 
 1013000    1.0836837   -3.9188089    862.03081  0.070914018  0.072243029            3 
 1014000    1.1001024   -3.9190565     858.7738  0.070576413  0.072225768            3 
 1015000    1.1049167   -3.9179626    860.64235  0.070660291  0.072208602            4 
 1016000    1.0941354   -3.9285539    859.33117    0.0704832  0.072191792            2 
 1017000    1.0801272   -3.9042476    862.87878  0.070704587  0.072175165            2 
 1018000    1.1069146   -3.9413319    860.93762   0.07047623  0.072158164            2 
 1019000    1.1055915     -3.91906    865.24636  0.070759434  0.072141396            3 
 1020000    1.0830776    -3.916052    863.78429  0.070570612  0.072124602            3 
 1021000    1.0700218    -3.930971    864.33161  0.070546165  0.072108525            4 
 1022000     1.093741   -3.9448176    865.28251  0.070554673  0.072092184            2 
 1023000    1.0780369   -3.9418036     866.3132  0.070569664  0.072076048            2 
 1024000    1.0852705    -3.950177    868.24935  0.070658313  0.072059929            3 
 1025000    1.1022308   -3.9034658    873.40533  0.071008563  0.072044384            4 
 1026000      1.08171   -3.9328156     869.2184  0.070599285  0.072028422            4 
 1027000    1.0712129   -3.9191008    872.11223  0.070765354  0.072013507            4 
 1028000    1.0967615   -3.9265689    873.70114  0.070825319   0.07199799            5 
 1029000    1.0855012   -3.8901688    876.13713  0.070953769  0.071982622            7 
 1030000    1.0696807   -3.9303778    875.11552  0.070802226  0.071967595            2 
 1031000     1.076647   -3.9128689    873.34165  0.070590175  0.071952702            3 
 1032000    1.1238922   -3.9193656    876.85832  0.070805743  0.071937838            2 
 1033000    1.0704411    -3.940466    872.21556  0.070362662   0.07192301            3 
 1034000    1.0660015   -3.9060831    875.44835  0.070555154  0.071907885            2 
 1035000    1.0896611   -3.9103891    877.72237  0.070670078   0.07189287            2 
 1036000    1.0892874   -3.9104105    879.55454  0.070749239  0.071877951            5 
 1037000    1.0810362    -3.916214    879.68463  0.070691468  0.071862783           10 
 1038000    1.1078577   -3.9300162    881.10539  0.070737427  0.071848237            2 
 1039000    1.0792764   -3.9285894    882.82992  0.070807661   0.07183398            2 
 1040000    1.0811641   -3.9318025    879.99842  0.070512694  0.071819358            4 
 1041000     1.096528   -3.8805361    882.48716  0.070644185  0.071804664            2 
 1042000    1.0912625   -3.9053253    885.74755  0.070837136  0.071790622            2 
 1043000    1.1086888   -3.9307926    881.67041  0.070443465  0.071775551            2 
 1044000    1.0983924   -3.9561644    881.68841  0.070377427  0.071760507            1 
 1045000    1.0857071   -3.9282044    883.81085  0.070479334  0.071745561            2 
 1046000    1.1028218   -3.9387154     886.1883  0.070601362  0.071730668            2 
 1047000    1.1023138   -3.9143656    885.80259  0.070503231  0.071715977            1 
 1048000    1.1084618   -3.9378415    886.17201  0.070465332  0.071701414            3 
 1049000     1.051897   -3.9180606    886.84602  0.070451702  0.071687014            3 
 1050000    1.0903818   -3.9128011    892.90554  0.070865519  0.071672202            2 
 1051000    1.0684766   -3.9418533    889.39452  0.070519705  0.071657757            3 
 1052000    1.0746839   -3.9027986    897.37809  0.071085083  0.071644049            3 
 1053000    1.1036335   -3.9168976    892.78312  0.070653935  0.071630498            1 
 1054000    1.0855493   -3.9128238    894.70058  0.070738502  0.071616985            2 
 1055000    1.0867278    -3.926377    895.16893  0.070708446  0.071603308            1 
 1056000    1.0999073   -3.9267096    897.04496  0.070789532  0.071589906            5 
 1057000    1.0614479   -3.9397164    892.91676  0.070397096  0.071576333            1 
 1058000     1.099092   -3.9215455    896.13044  0.070583683  0.071562362            4 
 1059000    1.0937602   -3.9468128    895.13862  0.070438985  0.071548601            2 
 1060000    1.0694781   -3.9108757    898.68574  0.070651394   0.07153446            2 
 1061000     1.091881   -3.9606431    897.62919  0.070501822  0.071520307            2 
 1062000    1.0879593   -3.9310566    897.69909   0.07044092  0.071506174            3 
 1063000    1.0549899   -3.9218593    900.24555  0.070574283  0.071492413            2 
 1064000    1.0598466   -3.9503318    898.51382  0.070372323  0.071478919            2 
 1065000    1.0996309   -3.9136669    904.00304  0.070735762  0.071465251            3 
 1066000    1.0785176   -3.9256764     902.5635  0.070556871  0.071451512            1 
 1067000    1.0808793   -3.9240725    901.44496  0.070403386   0.07143726            2 
 1068000    1.0817028   -3.9371717    899.12762  0.070156649  0.071423166            3 
 1069000    1.1039424    -3.931815    899.24187  0.070099927  0.071408606            3 
 1070000    1.1094416   -3.9687615    903.28963   0.07034966  0.071394653            1 
 1071000    1.0706678   -3.9439524    904.12873  0.070349263  0.071381049            2 
 1072000    1.0760068     -3.93332    904.61279  0.070321268  0.071367045            2 
 1073000    1.0967194   -3.9538732    905.51753  0.070325996  0.071352456            3 
 1074000    1.0892794   -3.9388873    909.78398  0.070591556  0.071338729            1 
 1075000    1.0880563   -3.9179328    912.46677  0.070733858  0.071325195            4 
 1076000    1.0679989   -3.8979195    915.17085  0.070877544  0.071312059            2 
 1077000    1.0933853   -3.9220357    910.63032  0.070460409    0.0712989            2 
 1078000    1.0977144   -3.9546138    909.71975  0.070324656  0.071285142            3 
 1079000    1.0596758   -3.9376397    911.18603  0.070372724  0.071271312            2 
 1080000      1.09104   -3.9120819    912.51901  0.070410418  0.071257557            3 
 1081000    1.0727108   -3.9423537     910.8483  0.070216489  0.071244264            1 
 1082000     1.085601   -3.8927543    915.45912   0.07050671  0.071231023            2 
 1083000    1.0799394   -3.9243926    914.01405  0.070330413  0.071217685            3 
 1084000    1.1023748   -3.9255392    918.03909  0.070574961  0.071204448            4 
 1085000    1.0987253   -3.9826896    915.17943  0.070290279  0.071190956            3 
 1086000    1.0903592   -3.9591571    916.35711  0.070315923   0.07117726            2 
 1087000    1.0864425   -3.9172255     914.1765  0.070084062  0.071163296            4 
 1088000    1.0745864   -3.9154408    918.57763  0.070356743  0.071149799            2 
 1089000    1.0842026   -3.9300559    922.19215  0.070568729  0.071136761            2 
 1090000    1.0793934   -3.9339749    919.85602  0.070325384  0.071123322            2 
 1091000    1.0740141    -3.916975    920.09738   0.07027936  0.071109914            3 
 1092000    1.0725389   -3.9196705    921.98928  0.070359377  0.071096917            2 
 1093000    1.0706145   -3.9134135    923.64884  0.070421534  0.071083574            3 
 1094000    1.0714078   -3.9544616    921.52492  0.070195378  0.071070507            2 
 1095000    1.0794476   -3.9456564    919.49341  0.069976668  0.071057413            2 
 1096000    1.0754489    -3.923886    925.04037  0.070334578  0.071044012            4 
 1097000    1.0768955   -3.9633589    919.83521  0.069875054  0.071030503            3 
 1098000    1.0652404   -3.9625122    923.77826  0.070110676  0.071016957            2 
 1099000     1.080332   -3.9394044    928.93683  0.070438037   0.07100382            2 
 1100000    1.0806513   -3.9236715    925.31204  0.070099397  0.070990719            2 
 1101000    1.0863047   -3.9044067    925.58756  0.070056582  0.070977481            5 
 1102000    1.0725488    -3.910766    929.07774  0.070256938   0.07096399            4 
 1103000    1.0614852   -3.9333444    930.06935  0.070268159  0.070950587            1 
 1104000    1.0668379   -3.9437823    929.61334  0.070170089  0.070937011            6 
 1105000    1.0352177   -3.9682631    925.75077  0.069815292  0.070923435            4 
 1106000    1.0646282   -3.9578732    923.92426  0.069614546  0.070909719            3 
 1107000    1.0779062   -3.9245025    931.69867  0.070136907  0.070896004            1 
 1108000    1.0665522   -3.9323086    931.77989  0.070079715  0.070882387            4 
 1109000    1.0954921    -3.945597    933.61198  0.070154191  0.070868866            4 
 1110000    1.0965805   -3.9452521    933.80077  0.070105163  0.070855309            6 
 1111000    1.0594605   -3.9207363     936.2557    0.0702262  0.070841885            3 
 1112000    1.0896842   -3.9566738    934.79253  0.070053397  0.070828522            5 
 1113000    1.0588316   -3.9254047    936.51867  0.070119696  0.070815522            1 
 1114000    1.0800181   -3.9433264    935.20232  0.069958282  0.070802684            2 
 1115000    1.0583823   -3.9537949    935.26544  0.069900257  0.070789122            1 
 1116000    1.0557472   -3.9530423     931.7458  0.069574806  0.070775285            2 
 1117000    1.0716253   -3.9244877    939.45032  0.070087312  0.070761641            4 
 1118000     1.070899   -3.9342193    940.34357  0.070091202  0.070748487            4 
 1119000    1.0746484   -3.9459795    930.86778  0.069322891  0.070735022            5 
 1120000    1.0826883     -3.92554    941.00007  0.070014886  0.070721597            4 
 1121000    1.0838302   -3.9087955    941.79651  0.070011635  0.070708481            3 
 1122000    1.0652171   -3.8975234    944.54644  0.070153479  0.070695714            2 
 1123000    1.0821475   -3.9524686    938.34051  0.069630492  0.070682469            3 
 1124000    1.0635604   -3.9346246    940.85106  0.069754675  0.070668502            5 
 1125000    1.0704257   -3.9471767     939.1967  0.069570126  0.070654551            7 
 1126000    1.0715243    -3.944595    942.68217  0.069766294  0.070641212            4 
 1127000    1.0620905   -3.9601092    941.96103  0.069651067  0.070626919            2 
 1128000    1.0637222   -3.9852513    939.30847  0.069393356   0.07061292            4 
 1129000    1.0548656    -3.945241    945.37389  0.069779591  0.070598688            1 
 1130000    1.0721453   -3.9848083    942.27994  0.069489671  0.070584837            2 
 1131000    1.0665423   -3.9700219    948.61877  0.069895282  0.070570572            2 
 1132000    1.0730399    -3.928895    947.32637  0.069738396  0.070556636            7 
 1133000    1.0792658   -3.9373157    947.06818  0.069657854  0.070543755            2 
 1134000    1.0895511   -3.9498792    945.62156   0.06949012  0.070530476            1 
 1135000    1.0524955    -3.956253     945.5082  0.069420573  0.070516629            2 
 1136000     1.096339   -3.9210239    952.67558  0.069885239  0.070504075            5 
 1137000    1.0784562   -3.9286452    955.16302  0.070006084  0.070491386            4 
 1138000    1.0595361   -3.9637342    946.51228  0.069311093  0.070478149            3 
 1139000    1.0612807    -3.957304    950.08114   0.06951135  0.070464826            3 
 1140000    1.0790633   -3.9491323    950.77309  0.069500957  0.070451292            1 
 1141000    1.0793484   -3.9800216    954.16552  0.069687812  0.070438487            4 
 1142000    1.0642907    -3.935324    959.38094  0.070007365  0.070425048            1 
 1143000    1.1040014   -3.9557637    954.84624  0.069615503  0.070411922            2 
 1144000    1.0811532   -3.9692069    956.32855  0.069662627  0.070399249            4 
 1145000    1.0390498   -3.9570042    958.89426   0.06978852  0.070386443            3 
 1146000    1.0610701   -3.9892815    958.87614  0.069726304  0.070373462            3 
 1147000    1.0953267   -3.9830631    959.42513    0.0697054  0.070361233            5 
 1148000    1.0604897   -3.9383825    958.29858  0.069562905  0.070348551            3 
 1149000     1.055636    -3.960689    957.96431   0.06947812  0.070336557            2 
 1150000     1.079815   -3.9355616    962.95344  0.069779235  0.070324042            2 
 1151000    1.0616527    -3.961661     963.1423  0.069732283  0.070311581            3 
 1152000    1.0614647   -3.9296049    964.85858  0.069795904  0.070299256            4 
 1153000     1.089969   -3.9293549    962.81051  0.069587345  0.070286428            2 
 1154000       1.0788   -3.9582179    963.16544  0.069552675    0.0702738            4 
 1155000    1.0792999   -3.9826828    963.66183  0.069528271  0.070260104            4 
 1156000    1.0502496   -3.9425066    967.16649  0.069720768  0.070247085            3 
 1157000    1.0671584    -3.943638    967.51318  0.069685478  0.070233975            4 
 1158000    1.0641599   -3.9660877      966.614  0.069560593  0.070221171            3 
 1159000    1.0641846   -3.9635867    962.46319  0.069202128  0.070207438            3 
 1160000    1.0645313   -3.9218348    970.79465  0.069740995  0.070194151            2 
 1161000    1.0664005   -3.9403728    968.06946  0.069485318  0.070180836            4 
 1162000    1.0652214   -3.9463347    967.65006  0.069395443  0.070168073            1 
 1163000    1.0586696   -3.9702814    969.21435  0.069447861  0.070155207            1 
 1164000     1.072219    -3.962991    968.10889  0.069309056  0.070142355            4 
 1165000    1.0786672   -3.9709723    969.11082  0.069321232  0.070129385            3 
 1166000    1.0972198   -3.9769107    969.21577   0.06926928  0.070116412            5 
 1167000    1.0623208   -3.9633359    971.84753  0.069397853    0.0701037            2 
 1168000    1.0708146   -3.9489368    971.03722  0.069280624  0.070090786            3 
 1169000    1.0600321   -3.9706948     973.9195  0.069426825  0.070077732            2 
 1170000    1.0693735   -3.9598859    975.50408  0.069480347  0.070064424            3 
 1171000    1.0314478   -3.9696075    972.93036  0.069237856   0.07005158            3 
 1172000    1.0791088   -3.9534934    974.08858  0.069261134  0.070039159            2 
 1173000    1.1058316    -3.944175    977.65793  0.069455664   0.07002704            1 
 1174000    1.0769768   -3.9770162     975.6021  0.069250575  0.070015019            4 
 1175000    1.0577407     -3.98306    979.08131  0.069438391  0.070003538            3 
 1176000    1.0527069   -3.9720505    977.03251  0.069234163  0.069991936            2 
 1177000     1.087755   -3.9783151    981.68101  0.069504461  0.069980128            2 
 1178000    1.0559862   -3.9762521    984.44054  0.069640672  0.069969056            1 
 1179000    1.0497662   -3.9606489    981.54417  0.069376885  0.069956885            2 
 1180000    1.0591625   -4.0056911    978.71641  0.069118391  0.069945194            7 
 1181000    1.0790405   -3.9467182    983.83157    0.0694208  0.069933435            3 
 1182000    1.0851741   -3.9720346    983.00528  0.069303812  0.069921903            2 
 1183000    1.0727339   -3.9642175    985.30114  0.069406956  0.069909967            5 
 1184000    1.0604413   -3.9696153    984.67415  0.069304205  0.069898502            3 
 1185000    1.0636698   -3.9495678    986.15735  0.069350024   0.06988658            2 
 1186000    1.0450524   -3.9483668    987.53889  0.069388623  0.069874956            3 
 1187000    1.0509324   -3.9705398    987.82658  0.069350364  0.069863199            4 
 1188000    1.0703309   -3.9898099    988.43633  0.069334759  0.069851253            3 
 1189000    1.0670366   -3.9622401    988.28325  0.069265717   0.06983915            2 
 1190000    1.0622695   -3.9592166    992.60954  0.069510472  0.069827682            2 
 1191000     1.071223    -3.962872    990.61305  0.069312416  0.069816265            4 
 1192000    1.0637383   -3.9572906    995.65854  0.069607001  0.069805254            3 
 1193000    1.0674447   -3.9468226    995.10471  0.069509969  0.069793681            2 
 1194000    1.0605895   -3.9857754    992.03198  0.069237296  0.069782643            3 
 1195000    1.0707215   -3.9444478    997.03965  0.069528567   0.06977174            1 
 1196000    1.0741678   -3.9763817    994.48192  0.069292218  0.069760789            2 
 1197000    1.0686383   -3.9671723    998.76138   0.06953226  0.069750297            2 
 1198000    1.0536458    -3.978084    998.40784  0.069449627  0.069739361            2 
 1199000    1.0816624   -3.9461078    997.10547  0.069301186  0.069728349            7 
 1200000    1.0774421   -3.9751811     998.6272  0.069349111  0.069718084            3 
 1201000    1.0514065   -3.9689403    1000.8696  0.069446959  0.069707417            1 
 1202000    1.0609891   -3.9605939    1005.3809   0.06970195   0.06969664            2 
 1203000    1.0544383   -3.9555218    998.43339  0.069162745  0.069685967            3 
 1204000    1.0436487   -3.9855554    998.42586   0.06910478  0.069675279            5 
 1205000    1.0644466    -3.968507    1004.1497  0.069443274  0.069664129            4 
 1206000    1.0802128   -3.9529663    1002.9859  0.069305275  0.069653043            4 
 1207000    1.0704107   -3.9685614     1003.597  0.069290041  0.069641921            2 
 1208000    1.0266419   -3.9695739    1006.4222  0.069427577  0.069630716            1 
 1209000    1.0668574   -3.9533612    1005.6526  0.069317106  0.069619472            1 
 1210000    1.0561029    -3.988903    1004.7526   0.06919784  0.069607971            2 
 1211000     1.074605   -3.9861037    1003.7109  0.069069015  0.069596546            4 
 1212000    1.0738205    -3.950775     1008.589  0.069347425   0.06958527            3 
 1213000    1.0616162   -3.9532128    1008.5625  0.069288441  0.069574019            3 
 1214000    1.0642308    -4.016155    1003.7899  0.068903755  0.069562619            2 
 1215000    1.0608058   -3.9643804    1006.4752  0.069031222  0.069551465            1 
 1216000    1.0559015   -4.0112087    1007.5138  0.069045628  0.069540179            3 
 1217000    1.0741289   -3.9895128    1005.3249  0.068839008  0.069528385            1 
 1218000     1.034408   -3.9621909    1008.9655  0.069031577  0.069516043            5 
 1219000    1.0303678   -3.9642093    1005.4693  0.068735935  0.069503904            4 
 1220000    1.0617484   -4.0035854     1005.687  0.068694464   0.06949127            2 
 1221000     1.065485   -3.9344361    1013.4897  0.069170738   0.06947883            4 
 1222000    1.0369607   -3.9728087    1010.3002  0.068896629  0.069467167            4 
 1223000    1.0671756   -3.9906913    1013.0009  0.069024321  0.069454897            2 
 1224000    1.0328636   -3.9603754    1019.3289  0.069398754  0.069443362            3 
 1225000    1.0526894   -3.9776301    1011.0273  0.068777371   0.06943062            2 
 1226000    1.0475042   -3.9687553    1013.0583  0.068859317  0.069418129            2 
 1227000    1.0656873    -3.978033     1012.967     0.068797  0.069405581            3 
 1228000    1.0585624   -3.9655321    1015.6228  0.068921199  0.069393034            3 
 1229000    1.0698024   -4.0016238    1010.3573  0.068508088  0.069380452            3 
 1230000    1.0445922   -3.9851913     1016.062  0.068838888  0.069367578            5 
 1231000    1.0732012    -3.967191    1011.1283  0.068448979  0.069354687            2 
 1232000    1.0419872   -3.9428449     1013.218  0.068534767  0.069341986            1 
 1233000    1.0458045    -3.979382    1011.9906  0.068396226  0.069328767            2 
 1234000    1.0595574   -3.9786207    1017.3945  0.068705733  0.069315106            3 
 1235000    1.0515955   -3.9548118    1016.1285  0.068564675  0.069301461            3 
 1236000    1.0443289   -3.9536733    1014.4888  0.068398649  0.069287784            2 
 1237000    1.0520488   -3.9890163    1012.8855  0.068235345  0.069274096            2 
 1238000    1.0617583   -3.9412073    1018.0907  0.068530608  0.069260421            2 
 1239000    1.0588616    -3.988273    1015.3106  0.068288312  0.069247106            3 
 1240000    1.0729374   -3.9662315    1017.1598  0.068357516  0.069233678            3 
 1241000    1.0420984   -4.0059168    1017.6454  0.068335037  0.069220208            1 
 1242000    1.0556844   -3.9925072    1017.9742  0.068302083  0.069206703            3 
 1243000    1.0517904   -3.9680901    1023.1282  0.068592665  0.069193942            2 
 1244000    1.0586678   -3.9678774    1023.0075  0.068529441  0.069180112            2 
 1245000    1.0564618   -3.9821455    1021.5558  0.068377231  0.069166394            4 
 1246000    1.0533398   -3.9816029    1022.8601  0.068409585  0.069152693            4 
 1247000    1.0488354   -3.9826504    1021.5841  0.068269451  0.069139579            3 
 1248000    1.0600412   -3.9577067    1024.9377  0.068438681  0.069126282            3 
 1249000    1.0729698   -3.9680935    1025.1349  0.068397045  0.069113133            2 
 1250000    1.0413858   -3.9802932    1025.7095  0.068380631   0.06909979            2 
 1251000     1.032066   -3.9631543     1027.096  0.068418335  0.069086736            2 
 1252000    1.0720281    -3.974818    1027.9164  0.068418289  0.069073627            2 
 1253000    1.0583625   -4.0014261    1031.8766  0.068627069  0.069060361            4 
 1254000    1.0484516   -3.9814393    1030.6768  0.068492613  0.069047348            3 
 1255000     1.056655   -3.9481644    1030.1874  0.068405537    0.0690343            1 
 1256000    1.0706307   -3.9972631    1028.9742  0.068270582  0.069021513            4 
 1257000    1.0567457   -3.9782765      1028.81  0.068205386  0.069008663            2 
 1258000    1.0648603     -3.96508    1031.2094  0.068310109  0.068995738            2 
 1259000    1.0516274   -3.9830535    1031.9892  0.068307469  0.068982908            2 
 1260000    1.0484698   -3.9945271    1031.8359  0.068243114  0.068969868            2 
 1261000    1.0455195   -3.9719785     1033.887  0.068324543  0.068957564            3 
 1262000    1.0552464    -4.005859    1037.0846  0.068481553  0.068945181            2 
 1263000    1.0732636   -4.0026695    1033.8316  0.068212698  0.068932432            3 
 1264000    1.0581211   -3.9806226    1037.1698  0.068378807   0.06892003            8 
 1265000    1.0216032   -3.9919336    1038.5513  0.068415766  0.068907818            3 
 1266000     1.059458   -3.9980497    1037.6224  0.068300581  0.068895508            2 
 1267000    1.0514374   -3.9637587    1041.4788  0.068500313  0.068883451            1 
 1268000    1.0536202   -3.9621386    1042.0701  0.068485157  0.068871558            5 
 1269000    1.0735298   -4.0045122     1037.789   0.06815005  0.068859302            4 
 1270000    1.0635343   -3.9878405    1043.6185  0.068478906  0.068846632            4 
 1271000    1.0573755     -3.98746     1044.449  0.068479477  0.068834175            2 
 1272000    1.0639608   -3.9802048    1037.7249  0.067985122  0.068821772           15 
 1273000    1.0824844   -4.0142758    1039.6912  0.068060432  0.068809466            2 
 1274000    1.0585569    -3.954364    1045.5857  0.068392573  0.068796794            1 
 1275000      1.03618   -3.9705431    1046.0137  0.068366912  0.068784346            5 
 1276000    1.0401811   -3.9833565    1044.7974  0.068233894  0.068772134            2 
 1277000    1.0639929   -3.9564234    1045.5697   0.06823086  0.068759987            3 
 1278000    1.0537019   -3.9463695    1047.8575  0.068326651  0.068747834            3 
 1279000    1.0577722   -3.9987388    1047.2885  0.068236155  0.068735462            5 
 1280000    1.0587467   -3.9974987    1046.3218  0.068119908  0.068723235            2 
 1281000    1.0390892   -4.0041347    1043.2686  0.067868111  0.068711387            7 
 1282000    1.0303746   -3.9822304    1051.6474  0.068359815   0.06869984            2 
 1283000    1.0284004   -3.9677441    1051.2185  0.068278676   0.06868837            7 
 1284000    1.0435416   -3.9784193    1052.1597  0.068286584   0.06867649            2 
 1285000     1.026802   -3.9866535     1053.563  0.068324451  0.068664761            2 
 1286000    1.0630833   -4.0287324    1050.1534  0.068050378  0.068652588            5 
 1287000    1.0772949   -3.9969483    1052.3594   0.06814034  0.068640855            2 
 1288000      1.01782   -3.9547886    1056.0336  0.068325158  0.068629125            3 
 1289000    1.0442953   -3.9831663    1056.0787  0.068275064    0.0686174            3 
 1290000    1.0232471   -3.9982165    1054.8464  0.068142535  0.068605564            5 
 1291000     1.052728   -3.9864655    1054.7987  0.068086672   0.06859415            4 
 1292000    1.0576063   -3.9890269    1056.3236  0.068132328  0.068582638            2 
 1293000    1.0384536   -3.9866662    1061.3917   0.06840627  0.068571136            2 
 1294000    1.0479262   -3.9836228    1058.7316  0.068182094  0.068560039            3 
 1295000    1.0367819   -4.0208741    1053.1039  0.067767303  0.068548795            2 
 1296000    1.0430766    -4.008887    1060.4559  0.068187752  0.068537464            4 
 1297000    1.0492925   -3.9824641    1059.4619  0.068071315  0.068526337            3 
 1298000    1.0363421   -3.9921857    1063.0411  0.068248656  0.068514887            1 
 1299000    1.0449035   -3.9733531    1058.0493  0.067875887  0.068503445            3 
 1300000    1.0497091   -3.9819195     1065.583  0.068306601  0.068492121            2 
 1301000    1.0301555   -4.0471969    1063.6179   0.06812823  0.068480758            3 
 1302000     1.027134   -3.9672184    1064.7399  0.068147718  0.068468987            1 
 1303000    1.0680607   -4.0041688    1059.9693  0.067790313  0.068457277            1 
 1304000    1.0395937    -3.976149    1065.7617  0.068108494  0.068445658            2 
 1305000    1.0433801   -3.9769414    1074.1637  0.068592826  0.068434141            2 
 1306000    1.0352313   -3.9878328    1067.6849   0.06812691  0.068422631            2 
 1307000    1.0586629   -3.9828652    1068.3809  0.068119161   0.06841094            3 
 1308000    1.0733613   -4.0220778    1066.6281  0.067955412  0.068399233            3 
 1309000    1.0326677   -4.0064318    1069.3849  0.068078995  0.068387157            3 
 1310000    1.0514763   -3.9963045    1068.9422  0.067998868  0.068374918            3 
 1311000    1.0398272    -4.024434    1063.4027  0.067594881   0.06836258            1 
 1312000    1.0333064   -3.9891275    1067.3404  0.067793472  0.068349956            5 
 1313000    1.0491712   -3.9869793    1068.8284  0.067836279  0.068337122            2 
 1314000    1.0520311   -4.0178897    1067.5668  0.067704643  0.068324763            3 
 1315000     1.034875   -3.9737264    1072.6542  0.067975552  0.068312544            2 
 1316000     1.018412   -4.0272101    1066.5455  0.067537079  0.068300362            3 
 1317000    1.0411316   -3.9866603    1070.5492  0.067739128   0.06828799            3 
 1318000    1.0345414    -3.984349    1075.5516  0.068004022  0.068275404            2 
 1319000     1.034714   -4.0377986    1067.5144   0.06744468  0.068262699            2 
 1320000    1.0457798    -4.000062    1071.0779  0.067618552  0.068249982            2 
 1321000    1.0486666    -4.011141    1067.3639  0.067333072  0.068236893            2 
 1322000    1.0385289   -3.9914972    1076.1022  0.067832968  0.068224341            2 
 1323000    1.0338462   -3.9990169    1075.3368  0.067733485  0.068212052            5 
 1324000    1.0433179   -4.0128756    1072.0054  0.067472644  0.068199699            3 
 1325000    1.0597032    -3.995366    1074.5649  0.067582696  0.068187281            3 
 1326000    1.0392919   -4.0065491    1075.9115  0.067616356  0.068175332            4 
 1327000    1.0550213   -4.0125847    1074.5515  0.067479998  0.068163287            2 
 1328000    1.0260315   -3.9886624     1076.947  0.067579508  0.068150887            3 
 1329000    1.0389539   -4.0128437    1080.0721  0.067724612   0.06813846            3 
 1330000     1.067745   -4.0228171    1078.4971  0.067575007  0.068125636            3 
 1331000     1.034347   -3.9958926    1079.3207    0.0675758  0.068112962            1 
 1332000     1.038073   -4.0056675    1081.2886  0.067648187  0.068100967            4 
 1333000    1.0535897   -3.9821129    1083.9613  0.067764522  0.068088797            3 
 1334000    1.0631631   -3.9719083    1082.6083  0.067629203  0.068076693            1 
 1335000     1.042573   -4.0226545    1082.1184  0.067547965   0.06806415            4 
 1336000    1.0517754   -4.0010024    1077.0817  0.067183242  0.068051709            2 
 1337000    1.0309958   -4.0070567    1082.2908  0.067457666  0.068038974            2 
 1338000    1.0523192   -3.9947573     1083.111  0.067458334   0.06802614            2 
 1339000    1.0445228   -4.0279463    1079.5813  0.067188283  0.068013395            2 
 1340000    1.0652728   -4.0060942     1086.138  0.067545896  0.068000848            4 
 1341000     1.042133   -4.0047949    1085.6266  0.067463746  0.067988011            3 
 1342000    1.0480193   -4.0369003    1084.7135  0.067356775  0.067975519            2 
 1343000    1.0430021   -4.0027818    1084.1756  0.067273242  0.067963211            2 
 1344000    1.0224356   -3.9864834    1087.6738  0.067440093  0.067950629            2 
 1345000    1.0419586   -4.0030973    1087.6523  0.067388619  0.067938414            4 
 1346000    1.0192132   -4.0275161     1086.444  0.067263745  0.067925515            3 
 1347000      1.04399   -4.0294659    1086.4013  0.067211167  0.067912786            2 
 1348000    1.0554496   -3.9917436    1087.5561  0.067232694  0.067900516            4 
 1349000     1.030756   -4.0040463    1086.2141  0.067099955  0.067888121            3 
 1350000    1.0266845   -3.9748448    1097.1834  0.067727368  0.067875861            4 
 1351000    1.0358926     -3.99613    1092.1544  0.067367036  0.067863211            1 
 1352000    1.0440918   -4.0262628    1093.1842  0.067380685  0.067850636            2 
 1353000    1.0188667   -4.0003031    1093.4162  0.067345171  0.067838005            3 
 1354000    1.0274486   -4.0126118    1089.6783  0.067065379  0.067825644            1 
 1355000     1.038193   -4.0154229    1091.1945   0.06710913  0.067813177            2 
 1356000    1.0360854   -3.9934027    1098.5677  0.067512763  0.067800572            2 
 1357000    1.0360892    -4.019432    1092.8653   0.06711283  0.067787975            2 
 1358000    1.0538007   -4.0039649    1100.0083  0.067501735  0.067775909            2 
 1359000    1.0323344   -3.9871848    1095.6328   0.06718376  0.067764106            5 
 1360000    1.0322268   -3.9923393    1098.0799  0.067284307  0.067751989            4 
 1361000    1.0390481   -4.0109586    1100.1183  0.067359681  0.067739945            2 
 1362000     1.022028   -4.0169965    1098.7069  0.067223871  0.067727455            2 
 1363000    1.0427334   -3.9999981    1095.7815  0.066995692  0.067715134            3 
 1364000   0.99846397   -4.0260935    1099.1063    0.0671497  0.067702452            2 
 1365000    1.0473741   -3.9727989    1105.2131  0.067473325  0.067690185            4 
 1366000    1.0470749   -4.0217433    1098.7249  0.067028118  0.067677894            2 
 1367000    1.0412283    -3.989229    1101.7696  0.067164694   0.06766552            3 
 1368000    1.0232627    -4.021619    1102.0947  0.067135398    0.0676532            2 
 1369000    1.0377747   -4.0273964    1098.7747  0.066884264  0.067641197            3 
 1370000    1.0430191   -4.0195917    1102.0231  0.067033037  0.067629264            1 
 1371000    1.0271619   -4.0052497    1105.7261  0.067209222  0.067617105            2 
 1372000    1.0207935   -4.0251689    1104.7728   0.06710233  0.067605116            2 
 1373000    1.0248083   -4.0397858    1105.5726  0.067102005  0.067593523            3 
 1374000    1.0303245   -3.9886479    1105.1497  0.067027518  0.067581546            2 
 1375000    1.0385805   -4.0052981    1107.7776  0.067138038  0.067569876            2 
 1376000    1.0120764   -4.0041352    1108.2934  0.067120483  0.067558575            3 
 1377000    1.0518569   -3.9957554     1113.121  0.067363896  0.067547252            4 
 1378000    1.0317282   -4.0343966    1110.5972  0.067162385  0.067535835            7 
 1379000    1.0482119    -4.001934    1114.8084  0.067368163  0.067524198            2 
 1380000    1.0197399   -4.0203187    1114.6426  0.067309338  0.067512998            2 
 1381000     1.056643   -4.0276577    1114.2941  0.067239564  0.067501155            1 
 1382000    1.0337212   -4.0601379    1107.0849  0.066756207  0.067489474            3 
 1383000    1.0204007   -4.0126479    1113.4992  0.067094435  0.067477538            2 
 1384000    1.0142026    -4.007739    1111.1316  0.066903394  0.067466139            2 
 1385000    1.0223201   -4.0038481    1118.7819  0.067315395  0.067454693            3 
 1386000    1.0171327   -3.9876979    1117.9472  0.067216646  0.067443205            2 
 1387000    1.0174724   -4.0073342    1114.6803    0.0669719  0.067431818            2 
 1388000    1.0087699   -3.9950946    1117.8741    0.0671154  0.067420791            1 
 1389000    1.0334659   -4.0243069    1118.0711  0.067078898  0.067409423            5 
 1390000    1.0114429   -4.0097148    1120.4875  0.067175512  0.067397883            5 
 1391000    1.0193308   -4.0058322    1123.8696  0.067329837  0.067386592            2 
 1392000    1.0375995   -4.0011637    1122.0193  0.067170698  0.067375295            2 
 1393000    1.0355353   -4.0261917    1119.2743  0.066958259  0.067364298            3 
 1394000    1.0285778   -4.0481336    1122.3556   0.06709443  0.067352743            6 
 1395000    1.0399206   -4.0097864    1125.8514  0.067255161  0.067341394            4 
 1396000    1.0271562   -4.0174096    1124.0128  0.067097228  0.067329845            2 
 1397000    1.0364349   -4.0231315    1117.2982  0.066648662  0.067317972            3 
 1398000    1.0185184   -4.0198457    1121.5178  0.066852516  0.067305678            2 
 1399000    1.0412589   -4.0147996    1122.7747  0.066879598  0.067293339            5 
 1400000     1.041967    -4.014341    1123.1382  0.066853464  0.067281326            2 
 1401000    1.0179277   -4.0288972     1123.566  0.066831192  0.067269292            6 
 1402000    1.0308873   -4.0032981    1128.0303  0.067048879  0.067257266            2 
 1403000     1.027343   -4.0173734    1124.5523  0.066794508  0.067245337            3 
 1404000    1.0292275   -4.0330574     1125.498  0.066803061  0.067233402            3 
 1405000    1.0132148   -4.0457294    1119.6738  0.066410071  0.067220955            2 
 1406000    1.0251362   -4.0337691    1127.5206  0.066827915  0.067208554            3 
 1407000    1.0423389   -4.0125946    1127.8543  0.066800184  0.067196431            2 
 1408000    1.0635861    -4.017846    1128.0026  0.066761519  0.067184539            2 
 1409000    1.0117558   -4.0454776     1126.919  0.066650047  0.067172885            5 
 1410000    1.0365711   -4.0046172    1132.7388  0.066946739  0.067161232            2 
 1411000    1.0219311    -4.023454    1130.4018  0.066761271  0.067149582            2 
 1412000    1.0267677    -4.011524    1133.8706  0.066918707  0.067138281            3 
 1413000     1.024761   -4.0047547    1132.3305  0.066780522  0.067126528            3 
 1414000     1.001471   -4.0195363      1133.84  0.066822251   0.06711501            2 
 1415000    1.0223373   -4.0300417     1135.797   0.06689028  0.067103139            2 
 1416000    1.0241439   -4.0300705    1139.0036  0.067031756  0.067091506            2 
 1417000    1.0241621   -4.0609588    1130.6651  0.066494065  0.067079757            5 
 1418000    1.0012837   -4.0134531    1139.0848  0.066941984  0.067068177            7 
 1419000     1.002055   -4.0111862    1136.6267  0.066750451  0.067056709            2 
 1420000    1.0535148   -4.0186828    1139.0945   0.06684827  0.067045518            2 
 1421000     1.012767   -4.0101819    1139.3032  0.066813467  0.067034354            5 
 1422000     1.039193   -4.0246315    1138.2056  0.066702158  0.067023403            2 
 1423000    1.0270496   -4.0210328     1139.907   0.06675492  0.067012379            5 
 1424000    1.0219611   -4.0608497    1139.8561  0.066705062  0.067001118            2 
 1425000    1.0439496   -4.0216251    1139.7356  0.066651205  0.066989836            5 
 1426000     1.041893   -4.0357845    1139.4539  0.066588002  0.066978442            4 
 1427000    1.0053618   -3.9903294    1140.5536   0.06660556  0.066966819            2 
 1428000    1.0043326   -4.0365113    1139.9806  0.066525477   0.06695511            2 
 1429000    1.0322845   -4.0285254    1145.0086  0.066772137  0.066943562            3 
 1430000    1.0247561   -3.9932591    1143.1625  0.066617864  0.066932205            3 
 1431000    1.0346605   -4.0189898    1149.7829  0.066956844   0.06692081            4 
 1432000    1.0316048   -3.9983459    1152.3253  0.067058034   0.06691002            4 
 1433000    1.0160438   -3.9936568     1150.819  0.066923645  0.066898981            1 
 1434000     1.008433   -4.0173393    1147.5108  0.066684729  0.066887765            3 
 1435000   0.99959053   -4.0306342    1150.9627  0.066838716  0.066876325            2 
 1436000    1.0158002    -4.064991    1146.3788  0.066526161  0.066865073            3 
 1437000     1.009823   -4.0228856    1150.8727  0.066740474  0.066853254            3 
 1438000    1.0116361   -4.0148966    1148.7161  0.066569084  0.066841913            4 
 1439000    1.0153714    -4.011994    1147.0349  0.066425461  0.066830865            2 
 1440000    1.0042166   -3.9927588    1155.5184  0.066870277  0.066820278            2 
 1441000    1.0319288   -3.9889246    1153.0454  0.066680856  0.066809352            3 
 1442000    1.0115222   -4.0379594    1149.2036  0.066412598  0.066798297            3 
 1443000    1.0328431   -4.0007929    1153.4102  0.066609507  0.066787136            2 
 1444000    1.0144869   -4.0426856    1152.7432  0.066524887  0.066775562            3 
 1445000      1.02185   -4.0440577    1153.1599   0.06650288  0.066763963            7 
 1446000    1.0310883   -4.0497599    1150.6739  0.066313616  0.066752773            3 
 1447000    1.0022344   -4.0168393    1153.0591  0.066405157  0.066741498            2 
 1448000    1.0026778   -4.0282141    1152.3131  0.066316364  0.066729925            3 
 1449000    1.0068352   -4.0411145    1156.3986  0.066505554  0.066718802            4 
 1450000    1.0236186   -4.0094238    1161.4274  0.066748701  0.066707783            2 
 1451000    1.0175682   -4.0192003    1158.1458  0.066514229  0.066696733            4 
 1452000    1.0247114   -4.0422351    1159.2606  0.066532403  0.066685197            1 
 1453000    1.0243659   -4.0455232    1156.3033  0.066317007  0.066673864            5 
 1454000    1.0069307   -4.0157521    1160.9593  0.066538244  0.066662506            2 
 1455000    1.0076972   -4.0146275    1162.0975  0.066557701  0.066651442            3 
 1456000     1.010071   -4.0312308    1156.8562  0.066212008  0.066639857            3 
 1457000    1.0337683   -4.0389176    1157.5443   0.06620592  0.066628463            5 
 1458000    1.0237181   -4.0319756    1157.9461  0.066183475   0.06661691            4 
 1459000    1.0110515   -4.0060069    1159.9478  0.066252445  0.066605669            2 
 1460000    1.0186062   -4.0383159    1158.5752  0.066128723  0.066594352            4 
 1461000     1.029072   -4.0137032    1157.1834  0.066004075  0.066582468            3 
 1462000    1.0292078   -4.0359594     1164.598  0.066381553  0.066570798            2 
 1463000    1.0151127   -4.0338372    1161.0903  0.066136382  0.066559371            2 
 1464000    1.0140868    -4.042636    1160.7499  0.066071828  0.066547332            2 
 1465000    1.0196282   -4.0435273    1164.1346  0.066219263  0.066535535            2 
 1466000    1.0299956   -4.0077975    1168.5672  0.066426059  0.066523589            2 
 1467000    1.0202276   -4.0145388    1163.7909  0.066109455   0.06651177            2 
 1468000    1.0309119   -4.0350631    1166.0895  0.066194908  0.066500108            2 
 1469000    1.0010451    -4.062976    1160.2451  0.065818305  0.066488057            2 
 1470000    1.0354938   -4.0454875    1166.2066  0.066111488  0.066475671            4 
 1471000    1.0214827   -4.0068842    1168.2279  0.066181049  0.066463972            2 
 1472000    1.0063256   -4.0496232    1164.2794  0.065912559  0.066452234            4 
 1473000    1.0026615   -4.0680719    1163.9174  0.065847332  0.066440441            2 
 1474000     1.004699   -4.0518982    1169.0308  0.066091747  0.066428644            2 
 1475000   0.99420679   -4.0458723     1167.227  0.065945029  0.066416792            2 
 1476000    1.0255282   -4.0646584    1168.9634  0.065998388  0.066405605            7 
 1477000    1.0119289   -4.0370381    1167.2086  0.065854694  0.066393546            3 
 1478000    1.0116472   -4.0258964    1172.8829  0.066130068  0.066381639            3 
 1479000    1.0168607   -4.0577253    1171.2994  0.065996136  0.066370012            4 
 1480000    1.0122815   -4.0326097    1173.3323   0.06606601  0.066358036            4 
 1481000    1.0054592   -4.0290212    1174.8552  0.066107088  0.066346651            5 
 1482000    1.0228355   -4.0004306    1176.3741  0.066147891   0.06633525            2 
 1483000    1.0243407   -4.0083747    1180.4602  0.066332893  0.066323841            3 
 1484000    1.0252246   -4.0780128    1174.3888  0.065947257  0.066312339            4 
 1485000   0.99621649   -4.0439362    1176.9268  0.066045273  0.066300769            3 
 1486000    1.0143771     -4.02869    1178.0546  0.066064075  0.066289212            3 
 1487000    1.0231885    -4.011282    1175.5961  0.065881872  0.066277561            3 
 1488000   0.99539281   -4.0421018    1175.6795  0.065842266   0.06626611            2 
 1489000    1.0319763    -4.018077    1177.6935  0.065910763  0.066254548            2 
 1490000    1.0273847   -4.0295766    1186.8791  0.066380264  0.066243188            4 
 1491000    1.0096614   -4.0439175    1182.4757  0.066089635  0.066231913            3 
 1492000   0.98469282   -4.0378492    1180.8786  0.065956131  0.066220421            2 
 1493000    1.0166455   -4.0597414    1178.5287  0.065780793  0.066208802            3 
 1494000   0.99464929   -4.0320563    1182.9343  0.065982502  0.066197001            4 
 1495000    1.0222661   -4.0175796    1183.8353   0.06598859  0.066185118            2 
 1496000    1.0398084   -4.0666249    1181.2764   0.06580194  0.066173555            1 
 1497000   0.99701083   -3.9909438    1187.8471  0.066123752  0.066161711            4 
 1498000    1.0081256   -4.0415658    1183.7898  0.065853906  0.066149957            3 
 1499000   0.99883546   -4.0486487    1185.5993  0.065910569  0.066138635            3 
 1500000    1.0463727   -4.0127022    1187.4111  0.065967284  0.066127109            2 
 1501000    1.0349481   -4.0348461    1187.1274  0.065907586  0.066115605            3 
 1502000    1.0074839   -4.0662665    1184.2591  0.065704566  0.066103927            3 
 1503000    1.0063289   -4.0233379    1188.3933  0.065890069  0.066091949            2 
 1504000     1.006868   -4.0395419    1184.5025   0.06563068  0.066079837            3 
 1505000    1.0068538   -4.0468808    1185.9872   0.06566928  0.066067731            6 
 1506000   0.99388338   -4.0529421    1184.0431  0.065518102  0.066055525            3 
 1507000    1.0250637   -4.0402015    1186.5158  0.065611355  0.066043351            3 
 1508000    1.0137809   -4.0614237    1184.7631  0.065470992  0.066030794            4 
 1509000   0.99523621    -4.038599    1191.9459   0.06582427   0.06601865            6 
 1510000    1.0178511   -4.0387091    1187.0087  0.065508208  0.066006317            2 
 1511000    1.0138452   -4.0341141    1191.2531  0.065698935   0.06599372            3 
 1512000    1.0108938   -4.0673872    1187.5703  0.065452505  0.065981214            2 
 1513000    1.0075149   -4.0456398    1190.0291  0.065544673  0.065968843            4 
 1514000    1.0343388   -4.0734309    1186.8931  0.065328772  0.065956742            3 
 1515000    1.0145985   -4.0326992    1193.6818  0.065659063  0.065944723            5 
 1516000   0.99123255   -4.0486814    1187.4333  0.065272279   0.06593283            3 
 1517000    1.0070209   -4.0499237    1188.9526  0.065312713  0.065920579            5 
 1518000    1.0199699   -4.0469647    1191.7909  0.065425499   0.06590837            3 
 1519000   0.99816322   -4.0405412    1193.6583  0.065484877  0.065896368            2 
 1520000    1.0113558   -4.0660718    1192.5185  0.065379306  0.065883796            2 
 1521000    1.0062972   -4.0466034     1192.643  0.065343143   0.06587145            5 
 1522000    1.0139613   -4.0796448    1192.0493  0.065267702  0.065859172            4 
 1523000     1.010588   -4.0571667    1194.7264  0.065371329  0.065846741            2 
 1524000    1.0093114   -4.0279986    1196.6662  0.065434502   0.06583462            2 
 1525000   0.98858872   -4.0548185    1197.4631  0.065435141  0.065822774            5 
 1526000    1.0132635   -4.0622528    1200.0859  0.065535492  0.065810763            4 
 1527000    1.0097128   -4.0488491    1197.9181  0.065374268  0.065798851            4 
 1528000    1.0160347   -4.0666016    1199.2519  0.065404227  0.065786947            3 
 1529000    1.0109248   -4.0650356    1203.0485  0.065568372  0.065774915            4 
 1530000    1.0069179   -4.0360298    1203.0131  0.065523591  0.065762813            2 
 1531000    1.0112255   -4.0601984    1201.4826  0.065397485  0.065750857            3 
 1532000   0.99870654   -4.0651863    1197.4112  0.065133331  0.065738637            2 
 1533000   0.97642812   -4.0507509    1205.5146  0.065531343  0.065726597            3 
 1534000    1.0375402   -4.0182307     1206.835  0.065560356  0.065714535            3 
 1535000   0.99474966   -4.0446031    1201.9431  0.065252069  0.065702861            3 
 1536000    1.0121362    -4.084177    1199.5779  0.065081268  0.065690723            3 
 1537000    1.0121159   -4.0695537    1203.3811  0.065245123  0.065678764            4 
 1538000    1.0116361   -4.0602355    1209.7086  0.065545546  0.065666854            4 
 1539000   0.99205172   -4.0751993    1205.1218  0.065254593  0.065655222            3 
 1540000   0.99032498   -4.0556946    1210.1196  0.065482663  0.065643515            3 
 1541000   0.99976964   -4.0626832    1208.2946  0.065341478  0.065631926            7 
 1542000   0.99755768   -4.0489327    1211.6362  0.065479693  0.065620098            5 
 1543000    1.0158854   -4.0626713    1208.7645  0.065282159  0.065608157            3 
 1544000    1.0210849   -4.0273131    1209.8653  0.065299293  0.065596819            4 
 1545000    1.0110732   -4.0773907    1210.2638  0.065278521  0.065585145            4 
 1546000    1.0087265   -4.0609879    1213.1707  0.065392988  0.065573751            3 
 1547000    1.0219843   -4.0242187     1215.574  0.065480177  0.065562372            4 
 1548000    1.0163794   -4.0545796    1210.6254  0.065171481  0.065551079            2 
 1549000    1.0195682    -4.055369    1216.9547  0.065469913  0.065539529            2 
 1550000    0.9783755   -4.0387597    1219.5988  0.065569828  0.065528259            5 
 1551000    1.0080869   -4.0460624    1216.1267  0.065341001  0.065517013            2 
 1552000     1.002685   -4.0719074    1216.9647  0.065343894  0.065506184            5 
 1553000   0.98671409   -4.0413573    1213.0937  0.065094105  0.065494773            2 
 1554000    1.0182808   -4.0614942    1217.3234  0.065279031  0.065483592            4 
 1555000    1.0023721   -4.0890096    1218.2542  0.065286932  0.065472336            4 
 1556000   0.99574794   -4.0445176    1218.3792  0.065251674  0.065461442            4 
 1557000    1.0006102   -4.0548134     1223.365  0.065476609  0.065450574            4 
 1558000   0.99693282   -4.0431994    1220.0418  0.065256835   0.06543945            1 
 1559000   0.99377307   -4.0850835    1220.8466  0.065257999  0.065428258            3 
 1560000   0.98381294   -4.0615042    1221.4688  0.065249401  0.065417325            5 
 1561000   0.97919884   -4.0607249    1224.1126  0.065348739   0.06540624            2 
 1562000    1.0013221   -4.0610441    1225.0932  0.065359217  0.065395139            4 
 1563000   0.99974141   -4.0929907    1226.2312  0.065378077  0.065384282            1 
 1564000   0.99425962   -4.0899831    1229.2172  0.065495373  0.065373712            2 
 1565000    1.0081657   -4.0753097    1223.4291  0.065145321  0.065362611            7 
 1566000    1.0144805    -4.060685    1225.9943  0.065240222  0.065351654            3 
 1567000    1.0092187   -4.0648025    1224.9259  0.065141773  0.065340879            4 
 1568000   0.99280935   -4.0549192    1223.7759  0.065039111  0.065329987            2 
 1569000     1.004389   -4.0762366    1227.2435  0.065181831  0.065319408            5 
 1570000    1.0056923    -4.026165     1229.621   0.06526651  0.065308447            2 
 1571000    1.0046786   -4.0763109    1227.0302  0.065087534  0.065297416            1 
 1572000   0.99617869   -4.0834024    1227.9135  0.065092952  0.065286547            3 
 1573000   0.98373702   -4.0323831    1233.9894  0.065373461  0.065276003            2 
 1574000    1.0236061   -4.0485321    1230.7147   0.06515855   0.06526551            4 
 1575000   0.99891238   -4.0689252    1235.1571  0.065352228  0.065255212            2 
 1576000    1.0189937   -4.0697729     1239.793  0.065555892  0.065244651            5 
 1577000   0.99320167   -4.0672668    1233.9163   0.06520378  0.065234143            2 
 1578000     1.012367   -4.0856979    1233.7918  0.065155882  0.065223902            8 
 1579000   0.99266326   -4.0580819    1236.4364  0.065254188  0.065213451            3 
 1580000   0.99847759   -4.0402295    1240.5789  0.065431379  0.065203442            3 
 1581000   0.99495232   -4.0902454    1238.3854  0.065274373  0.065193514            2 
 1582000    1.0067936   -4.0419973    1236.7912  0.065149138  0.065183222            2 
 1583000   0.98130944    -4.052487    1238.5092   0.06519842  0.065172732            2 
 1584000    1.0123821   -4.0473948    1239.0998   0.06518833  0.065162457            3 
 1585000    1.0183995   -4.0674872     1239.059   0.06514506  0.065152036            4 
 1586000    1.0143663   -4.1034703    1234.7515  0.064877656  0.065141335            2 
 1587000   0.99437144   -4.0687925     1240.331  0.065129755  0.065131197            5 
 1588000    1.0006672   -4.0854838    1245.8517  0.065378448  0.065121128            3 
 1589000   0.99557771   -4.0551879    1245.8357  0.065336462  0.065110917            6 
 1590000   0.99960962   -4.0244898    1247.3986  0.065377284  0.065101121            4 
 1591000   0.99624409   -4.0663732    1242.7243  0.065091365  0.065091022            3 
 1592000   0.99072151   -4.0940748    1242.4327  0.065035215  0.065080991            1 
 1593000    1.0021906   -4.0536988    1247.4922  0.065259061  0.065070733            4 
 1594000   0.98546877   -4.0724903    1246.7703  0.065180379  0.065060668            3 
 1595000    0.9932563   -4.1042456     1245.186  0.065056739  0.065050637            2 
 1596000   0.99139578   -4.0388676    1251.8467  0.065363757  0.065040693            3 
 1597000   0.99065152   -4.0751405    1245.2977  0.064981092  0.065030616            2 
 1598000   0.99953075   -4.0686308    1246.0216  0.064978179  0.065020485            3 
 1599000   0.98954408   -4.0831053    1242.1522  0.064735886  0.065009926            2 
 1600000    0.9978978   -4.0873007    1251.6728  0.065191294  0.064999533            3 
 1601000    1.0132786   -4.0998091     1246.244  0.064867997  0.064988852            3 
 1602000   0.98832596   -4.0701666    1247.6015  0.064898121  0.064978659            3 
 1603000   0.99976895   -4.0831856    1252.4359   0.06510896   0.06496845            2 
 1604000   0.98834021   -4.0638245    1252.4408   0.06506862  0.064958147            2 
 1605000   0.99157046   -4.0674763    1253.5123  0.065083711  0.064947885            2 
 1606000    1.0016701   -4.0674938    1248.7748  0.064797365  0.064937507            2 
 1607000   0.98184465   -4.0924959     1244.631  0.064542158  0.064926495            5 
 1608000    1.0010896   -4.0644895    1251.3426  0.064849845  0.064915829            4 
 1609000   0.98714866   -4.0799493    1247.2043  0.064595211  0.064905411            4 
 1610000    1.0072858    -4.052231     1253.765  0.064894667  0.064894364            6 
 1611000   0.98065908   -4.0815026    1247.5053  0.064530589  0.064883426            3 
 1612000    1.0224736   -4.0871642     1248.661    0.0645503  0.064872367            5 
 1613000    0.9977176   -4.0819708    1255.8964  0.064884088   0.06486124            2 
 1614000    1.0018857   -4.0893763    1256.5599  0.064878145   0.06485028            2 
 1615000    1.0184804   -4.0764492    1254.2699  0.064719809  0.064839188            2 
 1616000   0.99046013   -4.0895128    1254.3663   0.06468473  0.064828168            3 
 1617000   0.99066841   -4.0875375     1250.946  0.064468458  0.064816645            3 
 1618000    1.0071373   -4.0545197    1253.2328  0.064546396  0.064805528            3 
 1619000   0.99591406   -4.0521526    1253.8056   0.06453601    0.0647942            2 
 1620000    1.0235337     -4.02403    1252.6329  0.064435851  0.064782921            2 
 1621000   0.95583468   -4.0642606    1251.9259  0.064359753  0.064771661            4 
 1622000    0.9967008   -4.0938293    1253.1614  0.064383547   0.06476008            2 
 1623000   0.99156913   -4.0963932     1254.401  0.064407527  0.064748199            2 
 1624000    1.0035839   -4.0655969     1262.445  0.064780634  0.064736733            3 
 1625000   0.96530052   -4.0683785    1260.0952  0.064620267  0.064725074            3 
 1626000   0.98349678   -4.0714045    1252.3217  0.064182127  0.064713447            2 
 1627000   0.99831531    -4.053149    1258.3715  0.064452548   0.06470182            1 
 1628000    0.9936702   -4.0565482    1255.8202   0.06428236   0.06469005            2 
 1629000   0.98863771   -4.0723874    1257.2139  0.064314193  0.064678149            2 
 1630000    0.9989328   -4.0638055    1256.1318  0.064219419  0.064666431            3 
 1631000    1.0112398   -4.0610102     1262.884  0.064525033  0.064654815            3 
 1632000   0.98534008   -4.0763892    1257.5262  0.064211915  0.064642995            3 
 1633000   0.98390995   -4.0871555     1256.193  0.064104562  0.064630837            2 
 1634000   0.98590311   -4.0907247    1258.0657  0.064160836  0.064618633            2 
 1635000   0.99742836   -4.0663336    1265.7925  0.064515419  0.064606463            6 
 1636000   0.98617795   -4.1161842    1258.3597  0.064097375  0.064594564            4 
 1637000    1.0027072   -4.0766652    1258.9346  0.064087488  0.064582541            3 
 1638000   0.97831567   -4.0950635    1258.4661  0.064024527  0.064570679            6 
 1639000   0.97942184   -4.0879034    1261.0867  0.064118706  0.064558781            4 
 1640000   0.99861598   -4.0822676    1259.9164  0.064020142   0.06454718            3 
 1641000   0.99180787   -4.0699799    1265.8927  0.064284619  0.064535703            2 
 1642000   0.96087462   -4.0628477    1273.7591  0.064644697  0.064524341            3 
 1643000   0.97093979   -4.1067587    1264.2423  0.064122658  0.064512593            3 
 1644000    1.0001081   -4.0707769    1266.5296  0.064199592  0.064500752            5 
 1645000    0.9925946   -4.0958154    1268.0382  0.064236992   0.06448896            5 
 1646000   0.96279517   -4.0802513    1262.4897  0.063917054  0.064477051            3 
 1647000   0.97262996   -4.0773234    1266.0771   0.06405976  0.064465253            3 
 1648000   0.98121311   -4.0827891    1262.5267  0.063841357  0.064453165            2 
 1649000    0.9853139    -4.105762    1264.3322  0.063893887  0.064441132            5 
 1650000   0.99566707   -4.1057088    1267.6679  0.064023634  0.064429177            2 
 1651000   0.98661235   -4.1035429     1264.552  0.063827581  0.064417025            2 
 1652000   0.99146919   -4.0843771    1270.8854  0.064108423  0.064404598            3 
 1653000   0.98412259   -4.0740845    1269.5032  0.063999958  0.064392547            2 
 1654000     1.023969   -4.0794712    1272.0645  0.064090309  0.064380516            2 
 1655000   0.98554396    -4.088507     1270.251   0.06396027  0.064368755            2 
 1656000   0.96759469   -4.0919089    1270.8543   0.06395201  0.064356873            4 
 1657000   0.98137896    -4.082174    1273.2234  0.064032557  0.064344988            2 
 1658000   0.98435264   -4.1023401    1267.4596  0.063704244  0.064332757            3 
 1659000   0.99822574   -4.0937133    1274.7273   0.06403091  0.064320283            2 
 1660000   0.98422796   -4.0837833    1274.4842   0.06398013    0.0643083            3 
 1661000   0.98223302   -4.0668385    1270.4177  0.063737592  0.064296318            4 
 1662000   0.97181206   -4.1165492    1271.1218  0.063734547  0.064284346            5 
 1663000   0.96486306   -4.0914245    1273.2792  0.063804328  0.064272263            2 
 1664000   0.98088357   -4.0945763    1275.6912   0.06388678  0.064260085            4 
 1665000   0.96785309   -4.1136504    1268.4173  0.063484348  0.064247863            3 
 1666000   0.98808162   -4.1162477    1278.8795  0.063969565  0.064235844            2 
 1667000     0.963187    -4.103641    1280.1895  0.063996677  0.064224032            4 
 1668000   0.95709607   -4.0926399    1276.2485  0.063761415  0.064212226            3 
 1669000   0.97750505   -4.0713172    1281.3663  0.063978746  0.064200376            4 
 1670000   0.97559774   -4.1056236     1275.014  0.063623454  0.064188322            3 
 1671000   0.99058191   -4.1045099    1278.9627  0.063782302  0.064176441            4 
 1672000   0.97857204   -4.0512156    1286.3745   0.06411356   0.06416498            4 
 1673000   0.99674195   -4.0732197    1281.5124  0.063833052  0.064153414            3 
 1674000   0.98507157   -4.1205258    1276.5266  0.063546725  0.064141611            3 
 1675000   0.99339523   -4.0745123    1279.7205  0.063667686  0.064129618            3 
 1676000   0.96743089   -4.0782823    1285.4909   0.06391661  0.064117928            3 
 1677000   0.95679374   -4.1010999    1285.1199  0.063860064  0.064105989            2 
 1678000   0.97228036   -4.0824248     1289.786  0.064053735  0.064094297            2 
 1679000   0.98390966   -4.0322719    1290.4406  0.064048075  0.064082798            3 
 1680000   0.98076866   -4.0843962    1288.3147  0.063904499  0.064071483            3 
 1681000   0.99300878   -4.0926194    1288.4185  0.063871631  0.064059968            4 
 1682000    0.9912177   -4.0918532    1284.2602  0.063627637  0.064048272            4 
 1683000   0.99761437   -4.1175452    1286.3366  0.063692643  0.064036832            1 
 1684000    0.9799663   -4.0312198    1291.4862  0.063909649  0.064025385            2 
 1685000   0.99001151   -4.1002465    1292.0105  0.063897653  0.064013848            3 
 1686000   0.98430388   -4.0632139    1291.0024  0.063809924  0.064002138            3 
 1687000   0.99365526   -4.1170588    1287.2506  0.063586771  0.063990609            4 
 1688000   0.97747824   -4.1189845    1291.8743  0.063777364  0.063979127            3 
 1689000    0.9731199   -4.0802585      1294.44  0.063866193  0.063967442            3 
 1690000   0.98409234   -4.1142945    1294.4958  0.063831154  0.063956118            3 
 1691000   0.97927965   -4.1432781     1291.871  0.063664053  0.063944672            2 
 1692000   0.98081358   -4.0797986    1299.4188  0.063998169  0.063933087            4 
 1693000   0.97122964   -4.0846839    1296.8587  0.063834351  0.063921702            3 
 1694000    0.9525504    -4.106989     1295.623  0.063735884  0.063910392            3 
 1695000   0.98149423   -4.0976517     1289.547  0.063399557  0.063898796            3 
 1696000   0.99067265   -4.1148354     1292.728  0.063518475  0.063887243            4 
 1697000   0.98440001   -4.0582959    1300.5809   0.06386667  0.063875738            3 
 1698000   0.98286659   -4.1040665    1295.9305  0.063600831  0.063864161            1 
 1699000   0.96624249   -4.1184256    1295.3741  0.063536105   0.06385262            2 
 1700000   0.97956477   -4.1017217    1298.3967  0.063646898   0.06384135            2 
 1701000   0.98596455    -4.124649    1297.6493  0.063572865  0.063830206            4 
 1702000   0.98026133   -4.0984228    1299.6208  0.063632042  0.063818681            2 
 1703000   0.99188998   -4.1131191    1297.0555  0.063469146  0.063807052            3 
 1704000    0.9750614   -4.0639161    1297.8719  0.063471824  0.063795517            4 
 1705000    0.9702885    -4.100742    1299.4998  0.063514166  0.063783697            4 
 1706000   0.99772945   -4.0905312     1300.454  0.063523543  0.063771698            3 
 1707000   0.97986491   -4.0695847    1295.5394  0.063246408  0.063759822            2 
 1708000   0.97905036     -4.09845    1301.4477  0.063497643   0.06374802            3 
 1709000   0.96660242   -4.0736212    1300.1626  0.063397826  0.063736191            4 
 1710000   0.95834461   -4.0883713    1301.5266  0.063427224  0.063724017            4 
 1711000   0.97804851   -4.1043932    1302.5913  0.063442005  0.063712323            3 
 1712000     0.974641   -4.1041487     1305.796  0.063560942  0.063700406            1 
 1713000     0.984069   -4.1238926    1298.4718  0.063167535   0.06368848            2 
 1714000    0.9747725   -4.1029987    1299.6775  0.063189297  0.063676603            2 
 1715000   0.97083421   -4.0905978    1305.7478  0.063447413   0.06366461            3 
 1716000   0.98342306   -4.0780761    1306.4931  0.063446636  0.063652679            8 
 1717000   0.96738806   -4.0799112    1307.4884  0.063457989  0.063640698            2 
 1718000   0.98439619   -4.0856668    1303.8183  0.063243029  0.063628692            1 
 1719000   0.95623623   -4.0986754    1301.2425  0.063081372  0.063616817            2 
 1720000   0.97814675   -4.0619442    1310.3319  0.063485071  0.063605102            3 
 1721000     1.006798   -4.1012311    1307.3627  0.063304411  0.063593428            5 
 1722000   0.96443868   -4.1144056    1302.1022  0.063013074  0.063581394            3 
 1723000   0.96332011   -4.0942698    1299.9845  0.062874079  0.063569154            9 
 1724000    0.9852246   -4.0895904     1306.563  0.063155598  0.063557376            2 
 1725000   0.95807143   -4.1029147    1306.2827  0.063105446  0.063545482            2 
 1726000   0.97092324   -4.1018857    1312.0036  0.063345096  0.063533478            3 
 1727000   0.97645072    -4.055652    1314.0783  0.063408525  0.063521793            5 
 1728000   0.97650372   -4.1057875    1310.6167  0.063204896  0.063509871            6 
 1729000   0.98646727   -4.0934181    1312.1832  0.063243839  0.063498275            8 
 1730000   0.97378737   -4.0883775    1310.7101  0.063136326  0.063486534            2 
 1731000   0.97183805   -4.0804581    1315.1403   0.06331313  0.063474726            3 
 1732000   0.99033274   -4.1115314    1314.9646  0.063268122  0.063462815            5 
 1733000   0.99294085   -4.0862982     1314.172    0.0631935  0.063450999            2 
 1734000   0.96797821   -4.1310781    1312.9461  0.063098141   0.06343888            3 
 1735000   0.96388558   -4.0966569    1313.0164  0.063065151  0.063426905            3 
 1736000   0.96265528    -4.082795    1316.1169  0.063177655  0.063415255            4 
 1737000    0.9728473     -4.10648    1310.4221  0.062868074  0.063403636            4 
 1738000   0.98352697   -4.1402934    1320.1613  0.063298873  0.063391839            5 
 1739000   0.97355531   -4.1237143    1314.9754  0.063013964  0.063379761            1 
 1740000   0.97198914   -4.1054728    1314.0568  0.062933755  0.063367823            3 
 1741000   0.98723217     -4.09623    1318.0478  0.063088635  0.063356044            4 
 1742000   0.94852334    -4.101441    1315.2218  0.062917232  0.063344462            3 
 1743000   0.98113837   -4.1282934     1313.123  0.062780788  0.063332409            3 
 1744000   0.98417784   -4.1164351    1314.1883  0.062795693  0.063320285            2 
 1745000   0.99919141   -4.1153852    1320.4164  0.063057135  0.063308368            3 
 1746000   0.96282306   -4.0943018    1318.4314  0.062926281  0.063296099            3 
 1747000   0.97450536   -4.0824818    1321.6692  0.063044704   0.06328406            3 
 1748000    0.9580961   -4.1004576    1320.4197  0.062949071  0.063272135            3 
 1749000   0.98155966   -4.1224506    1318.1292  0.062803945  0.063260008            2 
 1750000   0.94900746   -4.0765495      1322.53  0.062977618  0.063248147            4 
 1751000   0.96000162   -4.1064232    1318.2145  0.062736268  0.063236003            5 
 1752000   0.95248567   -4.1377786    1317.8205   0.06268172   0.06322385            2 
 1753000   0.97410017   -4.0875444    1322.0573   0.06284737  0.063211771            3 
 1754000   0.96037264    -4.097382    1321.8784   0.06280304  0.063199699            2 
 1755000   0.95811554   -4.1066349    1321.1193  0.062731213  0.063187361            4 
 1756000   0.97519344   -4.0977575    1322.2484  0.062749071  0.063175424            5 
 1757000   0.98705056   -4.1430731    1323.2615  0.062761407   0.06316319            4 
 1758000   0.96641243   -4.0830209    1331.8487   0.06313276  0.063151389            1 
 1759000   0.95926089   -4.1605592    1317.8667  0.062434465  0.063139466            6 
 1760000   0.98417602   -4.1103695    1326.9876  0.062830852  0.063127245            7 
 1761000   0.98212725    -4.086832    1329.4102  0.062909815   0.06311513            4 
 1762000   0.96920757   -4.1172206    1328.7508  0.062842925  0.063102933            2 
 1763000   0.97365036   -4.1086181    1330.8155  0.062904875  0.063091024            4 
 1764000   0.96929411   -4.1058358    1328.6147  0.062765242  0.063078962            2 
 1765000   0.95350475   -4.0810233    1330.3188  0.062810141  0.063066904            2 
 1766000   0.97363925   -4.1357557     1325.282    0.0625369  0.063055232            6 
 1767000    0.9705969   -4.1324237    1326.0951  0.062539857  0.063043266            3 
 1768000   0.97076204   -4.1214407    1329.4003  0.062660268  0.063031388            6 
 1769000   0.97526187   -4.1072547    1330.9892  0.062699696  0.063019434            4 
 1770000   0.96058724   -4.1153461    1333.8463   0.06279879  0.063007551            2 
 1771000   0.99763001   -4.1246316    1328.3927  0.062506715  0.062995562            3 
 1772000   0.97528403   -4.1040457    1334.3128  0.062749849  0.062983361            4 
 1773000   0.97645794   -4.0982962    1333.5811  0.062680065  0.062971329            3 
 1774000   0.95866315   -4.1071963    1328.8464  0.062422324  0.062959462            3 
 1775000    0.9592784   -4.0879668    1331.2789  0.062501355  0.062947214            3 
 1776000    0.9880781   -4.0956527     1328.392  0.062330706  0.062934849            3 
 1777000   0.97321074   -4.1212174     1331.747  0.062452965  0.062922733            2 
 1778000   0.96887944   -4.1161368    1330.4911  0.062358975   0.06291039            2 
 1779000     1.000766   -4.0986493    1331.3353  0.062363469  0.062897699            3 
 1780000   0.97441166   -4.1216162    1335.5592  0.062526178   0.06288508            2 
 1781000   0.96133367   -4.0935632    1332.4517   0.06234567  0.062872492            3 
 1782000   0.97987951   -4.1149565     1335.166  0.062437615  0.062860216            2 
 1783000   0.97512958   -4.1281097    1337.2855  0.062501659  0.062847918            6 
 1784000   0.97019393   -4.1058894    1338.9988  0.062546653  0.062835572            4 
 1785000   0.97760319   -4.1114494    1333.3347  0.062247187  0.062823023            1 
 1786000   0.96490643   -4.1437471    1331.2297  0.062114116  0.062810411            2 
 1787000   0.97211243   -4.1091588    1336.2571  0.062313799  0.062797942            5 
 1788000   0.96842256   -4.1328076    1340.3519  0.062469794  0.062785665            2 
 1789000   0.97548941   -4.1021566    1340.0974  0.062423019  0.062773389            2 
 1790000   0.96358427   -4.1380113    1332.3642  0.062028128  0.062760812            2 
 1791000   0.97138667   -4.1125884    1336.3909  0.062180851  0.062748479            3 
 1792000   0.98222128   -4.1144601    1340.9531  0.062358311  0.062735971            2 
 1793000   0.96646047   -4.1339763    1337.1822  0.062148273  0.062723521            3 
 1794000   0.93084194   -4.1351189    1340.5129  0.062268346  0.062710863            5 
 1795000   0.96434544   -4.1047861    1344.8966  0.062437169  0.062698543            2 
 1796000   0.96988637    -4.108664    1343.0166  0.062315171  0.062686349            4 
 1797000   0.96056693   -4.0941599    1347.3401  0.062480993  0.062674445            2 
 1798000    0.9793694   -4.1082263     1342.903  0.062240591  0.062662323            2 
 1799000   0.97937062    -4.148078    1342.9523  0.062208278  0.062650075            1 
 1800000   0.96504871   -4.1083396    1342.9363  0.062172976  0.062637938            3 
 1801000   0.95780025   -4.1180023    1342.7056  0.062127781  0.062625744            6 
 1802000   0.96846963    -4.135632    1345.1217  0.062205037  0.062613531            2 
 1803000   0.96834075   -4.1415382    1342.9402  0.062069707   0.06260117            4 
 1804000   0.97156572    -4.109016    1345.4758  0.062152431   0.06258857            5 
 1805000   0.94882144   -4.0892564       1345.6  0.062123732  0.062576191            3 
 1806000   0.96241954   -4.1377927    1339.6303  0.061813873  0.062563821            4 
 1807000   0.95701742   -4.1450765    1348.7601  0.062200706  0.062551296            2 
 1808000    0.9683343   -4.1543488    1343.6097  0.061928912  0.062538469            3 
 1809000   0.95196639   -4.1319233    1350.9051   0.06223075  0.062525931            2 
 1810000   0.96122311   -4.0900389    1350.9527  0.062198559  0.062513307            2 
 1811000   0.97340132   -4.1460777    1345.8819  0.061930879  0.062501168            6 
 1812000   0.95531393   -4.1138134    1347.5114  0.061971641  0.062488605            1 
 1813000   0.96566694   -4.1194073    1345.7871  0.061858206  0.062476236            2 
 1814000   0.96401665   -4.1160369    1345.0197   0.06178885   0.06246385            2 
 1815000   0.96875109   -4.1230731    1349.7514  0.061972057  0.062451239            3 
 1816000   0.96375494    -4.129963    1349.3361  0.061918874  0.062438693            3 
 1817000    0.9737724   -4.1171891    1350.4913  0.061937775  0.062426331            3 
 1818000   0.97738535   -4.0891145    1358.0275  0.062249151  0.062413557            2 
 1819000   0.97623071   -4.1330658    1358.6231  0.062242218  0.062401209            6 
 1820000   0.96337123   -4.1244317    1351.7708  0.061894269  0.062388642            3 
 1821000    0.9715147   -4.1006455    1356.2913  0.062067147  0.062376248            4 
 1822000   0.94230603   -4.1195063    1347.7728   0.06164347  0.062363787            3 
 1823000   0.95457144   -4.1140342    1354.2495  0.061905717  0.062351068            6 
 1824000   0.99149543   -4.1191669    1357.1111  0.062002519  0.062338462            3 
 1825000   0.97202616   -4.1222226    1357.9585  0.062007238  0.062326148            3 
 1826000   0.94770359   -4.1389172    1356.5403  0.061908557  0.062313298            3 
 1827000   0.95206593   -4.0889183    1354.0025  0.061758916   0.06230056            3 
 1828000   0.94194457   -4.1219157     1357.798  0.061898158   0.06228793            2 
 1829000   0.95450937     -4.09189    1356.8393  0.061820633   0.06227512            2 
 1830000   0.96614238   -4.1462011     1357.196  0.061803097  0.062262196            2 
 1831000   0.97457916   -4.1459326    1355.9249  0.061711492  0.062249124            7 
 1832000    0.9615092   -4.1569304    1356.3081  0.061695236  0.062236317            3 
 1833000   0.95733784   -4.1636727    1355.6121  0.061629938  0.062223708            2 
 1834000   0.95961884   -4.1693865     1353.303  0.061491414  0.062210615            2 
 1835000   0.96389759   -4.1415011    1353.6746  0.061474779  0.062197801            6 
 1836000   0.97056624    -4.120321    1354.4386   0.06147597  0.062184846            3 
 1837000   0.96893059   -4.1506902    1361.6733  0.061770698  0.062171866            3 
 1838000   0.98779915   -4.1451851    1355.0424  0.061436452  0.062158998            4 
 1839000   0.94293866    -4.133532    1358.7887  0.061572806  0.062146287            3 
 1840000   0.93912851   -4.1313737    1356.4036  0.061431321  0.062133306            2 
 1841000    0.9586874   -4.1246358    1360.5429   0.06158532  0.062120446            3 
 1842000   0.95682523   -4.1404027     1364.808  0.061744841  0.062107677            2 
 1843000   0.96005646   -4.1429579     1362.079  0.061587943  0.062094998            4 
 1844000   0.96216252   -4.1314805    1358.3939  0.061388011  0.062082471            5 
 1845000   0.94879566   -4.1269694    1365.0273  0.061654349   0.06206975            4 
 1846000   0.94932401   -4.1759454    1360.2453  0.061405077  0.062056904            2 
 1847000   0.96267899   -4.1297881    1364.4926  0.061563463  0.062044151            3 
 1848000   0.95596423   -4.1241503    1363.6012  0.061489955   0.06203155            3 
 1849000   0.97494233   -4.1548141    1362.8799  0.061424187  0.062018672            3 
 1850000   0.96692093   -4.1456016    1362.0464  0.061353443  0.062005888            2 
 1851000   0.96260673   -4.1237273    1359.0418  0.061185026  0.061993346            4 
 1852000   0.94388545   -4.1423389    1362.8287  0.061322384  0.061980407            6 
 1853000   0.94269125   -4.1199707    1368.2771  0.061534319  0.061967459            2 
 1854000   0.96472122   -4.1349637    1366.6992  0.061430206  0.061954545            5 
 1855000   0.95766617   -4.1623066    1362.8082   0.06122229  0.061941701            2 
 1856000   0.95750388   -4.1132482    1367.8348  0.061414994  0.061928872            3 
 1857000   0.98546562   -4.1333952    1370.6699  0.061509152  0.061916253            3 
 1858000   0.94399133    -4.169633    1366.2889  0.061279553  0.061903641            5 
 1859000   0.95261509   -4.1374664    1367.4496   0.06129862  0.061891005            2 
 1860000   0.95490182   -4.1435933    1366.8935   0.06124075  0.061878558            4 
 1861000   0.96526202   -4.1135547     1375.919  0.061611993  0.061865979            3 
 1862000    0.9460421   -4.1463948    1375.9078  0.061578401  0.061853549            4 
 1863000   0.94692951   -4.1316042     1374.918  0.061501073  0.061841246            2 
 1864000   0.96195242   -4.1458555    1374.9006  0.061467302  0.061828796            7 
 1865000   0.97196945   -4.1447209    1372.4205  0.061323524  0.061816301            8 
 1866000   0.95947358   -4.1492841    1374.5652  0.061386441  0.061803678            2 
 1867000   0.93907858   -4.1868325    1367.4411  0.061035578  0.061790851            2 
 1868000   0.92812993   -4.1699461    1372.6103  0.061233505  0.061777977            6 
 1869000   0.92905633   -4.1369632    1374.6048  0.061289675  0.061765226            3 
 1870000    0.9536509    -4.124448    1375.1706  0.061282111  0.061752623            3 
 1871000   0.96540123    -4.141182    1372.9824  0.061151899  0.061740087            5 
 1872000   0.97469937   -4.1737593    1373.2701  0.061132038  0.061727466            3 
 1873000   0.97252995   -4.1224742    1375.9708  0.061219557  0.061714847            3 
 1874000   0.94945726   -4.1245901    1375.1442  0.061150134  0.061702433            2 
 1875000   0.97029399    -4.158645    1372.9751  0.061021116  0.061689746            3 
 1876000   0.95974427   -4.1425136     1379.488  0.061277895  0.061676851            3 
 1877000   0.95317748   -4.1389866    1377.8974  0.061174632  0.061664199            3 
 1878000   0.93680999   -4.1491631    1377.1171  0.061107433  0.061651512            2 
 1879000   0.92476897   -4.1617721    1374.4959  0.060958663  0.061638643            3 
 1880000   0.96229938   -4.1437722     1379.973  0.061169017  0.061625867            4 
 1881000    0.9891605    -4.157721     1376.553  0.060984983  0.061613047            3 
 1882000   0.94716727   -4.1667245    1375.6251  0.060911491  0.061600352            7 
 1883000   0.94909144   -4.1496104     1381.176  0.061124801  0.061587599            4 
 1884000   0.93518937   -4.1306941    1380.4985  0.061062388  0.061574987            4 
 1885000   0.94779239   -4.1950817    1376.4623   0.06085156  0.061562129            3 
 1886000   0.93346873   -4.1694724    1376.8011  0.060834267  0.061549367            6 
 1887000   0.95535624   -4.1259358    1382.8513  0.061069217  0.061536642            3 
 1888000    0.9641111   -4.1108611    1385.6616   0.06116091  0.061523961            2 
 1889000   0.94034731   -4.1175329    1385.0274  0.061100555  0.061511506            3 
 1890000   0.95401891   -4.1277822    1387.5879  0.061181126  0.061498715            2 
 1891000   0.95995531   -4.1745447     1377.423  0.060700821  0.061485793            2 
 1892000   0.95916694   -4.1624887    1383.5937  0.060940528  0.061472886            4 
 1893000   0.94616395   -4.1485493     1380.544  0.060774079   0.06145999            3 
 1894000   0.93889447   -4.1404735    1383.6219  0.060877415    0.0614471            3 
 1895000   0.95756321   -4.1698805    1382.7408  0.060806542  0.061434538            3 
 1896000   0.93189334   -4.1417138    1386.4492  0.060937464  0.061421896            4 
 1897000   0.94410099   -4.1786687    1379.0231   0.06057912  0.061408988            2 
 1898000   0.94563052   -4.1467661    1386.5818  0.060879076  0.061396199            2 
 1899000   0.95551031   -4.1593856     1384.908  0.060773565  0.061383537            5 
 1900000   0.96830688   -4.1654886    1386.1815  0.060797434  0.061370921            2 
 1901000    0.9714526   -4.1388668    1391.7262  0.061008514  0.061358458            2 
 1902000   0.92578076    -4.148002    1391.5432  0.060968418  0.061346068            3 
 1903000   0.93912025   -4.1496888    1391.0624  0.060915325  0.061333715            2 
 1904000   0.94003464   -4.1757534    1387.7953  0.060740341  0.061321415            5 
 1905000   0.93909574   -4.1582645    1391.0119  0.060849166  0.061308771            1 
 1906000   0.93977419   -4.1257471    1395.3959  0.061008917  0.061296322            3 
 1907000   0.94386933   -4.1633227    1388.8548  0.060691084  0.061284062            2 
 1908000   0.92980643   -4.1500399    1394.3271  0.060898285  0.061271837            2 
 1909000    0.9387904   -4.1413589    1393.2312  0.060818544  0.061259382            3 
 1910000    0.9372317   -4.1760443    1395.7815  0.060897973     0.061247            5 
 1911000   0.94314195   -4.1657907    1391.0714  0.060660711  0.061234519            4 
 1912000   0.96524325   -4.1432198    1395.0324  0.060801622  0.061222354            4 
 1913000   0.93957754   -4.1467755     1397.352  0.060870886  0.061209995            2 
 1914000   0.93294019   -4.1440541     1399.381  0.060927421  0.061197762            3 
 1915000   0.94384642   -4.1942974    1391.6649  0.060559832  0.061185483            3 
 1916000   0.93666252   -4.1572931    1401.0447  0.060936184  0.061173075            5 
 1917000   0.94395782    -4.143814    1400.6797  0.060888527  0.061160904            4 
 1918000   0.93407759   -4.1795135    1396.8784  0.060691623  0.061148471            3 
 1919000   0.94735624   -4.1583936    1396.4042  0.060639406  0.061136141            9 
 1920000   0.95401815   -4.1511775    1397.4253  0.060652138  0.061123676            4 
 1921000   0.94341267   -4.1454852    1394.9526  0.060513301  0.061111117            2 
 1922000   0.93917995    -4.178898     1396.787  0.060561353  0.061098604            2 
 1923000   0.92664745   -4.1453197    1399.5912  0.060651378  0.061086104            3 
 1924000   0.94772881   -4.1798113    1397.3388  0.060522298  0.061073622            3 
 1925000   0.93149511   -4.1899278    1403.3527  0.060751198   0.06106124            5 
 1926000   0.94446423   -4.1600112    1401.4085  0.060635536  0.061048685            2 
 1927000   0.95473709   -4.1372792    1404.7368     0.060748  0.061036523            2 
 1928000   0.95794442   -4.1299436    1410.0306  0.060945306  0.061024377            4 
 1929000   0.94408454   -4.1418564    1404.1194  0.060658346  0.061012028            3 
 1930000   0.92888094   -4.1599677    1406.5913  0.060733647  0.060999641            3 
 1931000   0.95632313   -4.1636572    1400.6506  0.060445823  0.060987328            5 
 1932000   0.94753669   -4.1503098    1401.9329  0.060469845  0.060974873            3 
 1933000    0.9436979   -4.1638063    1405.9417  0.060611384  0.060962652            5 
 1934000   0.95530172   -4.1312744    1408.5009  0.060690317  0.060950219            2 
 1935000   0.93430489   -4.1759359    1401.0866  0.060339646  0.060937854            2 
 1936000   0.94044478   -4.1739862    1401.8316  0.060340548  0.060925462            3 
 1937000   0.95851609   -4.1354984     1408.077  0.060578084  0.060912884            2 
 1938000   0.94421011   -4.1308476    1404.9041  0.060410395  0.060900388            7 
 1939000    0.9715113   -4.1535806    1406.7287  0.060457652  0.060888079            2 
 1940000   0.96229248   -4.1623885    1408.0287  0.060482331  0.060875851            3 
 1941000   0.94675287   -4.1693855    1406.9222  0.060403666  0.060863686            2 
 1942000   0.92677406   -4.1702212    1410.3822  0.060521036  0.060851377            5 
 1943000   0.94391734   -4.1199753    1413.0188   0.06060297  0.060839162            4 
 1944000   0.94423828   -4.1511063    1413.5046  0.060592619  0.060826857            4 
 1945000   0.92797772   -4.1549296    1410.8881  0.060449361  0.060814848            3 
 1946000   0.94542967   -4.1434595    1415.6994  0.060624333  0.060802868            2 
 1947000   0.95029639   -4.1824836    1411.9976  0.060434753   0.06079051            2 
 1948000   0.93169194   -4.1701733     1412.204  0.060412558  0.060778352            3 
 1949000    0.9409202   -4.1662007    1413.1641  0.060422612  0.060766264            8 
 1950000   0.92974208   -4.1729316    1412.6521  0.060369748  0.060754072            3 
 1951000   0.93784355   -4.1561834    1416.6303  0.060508726  0.060741739            4 
 1952000   0.93208505     -4.15766    1420.5717  0.060645991  0.060729641            5 
 1953000   0.95502807   -4.1516252    1419.0067   0.06054816  0.060717685            2 
 1954000   0.96070722   -4.1896754    1415.6937  0.060375885  0.060705826            4 
 1955000   0.94420572   -4.1525082    1421.5067  0.060592786  0.060694031            3 
 1956000    0.9309491   -4.1697262    1412.1051  0.060161259  0.060682131            3 
 1957000   0.92902213   -4.1707262    1418.9332  0.060421275  0.060670107            3 
 1958000   0.95604033   -4.1510036    1424.8889  0.060643891  0.060658377            4 
 1959000   0.94956371   -4.1781795    1419.4399  0.060381144  0.060646501            3 
 1960000   0.93887869   -4.1833305    1426.0921  0.060633168  0.060634562            4 
 1961000    0.9332168   -4.1751666    1418.5195  0.060280449  0.060622848            5 
 1962000   0.92360165   -4.1889626    1423.1624  0.060446923  0.060611011            4 
 1963000   0.94422406   -4.1892795    1418.4008  0.060213994  0.060599186            4 
 1964000   0.93907207   -4.1687828    1418.4214  0.060184208  0.060587153            6 
 1965000   0.92887769    -4.172357    1414.6848  0.059995116  0.060575285            3 
 1966000   0.95622833   -4.1531254    1421.5714  0.060256503  0.060563573            4 
 1967000   0.93986184   -4.1720134    1427.3281  0.060469754  0.060551612            6 
 1968000    0.9382499   -4.1829173    1422.6392  0.060240481  0.060539936            6 
 1969000   0.96447817   -4.1414326    1430.5183   0.06054335  0.060528387            4 
 1970000   0.95542131    -4.114078    1430.1329  0.060496317  0.060516763            2 
 1971000   0.93300018   -4.1941952    1424.1795  0.060213915  0.060504976            3 
 1972000   0.95143679    -4.171052    1425.8022  0.060251953  0.060493118            2 
 1973000   0.93085416   -4.1707509    1428.7775  0.060347083  0.060481356            1 
 1974000   0.92453841   -4.1559557    1428.0203  0.060284546  0.060469479            3 
 1975000   0.92821473   -4.1597889    1430.9578  0.060377968  0.060457878            4 
 1976000   0.95708531   -4.1642435    1428.7391  0.060253843  0.060446051            2 
 1977000   0.94698738   -4.1701164    1428.6526  0.060219717  0.060434128            4 
 1978000   0.93761421   -4.1768767    1426.6402  0.060104491   0.06042226            3 
 1979000   0.96595097   -4.1513901    1429.4155  0.060190985  0.060410483            5 
 1980000   0.92512696   -4.1516564    1437.2819  0.060491661   0.06039869            1 
 1981000   0.92688462   -4.1540944    1431.0202  0.060197721  0.060386939            3 
 1982000    0.9426574    -4.159951     1432.328  0.060222332  0.060374928            3 
 1983000   0.94858384   -4.1680698     1431.985  0.060177552  0.060363162            6 
 1984000   0.94115328   -4.1555664    1432.4299  0.060165904  0.060351368            3 
 1985000   0.94151639   -4.1760996    1425.8832  0.059860754  0.060339413            6 
 1986000   0.93300964   -4.1703183    1431.2224  0.060054649  0.060327533            1 
 1987000   0.92955681   -4.1817171    1432.9225  0.060095728  0.060315776            4 
 1988000    0.9279005   -4.1610766    1435.0813  0.060155991  0.060303466            4 
 1989000   0.91273852   -4.1872181     1428.065  0.059831783  0.060291333            2 
 1990000    0.9222169   -4.1815468    1432.6722  0.059994648  0.060279037            1 
 1991000   0.94108529   -4.1703488    1429.2535  0.059821426  0.060267009            7 
 1992000   0.92773698   -4.1790572    1437.3867  0.060131638  0.060254934            2 
 1993000   0.91078902   -4.2018372    1431.0106  0.059834863  0.060242816            5 
 1994000   0.93330276   -4.1581499    1436.1425  0.060019328  0.060230553            4 
 1995000     0.922178   -4.1529922    1431.7521  0.059805851  0.060218198            2 
 1996000   0.93299925   -4.1639399    1432.5109  0.059807569   0.06020594            3 
 1997000   0.92662603   -4.1767361    1430.9578   0.05971281  0.060193612            4 
 1998000   0.92698137   -4.1507746    1432.0504  0.059728494  0.060181178            6 
 1999000   0.93423468   -4.1736971    1432.5908  0.059721144  0.060169019            4 
 2000000   0.92856319   -4.1813306    1437.8412  0.059910049  0.060156708            1 
 2001000   0.94832808   -4.1910903    1433.1436  0.059684475  0.060144363            4 
 2002000   0.93744533   -4.2089245    1432.3144  0.059620148  0.060131819            4 
 2003000   0.91579564   -4.1891064    1429.8588  0.059488218  0.060119428            4 
 2004000   0.94336713   -4.1628703    1433.3807  0.059604986  0.060106974            3 
 2005000   0.91348557   -4.1603931    1435.9419  0.059681707  0.060094428            2 
 2006000   0.96162548   -4.1780123    1438.9394  0.059776478  0.060081713            6 
 2007000   0.91026898   -4.1672111    1433.1239  0.059505227  0.060069253            4 
 2008000   0.94140336   -4.1808931    1430.5459  0.059368604  0.060056648            7 
 2009000   0.91471014     -4.18493    1439.9166  0.059727752  0.060044348            4 
 2010000   0.94024189   -4.1706865    1436.0693   0.05953853  0.060031859            4 
 2011000   0.93424512   -4.1466685     1442.224  0.059763965  0.060019419            2 
 2012000   0.93385638   -4.2032612    1436.9857  0.059517298  0.060006967            5 
 2013000   0.93776832   -4.1767905    1442.9128    0.0597331  0.059994345            3 
 2014000   0.94276235   -4.1943911    1436.6561  0.059444557  0.059981762            3 
 2015000   0.92551051   -4.1675649     1438.058  0.059473034  0.059969462            3 
 2016000    0.9213424   -4.1545229    1433.8926  0.059271354  0.059956818            2 
 2017000   0.93420321    -4.202269    1435.9495  0.059326952  0.059944321            3 
 2018000   0.93284027   -4.1586895    1442.8591  0.059582882  0.059931797            4 
 2019000   0.91721093   -4.2086978     1436.218  0.059279263  0.059919161            3 
 2020000   0.93882581   -4.2004748    1437.7883  0.059314701  0.059906634            5 
 2021000    0.9268949   -4.1372679    1443.5136  0.059521424  0.059894047            4 
 2022000   0.91973418    -4.179465    1447.0279  0.059636825   0.05988164            6 
 2023000   0.92507559    -4.163306    1446.1911  0.059572873  0.059869395            2 
 2024000   0.92809475   -4.1890582    1442.3504  0.059385309  0.059856908            1 
 2025000    0.9260577   -4.1762144    1445.1079  0.059469461  0.059844385            4 
 2026000   0.93289351   -4.1797121    1445.1698  0.059442655  0.059831919            3 
 2027000   0.94739714   -4.1837797    1448.3799  0.059545301  0.059819431            4 
 2028000   0.94878727    -4.166295     1449.425  0.059558884   0.05980694            2 
 2029000   0.92147924   -4.1926997    1446.3781  0.059404392  0.059794524            3 
 2030000   0.91326752    -4.163519    1445.1095  0.059323052  0.059782126            3 
 2031000   0.94271753   -4.1738177    1447.1229  0.059376452  0.059769676            3 
 2032000   0.93897657   -4.1662685    1449.8437  0.059458814  0.059757391            4 
 2033000    0.9117535   -4.1983262    1445.2616  0.059241745  0.059744943            2 
 2034000   0.93691854   -4.1533067    1449.3945  0.059381942    0.0597325            5 
 2035000   0.90201893   -4.1812987     1443.706  0.059119819   0.05971984            3 
 2036000   0.95789565   -4.1563858    1447.7317  0.059255555  0.059707259            4 
 2037000   0.93087467   -4.1724104    1448.2622  0.059248168  0.059694754            4 
 2038000   0.93164617   -4.2010854    1446.5745  0.059150086  0.059682099            5 
 2039000   0.91786586    -4.169639    1448.8788  0.059215254   0.05966954            7 
 2040000   0.91720685   -4.1720099    1449.1242   0.05919625  0.059657142           10 
 2041000   0.92599037    -4.159748    1455.8043  0.059439994  0.059644797            8 
 2042000    0.9471194   -4.2025045    1449.7108  0.059162209  0.059632473            4 
 2043000   0.93222447   -4.1914415    1443.3768  0.058874889  0.059619851            3 
 2044000   0.95262797      -4.2113    1453.8375  0.059272565  0.059607414            4 
 2045000   0.90947696   -4.1631545    1449.8829  0.059082434  0.059594989            6 
 2046000   0.91849555   -4.1577136    1454.6994  0.059249732  0.059582293            4 
 2047000   0.91967574   -4.1830714    1451.9402  0.059108459  0.059570031            5 
 2048000   0.90355764    -4.190209    1452.7857  0.059114003  0.059557475            5 
 2049000   0.92294084    -4.177712      1451.68  0.059040184   0.05954468            4 
 2050000   0.92070097   -4.1901291    1455.3261  0.059159599  0.059532156            3 
 2051000   0.91732659   -4.1708758    1456.1087  0.059162551  0.059519527            5 
 2052000   0.92429566   -4.1742561    1455.6629  0.059115615   0.05950687            3 
 2053000   0.92535299   -4.1713835     1454.922  0.059056747  0.059494076            2 
 2054000   0.93293509   -4.1802418     1455.139  0.059036799  0.059481306            6 
 2055000   0.91182774   -4.2095307    1449.3744  0.058774307  0.059468566            5 
 2056000   0.93151106    -4.193668    1452.6794  0.058879678  0.059455803            2 
 2057000   0.92193492    -4.193879    1455.2743  0.058956177    0.0594431            4 
 2058000   0.95111445    -4.206777    1450.4725  0.058733096  0.059430406           11 
 2059000   0.91608103   -4.1813048    1459.5625  0.059072467  0.059417682            6 
 2060000   0.94076117    -4.187416    1456.7329  0.058929325  0.059405058            6 
 2061000   0.93554035   -4.2110993    1459.3867  0.059008034  0.059392346            2 
 2062000   0.92558812   -4.1931347    1459.8849  0.058999551  0.059379685            4 
 2063000   0.90996259   -4.1815094    1460.0134  0.058976144  0.059367019            4 
 2064000   0.94407694   -4.1942955    1455.7973  0.058777345  0.059354434            3 
 2065000   0.93056857   -4.1872055    1462.1774  0.059006353  0.059341835            3 
 2066000   0.91713613   -4.2229245    1458.6391  0.058835072  0.059329278            2 
 2067000   0.92582673   -4.2030725    1465.2249   0.05907212  0.059316717            6 
 2068000   0.92751714   -4.2081807    1456.2316  0.058681156  0.059304096            5 
 2069000   0.91930496   -4.1873985    1465.8031  0.059038306  0.059291411            4 
 2070000   0.91034581   -4.1979462      1466.37   0.05903261  0.059278834            2 
 2071000   0.92629692   -4.2194965    1456.1951  0.058594683   0.05926615            9 
 2072000    0.9104499   -4.1844257    1465.1757  0.058927594  0.059253554            3 
 2073000   0.93536482   -4.1944354    1460.8998  0.058727278  0.059240999            5 
 2074000   0.91167284   -4.1781552    1466.6174  0.058928696  0.059228209            5 
 2075000   0.92408035    -4.187401    1464.9354  0.058832747  0.059215699            4 
 2076000   0.89104363   -4.2127585    1463.8325  0.058760136  0.059203204            4 
 2077000   0.91647509   -4.1866733    1465.4147  0.058795325  0.059190414            2 
 2078000   0.90700227   -4.1779259    1467.5617  0.058853132  0.059177759            2 
 2079000   0.92494173   -4.2268006    1456.0934  0.058365135  0.059165071            2 
 2080000    0.9419183   -4.2310649    1459.3291  0.058466711  0.059152155            3 
 2081000   0.92293425   -4.1938039    1467.4095  0.058762195  0.059139697            3 
 2082000   0.91651785   -4.1916398    1465.5441  0.058659307  0.059127138            4 
 2083000   0.92167658    -4.209296     1461.786  0.058480797  0.059114507            5 
 2084000   0.92490677   -4.1725233     1469.472  0.058760075  0.059101879            3 
 2085000   0.91679601   -4.1836263    1469.3032  0.058725148  0.059089327            2 
 2086000   0.91666514   -4.2123279    1468.1439  0.058650684  0.059076754            4 
 2087000   0.92628473    -4.185412    1470.5739   0.05871961  0.059064289            2 
 2088000   0.91629216   -4.2135124    1463.7493  0.058419113  0.059051839            3 
 2089000   0.94085078   -4.1887681    1472.8866   0.05875565  0.059039444            6 
 2090000    0.9150803   -4.2031921     1469.776  0.058603509  0.059027082            2 
 2091000   0.90718438   -4.2034836    1472.5266  0.058685101  0.059014585            3 
 2092000   0.90898536   -4.2000401    1468.7773  0.058507702  0.059002074            3 
 2093000   0.92582683   -4.2210347    1473.4749  0.058666783  0.058989711            4 
 2094000   0.92130381   -4.1999344    1476.6847  0.058766504  0.058977112            2 
 2095000   0.93650952   -4.1917635    1469.2601  0.058443122  0.058964645            3 
 2096000   0.93920038   -4.2067231    1473.4331   0.05858115  0.058952157            4 
 2097000   0.92668473   -4.2257612    1472.4632  0.058514673  0.058939642            2 
 2098000   0.91684629   -4.1994031    1472.1108  0.058472785  0.058927022            4 
 2099000   0.89987144   -4.1899164    1474.1742  0.058526846  0.058914606            7 
 2100000   0.89946645   -4.1868488    1477.7761  0.058641909  0.058902118            4 
 2101000   0.91370691    -4.168644    1476.6682  0.058570054  0.058889832            2 
 2102000   0.91180945   -4.2019042    1477.2388  0.058564809  0.058877623            4 
 2103000   0.92771323   -4.2179421    1475.8954   0.05848373  0.058865242            1 
 2104000   0.91547927   -4.2043862    1476.7961  0.058491606   0.05885299            2 
 2105000   0.91407708   -4.2180806    1476.5001  0.058452101   0.05884061            2 
 2106000   0.89436988    -4.238641    1475.3633  0.058379364  0.058828074            6 
 2107000   0.90340374   -4.1946182    1478.9533  0.058493645  0.058815848            3 
 2108000   0.90154378   -4.2110705    1479.4544  0.058485704  0.058803753            2 
 2109000   0.90977579   -4.1922996    1483.7244  0.058626694   0.05879168            8 
 2110000   0.88890506   -4.2018797    1481.6741  0.058517935  0.058779457            3 
 2111000   0.90548585   -4.2065733    1480.7473  0.058453627  0.058767149            7 
 2112000    0.9182286   -4.2050507    1480.1888  0.058403914  0.058754969            2 
 2113000    0.8834454   -4.2039091    1475.0592  0.058173972  0.058742742            3 
 2114000   0.88975561   -4.1984307    1483.0079  0.058459786  0.058730708            5 
 2115000   0.91482111   -4.2151404     1482.782  0.058423246  0.058718801            4 
 2116000   0.92571911   -4.2118716    1483.4892  0.058423487   0.05870688            4 
 2117000    0.9042646     -4.20489      1484.59  0.058439221  0.058694778            2 
 2118000   0.93469845   -4.2241576    1479.7361  0.058220652  0.058682421            4 
 2119000   0.90514215   -4.2123617    1485.4846  0.058419248  0.058670434            3 
 2120000   0.91055934   -4.2654968     1482.878  0.058289231  0.058658434            2 
 2121000   0.90946648   -4.2063948    1489.4301  0.058519178  0.058646584            8 
 2122000   0.92040766   -4.2248414    1485.8027  0.058349148  0.058634689           10 
 2123000   0.90415794   -4.1958956    1489.7143  0.058475206  0.058622787            3 
 2124000   0.90395559   -4.2122933    1485.3783  0.058277554  0.058610669            5 
 2125000   0.91987748       -4.192    1491.6026  0.058494219  0.058598628            4 
 2126000   0.92284542    -4.211904    1491.4997  0.058462672  0.058586738            2 
 2127000   0.92416988   -4.2123763    1485.8968  0.058215672  0.058574814            8 
 2128000   0.91281318   -4.2004267    1488.6442  0.058295903   0.05856288            4 
 2129000   0.91829594   -4.2258349    1491.5895  0.058383807  0.058550869            3 
 2130000    0.9087244   -4.2191167    1492.6434  0.058397627   0.05853883            2 
 2131000   0.92759494   -4.2209393    1490.3517  0.058280609  0.058527092            3 
 2132000   0.91483113   -4.1796626    1500.2135  0.058638738  0.058515227            4 
 2133000   0.90978314   -4.2064833    1499.8836  0.058598359   0.05850357            2 
 2134000   0.91196276   -4.1834652    1499.3649  0.058550645  0.058491885            1 
 2135000   0.88095909   -4.2133009    1492.6677  0.058261816  0.058480309            3 
 2136000   0.91196893   -4.2194328    1496.9643  0.058402167  0.058468345            3 
 2137000   0.91701602   -4.2113209    1492.5545  0.058202874  0.058456471            4 
 2138000    0.9136865   -4.1821739    1497.1208  0.058353631  0.058444491            4 
 2139000   0.89138209   -4.2204185    1497.2874  0.058332841   0.05843281            6 
 2140000   0.90674727   -4.2307585    1494.7414   0.05820644  0.058421051            4 
 2141000   0.90782063   -4.2164689    1497.3676  0.058281471  0.058409177            3 
 2142000   0.91242593    -4.226168    1496.5127  0.058221005  0.058397384            5 
 2143000   0.93093954   -4.2230791    1496.1216  0.058178627   0.05838556            4 
 2144000   0.91951622    -4.227426    1496.9668  0.058184342  0.058373698            3 
 2145000   0.91828961   -4.2210409    1496.5058  0.058139309  0.058362043            4 
 2146000   0.94303303   -4.2064396    1500.7952  0.058278782  0.058350221            2 
 2147000   0.92441834   -4.2085524    1497.1058  0.058108437  0.058338449            3 
 2148000    0.9157956   -4.2296841    1495.8639  0.058033205  0.058326792            7 
 2149000    0.9063642   -4.2196205    1501.3047  0.058217182  0.058315027            3 
 2150000   0.88929272   -4.2079147    1500.3244  0.058152107  0.058303557            3 
 2151000   0.87941043   -4.2192245    1505.0927  0.058309806  0.058291869            6 
 2152000    0.9070077   -4.2159607    1505.0094  0.058279484  0.058280169            6 
 2153000   0.91144846   -4.2536927    1499.7146  0.058047476   0.05826856            4 
 2154000    0.9072667   -4.2370022    1508.7008  0.058368183  0.058257057            3 
 2155000   0.90560327   -4.2378503    1503.3571  0.058134459  0.058245663            4 
 2156000   0.90168564   -4.2293335    1506.2606  0.058219718   0.05823428            2 
 2157000   0.91538586   -4.2282284    1507.6255  0.058245461  0.058222828            2 
 2158000    0.9269297   -4.1862756    1506.7279  0.058183809  0.058211509            4 
 2159000   0.89646704   -4.2473815    1503.6167  0.058036773  0.058200227            5 
 2160000   0.91690177     -4.19326    1508.3862  0.058193913  0.058188626            4 
 2161000   0.92101133   -4.2153074    1506.7832  0.058105166  0.058177247            3 
 2162000   0.90037236   -4.2238047    1507.3192  0.058098951  0.058165823            4 
 2163000   0.91480093   -4.2407576    1505.9034  0.058017544  0.058154376            5 
 2164000   0.89802151   -4.2231929    1511.8296  0.058218946  0.058142861            3 
 2165000   0.89995531   -4.2071041    1505.3968  0.057944451  0.058131522            6 
 2166000   0.91779041   -4.2394061    1511.1746  0.058139988  0.058120244            3 
 2167000   0.90150822   -4.2275665    1511.3035  0.058118118  0.058108913            2 
 2168000   0.88331793   -4.2165109    1515.2007  0.058241108  0.058097652            2 
 2169000   0.87672557   -4.2185673    1515.4228  0.058222789   0.05808643            1 
 2170000   0.89265248   -4.2149847    1517.4939  0.058275496  0.058075143            4 
 2171000   0.90214403   -4.2216967    1512.6522  0.058062805  0.058064007            3 
 2172000   0.90074684   -4.2259459    1514.9946  0.058125944  0.058052805            6 
 2173000    0.8933525   -4.2244892    1517.1145  0.058180492  0.058041648            9 
 2174000   0.91575818   -4.2125318    1516.9308  0.058146687  0.058030568            5 
 2175000   0.91126048   -4.2000125    1515.2127  0.058054128  0.058019619            4 
 2176000   0.90148185   -4.2382626    1518.6473   0.05815898  0.058008586            7 
 2177000   0.88850393   -4.2135778    1519.6108  0.058169146   0.05799734            6 
 2178000   0.89973523   -4.1957539    1516.2739  0.058014765  0.057986163            4 
 2179000   0.90366076   -4.2184339    1516.4488   0.05799483  0.057975079            2 
 2180000   0.90182576   -4.2435667    1514.1166  0.057879077  0.057963886            9 
 2181000   0.90630653   -4.2292144    1522.5368  0.058174264  0.057952676            7 
 2182000   0.89828129   -4.2434277    1514.7633  0.057850721  0.057941453            6 
 2183000   0.87859391   -4.2465083    1517.0791  0.057912626  0.057930175            4 
 2184000   0.91633806   -4.2185919    1515.9363  0.057842501  0.057918789            6 
 2185000    0.9215268   -4.1932516    1522.1002  0.058051113  0.057907612            5 
 2186000   0.91299183   -4.2212642    1517.4004  0.057845395  0.057896386            3 
 2187000   0.91468343   -4.2189378    1521.2798  0.057966766    0.0578852            4 
 2188000   0.90424889   -4.2016556    1520.4735  0.057909565  0.057873873            5 
 2189000   0.92065717    -4.211472    1523.2802  0.057989957   0.05786266            4 
 2190000   0.89540632   -4.2532717    1519.8097   0.05783142  0.057851313            5 
 2191000   0.90967367   -4.2303883    1521.7978   0.05788064  0.057840131            3 
 2192000   0.88921591   -4.2153924    1517.7895   0.05770185  0.057828678            3 
 2193000   0.90800834   -4.2696886    1530.0362  0.058140909  0.057817445            3 
 2194000     0.897154   -4.2173348    1523.5072  0.057866423  0.057806134            2 
 2195000   0.90691569   -4.2491893    1523.0517  0.057822767  0.057794844            3 
 2196000   0.88700435   -4.2446929    1524.1069  0.057836478  0.057783687            5 
 2197000   0.89205308   -4.2126454    1529.0835  0.057998919  0.057772518            2 
 2198000   0.92443772   -4.2387416    1526.5635   0.05787699  0.057761351            6 
 2199000   0.90844953   -4.2236808    1524.4609  0.057770992  0.057750018            4 
 2200000   0.90554764   -4.2332276    1526.9899  0.057840527   0.05773851            4 
 2201000   0.89545823   -4.2044009    1526.9732  0.057813616  0.057727326            4 
 2202000    0.9016078    -4.219888    1525.0188  0.057713399  0.057716037            3 
 2203000   0.89745179   -4.2545473    1530.1993  0.057883164  0.057704586            4 
 2204000   0.90002195   -4.2437995    1523.1685  0.057591065  0.057692937            7 
 2205000   0.90276479   -4.2273241    1521.6473  0.057507458  0.057681274            4 
 2206000   0.88608539   -4.2233546    1524.2175  0.057578478  0.057669677            3 
 2207000   0.88705455   -4.2412085    1524.0507  0.057546091  0.057658048            7 
 2208000    0.9019588   -4.2008393     1528.333   0.05768165  0.057646428            3 
 2209000   0.88503065   -4.2465803    1526.6569  0.057592308  0.057634833            3 
 2210000   0.88939541   -4.2464321    1523.0728  0.057431101  0.057623335            8 
 2211000   0.90581229   -4.2262035    1526.1627  0.057521584  0.057611792            3 
 2212000   0.89527352   -4.2331139    1525.3548  0.057465144  0.057600217            3 
 2213000   0.89333911   -4.2180278    1525.1281   0.05743064  0.057588511            3 
 2214000   0.90495182   -4.2536007    1523.7101  0.057351327  0.057576912            4 
 2215000   0.91987644   -4.2280214     1528.232  0.057495561  0.057565358            5 
 2216000   0.91598965   -4.2156094    1531.2412  0.057582776   0.05755376            3 
 2217000   0.89103803   -4.2088522    1535.4908  0.057716537  0.057542082            3 
 2218000   0.88561517   -4.1873235    1536.6937  0.057735712  0.057530629            9 
 2219000   0.89864362   -4.2190858    1530.7496  0.057486466    0.0575192            6 
 2220000   0.89884898   -4.2409441    1529.7549  0.057423232  0.057507636            4 
 2221000   0.91231162   -4.2323654    1530.3085  0.057418148  0.057495984            3 
 2222000    0.9067885   -4.2426535    1537.1444  0.057648679   0.05748441            2 
 2223000   0.90058917   -4.2578209    1527.5776  0.057264119  0.057472806            3 
 2224000   0.89894445    -4.220591    1541.0538  0.057743323   0.05746132            4 
 2225000   0.90285108   -4.2172852    1539.5036  0.057659311  0.057449865            3 
 2226000   0.91200026   -4.2254606    1540.9995   0.05768941  0.057438515            3 
 2227000   0.88398694   -4.2431747    1539.3804  0.057602917  0.057427227            6 
 2228000   0.89378318   -4.2363567    1535.3533   0.05742644  0.057415858            4 
 2229000   0.88961326   -4.2411696    1536.3642  0.057438469  0.057404493            5 
 2230000   0.89774807   -4.2503185    1533.1515  0.057292656  0.057393225            3 
 2231000    0.8990112   -4.2361033    1539.0275  0.057486459   0.05738221            4 
 2232000   0.89356811   -4.2571336    1531.7866  0.057190361  0.057371048            7 
 2233000   0.90862249   -4.2018715    1546.8743  0.057727806  0.057360084            5 
 2234000   0.90088355   -4.2502572    1537.9095   0.05736756  0.057348944            4 
 2235000   0.89279436   -4.2353317    1541.4873  0.057475291  0.057337768            5 
 2236000   0.88421608   -4.2371876    1541.7133  0.057458009  0.057326629            5 
 2237000     0.904631   -4.2587797    1538.2604  0.057303695  0.057315178            5 
 2238000     0.895742   -4.2245981    1541.6547   0.05740448  0.057303829            4 
 2239000   0.91088223   -4.2260736    1543.7509  0.057456858  0.057292614            2 
 2240000   0.89599929   -4.2443501    1535.0712  0.057108305  0.057281123            2 
 2241000   0.88928167   -4.2499038    1540.9233  0.057300434  0.057269762            3 
 2242000    0.9043402    -4.239123    1541.6363  0.057301379  0.057258428            5 
 2243000   0.89787876   -4.2384882    1544.1159  0.057367954  0.057246936            4 
 2244000   0.90183882   -4.2448037    1537.9581  0.057113714  0.057235555            3 
 2245000   0.89617234   -4.2408817    1538.8438   0.05712115  0.057224233            4 
 2246000   0.87337827   -4.2477426    1540.3666  0.057152217  0.057212963            4 
 2247000   0.90510316   -4.2654145    1540.7775  0.057142021  0.057201629            4 
 2248000    0.8935035   -4.2737108    1545.3816  0.057287278  0.057190199            3 
 2249000     0.892652   -4.2394535    1543.0356  0.057174879   0.05717901            4 
 2250000   0.89232212    -4.227459    1546.2963  0.057270232  0.057167704            6 
 2251000   0.88341504   -4.2566636    1542.5311    0.0571054  0.057156474            6 
 2252000   0.88818509   -4.2191878    1551.8904  0.057426378  0.057145103            8 
 2253000   0.89527711   -4.2532044    1548.7438  0.057284503  0.057133905            3 
 2254000   0.87814187   -4.2355508    1551.8384  0.057373498  0.057122741            3 
 2255000   0.91332151    -4.240502    1547.8598  0.057201026  0.057111623            6 
 2256000   0.88990972   -4.2323829    1547.0548  0.057145936  0.057100467            6 
 2257000   0.90277176   -4.2426724    1545.1721  0.057051105  0.057089572            5 
 2258000   0.88167176   -4.2470212    1548.7695  0.057158601  0.057078495           11 
 2259000   0.89433676   -4.2703809    1545.7537   0.05702205  0.057067266            5 
 2260000   0.87634056   -4.2340525    1547.9262  0.057076925  0.057056017            2 
 2261000   0.88484922   -4.2332255    1552.6359  0.057225265  0.057044829            4 
 2262000   0.88365663     -4.28303    1547.6484  0.057016224  0.057033598            6 
 2263000   0.91008729   -4.2404631    1548.7838  0.057032839  0.057022374            2 
 2264000   0.88035334   -4.2438412    1552.1163  0.057130311  0.057011161            4 
 2265000    0.8910714   -4.2225679    1555.3686  0.057224747  0.056999659            8 
 2266000   0.89350485   -4.2212271    1550.4508  0.057018637  0.056988536            4 
 2267000   0.89333306   -4.2239243    1550.7063  0.057002877  0.056977158            3 
 2268000   0.87801156   -4.2514984    1554.1815  0.057105433  0.056965878            2 
 2269000   0.87369966   -4.2681122    1554.5339  0.057093208  0.056954439            7 
 2270000   0.88761796   -4.2617322    1551.2096  0.056946021  0.056942947            6 
 2271000    0.8958672   -4.2474263    1549.1776  0.056846382  0.056931416            5 
 2272000   0.88532336   -4.2328247    1548.2292  0.056786574  0.056919644            5 
 2273000   0.90120415   -4.2562449     1545.686  0.056668352   0.05690824            2 
 2274000   0.86710558   -4.2475111    1549.7744  0.056793255  0.056896507            5 
 2275000   0.89906041    -4.242463    1547.6342  0.056689897   0.05688487            5 
 2276000   0.89977964   -4.2418997    1552.9233  0.056858643  0.056873258            4 
 2277000   0.89030903   -4.2431258    1550.4781  0.056744185   0.05686153            6 
 2278000    0.8838123    -4.260154    1548.5977  0.056650486   0.05685005            1 
 2279000   0.90538254   -4.2542468    1546.9937  0.056566976  0.056838524            2 
 2280000   0.87356034   -4.2559995    1549.8364  0.056646066  0.056826895            2 
 2281000   0.89811244   -4.2532613    1548.6567  0.056578134  0.056815216            4 
 2282000   0.89381286   -4.2617749    1555.1092   0.05678897  0.056803616            5 
 2283000   0.88262527    -4.257315    1546.5169  0.056450465  0.056792027            6 
 2284000   0.89415526   -4.2642649    1549.2864  0.056526796  0.056780249            4 
 2285000   0.88040782   -4.2724014     1548.956  0.056490007  0.056768578            4 
 2286000   0.89209114   -4.2569578    1548.5531   0.05645061  0.056756817            4 
 2287000   0.87174623   -4.2522837    1556.1019  0.056700986  0.056745052            3 
 2288000   0.87288087   -4.2390624    1559.3946  0.056796133  0.056733475            4 
 2289000   0.89484819   -4.2531168    1553.6066  0.056560603  0.056721687            6 
 2290000    0.8987234   -4.2507972    1560.0463  0.056770242  0.056710067            2 
 2291000   0.89106418   -4.2492433    1558.9266  0.056704737  0.056698569            6 
 2292000   0.88965743   -4.2829653    1556.9293  0.056607376  0.056687065            3 
 2293000   0.85622263   -4.2780822    1557.1047  0.056589063  0.056675315            3 
 2294000   0.89085138   -4.2692719    1555.6524  0.056511639  0.056663689            5 
 2295000   0.87333094   -4.2436344    1559.2869  0.056618987  0.056652111           12 
 2296000   0.91078019   -4.2470561    1560.5696  0.056640882  0.056640512            3 
 2297000    0.8909654   -4.2491962    1559.0005  0.056559297  0.056628984            5 
 2298000   0.87802305   -4.2390105    1563.6579  0.056703578   0.05661751            4 
 2299000   0.86220987   -4.2531774    1561.4712  0.056599653  0.056605878            7 
 2300000   0.88104481   -4.2435877     1558.743  0.056476195  0.056594279            4 
 2301000   0.88996164   -4.2542353    1558.3354  0.056436891  0.056582615            2 
 2302000   0.87472327   -4.2394631    1560.4142  0.056487626  0.056571066            3 
 2303000   0.86902151   -4.2561033    1559.3778  0.056425596  0.056559306            6 
 2304000   0.86879212   -4.2388358    1560.9699   0.05645869   0.05654777            3 
 2305000   0.88956098    -4.261706    1558.1539   0.05633239  0.056536053            4 
 2306000   0.89568927   -4.2534387    1563.9389  0.056517018  0.056524494            7 
 2307000     0.871252   -4.2371339    1563.1584  0.056464327  0.056513135            3 
 2308000   0.86927118   -4.2723817    1557.1499  0.056222918  0.056501487            3 
 2309000   0.88772208   -4.2476517    1562.5648  0.056393994  0.056490056            3 
 2310000   0.87396985   -4.2885827    1562.2416  0.056357921  0.056478415            3 
 2311000   0.87768496   -4.2882657    1567.4995  0.056523131   0.05646692            3 
 2312000   0.88691044    -4.263875    1565.4632  0.056425289  0.056455402            5 
 2313000   0.87168646   -4.2463465    1562.3662  0.056289313  0.056443992            6 
 2314000   0.88609976   -4.2620217    1562.2107  0.056259389  0.056432481            1 
 2315000   0.88212025   -4.2753925    1561.1044  0.056195264  0.056420958            4 
 2316000   0.88918487   -4.2763387    1562.7735  0.056231057  0.056409329            4 
 2317000    0.8735011    -4.268036    1564.7404  0.056277529  0.056397741            2 
 2318000   0.87000425   -4.2387817    1569.2561  0.056415593  0.056386301            4 
 2319000   0.89737878   -4.2548193    1564.3972  0.056216661  0.056374729            3 
 2320000   0.87335185   -4.2517816    1570.5501  0.056413436  0.056363235            3 
 2321000   0.87321121   -4.2929995    1568.5476  0.056317233  0.056351572            4 
 2322000   0.87277425   -4.2838094    1564.9585  0.056164173  0.056339989            3 
 2323000   0.87826685   -4.2545996    1567.3328  0.056225169  0.056328558            4 
 2324000    0.8769377   -4.2739791      1566.45   0.05616932   0.05631688            5 
 2325000   0.90163558   -4.2464997    1568.3896  0.056214682  0.056305131            3 
 2326000   0.87516859   -4.2558781    1569.5379  0.056231653  0.056293573            3 
 2327000   0.89671835   -4.2492785    1571.4825  0.056277126   0.05628194            5 
 2328000   0.88429201    -4.282768    1568.2938  0.056138811  0.056270328            5 
 2329000   0.85709921   -4.2630848    1571.6188  0.056233678  0.056258664            4 
 2330000   0.86382592   -4.2763013    1570.4805  0.056168829  0.056247004            3 
 2331000   0.87327618    -4.278812     1566.018    0.0559852  0.056235341            5 
 2332000   0.86997444   -4.2499031    1567.1749  0.056002532   0.05622347            4 
 2333000   0.88402021   -4.2854665    1570.0534  0.056081347  0.056211682            5 
 2334000   0.87857976   -4.2956383    1570.7264  0.056081347   0.05619988            4 
 2335000   0.85936914   -4.2776104    1574.0918  0.056177438  0.056187929            2 
 2336000   0.86885309   -4.2810725     1574.519   0.05616863  0.056175942            3 
 2337000   0.89841984   -4.2992715      1571.54  0.056038368  0.056164184            8 
 2338000   0.86968943   -4.2539353    1574.8812   0.05613349  0.056152385            3 
 2339000   0.86973218   -4.2620978    1576.1737  0.056155539   0.05614072            4 
 2340000   0.85453887   -4.2599173    1570.9063  0.055943957  0.056129008            5 
 2341000   0.87970304   -4.2403959    1573.9553  0.056028596  0.056117115            6 
 2342000   0.87751264   -4.2944807    1573.4583  0.055986988  0.056105268            4 
 2343000    0.8800675   -4.2606889    1578.0617   0.05612682  0.056093504            2 
 2344000   0.87062624   -4.2473649    1578.7137  0.056126057  0.056081765            5 
 2345000   0.86716215   -4.2798382    1574.9877   0.05596971   0.05606989            1 
 2346000   0.86645663   -4.2447974    1574.8871  0.055942281  0.056058183            4 
 2347000   0.87248728   -4.2726251    1577.3765  0.056006835  0.056046573            4 
 2348000   0.89246744   -4.2552172    1582.1954   0.05615401  0.056034954            3 
 2349000   0.85797369   -4.2823668    1578.0907  0.055984486  0.056023305            3 
 2350000   0.87079827   -4.2893569    1572.8076  0.055773317  0.056011632            6 
 2351000   0.89658553    -4.303601     1567.546  0.055563094  0.055999667            6 
 2352000   0.86976233   -4.2874172    1572.5253  0.055715891  0.055987667            7 
 2353000   0.87256319    -4.267686    1577.7954  0.055878856  0.055975805            9 
 2354000   0.88176209   -4.2733451    1576.6461  0.055814432  0.055963885            5 
 2355000   0.87278099   -4.2686937    1578.9896  0.055873659   0.05595198            3 
 2356000   0.87212452   -4.2795154    1574.9136  0.055705773  0.055940194            5 
 2357000   0.86197543   -4.2822487    1577.9672  0.055790102  0.055928233            3 
 2358000   0.87395121   -4.2700265    1576.6259  0.055719037  0.055916254            7 
 2359000   0.88635437   -4.2770764    1572.5815  0.055552546   0.05590412            3 
 2360000   0.87923644   -4.2598619    1577.8297  0.055714324  0.055892111            3 
 2361000   0.87618304   -4.2822364    1573.2415  0.055528784  0.055880043            5 
 2362000   0.86711392   -4.2731408    1580.0418  0.055745194  0.055867907            4 
 2363000   0.86908849   -4.2589941    1578.8385  0.055679167  0.055855994            3 
 2364000   0.86718395    -4.269023    1582.3819  0.055780523  0.055844079            3 
 2365000   0.86890282   -4.2867085    1574.6181  0.055483374  0.055832071            5 
 2366000   0.87513093   -4.2671584    1574.6977  0.055462725  0.055819866            5 
 2367000   0.89764542   -4.2732816    1575.8473  0.055479767  0.055807555            3 
 2368000   0.86417412    -4.290202     1575.386  0.055440105   0.05579533            4 
 2369000   0.87823395   -4.2923745    1574.9519  0.055401432  0.055783024            3 
 2370000   0.85446781   -4.2551772    1573.3347  0.055321192   0.05577079            6 
 2371000   0.85920255   -4.2962425    1569.7437  0.055171646  0.055758446            4 
 2372000   0.89034806    -4.265712    1581.1159  0.055547917  0.055746226            9 
 2373000   0.88329846    -4.294978     1576.536  0.055363674  0.055733963            3 
 2374000   0.87798939   -4.2763766     1584.155  0.055607798  0.055721787            4 
 2375000   0.87636392   -4.2683983    1576.6316  0.055320408  0.055709765            3 
 2376000   0.87588481   -4.2680686    1576.8273  0.055303988  0.055697518            4 
 2377000    0.8615873   -4.2733008    1578.8565  0.055351863  0.055685438            3 
 2378000   0.88832929   -4.2577053    1583.6356  0.055496062  0.055673338            6 
 2379000   0.86945565    -4.254751    1584.0831  0.055488408  0.055661297            5 
 2380000   0.86463198   -4.2996781    1579.0013  0.055287162  0.055648992            5 
 2381000   0.86713433   -4.2745087    1581.7416  0.055359848  0.055636811            5 
 2382000   0.85802553   -4.2782049    1579.7957  0.055268533   0.05562447            4 
 2383000   0.86489268   -4.2654989    1583.6116  0.055378782  0.055612231            2 
 2384000   0.86367641   -4.2935519    1579.1443  0.055199395  0.055600037            4 
 2385000   0.86298865    -4.280816     1580.345  0.055218204  0.055587827            3 
 2386000   0.87460073   -4.3029508     1577.309  0.055089026  0.055575566           13 
 2387000   0.87428088   -4.3138533    1575.6906  0.055009446  0.055563333            6 
 2388000   0.87101109   -4.3047067    1581.6127  0.055193074  0.055550878            5 
 2389000   0.86522225   -4.3058642     1577.305  0.055019709  0.055538692            4 
 2390000   0.88858011   -4.2821406    1583.1635  0.055200959   0.05552652            5 
 2391000   0.86843131   -4.2862205     1585.587  0.055262338  0.055514601            5 
 2392000   0.86846153   -4.2770346    1585.9391    0.0552515   0.05550234            4 
 2393000   0.88366611   -4.2781167    1584.3461  0.055172938  0.055490291            3 
 2394000   0.86348283   -4.3264153    1582.1723  0.055074225  0.055478254            4 
 2395000   0.85859374   -4.2836332    1585.8375  0.055178759  0.055466101            4 
 2396000   0.86438077   -4.2875902    1583.0134  0.055057507  0.055453969            3 
 2397000   0.86172112   -4.2668264    1590.3432  0.055289361  0.055441745            6 
 2398000   0.87981059   -4.2936726    1585.6301   0.05510252  0.055429643            3 
 2399000   0.85828271   -4.3123707    1582.0628  0.054955633  0.055417436            4 
 2400000   0.85834407   -4.2646392    1594.0677  0.055349573  0.055405401            3 
 2401000   0.87477884   -4.3055567    1586.3819  0.055059764  0.055393405            4 
 2402000   0.85352483   -4.2654598    1591.7273   0.05522229  0.055381453           13 
 2403000   0.89126558   -4.2858029    1593.4399    0.0552587  0.055369559            3 
 2404000   0.85860153   -4.2962707    1589.4753  0.055098284  0.055357274            3 
 2405000   0.86184758   -4.2798227    1592.3339  0.055174425  0.055345254            3 
 2406000   0.85442297   -4.2695336     1588.409  0.055015552  0.055333227            3 
 2407000   0.88172131   -4.3017225    1585.2365   0.05488286  0.055321227            3 
 2408000   0.87306734   -4.3034496    1591.4462  0.055074967  0.055309171            7 
 2409000   0.86766847   -4.2701391    1591.0084  0.055036959  0.055297203            5 
 2410000   0.88565213   -4.3223988    1593.3034   0.05509348  0.055285102            5 
 2411000     0.880448   -4.2769796     1591.024  0.054991841  0.055272909            5 
 2412000   0.85964695   -4.2782676    1597.3203  0.055186576  0.055260819            3 
 2413000    0.8825308   -4.2723807    1596.3283  0.055129447   0.05524875            2 
 2414000   0.87711702   -4.2842062    1594.5926  0.055046691  0.055236776            3 
 2415000   0.85529888    -4.297393    1592.4582  0.054950247  0.055224881            4 
 2416000   0.87514641   -4.3030423    1592.8317  0.054940386  0.055212777            5 
 2417000   0.86782905    -4.297438    1592.8743  0.054919124  0.055200714            4 
 2418000   0.88057933   -4.2810085    1593.3402   0.05491247  0.055188694            2 
 2419000   0.86762097   -4.3176509    1591.7699  0.054835671  0.055176497            4 
 2420000   0.85985298   -4.2896887    1595.3823  0.054937408  0.055164301            5 
 2421000   0.84412242   -4.2794623    1594.6383  0.054889105   0.05515219            4 
 2422000   0.86470254   -4.3023356    1596.4075  0.054927317  0.055140239            4 
 2423000   0.86058729   -4.3002455    1599.4458  0.055009143  0.055128073            3 
 2424000   0.86364464   -4.3067754    1593.5422   0.05478349  0.055115874            6 
 2425000   0.86471309   -4.2843382    1594.7763  0.054803309  0.055103601            4 
 2426000   0.86899599   -4.3046328    1596.5797  0.054842665  0.055091439            8 
 2427000   0.85085589   -4.2924004    1592.3763  0.054675742  0.055079345            5 
 2428000   0.85967522   -4.3035525    1599.6256  0.054902032  0.055067118            5 
 2429000   0.85028447   -4.2706361    1598.8278  0.054852057  0.055055049            2 
 2430000   0.87021986   -4.2999279    1596.3428  0.054744267  0.055043122            3 
 2431000   0.88214476   -4.2791618    1595.5895  0.054695925  0.055031025            3 
 2432000   0.86285483   -4.3036209    1597.7066  0.054745977  0.055019025            3 
 2433000   0.86200912   -4.2906641    1600.0137  0.054802496  0.055006911            6 
 2434000   0.87610605   -4.2974943    1593.6532  0.054562215  0.054994754            4 
 2435000   0.85745541   -4.3097045    1597.4798  0.054670768  0.054982713            6 
 2436000   0.88737977   -4.2957339    1607.0403  0.054975378  0.054970846            5 
 2437000   0.85372343   -4.3020053    1601.7293  0.054771211  0.054959025           16 
 2438000   0.85975447   -4.3030694    1605.1033  0.054864073  0.054947215            4 
 2439000   0.87488854   -4.2686056    1609.0164  0.054975277  0.054935331            4 
 2440000   0.87064992   -4.2977255     1605.321  0.054826537  0.054923495            3 
 2441000   0.86715039   -4.2713091    1606.7515  0.054852912  0.054911664            4 
 2442000   0.87296903   -4.2944202    1601.1616  0.054639693  0.054899733            6 
 2443000   0.85548755   -4.3146131    1600.7749  0.054604138  0.054887837            6 
 2444000   0.86920361   -4.3034002    1604.6391  0.054713552  0.054875703            4 
 2445000   0.87713938   -4.2949899    1602.6278  0.054622625  0.054863624            5 
 2446000   0.87507678   -4.3206538      1599.79  0.054503613   0.05485163            7 
 2447000   0.85204531   -4.3135964    1600.6984  0.054512272  0.054839526            4 
 2448000    0.8705948   -4.3005453    1610.2565  0.054815378  0.054827508            2 
 2449000   0.84895108   -4.3229006    1601.1788  0.054484104  0.054815635            4 
 2450000   0.86900623   -4.2846391    1610.1949  0.054768532  0.054803808            4 
 2451000   0.84826601   -4.2850554    1608.0298  0.054672575  0.054791861            3 
 2452000    0.8570941   -4.3127351    1610.4953  0.054734069  0.054779944            6 
 2453000   0.85904702   -4.2819642    1608.7227  0.054651538  0.054768139            3 
 2454000    0.8645249   -4.2886651    1608.1947   0.05461134  0.054756378            4 
 2455000   0.84768775   -4.3076536    1606.1645   0.05452018   0.05474461            5 
 2456000   0.84554124    -4.293956    1610.1125  0.054631939  0.054732734            2 
 2457000    0.8243538   -4.3078909    1611.6321  0.054661244   0.05472075            9 
 2458000   0.87231838   -4.3389577    1604.0219  0.054380999    0.0547088            6 
 2459000   0.85924773   -4.3140198    1605.4297  0.054406593  0.054696839            6 
 2460000   0.85322136    -4.310904    1607.5315  0.054455675  0.054684863            5 
 2461000   0.83186606   -4.3324066    1606.4233  0.054396021  0.054672974            4 
 2462000   0.84823774   -4.3165266    1609.3941  0.054474481  0.054660929            8 
 2463000   0.86152634   -4.2766376      1613.08  0.054577074  0.054649098            3 
 2464000   0.85352074   -4.3374959    1607.2813  0.054358809  0.054637169            2 
 2465000   0.83803328   -4.3370421    1607.2146  0.054334503   0.05462525            2 
 2466000   0.85340248   -4.3108391    1609.4061  0.054386526  0.054613328            4 
 2467000   0.87068962   -4.2820489    1607.9115  0.054313996  0.054601477           10 
 2468000   0.86957936   -4.3185038       1609.2  0.054335493  0.054589428           11 
 2469000     0.859979   -4.2939647    1615.7543  0.054534706  0.054577528            4 
 2470000   0.86222146   -4.3010059    1612.8922  0.054416065  0.054565816            8 
 2471000   0.86029742   -4.3087414    1617.1742  0.054538453   0.05455404            3 
 2472000   0.85740688   -4.3002465    1614.3104   0.05441985  0.054542166            3 
 2473000   0.85176715   -4.3059133    1608.8402  0.054213514  0.054530091            9 
 2474000   0.83452568   -4.3238741    1614.5716  0.054384653  0.054518098            4 
 2475000   0.87346569   -4.3113304    1618.1488  0.054483126  0.054506167            2 
 2476000   0.84834766   -4.3197168    1619.6371  0.054511211  0.054494233            5 
 2477000   0.84560392    -4.327441     1611.769  0.054224498  0.054482386            5 
 2478000   0.85712269   -4.3030711    1614.8308  0.054305583   0.05447031            4 
 2479000   0.86461433   -4.3110876    1609.9964  0.054121165  0.054458346            7 
 2480000    0.8848935   -4.3264791    1616.9675  0.054333585  0.054446174            6 
 2481000   0.85036962   -4.3050824    1611.8322  0.054139198  0.054434228            3 
 2482000   0.84671468   -4.2989927    1618.4507  0.054339602  0.054422299            3 
 2483000   0.85885412   -4.3306789    1618.0112  0.054302965  0.054410474            4 
 2484000   0.86777528   -4.3088819    1611.3711  0.054058344  0.054398561            6 
 2485000    0.8550592   -4.3104493    1622.3676  0.054405351  0.054386818            2 
 2486000   0.87190064   -4.2978413    1614.7153  0.054126954  0.054374997            4 
 2487000   0.85186011   -4.2890609    1621.4462  0.054330725  0.054363211            5 
 2488000   0.86820395   -4.3349629    1619.1383  0.054231588  0.054351385            9 
 2489000   0.86203885   -4.3358502    1619.5284  0.054222861  0.054339658            7 
 2490000   0.85632233   -4.3241262    1624.8645  0.054379668  0.054328096            3 
 2491000   0.84300924   -4.3243375    1620.3677  0.054207403  0.054316367           11 
 2492000   0.85369306   -4.3143207    1623.0561  0.054275552  0.054304706            9 
 2493000   0.83711471   -4.3209575    1620.1208  0.054155663  0.054293159            6 
 2494000   0.84988056   -4.3130342    1623.4632   0.05424563  0.054281555           11 
 2495000    0.8619806   -4.2995111    1625.0152  0.054275725  0.054269866            4 
 2496000   0.85861495   -4.3177072    1621.8869  0.054149537  0.054258151            5 
 2497000   0.85866553   -4.2977407    1623.1329  0.054169434  0.054246398            2 
 2498000    0.8504486    -4.324991    1620.5165  0.054060466  0.054234852            4 
 2499000    0.8444535   -4.3263253    1622.0594  0.054090284  0.054223157            7 
 2500000   0.86778158   -4.3216285    1627.4919  0.054249731  0.054211576            3 
 2501000   0.87108644   -4.3338728    1619.0569  0.053946986  0.054199745            3 
 2502000   0.85069855   -4.3432682    1621.5226  0.054007547  0.054188068            3 
 2503000    0.8689693   -4.2956579     1624.409  0.054082067  0.054176448            2 
 2504000   0.84015789   -4.3284048    1623.6732  0.054035983  0.054164811            2 
 2505000   0.86993282   -4.3227964    1621.7665  0.053950981  0.054153206            6 
 2506000   0.86075833   -4.3554814    1628.6815    0.0541594  0.054141458            4 
 2507000   0.85911062   -4.3180162    1624.8562  0.054010642  0.054129791            4 
 2508000   0.85448453   -4.3353947    1627.9198  0.054090901  0.054118115            8 
 2509000   0.84385328    -4.303948     1632.208  0.054211772  0.054106785            3 
 2510000   0.84986132   -4.3357117    1624.9275  0.053948457  0.054095414            5 
 2511000    0.8226175   -4.3298358    1629.3186  0.054072699  0.054084001            5 
 2512000   0.86277334   -4.3332594    1628.1005  0.054010764  0.054072598            9 
 2513000   0.84749699   -4.3308239    1631.4023  0.054098763  0.054061176            3 
 2514000   0.84599699   -4.2841899    1632.7087  0.054120548  0.054049646            4 
 2515000   0.85678461   -4.3026264    1634.9413  0.054173006  0.054038089            6 
 2516000    0.8409646   -4.3259192    1626.5323  0.053872956  0.054026638            4 
 2517000   0.85167668   -4.3389235    1635.1991  0.054138496   0.05401504            8 
 2518000   0.84814832   -4.3268516    1630.4145  0.053958648  0.054003485            5 
 2519000   0.85683735   -4.3222983    1629.5091  0.053907275  0.053991946            8 
 2520000   0.85152058   -4.3039017    1628.8932  0.053865516  0.053980496            2 
 2521000   0.84621441   -4.2729075    1637.8596  0.054140541  0.053969064            5 
 2522000   0.86826543   -4.3011043    1629.6084   0.05384643  0.053957567            2 
 2523000   0.86245345   -4.3303005    1633.4678  0.053952563  0.053946024            2 
 2524000   0.84518353   -4.3026204     1633.846  0.053943674  0.053934578            4 
 2525000   0.83677643   -4.3127829    1638.1296  0.054063682  0.053922931            3 
 2526000   0.86907723    -4.326076    1631.4931  0.053823341  0.053911226            6 
 2527000   0.84490765   -4.3240839    1634.6289  0.053905451  0.053899568            4 
 2528000   0.84711992   -4.3073355    1634.3542  0.053875071  0.053888016            3 
 2529000   0.83050648   -4.3330571    1638.1597  0.053979164  0.053876407            4 
 2530000   0.85661019   -4.3281882    1634.0611  0.053822831  0.053864943            5 
 2531000   0.84643569   -4.3289341    1635.7764  0.053858042  0.053853543           11 
 2532000   0.85170455   -4.3128924    1637.9556   0.05390849  0.053842227            5 
 2533000   0.82710973   -4.3367198    1634.6598  0.053778781  0.053830903            5 
 2534000   0.83752071   -4.2991233    1642.0498  0.054000586  0.053819485            4 
 2535000   0.84768455   -4.3034671    1641.4151  0.053958417  0.053808087            3 
 2536000   0.83442752   -4.3284023    1638.1114  0.053828583    0.0537968           13 
 2537000   0.84742398   -4.3334301    1638.9722  0.053835639  0.053785422            4 
 2538000   0.83344501   -4.3241009    1640.4493  0.053862927  0.053773981            6 
 2539000   0.83646181   -4.3231464    1638.0907    0.0537643  0.053762669            8 
 2540000    0.8661423   -4.3454116    1635.7914  0.053667697  0.053751208            4 
 2541000   0.83354122   -4.3223462     1637.048  0.053687786  0.053739762            5 
 2542000    0.8527606   -4.3290783    1642.3028  0.053838931  0.053728481            2 
 2543000   0.83091265   -4.3451393    1643.6196  0.053860913  0.053717072            4 
 2544000   0.85877884   -4.3240834    1644.2842   0.05386151   0.05370578            4 
 2545000   0.83803614   -4.3151671     1644.738  0.053855208   0.05369463            4 
 2546000   0.84597055   -4.3401668    1642.4088  0.053757818  0.053683401           15 
 2547000   0.85047124   -4.3187149    1643.4212  0.053769835   0.05367221            3 
 2548000   0.83839812   -4.3111669    1648.4871  0.053914415  0.053661191           10 
 2549000   0.86170024   -4.3353535    1643.7524  0.053738472  0.053649948            3 
 2550000    0.8302396   -4.3113534     1646.775  0.053816176  0.053638795            6 
 2551000   0.82677266    -4.330929    1648.4429  0.053849566  0.053627651            3 
 2552000   0.85197979   -4.3146189    1647.4962  0.053797552  0.053616422            3 
 2553000   0.83032773   -4.3394514    1645.4977  0.053711245  0.053605242           10 
 2554000   0.83574726   -4.3127228    1650.7095  0.053860268  0.053594216            6 
 2555000   0.83920143   -4.3391313    1648.1935  0.053757127  0.053583238            7 
 2556000   0.85115905   -4.3279112    1650.7932  0.053820851  0.053572362            4 
 2557000   0.84168242   -4.3405514    1651.7224  0.053830088  0.053561361            5 
 2558000   0.84268382   -4.3457342    1649.5515   0.05373832  0.053550335           13 
 2559000   0.83812055   -4.3567823    1650.1379  0.053736417  0.053539369            8 
 2560000   0.85618682   -4.3032848    1656.9585  0.053937451  0.053528452            3 
 2561000   0.86287277   -4.3153039    1657.8137  0.053944218  0.053517628            6 
 2562000   0.85602136   -4.3257122    1651.0177  0.053702112  0.053506752            7 
 2563000   0.84900566   -4.3242512      1654.28  0.053787228  0.053495812            3 
 2564000   0.84523732   -4.3370147    1651.6896   0.05368206  0.053485033            4 
 2565000   0.83912198    -4.337679    1660.2121  0.053938015  0.053474269            3 
 2566000   0.85690324   -4.3709013    1652.3255  0.053660869  0.053463519            5 
 2567000   0.85987657   -4.3166403    1656.6496  0.053780341  0.053452538            8 
 2568000   0.84897201   -4.3440256    1657.5176  0.053787566   0.05344172            3 
 2569000   0.83708299   -4.3016688    1659.1862  0.053820755  0.053430889            2 
 2570000   0.84110161   -4.3285228    1650.7742   0.05352705  0.053420128            4 
 2571000    0.8253398   -4.3189135     1656.421   0.05368926  0.053409192            2 
 2572000   0.84019571   -4.3128634    1659.7613  0.053776612  0.053398229            7 
 2573000   0.84388598   -4.3455176    1662.3098   0.05383825   0.05338741            4 
 2574000   0.85762636   -4.2921855    1660.0332  0.053743629  0.053376563            4 
 2575000   0.85206208   -4.3527196    1656.6085  0.053611926  0.053365715            4 
 2576000   0.85320578   -4.3383657    1655.3192  0.053549405  0.053354864            5 
 2577000   0.81988248   -4.3254597    1659.5588  0.053665722  0.053343973            7 
 2578000   0.83846945   -4.3554157     1659.031  0.053627845   0.05333324            5 
 2579000   0.84024572   -4.3558239    1657.2659  0.053550016   0.05332248            2 
 2580000   0.81771121    -4.341701    1659.8304  0.053612092  0.053311508            5 
 2581000   0.83726646   -4.3383449    1655.2644  0.053443897  0.053300564           17 
 2582000   0.85285371   -4.3418029    1666.1439  0.053774332  0.053289805            6 
 2583000   0.81372764   -4.3522298    1660.2297  0.053562709  0.053278886            4 
 2584000   0.85424736   -4.3337473     1664.297   0.05367315  0.053268082            6 
 2585000   0.83515696    -4.331339    1663.3789  0.053622789   0.05325739            5 
 2586000   0.82263901   -4.3336206    1656.2944  0.053373755  0.053246631            7 
 2587000   0.83707065    -4.339923    1663.1027  0.053572435  0.053235811            8 
 2588000    0.8380597   -4.3437545    1661.7677   0.05350875  0.053224848            2 
 2589000   0.83802694   -4.3479082    1661.9256  0.053493162  0.053214037            4 
 2590000   0.83674385   -4.3221457    1664.1596  0.053544388  0.053203003            2 
 2591000   0.83141876   -4.3496039    1664.5039  0.053534797  0.053192051            4 
 2592000   0.83772576    -4.324056    1665.7289  0.053553525  0.053181119            9 
 2593000   0.84496159   -4.3283354    1665.6322  0.053529766  0.053170368            5 
 2594000   0.83872724   -4.3305164    1665.3567  0.053500281  0.053159731            4 
 2595000   0.84303333   -4.3250739    1661.2124  0.053346576  0.053148914            3 
 2596000   0.82683062   -4.3398013    1661.4494  0.053333636  0.053138131            5 
 2597000    0.8329018   -4.3411283    1664.8536  0.053422333  0.053127429            6 
 2598000   0.83238989   -4.3577845     1668.727  0.053526014  0.053116722            3 
 2599000   0.84173851   -4.3617427    1664.8548  0.053381262  0.053105928            6 
 2600000   0.83858963   -4.3323176     1662.596  0.053288334  0.053094947            7 
 2601000   0.86759519    -4.340347    1668.2806  0.053449974  0.053084138            3 
 2602000   0.83542608   -4.3419545    1665.1053  0.053327738  0.053073394            7 
 2603000   0.81428248   -4.3409824    1660.1455  0.053148466  0.053062524            6 
 2604000   0.83687661   -4.3409129    1670.5851  0.053462144  0.053051794            3 
 2605000   0.84490997   -4.3268013    1666.1006  0.053298164  0.053040876            6 
 2606000   0.83748555   -4.3723696    1666.4295  0.053288228  0.053030055            6 
 2607000   0.83689979   -4.3503559     1666.923  0.053283563  0.053019161           15 
 2608000   0.83996277    -4.353925      1669.68  0.053351228  0.053008268            4 
 2609000   0.85882403    -4.334975    1668.6171  0.053296828  0.052997342            4 
 2610000   0.83541649   -4.3335976    1669.8712  0.053316448  0.052986572            5 
 2611000   0.83679915    -4.365617    1663.1898  0.053082784  0.052975849            5 
 2612000   0.83190864   -4.3277988    1670.0284  0.053280642  0.052965197           13 
 2613000   0.84781989     -4.37986    1671.2702  0.053299852    0.0529543            5 
 2614000   0.82788698   -4.3614787     1664.575  0.053066023  0.052943348            6 
 2615000   0.83326815   -4.3516243    1667.8874  0.053151287  0.052932342            4 
 2616000   0.82359813   -4.3493286    1673.7905  0.053319015  0.052921426            4 
 2617000   0.84617274   -4.3489588    1667.2036  0.053088894  0.052910501            3 
 2618000   0.81718747   -4.3851259    1669.1994  0.053132144  0.052899406            3 
 2619000   0.84518597   -4.3654583    1664.0286  0.052947328  0.052888223            8 
 2620000   0.84289969    -4.336152    1665.8524  0.052985127  0.052877081            4 
 2621000   0.83892186   -4.3381175    1664.3556  0.052917323   0.05286606            4 
 2622000   0.82850616   -4.3338598    1667.7881  0.053006234  0.052854935            3 
 2623000   0.82786225   -4.3330298    1666.4658  0.052944016  0.052844018            3 
 2624000   0.81311935   -4.3360672    1674.6034  0.053182271  0.052833137            6 
 2625000   0.83940179   -4.3685379    1669.3817  0.052996243  0.052822135            5 
 2626000   0.83225151   -4.3506261    1676.6186  0.053205718  0.052811235            2 
 2627000   0.81831939   -4.3570766    1669.8238  0.052969922  0.052800325            4 
 2628000   0.83758816   -4.3497612    1671.7282  0.053010154  0.052789412            4 
 2629000   0.83053232   -4.3586347    1666.3399  0.052819193  0.052778371            8 
 2630000   0.81338884    -4.355124    1674.0689  0.053044008    0.0527674            3 
 2631000   0.82374985   -4.3333159     1675.516  0.053069682  0.052756447            4 
 2632000   0.81691394   -4.3489297    1675.4564   0.05304763  0.052745541            2 
 2633000   0.82245368   -4.3714136    1669.7254  0.052846101  0.052734543            4 
 2634000   0.83068603   -4.3518175     1673.374  0.052941469  0.052723293            5 
 2635000   0.82172639   -4.3442717    1675.8254  0.052998906  0.052712336            5 
 2636000   0.81764217   -4.3520326     1678.788  0.053072459  0.052701261            5 
 2637000   0.82268671   -4.3668054    1666.6191  0.052667777  0.052690202            4 
 2638000   0.82069326   -4.3647482    1673.3897  0.052861692  0.052679026            6 
 2639000   0.83603837   -4.3294041    1674.3614  0.052872344  0.052668064            5 
 2640000   0.82405012   -4.3491473    1669.8228  0.052709053  0.052657022            3 
 2641000   0.83491334   -4.3582469    1670.8932  0.052722871  0.052646001            3 
 2642000   0.82447437   -4.3753181    1671.6645  0.052727243  0.052634916            4 
 2643000   0.84907148   -4.3577828    1674.5409  0.052797984    0.0526238            4 
 2644000   0.83895856   -4.3572475    1673.9858  0.052760522   0.05261281            3 
 2645000   0.84432669   -4.3575115    1673.0628  0.052711495  0.052601852           12 
 2646000   0.83699317   -4.3461153    1682.1728  0.052978485  0.052590765           10 
 2647000   0.83571452   -4.3617858    1671.6448  0.052627026  0.052579598            5 
 2648000    0.8256339   -4.3606787    1677.9723  0.052806277  0.052568675            6 
 2649000   0.82456939   -4.3394722    1680.5938  0.052868812  0.052557705            3 
 2650000   0.81443259   -4.3562551    1680.6786  0.052851529  0.052546775            7 
 2651000   0.81650399   -4.3737867    1677.9283  0.052745136  0.052535803            3 
 2652000   0.83578554   -4.3805425    1679.4238  0.052772242  0.052524755            4 
 2653000   0.82396669   -4.3760263    1676.0773  0.052647234  0.052513636            8 
 2654000   0.84609411   -4.3512922    1680.9103  0.052779147   0.05250268            3 
 2655000   0.81683471   -4.3599679    1677.4618  0.052651028  0.052491889            9 
 2656000   0.82577055   -4.3365239    1678.8332  0.052674235  0.052481071            2 
 2657000   0.82457955   -4.3854011     1678.199  0.052634519  0.052469915            3 
 2658000   0.81009861   -4.3492593     1686.674  0.052880425  0.052458849            5 
 2659000   0.80694466   -4.3572026    1675.5763  0.052512732  0.052447694            4 
 2660000   0.83466607   -4.3866839    1677.8472  0.052564136  0.052436601            4 
 2661000   0.83549636   -4.3470441    1680.9413   0.05264128   0.05242559            4 
 2662000   0.81679078   -4.3459442    1676.3918  0.052479082  0.052414483            6 
 2663000   0.80799014    -4.376904    1675.6341  0.052435665   0.05240331            5 
 2664000   0.82617702   -4.3602071    1685.1254  0.052712883  0.052392199            4 
 2665000   0.82378665   -4.3769529    1679.4597  0.052515939  0.052381264            9 
 2666000   0.82324986    -4.381563     1679.385  0.052493904  0.052370301            5 
 2667000   0.83468957   -4.3523984    1684.5249  0.052634825  0.052359369            3 
 2668000   0.83287954   -4.3349225    1685.5989  0.052648642  0.052348467            6 
 2669000   0.82386177   -4.3585592     1679.944  0.052452355  0.052337491            5 
 2670000    0.8253904   -4.3421025    1688.4516  0.052698239  0.052326495            8 
 2671000   0.82639759   -4.3761699    1683.1549  0.052513256  0.052315388            7 
 2672000   0.83262469   -4.3612503    1681.7296   0.05244915  0.052304318            5 
 2673000   0.81888506   -4.3610415    1685.2586  0.052539551  0.052293213            5 
 2674000   0.83622403   -4.3515405    1686.0062  0.052543201  0.052282157            3 
 2675000   0.83557063   -4.3561438    1689.0822  0.052619383  0.052271193            3 
 2676000   0.81505944   -4.3713042    1682.1973  0.052385316  0.052260177            9 
 2677000   0.81559752   -4.3388274    1685.5822  0.052471119  0.052249176            2 
 2678000   0.81277301   -4.3728719    1683.5468  0.052388186  0.052238235            5 
 2679000   0.82745157   -4.3905261    1688.7181  0.052529491  0.052227175           10 
 2680000   0.83934974    -4.377213    1682.4147   0.05231389  0.052216185            4 
 2681000   0.82122355   -4.3824952    1682.0666  0.052283557  0.052205217            3 
 2682000   0.81928111   -4.3682618    1692.4186  0.052585712  0.052194142            8 
 2683000   0.82263051   -4.3699192    1685.4762  0.052350485  0.052183193            4 
 2684000   0.81160809   -4.3504773     1690.459  0.052485688  0.052172105            2 
 2685000   0.81648096   -4.3793539    1688.2272   0.05239687  0.052161002            5 
 2686000   0.82752138   -4.3700685    1680.4495   0.05213606   0.05214979            4 
 2687000   0.82278425   -4.3808303     1684.311  0.052236416  0.052138621            3 
 2688000   0.82816222   -4.3299169    1686.7258  0.052291846  0.052127459            5 
 2689000   0.83225943   -4.3636888    1685.2848  0.052227742  0.052116275            5 
 2690000   0.81819825   -4.3833727    1685.4488  0.052213409  0.052105316            8 
 2691000     0.827913   -4.3646662    1689.5245  0.052320217   0.05209426            3 
 2692000   0.82757558   -4.3428452    1693.3156  0.052418141  0.052083249            4 
 2693000   0.83057525   -4.3692831    1692.1055   0.05236123  0.052072297            3 
 2694000   0.81974881   -4.3950557    1687.5262  0.052200143  0.052061128            7 
 2695000   0.82169608   -4.3891876    1686.8245  0.052159075  0.052049986            4 
 2696000   0.85041995   -4.3438392    1690.3268  0.052247986  0.052038869           10 
 2697000   0.82553012   -4.3928637    1687.3936  0.052137979  0.052027811            3 
 2698000    0.8210758   -4.3693858    1687.0569  0.052108257  0.052016691            3 
 2699000   0.82241618   -4.4016465    1685.7505  0.052048615   0.05200551            2 
 2700000   0.83195978   -4.3910967    1687.0478  0.052069376  0.051994257            4 
 2701000   0.81339832   -4.3546379    1688.0207  0.052080116   0.05198301            4 
 2702000   0.80756178   -4.3775291    1687.6725  0.052050103  0.051971762            2 
 2703000     0.821486    -4.368169    1686.0497  0.051980816  0.051960611            9 
 2704000   0.84063501   -4.3890069    1689.7193  0.052074683  0.051949517            5 
 2705000   0.79637529   -4.3794794    1689.8958  0.052060867  0.051938409            2 
 2706000    0.8165364   -4.3974553    1689.8908  0.052041477   0.05192731            7 
 2707000   0.83006336   -4.3753991    1688.2381  0.051971373  0.051916168            7 
 2708000    0.8069528   -4.3946069    1691.2405  0.052044573  0.051904997            5 
 2709000   0.81073037   -4.3636549     1694.416  0.052123046  0.051893946            7 
 2710000   0.82619168   -4.3472746    1696.5005  0.052167913  0.051883076            2 
 2711000   0.81512158   -4.3786831    1695.2356  0.052109788  0.051872229            5 
 2712000   0.82374829   -4.3889531    1695.5317  0.052099671  0.051861186            5 
 2713000   0.83448957   -4.3328005    1696.9661  0.052124526  0.051850202            4 
 2714000   0.80081762   -4.3649637     1701.237  0.052236458  0.051839213            5 
 2715000   0.79462375   -4.3907364    1697.8996  0.052114782  0.051828133            4 
 2716000   0.81655524   -4.3987516    1695.6517  0.052026622  0.051817032            7 
 2717000   0.81790947   -4.3842673      1696.54  0.052034719  0.051806047            2 
 2718000   0.82320908   -4.3799027    1692.0952  0.051879297  0.051794951            3 
 2719000   0.80473731   -4.3610131     1697.564  0.052027829  0.051783902            5 
 2720000   0.80663847    -4.396013    1697.0327  0.051992422  0.051772901            6 
 2721000   0.80357944   -4.3776914    1689.4821   0.05174207  0.051761878            6 
 2722000    0.8077946   -4.3762216    1699.2561   0.05202229  0.051750914            3 
 2723000   0.83444008   -4.3693887    1697.9025  0.051961761   0.05173991            5 
 2724000   0.82083767   -4.3466277    1698.6312  0.051964978  0.051728927            2 
 2725000   0.81430632   -4.3411821    1697.5464  0.051912734   0.05171794            6 
 2726000   0.83916455   -4.3889541      1697.77  0.051900527  0.051706859            3 
 2727000   0.81554354   -4.4026799    1692.1916  0.051711025  0.051695799           10 
 2728000   0.79611591   -4.3910101    1696.4835  0.051823175  0.051684761            5 
 2729000   0.82755799   -4.3761873    1697.8345   0.05184544  0.051673675            2 
 2730000    0.7993777   -4.3871225    1695.2053  0.051746194  0.051662798            5 
 2731000   0.81428271   -4.3720696    1697.4271  0.051795042  0.051651712            3 
 2732000   0.81240832   -4.4110679    1694.4472  0.051685188  0.051640664            7 
 2733000   0.82005343    -4.409002    1697.2833  0.051752752  0.051629588            3 
 2734000   0.82521266   -4.4203133    1696.8795  0.051721516    0.0516184            3 
 2735000   0.81299607   -4.4017218    1693.3942  0.051596412  0.051607257            5 
 2736000   0.81958041   -4.3731017    1699.9944  0.051778583  0.051596157            3 
 2737000   0.79490791   -4.3785205    1696.3037  0.051647293  0.051584985            4 
 2738000   0.81704006   -4.3630368    1703.3568  0.051843097   0.05157386            5 
 2739000    0.7809344    -4.393219    1699.8552  0.051717633   0.05156271            4 
 2740000   0.81293542   -4.4050854    1698.0686  0.051644421  0.051551609            3 
 2741000   0.82607508   -4.3875271    1701.2248  0.051721538  0.051540443            4 
 2742000   0.80412741   -4.4037489    1697.0233  0.051574985  0.051529313            4 
 2743000    0.8105787   -4.4168985    1700.0577  0.051648368  0.051518148            7 
 2744000   0.80158842   -4.3651081    1698.8501  0.051592872  0.051506992            5 
 2745000   0.82819554   -4.3966027    1697.0045  0.051518048  0.051495793            3 
 2746000    0.8302849   -4.3954269    1697.2616  0.051507088  0.051484599            5 
 2747000   0.81884662   -4.3913225    1703.6653  0.051682601  0.051473458            5 
 2748000   0.83135449   -4.4055913    1699.1934  0.051528184  0.051462349           10 
 2749000   0.80725323   -4.4046504    1703.3014  0.051633969  0.051451221            6 
 2750000   0.81699524   -4.3973519      1703.77  0.051629394  0.051440035            5 
 2751000   0.81768489   -4.3939754    1701.9015  0.051554025  0.051428948            7 
 2752000   0.80636539   -4.3987483    1703.1706  0.051573723  0.051417959            4 
 2753000   0.81102598   -4.3800936    1703.7549  0.051572675  0.051406794            3 
 2754000   0.82572194   -4.4171896    1700.2119  0.051446742  0.051395672            7 
 2755000   0.79812904   -4.3902496    1706.9824  0.051632863  0.051384561            3 
 2756000   0.80944749   -4.4207279    1701.3655  0.051444287  0.051373572            6 
 2757000   0.82574555   -4.3968694     1706.215  0.051572211  0.051362547            5 
 2758000   0.81382614   -4.3867717    1703.2355  0.051463484  0.051351404            7 
 2759000   0.81519687    -4.394514    1700.9256  0.051375064  0.051340381            5 
 2760000   0.81231959   -4.3794094     1705.948  0.051508093   0.05132933            6 
 2761000   0.81138044    -4.403642    1707.4588  0.051535035  0.051318299            4 
 2762000   0.81231032   -4.4127533    1698.9339  0.051259171  0.051307198            7 
 2763000   0.80870648     -4.39344    1703.8217  0.051388035  0.051296022            4 
 2764000   0.80866734   -4.4050851    1705.7353  0.051427137  0.051284958            7 
 2765000   0.79990379   -4.3745632    1711.5774  0.051584612  0.051273842            7 
 2766000   0.80638828   -4.4105198    1707.4691  0.051442187  0.051262797            6 
 2767000   0.80315697   -4.4049447    1704.8327  0.051344195  0.051251651            4 
 2768000   0.81976426   -4.3932919    1707.8369   0.05141609  0.051240514            4 
 2769000   0.80887022   -4.3848481    1706.5137  0.051357703  0.051229409            7 
 2770000     0.791019   -4.3856593    1707.9063  0.051381056  0.051218292            2 
 2771000   0.81590432   -4.3927279    1711.0849  0.051458103  0.051207219            3 
 2772000   0.79965055   -4.3846088    1713.3506  0.051507655  0.051196154            5 
 2773000    0.8073439   -4.3780652    1705.7506  0.051260687  0.051185076            6 
 2774000    0.7987543   -4.3884636    1707.3067  0.051288953  0.051173874           13 
 2775000   0.79043057   -4.4077186    1706.8306  0.051256173  0.051162729            7 
 2776000   0.80198949   -4.4004926    1705.6211  0.051201403  0.051151376            4 
 2777000    0.8102861   -4.3803427    1711.0795  0.051346761  0.051140101            5 
 2778000   0.80761463   -4.3873882    1706.4613  0.051189745  0.051128811            3 
 2779000   0.81288102     -4.41059    1705.8601  0.051153295    0.0511175            2 
 2780000   0.82261437   -4.4061227     1708.794  0.051222841  0.051106384            9 
 2781000   0.80923505   -4.4104787    1707.3529  0.051161238  0.051095156            5 
 2782000   0.80062761   -4.4044506    1710.4243  0.051234854  0.051084074            4 
 2783000     0.813635    -4.398704    1709.8034   0.05119785  0.051072941            4 
 2784000   0.81983656   -4.4213044    1707.4721  0.051109677   0.05106171            5 
 2785000   0.81477697   -4.4080154    1709.0209  0.051137668  0.051050559            3 
 2786000   0.79277439   -4.4080232    1705.7933  0.051022772  0.051039283            2 
 2787000   0.79246411   -4.4016787    1703.3519  0.050931463  0.051028013            5 
 2788000   0.81143359   -4.3968517     1710.511  0.051127181  0.051016805            3 
 2789000   0.80945403   -4.3955181    1704.3942  0.050926084  0.051005383            3 
 2790000   0.80858927   -4.3711408    1713.1801  0.051170254  0.050994142            5 
 2791000   0.81310709   -4.4219133    1712.3269  0.051126444  0.050982969            5 
 2792000   0.81264256   -4.4015932    1713.1426   0.05113248  0.050971664            4 
 2793000   0.81716825   -4.3705573    1713.3747  0.051121098   0.05096049            5 
 2794000   0.81970959   -4.3993233    1712.8417  0.051086903  0.050949146            7 
 2795000   0.80371661   -4.3688643    1714.3638  0.051114008  0.050937758            5 
 2796000   0.78699018    -4.388676    1716.7729  0.051167529  0.050926554            6 
 2797000    0.8110437   -4.3998389    1712.0041  0.051007153  0.050915306            4 
 2798000   0.82206176    -4.423974    1710.4529  0.050942723  0.050903979            8 
 2799000   0.80491825   -4.4056186    1711.9296   0.05096849  0.050892774            6 
 2800000   0.80635129    -4.398054    1710.3336  0.050902785    0.0508815            6 
 2801000    0.8173246   -4.4038169    1713.2546  0.050971516  0.050870171            5 
 2802000   0.80360234    -4.406976    1711.7663  0.050909062  0.050858858            8 
 2803000   0.79776998   -4.4280987    1712.2197  0.050904379  0.050847455            4 
 2804000   0.80685858   -4.4033404    1713.3124    0.0509187  0.050836098            7 
 2805000   0.81342211    -4.431173    1708.8325  0.050767455  0.050824768            7 
 2806000   0.79749406   -4.4121423    1715.2257  0.050939229  0.050813452            5 
 2807000   0.80004597   -4.3811949    1712.1379  0.050829411  0.050802169            4 
 2808000   0.78628731    -4.386698    1712.9995  0.050836879  0.050790976            4 
 2809000   0.81098023   -4.3931093    1722.4977   0.05110056  0.050779722            3 
 2810000   0.80314951   -4.3947292    1716.6067  0.050907673  0.050768497           11 
 2811000   0.79848408   -4.3986872    1717.2676  0.050909153  0.050757224            3 
 2812000   0.79083712   -4.4089541    1718.1051  0.050915871   0.05074606            5 
 2813000   0.79357658   -4.3880879    1714.1877  0.050781718  0.050734773            2 
 2814000    0.8132537   -4.4091345    1715.4299  0.050800459  0.050723491            4 
 2815000    0.7928272      -4.4431    1709.1231   0.05059571  0.050712185            8 
 2816000   0.80372874   -4.4104999    1715.6434  0.050770696  0.050700833            5 
 2817000   0.80047695   -4.3875961    1715.0599  0.050735414   0.05068958            8 
 2818000   0.80556509   -4.4085283    1723.4128  0.050964421  0.050678415           12 
 2819000   0.79957343   -4.4004095     1713.719   0.05065978  0.050667147            5 
 2820000   0.80281456    -4.405315    1717.1646  0.050743636  0.050656026            9 
 2821000   0.81434655   -4.4280203    1716.4024   0.05070313  0.050644694           13 
 2822000   0.78942526   -4.4188475    1719.7389  0.050783691  0.050633549            5 
 2823000   0.81004221   -4.4079158    1719.3239  0.050753451  0.050622504            5 
 2824000   0.80275602   -4.4167293    1720.6831  0.050775587  0.050611343            4 
 2825000   0.80804156   -4.4318855    1721.1176  0.050770431  0.050600152            5 
 2826000   0.78994887   -4.4479908    1719.7805  0.050713037  0.050589118            6 
 2827000   0.80006603   -4.4011015    1723.3968  0.050801698   0.05057796            5 
 2828000   0.79448099   -4.3983814    1726.1133  0.050863783  0.050566956            5 
 2829000   0.79930437   -4.4053985    1717.9672  0.050605843  0.050555968            5 
 2830000   0.77726405   -4.4019281    1722.4413  0.050719709  0.050544875            5 
 2831000   0.80413296    -4.413369      1722.21  0.050694985  0.050533708            6 
 2832000   0.82420283   -4.3933343    1725.8422  0.050783964   0.05052263            4 
 2833000   0.79521185    -4.414696    1720.7322  0.050615726  0.050511519            3 
 2834000   0.79692067    -4.430586    1726.6205  0.050771008  0.050500425            3 
 2835000   0.80849909   -4.4238453    1722.5004  0.050631994  0.050489248            9 
 2836000   0.80403412    -4.420591    1720.9894  0.050569741  0.050478123            3 
 2837000   0.79706646   -4.4342259     1724.202  0.050646282  0.050466953            5 
 2838000   0.78760901   -4.4489151    1722.8077  0.050587495  0.050455713            5 
 2839000   0.80719444    -4.398819    1721.8626  0.050541934  0.050444568            7 
 2840000    0.7997687   -4.3852939    1721.5208  0.050514108  0.050433364            7 
 2841000   0.80395759    -4.408632    1729.0236  0.050716404   0.05042214            6 
 2842000   0.80601785   -4.4009996    1729.2535  0.050705298  0.050411031            6 
 2843000   0.80276246    -4.425464    1724.0079  0.050533706  0.050399835            2 
 2844000   0.77423814   -4.4226485    1723.6356  0.050505028   0.05038863            6 
 2845000   0.80877434   -4.4346126    1727.4588  0.050599262  0.050377363            2 
 2846000   0.78972355   -4.4223654    1722.2751  0.050429701  0.050366194            6 
 2847000   0.79001618   -4.4208741    1726.4158  0.050533186  0.050355031           10 
 2848000   0.79687148   -4.4371106    1725.7028  0.050494582  0.050343928           10 
 2849000    0.7877654   -4.4215432    1728.6082   0.05056184  0.050332653            7 
 2850000   0.81738103   -4.4021977     1727.528  0.050512514  0.050321467            8 
 2851000   0.80150196    -4.424342    1724.5575   0.05040797  0.050310268            3 
 2852000   0.81577342   -4.4354722     1721.699  0.050306773  0.050299013            6 
 2853000   0.79469176    -4.421745    1723.1343  0.050331065  0.050287777            8 
 2854000   0.79512704    -4.426933    1723.8224   0.05033352  0.050276595            2 
 2855000   0.78766902   -4.4161023    1723.4325   0.05030451  0.050265457            4 
 2856000   0.80687457   -4.4410751    1723.8129  0.050297995  0.050254198            9 
 2857000   0.78510185   -4.4105141    1728.3444  0.050412565  0.050242984            3 
 2858000   0.79343697   -4.4605024    1725.8219  0.050321377  0.050231745            7 
 2859000   0.80126359   -4.4075153    1727.5723  0.050354794   0.05022045            8 
 2860000   0.79311028   -4.4514417    1724.8372  0.050257494  0.050209159            6 
 2861000   0.79550116   -4.4042501    1731.9606  0.050447412  0.050197938           11 
 2862000   0.79275278   -4.4487678    1728.2049  0.050320432  0.050186633            6 
 2863000   0.80534038   -4.4189253    1726.7497    0.0502605  0.050175304            4 
 2864000   0.78612438   -4.4247002    1726.6122   0.05023895   0.05016415            3 
 2865000    0.7798142   -4.4234171     1724.633  0.050163845  0.050152985            5 
 2866000   0.77700282   -4.4478446    1726.9735  0.050214395  0.050141827            4 
 2867000   0.79552745   -4.4220893    1734.4878  0.050415294  0.050130604            4 
 2868000   0.76940652   -4.4257903    1728.5425  0.050224968  0.050119417            3 
 2869000   0.78440566    -4.414343    1725.6603  0.050123744  0.050108266            7 
 2870000   0.79606967    -4.426745    1730.1274  0.050235988  0.050097034            9 
 2871000   0.79618854   -4.4149695    1732.5296  0.050288215   0.05008604            3 
 2872000   0.77492849   -4.4299073    1732.2148  0.050261572   0.05007481            3 
 2873000   0.80036143    -4.414749    1733.4107  0.050278766  0.050063696            4 
 2874000    0.7955836   -4.4381291    1725.0301   0.05001827  0.050052462            7 
 2875000   0.81041233   -4.4276428    1733.3398  0.050241733  0.050041402            3 
 2876000   0.79379353   -4.4392384    1732.2613  0.050193014  0.050030303            5 
 2877000   0.80399635   -4.4357204    1734.0613  0.050227705   0.05001918            5 
 2878000   0.80294913   -4.4287213    1725.9461  0.049975275  0.050008033            4 
 2879000    0.7861279    -4.411226    1736.9215  0.050275601  0.049996835            5 
 2880000   0.79817699   -4.4243016    1740.6597   0.05036631   0.04998574            5 
 2881000    0.8014129   -4.4221495    1730.4839  0.050054491  0.049974689            6 
 2882000    0.8068561   -4.4260125    1733.5525  0.050125853  0.049963556            4 
 2883000   0.79986259   -4.4243805    1735.6462  0.050168984  0.049952462            6 
 2884000   0.79641044   -4.4222575    1731.7367  0.050038625  0.049941265            3 
 2885000   0.79803006   -4.4306323    1734.4506  0.050099671  0.049930125           10 
 2886000   0.77750598   -4.4109694    1735.4598  0.050111453  0.049919093            4 
 2887000   0.78705482   -4.4002176     1738.778  0.050189874  0.049908016            4 
 2888000   0.78199926   -4.4155707    1744.7116  0.050343709  0.049897037            4 
 2889000   0.78851031   -4.4506195    1731.9053  0.049956886  0.049885939            8 
 2890000   0.79018214   -4.4499542    1728.7826  0.049849557   0.04987476            3 
 2891000   0.76808196   -4.4231912    1736.1442  0.050044512  0.049863651            3 
 2892000   0.78256483   -4.4391153    1738.7128  0.050101223  0.049852603            3 
 2893000   0.78969836   -4.4271499    1736.1654  0.050010525  0.049841453            4 
 2894000   0.79724175   -4.4111261    1732.1408  0.049877357  0.049830294            5 
 2895000   0.79425417   -4.4314252    1733.6797  0.049904423  0.049819137            6 
 2896000   0.76596661   -4.4473538    1738.9506  0.050038863  0.049808146            5 
 2897000   0.79025198   -4.4478712     1733.729  0.049871389  0.049797024            4 
 2898000    0.8000493   -4.4426151    1734.7146  0.049882523  0.049785956            6 
 2899000   0.80247567   -4.4244127    1739.6125  0.050006108  0.049774823            6 
 2900000   0.79163923   -4.4420846    1737.2649  0.049921405  0.049763746            3 
 2901000   0.78367886    -4.434108    1735.8115  0.049862448  0.049752582            6 
 2902000   0.77386984     -4.40959    1745.5681  0.050125433  0.049741534            3 
 2903000   0.79144731   -4.3996481    1741.5624  0.049993179  0.049730499            4 
 2904000   0.78933527   -4.4042867    1737.9757  0.049873041  0.049719456            4 
 2905000   0.79691654   -4.4329812    1737.7248  0.049848676  0.049708245            2 
 2906000   0.77459994   -4.4728097    1738.4934   0.04985356  0.049697006            4 
 2907000   0.81097275   -4.4159289    1738.2736  0.049830111  0.049685755            7 
 2908000   0.77639967   -4.4370335     1742.217  0.049925981  0.049674604            9 
 2909000   0.79213075   -4.4158478    1742.2723  0.049910402  0.049663557           11 
 2910000   0.77775558   -4.4176609    1740.6182  0.049845882  0.049652455            8 
 2911000   0.77640949   -4.4390075    1737.3765  0.049735958  0.049641244            7 
 2912000   0.78323964   -4.4467447    1737.0304  0.049708973   0.04963001            6 
 2913000   0.79188521   -4.4377579     1742.315  0.049843089  0.049618762            6 
 2914000   0.78602398   -4.4388934    1737.2775  0.049681925  0.049607527            7 
 2915000   0.77721411   -4.4207567    1741.2214  0.049777627  0.049596261            7 
 2916000   0.78592668   -4.4168826    1744.0439  0.049841217  0.049584994            9 
 2917000   0.77900222   -4.4477821    1739.1441  0.049684154  0.049573856            6 
 2918000   0.78287066   -4.4587544    1741.2718   0.04972789  0.049562549            6 
 2919000   0.78539336   -4.4589648    1743.7528  0.049781683  0.049551431            7 
 2920000   0.77870914   -4.4551974     1737.975  0.049599744  0.049540378            5 
 2921000   0.80638326   -4.4393526    1742.2073  0.049703506   0.04952923            8 
 2922000   0.79532068   -4.4410115    1749.3804  0.049891067   0.04951812            4 
 2923000   0.76671454   -4.4335075    1739.3052  0.049586761   0.04950692            6 
 2924000   0.78002107   -4.4274713    1737.0411  0.049505276   0.04949569            8 
 2925000    0.7922652   -4.4194723    1746.5935  0.049760499  0.049484595            7 
 2926000   0.77837819   -4.4417205    1741.2203  0.049590461  0.049473319            4 
 2927000    0.7852046   -4.4665901    1737.2926  0.049461695  0.049462047            5 
 2928000   0.77097659   -4.4243292    1740.4452  0.049534528  0.049450829            3 
 2929000   0.78983044   -4.4361677    1746.7415  0.049696755   0.04943966            8 
 2930000   0.79634667   -4.4487013    1739.0985  0.049462415    0.0494284           12 
 2931000   0.78890939   -4.4379607    1744.5057  0.049599274  0.049417146            6 
 2932000   0.77738972   -4.4574942    1736.6041   0.04935778  0.049405935           18 
 2933000   0.77542518   -4.4634093    1738.5687  0.049396771  0.049394638            4 
 2934000   0.80136856   -4.4738588    1740.6087  0.049437874  0.049383437            3 
 2935000   0.77503052   -4.4733753    1738.6877  0.049366487  0.049372177            8 
 2936000   0.79251357   -4.4544536    1741.5236  0.049430166  0.049360958            8 
 2937000   0.77650859   -4.4544705    1746.2886  0.049548535  0.049349857            4 
 2938000   0.79573587   -4.4323769    1745.5273  0.049510078  0.049338819            2 
 2939000   0.78194667   -4.4446308    1746.7869  0.049528948  0.049327716            6 
 2940000   0.78320453    -4.436488     1746.099  0.049492601  0.049316641            9 
 2941000   0.75828488   -4.4759125    1742.0782  0.049361843  0.049305687            5 
 2942000   0.76558974   -4.4615977    1745.3824  0.049438658  0.049294534            5 
 2943000   0.75947535   -4.4361971     1747.242  0.049474517  0.049283564            3 
 2944000   0.76514622   -4.4527594    1750.7816  0.049557902  0.049272575            4 
 2945000    0.7706383   -4.4621744    1748.1465  0.049466511  0.049261548            4 
 2946000   0.76799183   -4.4687678    1740.9015  0.049244781  0.049250395            4 
 2947000   0.78159029   -4.4580272    1741.6491  0.049249212  0.049239171            7 
 2948000   0.77411609   -4.4657502    1740.9546  0.049212872  0.049227965            7 
 2949000    0.7831814    -4.449652    1750.7865  0.049474017   0.04921681           10 
 2950000   0.78282559   -4.4608706    1748.1428  0.049382566  0.049205774            3 
 2951000   0.76522962   -4.4630885    1748.9205  0.049387792  0.049194699            8 
 2952000   0.79060524   -4.4665172    1744.4354   0.04924445  0.049183476            9 
 2953000   0.77543475   -4.4449255    1753.9338  0.049495817  0.049172369            5 
 2954000   0.77850133   -4.4552359    1748.9792  0.049339292  0.049161243            9 
 2955000   0.78663459   -4.4331866    1744.1103  0.049185287  0.049150095            3 
 2956000   0.78871673   -4.4721244    1747.3167   0.04925904  0.049138873           11 
 2957000   0.77349302   -4.4404955    1750.8121   0.04934089  0.049127696            4 
 2958000    0.7883677   -4.4238087    1752.8422  0.049381402  0.049116627            8 
 2959000   0.79203022   -4.4481776    1751.1755  0.049317775  0.049105612            5 
 2960000   0.77168024     -4.44871    1745.8865  0.049152211  0.049094524            3 
 2961000   0.77627674   -4.4622541     1747.118  0.049170268  0.049083375            4 
 2962000   0.78474661   -4.4619585    1746.0219   0.04912283  0.049072107            5 
 2963000   0.77824012   -4.4444313    1753.9421  0.049329004  0.049060951            8 
 2964000   0.77529023   -4.4531449    1748.1157  0.049148551   0.04904977            8 
 2965000   0.76555287   -4.4221966    1750.3867  0.049195803  0.049038719            3 
 2966000   0.77147082   -4.4582931     1753.608  0.049269723   0.04902767            5 
 2967000   0.76185899   -4.4463386    1753.7882  0.049258178  0.049016583            6 
 2968000   0.75505482   -4.4429574    1752.9737  0.049218715  0.049005521            3 
 2969000   0.76697209   -4.4616611     1748.278  0.049070338  0.048994502            6 
 2970000   0.76336764   -4.4419768    1749.1737  0.049078948  0.048983472            7 
 2971000   0.78014547    -4.457869    1748.8143  0.049052347  0.048972334            8 
 2972000   0.77785322   -4.4354351    1752.3186  0.049134101  0.048961331            8 
 2973000   0.77390991   -4.4415349    1753.3244  0.049145768  0.048950325            5 
 2974000   0.77859617    -4.463088    1755.8149  0.049199026  0.048939378           16 
 2975000    0.7657121    -4.456175    1750.5617  0.049035342  0.048928295            6 
 2976000   0.78450904   -4.4661601    1755.4964  0.049157045  0.048917187            4 
 2977000    0.7777344   -4.4619816    1750.4619  0.048999606   0.04890604            8 
 2978000   0.79681355   -4.4548439     1753.468  0.049067272  0.048894948            5 
 2979000    0.7804103   -4.4768544    1750.7625  0.048975119  0.048883845           12 
 2980000   0.78417901    -4.462188    1756.1048  0.049108076   0.04887276            7 
 2981000   0.79000708   -4.4501939    1760.6637  0.049219047  0.048861747            4 
 2982000   0.76907077   -4.4523855     1752.256  0.048967582  0.048850709            5 
 2983000   0.77267176   -4.4389264    1758.2996  0.049120004  0.048839628            5 
 2984000   0.77500842   -4.4627483    1754.9951  0.049011257  0.048828543            3 
 2985000   0.78258576   -4.4489482      1753.73   0.04895952  0.048817395            4 
 2986000   0.76716585   -4.4749382    1753.9312  0.048948737  0.048806285            6 
 2987000   0.77421681   -4.4511164    1755.7755  0.048983804  0.048795152            5 
 2988000   0.77970357   -4.4559851    1756.0445  0.048974913  0.048784009            4 
 2989000   0.77319965   -4.4344446    1757.8294  0.049008292  0.048772986            5 
 2990000   0.78080472   -4.4447524      1758.04   0.04899777  0.048762061            4 
 2991000   0.78256929   -4.4675702    1753.5636   0.04885667  0.048751035            3 
 2992000   0.78343966   -4.4594379    1757.3043  0.048944526  0.048740002            5 
 2993000   0.77666911    -4.436188     1762.658  0.049077237  0.048729137            5 
 2994000   0.76812168   -4.5036904    1751.5985  0.048753019   0.04871801            6 
 2995000   0.77479487   -4.4656409    1756.8294  0.048882287  0.048706901            8 
 2996000   0.76047481   -4.4695146     1758.382  0.048909156  0.048695769            9 
 2997000    0.7766677   -4.4920098    1759.4133  0.048921513  0.048684805            7 
 2998000   0.76654576   -4.4672347    1755.4727  0.048795661  0.048673733            9 
 2999000   0.78591575   -4.4790353    1757.0209  0.048822411  0.048662654            4 
 3000000   0.77305676   -4.4864472    1754.7013  0.048741702  0.048651498           10 
 3001000   0.77087302   -4.4637141    1754.0572  0.048707576  0.048640338            5 
 3002000   0.77341477   -4.4717413    1756.6727  0.048763954  0.048629251            3 
 3003000   0.78229459   -4.4521894    1760.5008  0.048853947  0.048618128            3 
 3004000   0.77245158   -4.4663181    1757.1767  0.048745471  0.048606985            4 
 3005000   0.75858282   -4.4856711    1756.7403  0.048717146  0.048595859            3 
 3006000   0.75365115   -4.4607347    1758.1033  0.048738726  0.048584768            6 
 3007000   0.77152218   -4.4801075    1754.0173  0.048609282  0.048573665            8 
 3008000   0.76905469    -4.468463    1760.6836  0.048777802  0.048562539            5 
 3009000   0.78431387   -4.4556867    1760.9368  0.048768604  0.048551444            6 
 3010000    0.7683995   -4.4737532    1762.6787  0.048800629  0.048540374            3 
 3011000   0.75624422   -4.4666107    1759.9897  0.048709999  0.048529366            6 
 3012000   0.76538248   -4.4789956    1761.6654   0.04874019  0.048518322            6 
 3013000   0.78973105   -4.4565297    1765.7156  0.048836032  0.048507337            5 
 3014000     0.779909   -4.4715253    1763.9023  0.048769695  0.048496373            7 
 3015000   0.76137433   -4.4700361    1762.7443  0.048721511  0.048485384            4 
 3016000   0.78150799    -4.464872     1767.614   0.04883991  0.048474421           10 
 3017000   0.76902256   -4.4615028    1760.1997   0.04861893  0.048463387           10 
 3018000   0.76963942   -4.4757164    1758.4726  0.048555131  0.048452319            9 
 3019000   0.75694731   -4.4490594    1764.4021  0.048702718  0.048441422            5 
 3020000   0.76312013   -4.4743779    1763.6276   0.04866522  0.048430477           12 
 3021000   0.77546668   -4.4727287    1764.3259  0.048668375  0.048419417            7 
 3022000   0.76744256   -4.4793576    1763.5012  0.048629527  0.048408295           11 
 3023000   0.76542676   -4.4578101    1765.5016  0.048668584   0.04839723            4 
 3024000   0.76277732   -4.4791619    1762.6239  0.048573189   0.04838632           18 
 3025000   0.74424288   -4.4961834    1758.5661  0.048445348  0.048375261            4 
 3026000   0.77930068   -4.4834948    1769.5856  0.048732805  0.048364232            5 
 3027000   0.76761405   -4.4288649    1770.0298  0.048728935  0.048353347            6 
 3028000   0.77123236   -4.4471898     1765.482  0.048587681  0.048342387            5 
 3029000   0.76501002   -4.4767156    1767.9838  0.048640471  0.048331471            5 
 3030000   0.77456833   -4.4585242    1762.0715  0.048461812  0.048320542            9 
 3031000   0.78465329   -4.4550664    1768.2716  0.048616288  0.048309607            9 
 3032000   0.77811379   -4.4665033    1765.2882  0.048518255  0.048298715            5 
 3033000    0.7711007   -4.4777208    1767.7528  0.048569976  0.048287785            6 
 3034000   0.77690094   -4.4563667    1764.9188  0.048476126  0.048276874            4 
 3035000   0.76223146   -4.4691244    1766.9741  0.048516587  0.048265888            5 
 3036000   0.77346434   -4.4665415    1769.7812  0.048577657   0.04825493            6 
 3037000   0.75483715   -4.4540952    1769.0528  0.048541675  0.048244043            9 
 3038000   0.77075329   -4.4682059     1770.233  0.048558071  0.048233203            7 
 3039000   0.76502327   -4.4506845    1772.0445  0.048591767  0.048222387            3 
 3040000    0.7753961   -4.4627236    1770.6377  0.048537217  0.048211571            8 
 3041000   0.76971803   -4.4422396    1777.0814  0.048697834  0.048200761            4 
 3042000    0.7784631   -4.4715012    1771.3196  0.048523986  0.048189941           10 
 3043000   0.76137672   -4.4787134     1769.964  0.048470917  0.048179117            6 
 3044000   0.75413252   -4.4959712    1769.6423  0.048446185   0.04816817            6 
 3045000   0.75607106     -4.47721    1772.8529  0.048518141   0.04815738            7 
 3046000    0.7617216   -4.4931187    1770.2641  0.048431389  0.048146555            7 
 3047000   0.77721802    -4.486862    1769.7568  0.048401618  0.048135671            6 
 3048000   0.78545349    -4.494753    1769.4458  0.048377237   0.04812476            4 
 3049000   0.75389309   -4.4730059    1774.6778  0.048504368  0.048113916            6 
 3050000   0.76976709   -4.4601788    1775.5759  0.048513002  0.048103082            3 
 3051000   0.76342716   -4.4764744    1771.5858  0.048388119  0.048092277            3 
 3052000   0.76391816   -4.4975563    1765.7105  0.048211842  0.048081404            7 
 3053000   0.76415628   -4.4731483    1776.3842  0.048487395  0.048070597            3 
 3054000   0.76497889   -4.4783735    1775.8459  0.048456829  0.048059775            6 
 3055000   0.77597196   -4.4892494    1775.2003  0.048423357  0.048049077            9 
 3056000   0.75175538   -4.4739452    1776.7906  0.048450878  0.048038335            4 
 3057000   0.76201395   -4.4913992    1770.9881  0.048276853   0.04802749            4 
 3058000    0.7523603   -4.4903934    1778.2529  0.048459039  0.048016688           10 
 3059000   0.76480973   -4.5079575    1773.8417  0.048323027  0.048005806           11 
 3060000   0.74688353    -4.490047    1767.3673  0.048130918  0.047994972            5 
 3061000   0.74966445   -4.4696512    1774.4387  0.048307708  0.047984118            6 
 3062000   0.75102027   -4.4623001    1778.4117  0.048400056  0.047973368            4 
 3063000   0.76109647   -4.4471082    1780.7575  0.048448078   0.04796261            6 
 3064000   0.75876624   -4.4551917    1776.6908   0.04832166  0.047951889            8 
 3065000   0.76590821   -4.4806006    1777.6737  0.048332618  0.047941032            4 
 3066000   0.75997458   -4.4562682    1771.2264  0.048141617  0.047930175            4 
 3067000   0.75890209   -4.4873363    1772.8206  0.048169237  0.047919286           10 
 3068000   0.76743039   -4.5029752     1769.339  0.048058968  0.047908401            7 
 3069000   0.76910278   -4.4994251     1770.515  0.048075243  0.047897438            5 
 3070000   0.76880389   -4.5272976    1765.4964  0.047923355  0.047886539            4 
 3071000   0.76256412   -4.4726128    1776.4891  0.048206042  0.047875629            4 
 3072000   0.75540779   -4.4697677    1781.2196  0.048318674  0.047864736           10 
 3073000   0.75327816   -4.4692851    1771.6312  0.048042933   0.04785381            3 
 3074000   0.74356446    -4.490644     1768.981  0.047955461  0.047842809            3 
 3075000   0.77529316   -4.4916033     1768.827  0.047935691  0.047831874            6 
 3076000   0.75517385   -4.4831697    1769.9064   0.04794935  0.047820807            7 
 3077000    0.7558645    -4.482695    1772.1862  0.047995511  0.047809879            9 
 3078000   0.75938645   -4.4768391     1772.602  0.047991175  0.047798978            6 
 3079000   0.75311148   -4.4748524    1778.8148  0.048143736  0.047788091            6 
 3080000   0.77420385   -4.4765331    1770.3649  0.047899484  0.047777141            6 
 3081000   0.75606729   -4.4795783    1777.7691  0.048084201  0.047766278            4 
 3082000   0.75500587   -4.4927312    1780.7519   0.04814925  0.047755427            8 
 3083000   0.77197329   -4.4984208    1774.7964  0.047972656    0.0477445            4 
 3084000   0.75577731    -4.496771    1780.1918  0.048102892  0.047733639            5 
 3085000   0.76282737   -4.4841899     1777.971  0.048027308  0.047722733            5 
 3086000    0.7558311   -4.4954007    1777.6672  0.048003542  0.047711879            5 
 3087000   0.75802831   -4.4869926    1777.5601    0.0479851  0.047700946            4 
 3088000   0.75270957   -4.5075884    1778.3359  0.047990497   0.04769005            5 
 3089000   0.76227293   -4.4889917    1774.8011  0.047879604   0.04767914            8 
 3090000   0.72441856   -4.4968483    1777.5588  0.047938478  0.047668186            3 
 3091000   0.74912027   -4.4924741    1775.0472  0.047855257  0.047657221            7 
 3092000   0.74853873   -4.4738569    1776.0214  0.047866035  0.047646321            5 
 3093000   0.74791438   -4.4834469    1779.8182  0.047952857  0.047635438            8 
 3094000   0.76694452   -4.4872976     1777.141   0.04786525  0.047624561            7 
 3095000   0.76844413   -4.4839543     1779.203  0.047905305  0.047613553            7 
 3096000   0.75819779   -4.4987351    1774.6474  0.047767211  0.047602564            5 
 3097000   0.74986677   -4.4953117    1777.4038  0.047825956  0.047591523            7 
 3098000   0.76122616   -4.4697518     1775.585  0.047761593  0.047580617            8 
 3099000   0.73982359   -4.4759389    1776.7228  0.047776777  0.047569726            5 
 3100000   0.75129184   -4.5033316    1775.5523    0.0477299  0.047558749            5 
 3101000   0.75843632   -4.4918154     1774.072  0.047674727  0.047547696            5 
 3102000   0.75310208   -4.5019466    1771.9536  0.047602451  0.047536689            4 
 3103000   0.75839593   -4.5308365    1778.8206  0.047771528  0.047525737            5 
 3104000   0.74147903   -4.5060432    1777.5351  0.047721626  0.047514653            6 
 3105000   0.75417477   -4.4969802    1778.2732  0.047726065  0.047503673            4 
 3106000   0.76171799   -4.4843606    1778.0194  0.047703889  0.047492734            3 
 3107000   0.74441617   -4.5049376    1779.1035  0.047717612  0.047481851            6 
 3108000   0.75206921   -4.4899902    1776.6067  0.047635315  0.047470803            6 
 3109000   0.75281456   -4.4998216     1775.188  0.047581966  0.047459891            9 
 3110000   0.74586092   -4.4839626    1780.2036  0.047701061  0.047448935            5 
 3111000   0.76390935   -4.5025831    1781.9107  0.047731457  0.047438033            3 
 3112000   0.75399027   -4.4858266    1780.7099  0.047683963  0.047427131            6 
 3113000   0.76503592   -4.4915628    1782.4608  0.047715516  0.047416224            7 
 3114000   0.77175225   -4.4872567    1785.2451  0.047774704  0.047405281            5 
 3115000   0.74970888   -4.5138673    1779.6846   0.04761061  0.047394378           10 
 3116000   0.76713732   -4.5012573    1774.3672  0.047453125  0.047383351            7 
 3117000   0.76138663   -4.4889994     1779.335  0.047570714  0.047372308           19 
 3118000   0.75400974   -4.5124003    1780.2797  0.047580706  0.047361236            7 
 3119000   0.75315416   -4.4798264    1785.1901  0.047696648  0.047350356            2 
 3120000   0.73829314   -4.5329979    1780.0342  0.047543648  0.047339472            4 
 3121000    0.7586091   -4.4944561    1779.2832  0.047508362  0.047328513            5 
 3122000   0.74059244   -4.4796398     1774.021  0.047352685   0.04731754            8 
 3123000    0.7554928   -4.4924695    1785.3192     0.047639   0.04730665            8 
 3124000   0.74288576   -4.4709269    1787.4266  0.047679968  0.047295874            4 
 3125000   0.74921745   -4.4841042    1789.2167  0.047712446  0.047285046            8 
 3126000   0.73090765    -4.478984    1786.3831  0.047621643  0.047274213            5 
 3127000    0.7460406   -4.5247908    1785.8299  0.047591672  0.047263313            6 
 3128000   0.73231362   -4.4850497    1788.5625  0.047649256  0.047252422           16 
 3129000   0.74134432   -4.4959806    1788.2205   0.04762492  0.047241594            3 
 3130000   0.71736817   -4.4721954    1788.2488  0.047610457  0.047230758            8 
 3131000   0.75868096   -4.4946849    1788.1764  0.047593326  0.047219891            6 
 3132000   0.76860715   -4.5056596    1789.4114  0.047610988  0.047209123            4 
 3133000   0.74379268   -4.4947131    1791.5084   0.04765157  0.047198354            3 
 3134000   0.76593314   -4.5285803    1789.4065  0.047580474  0.047187537           13 
 3135000   0.76455657   -4.5277065    1789.9604   0.04758002  0.047176801            4 
 3136000   0.75193547   -4.5094161     1788.993  0.047539142  0.047165996            7 
 3137000   0.75103584   -4.5122947    1779.0945  0.047261038  0.047155159            6 
 3138000   0.75039715   -4.5053337    1785.3618  0.047412413  0.047144372            4 
 3139000   0.75160841   -4.5334776     1785.816  0.047409365  0.047133532           11 
 3140000   0.74441724   -4.5149656     1783.626  0.047336146  0.047122664            9 
 3141000   0.74735092   -4.5053634    1788.8528  0.047459747  0.047111751            6 
 3142000   0.74588435   -4.5087871    1788.1927  0.047427136  0.047100913            7 
 3143000   0.73299553   -4.5110304    1787.1914  0.047385498  0.047090103           12 
 3144000    0.7551539   -4.5099412    1782.5784  0.047248156  0.047079222            5 
 3145000   0.73510239   -4.4951653    1784.4078  0.047281606  0.047068403           10 
 3146000   0.75939868    -4.511179    1784.3099  0.047263984  0.047057498            6 
 3147000   0.73552458    -4.491012    1787.4354   0.04733173  0.047046628           13 
 3148000   0.76294997   -4.4969112    1787.5321  0.047319253  0.047035808            3 
 3149000   0.75631028   -4.4994393    1789.8049  0.047364371  0.047024963            7 
 3150000   0.73913145   -4.5380934     1789.152  0.047332062  0.047014146           11 
 3151000   0.74927411   -4.5193728     1789.935  0.047337751  0.047003329            9 
 3152000   0.74439341   -4.5195867    1790.8885   0.04734794  0.046992467            5 
 3153000   0.74614778   -4.4964103     1790.833  0.047331456  0.046981495            4 
 3154000   0.75127423   -4.5247123    1788.4892  0.047254523  0.046970751            9 
 3155000   0.74379565   -4.4947527    1788.6449  0.047243657  0.046959977            7 
 3156000   0.74905238   -4.5268958    1786.4451  0.047170604  0.046949129            9 
 3157000   0.75167626   -4.5031225    1786.9679  0.047169463  0.046938343            6 
 3158000   0.74421737   -4.4839018    1791.5725  0.047276031  0.046927579            4 
 3159000   0.75283811   -4.4958488    1794.0095  0.047325352  0.046916737            5 
 3160000   0.74360078   -4.5107419    1789.5129  0.047191796  0.046905981            5 
 3161000   0.73261205   -4.5010644    1788.3348  0.047145808   0.04689513            9 
 3162000   0.75607712   -4.5128773    1790.0938  0.047177256  0.046884312            3 
 3163000    0.7435802   -4.5063849    1784.8265  0.047023567   0.04687349            4 
 3164000   0.74182529   -4.5231423    1796.7689  0.047323242  0.046862635            7 
 3165000   0.72921441   -4.5218946    1787.9843  0.047076994  0.046851804            7 
 3166000   0.75109383   -4.5043376    1789.9139  0.047112916  0.046840839            4 
 3167000   0.73102629   -4.5349176    1785.0721  0.046970636  0.046829983            5 
 3168000   0.73853952   -4.5388581    1786.6773  0.046998035   0.04681912            6 
 3169000   0.74630209   -4.5032664    1794.0723  0.047177667  0.046808238            5 
 3170000    0.7639165   -4.5231415    1789.1034  0.047032162  0.046797418            7 
 3171000      0.76539   -4.5273489    1787.5437  0.046976339  0.046786588            6 
 3172000   0.75456848   -4.4893404    1796.5405  0.047197889  0.046775733            6 
 3173000   0.73559175   -4.5193981    1791.2747  0.047044718   0.04676496           12 
 3174000   0.75984852   -4.5247636    1791.3913  0.047032957   0.04675415           10 
 3175000   0.73817639   -4.5154855    1791.7179  0.047026716  0.046743298            5 
 3176000   0.75021256   -4.5205221    1788.6325  0.046930955  0.046732476            4 
 3177000   0.74574258   -4.4909995    1790.7111  0.046970705  0.046721709            3 
 3178000   0.75539099   -4.4999453    1788.2684  0.046891872  0.046710874            6 
 3179000    0.7350102   -4.5273489    1793.6341  0.047017775  0.046699947            7 
 3180000      0.73439   -4.5279782    1793.9747  0.047011917  0.046689167            8 
 3181000   0.73946189   -4.5120957    1792.2877  0.046952942  0.046678328            6 
 3182000   0.75295395   -4.5022722    1789.9195  0.046876165  0.046667626            4 
 3183000   0.76284574   -4.5370524    1792.1253  0.046919188  0.046656795           17 
 3184000   0.73267736   -4.5353818    1796.9051   0.04702955  0.046645958            6 
 3185000   0.75931199   -4.5529497    1789.8693  0.046830698  0.046635133            4 
 3186000   0.73792302   -4.5186827    1793.7986  0.046918776  0.046624289            4 
 3187000   0.74762813   -4.5044093    1793.2015   0.04688844  0.046613489            5 
 3188000   0.75325519   -4.5128151    1798.2745  0.047006339  0.046602582           11 
 3189000   0.73502127   -4.5165376    1796.4136  0.046942971  0.046591701           10 
 3190000   0.76189283   -4.4875306    1795.2526  0.046897925  0.046580917            3 
 3191000   0.73461027   -4.5476028    1784.5169  0.046602866  0.046569973           11 
 3192000   0.74901994   -4.5063597    1795.4421  0.046873487   0.04655912            7 
 3193000   0.72477777   -4.5661506    1792.0902  0.046771328  0.046548164            4 
 3194000   0.74150954   -4.5396255    1794.6831  0.046824334   0.04653724           11 
 3195000   0.74945126   -4.5102468    1797.6642  0.046887433  0.046526453            6 
 3196000   0.74187501    -4.530162    1794.2264  0.046783125  0.046515731            6 
 3197000   0.72080211   -4.5516959    1796.7279  0.046833696  0.046504828           15 
 3198000   0.74672566   -4.5354531    1795.5756  0.046789025  0.046493995            6 
 3199000   0.75198533   -4.5228617    1799.8846  0.046886646  0.046483205           11 
 3200000   0.73744713   -4.5463793    1796.0792  0.046772897  0.046472387            3 
 3201000   0.74553439   -4.5110348     1799.389  0.046844449  0.046461702            3 
 3202000   0.75166408   -4.4899633    1803.5752  0.046938769  0.046450957            7 
 3203000   0.75289119     -4.53548    1799.3428  0.046813998  0.046440263            5 
 3204000   0.75050053   -4.5490311    1791.9796  0.046607876  0.046429512            5 
 3205000   0.75443443   -4.5248638    1798.2592  0.046756609  0.046418781           10 
 3206000   0.74015478   -4.5406722    1797.5138  0.046722649  0.046408013            7 
 3207000   0.73670376   -4.5373643     1801.063  0.046800306  0.046397171            4 
 3208000   0.73653933   -4.5240904    1801.6496  0.046800957  0.046386425            5 
 3209000   0.73447982   -4.5201853    1798.3699  0.046701203  0.046375691            4 
 3210000   0.74541905   -4.5307315    1801.8358  0.046776631  0.046365081            4 
 3211000   0.73687717   -4.5127626    1802.8578  0.046788585  0.046354441            8 
 3212000   0.73950251   -4.5287815    1799.0059  0.046674084  0.046343741            4 
 3213000   0.71884747   -4.5479755    1795.4733  0.046567935  0.046332958            5 
 3214000   0.73375486   -4.5266389    1805.6414  0.046817085  0.046322202           10 
 3215000   0.73728076   -4.5212851    1801.3397  0.046691024  0.046311491            7 
 3216000   0.73691894   -4.5168851     1798.453  0.046601705  0.046300855            6 
 3217000   0.74326435   -4.5285502    1800.6415  0.046643911  0.046290209            5 
 3218000   0.73674317   -4.5408207    1803.5418  0.046704523  0.046279473            9 
 3219000   0.74180586    -4.543243    1802.1896  0.046655007  0.046268779            5 
 3220000   0.73398956   -4.5384697    1800.2033  0.046589113  0.046258055            7 
 3221000   0.76193485   -4.5457872    1796.2818  0.046473192  0.046247285            5 
 3222000   0.74452874    -4.513871    1804.7014  0.046676531  0.046236606            5 
 3223000   0.74006159   -4.5353329    1799.0266  0.046515321  0.046225925            6 
 3224000   0.75439152    -4.535802    1799.7598  0.046519846  0.046215207            6 
 3225000   0.74781518   -4.5139337    1804.3639   0.04662439  0.046204492            6 
 3226000   0.73788837   -4.5350623     1800.559  0.046511651  0.046193766            6 
 3227000   0.74198085   -4.5291355    1800.3902  0.046492877  0.046182973            5 
 3228000   0.73049695   -4.5230892    1806.4117  0.046633925  0.046172229            4 
 3229000   0.73128059   -4.5093956    1808.3794  0.046670264  0.046161551            5 
 3230000   0.75270287   -4.5237932    1800.4201  0.046450467  0.046150852            4 
 3231000   0.73219665   -4.5222528    1799.5266  0.046413045  0.046140148            4 
 3232000   0.73426713    -4.530557    1804.0429  0.046515132  0.046129372            5 
 3233000   0.73526137   -4.5462629    1803.4021  0.046484227  0.046118624            4 
 3234000   0.74199332   -4.5552536    1803.0146   0.04645987  0.046107802            6 
 3235000   0.75991576   -4.5398755    1805.1471  0.046500441  0.046097022            7 
 3236000   0.72060516   -4.5308432    1800.4691  0.046365602   0.04608614            6 
 3237000   0.71972237    -4.548566    1806.4457   0.04650514   0.04607532            8 
 3238000   0.73634124   -4.5246447    1805.0126  0.046453898  0.046064501           10 
 3239000   0.73316026   -4.5444899    1803.7416  0.046406854  0.046053707           10 
 3240000   0.73609664   -4.5452679    1804.3717  0.046408738  0.046042892            7 
 3241000   0.72493266   -4.5187043    1806.1112  0.046439145  0.046032187            5 
 3242000    0.7367134   -4.5368361    1802.5151  0.046332385  0.046021497           17 
 3243000   0.73442994   -4.5279277     1807.354  0.046442441  0.046010745            3 
 3244000   0.75315966   -4.5446423    1802.7114  0.046308862        0.046            8 
 3245000   0.73291596   -4.5453025    1799.1879  0.046204106  0.045989255            4 
 3246000   0.71419059   -4.5443407    1802.4256  0.046272993  0.045978443            6 
 3247000   0.74021529   -4.5219112    1800.6009   0.04621191  0.045967587           12 
 3248000   0.73620405   -4.5323381    1802.7028  0.046251612  0.045956802            7 
 3249000   0.72666848   -4.5375935    1806.4388  0.046333199  0.045946013            3 
 3250000   0.73285527   -4.5368508    1807.0527  0.046334684  0.045935214            5 
 3251000   0.74239846   -4.5394933    1800.4162  0.046150317  0.045924467            6 
 3252000   0.72334635   -4.5097628     1801.801  0.046171613  0.045913683            4 
 3253000   0.72113837   -4.5413114    1802.6641   0.04617953  0.045902922           12 
 3254000   0.73936986    -4.558553    1805.4202   0.04623592  0.045892141           13 
 3255000     0.744383   -4.5502547    1801.2789  0.046115691  0.045881395           10 
 3256000   0.72489843   -4.5373578    1806.3099   0.04623029  0.045870675            6 
 3257000   0.73515866   -4.5765405    1804.1494  0.046160819  0.045859846            6 
 3258000   0.71305572   -4.5676541    1802.1057  0.046094376  0.045849014            6 
 3259000   0.71862227   -4.5373444     1810.268  0.046288943  0.045838291            7 
 3260000    0.7364665   -4.5324901    1804.9747  0.046139434  0.045827555            6 
 3261000   0.71948288   -4.5480953    1804.3485  0.046109284  0.045816842            8 
 3262000   0.72278495    -4.562357    1808.7757  0.046208249  0.045806122            6 
 3263000   0.72074651   -4.5702237    1804.1303   0.04607545  0.045795443            9 
 3264000   0.72200245    -4.535241    1806.4244  0.046119903  0.045784744            4 
 3265000   0.73467292   -4.5613267    1806.4717  0.046106985  0.045774095            4 
 3266000   0.71043462   -4.5661085     1807.071   0.04610816  0.045763279            5 
 3267000   0.73808203   -4.5234035    1806.9288   0.04609042   0.04575254            9 
 3268000   0.72436706   -4.5449795    1807.6545  0.046094822  0.045741838            8 
 3269000   0.71775047   -4.5631431    1808.8457  0.046111085  0.045731229            6 
 3270000   0.73023027   -4.5756435    1804.2107  0.045978865  0.045720399            7 
 3271000    0.7169855    -4.552263    1810.2739  0.046119277  0.045709724            4 
 3272000   0.72054329   -4.5586427    1809.1758  0.046077215  0.045698979            6 
 3273000   0.72778178    -4.554116    1806.5193  0.045995501  0.045688257            5 
 3274000   0.71550711   -4.5335024    1812.0388  0.046121942  0.045677592            6 
 3275000   0.75554927   -4.5296906     1809.467  0.046042417  0.045666936            3 
 3276000   0.73554449   -4.5369959    1808.4958  0.046003659  0.045656266            4 
 3277000   0.74471312   -4.5469519    1808.9844  0.046002044   0.04564552            5 
 3278000   0.74632249   -4.5402824    1812.6867  0.046082131  0.045634929            6 
 3279000   0.73161763     -4.54492    1811.4061   0.04603553  0.045624305            8 
 3280000   0.72844191    -4.553228    1809.7181   0.04597861  0.045613583           13 
 3281000   0.73067434   -4.5366942    1808.5796   0.04593568   0.04560293            8 
 3282000    0.7137717   -4.5606145    1810.5369  0.045971381  0.045592229            4 
 3283000   0.74373332   -4.5662362    1808.1546  0.045896909  0.045581584            9 
 3284000   0.74049177    -4.578956    1805.6247  0.045818735  0.045570864            7 
 3285000   0.73497952   -4.5484218    1810.6414  0.045932049  0.045560162           11 
 3286000   0.74221796   -4.5694704    1809.7816  0.045896267  0.045549438            6 
 3287000   0.72111571   -4.5632537    1805.9035  0.045783985  0.045538701            8 
 3288000   0.72970563   -4.5321518    1807.3525  0.045806786  0.045528107            9 
 3289000   0.71021239   -4.5458186    1808.2766  0.045816273   0.04551747            7 
 3290000   0.71864226   -4.5470096    1804.7353  0.045712646  0.045506835            5 
 3291000    0.7198704   -4.5775803    1807.5786  0.045770753  0.045496172            7 
 3292000   0.71330341    -4.541233    1814.1954  0.045924347  0.045485593            9 
 3293000   0.72433024   -4.5646235    1815.1838  0.045935414  0.045474933            8 
 3294000   0.72077162   -4.5488601    1814.2701  0.045898352   0.04546437            3 
 3295000   0.71625961   -4.5688783     1810.813  0.045796991  0.045453818            4 
 3296000   0.72514204   -4.5585273     1818.572  0.045979268   0.04544331            7 
 3297000   0.74282268   -4.5642987    1813.3597   0.04583358  0.045432878            4 
 3298000   0.72611298   -4.5462755    1810.3156  0.045742764  0.045422401            5 
 3299000   0.73037344   -4.5363779    1820.9915  0.045998573  0.045411942            7 
 3300000   0.72796256     -4.54897    1819.3616  0.045943475  0.045401598            7 
 3301000    0.7148566   -4.5533348    1813.4531  0.045780397  0.045391199            7 
 3302000   0.72660831   -4.5664234    1822.3291  0.045990538  0.045380699            5 
 3303000   0.72133429   -4.5543342     1817.366  0.045851397  0.045370263           16 
 3304000   0.71211398    -4.540672    1818.6592  0.045870138  0.045359815            5 
 3305000   0.72460223   -4.5528801    1820.4658   0.04590181   0.04534935            8 
 3306000   0.71361012   -4.5525534    1812.8534  0.045696042  0.045338888            6 
 3307000   0.72284846   -4.5718754    1813.7496  0.045704809  0.045328429           10 
 3308000   0.71850522   -4.5555625    1815.9793  0.045747162  0.045317877            6 
 3309000   0.71211045   -4.5719469    1814.4785   0.04569554  0.045307368           13 
 3310000   0.72135982   -4.5415571    1821.0578  0.045847376  0.045296924            5 
 3311000   0.72207254   -4.5723832    1816.2399  0.045712269  0.045286511           10 
 3312000   0.72330958   -4.5434919    1819.0561  0.045769327  0.045276081            6 
 3313000   0.72128548   -4.5403882    1812.3152  0.045585955   0.04526567            7 
 3314000   0.72218214    -4.559132     1821.494  0.045803008  0.045255293            4 
 3315000    0.7111551   -4.5571256    1816.6889  0.045668399  0.045245023            9 
 3316000   0.73021624   -4.5366263    1826.6973  0.045906144  0.045234652            5 
 3317000     0.706119   -4.5784104    1820.4891  0.045736336  0.045224266            5 
 3318000   0.72626031   -4.5367635    1819.2914  0.045692469  0.045213828            4 
 3319000   0.71411736   -4.5821075    1817.0707  0.045622946  0.045203432           19 
 3320000   0.71857407   -4.5513051    1823.2243  0.045763661  0.045192926           11 
 3321000    0.7118849   -4.5634151    1820.7063  0.045686698  0.045182485            8 
 3322000   0.70387576   -4.5523577    1823.6387  0.045746505  0.045172067            7 
 3323000   0.71059499   -4.5838251    1817.0142  0.045566613   0.04516156            9 
 3324000     0.721467   -4.5760774    1813.7743  0.045471677  0.045151079            3 
 3325000   0.73313394     -4.57531    1819.2627  0.045595557  0.045140659            7 
 3326000   0.72296067   -4.5674159    1820.3568  0.045609259  0.045130271            5 
 3327000   0.70270013   -4.5486558    1819.5001  0.045574094  0.045119862            6 
 3328000   0.73233443   -4.5597647     1820.875  0.045594827  0.045109384            6 
 3329000   0.71695762   -4.5498026    1825.9912  0.045709201  0.045098996            9 
 3330000     0.725253   -4.5545883    1817.7795  0.045489977  0.045088595            6 
 3331000   0.71705307   -4.5604749    1818.7984  0.045501811  0.045078145            7 
 3332000   0.73065147   -4.5824675    1819.5593  0.045507184  0.045067721            9 
 3333000   0.72793225    -4.576715    1820.4884  0.045516762  0.045057255            4 
 3334000    0.6884035   -4.5540153    1823.5811  0.045580411  0.045046692            6 
 3335000   0.71491073   -4.6023976    1818.2743   0.04543414  0.045036073           20 
 3336000   0.72399346   -4.5514253    1823.0297  0.045539311  0.045025553            5 
 3337000   0.71823906   -4.5540605    1822.2873  0.045507124  0.045015133            5 
 3338000   0.71040794   -4.5668896    1812.3893  0.045246388  0.045004611            4 
 3339000   0.73189057   -4.5874967    1817.0408  0.045348928  0.044993998           12 
 3340000    0.7164528   -4.5676347    1821.6499  0.045450348  0.044983411            7 
 3341000   0.71930828   -4.5764198    1818.0787  0.045347669  0.044972863            7 
 3342000   0.70066409   -4.5438916    1825.5489  0.045520369  0.044962421           11 
 3343000   0.71318101    -4.552684    1822.2518  0.045424564  0.044951993           13 
 3344000   0.71052173   -4.5423367    1825.4351   0.04549031  0.044941632            2 
 3345000   0.71059359   -4.5733799    1823.1828  0.045420597  0.044931257            8 
 3346000   0.72127033   -4.5913626    1819.7362  0.045321186  0.044920776           10 
 3347000   0.71675945   -4.5874169    1819.1412  0.045292829  0.044910265           19 
 3348000   0.73134743    -4.560128    1819.8098  0.045295943  0.044899845            6 
 3349000   0.71148965    -4.566779    1823.1244  0.045364896  0.044889398            4 
 3350000   0.71085948   -4.5646464    1824.4454  0.045384213  0.044878996            7 
 3351000   0.71572164   -4.5828142    1825.6846  0.045401486  0.044868538            6 
 3352000   0.72080529   -4.5756881    1821.6955  0.045288771  0.044858087            4 
 3353000   0.71035746   -4.5627557    1820.3296  0.045241317  0.044847597           17 
 3354000   0.71414503   -4.5854327    1824.4249  0.045329578  0.044837124            8 
 3355000   0.70266716   -4.5668236    1821.2946  0.045238315  0.044826749            7 
 3356000    0.7024851   -4.5833919    1824.1071  0.045294673  0.044816298            6 
 3357000   0.73119392   -4.5643425    1825.2482  0.045309506  0.044805868            9 
 3358000   0.69154752   -4.5646911    1822.4748  0.045227189  0.044795387            6 
 3359000   0.71688963   -4.5915201    1826.4286  0.045311815  0.044784856            6 
 3360000   0.72872777   -4.5587621     1826.754  0.045306399  0.044774339            6 
 3361000   0.71268366   -4.5636917    1823.1528   0.04520363  0.044763831           15 
 3362000   0.71818013   -4.5539183    1819.1968  0.045092128  0.044753339           13 
 3363000   0.70252274   -4.5444665    1822.6817  0.045165073   0.04474283            5 
 3364000   0.71594443   -4.5536439    1820.2403  0.045091168  0.044732291           11 
 3365000   0.70903157   -4.5895867    1819.8243  0.045067467  0.044721739            8 
 3366000     0.704113   -4.5633191    1822.4759  0.045119723  0.044711194            8 
 3367000   0.69794958   -4.5866364    1822.7403  0.045112868  0.044700571            5 
 3368000   0.71237446    -4.585972    1823.1751   0.04511023  0.044690026            5 
 3369000   0.70017278    -4.574694    1823.2254  0.045098085  0.044679426           12 
 3370000   0.71701215   -4.5631307    1825.9144  0.045151198  0.044668909           13 
 3371000   0.71309503   -4.5552039    1827.4143  0.045174882  0.044658417           10 
 3372000   0.71342699   -4.5819498    1826.3613  0.045135461  0.044647928            6 
 3373000   0.71611158   -4.5792543    1825.1082  0.045091121   0.04463742            4 
 3374000   0.69518389   -4.5644213    1827.0317  0.045125265  0.044626955            7 
 3375000    0.7324409   -4.5809258    1822.1805  0.044992112  0.044616438            5 
 3376000   0.70680814   -4.5914364    1827.3088  0.045105371  0.044605898            4 
 3377000   0.70135718   -4.5836924    1828.3303  0.045117222  0.044595372            7 
 3378000   0.70536459   -4.5834649    1825.5554  0.045035411  0.044584866            2 
 3379000   0.71765314   -4.6083241     1821.367  0.044918787  0.044574305           11 
 3380000   0.71455941    -4.589952    1820.7722  0.044890834  0.044563717            6 
 3381000   0.70813818   -4.5684565    1824.5645  0.044971026  0.044553211           10 
 3382000   0.69976509     -4.60083    1821.3008  0.044877311  0.044542687            5 
 3383000   0.71998634   -4.5756469    1825.8538    0.0449762  0.044532124            5 
 3384000   0.70149601   -4.5829915    1827.8173  0.045011262   0.04452159            6 
 3385000   0.69891434   -4.5843556    1830.6217  0.045067003  0.044511002            9 
 3386000   0.70410563   -4.5866991    1824.9763  0.044914755  0.044500571           11 
 3387000   0.70367303    -4.585198    1823.0136  0.044853204  0.044490021            7 
 3388000   0.70568351   -4.5951009    1825.3749  0.044898045  0.044479471            4 
 3389000   0.69909037   -4.5709868    1825.2443  0.044881585  0.044468954            7 
 3390000   0.70481927   -4.5545058    1827.2419  0.044917451  0.044458455            4 
 3391000   0.69333923    -4.584878    1825.7365   0.04486721  0.044447998            4 
 3392000   0.70200292   -4.5798985    1826.0422  0.044861493  0.044437507            7 
 3393000   0.69605352   -4.5761559    1827.0159  0.044872185  0.044426975            9 
 3394000   0.69259875   -4.5760528    1826.6692  0.044850452  0.044416455            6 
 3395000   0.70523201   -4.5771379    1823.3008   0.04475456  0.044405953           11 
 3396000   0.70112318   -4.5890079    1825.8261  0.044803348  0.044395422            5 
 3397000   0.71103155   -4.5876738    1825.6662  0.044786239  0.044384865            8 
 3398000   0.71037734   -4.5676491    1824.3124  0.044739858  0.044374385            6 
 3399000   0.69966293   -4.6011953    1825.2899   0.04475066   0.04436389            5 
 3400000    0.7143505   -4.5845822    1822.7112  0.044674294  0.044353305            4 
 3401000   0.71127317   -4.5783204    1826.7406  0.044759889  0.044342765            5 
 3402000   0.71055777   -4.5683208    1828.6942  0.044794586  0.044332186            7 
 3403000   0.70891776   -4.5567192    1832.2091  0.044867497  0.044321688            9 
 3404000   0.71070347   -4.5729202    1829.4946  0.044787863  0.044311207           10 
 3405000   0.70272267   -4.5997934    1829.0545  0.044763938  0.044300711            8 
 3406000   0.70973024   -4.5918667    1829.5462  0.044762826    0.0442902            3 
 3407000   0.70794783   -4.5663598    1830.1142   0.04476358  0.044279663            6 
 3408000   0.71395001   -4.6018597    1824.5141  0.044613509  0.044269138            7 
 3409000   0.70593125   -4.5835381    1830.9903  0.044758734  0.044258571            6 
 3410000   0.71517279   -4.6069822    1830.1301  0.044724586  0.044248084            7 
 3411000   0.70949531    -4.592436    1829.8613  0.044704908  0.044237579            8 
 3412000   0.71028742   -4.5884287    1832.0286  0.044744738  0.044227017            4 
 3413000   0.71403764   -4.5771148    1832.1802  0.044735331  0.044216625            6 
 3414000   0.70948535   -4.6025727     1828.161   0.04462412  0.044206122            7 
 3415000   0.70681534   -4.5916012    1829.9698  0.044655193  0.044195646            5 
 3416000   0.69976471   -4.5782373    1832.1732  0.044695872   0.04418514            8 
 3417000   0.70457439   -4.5805388    1836.4331  0.044786682  0.044174753            6 
 3418000   0.70432651   -4.5866662    1832.6203   0.04468062  0.044164368            7 
 3419000    0.7133562   -4.6038477    1834.7797  0.044720183  0.044153951           14 
 3420000    0.7013016   -4.5957726    1831.0047  0.044615123  0.044143478            9 
 3421000   0.72330773    -4.597024    1829.8951  0.044575054  0.044132963            9 
 3422000   0.71409225    -4.585338    1830.0447  0.044565672  0.044122391            5 
 3423000   0.69084395   -4.5894492    1831.3801  0.044585161  0.044111904           11 
 3424000   0.69657783   -4.5851477    1832.7449  0.044605357  0.044101427            5 
 3425000   0.67742384   -4.5887554    1835.8109  0.044666931  0.044090981            6 
 3426000   0.70627315   -4.5863484    1835.6973  0.044651131  0.044080546            5 
 3427000   0.70908718   -4.6028597     1834.734  0.044614678  0.044070121           14 
 3428000   0.70010331   -4.5996563    1829.1337  0.044465522   0.04405968            8 
 3429000   0.69364894   -4.5829125    1833.5085  0.044558872  0.044049258            7 
 3430000   0.70624882   -4.6059975    1827.8644  0.044408756  0.044038825            7 
 3431000    0.7022172   -4.5809425    1829.6148  0.044438328  0.044028352            5 
 3432000   0.69882832   -4.5884868    1830.2574  0.044440982  0.044018027           18 
 3433000   0.71282345   -4.6009184    1830.5987  0.044436321  0.044007637            6 
 3434000   0.68794293   -4.6034423    1833.2885  0.044488656  0.043997241            9 
 3435000   0.71342269   -4.5747058    1835.7165  0.044534606  0.043986895            9 
 3436000   0.70958588   -4.5903006    1834.5614  0.044493632  0.043976575            7 
 3437000   0.69840552   -4.5928239    1836.4304  0.044526001  0.043966227           16 
 3438000   0.69806546   -4.5924774    1833.3143  0.044437519  0.043955856            5 
 3439000   0.69102314   -4.5929847    1831.9425  0.044391355  0.043945453            6 
 3440000   0.68373373   -4.5948604    1837.0845  0.044503017  0.043935074            4 
 3441000   0.71123108   -4.6010452    1832.0283  0.044367633  0.043924726            6 
 3442000   0.70881673   -4.5923932    1840.3596   0.04455645   0.04391435            4 
 3443000   0.68991195    -4.595215    1836.3827  0.044447253  0.043903963           10 
 3444000   0.70378405   -4.5935278    1840.5554  0.044535311  0.043893594            6 
 3445000   0.70402229   -4.5884916    1830.2526  0.044273163  0.043883273            4 
 3446000   0.69660332   -4.6050771    1832.6733  0.044318856  0.043872888            4 
 3447000   0.71508251   -4.6136891    1833.2665  0.044320338  0.043862442            8 
 3448000   0.70405932   -4.5957157    1836.3306   0.04438154  0.043851967            8 
 3449000     0.689281   -4.6020351    1834.5738  0.044326225  0.043841531            3 
 3450000   0.69531461   -4.5790726    1836.7305  0.044365471  0.043831152            6 
 3451000   0.68990202   -4.5845835    1837.6146  0.044373964  0.043820777            4 
 3452000   0.71628502   -4.6322106    1832.5354  0.044238495  0.043810334            9 
 3453000   0.70787378   -4.5967448    1837.3909  0.044342865  0.043799883           11 
 3454000   0.68100845   -4.5991386    1837.4179  0.044330677  0.043789484            3 
 3455000   0.70245812   -4.6007785    1833.2426   0.04421714  0.043779056            5 
 3456000   0.69191061   -4.5990396    1838.9572   0.04434214   0.04376863            7 
 3457000   0.70915951    -4.591794    1837.9973  0.044306173  0.043758225            5 
 3458000   0.69594578   -4.5967602    1836.9321  0.044267692  0.043747813            6 
 3459000   0.70403064   -4.6159272    1831.0723   0.04411372  0.043737377           11 
 3460000    0.6900565   -4.5817165    1837.1217  0.044246669  0.043727017            5 
 3461000   0.70359073   -4.5931348    1842.6277  0.044366458  0.043716693            7 
 3462000   0.69523514   -4.6101405    1840.0319  0.044291158  0.043706357            6 
 3463000   0.70249122   -4.6404986    1835.2629  0.044163608  0.043695996            9 
 3464000   0.70152704   -4.6146988    1840.7383   0.04428258  0.043685754            3 
 3465000   0.71251268   -4.6238266    1838.0013  0.044203974  0.043675367            7 
 3466000   0.69553291   -4.6036135    1838.6246  0.044206209   0.04366499            5 
 3467000   0.70327737    -4.616219    1843.3792  0.044307739  0.043654662           13 
 3468000   0.69195401   -4.5968921    1837.6973  0.044158432  0.043644364            7 
 3469000    0.6873241   -4.6239819    1845.4477  0.044331885   0.04363407            7 
 3470000   0.69117006   -4.6068111    1840.9858  0.044211955  0.043623738            4 
 3471000   0.67554435   -4.5881712    1839.2354  0.044157193  0.043613396            7 
 3472000    0.7037303   -4.6283044    1835.9001  0.044064423  0.043603108            7 
 3473000   0.69845045   -4.5995613    1844.1492  0.044249669  0.043592853            5 
 3474000   0.71032222   -4.6215412     1840.603  0.044151866   0.04358261            8 
 3475000   0.70122402   -4.6094703    1845.7533  0.044262668  0.043572311            7 
 3476000   0.72311713   -4.6179982    1841.8916  0.044157354  0.043562071            4 
 3477000   0.69377422   -4.6282016    1842.3689  0.044156095  0.043551839            4 
 3478000   0.68911262   -4.6106023     1840.274  0.044093204  0.043541669            4 
 3479000   0.69252531   -4.6089832     1838.989  0.044049751  0.043531445            5 
 3480000   0.69487015    -4.626799    1843.3869  0.044142405  0.043521196            8 
 3481000   0.67807029   -4.6102927    1843.7772  0.044139069  0.043510994            8 
 3482000   0.68697757   -4.6090721    1838.1256  0.043991135  0.043500715            6 
 3483000   0.70951684   -4.6104513    1843.5671  0.044108697  0.043490446            7 
 3484000   0.68875329   -4.6093566    1843.9128  0.044104305  0.043480246           11 
 3485000   0.71692451   -4.6190559    1840.7711  0.044016527  0.043469985            7 
 3486000   0.69618241   -4.6204683    1840.9761    0.0440088  0.043459734           16 
 3487000   0.69763319    -4.613686    1844.8865   0.04408963  0.043449547            6 
 3488000   0.69572564   -4.5827468    1840.9697  0.043983413  0.043439411            7 
 3489000   0.70342409   -4.6114879    1849.5087  0.044174757  0.043429247           14 
 3490000   0.70051207   -4.6218017    1847.2435  0.044108012  0.043419076            7 
 3491000   0.69311831   -4.6241304    1841.3563  0.043954843  0.043408874           15 
 3492000   0.68947284   -4.6148292    1844.9466  0.044027935  0.043398601            7 
 3493000   0.69113041   -4.6208457    1843.8949  0.043990239  0.043388337           11 
 3494000    0.7073062   -4.6046074    1847.0222  0.044052238  0.043378172            9 
 3495000   0.68818966   -4.6179196    1841.9172  0.043917911  0.043368015            6 
 3496000   0.70527167   -4.5707885    1850.9042   0.04411957   0.04335789            7 
 3497000   0.70124655   -4.6290627    1846.9755  0.044013332  0.043347772            5 
 3498000   0.69814999   -4.6197322    1850.2462  0.044078669  0.043337632            3 
 3499000   0.69785431   -4.6224464    1846.9161  0.043986761  0.043327497            7 
 3500000   0.70560925   -4.6154233    1848.2713  0.044006459  0.043317331           11 
 3501000    0.6865209   -4.6138667    1852.6464  0.044098028  0.043307233            9 
 3502000   0.68107232    -4.604638    1847.4977  0.043962918  0.043297195           11 
 3503000   0.70547879   -4.6278109    1846.2643  0.043921028  0.043287095           14 
 3504000   0.69749733   -4.5788114    1849.6783  0.043989685   0.04327702            3 
 3505000   0.69210127   -4.6198956    1848.3972  0.043946676  0.043266903            7 
 3506000    0.6878206   -4.6190165    1846.2244  0.043882497  0.043256754            5 
 3507000   0.68965754   -4.6116755    1848.4776  0.043923525  0.043246607            8 
 3508000   0.68123421   -4.6047486    1855.7187  0.044083018  0.043236516            6 
 3509000   0.71209229   -4.6326172    1848.2159  0.043892275  0.043226415           16 
 3510000   0.69660367   -4.6368127    1845.8247  0.043822999  0.043216242            6 
 3511000   0.67872198   -4.6372176    1845.5325  0.043803581  0.043206091            9 
 3512000   0.69034927   -4.6264017    1849.8864  0.043894419  0.043195865            8 
 3513000   0.69463144   -4.6181088    1853.9931   0.04397934  0.043185701           10 
 3514000   0.67543878   -4.5980129    1852.6431  0.043934811  0.043175586           11 
 3515000   0.68390525   -4.6216442    1845.0574  0.043742471  0.043165487            5 
 3516000   0.69488772   -4.6151487      1848.17  0.043803801   0.04315535            5 
 3517000   0.68403133   -4.6175755     1848.832  0.043807033  0.043145248            6 
 3518000   0.68848015   -4.6198882    1850.4778  0.043833565  0.043135226            5 
 3519000   0.69229976   -4.6197032    1848.2231  0.043767715  0.043125154           17 
 3520000   0.66822053   -4.6123997    1849.9058  0.043795118   0.04311513            5 
 3521000   0.68046732   -4.6645726    1846.6813  0.043706363  0.043105081            7 
 3522000   0.71225094   -4.6361064    1846.2698  0.043684219   0.04309492           26 
 3523000   0.69746751   -4.6211822    1848.0841  0.043714734  0.043084814            7 
 3524000    0.6985267    -4.598816    1851.1365   0.04377451  0.043074761            6 
 3525000   0.67920424   -4.6237794     1851.659  0.043774445  0.043064702            5 
 3526000   0.69474164   -4.6142892    1850.5902  0.043736769  0.043054677            7 
 3527000   0.68929605   -4.6047838    1846.6721  0.043631795  0.043044578            7 
 3528000   0.68498759    -4.641081    1849.3151  0.043681858  0.043034481            6 
 3529000   0.69400919   -4.6018137    1847.0893   0.04361692  0.043024387            6 
 3530000   0.70258386   -4.6399282    1847.5329  0.043615035  0.043014284            9 
 3531000    0.6958369   -4.6392975    1853.2361  0.043737283  0.043004124            6 
 3532000   0.70974514   -4.6459911    1849.1031  0.043627385  0.042993972            9 
 3533000   0.69253255   -4.6392281     1848.701  0.043605552   0.04298387            8 
 3534000   0.69669788   -4.6341806    1853.5814  0.043708295  0.042973755            7 
 3535000   0.67770475   -4.6263634     1849.467   0.04359894  0.042963652            8 
 3536000   0.70003569   -4.6186194    1852.5524  0.043659324  0.042953553            6 
 3537000   0.69591228   -4.6408404    1853.9429  0.043679741   0.04294351            8 
 3538000   0.69270597   -4.6358179    1850.6831  0.043590614    0.0429334            8 
 3539000    0.6804373   -4.6183229    1855.2624  0.043686126  0.042923327            7 
 3540000   0.68437118   -4.6149516    1856.9171  0.043712738  0.042913368            3 
 3541000   0.69362358   -4.6183413    1855.2127  0.043660282  0.042903431            5 
 3542000   0.69476573   -4.6158482    1855.4436  0.043653388  0.042893431            6 
 3543000   0.68555911   -4.6201917     1850.263  0.043519215  0.042883368            7 
 3544000   0.67676639   -4.6462133    1849.9942  0.043500615  0.042873345           10 
 3545000     0.680332   -4.6374066    1853.1515  0.043562564  0.042863319           10 
 3546000   0.68961508   -4.6231653    1853.2275  0.043552067  0.042853314            6 
 3547000   0.69723313   -4.6286614    1859.0281  0.043676068   0.04284329           11 
 3548000   0.67686115   -4.6387006     1854.599  0.043559729  0.042833254           14 
 3549000    0.7040748   -4.6176279    1854.8197  0.043552638  0.042823281            6 
 3550000   0.69064118   -4.6383622    1851.7175  0.043467547   0.04281325           10 
 3551000   0.67537656   -4.6227382    1856.3534    0.0435641  0.042803194           10 
 3552000    0.6764189   -4.6340892    1853.5932  0.043487078  0.042793224           18 
 3553000   0.68300061   -4.6375608    1856.6425  0.043546358  0.042783188           12 
 3554000   0.68216123   -4.6419124     1851.407  0.043411344  0.042773151            5 
 3555000   0.69864501   -4.6237143     1857.047  0.043531342  0.042763046            8 
 3556000   0.67596099   -4.6238345    1853.6014  0.043438354  0.042753029            8 
 3557000   0.70460839   -4.6133544    1855.9485   0.04348113  0.042743011            7 
 3558000   0.66749902   -4.6292183    1856.8647  0.043490366  0.042732986            8 
 3559000   0.69577509   -4.6226613    1857.2757   0.04348777  0.042722943            4 
 3560000   0.69134834   -4.6516539    1853.5636  0.043388662  0.042712919            5 
 3561000   0.68121726   -4.6401748    1854.8757  0.043407182  0.042702848            7 
 3562000   0.68868324   -4.6487287    1853.3411  0.043359094  0.042692747           10 
 3563000   0.68797715   -4.6491908    1852.7159  0.043332301  0.042682663            6 
 3564000   0.66519537   -4.6482274    1855.2769  0.043380025  0.042672528            7 
 3565000   0.68196752   -4.6293288    1860.0973  0.043480534  0.042662445           10 
 3566000   0.69227366   -4.6282796    1849.1075  0.043211524  0.042652339            8 
 3567000   0.68349532   -4.6332645     1853.478  0.043301514  0.042642248           12 
 3568000   0.68549325   -4.6271241    1859.4046  0.043427798  0.042632233           10 
 3569000   0.67738101   -4.6518573    1852.9863  0.043265768  0.042622192            5 
 3570000   0.67641044   -4.6519449     1853.539  0.043266551  0.042612147           24 
 3571000   0.68428538   -4.6344916    1856.9841   0.04333483  0.042602137            5 
 3572000   0.68373686   -4.6554579    1852.9249  0.043227998  0.042592071            8 
 3573000   0.67700414   -4.6431048     1852.941  0.043216275  0.042581912            5 
 3574000   0.68746428   -4.6641068    1852.4173  0.043191973  0.042571789            5 
 3575000   0.68248613   -4.6358125    1854.2413  0.043222407  0.042561646            8 
 3576000   0.67609828   -4.6626137    1851.3517  0.043142984  0.042551528            9 
 3577000    0.6806186   -4.6340022     1849.205  0.043080911  0.042541427            8 
 3578000   0.68955734   -4.6637822    1856.1241  0.043230018  0.042531385            5 
 3579000   0.67171401   -4.6542575      1851.31   0.04310585  0.042521257           21 
 3580000   0.67837896   -4.6392151    1857.8803  0.043246747  0.042511108           10 
 3581000   0.67829583   -4.6821531     1857.549  0.043226961  0.042501001            9 
 3582000   0.67350335   -4.6176613     1856.477  0.043189955  0.042490935            6 
 3583000   0.67795604   -4.6393521    1853.5826  0.043110581  0.042480883            4 
 3584000   0.66758472   -4.6349799    1855.3195  0.043138939  0.042470744           10 
 3585000   0.67528125   -4.6547891     1855.487  0.043130799  0.042460637           10 
 3586000   0.67001796    -4.639186    1860.5416  0.043236233  0.042450566            7 
 3587000   0.67187384   -4.6225783    1855.3414   0.04310337  0.042440499            7 
 3588000   0.67191135   -4.6393877    1851.7519  0.043007988  0.042430375           14 
 3589000   0.68048327   -4.6555197    1856.4772  0.043105722  0.042420257            6 
 3590000   0.67396621   -4.6322062    1855.9199  0.043080778  0.042410235           10 
 3591000    0.6825839   -4.6746461    1851.8896  0.042975253  0.042400203           11 
 3592000   0.66829132   -4.6201879    1858.6146  0.043119306  0.042390089            4 
 3593000   0.67599998   -4.6452082    1856.9129  0.043067837  0.042380035            4 
 3594000   0.67468853   -4.6556473     1852.779  0.042960003  0.042369936            9 
 3595000   0.65971193   -4.6350164    1854.4475   0.04298673  0.042359875           14 
 3596000   0.67370265   -4.6469486    1854.3768  0.042973136  0.042349856            5 
 3597000   0.68102515   -4.6633503    1854.4444  0.042962755  0.042339823           10 
 3598000   0.66545593    -4.654187    1854.3463  0.042948543  0.042329687           12 
 3599000   0.67839858   -4.6551095    1856.0389  0.042975801  0.042319577           15 
 3600000   0.68016823   -4.6840486     1852.253  0.042876226  0.042309515            7 
 3601000    0.6718687   -4.6412202    1853.9144  0.042902768  0.042299423           19 
 3602000    0.6682274   -4.6637394    1852.3465  0.042854583  0.042289392            7 
 3603000   0.68473241   -4.6461014     1862.351  0.043074082  0.042279338            5 
 3604000   0.67411291   -4.6566808    1857.9712  0.042960858  0.042269322           11 
 3605000   0.66817503   -4.6616352    1858.8534  0.042969334  0.042259214            4 
 3606000   0.67258725   -4.6653227    1856.1915  0.042895902  0.042249118            6 
 3607000   0.68010493   -4.6602092    1859.9151  0.042970037  0.042239064           11 
 3608000    0.6718276   -4.6501999    1859.0373  0.042937854  0.042229011            6 
 3609000   0.67303671   -4.6407171    1862.3943   0.04300347  0.042218944            8 
 3610000   0.66935215   -4.6441024    1860.3741  0.042944923  0.042208882            6 
 3611000   0.67256471   -4.6530166    1853.2192  0.042767913  0.042198842            7 
 3612000   0.68162447   -4.6411625    1852.4449  0.042738207  0.042188779            6 
 3613000   0.66751148   -4.6387214    1859.1416  0.042880837  0.042178727            5 
 3614000   0.66715025   -4.6532612    1856.8131   0.04281528  0.042168679            8 
 3615000   0.66776215    -4.667417    1856.0608  0.042786095  0.042158639            6 
 3616000   0.67261561   -4.6400456    1860.4469  0.042875344  0.042148596            5 
 3617000   0.68142698     -4.65809    1857.4781   0.04279509   0.04213864            7 
 3618000    0.6538771   -4.6643284    1860.4823  0.042852458  0.042128583            7 
 3619000    0.6672161   -4.6398275    1860.6994  0.042845616  0.042118607            6 
 3620000   0.67343468   -4.6521621    1860.0884  0.042819715  0.042108605            9 
 3621000   0.66125442   -4.6631729      1862.74  0.042868913  0.042098651            7 
 3622000   0.68923721   -4.6571481    1857.6861  0.042740799  0.042088593            7 
 3623000   0.66897141    -4.685252    1853.5938  0.042634874  0.042078488           10 
 3624000    0.6824105   -4.6635629    1859.6813  0.042763091  0.042068437            6 
 3625000   0.67912057   -4.6770311    1858.9225   0.04273385  0.042058409            7 
 3626000   0.67955279   -4.6390547    1863.8193  0.042834603  0.042048383            9 
 3627000   0.65926587   -4.6501793    1859.6211  0.042726336  0.042038397           14 
 3628000   0.68247806   -4.6661053    1861.2959  0.042753029  0.042028417            6 
 3629000   0.64910507   -4.6555311    1861.7686  0.042752104  0.042018417            3 
 3630000    0.6821576   -4.6618536    1860.8711  0.042719723  0.042008429           10 
 3631000   0.67375939   -4.6401687    1863.2671  0.042762947  0.041998451            6 
 3632000    0.6671146   -4.6642024    1864.2945  0.042774745  0.041988445            8 
 3633000   0.65825177   -4.6453274    1864.3495  0.042764233  0.041978475           12 
 3634000   0.67320053   -4.6456602     1863.234  0.042726885  0.041968581           14 
 3635000   0.67076059   -4.6597258    1868.3955  0.042833458  0.041958687            6 
 3636000   0.66583036    -4.657274    1864.4207  0.042730582  0.041948711            6 
 3637000   0.67445312   -4.6393053    1861.9782  0.042662867  0.041938754           11 
 3638000    0.6471567   -4.6482046    1861.2692  0.042634901  0.041928749           24 
 3639000   0.65062994   -4.6571774    1859.7285  0.042587901  0.041918734            9 
 3640000   0.66368869   -4.6607029    1864.0231  0.042674521  0.041908733            5 
 3641000   0.67145702   -4.6646504    1860.0289  0.042571383  0.041898714           12 
 3642000   0.65687461   -4.6451485    1866.2693  0.042702483  0.041888766            6 
 3643000   0.66317759   -4.6750124    1865.9447  0.042683336   0.04187876           12 
 3644000   0.67452609   -4.6579689    1860.7173  0.042552079  0.041868796           15 
 3645000   0.67643198   -4.6782717    1861.1123  0.042549436  0.041858778            5 
 3646000   0.67485957   -4.6732668    1863.4367  0.042590892  0.041848792            8 
 3647000   0.67081545   -4.6505775    1858.5915  0.042468502  0.041838817            9 
 3648000   0.65537203   -4.6361934    1868.8368  0.042690899  0.041828856            6 
 3649000    0.6632082       -4.664    1866.4258  0.042624139  0.041819016           11 
 3650000   0.66300091   -4.6467149    1866.7162  0.042619091  0.041809162           13 
 3651000   0.66427237   -4.6582082    1865.4468  0.042578444  0.041799305            5 
 3652000   0.65935717   -4.6721605    1865.2355  0.042561964   0.04178935            8 
 3653000   0.66343327   -4.6785143    1866.5186  0.042579583  0.041779402            4 
 3654000   0.65308909   -4.6563714    1861.5048  0.042453585   0.04176953            8 
 3655000   0.67045482   -4.6597681    1870.0226  0.042636175  0.041759735            8 
 3656000   0.67040483   -4.6635671    1863.6143  0.042478444  0.041749849            5 
 3657000    0.6871051   -4.6452992    1862.8877   0.04245027  0.041739966            8 
 3658000   0.66153917   -4.6702897    1868.0333  0.042555889  0.041730122            7 
 3659000   0.65665559    -4.656063     1863.929  0.042450784  0.041720188            9 
 3660000   0.65990604   -4.6667489     1867.351    0.0425171  0.041710322            9 
 3661000     0.676142   -4.6613212     1867.648  0.042512247  0.041700446            6 
 3662000   0.68381357   -4.6561653    1866.1641   0.04246687  0.041690605            8 
 3663000   0.66073274   -4.6670399    1863.3669  0.042391639  0.041680711           23 
 3664000   0.65956107   -4.6584134    1868.0728    0.0424871  0.041670798            9 
 3665000    0.6709069    -4.655194    1866.2633  0.042434364  0.041660909            4 
 3666000   0.66016707   -4.6625686    1863.5595  0.042361327  0.041651014            5 
 3667000   0.67088062   -4.6568761    1870.0217  0.042496629  0.041641153           10 
 3668000   0.67002834   -4.6569923    1866.9562    0.0424154  0.041631308           21 
 3669000   0.67498673   -4.6704885    1866.0111  0.042382372  0.041621445            9 
 3670000   0.66483911   -4.6508019      1867.62  0.042407356  0.041611634            9 
 3671000   0.65220081   -4.6616472    1867.6454  0.042396383  0.041601811           15 
 3672000   0.66314033   -4.6809007    1868.9725  0.042414954   0.04159193            7 
 3673000   0.67488389   -4.6674799    1865.4271  0.042322968  0.041582109           11 
 3674000   0.65902214   -4.6861943    1866.9989  0.042347099  0.041572238            8 
 3675000    0.6542859   -4.6736143    1867.2535  0.042341349  0.041562379           18 
 3676000    0.6668807   -4.6898932    1870.9924   0.04241459  0.041552579            8 
 3677000   0.65676938   -4.6727084    1865.5836  0.042280473  0.041542747            7 
 3678000   0.66244859   -4.6712311    1869.5862  0.042359665  0.041532917            4 
 3679000   0.64941366   -4.6777028    1870.7658   0.04237487  0.041523079            5 
 3680000    0.6532862   -4.6879661    1870.6625  0.042361016  0.041513261            5 
 3681000   0.67263669   -4.6971468    1870.0287  0.042335161   0.04150338           12 
 3682000   0.65666498   -4.6781745    1871.6117  0.042359489  0.041493534            7 
 3683000   0.65466528   -4.6665804    1866.3661  0.042229298  0.041483679           17 
 3684000   0.65965718   -4.6737472    1867.1063   0.04223458  0.041473818           17 
 3685000   0.66620851   -4.6852188    1866.8868  0.042218154  0.041463929           12 
 3686000   0.66363436   -4.6877125    1866.5102  0.042198187  0.041454097            7 
 3687000   0.66556268   -4.6518905    1864.2643  0.042135979  0.041444234           10 
 3688000    0.6593755   -4.6889705    1868.6431  0.042223497  0.041434363           10 
 3689000   0.65401845   -4.6624439    1867.6985  0.042190714  0.041424492            9 
 3690000   0.66516938   -4.6761226    1871.4609  0.042264249  0.041414694            9 
 3691000   0.65324841   -4.6639304    1868.8461  0.042193762  0.041404839            5 
 3692000   0.64867098   -4.6742091      1870.42  0.042217859  0.041394981            7 
 3693000   0.65474409   -4.6832436    1867.8479  0.042148386  0.041385173            6 
 3694000   0.64898315   -4.6619451    1867.8486  0.042136992  0.041375288           20 
 3695000    0.6599619   -4.6663061    1871.8504  0.042215841  0.041365446            6 
 3696000   0.66393942   -4.6628379    1869.2412   0.04214559  0.041355648            7 
 3697000   0.65610148   -4.6827464    1864.7272   0.04203244  0.041345795            8 
 3698000   0.64757327   -4.6829371    1870.7322  0.042156394  0.041335915           12 
 3699000   0.65409192   -4.6899144    1872.3114  0.042180575  0.041326059           18 
 3700000   0.65995258   -4.6683164    1873.2652  0.042190658  0.041316248           10 
 3701000   0.67014674   -4.6981865      1873.96  0.042194903  0.041306414           18 
 3702000   0.66005891   -4.6872773     1873.127  0.042164752  0.041296585            8 
 3703000   0.66253981   -4.6964792    1870.9297  0.042103918  0.041286784            4 
 3704000   0.65277074   -4.7040765    1870.1395  0.042074773   0.04127702            4 
 3705000   0.64731915   -4.7210901    1869.0311  0.042038486  0.041267216            5 
 3706000    0.6677543   -4.6718025    1870.2628  0.042054838  0.041257344            9 
 3707000   0.66216356   -4.6901802    1867.8985  0.041990344   0.04124753           21 
 3708000   0.65324599   -4.6719804    1874.2749  0.042122322  0.041237812            5 
 3709000   0.64940085   -4.6444876    1879.8952  0.042237242  0.041228135           10 
 3710000   0.67460729   -4.6889684     1869.027  0.041981737  0.041218375           19 
 3711000   0.65405787   -4.6832734    1874.4754  0.042092774  0.041208628            5 
 3712000   0.64859171   -4.6782192    1875.2477  0.042098772  0.041198792            5 
 3713000   0.66122353   -4.6978416    1870.2715   0.04197575  0.041189017            7 
 3714000   0.65802507   -4.6879901    1873.2459  0.042031185  0.041179269            9 
 3715000   0.64964677   -4.6964278    1875.7918  0.042076982  0.041169491           11 
 3716000   0.66370864   -4.6774147    1875.9742  0.042069747  0.041159802           12 
 3717000   0.65585198   -4.6782788    1867.6575  0.041871974  0.041149979            3 
 3718000   0.65489705   -4.6880013    1869.5349  0.041902792  0.041140212           16 
 3719000   0.65956631   -4.7056568    1874.7693  0.042008812  0.041130421            4 
 3720000   0.65798015   -4.6876829    1874.7095  0.041996181  0.041120641           11 
 3721000   0.67557232   -4.6963603    1878.0825  0.042060434  0.041110889           10 
 3722000   0.67019853   -4.6866005    1869.1205  0.041848479  0.041101139            6 
 3723000   0.66168362   -4.7017263    1875.6296  0.041982934  0.041091324            5 
 3724000   0.67620169   -4.6937931    1873.2421  0.041918236  0.041081547           13 
 3725000   0.65852355   -4.7034497    1868.6101  0.041803359  0.041071758            6 
 3726000   0.65400861   -4.6882302    1874.1702  0.041916491  0.041061935            8 
 3727000   0.64774584    -4.693074    1869.3197  0.041796792  0.041052104            6 
 3728000   0.65659574   -4.6916663    1872.0696  0.041847049  0.041042295           10 
 3729000   0.64724886   -4.6953286    1874.2205  0.041883894  0.041032552            8 
 3730000   0.64907442   -4.6873161    1870.9443   0.04179947  0.041022731            9 
 3731000   0.65422325   -4.6947512    1871.6478  0.041803981  0.041012943            8 
 3732000    0.6518044   -4.6927476    1870.5928  0.041769221   0.04100312            7 
 3733000   0.65643092   -4.6927922    1876.6974  0.041894308  0.040993287            7 
 3734000   0.64596601   -4.7020102    1870.2217  0.041738567  0.040983486            4 
 3735000   0.65893787   -4.6805113    1870.3781  0.041730882   0.04097363            9 
 3736000   0.65584444   -4.6822996    1875.2801  0.041829053  0.040963867            7 
 3737000   0.66129322   -4.7017351    1871.5363  0.041734375  0.040954088           10 
 3738000   0.64113321   -4.6846718    1871.3651  0.041719393  0.040944274            8 
 3739000    0.6639561   -4.6933537    1872.9502  0.041743563  0.040934462           15 
 3740000   0.66763169   -4.7009859    1870.8874   0.04168644  0.040924666           22 
 3741000   0.65653688   -4.6805824     1873.137  0.041725408  0.040914949            4 
 3742000   0.65262097   -4.6977234    1874.8742  0.041752944  0.040905167           10 
 3743000    0.6586723   -4.6984284    1870.6963  0.041648774  0.040895417            7 
 3744000   0.64798639   -4.7045495    1876.0455  0.041756711  0.040885648            9 
 3745000   0.65446242   -4.7294375    1872.3981  0.041664398  0.040875911            8 
 3746000   0.65200145   -4.7010384    1875.8477  0.041730015  0.040866158           12 
 3747000   0.66071812   -4.6973355    1875.4839  0.041710788  0.040856439           13 
 3748000   0.66628972   -4.6946162    1877.1842  0.041737464  0.040846754           17 
 3749000   0.65455976   -4.6987512    1875.3646  0.041685886  0.040837064            7 
 3750000   0.64480853   -4.7139216    1873.2113  0.041626918  0.040827321            5 
 3751000   0.64862355   -4.7134078    1874.8245  0.041651659  0.040817588            7 
 3752000   0.64193248   -4.6955084    1876.7704  0.041683777  0.040807845            8 
 3753000   0.64861168   -4.7107631    1875.8553  0.041652351   0.04079806           21 
 3754000   0.63856045   -4.7052903    1873.5519  0.041590125  0.040788318           10 
 3755000     0.649973   -4.6988082    1877.3316   0.04166293  0.040778523            5 
 3756000   0.64670888   -4.7106327    1875.1664  0.041603797  0.040768733            8 
 3757000   0.64367174   -4.7100414    1874.6743  0.041581809  0.040758929           12 
 3758000   0.65169548   -4.6921467    1879.6658   0.04168143  0.040749216            8 
 3759000   0.65310978   -4.7083451    1870.0447  0.041457053  0.040739485           15 
 3760000   0.64551439   -4.6972868    1881.2833  0.041695109  0.040729755            4 
 3761000   0.65740017   -4.7048568    1872.0429   0.04147928  0.040719983            6 
 3762000   0.63942821   -4.7265413    1872.2195  0.041472167  0.040710217            8 
 3763000   0.63773233   -4.6930817    1876.1349  0.041547853  0.040700442            7 
 3764000   0.64394773     -4.69764    1885.6167   0.04174674  0.040690703           15 
 3765000   0.65611098   -4.7084087    1876.4063  0.041531791  0.040680986           19 
 3766000   0.66360197   -4.7079256    1870.3354  0.041386427  0.040671256           15 
 3767000   0.65747147   -4.7070305    1876.4951  0.041511704  0.040661545            9 
 3768000    0.6591889   -4.7045489    1877.8948  0.041531644  0.040651858            7 
 3769000   0.64791166   -4.7015505    1881.6282   0.04160317  0.040642231            7 
 3770000   0.65950171   -4.6902864    1877.6722  0.041504691  0.040632599            6 
 3771000   0.65657662   -4.6885048      1882.17  0.041593079  0.040622969           12 
 3772000   0.62990672   -4.6862505    1881.4072  0.041565199   0.04061335            5 
 3773000   0.64551458   -4.6901303    1875.6873  0.041427848  0.040603744           29 
 3774000   0.65062268   -4.6695412    1879.6188  0.041503683  0.040594159            6 
 3775000   0.63203559   -4.6953914    1880.9681  0.041522475  0.040584529           11 
 3776000   0.64844054   -4.7143171     1879.391  0.041476672   0.04057484           12 
 3777000   0.66534085   -4.7159744    1877.6937  0.041428244  0.040565152           11 
 3778000   0.64045399   -4.6937656    1881.0131  0.041490496  0.040555445           12 
 3779000   0.63435598   -4.7105862    1881.5732  0.041491867  0.040545766           10 
 3780000   0.64631959   -4.7046316    1879.3673  0.041432259  0.040536061           12 
 3781000   0.64643595   -4.6940494    1876.7301  0.041363178  0.040526396            9 
 3782000   0.65505584   -4.6916781    1882.9603  0.041489518  0.040516755           16 
 3783000   0.64303047   -4.7067731    1880.5971  0.041426494  0.040507113           11 
 3784000   0.64411015   -4.7347967    1874.9372    0.0412909  0.040497445           14 
 3785000    0.6405163   -4.6869244    1880.6856  0.041406552   0.04048777           10 
 3786000   0.63554387   -4.7161162    1877.9473  0.041335344  0.040478064            7 
 3787000   0.65945927   -4.7087062    1882.2702  0.041419554  0.040468387           11 
 3788000   0.64896181   -4.7393746    1879.0619   0.04133804  0.040458673           10 
 3789000   0.65875431   -4.7154384    1875.8455   0.04125639  0.040449005            5 
 3790000   0.65229505   -4.7269615    1876.5754  0.041261553  0.040439307           26 
 3791000   0.65278375   -4.7218677     1885.753   0.04145241  0.040429663            7 
 3792000   0.65398908   -4.7136444    1879.1976  0.041297416   0.04041999            8 
 3793000   0.63651601   -4.7179339    1878.9884  0.041281933  0.040410302            5 
 3794000   0.64343547   -4.7245681    1877.5938  0.041240418  0.040400622            3 
 3795000   0.62803652   -4.7180535    1881.9121  0.041324376  0.040390921            5 
 3796000   0.64623914   -4.7121074    1880.7547  0.041288081  0.040381287            9 
 3797000   0.64732815   -4.7140335    1884.3531  0.041356183  0.040371588            6 
 3798000   0.64343725    -4.715067     1879.559  0.041240104  0.040361913            6 
 3799000    0.6441695   -4.7507025     1874.602  0.041120513  0.040352219            8 
 3800000   0.64786539   -4.7223731    1878.6147  0.041197692   0.04034247            5 
 3801000   0.63135146   -4.7353264    1877.0576  0.041152713  0.040332835           11 
 3802000   0.64987571   -4.7176568    1877.0876  0.041142549  0.040323153            7 
 3803000   0.63820101   -4.7396933      1879.97   0.04119489  0.040313482            7 
 3804000   0.62911747   -4.7324404    1881.9667  0.041227801  0.040303807            4 
 3805000   0.64583825   -4.7317791    1878.1962   0.04113439   0.04029417           12 
 3806000    0.6365499   -4.7232047    1878.9195  0.041139419  0.040284467            4 
 3807000   0.61839436   -4.7163017    1883.8309   0.04123612  0.040274779            9 
 3808000   0.64822042    -4.710958    1880.3876  0.041149938  0.040265109            6 
 3809000   0.63291306    -4.719019    1879.1992  0.041113135  0.040255454            7 
 3810000    0.6488518   -4.7232182    1880.9477  0.041140588  0.040245819           13 
 3811000   0.63842866   -4.7168113    1881.0639  0.041132334  0.040236145           30 
 3812000   0.64600511   -4.7150454    1880.3189  0.041105257  0.040226429            6 
 3813000   0.62762436   -4.7163471    1881.4305  0.041118772   0.04021671           11 
 3814000   0.64774874   -4.7075954    1881.4479   0.04110837  0.040207064            5 
 3815000   0.64955343   -4.7488725    1881.7214  0.041103569  0.040197403            6 
 3816000   0.64252516    -4.719667    1882.5814  0.041111579  0.040187703            8 
 3817000   0.64084418   -4.7261547    1881.2155  0.041070988  0.040178011           15 
 3818000   0.62385543   -4.7054653    1876.5425  0.040958236  0.040168267           12 
 3819000    0.6540309   -4.7049659    1883.2932  0.041094815  0.040158616            8 
 3820000   0.63230986   -4.7291781     1877.439  0.040956349  0.040148931            7 
 3821000   0.64103331   -4.7288191    1874.6174  0.040884093  0.040139197            5 
 3822000   0.63663038   -4.7202376    1877.5025    0.0409363  0.040129506           14 
 3823000   0.64743364   -4.7052791    1878.8172   0.04095425   0.04011984            8 
 3824000   0.64341961   -4.7309505    1879.2596  0.040953181  0.040110196            8 
 3825000   0.63720815   -4.7332735    1877.9955  0.040914935  0.040100495           15 
 3826000   0.64274327   -4.7271827    1877.6688  0.040897125  0.040090776           11 
 3827000   0.64022997   -4.7426567    1875.4308  0.040837705  0.040081032           18 
 3828000   0.64349524    -4.727149    1877.6674  0.040875726  0.040071311            4 
 3829000   0.65042657   -4.7320774    1881.0038  0.040937665  0.040061546            9 
 3830000   0.64049901   -4.7281169    1880.3095   0.04091187  0.040051785           10 
 3831000   0.64092436   -4.7237616    1879.4029  0.040881468  0.040042055            9 
 3832000   0.62171998   -4.7179229    1882.9914  0.040948839  0.040032369            9 
 3833000   0.65450802   -4.6932117    1879.3518  0.040859028  0.040022703            7 
 3834000   0.64001603   -4.7507201    1884.4712  0.040959642  0.040013005           14 
 3835000   0.62469103   -4.7247152    1881.0322  0.040874233  0.040003338           11 
 3836000   0.62466402   -4.7338283    1878.2052  0.040802163  0.039993662           12 
 3837000   0.65280475    -4.713521    1879.8786  0.040827873  0.039984042           10 
 3838000   0.62481649   -4.7132191    1887.6265  0.040985464   0.03997438            6 
 3839000   0.63767043    -4.721239    1884.3321  0.040903276  0.039964791            8 
 3840000   0.63060236   -4.7510399    1878.9855  0.040776596  0.039955193           25 
 3841000   0.65881111   -4.7205179     1884.097  0.040876877  0.039945543            8 
 3842000   0.64098165   -4.7099046    1883.5163  0.040853641    0.0399359           10 
 3843000   0.63914601   -4.7267836    1886.8314  0.040914897   0.03992626            8 
 3844000    0.6440985   -4.7148793     1887.497  0.040918682  0.039916633           17 
 3845000   0.63008543   -4.7426859    1883.5591  0.040822695  0.039907017            9 
 3846000   0.63147778   -4.7676898    1874.4115  0.040613875  0.039897358           10 
 3847000   0.64934053   -4.7230152    1881.3717  0.040754087  0.039887675           16 
 3848000   0.63609574   -4.7202274    1882.7943  0.040774305  0.039878101           11 
 3849000   0.62988073   -4.7354824    1883.8231  0.040785986  0.039868535           15 
 3850000   0.64881494   -4.7335455    1888.8006   0.04088313  0.039858907            9 
 3851000   0.61965365   -4.7240564    1889.1032  0.040879062  0.039849348           10 
 3852000   0.64007588   -4.7250782    1883.2132  0.040741026  0.039839777            9 
 3853000   0.63771655   -4.7206976    1885.3155  0.040775922  0.039830168            9 
 3854000   0.63363912    -4.724342    1888.6008  0.040836378  0.039820654            5 
 3855000   0.63106675   -4.7372126    1882.2314  0.040688097  0.039811067           11 
 3856000   0.65027309   -4.7433521    1883.9061  0.040713739  0.039801494            5 
 3857000    0.6342525   -4.7412298    1882.1662  0.040665591  0.039791898            8 
 3858000   0.61917151   -4.7499498    1882.8856  0.040670589  0.039782336           10 
 3859000   0.61566007   -4.7344046    1887.4024  0.040757589   0.03977269            9 
 3860000   0.63730669   -4.7332866    1885.7007  0.040710291  0.039763112           10 
 3861000   0.62837519   -4.7322989    1880.5464    0.0405885  0.039753568           11 
 3862000   0.63283191   -4.7247574    1884.6058  0.040665584  0.039743997            8 
 3863000   0.63185325   -4.7115182    1883.1805   0.04062431  0.039734405            9 
 3864000   0.62796159   -4.7421134    1883.4649  0.040619929  0.039724797            7 
 3865000   0.64150409   -4.7502253    1880.4285  0.040543952  0.039715166            9 
 3866000   0.63248037   -4.7204127     1883.577  0.040601333  0.039705523           10 
 3867000   0.65346883    -4.734058     1882.306  0.040563443  0.039695891           12 
 3868000   0.64334884   -4.7510511    1883.2201  0.040572649  0.039686221            7 
 3869000   0.63773676   -4.7259697    1879.9204  0.040491092  0.039676554            4 
 3870000   0.63819595   -4.7305768    1882.9264  0.040545357  0.039666964            4 
 3871000   0.62518538   -4.7271656    1883.5051   0.04054734  0.039657404           14 
 3872000   0.62773444   -4.7566577    1883.6948  0.040540953  0.039647848            8 
 3873000    0.6479341   -4.7481287     1880.956  0.040471556    0.0396382           13 
 3874000   0.64641676   -4.7380162    1888.0587  0.040613894  0.039628557            6 
 3875000   0.62034031   -4.7622364     1880.794  0.040447184  0.039618899           19 
 3876000   0.62112068   -4.7541522     1879.968  0.040418989  0.039609275           23 
 3877000   0.63325222   -4.7202383    1892.1975  0.040671428  0.039599713           11 
 3878000   0.63513322   -4.7145017    1882.9536    0.0404623  0.039590213            7 
 3879000   0.63367661   -4.7454073    1884.3653  0.040482196  0.039580685           11 
 3880000   0.62311624   -4.7564971    1887.0548  0.040529527  0.039571047            5 
 3881000   0.63448785   -4.7306817    1883.5727  0.040444316  0.039561471            8 
 3882000    0.6184209   -4.7588716    1884.6842  0.040457757  0.039551839            7 
 3883000   0.62639622   -4.7343542    1881.7777  0.040384962  0.039542155           11 
 3884000   0.63009917    -4.732022    1882.5604  0.040391357  0.039532562            7 
 3885000   0.63073454   -4.7326412    1886.2454  0.040460004  0.039522935            5 
 3886000   0.63383934    -4.737228    1885.3402  0.040430182  0.039513324            7 
 3887000   0.61866453   -4.7432085    1882.0431  0.040349094  0.039503721           11 
 3888000   0.61999246   -4.7372047    1889.2614  0.040493429  0.039494104            7 
 3889000   0.63387724   -4.7320098    1890.7073     0.040514  0.039484497            6 
 3890000   0.64191846   -4.7471987    1882.9997  0.040338469  0.039474866           13 
 3891000   0.62688731   -4.7563036    1881.8898   0.04030433  0.039465204            8 
 3892000   0.63937187   -4.7202659    1885.6024  0.040373467  0.039455628            7 
 3893000   0.62660907    -4.767537    1880.7961  0.040260213  0.039446015           15 
 3894000    0.6298542   -4.7548993    1883.9825  0.040318065    0.0394364           25 
 3895000   0.62696288   -4.7546056    1883.8466  0.040304806  0.039426771            8 
 3896000    0.6250038   -4.7313781    1885.5593  0.040331093  0.039417134           28 
 3897000   0.62711417   -4.7363151    1884.6606  0.040301527  0.039407585           11 
 3898000   0.63132531   -4.7628028    1885.6428  0.040312187  0.039397954            6 
 3899000   0.61243374   -4.7418971    1884.7706  0.040283205  0.039388414            8 
 3900000   0.63270515   -4.7351719    1886.4814  0.040309432  0.039378808            9 
 3901000   0.64037137   -4.7813709    1883.2191   0.04022941  0.039369196            9 
 3902000   0.62161087   -4.7526121    1881.1667  0.040175266  0.039359557            4 
 3903000   0.62309674   -4.7657836    1884.3088  0.040232062  0.039349926           18 
 3904000   0.64052587   -4.7562194    1880.9506  0.040150073  0.039340309            8 
 3905000   0.62800689   -4.7395984    1888.5047  0.040300997  0.039330708           16 
 3906000   0.61614573   -4.7562305    1883.3221  0.040180109  0.039321121            9 
 3907000   0.63324958   -4.7614165    1885.3284  0.040212618  0.039311508            8 
 3908000   0.62866223   -4.7626825    1881.7448  0.040125912  0.039301982            8 
 3909000   0.63324233   -4.7351001    1886.2939  0.040212627  0.039292426           21 
 3910000   0.62802169   -4.7687015    1885.7283  0.040190288  0.039282854            6 
 3911000   0.62187184   -4.7382161    1883.8059  0.040139049  0.039273314           14 
 3912000   0.62928396   -4.7472925    1886.4777  0.040185703  0.039263731           10 
 3913000   0.61897575   -4.7577643    1881.7692   0.04007516  0.039254159           10 
 3914000   0.62541413   -4.7489421    1882.3176  0.040076597  0.039244583            5 
 3915000   0.63336606   -4.7370755    1887.3326  0.040173107  0.039234927           14 
 3916000   0.62345273   -4.7699091    1879.8431  0.040003471  0.039225324           34 
 3917000   0.62562312   -4.7579562    1880.9569  0.040016954  0.039215702            9 
 3918000   0.61451306   -4.7905703    1884.6753  0.040085828  0.039206069            5 
 3919000   0.62237456   -4.7465764    1887.0527  0.040126153  0.039196441           18 
 3920000   0.63436289   -4.7729329    1887.0824  0.040116547  0.039186827            7 
 3921000   0.62485823    -4.759024    1885.9666  0.040082602  0.039177234           10 
 3922000    0.6172704   -4.7410671    1885.2448  0.040057047  0.039167642           18 
 3923000   0.61999214   -4.7364538    1885.9974  0.040062821  0.039158079           12 
 3924000   0.61856501   -4.7734719    1882.6336  0.039981176  0.039148492            6 
 3925000   0.62654548   -4.7390284    1884.4587  0.040009739  0.039138882           11 
 3926000   0.63159622   -4.7442077    1891.9337  0.040158212  0.039129303           11 
 3927000   0.62205772   -4.7762846    1885.8495  0.040018875  0.039119749           10 
 3928000   0.62409964   -4.7653748    1884.7633  0.039985644  0.039110167           12 
 3929000   0.62497425   -4.7647864    1883.3239  0.039944937    0.0391006           11 
 3930000   0.62473621   -4.7711364    1885.5369  0.039981698     0.039091           11 
 3931000   0.64610755   -4.7281502    1888.2942   0.04002998  0.039081383           17 
 3932000   0.63959931   -4.7600491    1889.8965  0.040053759  0.039071879            9 
 3933000   0.63180881   -4.7731916    1882.7884  0.039892965  0.039062333           15 
 3934000   0.61580684   -4.7527715    1887.6349  0.039985488  0.039052771           12 
 3935000   0.62126814   -4.7505536    1885.9386  0.039939402  0.039043236           11 
 3936000   0.62432148   -4.7464125    1889.0725  0.039995606   0.03903369            6 
 3937000   0.62268119   -4.7731021    1884.7325  0.039893584  0.039024181            8 
 3938000   0.62247366   -4.7728923    1890.8192  0.040012256  0.039014565            6 
 3939000   0.61865329   -4.7563186    1887.7009  0.039936128  0.039004969           18 
 3940000   0.62563837   -4.7702024    1886.4163  0.039898822  0.038995368           18 
 3941000   0.63143567   -4.7758776     1890.476   0.03997454  0.038985799           13 
 3942000   0.62868715   -4.7465183    1886.9951  0.039890814  0.038976276            5 
 3943000   0.63555766   -4.7678675    1885.5578  0.039850322  0.038966723           14 
 3944000   0.62749427   -4.7709908    1884.7871  0.039823933  0.038957139            5 
 3945000   0.61357405   -4.7525074    1887.0217   0.03986104  0.038947534           13 
 3946000   0.61670243   -4.7541881    1888.1672   0.03987513   0.03893799           13 
 3947000   0.61022687    -4.771833    1889.0586  0.039883849   0.03892846           25 
 3948000   0.61801054   -4.7595989    1885.1666  0.039791595   0.03891892           15 
 3949000   0.61487217   -4.7529597     1888.675  0.039855553   0.03890938           32 
 3950000   0.61425244   -4.7582137     1888.492  0.039841603  0.038899809            6 
 3951000   0.61152341   -4.7380537    1892.9454  0.039925448  0.038890297            6 
 3952000    0.6158731   -4.7726514    1885.9399  0.039767626  0.038880772            9 
 3953000   0.62096452   -4.7533509    1886.1046  0.039761039  0.038871243           11 
 3954000   0.60951859   -4.7818019    1886.3692  0.039756558  0.038861663           10 
 3955000   0.61155549    -4.778391    1890.4409  0.039832299  0.038852123           10 
 3956000   0.61956835   -4.7636721    1888.9578  0.039790988  0.038842548           14 
 3957000   0.60759539    -4.779603    1885.0481  0.039698595  0.038832995            5 
 3958000   0.63060481   -4.7518206    1894.4907  0.039887374    0.0388235            8 
 3959000   0.62007635   -4.7604806    1890.2378  0.039787779  0.038814008           10 
 3960000   0.63454306   -4.7563534    1890.8648  0.039790926  0.038804487            6 
 3961000    0.6091119   -4.7821145    1889.6004  0.039754278  0.038794974            7 
 3962000   0.61967443   -4.7840355    1884.4734  0.039636409  0.038785439           11 
 3963000   0.62017902   -4.7562299    1888.6278  0.039713765  0.038775937           10 
 3964000   0.60834933   -4.7811154    1888.3717  0.039698362  0.038766457           21 
 3965000   0.62568279   -4.7845338     1886.626  0.039651661  0.038756963           16 
 3966000   0.61283032   -4.7682402    1889.1894  0.039695523  0.038747455            5 
 3967000   0.61519225   -4.7728113    1890.2988  0.039708823  0.038738003           10 
 3968000    0.6108531   -4.7706733     1891.165  0.039717007  0.038728537            7 
 3969000    0.6078259   -4.7496726    1895.0065  0.039787657  0.038719016           20 
 3970000   0.62945339   -4.7550329    1891.3431  0.039700736  0.038709496            9 
 3971000   0.63599298   -4.7842984    1890.2042   0.03966684  0.038699953           21 
 3972000    0.6145458   -4.7740861    1890.9283  0.039672044  0.038690419           12 
 3973000   0.61801073   -4.7571064    1890.2297  0.039647405  0.038680911           19 
 3974000   0.61580347   -4.7629943    1891.5488   0.03966509  0.038671422           10 
 3975000    0.6080228   -4.7530152    1891.4562   0.03965317  0.038661939           19 
 3976000   0.60994017   -4.7735826    1888.5424  0.039582126  0.038652446           11 
 3977000   0.61764665   -4.7895874    1887.1834  0.039543698  0.038642935           16 
 3978000   0.62125405   -4.7697217    1891.7285  0.039628969  0.038633443            5 
 3979000    0.6313537   -4.7565686    1894.0064  0.039666716  0.038623961           10 
 3980000   0.61273953   -4.7691248    1888.4455  0.039540315   0.03861453           13 
 3981000   0.60779492   -4.7778048    1894.8631  0.039664722  0.038605043            8 
 3982000   0.62495628    -4.781907     1890.237  0.039557948  0.038595534           15 
 3983000   0.60672072   -4.7705717    1891.1441  0.039566995  0.038586041           11 
 3984000   0.62022401   -4.7805697     1885.839  0.039446098  0.038576463           10 
 3985000   0.60485241   -4.7677912    1891.9576  0.039564149  0.038566966           13 
 3986000   0.62097512   -4.7801854    1887.9555  0.039470552  0.038557439            7 
 3987000   0.61273661   -4.7585171    1888.3995  0.039469934  0.038547939           18 
 3988000   0.60785145     -4.76906    1887.0903  0.039432679  0.038538425           14 
 3989000   0.61422199   -4.7819712    1890.8167  0.039500641  0.038528931            9 
 3990000   0.62224631   -4.7652516    1888.6928  0.039446383  0.038519443            6 
 3991000   0.61477857   -4.7881248    1888.9553   0.03944198  0.038509963           12 
 3992000   0.61170526   -4.7594555    1892.5742  0.039507644  0.038500481           16 
 3993000   0.61987622    -4.777251    1881.8699  0.039274353  0.038490942           16 
 3994000   0.61898885   -4.7832691    1889.3496   0.03942058  0.038481387           35 
 3995000    0.6181785    -4.763556    1891.5747  0.039457127  0.038471878           10 
 3996000   0.60689467   -4.7801674    1888.6513  0.039386288  0.038462402            6 
 3997000   0.58990161   -4.7672724    1891.5959  0.039437826  0.038452964           13 
 3998000   0.61001727    -4.768953    1892.6635  0.039450215  0.038443531           23 
 3999000   0.61305418    -4.786081    1886.9086  0.039320426  0.038434066           26 
 4000000   0.62712273   -4.7744037     1890.402  0.039383376   0.03842458           18 
 4001000   0.61154737   -4.7792148    1892.3187  0.039413453  0.038415092           10 
 4002000   0.60372678   -4.7686072    1885.1819  0.039254996  0.038405558           10 
 4003000   0.61112816   -4.7872347    1892.9004   0.03940587  0.038396067           11 
 4004000   0.60521568   -4.7605309    1896.3205   0.03946721   0.03838657            9 
 4005000   0.60858474   -4.7736097    1891.4529  0.039356074  0.038377109           21 
 4006000   0.60241135   -4.7873346    1891.2051  0.039341095  0.038367601           10 
 4007000   0.61214359   -4.7866293    1889.6794  0.039299546   0.03835807           11 
 4008000   0.60917002   -4.7855451    1892.0396  0.039338815  0.038348568           17 
 4009000   0.62707041   -4.7834753    1893.4786  0.039358914  0.038339088            8 
 4010000   0.59801508   -4.7786201    1892.2699  0.039323979  0.038329612           14 
 4011000   0.61377585   -4.7671971    1893.0019  0.039329384   0.03832023           24 
 4012000   0.61504121    -4.767499    1891.0069  0.039278143  0.038310817           20 
 4013000    0.6101488   -4.7739049    1893.2015  0.039313927  0.038301402           12 
 4014000   0.61181117    -4.777475    1892.1854  0.039283039  0.038291995           14 
 4015000   0.60068958   -4.7967445    1888.0233  0.039186869  0.038282546            6 
 4016000   0.60588836   -4.7795593    1894.9521  0.039320885  0.038273067            8 
 4017000   0.61082894   -4.7809813    1890.4927  0.039218586  0.038263643           20 
 4018000   0.61286011   -4.7574208    1894.5024  0.039291987  0.038254247           10 
 4019000   0.61214897   -4.7767055     1893.713  0.039265842   0.03824484            9 
 4020000   0.61776136   -4.7913901    1892.1503  0.039223678  0.038235431            6 
 4021000   0.60231554   -4.7681465    1892.9037  0.039229539  0.038226022            9 
 4022000   0.61223904    -4.787877    1892.3582  0.039208482  0.038216622           12 
 4023000   0.60458548   -4.7853803    1892.4988   0.03920165  0.038207188           10 
 4024000   0.60890323   -4.7814422    1894.6323   0.03923609   0.03819781           10 
 4025000   0.60135467   -4.7888306    1890.6836  0.039144588  0.038188389           19 
 4026000     0.608309   -4.7783121    1895.6644  0.039237961  0.038178983           14 
 4027000   0.61125683   -4.7788527    1897.0658  0.039257217  0.038169576           13 
 4028000   0.60744066   -4.8001771    1892.4633  0.039152252  0.038160188            9 
 4029000   0.61434941   -4.7728643     1896.908  0.039234468  0.038150796            7 
 4030000   0.59948382   -4.7915771     1894.031  0.039165241  0.038141388            7 
 4031000   0.60656891   -4.7982801    1889.3774  0.039059319  0.038131979           11 
 4032000   0.60602291   -4.7985286    1890.2151  0.039066945  0.038122538           14 
 4033000   0.60834958   -4.7786726    1899.7085  0.039253419  0.038113151           15 
 4034000   0.60766738   -4.7710123    1896.2052  0.039171318  0.038103749           20 
 4035000   0.60972827    -4.802502    1896.1945  0.039161391  0.038094381           19 
 4036000   0.61505753   -4.7824491    1895.6161  0.039139743   0.03808508           16 
 4037000   0.61101877    -4.796882     1895.755  0.039132917  0.038075766           11 
 4038000   0.60176599   -4.7808914    1894.0271  0.039087566  0.038066386            8 
 4039000   0.60360442   -4.7802183    1896.2514  0.039123781  0.038057035            8 
 4040000   0.61127308   -4.7759777    1893.5668  0.039058722   0.03804765           11 
 4041000   0.60208026   -4.8058214     1894.576  0.039069867   0.03803825            9 
 4042000   0.58936513   -4.8043145     1896.512  0.039100116  0.038028876           10 
 4043000    0.6026392    -4.777268    1896.3683  0.039087483  0.038019515           10 
 4044000   0.60237636   -4.8074203     1892.709  0.039002412  0.038010147           13 
 4045000   0.60009413   -4.8032326    1893.3515  0.039006005  0.038000783            9 
 4046000   0.60915111   -4.8039032    1891.3599  0.038955345  0.037991428           25 
 4047000   0.61690658   -4.8216068    1891.0382  0.038939095  0.037982046           23 
 4048000    0.6115836   -4.8203731    1893.2199  0.038974388   0.03797263           26 
 4049000   0.60098711   -4.7921516    1896.1395  0.039024851  0.037963228           14 
 4050000   0.59373651   -4.8090261    1895.0132  0.038992041  0.037953842            7 
 4051000   0.61095704   -4.8051942    1896.3466  0.039009846  0.037944518           14 
 4052000   0.61005364   -4.7931293    1894.6964   0.03896628  0.037935177            9 
 4053000   0.61577421   -4.8103396    1894.5583  0.038953825  0.037925849            7 
 4054000   0.59120475   -4.7944003    1895.3185  0.038959844  0.037916587           10 
 4055000   0.59878942   -4.7727181    1901.2489  0.039072111  0.037907277           13 
 4056000   0.59370529   -4.8152916    1897.8119  0.038991862  0.037897999           10 
 4057000   0.60755485   -4.8094003    1895.7157  0.038939194  0.037888699           10 
 4058000   0.58555165   -4.8093066    1892.7739  0.038869187  0.037879382           15 
 4059000   0.60289696   -4.7811127    1894.7778   0.03890075  0.037870059           10 
 4060000   0.60817337   -4.8010775    1899.3399  0.038984809    0.0378608            8 
 4061000   0.60063463   -4.8078455    1899.8627  0.038985937  0.037851543           12 
 4062000   0.60793838   -4.8068982    1893.7953  0.038851866  0.037842219           16 
 4063000   0.59539449   -4.8033478    1897.0978  0.038910038  0.037832883            8 
 4064000   0.59749193   -4.7862223    1898.1944  0.038922949  0.037823551            9 
 4065000   0.61511759   -4.7777737    1900.3234  0.038957018  0.037814271           11 
 4066000   0.61444696   -4.7939411    1901.5647   0.03897288  0.037805028           17 
 4067000    0.5938337   -4.8145338    1897.5942   0.03888194  0.037795729           20 
 4068000   0.59826347   -4.7934786    1899.1156  0.038903548  0.037786406           10 
 4069000   0.61460381   -4.8119402    1895.6223  0.038822443  0.037777099           20 
 4070000   0.60720563   -4.8185158    1897.0898  0.038842953  0.037767824           27 
 4071000    0.5963981   -4.8231259    1898.1241  0.038854583  0.037758508           17 
 4072000   0.61314992   -4.8008221    1892.5596  0.038731164  0.037749179           10 
 4073000   0.60221791   -4.7892526    1899.0109  0.038853649   0.03773989            7 
 4074000   0.59512541   -4.7950619    1894.2653   0.03874704  0.037730599            7 
 4075000   0.59535939   -4.8202239    1897.5215   0.03880412  0.037721319            8 
 4076000   0.60685979   -4.8145293    1899.0893  0.038826653  0.037712053           20 
 4077000   0.60424873   -4.8069402    1896.6368  0.038767002  0.037702766           21 
 4078000   0.59642266   -4.8168837    1895.0489  0.038725048  0.037693489            3 
 4079000   0.59039352   -4.8096097    1899.3304  0.038803024  0.037684185            5 
 4080000   0.59641603   -4.8072558    1895.4773  0.038714814  0.037674925            7 
 4081000    0.5968143   -4.7980791    1900.0812  0.038799338  0.037665702           15 
 4082000    0.6036541   -4.8129282    1905.2445  0.038895241  0.037656482            6 
 4083000   0.60236326   -4.7984389    1899.4148  0.038766733  0.037647262           10 
 4084000   0.59867795   -4.7932138    1899.7539  0.038764159   0.03763804           17 
 4085000   0.60057411   -4.8057584    1902.2406  0.038805398  0.037628842           15 
 4086000   0.59110081   -4.7866484    1898.2489  0.038714491  0.037619645           18 
 4087000   0.59374408   -4.8050337    1898.7606  0.038715451   0.03761047           21 
 4088000   0.59834328   -4.8180938    1898.7239  0.038705232  0.037601255            6 
 4089000   0.59781689   -4.7933007    1901.8007  0.038758472  0.037592018            8 
 4090000   0.59637667   -4.8082246    1902.1723  0.038756567  0.037582817            9 
 4091000    0.5951226   -4.8083966    1897.4384  0.038650664   0.03757359            7 
 4092000   0.60181667   -4.8093391    1903.0857  0.038756225  0.037564323           21 
 4093000    0.6024837   -4.8422551    1898.7551  0.038658586  0.037555029           10 
 4094000   0.60565474   -4.8159606    1901.6365  0.038707793  0.037545765           16 
 4095000   0.59807539   -4.8072885    1900.7456  0.038680213  0.037536531            4 
 4096000   0.60201909   -4.8135888    1901.2851  0.038681744  0.037527337           17 
 4097000   0.60093294   -4.8025178    1901.0103  0.038666714  0.037518178            9 
 4098000   0.59674688   -4.7924933    1900.9488  0.038656028  0.037509013           23 
 4099000   0.59051965   -4.8282743    1898.3711  0.038594192  0.037499842           10 
 4100000   0.59532262   -4.8039893    1905.6611  0.038732949  0.037490689           26 
 4101000   0.60296839   -4.7943303    1903.4356  0.038678281   0.03748154           13 
 4102000   0.60090374   -4.7973825    1901.2977  0.038625421  0.037472406           12 
 4103000   0.58695502   -4.8088713    1901.3423  0.038616913   0.03746322           15 
 4104000     0.608155   -4.8304554    1901.9645  0.038620138  0.037454071           22 
 4105000     0.583721    -4.801259    1901.1546  0.038594287  0.037444912            8 
 4106000   0.59590543   -4.8248255    1905.4635   0.03867234  0.037435766           11 
 4107000    0.5982948   -4.8149059    1901.7582  0.038587739  0.037426613           16 
 4108000     0.593968   -4.8204958    1899.3851  0.038530207  0.037417456           11 
 4109000   0.60290601   -4.8168755    1904.2569  0.038619635  0.037408293           17 
 4110000   0.59356856   -4.8301536    1903.2183  0.038589178  0.037399108           17 
 4111000   0.59582662   -4.8129357    1902.2106  0.038559365  0.037389952           16 
 4112000   0.60044346   -4.8357353    1899.0685   0.03848631  0.037380814           16 
 4113000   0.59352011   -4.8217751    1907.5549  0.038648895  0.037371688           17 
 4114000   0.59595662   -4.8130519    1898.7567  0.038461285  0.037362572           17 
 4115000   0.58333957   -4.8113797    1902.8237  0.038534299  0.037353429            8 
 4116000   0.59258271   -4.8399516    1898.8985  0.038445467  0.037344267           12 
 4117000   0.59187156   -4.8154922    1903.0203   0.03851956  0.037335092           12 
 4118000   0.59077474   -4.8064897    1904.0796  0.038531641  0.037325984           12 
 4119000   0.60312547   -4.8173346    1904.8804  0.038538489  0.037316863           13 
 4120000   0.60180088   -4.8312165    1898.8289  0.038406734  0.037307731           13 
 4121000   0.57245754   -4.8142268    1904.1505  0.038505024  0.037298557           18 
 4122000   0.58741661   -4.8234451    1902.7695  0.038467765  0.037289386            7 
 4123000   0.59971085    -4.825961    1901.5258  0.038433298   0.03728028           10 
 4124000   0.59236343   -4.8305656    1901.3701  0.038420831   0.03727114           10 
 4125000   0.60148378   -4.8238591     1902.384     0.038432  0.037262016            7 
 4126000   0.58565907   -4.8278908    1905.2866   0.03848131  0.037252912           11 
 4127000   0.59997853   -4.8278047    1897.2221  0.038309145  0.037243799           19 
 4128000   0.59799289   -4.8418134    1903.7208  0.038431057  0.037234653            6 
 4129000   0.58823444   -4.8060324      1903.94  0.038426172  0.037225558            8 
 4130000   0.60299078   -4.8066811    1905.1742  0.038441771  0.037216449            8 
 4131000   0.59440029   -4.8106621     1900.888  0.038346002  0.037207333           23 
 4132000   0.59674814   -4.8091051    1904.9609  0.038418863  0.037198201           12 
 4133000   0.59184269   -4.8384056    1900.4825   0.03831927   0.03718906           12 
 4134000   0.58526263   -4.8244888    1904.2874    0.0383867  0.037179968           11 
 4135000   0.59916382   -4.8305719    1903.9281  0.038370176  0.037170888           12 
 4136000   0.57909891   -4.8167616    1905.0278  0.038383055  0.037161797           17 
 4137000   0.58762645   -4.8257241    1903.9659  0.038352388   0.03715269            7 
 4138000    0.5856385   -4.8521713    1900.4286  0.038271882  0.037143597            7 
 4139000   0.58848179    -4.835993    1899.3228  0.038240373  0.037134473            6 
 4140000   0.59338009   -4.8533877    1901.5274  0.038275512  0.037125317           11 
 4141000     0.599315   -4.8609159    1898.1975  0.038199258  0.037116104           15 
 4142000    0.5818769   -4.8533056    1901.8475  0.038263469  0.037106884           10 
 4143000   0.57807522   -4.8314046    1900.2912   0.03822293  0.037097721           17 
 4144000   0.59431081   -4.8168121    1907.3192  0.038355035  0.037088611           16 
 4145000   0.58814355   -4.8253666    1905.2862  0.038304909  0.037079503           16 
 4146000   0.58843412   -4.8231397    1901.3862  0.038217282  0.037070381           31 
 4147000   0.59373428   -4.8049002    1901.7693  0.038215765  0.037061235           35 
 4148000   0.58738474   -4.8387199    1903.3931  0.038239173  0.037052089           12 
 4149000   0.58038952   -4.8431393    1902.2436  0.038206869  0.037042938           17 
 4150000   0.57840548   -4.8250585    1896.8792  0.038089944  0.037033767            7 
 4151000   0.59401079   -4.8630765    1901.3592  0.038170706  0.037024571           15 
 4152000   0.58419366    -4.829133    1901.2839  0.038160001  0.037015356           22 
 4153000   0.58975153   -4.8130385    1906.1184  0.038247821  0.037006208           22 
 4154000    0.5845884   -4.8400054    1903.0631  0.038177321  0.036997102           18 
 4155000   0.59989984   -4.8278159    1902.9288  0.038165439  0.036988016           21 
 4156000   0.59324199   -4.8446092    1902.2399  0.038142443  0.036978913           14 
 4157000   0.59247022   -4.8279598    1904.7084  0.038182751  0.036969826           15 
 4158000   0.58164578   -4.8338466    1901.3832  0.038106926  0.036960698           19 
 4159000   0.60085041   -4.8313555    1903.7553  0.038145293  0.036951589            8 
 4160000   0.59284286   -4.8358396    1900.9571  0.038080071  0.036942482           11 
 4161000   0.59771403    -4.800261    1904.0119  0.038132099  0.036933372            6 
 4162000   0.58581051   -4.8317041    1902.6523  0.038095713  0.036924219            9 
 4163000   0.59021769   -4.8423915    1894.2362  0.037918093   0.03691506            7 
 4164000   0.59733425   -4.8323735    1902.5395  0.038075158  0.036905897            9 
 4165000   0.57866512   -4.8430137    1903.1149  0.038077529  0.036896762           12 
 4166000   0.58154532   -4.8344058    1900.6081  0.038018246  0.036887668            6 
 4167000   0.59680525   -4.8277564    1908.4932  0.038166812  0.036878592            6 
 4168000   0.58503875   -4.8458696    1903.5858  0.038059537  0.036869491            9 
 4169000   0.59069194   -4.8005535    1907.1546  0.038121743  0.036860435           15 
 4170000   0.58155584   -4.8411243    1907.0957  0.038111424  0.036851329           12 
 4171000   0.58851178   -4.8545756    1900.1731  0.037963979  0.036842247            8 
 4172000   0.58337927   -4.8458711    1899.3372  0.037938183  0.036833166           14 
 4173000   0.57090039   -4.8267574    1901.3485  0.037969258  0.036824046           14 
 4174000   0.57746952   -4.8284669    1900.5142  0.037943504  0.036814928           20 
 4175000   0.57990151   -4.8330413    1903.9212  0.038002419  0.036805841            5 
 4176000   0.58985237    -4.840672    1902.8877  0.037972694  0.036796727           17 
 4177000   0.58177471   -4.8327444    1903.5361   0.03797654  0.036787626           20 
 4178000   0.59066594   -4.8426646    1907.5549  0.038047608  0.036778567           20 
 4179000   0.58789903   -4.8337648    1910.2599  0.038092444  0.036769541           16 
 4180000   0.58746898   -4.8208344    1904.6937  0.037972362  0.036760476            7 
 4181000   0.58020407   -4.8552976     1904.486  0.037959141  0.036751373           17 
 4182000   0.58370966   -4.8353577    1906.0656   0.03798154  0.036742272           10 
 4183000   0.59306376   -4.8476376    1905.0719  0.037952664  0.036733186           20 
 4184000   0.58243756   -4.8576622    1900.8378  0.037859261  0.036724094           16 
 4185000   0.56777399   -4.8636981    1897.5323  0.037784394     0.036715           12 
 4186000   0.57391277   -4.8251789    1901.2092  0.037848566  0.036705902           16 
 4187000   0.57227627   -4.8320282    1906.4846  0.037944522  0.036696839           13 
 4188000   0.57449287   -4.8410259     1902.044  0.037847103  0.036687777           13 
 4189000   0.57528612   -4.8488832    1901.9047  0.037835297   0.03667869           14 
 4190000   0.59414927   -4.8369199    1901.2192  0.037812633  0.036669548           20 
 4191000   0.59186279   -4.8392944    1900.7962    0.0377952  0.036660435           10 
 4192000   0.57351681   -4.8421625    1900.9253  0.037788749  0.036651317           18 
 4193000   0.58244151   -4.8532335    1900.1058  0.037763451  0.036642194            6 
 4194000   0.58544069   -4.8421343    1906.3294  0.037878108   0.03663313           14 
 4195000   0.57699205   -4.8261341    1902.6824   0.03779663  0.036624036           21 
 4196000   0.57213075   -4.8515599    1900.9604  0.037753423  0.036614964            9 
 4197000   0.56564978   -4.8461886    1905.8488  0.037841491  0.036605906            5 
 4198000   0.57830107    -4.832491    1901.6636  0.037749397  0.036596847            9 
 4199000    0.5733662   -4.8438377    1906.1217  0.037828883    0.0365878           17 
 4200000   0.58613399   -4.8414605     1903.312  0.037764126  0.036578756           21 
 4201000   0.57051685   -4.8447674    1904.3104  0.037774942  0.036569726            8 
 4202000    0.5719026   -4.8434127    1902.9185  0.037738348  0.036560691           15 
 4203000   0.57437682   -4.8449467    1902.8215  0.037727447   0.03655166           22 
 4204000   0.55824188   -4.8521623    1901.4499  0.037691283  0.036542586            8 
 4205000   0.56687629   -4.8640144    1901.9743  0.037692712   0.03653353           13 
 4206000   0.58396979   -4.8428513    1904.2882  0.037729597  0.036524522           19 
 4207000    0.5809894   -4.8515081    1899.7005  0.037629755  0.036515478           12 
 4208000   0.57941979   -4.8573198    1906.5737  0.037756925  0.036506419           18 
 4209000   0.57697113    -4.859975    1900.8404  0.037634442  0.036497323           17 
 4210000   0.58239864   -4.8609363    1904.0514  0.037689062  0.036488227            8 
 4211000   0.58339859   -4.8628006    1903.4584  0.037668377  0.036479205           23 
 4212000   0.56394918   -4.8284602    1902.0941   0.03763244  0.036470183           19 
 4213000   0.58834059   -4.8327412    1912.1516  0.037822446  0.036461197           10 
 4214000    0.5745675   -4.8458677    1905.0425  0.037672886  0.036452211           12 
 4215000   0.58219495   -4.8495129    1903.6763  0.037636937   0.03644317           12 
 4216000   0.58989707    -4.854045    1908.4327  0.037722026  0.036434142           13 
 4217000   0.58412064   -4.8542581    1906.2914  0.037670764  0.036425131            8 
 4218000   0.57975787   -4.8531394    1909.2923  0.037721123   0.03641612            8 
 4219000    0.5728287   -4.8564354    1900.8827  0.037546075  0.036407101            7 
 4220000   0.57574329   -4.8586392    1908.7241  0.037692024  0.036398063           11 
 4221000   0.57247762   -4.8635242    1901.7244  0.037544902  0.036389021           13 
 4222000   0.57265336   -4.8563349    1905.1765  0.037604147  0.036379949           20 
 4223000   0.57526504   -4.8582442    1899.3712  0.037480686  0.036370977           25 
 4224000   0.57038432   -4.8657561    1904.5295  0.037573578  0.036361936            8 
 4225000   0.59257703   -4.8833298    1907.6835  0.037626893  0.036352919           11 
 4226000   0.56477235   -4.8670727    1904.4746  0.037554713  0.036343923            8 
 4227000   0.56670175   -4.8608894    1906.5374  0.037586495  0.036334944           13 
 4228000   0.58270099   -4.8545344    1907.2934  0.037592507   0.03632599           16 
 4229000   0.57849221   -4.8346742    1908.3264  0.037603972  0.036317062           21 
 4230000   0.58246098   -4.8684455    1908.7945  0.037604304  0.036308088           32 
 4231000   0.56879849   -4.8504723     1909.956  0.037618294   0.03629916            9 
 4232000   0.57863775   -4.8699537    1902.9392  0.037471235   0.03629018            9 
 4233000   0.57237551    -4.843616    1907.7876  0.037557832  0.036281243           12 
 4234000   0.58018875   -4.8374406    1902.7892  0.037450582  0.036272299           14 
 4235000    0.5661985   -4.8296543    1910.6675  0.037596762  0.036263352           19 
 4236000   0.57306828   -4.8643621    1902.6104  0.037429384  0.036254362           18 
 4237000   0.56443022   -4.8426787    1905.5724  0.037478806  0.036245374           31 
 4238000   0.57416746   -4.8506713    1903.9176  0.037437423  0.036236368           14 
 4239000   0.57267669   -4.8727569    1903.4595  0.037419587  0.036227343           18 
 4240000   0.58666987   -4.8614149     1910.177  0.037542787  0.036218352           20 
 4241000   0.57763149   -4.8829993    1906.8823  0.037469196  0.036209369            8 
 4242000   0.56738263    -4.866698    1905.1676  0.037426677  0.036200349           42 
 4243000   0.58805464   -4.8768233    1905.1073  0.037416672   0.03619135           14 
 4244000   0.58233647   -4.8634539    1903.2911  0.037372194  0.036182361            5 
 4245000    0.5599864   -4.8304267    1902.9332  0.037356364  0.036173344           10 
 4246000   0.57392787   -4.8410759    1906.2285   0.03741224  0.036164342           10 
 4247000    0.5774734   -4.8641501    1906.1033  0.037400975  0.036155383           11 
 4248000   0.57347564   -4.8765756     1901.354  0.037299003  0.036146444           10 
 4249000   0.57431769   -4.8633198    1900.6918  0.037277237  0.036137492           14 
 4250000   0.57819193   -4.8534298    1910.4133  0.037459084  0.036128535           15 
 4251000   0.57529306   -4.8631645    1902.4851  0.037294855  0.036119601           24 
 4252000   0.57903485   -4.8552132    1909.8321  0.037430073  0.036110656            5 
 4253000   0.57530863   -4.8732198    1904.8303  0.037323268  0.036101713           17 
 4254000   0.57557146   -4.8502404    1903.7795   0.03729391  0.036092765           24 
 4255000   0.57585273    -4.868206     1908.536    0.0373783  0.036083828           10 
 4256000   0.55553768   -4.8462381     1910.656  0.037411027  0.036074878           19 
 4257000   0.57425549   -4.8639953    1907.8168   0.03734666  0.036065965           13 
 4258000   0.57482727   -4.8596131    1904.6009  0.037274951  0.036057021            9 
 4259000   0.57064153   -4.8798328    1902.6574  0.037228172  0.036048055           26 
 4260000   0.57231961   -4.8621811    1908.3404  0.037330602  0.036039119            9 
 4261000   0.57954816   -4.8759122    1909.6214  0.037346894  0.036030196            8 
 4262000   0.56560659   -4.8552903     1903.303   0.03721459  0.036021251           11 
 4263000   0.56453062   -4.8710886    1903.8567  0.037216685  0.036012287           15 
 4264000   0.57579788   -4.8797747    1902.8611  0.037188498  0.036003354           13 
 4265000   0.55360075   -4.8678933    1906.8538  0.037257793  0.035994374           16 
 4266000   0.55842997   -4.8704102    1906.7897  0.037247806  0.035985459           10 
 4267000   0.56853194   -4.8750289    1906.1056  0.037225717  0.035976526           10 
 4268000   0.57970907    -4.879957     1906.376  0.037222275  0.035967603           21 
 4269000   0.56116891   -4.8775715    1909.3939  0.037272466  0.035958654           19 
 4270000   0.56442882    -4.854587    1906.8049   0.03721321  0.035949704            7 
 4271000   0.56440062   -4.8495873    1911.0673  0.037287662  0.035940786            5 
 4272000   0.56787982   -4.8559944    1906.0992  0.037182022  0.035931845           13 
 4273000   0.57389234   -4.8586021    1904.5722   0.03714354  0.035922977           14 
 4274000   0.55909587   -4.8537253    1908.9856  0.037220901  0.035914065           30 
 4275000   0.56986839    -4.866926    1907.8279  0.037189628  0.035905129           17 
 4276000    0.5639221   -4.8457524    1909.2694  0.037209023  0.035896209           21 
 4277000   0.56178434   -4.8756902     1907.542  0.037166667  0.035887298           10 
 4278000   0.55869997   -4.8813794    1908.9409  0.037185229  0.035878357           10 
 4279000   0.56057462   -4.8824657      1902.09  0.037043117  0.035869422            9 
 4280000   0.56682035   -4.8731531    1908.0711  0.037150917  0.035860455           12 
 4281000   0.55812155   -4.8562341    1909.8854  0.037177556   0.03585154           12 
 4282000   0.55954915   -4.8892747    1907.5577  0.037123574  0.035842667           11 
 4283000   0.56333115   -4.8654988     1905.491  0.037074694  0.035833763           22 
 4284000   0.56207402   -4.8844789    1906.8976  0.037093401  0.035824842            9 
 4285000   0.57106889   -4.8768948    1906.7133  0.037081162  0.035815951           15 
 4286000   0.55531772   -4.8731189    1904.9474  0.037038175  0.035807039           21 
 4287000   0.56714318   -4.8666607      1908.17  0.037092179  0.035798159           17 
 4288000   0.56648574   -4.8730593    1908.4354  0.037088686   0.03578927            8 
 4289000   0.56897599   -4.8574335    1904.0776  0.036995369  0.035780401            8 
 4290000   0.56143283   -4.8779077    1907.1308  0.037046053  0.035771539           15 
 4291000   0.56615593   -4.8738773    1908.2346  0.037058857  0.035762695           15 
 4292000   0.55603905   -4.8849875    1907.6303  0.037038489  0.035753844           22 
 4293000   0.57717793   -4.8755938    1908.5487  0.037047689     0.035745           13 
 4294000   0.57873517   -4.8704207    1907.5202    0.0370191  0.035736114            9 
 4295000    0.5607776    -4.885869    1906.1743  0.036984367  0.035727253           20 
 4296000   0.56694985    -4.897108    1910.1803  0.037053466   0.03571836           13 
 4297000   0.56602403   -4.9102283    1906.5373  0.036974192   0.03570948           32 
 4298000   0.56241501   -4.8760402    1908.9971  0.037013284   0.03570061           18 
 4299000   0.56218592   -4.8833274     1907.496  0.036975576  0.035691744           18 
 4300000   0.56541241   -4.8670968    1910.6572  0.037028241  0.035682858           10 
 4301000   0.56196836   -4.8885965    1906.4616  0.036938339  0.035674025           22 
 4302000   0.57563586     -4.89213    1909.8787  0.036995945  0.035665163           19 
 4303000   0.56488123   -4.8913895    1905.0053  0.036892968   0.03565631           12 
 4304000   0.57457788    -4.893244    1912.8875   0.03703701  0.035647469           13 
 4305000   0.55465609   -4.8905137     1911.432  0.037000232  0.035638627           15 
 4306000   0.56231489   -4.9020124    1906.2059  0.036890501  0.035629773           15 
 4307000   0.56291922   -4.9090726    1909.9859  0.036955071  0.035620925           10 
 4308000   0.57603069   -4.8835669     1910.457  0.036955605  0.035612098            8 
 4309000   0.54686299   -4.8790054    1910.9734  0.036957016  0.035603259            9 
 4310000   0.55119376   -4.8755487    1913.4909  0.036997117  0.035594455           13 
 4311000     0.562327   -4.8945414    1900.5919  0.036739192  0.035585601           12 
 4312000   0.54824116   -4.8885685    1907.3056  0.036860421  0.035576718           24 
 4313000   0.55537892   -4.8751835    1905.2626  0.036812401   0.03556785           11 
 4314000   0.55534172   -4.8947485    1910.8034  0.036910898  0.035558962           28 
 4315000   0.56500816   -4.8874248    1908.2957  0.036853914  0.035550094           11 
 4316000   0.55888375   -4.8998115    1905.6994  0.036795247  0.035541209           24 
 4317000   0.56703502   -4.8966161    1905.2859   0.03677874  0.035532311           13 
 4318000   0.56484645   -4.9124376    1909.3128  0.036847939  0.035523438           22 
 4319000   0.54753785   -4.8838973    1906.3778  0.036782777  0.035514534           32 
 4320000   0.54776361   -4.8869045    1911.1288  0.036865911  0.035505661           17 
 4321000   0.56539916   -4.8889109    1907.7017  0.036791285  0.035496828           12 
 4322000   0.55794939   -4.8909927    1904.5283  0.036721584   0.03548798            9 
 4323000   0.56378941   -4.8696445    1913.0344  0.036877061  0.035479143           10 
 4324000   0.55827642   -4.8913631    1910.4211  0.036818168  0.035470346           34 
 4325000   0.55184353   -4.8893741    1906.3772  0.036731738  0.035461536           26 
 4326000   0.56231772   -4.8938465    1909.7542    0.0367883  0.035452732           13 
 4327000   0.54577176   -4.8966428    1908.8377  0.036762146  0.035443917           11 
 4328000   0.55114717   -4.8950981    1906.1021  0.036700979  0.035435043           36 
 4329000   0.55352552   -4.8947909    1907.4427  0.036718308  0.035426213           21 
 4330000   0.54763872   -4.8998176    1909.9203  0.036757511  0.035417379           45 
 4331000   0.55315523   -4.8980136    1909.2653  0.036736421  0.035408543           18 
 4332000   0.56014371   -4.8961586     1910.115  0.036744287  0.035399693           17 
 4333000   0.57055409   -4.8894591    1905.2698  0.036642622  0.035390816           32 
 4334000    0.5585618   -4.8978052    1906.1132  0.036650385  0.035381926           12 
 4335000   0.54308966   -4.9097578    1906.5586  0.036650493  0.035373062            7 
 4336000   0.56215231   -4.8930509    1910.4153  0.036716161  0.035364174           10 
 4337000   0.56453649   -4.8949589    1906.7124  0.036636545  0.035355316           16 
 4338000   0.55656168   -4.8882331    1910.1207  0.036693575  0.035346483           12 
 4339000   0.56725559   -4.8967525     1910.007  0.036682934  0.035337659            6 
 4340000   0.56118472    -4.902871    1910.8545  0.036690755  0.035328829           10 
 4341000   0.55832732   -4.8718454    1910.3049  0.036671751  0.035319998            7 
 4342000   0.55081252   -4.8996093    1907.3362  0.036606329  0.035311192            9 
 4343000   0.56334334   -4.8887765    1906.7551  0.036586751  0.035302341           16 
 4344000   0.55136609   -4.9036129    1908.0287   0.03660276  0.035293509           18 
 4345000   0.55190786   -4.9042649    1902.2419   0.03648335  0.035284655           12 
 4346000   0.54475776   -4.9038507    1908.9036  0.036602691   0.03527583            8 
 4347000   0.55525162   -4.8936359    1909.1889  0.036599742  0.035266999           27 
 4348000    0.5413717   -4.9176857    1909.3769  0.036594927  0.035258144           20 
 4349000   0.55480133   -4.9059676    1909.0455  0.036580163  0.035249306           22 
 4350000   0.56662647   -4.9087304    1907.1597  0.036535626  0.035240463           27 
 4351000   0.56410223   -4.9049329    1910.2031  0.036585519  0.035231641           18 
 4352000   0.56467488   -4.9308586    1908.9253  0.036552644  0.035222815           20 
 4353000   0.55883829   -4.9102712    1911.4935  0.036593412  0.035214021           11 
 4354000    0.5602751   -4.8981969    1908.7095  0.036531725  0.035205212           20 
 4355000   0.55976834   -4.8995127     1912.135  0.036588883  0.035196416           18 
 4356000   0.55134197   -4.9146653    1906.8805   0.03647996  0.035187605           10 
 4357000    0.5519012   -4.8929727     1911.703  0.036563824  0.035178833            6 
 4358000   0.55238478   -4.8962483    1908.3859  0.036492005   0.03517006           12 
 4359000   0.57200266   -4.9037318    1912.2867  0.036558208  0.035161306            9 
 4360000   0.55708896   -4.8895089    1913.9029  0.036580713  0.035152566           10 
 4361000   0.55995672   -4.9171919    1905.6012  0.036413689  0.035143819           14 
 4362000   0.54684071   -4.9043688    1913.4906  0.036556064  0.035135053           39 
 4363000   0.55738159   -4.9017221     1908.153  0.036445737  0.035126301            9 
 4364000   0.55834857   -4.9330005    1906.4555  0.036404971   0.03511754           16 
 4365000    0.5655261    -4.907516    1912.9296  0.036520229  0.035108766           21 
 4366000   0.55458699   -4.9186143    1910.7752  0.036470744  0.035100037           12 
 4367000   0.55823857   -4.8899815    1918.0575  0.036601356  0.035091277           21 
 4368000   0.55439903   -4.9091429    1912.2195    0.0364816  0.035082541           29 
 4369000   0.54767694   -4.9003492    1915.2845   0.03653171  0.035073809           16 
 4370000   0.54413533   -4.9056072    1908.7041  0.036397866  0.035065065           14 
 4371000   0.55189315   -4.8906299    1913.9317  0.036489204  0.035056334           21 
 4372000   0.54558611   -4.9289805    1908.9406  0.036385723  0.035047609            9 
 4373000   0.55401761   -4.9034031    1911.2903  0.036422179  0.035038882           16 
 4374000   0.54611653   -4.9120178    1912.8665  0.036443882  0.035030199           19 
 4375000   0.55907709   -4.8755089    1916.2796  0.036500563  0.035021558            9 
 4376000   0.55422868    -4.888869    1912.5281  0.036420783  0.035012879            8 
 4377000   0.56027135   -4.9189501    1908.3351   0.03633263  0.035004137           16 
 4378000   0.55944974   -4.9109989    1911.2802   0.03638039  0.034995407           28 
 4379000   0.55195077   -4.9131864    1913.6788  0.036417729  0.034986689           17 
 4380000   0.53885232   -4.9030451    1911.1189  0.036360709  0.034977976           16 
 4381000   0.56162943   -4.9140244    1910.2189   0.03633529  0.034969224           12 
 4382000   0.55440731   -4.8941039    1913.3762  0.036387043  0.034960502           21 
 4383000   0.55290664   -4.9060762    1910.6276  0.036326482  0.034951787           15 
 4384000   0.53965239   -4.9301639    1909.4558   0.03629592  0.034943093           24 
 4385000   0.55101012   -4.9369597    1906.1747  0.036225289  0.034934332           11 
 4386000   0.56213591   -4.9161634    1912.4959  0.036337131  0.034925575            9 
 4387000   0.55719106   -4.9105405    1910.2019  0.036285272  0.034916829           28 
 4388000   0.55239969   -4.8973937    1907.7898  0.036231194  0.034908103           14 
 4389000   0.54905842   -4.9264406      1906.39  0.036196361  0.034899357           39 
 4390000   0.55070333   -4.9143965     1908.253  0.036223482   0.03489063           23 
 4391000   0.54932411   -4.9135734    1911.0681  0.036268657  0.034881907           19 
 4392000    0.5402296   -4.9071353    1910.1806  0.036243561  0.034873191           16 
 4393000   0.55954655   -4.9176926    1913.9864  0.036307504  0.034864445            5 
 4394000   0.55831165   -4.9178063    1910.3509  0.036230294  0.034855716           16 
 4395000   0.54096084   -4.9150682    1910.4455  0.036223844  0.034847008           15 
 4396000   0.55716165   -4.9220724    1909.6095  0.036199755  0.034838302           25 
 4397000   0.55210244   -4.9139107    1911.6231  0.036229684  0.034829588           24 
 4398000   0.54664011   -4.9229189    1910.4917  0.036200009  0.034820899           14 
 4399000   0.55165564    -4.925667    1911.2679  0.036206485  0.034812181           20 
 4400000    0.5533865   -4.9099837    1907.1245  0.036119782  0.034803466           18 
 4401000   0.54545328   -4.8965845    1914.6264  0.036253625  0.034794763           27 
 4402000   0.54137198   -4.9121162    1906.1829  0.036085546  0.034786097           69 
 4403000   0.55293822   -4.9095489    1911.0922  0.036170266  0.034777406           55 
 4404000   0.53077239   -4.9161048    1913.1522  0.036201033  0.034768725           54 
 4405000   0.54893676   -4.9109965    1916.0794  0.036248191  0.034760005           50 
 4406000   0.54102565   -4.9153162    1913.2859  0.036187129  0.034751317           32 
 4407000   0.55263723   -4.9182975    1909.1948  0.036101559  0.034742582           35 
 4408000   0.54159628   -4.9320878    1912.2811  0.036151714  0.034733843           17 
 4409000   0.55497938   -4.9235048    1909.0244  0.036081961    0.0347251           10 
 4410000   0.54169701   -4.9109365    1911.6608  0.036123597  0.034716382           11 
 4411000   0.54250737   -4.9075263    1911.4935  0.036112248  0.034707661           12 
 4412000    0.5382719   -4.9139792    1911.0779  0.036096213  0.034698915           12 
 4413000    0.5434026   -4.9310092    1908.9714  0.036048256  0.034690174           16 
 4414000   0.54611787   -4.9400691    1910.1842  0.036062986  0.034681417           15 
 4415000   0.54983977   -4.9274932    1912.1773  0.036092436  0.034672669           42 
 4416000   0.54626052   -4.9175106    1907.3984  0.035994081  0.034663935           20 
 4417000   0.54725309   -4.9054749    1913.2911  0.036097107  0.034655218           16 
 4418000   0.54564969    -4.899807    1908.5776  0.036000031   0.03464653           17 
 4419000   0.54714271   -4.9143899    1911.6997   0.03605076  0.034637827            9 
 4420000   0.54381099   -4.9197508    1910.5257  0.036020469  0.034629085            9 
 4421000   0.55360001   -4.9396224    1909.1678  0.035986727  0.034620335           22 
 4422000    0.5382586   -4.9076081    1913.5663  0.036061478   0.03461164           13 
 4423000   0.54386465   -4.9161724     1906.892  0.035927576  0.034602915           23 
 4424000   0.54504623   -4.9302405     1908.015  0.035940608  0.034594181            9 
 4425000   0.54011235   -4.9021881    1914.7134  0.036058632  0.034585427            9 
 4426000   0.53376387   -4.9397779    1908.1047  0.035926056  0.034576693           11 
 4427000   0.55442753   -4.9342921    1909.3555  0.035941486  0.034567963            7 
 4428000   0.54043923   -4.9350709    1907.8978  0.035905937  0.034559239           13 
 4429000   0.52377539   -4.9191828    1910.2171  0.035941468  0.034550525           27 
 4430000   0.55437331   -4.9336281    1907.1732  0.035876096  0.034541857           17 
 4431000    0.5477463   -4.9399608    1913.4585  0.035986206  0.034533169           34 
 4432000   0.54245518   -4.9133563    1911.9649  0.035950002  0.034524478           16 
 4433000   0.54664599   -4.9048167    1914.0907  0.035981854  0.034515828           11 
 4434000   0.53274371   -4.9232861    1909.4712  0.035886918  0.034507174           25 
 4435000   0.53932477   -4.9268036    1909.4788   0.03587897  0.034498516           18 
 4436000   0.54111458   -4.9449904     1911.253  0.035904212  0.034489866           10 
 4437000   0.52739852   -4.9262764    1910.9319  0.035890089  0.034481204           19 
 4438000   0.54514897   -4.9232068    1910.2065  0.035868381  0.034472569           30 
 4439000   0.53610839    -4.916843     1912.987  0.035912499  0.034463953           18 
 4440000    0.5457454   -4.9226018    1914.7723  0.035937919  0.034455323           18 
 4441000     0.549636   -4.9042714     1913.214  0.035900585  0.034446707           16 
 4442000   0.53862352   -4.9210567    1911.7963  0.035865907  0.034438102           14 
 4443000   0.53033004   -4.9293661    1911.2336   0.03584728  0.034429463           23 
 4444000   0.53917163   -4.9379976    1916.1487  0.035931382  0.034420803           22 
 4445000   0.55213208   -4.9325281    1910.8537  0.035824028  0.034412144           14 
 4446000   0.54864216   -4.9375084    1914.7523  0.035889045  0.034403529           15 
 4447000   0.54597441   -4.9266238    1912.2014  0.035833171  0.034394907            8 
 4448000   0.53222845   -4.9287857    1911.1754  0.035805894  0.034386269           15 
 4449000   0.54437734    -4.932152    1911.4726  0.035803413  0.034377606           22 
 4450000   0.53906694   -4.9436717    1910.6609  0.035780166  0.034368939           19 
 4451000    0.5331294   -4.9471837    1910.1049  0.035761718  0.034360281           15 
 4452000   0.53255662   -4.9317945    1913.3669  0.035814745  0.034351602           45 
 4453000   0.53854518   -4.9366756    1915.3712   0.03584421  0.034342951           31 
 4454000   0.53902404   -4.9499346    1911.0071  0.035754511  0.034334285           12 
 4455000   0.53235798   -4.9449471    1906.9632  0.035670842  0.034325613           25 
 4456000   0.55070036   -4.9352463     1907.421  0.035671398  0.034316968           26 
 4457000   0.53114241   -4.9385436    1910.2479   0.03571625  0.034308332           19 
 4458000   0.54384312   -4.9694315     1909.372  0.035691865  0.034299657           19 
 4459000   0.53588601   -4.9395183    1909.4611  0.035685525  0.034290975           25 
 4460000   0.54082637   -4.9590634    1906.3237  0.035618904    0.0342823           12 
 4461000   0.53208817   -4.9476668    1912.3371  0.035723252  0.034273643           19 
 4462000   0.53629522    -4.936829    1912.1265  0.035711312  0.034264989           15 
 4463000   0.53993308   -4.9435286    1911.2726  0.035687366  0.034256342            8 
 4464000   0.53711098   -4.9312745    1912.1287  0.035695354  0.034247668           22 
 4465000   0.54177385   -4.9278178    1906.4646  0.035581647   0.03423901           28 
 4466000   0.54264692   -4.9564058    1909.9059  0.035637892  0.034230332           22 
 4467000   0.54199952   -4.9624115    1906.2377  0.035561483  0.034221648           38 
 4468000   0.55286948    -4.937556    1907.7177  0.035581127  0.034212977           12 
 4469000   0.53158072   -4.9638308    1911.9039  0.035651226  0.034204294           17 
 4470000   0.54255895   -4.9650889    1907.6521  0.035563983  0.034195585           18 
 4471000   0.54715278   -4.9690546    1911.1142  0.035620559  0.034186867           28 
 4472000   0.52963527   -4.9488813    1905.2257  0.035502863  0.034178135           27 
 4473000   0.53496951   -4.9496917    1908.9556  0.035564416  0.034169462           23 
 4474000   0.54081849   -4.9349788    1909.6438  0.035569285  0.034160809           16 
 4475000   0.52527598   -4.9500784    1912.3701  0.035612107  0.034152147           35 
 4476000   0.52934638   -4.9532797    1908.4707  0.035531551  0.034143431           23 
 4477000   0.52605569   -4.9569155    1905.6529  0.035471166   0.03413474           65 
 4478000   0.52592174   -4.9531149     1906.704  0.035482805  0.034126057           39 
 4479000   0.54498175   -4.9687087    1908.7216  0.035512421  0.034117346           15 
 4480000   0.55240293   -4.9342707     1913.458  0.035592596  0.034108682           47 
 4481000   0.53498194   -4.9521264    1909.5944  0.035512803  0.034100032           22 
 4482000   0.53640296   -4.9466894    1909.3692  0.035500692  0.034091336           19 
 4483000   0.53544189   -4.9399695    1911.3831  0.035530209  0.034082658           17 
 4484000   0.53026862   -4.9281973    1910.5614  0.035507013  0.034074025           15 
 4485000   0.53482383   -4.9439371     1907.675  0.035445467  0.034065386           16 
 4486000   0.53374738   -4.9467067    1912.2088  0.035521786  0.034056736           15 
 4487000   0.52313078   -4.9539574    1908.7514  0.035449658   0.03404807           23 
 4488000   0.54152273   -4.9464234    1911.4459  0.035491792  0.034039444           23 
 4489000   0.53101705    -4.959482    1910.4944   0.03546622  0.034030819           19 
 4490000   0.54045617   -4.9567844    1907.7797  0.035407938   0.03402218           12 
 4491000   0.53228498   -4.9431528    1912.4491  0.035486698  0.034013553           22 
 4492000    0.5478399   -4.9428123    1908.9411   0.03541372  0.034004919           21 
 4493000   0.53073895   -4.9592853     1908.031  0.035388957  0.033996249           16 
 4494000   0.52602931   -4.9608566    1909.6419  0.035410953  0.033987563           12 
 4495000   0.53885858   -4.9723791     1905.291  0.035322413  0.033978876           17 
 4496000   0.53711988   -4.9721937    1906.9792  0.035345848  0.033970207           13 
 4497000   0.52584859   -4.9822686    1908.2946  0.035362364  0.033961531           16 
 4498000   0.54094885   -4.9471846    1909.4125  0.035375213  0.033952859           17 
 4499000   0.52958005   -4.9478145    1909.5802  0.035370456  0.033944221           43 
 4500000   0.52361832   -4.9385501    1906.3401  0.035302594  0.033935551           11 
 4501000   0.53492867   -4.9495631    1908.3165  0.035331342   0.03392689           27 
 4502000   0.53007103   -4.9277795    1907.3763  0.035306091  0.033918276           18 
 4503000    0.5197356   -4.9475721    1906.7434  0.035286539  0.033909672           74 
 4504000    0.5308849   -4.9391868    1909.0028  0.035320508  0.033901037           32 
 4505000    0.5413848    -4.940071    1907.4467  0.035283882  0.033892408           26 
 4506000   0.53023172   -4.9559859    1907.0618  0.035268933  0.033883759           41 
 4507000   0.52603247    -4.952654    1903.9741  0.035204018  0.033875122           34 
 4508000   0.53065466   -4.9621745    1906.8933  0.035250171  0.033866485           25 
 4509000    0.5221613   -4.9608052    1908.0782  0.035264254  0.033857793           19 
 4510000   0.51971439   -4.9200403    1909.6386  0.035285266  0.033849157            9 
 4511000    0.5214814    -4.960461     1905.611  0.035203041  0.033840517           23 
 4512000   0.52382519   -4.9568421    1902.9611  0.035146298  0.033831858           27 
 4513000   0.52099278    -4.954406     1905.217  0.035180165  0.033823212           25 
 4514000   0.53700414   -4.9473071    1904.8917  0.035166367  0.033814578           36 
 4515000   0.51025984   -4.9581733    1908.0874  0.035217561  0.033805908           20 
 4516000    0.5354765   -4.9621657    1904.6914  0.035147096  0.033797245           10 
 4517000   0.53329131   -4.9532342    1907.3712  0.035188754  0.033788578           10 
 4518000   0.52680234   -4.9391106    1914.3491   0.03530967  0.033779935           10 
 4519000   0.52142749   -4.9565154    1909.5829  0.035213966  0.033771295           11 
 4520000   0.52759831   -4.9674468     1905.965  0.035139473  0.033762653           30 
 4521000   0.52790895   -4.9840289    1908.1409  0.035171807  0.033753995           27 
 4522000   0.54714067   -4.9702185    1906.9618  0.035142301  0.033745354           28 
 4523000   0.54564923   -4.9596412    1905.2881  0.035103695  0.033736721           19 
 4524000   0.52807045   -4.9587724    1910.1286  0.035185098  0.033728071           23 
 4525000   0.52261979   -4.9612466    1908.4451  0.035146319  0.033719458           10 
 4526000   0.53226606   -4.9617353    1910.6445  0.035179048  0.033710827           19 
 4527000   0.53582342    -4.950677    1906.9105  0.035102542   0.03370223           14 
 4528000   0.53745821   -4.9705506     1905.698  0.035072476  0.033693598           20 
 4529000   0.52770832   -4.9377193    1905.7465  0.035065623  0.033684976           28 
 4530000   0.52143806   -4.9638571    1905.3592  0.035050758  0.033676366           20 
 4531000   0.51393556   -4.9631734    1904.4003  0.035025386  0.033667726           21 
 4532000   0.53294841   -4.9532677    1905.7585  0.035042632  0.033659093           14 
 4533000   0.53695363   -4.9594008     1905.975  0.035038882  0.033650472           10 
 4534000   0.52666221   -4.9667653    1904.7671  0.035008952  0.033641829           18 
 4535000   0.53180509   -4.9610691    1908.8126  0.035075572  0.033633187           19 
 4536000   0.52124785   -4.9603418    1904.8236  0.034994555  0.033624525           29 
 4537000    0.5320199   -4.9627808     1905.734  0.035003563  0.033615897            9 
 4538000   0.51656127    -4.948904    1908.6732  0.035049824  0.033607274            9 
 4539000    0.5314136   -4.9519803    1908.0983  0.035031548  0.033598684           17 
 4540000   0.53419252   -4.9634569    1907.5136  0.035013099  0.033590059           20 
 4541000   0.51508695   -4.9640358     1905.738  0.034972803  0.033581447           12 
 4542000   0.53094663   -4.9659021    1906.7375  0.034983441  0.033572826           17 
 4543000   0.53089888   -4.9626061    1904.1083  0.034927513  0.033564192           19 
 4544000   0.53218771   -4.9563805    1905.2884  0.034941468  0.033555545           25 
 4545000   0.52814376   -4.9579305    1907.9135  0.034981912  0.033546946           19 
 4546000   0.52740406   -4.9532157    1906.0673  0.034940374  0.033538346           19 
 4547000   0.51233075    -4.976976    1902.2851  0.034863374  0.033529724           28 
 4548000   0.53508207   -4.9779031    1905.9242  0.034922388  0.033521087           20 
 4549000   0.51671635    -4.984721    1906.8444  0.034931568  0.033512458           28 
 4550000   0.53015878   -4.9689594    1908.6689  0.034957306   0.03350384           35 
 4551000   0.51561391   -4.9671758    1912.9911  0.035028769  0.033495216           39 
 4552000    0.5304322   -4.9580095     1904.176  0.034859695  0.033486602           23 
 4553000   0.52709436   -4.9626309    1910.6198   0.03496998   0.03347799           57 
 4554000   0.52354118     -4.97105    1906.7518  0.034891521  0.033469383           15 
 4555000   0.52802956   -4.9617689    1908.5172  0.034916158  0.033460786           11 
 4556000   0.52554113   -4.9763684     1907.341   0.03488698  0.033452191            9 
 4557000   0.53304601   -4.9822965    1908.3488  0.034897755  0.033443586           22 
 4558000   0.51248394   -4.9813327    1907.4186  0.034873091  0.033434985           29 
 4559000   0.51478016   -4.9908974    1902.9554  0.034783859  0.033426376           17 
 4560000   0.53388033    -4.974714    1909.5435  0.034896629  0.033417777           16 
 4561000   0.52214426   -4.9696107    1909.1629  0.034882022  0.033409188           32 
 4562000   0.52000461   -4.9804674    1908.4152  0.034860719  0.033400597           25 
 4563000    0.5250319   -4.9645875    1908.9083  0.034862085  0.033392047           34 
 4564000   0.53036742   -4.9716716    1907.7495  0.034833288  0.033383488           35 
 4565000   0.52198316   -4.9577692    1907.8958  0.034828327  0.033374883           17 
 4566000    0.5125013   -4.9661787    1907.6751  0.034816672  0.033366275           29 
 4567000   0.52517633   -4.9817804    1906.1158  0.034780596   0.03335767           18 
 4568000    0.5171447   -4.9799148    1907.0101  0.034789297   0.03334908           21 
 4569000   0.51178494   -4.9884806    1905.2678  0.034749905    0.0333405           54 
 4570000   0.53899864   -4.9908438    1903.1898   0.03470441  0.033331913           15 
 4571000   0.51775685   -4.9687143    1907.4515  0.034774511  0.033323315           14 
 4572000   0.51478288   -4.9682356    1903.6716  0.034698009  0.033314745           19 
 4573000   0.52510441   -4.9936819    1907.4571  0.034759406  0.033306142           11 
 4574000   0.52108526   -4.9848354     1904.835  0.034704033  0.033297543           24 
 4575000   0.53202294   -4.9942051    1905.5266  0.034709045   0.03328894           17 
 4576000   0.52558376   -4.9696657    1908.1122  0.034748547  0.033280354           20 
 4577000   0.52075608    -4.972926    1909.3936  0.034764285  0.033271793           18 
 4578000   0.53241284   -4.9799935    1910.2245  0.034771816  0.033263227           17 
 4579000   0.53096508   -4.9711761    1909.1795  0.034745205  0.033254677           24 
 4580000   0.51140102   -4.9854985    1905.4425  0.034669624  0.033246115           21 
 4581000    0.5246959   -4.9867595    1908.1317  0.034710974  0.033237573           26 
 4582000   0.51278661   -4.9660451    1903.5102  0.034619347  0.033228982           32 
 4583000   0.51503666   -4.9633234    1905.6392  0.034650505  0.033220419           21 
 4584000   0.51454976   -4.9834577    1911.8547   0.03475594  0.033211862           31 
 4585000   0.51138842   -4.9734426    1905.2453  0.034628231  0.033203321           15 
 4586000   0.50969639   -4.9773269     1903.814  0.034594673  0.033194748           26 
 4587000   0.52217615    -4.991142     1904.735  0.034603862  0.033186142           23 
 4588000   0.51557827    -5.002976    1906.0217  0.034619692  0.033177494           24 
 4589000   0.51762738   -4.9945117    1904.9801  0.034593232   0.03316888           10 
 4590000   0.51582357   -4.9839142    1906.7678  0.034618152  0.033160283           19 
 4591000   0.50936473   -5.0004238     1906.113  0.034598726  0.033151694           23 
 4592000   0.51647149   -4.9649425    1903.8572  0.034550254  0.033143127           28 
 4593000   0.51320793   -4.9821525     1907.774  0.034613797  0.033134541           15 
 4594000   0.52241137   -4.9841487    1907.1232  0.034594456  0.033125981           28 
 4595000   0.51567962   -4.9966224    1903.6983  0.034524815    0.0331174           37 
 4596000   0.52948372    -4.979203    1908.0657  0.034596492  0.033108808           26 
 4597000   0.51866352   -4.9692584    1906.1787  0.034554758  0.033100237           11 
 4598000   0.51935434   -4.9644241    1907.5754  0.034572557  0.033091704           16 
 4599000   0.51373941   -4.9799277    1905.4894  0.034527241  0.033083186           29 
 4600000    0.5163327   -4.9773254    1903.7244   0.03448776  0.033074632           16 
 4601000   0.50953175   -4.9894113     1905.225  0.034507445  0.033066082           20 
 4602000    0.5220653   -4.9658178    1908.3585  0.034556687  0.033057558           19 
 4603000   0.52352033   -4.9624875    1910.0636   0.03458005  0.033049024           29 
 4604000   0.50992586     -4.98382    1906.4967  0.034507977  0.033040494           49 
 4605000   0.50647484   -4.9887689    1905.8125  0.034488102  0.033031948           28 
 4606000   0.52154505   -4.9656243    1911.5311  0.034584077  0.033023414           23 
 4607000   0.50519206     -4.98186    1902.7233  0.034417251  0.033014886           51 
 4608000   0.51470665   -4.9942412    1906.6234  0.034480313  0.033006353           14 
 4609000    0.5161511   -4.9858899    1904.4175  0.034432949  0.032997812           18 
 4610000   0.50938791   -4.9806388    1905.4113  0.034443444  0.032989279           14 
 4611000   0.51032605   -4.9869982    1910.1562  0.034521728   0.03298075           24 
 4612000   0.51282081   -4.9735745    1904.8613  0.034418569  0.032972211           34 
 4613000   0.50005918   -4.9955084    1906.6436  0.034443305  0.032963675           49 
 4614000   0.50803818   -4.9792957     1903.532  0.034379641  0.032955141           87 
 4615000   0.50047845   -4.9881634    1906.9132  0.034433247  0.032946618           25 
 4616000   0.51916815   -4.9821881    1904.2781  0.034378215  0.032938099           32 
 4617000   0.51240303   -4.9877336     1906.468  0.034410295   0.03292955           13 
 4618000   0.51291825   -4.9885131    1908.9033   0.03444679   0.03292099           11 
 4619000   0.50786057   -4.9874332     1904.483  0.034359584  0.032912436           16 
 4620000   0.50378248    -5.000487    1904.1072  0.034345369  0.032903901           16 
 4621000   0.51019949   -4.9796067    1903.1169  0.034320076  0.032895382           12 
 4622000   0.51414442   -4.9927833    1904.5424  0.034338353  0.032886858           33 
 4623000   0.52155991   -4.9920914    1907.1444  0.034377829  0.032878335           14 
 4624000   0.50532673    -4.990286    1904.0411  0.034314466  0.032869824           20 
 4625000   0.50722155   -4.9916206    1901.6769   0.03426445  0.032861282           14 
 4626000    0.5185343   -5.0002196    1900.6591  0.034238707  0.032852721           20 
 4627000   0.50726315   -4.9833931    1906.4282   0.03433521  0.032844202           18 
 4628000   0.51492914   -4.9901043     1903.597  0.034276812  0.032835676           24 
 4629000   0.50722083   -5.0005126    1902.9384   0.03425755  0.032827154           37 
 4630000   0.51413367   -4.9717481    1904.6094  0.034280227  0.032818659           29 
 4631000   0.50694709    -4.983263    1905.3035  0.034285315  0.032810131           20 
 4632000   0.51302962   -4.9970432    1908.7802  0.034340461  0.032801612           12 
 4633000   0.50704151   -4.9799579    1905.4907  0.034273882  0.032793086           12 
 4634000   0.50618464   -4.9924113    1904.2233  0.034243693  0.032784539           37 
 4635000   0.50146734   -4.9801249    1903.1468  0.034216951  0.032776002           51 
 4636000   0.50399103   -5.0028919    1904.6376  0.034236367  0.032767471           13 
 4637000   0.51727013   -4.9615333    1906.8284  0.034268357  0.032758959           11 
 4638000   0.50139074   -4.9882641    1907.9633  0.034281359  0.032750471           28 
 4639000   0.51488854   -4.9738953     1902.508  0.034175973  0.032741976           18 
 4640000   0.51597823   -4.9905463    1906.4129  0.034238737  0.032733493           18 
 4641000   0.51300782   -4.9912317    1901.7263  0.034147209   0.03272501           27 
 4642000   0.50853849   -4.9981718    1904.6676  0.034192653  0.032716514           17 
 4643000   0.50212605   -4.9955747    1904.0904   0.03417493  0.032708022           18 
 4644000   0.50712774   -5.0187153     1906.273  0.034206736  0.032699493           27 
 4645000   0.50633105    -5.013833    1900.8665  0.034102377  0.032690958           35 
 4646000   0.50849243   -4.9985364    1906.2101  0.034190882  0.032682464           31 
 4647000    0.5049613   -4.9980549    1903.3193  0.034131685  0.032673933           45 
 4648000   0.51579506   -5.0154105    1897.9246  0.034027621  0.032665392           26 
 4649000   0.50210184   -5.0034552    1905.5709  0.034157362  0.032656876           32 
 4650000   0.50836673   -5.0021957    1904.0633  0.034122998  0.032648362           21 
 4651000   0.50548353   -4.9850786    1907.3427   0.03417442  0.032639852           16 
 4652000   0.50490922   -5.0027943    1908.0345  0.034179466  0.032631379           23 
 4653000   0.51139606   -4.9895823    1904.8852  0.034115718  0.032622875           29 
 4654000   0.50561619   -4.9848235    1904.5229    0.0341019  0.032614355           16 
 4655000   0.50867751   -4.9986145    1903.4674  0.034075678  0.032605848           20 
 4656000   0.50642138   -5.0079149    1898.6077  0.033981381  0.032597348           13 
 4657000   0.49279095   -5.0218783       1906.1  0.034108153   0.03258884           20 
 4658000   0.50721755   -5.0211734    1898.4187  0.033963409  0.032580309           16 
 4659000   0.50960031   -4.9930294    1903.6258  0.034049256  0.032571806           21 
 4660000   0.51378169   -4.9913743    1906.9587   0.03410155  0.032563342           27 
 4661000   0.51621175    -4.985913    1906.8417  0.034092142  0.032554898           34 
 4662000    0.4958552   -4.9914606    1906.1737  0.034072889  0.032546442           28 
 4663000   0.51101308   -4.9938185    1902.1094  0.033992948  0.032537985           20 
 4664000   0.49578684   -5.0000805    1905.5748  0.034047576  0.032529501           48 
 4665000   0.50581906   -4.9918602    1908.7583  0.034097148  0.032521025           22 
 4666000   0.50348749   -4.9955352    1906.9949  0.034058345  0.032512583           32 
 4667000   0.50369116   -5.0209331    1906.4861  0.034041963  0.032504096           38 
 4668000   0.50271541   -5.0177611     1898.163  0.033886086  0.032495628           18 
 4669000   0.50080474   -5.0110662    1905.6631  0.034012693  0.032487159           22 
 4670000   0.50845976   -5.0012264    1905.0305  0.033994121  0.032478696           70 
 4671000    0.4929766   -5.0187223    1903.5031  0.033959593  0.032470229           23 
 4672000   0.50761152   -5.0160705    1902.6427  0.033936978  0.032461751           32 
 4673000   0.50068723   -5.0252918    1903.3734  0.033942745  0.032453284           48 
 4674000   0.51278936   -5.0078967    1905.4381  0.033972295  0.032444825          102 
 4675000   0.50627303   -5.0021832    1905.1196  0.033959352  0.032436393           55 
 4676000   0.50408326   -5.0003514    1906.1769  0.033970932  0.032427959           65 
 4677000    0.5054759   -5.0056624    1907.0635  0.033979465  0.032419567           77 
 4678000   0.49344476   -5.0069356    1904.4261   0.03392522  0.032411148           78 
 4679000   0.48945367   -5.0101224    1906.5436  0.033955681  0.032402721           41 
 4680000   0.50900598   -5.0158201     1901.632  0.033860968   0.03239429           62 
 4681000   0.50201877   -5.0192731    1901.8239  0.033857151  0.032385826           61 
 4682000   0.50710894   -4.9965357    1902.2688  0.033857839  0.032377374           35 
 4683000    0.5056271   -5.0079987    1901.9365  0.033844696  0.032368944           23 
 4684000   0.49141006   -5.0142248    1904.1275   0.03387645  0.032360509           20 
 4685000   0.50862252   -4.9979847    1905.8043  0.033899044  0.032352114           31 
 4686000   0.50564893   -5.0101373    1907.2705  0.033917885  0.032343704           39 
 4687000   0.49791655   -5.0138146    1905.8635  0.033885632  0.032335273           26 
 4688000    0.4991125    -5.033851    1906.1016  0.033882637  0.032326837           50 
 4689000   0.50764902   -5.0087645    1898.7132  0.033744104  0.032318406           46 
 4690000   0.49689693   -5.0174638    1903.3225  0.033818809  0.032309974           63 
 4691000   0.49119391   -5.0164039    1900.9651  0.033769721  0.032301527           58 
 4692000   0.50650833   -5.0025413    1906.3169  0.033857575  0.032293102           56 
 4693000   0.50465513   -5.0225667    1905.2313  0.033831083   0.03228471           67 
 4694000   0.50431049   -4.9987197    1907.4363  0.033863021  0.032276323           32 
 4695000   0.50075402   -5.0084866    1907.1374  0.033850504  0.032267926           18 
 4696000   0.50800884   -5.0086018    1904.9269  0.033804068  0.032259524           39 
 4697000   0.50176383   -5.0195371    1905.0902   0.03379977  0.032251098           29 
 4698000   0.49570387   -5.0203515    1901.7146  0.033732699  0.032242683           21 
 4699000   0.49633972   -5.0239573     1907.145  0.033821824  0.032234272           15 
 4700000   0.50569585   -4.9995168    1906.6658  0.033806132  0.032225862           42 
 4701000   0.50658543   -5.0062948    1903.1584  0.033736765  0.032217463           29 
 4702000   0.49969676   -5.0188971     1903.282  0.033731781  0.032209056           22 
 4703000   0.50031903   -5.0346144     1901.435  0.033691881  0.032200634           24 
 4704000   0.49514033   -5.0263525    1900.6281  0.033670423  0.032192177           30 
 4705000   0.50048234   -5.0209768    1905.1386  0.033743156  0.032183728           25 
 4706000   0.48494955   -5.0226661    1904.0775  0.033717196  0.032175306           28 
 4707000   0.49126061   -5.0148142    1905.2686   0.03373112  0.032166862           12 
 4708000   0.48553448   -5.0243097    1902.9991  0.033683785  0.032158425           20 
 4709000   0.49843261   -5.0409849    1900.6565  0.033635176  0.032150015           12 
 4710000   0.49181536   -5.0260657    1904.3391   0.03369319  0.032141581           30 
 4711000   0.49614718   -5.0105442    1904.4604  0.033688184  0.032133172           31 
 4712000   0.51075156    -5.041186    1904.2665  0.033677604  0.032124768           19 
 4713000   0.48474396   -5.0313515    1901.8677  0.033628045  0.032116369           43 
 4714000    0.5108893    -5.011421     1901.668  0.033617381  0.032107965           31 
 4715000   0.50163226   -5.0123323    1900.6504  0.033592266  0.032099579           86 
 4716000    0.5143134   -5.0207804    1904.5451  0.033653963  0.032091192           29 
 4717000   0.49389285   -5.0157001    1908.7747  0.033721551  0.032082814           23 
 4718000   0.51020032   -5.0321184     1906.014  0.033665642  0.032074427           19 
 4719000   0.50084695    -5.037625     1902.638  0.033598892  0.032066019           36 
 4720000      0.49886   -5.0336805    1906.0974  0.033652849  0.032057629           33 
 4721000   0.50257694   -5.0346302    1907.9063   0.03367765  0.032049247           20 
 4722000   0.49469411   -5.0330025    1905.8515  0.033634256  0.032040922           19 
 4723000   0.48656417   -5.0347451    1904.6098  0.033605226   0.03203257           54 
 4724000   0.50201971   -5.0332884    1901.6291  0.033545532  0.032024201           24 
 4725000   0.49414012   -5.0412089    1900.8331  0.033524394  0.032015824           38 
 4726000   0.48513146   -5.0302641    1902.8881  0.033553536  0.032007435           36 
 4727000   0.50357209   -5.0222799    1902.0777   0.03353215  0.031999055           47 
 4728000   0.48667578   -5.0324539    1899.1722  0.033473847   0.03199069           13 
 4729000   0.48464328   -5.0293459    1910.5944  0.033668049  0.031982313           20 
 4730000    0.4872327   -5.0342285     1902.185  0.033512774  0.031973944           40 
 4731000   0.49989441   -5.0049503    1908.7766  0.033621796  0.031965579           12 
 4732000   0.49459069   -5.0207616    1903.1856   0.03351623  0.031957216           22 
 4733000   0.50228279   -5.0427788    1899.2321   0.03343954  0.031948858            9 
 4734000   0.49914945   -5.0451125    1903.6801  0.033510775  0.031940512           14 
 4735000   0.49212595   -5.0404969    1899.7831  0.033435113  0.031932169           27 
 4736000   0.49123556   -5.0388652    1899.6804  0.033426246  0.031923799           15 
 4737000   0.47986525   -5.0310584    1900.2869  0.033429859  0.031915424           17 
 4738000   0.49616529   -5.0293709     1902.645  0.033464279  0.031907051           22 
 4739000   0.50346667   -5.0233535    1901.7987  0.033442335  0.031898677           16 
 4740000   0.49419748    -5.048182     1900.273  0.033408457  0.031890305           30 
 4741000   0.48901167   -5.0227612     1902.461  0.033439868  0.031881949           10 
 4742000    0.4827153   -5.0286604    1902.0544  0.033425671  0.031873599           17 
 4743000   0.49482666   -5.0153152    1901.4421  0.033407866  0.031865245           32 
 4744000   0.49661258   -5.0323394     1903.411  0.033435409  0.031856884           64 
 4745000   0.50180419   -5.0405541    1904.5687  0.033448695  0.031848536           43 
 4746000   0.50060872   -5.0478885    1904.6441  0.033442971  0.031840208           38 
 4747000   0.49416686   -5.0223717    1902.0463  0.033390321  0.031831848           62 
 4748000     0.495271   -5.0261696    1903.4611   0.03340812  0.031823504           38 
 4749000   0.49241285   -5.0400946     1903.222  0.033396891  0.031815156           56 
 4750000   0.48842464   -5.0415109    1900.6585  0.033344886  0.031806803           43 
 4751000   0.50685389   -5.0471737    1906.2488  0.033435922   0.03179847           44 
 4752000   0.49537935   -5.0399408    1903.4802  0.033380335  0.031790143           18 
 4753000    0.4907035   -5.0339393    1907.3772  0.033441637  0.031781811           27 
 4754000   0.49644253   -5.0317064    1904.0654   0.03337655  0.031773501           41 
 4755000   0.47435809   -5.0333428      1904.15  0.033371012  0.031765169           37 
 4756000   0.49434522   -5.0349532    1902.7137  0.033338831  0.031756841           32 
 4757000   0.48976784   -5.0518542    1903.7396  0.033349794  0.031748521           12 
 4758000   0.49693787   -5.0199307    1901.1651  0.033297693  0.031740204           22 
 4759000   0.48050975   -5.0251562    1904.2114   0.03334404   0.03173187           12 
 4760000   0.48119503   -5.0470149    1901.0566  0.033281803  0.031723571           25 
 4761000   0.49811852   -5.0284387    1907.4652  0.033386985  0.031715291           15 
 4762000   0.49080494   -5.0249787    1903.8393  0.033316521  0.031706998           36 
 4763000   0.49218081   -5.0259702    1907.2797   0.03336972  0.031698695           34 
 4764000   0.49621744   -5.0406655    1903.7362  0.033300731  0.031690378           17 
 4765000   0.48070154   -5.0315154    1902.3305  0.033269159  0.031682066           27 
 4766000   0.48505335   -5.0637563    1904.3405  0.033297324  0.031673749           21 
 4767000   0.49233377   -5.0396873    1906.1621  0.033322182  0.031665433           26 
 4768000   0.49057561   -5.0404502    1906.4844  0.033320827  0.031657145           24 
 4769000   0.49424819    -5.041159    1907.1181  0.033324913  0.031648846           25 
 4770000   0.49439619   -5.0365558    1899.2454  0.033180388  0.031640516           26 
 4771000   0.48536744   -5.0402822    1902.5809  0.033231694   0.03163221           19 
 4772000   0.48088755   -5.0356188     1903.555   0.03324174  0.031623897           19 
 4773000   0.49071317   -5.0381421    1902.5266  0.033216821  0.031615588           16 
 4774000   0.48669156   -5.0285397    1900.2508  0.033170137  0.031607286           20 
 4775000   0.48779608    -5.045729    1902.4612  0.033201765  0.031598978           26 
 4776000   0.47895697   -5.0479338     1902.471  0.033194985  0.031590675           27 
 4777000   0.49300855   -5.0421716    1900.4961  0.033153586  0.031582358           19 
 4778000   0.48545433   -5.0554387    1900.7643  0.033151324  0.031574059           16 
 4779000   0.48700883   -5.0591229    1900.1446  0.033133582  0.031565775           13 
 4780000   0.47490323    -5.052801    1900.8523  0.033138986  0.031557498           50 
 4781000   0.47678407   -5.0340584    1903.2291  0.033173483  0.031549206           21 
 4782000   0.49449817   -5.0476215    1902.7182  0.033157643   0.03154091           51 
 4783000   0.48040895   -5.0640247    1903.5952  0.033165991  0.031532621           33 
 4784000   0.48071097   -5.0448597    1900.0859  0.033097929  0.031524319           25 
 4785000   0.49095039   -5.0553907    1901.1481   0.03310951  0.031516009           37 
 4786000   0.47960311   -5.0613907    1906.2104  0.033190738   0.03150771           42 
 4787000    0.4899408    -5.050411    1902.1342  0.033112843  0.031499416           55 
 4788000   0.49062324   -5.0326837    1902.8752  0.033118825  0.031491144           36 
 4789000   0.49868293   -5.0594331     1900.827  0.033076269  0.031482856           73 
 4790000   0.48570247   -5.0545286    1903.2782  0.033112007  0.031474584           72 
 4791000   0.49030753   -5.0574666      1900.12  0.033050164  0.031466318           73 
 4792000   0.48678095   -5.0586227    1902.5419  0.033085384  0.031458035           34 
 4793000   0.48567394   -5.0512801    1901.2045  0.033055228  0.031449768           10 
 4794000   0.47831461   -5.0587965    1898.3107   0.03299803  0.031441503           26 
 4795000   0.48901757   -5.0569457    1898.9362   0.03300202   0.03143324           66 
 4796000   0.49548887   -5.0423322     1903.813  0.033079876  0.031424978           62 
 4797000   0.49433237   -5.0560227    1900.6856   0.03301865  0.031416731           53 
 4798000   0.48381577   -5.0442854    1902.5855  0.033044768  0.031408509           14 
 4799000   0.47560496   -5.0481176    1902.3095  0.033033089   0.03140027           19 
 4800000   0.48765045   -5.0609885    1901.6127  0.033014109  0.031392013           17 
 4801000   0.47664607   -5.0615095    1904.1767  0.033051737  0.031383776           11 
 4802000   0.49100027   -5.0509481    1901.6467  0.033000948  0.031375543           26 
 4803000   0.47915162   -5.0746389     1901.681  0.032994673  0.031367304           29 
 4804000   0.48198884   -5.0501149    1899.4404  0.032948939  0.031359062           13 
 4805000    0.4715806   -5.0451525    1905.0747  0.033039798  0.031350813           16 
 4806000   0.49059761   -5.0431703    1894.9158  0.032856772  0.031342544           18 
 4807000   0.47957414    -5.070317    1902.5909  0.032982992  0.031334296           16 
 4808000   0.47954253   -5.0561786     1903.799  0.032997072  0.031326056           20 
 4809000   0.48423328   -5.0478292    1904.0134  0.032993925  0.031317849           16 
 4810000   0.50046235   -5.0610644    1908.0325  0.033056697  0.031309656           22 
 4811000   0.47469246   -5.0425049    1904.2268  0.032983904  0.031301472           25 
 4812000   0.48118454   -5.0612512    1903.8517  0.032970554  0.031293274           16 
 4813000   0.49462752   -5.0544164    1901.5537  0.032923917  0.031285076           40 
 4814000   0.47922451   -5.0464043    1900.6186  0.032900889   0.03127688           20 
 4815000   0.47087816    -5.048593    1906.8196  0.033001377  0.031268699           15 
 4816000   0.49178292   -5.0513736    1902.7948  0.032924883  0.031260515           17 
 4817000   0.46539472   -5.0520187    1902.4397  0.032911904  0.031252323           14 
 4818000   0.47240109   -5.0540978    1904.6284   0.03294293  0.031244131           18 
 4819000   0.47898233   -5.0843757    1901.2486  0.032877647  0.031235937           20 
 4820000   0.47717002   -5.0590744    1901.8021  0.032880396  0.031227743           23 
 4821000   0.48459818   -5.0633505    1898.6684  0.032819409  0.031219555           43 
 4822000   0.48219806   -5.0802382    1902.4323  0.032877649  0.031211363           14 
 4823000   0.47524735   -5.0527561    1904.0019  0.032897953  0.031203179           26 
 4824000   0.47386029   -5.0693597    1898.0166  0.032787738  0.031194981           40 
 4825000   0.48114108   -5.0628192    1906.9322  0.032934926  0.031186802           40 
 4826000   0.48413577    -5.050285    1906.2337  0.032916039  0.031178653           34 
 4827000   0.47523318   -5.0604621     1897.648  0.032760997  0.031170508           22 
 4828000   0.47841844   -5.0690139     1903.776  0.032859983  0.031162337           16 
 4829000   0.48153072   -5.0788353    1898.0789  0.032754865  0.031154169           11 
 4830000   0.49107613   -5.0880911     1903.153  0.032835628   0.03114601           38 
 4831000   0.47877389   -5.0712687    1900.9293  0.032790473  0.031137831           30 
 4832000   0.48132888   -5.0763588    1901.6695  0.032796452  0.031129659           42 
 4833000    0.4844298   -5.0670815    1899.7413   0.03275642   0.03112147           44 
 4834000   0.48035629   -5.0721046    1902.2908  0.032793593   0.03111328           24 
 4835000   0.48250816   -5.0905561    1902.2171  0.032785541  0.031105091           35 
 4836000   0.48421372   -5.0855894    1901.5322  0.032766959  0.031096909           39 
 4837000    0.4728545   -5.0727881    1899.9634  0.032733158  0.031088725           37 
 4838000   0.47515029   -5.0701111    1903.8121  0.032792685  0.031080551           60 
 4839000   0.48612153   -5.0626644    1905.3441   0.03281229  0.031072391           20 
 4840000   0.48336147   -5.0861739    1903.4109  0.032772226  0.031064234           53 
 4841000   0.47082939    -5.089082    1897.8583  0.032669873  0.031056073           30 
 4842000   0.47191129   -5.0564039     1900.119  0.032702034  0.031047917          120 
 4843000   0.46844937    -5.092714    1900.8933  0.032708606  0.031039742          114 
 4844000   0.47494263   -5.0907237     1902.054  0.032721821  0.031031558          153 
 4845000   0.48174042    -5.076062    1900.7839  0.032693222  0.031023381          165 
 4846000   0.47851095   -5.0754232    1903.3921  0.032731326  0.031015222          107 
 4847000   0.48296287   -5.0771442    1900.3143  0.032671658   0.03100708           87 
 4848000    0.4735264   -5.0793895    1897.3431  0.032613845  0.030998923           95 
 4849000   0.48719961   -5.0942133    1899.7377  0.032648273   0.03099078           88 
 4850000   0.48282727   -5.0950701    1901.3232  0.032668784  0.030982619           71 
 4851000   0.47824619   -5.0800095     1900.207  0.032642875  0.030974459           66 
 4852000   0.46719347    -5.094768    1901.5001  0.032658355  0.030966311           43 
 4853000   0.47207976   -5.0778386    1899.7736   0.03262198  0.030958139           38 
 4854000   0.46444932   -5.0803073    1901.0027  0.032636359  0.030950009           92 
 4855000   0.48125851   -5.0874218    1901.8859  0.032644798  0.030941875           52 
 4856000   0.47940971   -5.0773788    1901.1842  0.032626033  0.030933753           55 
 4857000   0.48238561   -5.0711623    1901.5963  0.032626387  0.030925649           75 
 4858000   0.47762812   -5.0933549    1901.7518  0.032622338  0.030917515           22 
 4859000   0.48250955   -5.0914293    1901.8011   0.03261647  0.030909379           12 
 4860000   0.46785312   -5.0781346    1897.8697  0.032542347  0.030901238           38 
 4861000   0.47262295   -5.0870213    1900.6302  0.032582977  0.030893099           36 
 4862000   0.48169985   -5.0936906    1903.3043  0.032622108  0.030884957           43 
 4863000   0.48005884   -5.0851487    1899.3141  0.032547023    0.0308768           43 
 4864000   0.47987036    -5.066128    1900.2084  0.032555653  0.030868664           37 
 4865000   0.47441167   -5.0860235    1899.2486  0.032532521  0.030860549           37 
 4866000   0.47081991    -5.085526     1901.788  0.032569325  0.030852424           47 
 4867000   0.47335139   -5.0763265    1903.7042  0.032595443  0.030844305           48 
 4868000   0.47219826   -5.0774103    1900.4363  0.032532804  0.030836183           51 
 4869000   0.47775781   -5.0892391    1903.6707  0.032581479  0.030828065           99 
 4870000    0.4753304   -5.0866563    1901.5214  0.032538012  0.030819952           45 
 4871000   0.46770058   -5.0825179    1902.9194  0.032555249  0.030811846           35 
 4872000   0.48021635   -5.0796789    1899.9228  0.032497311  0.030803731           41 
 4873000   0.48122894   -5.0810599    1904.9833  0.032577182  0.030795639           23 
 4874000   0.47303822   -5.0782043    1898.7196  0.032463404  0.030787536           65 
 4875000   0.47526517    -5.081751    1895.8936  0.032408437  0.030779399           35 
 4876000   0.46941565   -5.0909183    1903.4243  0.032530495  0.030771275           67 
 4877000   0.47231721   -5.0798216    1900.0182  0.032465625  0.030763175           36 
 4878000   0.47306491   -5.0892076    1899.7378  0.032454179  0.030755069           38 
 4879000   0.47478121   -5.0711586    1898.0205  0.032418195  0.030746937           39 
 4880000   0.46621116   -5.0982764     1900.572  0.032455123  0.030738813           64 
 4881000   0.46892705   -5.0950718    1897.1974  0.032390859  0.030730693           45 
 4882000   0.46901204   -5.1007555    1899.1791   0.03241805  0.030722572           52 
 4883000   0.47397232   -5.0754811    1902.3283  0.032465156  0.030714462           56 
 4884000   0.48054495   -5.0892056    1899.2427  0.032405861  0.030706327           79 
 4885000   0.47509202   -5.0912836    1898.9402  0.032394066   0.03069821           44 
 4886000   0.47247874   -5.0750212       1899.2  0.032391868  0.030690095           67 
 4887000   0.47472152    -5.070033    1897.7432  0.032360399  0.030681986           37 
 4888000   0.46602498   -5.1011708    1899.1028  0.032376958  0.030673868           24 
 4889000   0.47454903   -5.0890499    1903.1065  0.032438579  0.030665772           29 
 4890000   0.47106817   -5.0949348    1904.1499  0.032449725  0.030657663           29 
 4891000   0.47427945   -5.0890353    1898.1009  0.032340027   0.03064955           25 
 4892000   0.47174866   -5.1079098     1902.384  0.032406378  0.030641437           25 
 4893000   0.46840517   -5.1079675     1898.409  0.032332056  0.030633335           26 
 4894000   0.46216881   -5.0855754    1904.2681  0.032425217  0.030625232           19 
 4895000   0.47278762    -5.091209     1902.759  0.032392901  0.030617147           36 
 4896000   0.47549532   -5.0992897    1899.5606  0.032331846  0.030609071           32 
 4897000   0.47742886   -5.1090746    1900.2075  0.032336251  0.030600966           18 
 4898000   0.46949014   -5.1052207    1897.9961  0.032292026  0.030592851           13 
 4899000   0.46375374   -5.0868312    1899.2816    0.0323073  0.030584751           11 
 4900000   0.46520355   -5.0976323    1902.3918  0.032353602  0.030576669           25 
 4901000   0.46168012   -5.0895897    1900.9183  0.032321947  0.030568597           20 
 4902000   0.47786129   -5.0991024    1901.1118  0.032318642  0.030560531           19 
 4903000   0.46090736   -5.0886867    1902.3238   0.03233265  0.030552481           20 
 4904000   0.46017052   -5.0842378    1902.4627  0.032328417  0.030544423           26 
 4905000   0.46002156   -5.0897348    1903.2763  0.032335648  0.030536373           17 
 4906000   0.45962511   -5.0919592    1898.4549  0.032247162  0.030528328           23 
 4907000   0.46532015   -5.0870084     1903.782  0.032331057  0.030520286           23 
 4908000    0.4753049   -5.1034077    1898.2585  0.032230687  0.030512224           39 
 4909000   0.47373618   -5.0780774    1904.4288  0.032328865   0.03050419           24 
 4910000   0.46699323   -5.0840453    1902.0729  0.032282297  0.030496164           29 
 4911000   0.47506335     -5.08285    1904.7416  0.032321007  0.030488145           43 
 4912000   0.46917217   -5.0771508    1902.0522  0.032268801   0.03048014           14 
 4913000   0.47086935   -5.0879054     1901.158  0.032247065  0.030472132           17 
 4914000   0.47656917   -5.1014526    1898.7137  0.032199052  0.030464126           30 
 4915000   0.46517981   -5.0831811    1899.2464  0.032201533  0.030456108           45 
 4916000   0.47112623   -5.0755014    1902.4705  0.032249635  0.030448113           13 
 4917000   0.46616073   -5.0737754    1899.6111  0.032194616  0.030440113           21 
 4918000   0.46490797   -5.1023789    1900.9718  0.032211126  0.030432102           36 
 4919000   0.46480078   -5.0875885    1900.6481  0.032199094  0.030424108           22 
 4920000   0.46339108   -5.0796646    1903.6502  0.032243397  0.030416132           28 
 4921000   0.46024631   -5.0854716    1903.3462  0.032231698  0.030408142           33 
 4922000   0.46033199   -5.0817785    1898.4486  0.032142228  0.030400141           47 
 4923000   0.46046244   -5.0945239    1899.2971  0.032150063  0.030392133           54 
 4924000   0.47298043   -5.1039074     1898.146  0.032124052  0.030384107           69 
 4925000   0.46129505   -5.0934368    1899.5227  0.032140824   0.03037609           52 
 4926000   0.45745809   -5.1158137    1901.8519  0.032173702  0.030368065           31 
 4927000   0.46449037   -5.1069651    1899.9724  0.032135383  0.030360052           75 
 4928000   0.45528246   -5.0999889    1901.8742  0.032161021  0.030352067           32 
 4929000   0.46317721   -5.0941505    1899.2935  0.032110867  0.030344076          104 
 4930000   0.47027982   -5.0898775    1901.5944  0.032143246  0.030336094           75 
 4931000   0.45427417   -5.1012217    1899.2925  0.032097825  0.030328106          105 
 4932000   0.45733959    -5.099591    1898.8096  0.032083158  0.030320123          118 
 4933000    0.4711379   -5.0929132    1896.3898  0.032035775  0.030312155          117 
 4934000   0.46256187   -5.0962309    1902.7732  0.032137096  0.030304183           74 
 4935000   0.46006872   -5.0933823    1901.5842  0.032110506  0.030296189           30 
 4936000   0.45781552   -5.0950443    1897.9544  0.032042721   0.03028819           41 
 4937000   0.45938071   -5.1058128    1901.0025   0.03208768  0.030280195           70 
 4938000   0.45983166   -5.1229732    1901.8321  0.032095182  0.030272198           66 
 4939000   0.46598658   -5.1249974    1898.1657  0.032026822  0.030264198           34 
 4940000   0.46082706   -5.1177569    1900.3739  0.032057589  0.030256202           59 
 4941000   0.46356871   -5.1088901    1898.3401  0.032016799  0.030248214           52 
 4942000   0.46752037   -5.1128021    1895.8403  0.031968169  0.030240231           46 
 4943000   0.45448238   -5.1086289    1899.3591  0.032021025  0.030232226           68 
 4944000   0.47014706   -5.0850611    1898.4423  0.031999095  0.030224241           69 
 4945000   0.46701677   -5.1020289    1899.5089  0.032010598   0.03021624          164 
 4946000   0.46528138   -5.1165256    1901.8857  0.032044172  0.030208235          126 
 4947000   0.45526835   -5.1095764     1898.067  0.031973368  0.030200223          198 
 4948000   0.45015893   -5.1068986    1899.5669  0.031992167  0.030192213          175 
 4949000   0.46445314   -5.1086868    1899.5359  0.031985181  0.030184192          165 
 4950000   0.46048146   -5.0899342    1895.5962  0.031912393  0.030176194          182 
 4951000   0.46231261   -5.1147234    1900.9223  0.031995596  0.030168205          151 
 4952000   0.46344685   -5.1133302      1899.22  0.031960488  0.030160218          150 
 4953000   0.46046523   -5.0978369    1898.7013  0.031945307  0.030152248          106 
 4954000   0.46822768   -5.0988693    1898.8756  0.031941792  0.030144262          153 
 4955000   0.46976446   -5.1172935    1898.5694  0.031930195  0.030136277           96 
 4956000   0.46377187   -5.0886178    1895.7063  0.031875611  0.030128291           98 
 4957000   0.46374705    -5.118632    1899.3338  0.031930163  0.030120302          196 
 4958000   0.45573968   -5.1048514     1895.085  0.031852309  0.030112317          122 
 4959000   0.45391332   -5.0991191    1897.0423  0.031878778  0.030104326          125 
 4960000   0.45091712   -5.1098839     1900.907  0.031937282  0.030096333          272 
 4961000   0.45895481   -5.1092173    1899.9021  0.031913965  0.030088354          126 
 4962000   0.45658802   -5.1097047    1898.6771  0.031886958  0.030080372          114 
 4963000   0.46397766    -5.112496    1899.2735  0.031890549  0.030072396          107 
 4964000   0.46054602   -5.1081409    1897.5303  0.031854861  0.030064426          119 
 4965000   0.45772384    -5.130166    1900.0278  0.031890363  0.030056464          230 
 4966000   0.46789081   -5.1107101    1897.6498  0.031844035  0.030048507          136 
 4967000   0.45035672   -5.1178718    1897.7652  0.031839561  0.030040559          158 
 4968000   0.45937354   -5.1183558    1898.3853  0.031843554  0.030032597          136 
 4969000   0.45031036   -5.1052849    1892.7706  0.031742984  0.030024646          249 
 4970000   0.46525248     -5.11753     1901.233  0.031878487  0.030016687          147 
 4971000   0.45930905   -5.1090404    1900.3517  0.031857301  0.030008739           88 
 4972000   0.45531453   -5.1151455    1901.5708  0.031871326   0.03000079          148 
 4973000   0.46197177   -5.1163459    1897.1553  0.031790925  0.029992841           86 
 4974000   0.45254164   -5.1195207    1897.3949  0.031788549  0.029984916          134 
 4975000   0.45657357   -5.1192524     1902.016  0.031859565  0.029976975          128 
 4976000   0.45103301   -5.1013547     1898.922  0.031801347  0.029969047          144 
 4977000     0.452047    -5.109966    1894.4288  0.031719725  0.029961117           97 
 4978000   0.45211705   -5.1099707    1896.7895  0.031752872  0.029953166          153 
 4979000    0.4580976   -5.1134053    1899.6687  0.031794683  0.029945208          111 
 4980000   0.45796449   -5.1198541     1898.422  0.031767436  0.029937272          169 
 4981000   0.44518403   -5.1184924    1895.2257  0.031707584   0.02992933          103 
 4982000   0.46701566    -5.123573    1898.4249  0.031754732  0.029921393           84 
 4983000   0.46150706   -5.1011726    1897.0461  0.031725301  0.029913473          148 
 4984000   0.45339279   -5.1194263    1896.7904   0.03171466  0.029905535          164 
 4985000   0.45274683   -5.0948259    1897.9018  0.031726878  0.029897615          179 
 4986000   0.46045766   -5.1123101    1894.7921   0.03166854  0.029889703          162 
 4987000   0.45672073   -5.0928216    1898.5838   0.03172555  0.029881781          151 
 4988000   0.45405144   -5.1047501    1894.7481  0.031655108  0.029873853          273 
 4989000   0.45398585    -5.119176    1897.2492  0.031690539  0.029865922          246 
 4990000   0.45401619   -5.1227827     1894.644  0.031640681   0.02985798          206 
 4991000    0.4529462   -5.1243272    1895.6852  0.031651726  0.029850028          179 
 4992000   0.45107175   -5.1164001    1891.7588  0.031579841  0.029842082          248 
 4993000   0.44727289    -5.131961    1895.9316   0.03164316  0.029834136          246 
 4994000   0.45082393   -5.1324531    1893.4723  0.031595786  0.029826198          238 
 4995000   0.46717603   -5.1241427    1896.7742  0.031644547  0.029818247          305 
 4996000   0.45932895   -5.1295593    1897.3666  0.031648095  0.029810303          140 
 4997000   0.45305063   -5.1203243    1897.3938  0.031642216   0.02980236          231 
 4998000    0.4477687   -5.1352345    1895.4843  0.031604046  0.029794434          302 
 4999000   0.45115353   -5.1309773    1898.3405  0.031645337  0.029786499          208 
 5000000    0.4519457   -5.1357573     1892.493   0.03154155  0.029778534          169 
 5001000   0.44771357   -5.1461178    1892.2325  0.031530901  0.029770579          293 
 5002000   0.45286628   -5.1318607    1893.8387  0.031551358   0.02976263          296 
 5003000   0.44901841   -5.1345159    1889.1773  0.031467409   0.02975466          326 
 5004000   0.45499322   -5.1372312    1893.1103  0.031526617  0.029746695          324 
 5005000   0.45239619   -5.1278884    1893.9577  0.031534428  0.029738734          415 
 5006000    0.4499009   -5.1294349    1891.4159  0.031485815  0.029730784          331 
 5007000   0.45199096   -5.1424575    1892.1041  0.031490981  0.029722842          449 
 5008000   0.44950327   -5.1238189    1896.3184   0.03155482  0.029714892          479 
 5009000   0.44976233   -5.1246745    1893.5319  0.031502162  0.029706961          290 
 5010000   0.43541938   -5.1381214    1892.1191  0.031472374  0.029699023          399 
 5011000   0.44243015   -5.1226802    1891.4281  0.031454601  0.029691093          444 
 5012000   0.45172901   -5.1499851    1896.2406  0.031528342  0.029683179          289 
Loop time of 12554.1 on 48 procs for 5000000 steps with 4000 atoms

Performance: 68821.938 tau/day, 398.275 timesteps/s
99.4% CPU use with 48 MPI tasks x no OpenMP threads

MPI task timing breakdown:
Section |  min time  |  avg time  |  max time  |%varavg| %total
---------------------------------------------------------------
Pair    | 848.43     | 919.67     | 995.88     | 108.4 |  7.33
Neigh   | 83.425     | 87.463     | 92.028     |  22.3 |  0.70
Comm    | 801.31     | 878.18     | 959.53     | 120.3 |  7.00
Output  | 40.065     | 40.069     | 40.162     |   0.2 |  0.32
Modify  | 10486      | 10510      | 10532      |  10.5 | 83.72
Other   |            | 118.3      |            |       |  0.94

Nlocal:        83.3333 ave          90 max          77 min
Histogram: 3 2 2 10 6 7 11 4 1 2
Nghost:        2286.88 ave        2307 max        2263 min
Histogram: 1 2 4 4 5 14 6 7 2 3
Neighs:        15471.5 ave       17184 max       13238 min
Histogram: 2 1 2 3 9 11 6 9 4 1
FullNghs:      30943.4 ave       33897 max       28078 min
Histogram: 3 2 2 10 4 9 12 3 2 1

Total # of neighbors = 1485283
Ave neighs/atom = 371.32075
Neighbor list builds = 269880
Dangerous builds = 1

#clear
#
#next RN
#
#jump SELF
Total wall time: 3:29:17
