
units lj                  # Use reduced LJ style units
atom_style atomic         # Uncharged point particles
atom_modify map hash      # Needed for indexing of clusters etc
                          # Used to be able to find where atoms are in relation to each other.

lattice fcc 1.0 spacing 1 1 1
Lattice spacing in x,y,z = 1.5874011 1.5874011 1.5874011
region box block 0 10 0 10 0 10 units lattice
create_box 2 box
Created orthogonal box = (0.0000000 0.0000000 0.0000000) to (15.874011 15.874011 15.874011)
  3 by 4 by 4 MPI processor grid
create_atoms 1 box
Created 4000 atoms
  using lattice units in orthogonal box = (0.0000000 0.0000000 0.0000000) to (15.874011 15.874011 15.874011)
  create_atoms CPU = 0.002 seconds
set type 1 type/fraction 2 0.2 78393
Setting atom values ...
  836 settings made for type/fraction
mass 1 1.0
mass 2 1.0
pair_style lj/cut  3.5
pair_modify tail  yes
pair_coeff 1  1  1.0  1.0   # Intearaction between 1 and 1 set with epsilon = 1 and sigma = 1
pair_coeff 1  2  1.5  0.8
pair_coeff 2  2  0.5  0.88

write_data data.0
System init for write_data ...
Neighbor list info ...
  update every 1 steps, delay 10 steps, check yes
  max neighbors/atom: 2000, page size: 100000
  master list distance cutoff = 3.8
  ghost atom cutoff = 3.8
  binsize = 1.9, bins = 9 9 9
  1 neighbor lists, perpetual/occasional/extra = 1 0 0
  (1) pair lj/cut, perpetual
      attributes: half, newton on
      pair build: half/bin/atomonly/newton
      stencil: half/bin/3d
      bin: standard
WARNING: Not all mixed pair coeffs generated from mixing. Use write_data with 'pair ij' option to store all pair coeffs. (../write_data.cpp:312)


#############################
#   M E L T   S Y S T E M   #
#############################

velocity all create 2.4 3143649 mom yes dist gaussian # Assign velocities
                                                    # Temperature 2.4, random number seed, zero linear momentum
                                                                                # Gaussian distribution

timestep 0.002   # simulation timestep
thermo 1000       # output thermodynamic data every 1000 steps bf 100

# Define a fix  in this case with index 1 applied to all
# particles in the simulation. This fix is for simulations
# in the anisotropic NPT ensemble. Note that we use the MTK
# correction.
fix 1 all npt temp 2.4 2.4 0.1 iso 5.68 5.68 0.5 mtk yes tchain 5 pchain 5 # Use NPT ensemble
                                                                         # Set temperature and pressure and damping
                                                                         # Numbers of thermostats in chain and in barostat
run 10000          # run for 10000 steps
Per MPI rank memory allocation (min/avg/max) = 3.642 | 3.644 | 3.648 Mbytes
Step Temp E_pair E_mol TotEng Press Volume 
       0          2.4   -7.0365901            0   -3.4374901   -3.6176696         4000 
    1000    2.3629084   -4.8802398            0   -1.3367633    5.7911383    4426.2179 
    2000    2.3845196   -4.9167733            0   -1.3408881    5.6172302    4432.5625 
    3000    2.4380388   -4.8285145            0   -1.1723706    5.5975595     4491.923 
    4000    2.4208434   -4.9148849            0   -1.2845276    5.5078781    4451.1872 
    5000    2.3654016   -4.7854755            0   -1.2382601      5.74103    4487.2086 
    6000    2.4525731   -4.8604832            0   -1.1825433    5.6648266    4462.1569 
    7000    2.4665234   -4.7595545            0   -1.0606944    5.7481153    4506.1164 
    8000    2.3804028   -4.8470857            0   -1.2773742    5.6762681    4457.8938 
    9000    2.3671547   -4.8054671            0   -1.2556228    5.6772093    4489.0045 
   10000    2.3940797   -4.8002145            0   -1.2099928    5.7187075    4480.6818 
Loop time of 2.31873 on 48 procs for 10000 steps with 4000 atoms

Performance: 745234.522 tau/day, 4312.700 timesteps/s
99.6% CPU use with 48 MPI tasks x no OpenMP threads

MPI task timing breakdown:
Section |  min time  |  avg time  |  max time  |%varavg| %total
---------------------------------------------------------------
Pair    | 0.97868    | 1.0426     | 1.153      |   3.6 | 44.97
Neigh   | 0.19491    | 0.20637    | 0.22512    |   1.3 |  8.90
Comm    | 0.6856     | 0.79732    | 0.88921    |   5.2 | 34.39
Output  | 0.0002549  | 0.00025876 | 0.00032577 |   0.0 |  0.01
Modify  | 0.22417    | 0.25689    | 0.32228    |   5.0 | 11.08
Other   |            | 0.01527    |            |       |  0.66

Nlocal:        83.3333 ave          92 max          75 min
Histogram: 2 7 3 3 9 8 4 8 1 3
Nghost:        1526.50 ave        1557 max        1500 min
Histogram: 4 3 5 7 8 7 4 5 4 1
Neighs:        8512.31 ave        9547 max        7411 min
Histogram: 4 3 3 7 5 8 3 8 3 4

Total # of neighbors = 408591
Ave neighs/atom = 102.14775
Neighbor list builds = 908
Dangerous builds = 220

# Equilibrate just above the melting temperature to avoid step fn in T

fix 1 all npt temp 1.25 1.25 0.1 iso 5.68 5.68 0.5 mtk yes tchain 5 pchain 5
run 2000
Per MPI rank memory allocation (min/avg/max) = 3.643 | 3.645 | 3.649 Mbytes
Step Temp E_pair E_mol TotEng Press Volume 
   10000    2.3940797   -4.8002145            0   -1.2099928    5.7187075    4480.6818 
   11000    1.2414599   -6.5636857            0   -4.7019614     5.649911    3643.8825 
   12000    1.2313527    -6.568699            0   -4.7221317    5.5924721    3642.8308 
Loop time of 0.513315 on 48 procs for 2000 steps with 4000 atoms

Performance: 673270.182 tau/day, 3896.239 timesteps/s
99.6% CPU use with 48 MPI tasks x no OpenMP threads

MPI task timing breakdown:
Section |  min time  |  avg time  |  max time  |%varavg| %total
---------------------------------------------------------------
Pair    | 0.22746    | 0.24893    | 0.28036    |   2.2 | 48.49
Neigh   | 0.032578   | 0.035444   | 0.039476   |   0.7 |  6.90
Comm    | 0.14138    | 0.17227    | 0.19906    |   3.3 | 33.56
Output  | 5.9152e-05 | 6.0408e-05 | 7.4922e-05 |   0.0 |  0.01
Modify  | 0.040102   | 0.052003   | 0.064257   |   2.9 | 10.13
Other   |            | 0.004611   |            |       |  0.90

Nlocal:        83.3333 ave          91 max          77 min
Histogram: 2 3 9 9 2 12 2 5 2 2
Nghost:        1750.44 ave        1779 max        1725 min
Histogram: 6 3 4 7 4 6 8 4 4 2
Neighs:        10484.6 ave       11792 max        9516 min
Histogram: 3 8 5 8 7 4 7 3 1 2

Total # of neighbors = 503262
Ave neighs/atom = 125.81550
Neighbor list builds = 144
Dangerous builds = 10

#############################
# L I N E A R  Q U E N C H  #
#############################

# Define solid atoms. This closely follows ten Wolde  Ruiz-Montero and Frenkel  Faraday Discuss  1996  104  93-110
# Compute components of the per-atom q6 vector
compute q6 all orientorder/atom degrees 1 6 components 6 nnn NULL cutoff 1.3 # compute the Q6 parameter.
                                                                             # Use all neighbours within 1.3 unit cell.

# get number of connections
compute coord_number all coord/atom orientorder q6 0.5

# An atom is solid if it has 8 or more connections (of a possible 14)
variable is_solid atom c_coord_number>=8
group solid dynamic all var is_solid    # Must be dynamic to update
dynamic group solid defined

# do clustering
compute cluster solid cluster/atom 1.3 # Create a cluster where all atoms within are solid and max 1.3 units from another member

# define chunks one chunk per cluster
compute clus_chunks solid chunk/atom c_cluster nchunk every compress yes  # Says which atoms are in which chunk

# count the size of each chunk
compute size_chunks solid property/chunk clus_chunks count


# Find the maximum entry in the vector of chunk sizes
variable max_n equal max(c_size_chunks)


# Thermo style which includes this variable
# thermo_style custom step temp pe vol v_max_n

thermo ${N}  # Print the thermo information every 100 steps
thermo 1000  

# Reset the npt fix at a lower temperature (below freezing)
fix 1  all npt temp  ${temp} ${temp}  0.1  iso  5.68  5.68  0.5  mtk yes tchain  5  pchain  5
fix 1  all npt temp  0.45 ${temp}  0.1  iso  5.68  5.68  0.5  mtk yes tchain  5  pchain  5
fix 1  all npt temp  0.45 0.45  0.1  iso  5.68  5.68  0.5  mtk yes tchain  5  pchain  5

dump dmp2 all dcd ${N} traj.dcd
dump dmp2 all dcd 1000 traj.dcd


compute msd all msd com yes
variable twopoint equal c_msd[4]/6/(step*dt+1.0e-6)
fix 9 all vector 10 c_msd[4]
variable fit equal slope(f_9)/6/(10*dt)
thermo_style custom step temp pe c_msd[4] v_twopoint v_fit v_max_n

fix 1 all npt temp 1.25 ${temp} 0.1 iso 5.68 5.68 0.5 mtk yes tchain 5 pchain 5
fix 1 all npt temp 1.25 0.45 0.1 iso 5.68 5.68 0.5 mtk yes tchain 5 pchain 5
run 500000 # 5000000  # Run for this many steps
Neighbor list info ...
  update every 1 steps, delay 10 steps, check yes
  max neighbors/atom: 2000, page size: 100000
  master list distance cutoff = 3.8
  ghost atom cutoff = 3.8
  binsize = 1.9, bins = 9 9 9
  4 neighbor lists, perpetual/occasional/extra = 1 3 0
  (1) pair lj/cut, perpetual
      attributes: half, newton on
      pair build: half/bin/atomonly/newton
      stencil: half/bin/3d
      bin: standard
  (2) compute orientorder/atom, occasional
      attributes: full, newton on
      pair build: full/bin/atomonly
      stencil: full/bin/3d
      bin: standard
  (3) compute coord/atom, occasional
      attributes: full, newton on
      pair build: full/bin/atomonly
      stencil: full/bin/3d
      bin: standard
  (4) compute cluster/atom, occasional
      attributes: full, newton on
      pair build: full/bin/atomonly
      stencil: full/bin/3d
      bin: standard
Per MPI rank memory allocation (min/avg/max) = 9.773 | 9.780 | 9.787 Mbytes
Step Temp PotEng c_msd[4] v_twopoint v_fit v_max_n 
   12000    1.2313527    -6.568699            0            0 8.3333333e+20            2 
   13000     1.271589   -6.5755794   0.53661936 0.0034398675  0.044019006            2 
   14000    1.2853397   -6.5566753     1.052038 0.0062621306  0.043554454            5 
   15000    1.2042623    -6.587979    1.5969899 0.0088721661  0.044132011            1 
   16000    1.2115381    -6.513644    2.1364552   0.01112737  0.044018635            2 
   17000    1.2557325   -6.5980174    2.6223055  0.012854439  0.043878221            2 
   18000    1.2377008   -6.5740054    3.1623272  0.014640403  0.043611754            1 
   19000      1.23727    -6.610557    3.6904852  0.016186338  0.043623769            1 
   20000    1.2299637   -6.5920816    4.2105608  0.017544003  0.043628047            1 
   21000    1.2332298   -6.5644042    4.6849615  0.018591117  0.043456934            2 
   22000    1.2764151   -6.5588979    5.1648961     0.019564  0.043148562            2 
   23000    1.2516227   -6.5718782    5.6262072  0.020384808  0.042805367            1 
   24000    1.2303597   -6.5875623    6.1703593  0.021424858  0.042550414            2 
   25000    1.2229805   -6.6298993    6.6562997  0.022187665  0.042451506            1 
   26000    1.2163425   -6.5803798    7.1351428  0.022869047  0.042268743            2 
   27000    1.2180441   -6.6053054    7.5731366  0.023373878  0.042087462            1 
   28000    1.2296506   -6.6010255    8.1765196  0.024334879  0.041982062            1 
   29000    1.2398823     -6.62133    8.6831985  0.024951719  0.041998542            2 
   30000    1.2447371   -6.6478446    9.2604642  0.025723511  0.042095184            1 
   31000    1.2271819   -6.6399146     9.770234   0.02626407  0.042223928            2 
   32000    1.2270359   -6.6250677    10.257647  0.026712621  0.042235847            1 
   33000    1.2161685   -6.6309767    10.792469   0.02725371  0.042290354            3 
   34000    1.2195844   -6.6052016    11.337617  0.027788278  0.042359161            2 
   35000    1.1963631    -6.622303    11.817385   0.02813663  0.042420472            1 
   36000    1.1969274   -6.6779514    12.323615  0.028526886  0.042468395            2 
   37000    1.2234802   -6.6221134    12.844182  0.028928338  0.042514288            2 
   38000    1.2239072   -6.6568018    13.238871   0.02903261  0.042497052            1 
   39000    1.2046956   -6.6598868    13.631776  0.029127726  0.042410151            1 
   40000    1.2376667   -6.6751918    14.064435  0.029300905  0.042313781            2 
   41000    1.1745283   -6.6775883    14.518323  0.029508787  0.042166894            1 
   42000    1.2128108   -6.6816822    14.928561  0.029620159    0.0420298            2 
   43000    1.1876245   -6.6516119     15.31865  0.029687306  0.041850014            1 
   44000     1.214232   -6.6996526    15.657208  0.029653803  0.041637109            3 
   45000    1.2177937    -6.655652    16.165905   0.02993686  0.041439938            2 
   46000    1.1969445   -6.6202316    16.728702  0.030305618  0.041286724            1 
   47000    1.2274939   -6.6237558    17.149481  0.030406881  0.041139281            3 
   48000    1.1938934   -6.7027998    17.633387  0.030613519   0.04100886            1 
   49000     1.197693    -6.694303    18.081375  0.030750637  0.040897376            4 
   50000    1.2014638   -6.6873503    18.662531  0.031104218  0.040807107            2 
   51000     1.182541   -6.7115257    19.072015  0.031163423  0.040720162            3 
   52000    1.1866126   -6.6591478    19.369832  0.031041397   0.04061472            4 
   53000    1.2057324   -6.6737267    19.896909  0.031284447  0.040505767            2 
   54000    1.1547114   -6.7150493    20.340514  0.031389682  0.040397747            2 
   55000    1.1961318   -6.6773442    20.809672  0.031529806  0.040293067            2 
   56000    1.1572646   -6.6908636    21.259623  0.031636344  0.040198562            2 
   57000    1.1913904   -6.6751772     21.67266  0.031685176  0.040121833            2 
   58000    1.1631997   -6.6894066    22.060015  0.031695423   0.04003231            2 
   59000     1.207293   -6.6958103    22.447221  0.031705114   0.03992374            3 
   60000    1.1763639   -6.7244561    22.912751  0.031823265   0.03981275            4 
   61000    1.1607116    -6.697282    23.219718  0.031720926  0.039708739            2 
   62000    1.1696078   -6.6971139    23.769372  0.031948081   0.03959534            5 
   63000    1.1620132   -6.7052754    24.155444  0.031951645  0.039491947            3 
   64000    1.1625142   -6.7341315    24.595995  0.032026035  0.039387911            3 
   65000    1.1515841   -6.7258745    24.991208   0.03204001    0.0392874            4 
   66000    1.1739852   -6.7368817     25.32343  0.031974027  0.039181273            6 
   67000    1.1247933   -6.7763846    25.563901  0.031795896  0.039057811            2 
   68000    1.1408339   -6.7202818    25.948936  0.031800166  0.038929158            4 
   69000    1.1739645   -6.7357491    26.271114  0.031728399  0.038794297            5 
   70000    1.1666217   -6.7651667    26.473887  0.031516532  0.038640751            2 
   71000    1.1718067   -6.7366995    26.967577  0.031652085  0.038490569            1 
   72000    1.1465736    -6.777238    27.305656  0.031603768  0.038349412            2 
   73000    1.1504643   -6.7567857    27.676234  0.031593874  0.038210805            2 
   74000    1.1593858   -6.7758443    28.022421  0.031556781  0.038072116            1 
   75000    1.1559457   -6.7102568    28.627907  0.031808785  0.037950274            3 
   76000     1.130754   -6.7904444    28.927471  0.031718718  0.037822085            4 
   77000    1.1196909   -6.7735165    29.211027  0.031613665  0.037699035            2 
   78000    1.1431461   -6.7533245    29.823236  0.031862432  0.037585152            1 
   79000    1.1328454   -6.7616819    29.986688  0.031631527  0.037465282            5 
   80000    1.1499454   -6.7507482    30.302106  0.031564693  0.037337823            2 
   81000    1.1267811   -6.7920114    30.689065  0.031573112  0.037208322            1 
   82000    1.1343625   -6.7736152    31.078903  0.031584251  0.037087671            2 
   83000    1.1182995    -6.829777    31.518891  0.031645472  0.036973125            2 
   84000    1.1377738   -6.7688218    31.771804  0.031519647  0.036858296            2 
   85000     1.147345   -6.7970507    32.030442  0.031402394  0.036739391            1 
   86000    1.1298919   -6.8428035    32.356665  0.031353357  0.036616553            3 
   87000     1.150892   -6.8192641     32.72792  0.031348582  0.036493206            2 
   88000    1.1241426   -6.7754239    33.245519  0.031482498  0.036376608            1 
   89000    1.1446753   -6.7967929      33.5879  0.031449344  0.036268961            2 
   90000    1.1185533   -6.8120392    34.016493  0.031496753  0.036171433            2 
   91000    1.1083285   -6.7913149     34.46778  0.031563901  0.036071993            2 
   92000    1.1285619   -6.8294159     34.87035  0.031585462  0.035973294            2 
   93000    1.1333769   -6.8052655    35.113053  0.031463309   0.03587305            1 
   94000    1.1234429   -6.8103804    35.415659   0.03139686  0.035773025            1 
   95000     1.120752   -6.8034119    35.633797  0.031257716  0.035675757            2 
   96000    1.0928961   -6.7915045    35.847867   0.03111794  0.035566661            2 
   97000    1.1043436   -6.8051716    36.199878  0.031099552  0.035458655            2 
   98000    1.1157203   -6.8368853    36.608936  0.031130048  0.035356072            2 
   99000    1.1043856   -6.7960586    36.915807  0.031073911  0.035251248            1 
  100000    1.1077667    -6.840114    37.372937  0.031144114  0.035152131            2 
  101000    1.1228607   -6.8256826    37.710737  0.031114469  0.035057932            1 
  102000    1.1261686   -6.8490176     38.16067  0.031177018  0.034968092            2 
  103000    1.1063626   -6.8547044     38.49302   0.03114322  0.034883876            2 
  104000    1.1174241   -6.8618654    38.802328  0.031091609  0.034797825            1 
  105000    1.0697287   -6.8698882    38.892249  0.030866864  0.034709575            2 
  106000    1.0808512   -6.8631912     39.31234  0.030905927  0.034615796            3 
  107000    1.1155798   -6.8540251    39.640014  0.030872285  0.034527566            2 
  108000    1.1113752   -6.8642641    39.907835  0.030793083  0.034436319            2 
  109000    1.1171772    -6.844448    40.261954   0.03078131   0.03434453            2 
  110000    1.0871459    -6.893082    40.553621   0.03072244  0.034249507            3 
  111000    1.0681694   -6.8721215    40.966562  0.030755677  0.034160025            4 
  112000    1.1030142   -6.8816329    41.066607  0.030555511  0.034071592            2 
  113000    1.1078944   -6.8674376    41.380142  0.030516329   0.03397838            3 
  114000    1.0789712    -6.896718    41.623445  0.030426495  0.033881189            2 
  115000    1.0804211   -6.8944034    41.934798  0.030387535  0.033781626            3 
  116000    1.0763814    -6.899111    42.279794  0.030373415  0.033688168            2 
  117000    1.1096706   -6.8819307    42.656184  0.030381897  0.033602739            2 
  118000    1.1014443   -6.9081888    43.247287  0.030541869  0.033517492            1 
  119000    1.0856816   -6.8764797     43.66762  0.030579565  0.033440759            2 
  120000    1.0640069   -6.8880133     43.95573  0.030524812  0.033370736            2 
  121000    1.0648436    -6.927526    44.285622   0.03049974   0.03329512            1 
  122000    1.1041064   -6.9073679    44.503966  0.030398884  0.033223299            2 
  123000    1.0851072   -6.9071724    44.763733  0.030327732  0.033149372            2 
  124000    1.0716884   -6.9191672    45.116201  0.030320028  0.033079518            2 
  125000     1.066195   -6.9387618    45.361083  0.030240722  0.033009895            2 
  126000    1.0927838   -6.9196346    45.840605   0.03031786  0.032938708            4 
  127000    1.0442939   -6.8749952    46.093554  0.030245114  0.032864785            3 
  128000    1.0661156   -6.9371412     46.27482  0.030126836  0.032790428            1 
  129000    1.0725638   -6.9243633    46.602226  0.030104797  0.032713005            4 
  130000     1.058213   -6.9472593    46.831893  0.030020444  0.032640294            2 
  131000    1.0729614   -6.9539929    46.993415   0.02989403   0.03256529            2 
  132000    1.0521603   -6.9314697    47.604834  0.030053557  0.032492559            4 
  133000    1.0892241   -6.9101013    47.941318   0.03003842  0.032423148            3 
  134000    1.0283516   -6.9535504     48.29485   0.03003411  0.032354049            2 
  135000    1.0435452   -6.9544646    48.542194  0.029964317  0.032283922            3 
  136000    1.0586923   -6.9500105    48.648163  0.029808923  0.032214479            3 
  137000    1.0269658   -6.9497112    48.928336  0.029761761  0.032141527            1 
  138000    1.0481517   -6.9866576    49.057381  0.029624022  0.032068938            3 
  139000    1.0672386   -6.9554608    49.470923  0.029658827  0.031998531            3 
  140000    1.0509741   -6.9882318    49.701036   0.02958395  0.031926131            1 
  141000    1.0558106   -6.9613113    50.068337  0.029591216  0.031855151            4 
  142000    1.0187262   -6.9350725    50.435584  0.029598347  0.031786584            2 
  143000    1.0446402   -6.9915255    50.503892  0.029431172  0.031716926            1 
  144000    1.0549414   -6.9727008    50.933614  0.029475471  0.031646515            3 
  145000    1.0532528   -7.0406636    51.276249  0.029469109   0.03157855            5 
  146000    1.0283324   -6.9897067    51.436698  0.029358846  0.031508959            3 
  147000    1.0241094   -7.0023669      51.7655  0.029345521  0.031441006            6 
  148000    1.0228077   -6.9916057    52.143965  0.029360341  0.031377563            4 
  149000    1.0308408   -7.0048281    52.514915  0.029370758  0.031313555            3 
  150000    1.0318602   -7.0022353    52.674077  0.029263376  0.031248714            4 
  151000    1.0013387   -7.0048135    52.927968  0.029209695  0.031185236            8 
  152000    1.0372758   -7.0058304    53.214883  0.029174826  0.031121708            3 
  153000    1.0276711   -6.9814604    53.632995  0.029211871   0.03105787            2 
  154000     1.047151   -7.0308939    53.888656  0.029160528  0.030994836            3 
  155000     1.047908   -7.0321366    53.900861  0.028978958  0.030928432            1 
  156000    1.0292784   -7.0284672    54.253111  0.028981363  0.030860456            3 
  157000    1.0151374   -7.0216472    54.527167  0.028942233  0.030795066            6 
  158000    1.0214805   -7.0323224    54.867281  0.028938439   0.03072975            5 
  159000    1.0016421   -7.0036671    55.174694  0.028917554  0.030664758            1 
  160000    1.0138929   -7.0651556    55.142461  0.028720032  0.030600849            2 
  161000    1.0036977   -7.0865411    55.613963  0.028785695  0.030535716            1 
  162000    1.0097856    -7.082149    55.880124   0.02874492  0.030470747            2 
  163000   0.99288383   -7.0568696    55.966676   0.02861282  0.030406328            3 
  164000   0.99529312   -7.0705994    56.265874  0.028590383  0.030342026            5 
  165000    1.0231174   -7.0449457    56.442984  0.028506558  0.030275817            3 
  166000    1.0010338   -7.0166454    56.547831  0.028387465  0.030208398            2 
  167000    1.0244817   -7.0703108    56.619652   0.02825332  0.030139028            3 
  168000   0.99569791   -7.0540254    56.828645  0.028188812   0.03006736            2 
  169000   0.99081593   -7.0832282    57.190626  0.028200506  0.029994917            4 
  170000    0.9995131   -7.0730839    57.540098   0.02820593  0.029924741            2 
  171000   0.99863104   -7.0455187     57.49647  0.028019722  0.029853142            2 
  172000   0.99909999   -7.0381068    57.805459  0.028006521  0.029779999            4 
  173000    1.0225988   -7.0771003    58.182013  0.028026018  0.029708357            6 
  174000   0.98249708   -7.0912261    58.356301   0.02794842  0.029638426            1 
  175000   0.97805419   -7.0855332    58.649348  0.027928261  0.029568829            2 
  176000   0.99658398   -7.0595116    59.013309  0.027941907   0.02950177            3 
  177000   0.99404484   -7.1184602    58.939388  0.027749241  0.029434317            2 
  178000   0.97210079    -7.080851     59.30438  0.027764223  0.029364392            6 
  179000   0.97315716   -7.0812115    59.523146  0.027710962  0.029296129            3 
  180000   0.96994588   -7.1109555     59.88183  0.027723069  0.029229269            1 
  181000   0.97297856   -7.1335065    59.890934  0.027574095   0.02916263            2 
  182000   0.97169215   -7.1159905    59.992916  0.027469284  0.029094602            2 
  183000   0.94904853   -7.1369945    60.250781  0.027436603   0.02902649            4 
  184000   0.95712744   -7.1282184    60.505785  0.027402982  0.028957305            3 
  185000   0.95777715   -7.1645878    60.444632  0.027227312  0.028884721            1 
  186000   0.96933916   -7.1119079    60.660956  0.027177848  0.028813265            5 
  187000   0.97107082   -7.1310089    60.759055  0.027076228  0.028740537            2 
  188000   0.97169934   -7.1342792    61.229188  0.027140597   0.02866763            3 
  189000   0.97310182   -7.0895743     61.52472  0.027127301  0.028597513            5 
  190000   0.95936003   -7.1725438     61.55461  0.026997636  0.028526876            2 
  191000   0.97921006   -7.1458408    61.779611  0.026954455  0.028455122            1 
  192000   0.96390985   -7.1294858    62.101766  0.026953891  0.028383719            4 
  193000   0.97725446   -7.1460222    62.196438  0.026855111  0.028312417            2 
  194000   0.95640194   -7.1508921    62.253224  0.026741076  0.028239461            2 
  195000   0.93282395   -7.1376342    62.354198  0.026647093   0.02816633            4 
  196000   0.96423729   -7.1668509    62.613554  0.026621409  0.028093504            5 
  197000   0.96279356   -7.2028036    62.601751  0.026481282  0.028019916            3 
  198000   0.93739599    -7.152029    62.842989  0.026449069  0.027944653            2 
  199000   0.94654758   -7.1750891    62.927306  0.026351468   0.02786952            5 
  200000   0.92464927   -7.1577432    63.053418  0.026272258  0.027793794            1 
  201000   0.95801137   -7.1511335    63.473099  0.026315547   0.02771931            4 
  202000   0.95026714     -7.17992    63.326026  0.026124598  0.027644787            3 
  203000   0.93063982   -7.1652139    63.499798  0.026067241  0.027569088            4 
  204000   0.94888852   -7.2082393     63.65019  0.026000895  0.027495031            3 
  205000   0.94945899   -7.2096357    64.064431  0.026042452  0.027422358            3 
  206000   0.95030688   -7.1886652    64.460867  0.026076402  0.027351684            3 
  207000   0.93710737   -7.2121545     64.50967  0.025970077   0.02728124            1 
  208000   0.93886848   -7.2127372    64.650399  0.025901602  0.027209991            5 
  209000   0.93198162   -7.2166366    64.969002  0.025904706  0.027140855            3 
  210000   0.93339238   -7.2197262    65.080373  0.025825545  0.027070143            3 
  211000   0.95094299    -7.235991    64.973662  0.025661004  0.026998411            3 
  212000   0.93993575   -7.2076842    65.301955  0.025669007  0.026925961            2 
  213000   0.91743584   -7.2133868    65.551091  0.025645967  0.026854409            3 
  214000     0.949455   -7.1952428    65.672212  0.025573291  0.026784563            1 
  215000   0.92757026   -7.2250424    65.884164  0.025536498  0.026715317            3 
  216000   0.93072228   -7.2604592    65.848104  0.025404361  0.026646224            1 
  217000   0.91703744   -7.2372216    65.974391  0.025335788  0.026576169            3 
  218000   0.92299316   -7.2345631    66.213036  0.025310794  0.026505582            3 
  219000   0.94747408   -7.2260051     66.54745  0.025322469  0.026435288            5 
  220000   0.91833438   -7.2299772    66.500009  0.025189397  0.026365606            3 
  221000   0.89563474   -7.2554994    66.663712  0.025137146  0.026295733            5 
  222000   0.90588525   -7.2348662    66.898112  0.025111904  0.026225916            3 
  223000   0.89502211   -7.2311659    67.121676  0.025082838  0.026155784            2 
  224000   0.91735126   -7.2277597    67.136052   0.02497621  0.026085323            9 
  225000   0.91583286   -7.2458095      67.2489     0.024907  0.026015205            4 
  226000   0.89563057   -7.2355464    67.451835  0.024871621  0.025945186            7 
  227000   0.89482046   -7.2849033    67.421301  0.024750845  0.025874804            2 
  228000   0.89875541   -7.2570718    67.639576  0.024722067  0.025803874            4 
  229000   0.90293307   -7.2962374     67.70348  0.024637365  0.025732268            3 
  230000   0.91759166    -7.275227    67.883494  0.024595469  0.025661369            2 
  231000   0.91075804   -7.2764625    67.833313  0.024470892  0.025590413            2 
  232000   0.92619431   -7.2677272    68.205679  0.024499166  0.025520036            2 
  233000   0.90414667   -7.2720578    68.132089    0.0243677  0.025449404            4 
  234000   0.89983118   -7.2974567    68.650667  0.024448243  0.025380176            3 
  235000   0.90169296   -7.2998029    68.681818  0.024355255   0.02531138            3 
  236000   0.90610276   -7.2724911    68.726029  0.024267666  0.025243201            1 
  237000   0.88937289    -7.291979    68.973931  0.024252437  0.025173998            2 
  238000    0.8882523   -7.2894233    68.989141  0.024155862   0.02510504            3 
  239000   0.89729421    -7.317839    69.158099  0.024113702  0.025036552            2 
  240000   0.87578341   -7.3339821    69.193451  0.024025504  0.024967156            5 
  241000   0.87576417   -7.3001704    69.422879  0.024005145  0.024898208            3 
  242000    0.8847995   -7.3273877    69.500819  0.023932789  0.024830175            3 
  243000   0.88700509   -7.3318967    69.687432  0.023898296   0.02476345            3 
  244000    0.8699511   -7.2907635    69.943099   0.02388767   0.02469677            4 
  245000   0.86172998    -7.320307     69.90639  0.023777684  0.024629397            3 
  246000   0.87245079    -7.349669    69.833065  0.023656187  0.024561853            4 
  247000   0.86082828   -7.3490113    69.959452  0.023603054  0.024493721            2 
  248000   0.87906218   -7.3469651    69.880369  0.023481307  0.024424763            2 
  249000   0.87736377   -7.3446614    70.217366  0.023499788  0.024357251            3 
  250000   0.85745549   -7.3701381    70.529239  0.023509746  0.024290247            3 
  251000   0.86102471   -7.3383167    71.051245  0.023589391  0.024225066            3 
  252000   0.85709661   -7.3444264    70.820692  0.023419541  0.024160293            3 
  253000   0.85610864   -7.3461596    71.081985  0.023413038  0.024095605            2 
  254000   0.84434697   -7.3729325    71.168083  0.023349109  0.024030451            3 
  255000   0.85263335   -7.3820848    71.107472  0.023237736  0.023965382            3 
  256000   0.86402639   -7.3711401    71.345449   0.02322443  0.023901284            3 
  257000   0.85094953   -7.3941955    71.459119   0.02317092  0.023836757            3 
  258000   0.86129736   -7.4052393    71.550382  0.023110588  0.023771946            4 
  259000   0.83149638    -7.403007    71.705422  0.023071242  0.023707342            4 
  260000   0.82802762   -7.3910315    71.820205  0.023019296   0.02364377            6 
  261000   0.85060421   -7.4005406    71.837923  0.022936757  0.023579998            6 
  262000   0.87015216   -7.4232702    71.971897  0.022891825  0.023516559            3 
  263000   0.83642165   -7.3953343    72.260193  0.022896132  0.023453493            3 
  264000   0.86485602    -7.396004    71.977293  0.022720105  0.023389596            2 
  265000   0.84940737   -7.3997338    72.048156  0.022656653  0.023324969            2 
  266000   0.84532287   -7.4580179    72.395413  0.022680267  0.023260653            4 
  267000    0.8564427   -7.4318431    72.356164  0.022583072  0.023195639            3 
  268000   0.86192516   -7.4164625    72.301014  0.022481659  0.023131203            2 
  269000   0.84600516   -7.3956713    72.696053  0.022520462  0.023067521            3 
  270000   0.83732914   -7.4095026     72.79343  0.022467108  0.023004432            2 
  271000   0.81989901   -7.4289585    72.760211  0.022373989  0.022940618            2 
  272000   0.83106148   -7.4241024    72.999083  0.022364915  0.022877934            3 
  273000   0.81976482   -7.4098991    72.873347  0.022244611  0.022815101            4 
  274000   0.83341123   -7.3854824    73.121952  0.022239037  0.022752066            3 
  275000   0.84853569   -7.4264517    72.776394  0.022053453  0.022688165            3 
  276000   0.82459955   -7.4012737    73.239367  0.022113335  0.022624537            3 
  277000   0.80807139   -7.4209636     73.40041  0.022081953  0.022560797            2 
  278000   0.81611917   -7.4444216    73.239764  0.021954366  0.022496784            6 
  279000   0.79788473   -7.4438257    73.467356  0.021943655  0.022433084            8 
  280000   0.84595734   -7.4587946    73.581338  0.021899208  0.022370159            2 
  281000   0.82968371   -7.4629252    73.505917  0.021798908  0.022307471            3 
  282000   0.83677438   -7.4656551    73.673875   0.02177124  0.022244707            5 
  283000   0.80922668   -7.4678617    73.762989   0.02172055  0.022181665            5 
  284000   0.81878908   -7.4593185    73.984376   0.02170903  0.022118882            2 
  285000   0.82881961   -7.4732583    73.733091  0.021559383  0.022056145            5 
  286000   0.79041219   -7.4569334    74.155937  0.021607208  0.021993255            3 
  287000    0.8080417   -7.4395977      73.8951  0.021456185  0.021930663            2 
  288000   0.79755633   -7.4840974    73.949769  0.021397503  0.021867812            2 
  289000   0.77974772   -7.4885371    74.121913  0.021373101  0.021805265            5 
  290000   0.81306491   -7.5126217     74.26501   0.02134052   0.02174293           11 
  291000   0.82138022   -7.5015246    74.238743  0.021259663  0.021680719            5 
  292000    0.8001869   -7.4968106    74.170337  0.021167334  0.021618315            4 
  293000   0.78342739   -7.4754741    74.354739  0.021147537  0.021555773            3 
  294000   0.80221435   -7.4933594    74.350801   0.02107449  0.021493158            6 
  295000   0.80680038   -7.5318763    74.291354  0.020986258  0.021430276            4 
  296000   0.80245312   -7.5012168    74.355006  0.020933279  0.021368099            4 
  297000   0.79087564   -7.5048329    74.558069  0.020919772  0.021305606            4 
  298000   0.79359148   -7.5029527    74.601379  0.020861683  0.021243603            7 
  299000   0.79677148   -7.5418945    74.758825  0.020835793  0.021182172            7 
  300000   0.77879853    -7.511251    74.967108  0.020824197  0.021121099            3 
  301000   0.80139037   -7.5262761    75.034654  0.020773714  0.021060584            2 
  302000   0.82063254   -7.5382587     75.12291   0.02072928  0.021000524            3 
  303000   0.80667144   -7.5081302    75.168165  0.020673313  0.020940299           11 
  304000   0.77233131   -7.5686053    75.191938  0.020611825   0.02087997            3 
  305000   0.77859292   -7.5582682      75.0219  0.020497787  0.020819702            3 
  306000   0.77834203    -7.523071    75.474764   0.02055413  0.020760358            4 
  307000   0.79842176   -7.5206366      75.4376   0.02047709  0.020701456            1 
  308000   0.79056312   -7.5359259    75.500433  0.020427606  0.020642852            4 
  309000      0.77954   -7.5471197    75.675341  0.020408668  0.020584259            3 
  310000   0.77191198   -7.5768441     75.77728  0.020370237  0.020526104            6 
  311000     0.781999   -7.5502939    75.790239   0.02030821  0.020468296            2 
  312000   0.77685242   -7.5579206     75.81969  0.020250986  0.020410385            2 
  313000   0.78501395    -7.570131    75.890529  0.020205146  0.020352064            4 
  314000   0.75661618   -7.5883208    75.875455  0.020136798  0.020293788            3 
  315000   0.77589718   -7.5832291    75.999968  0.020105812  0.020235538            2 
  316000   0.76201832   -7.5697031    75.854177  0.020003739  0.020177294            5 
  317000   0.75550761   -7.5758533    76.000313  0.019979052  0.020119366            3 
  318000   0.75626994    -7.584102     75.96627  0.019907304  0.020060955            8 
  319000   0.76416842   -7.6132717    75.900897   0.01982782  0.020002109            2 
  320000   0.74826994   -7.6271712    75.969514  0.019783728  0.019943117            5 
  321000   0.75718991   -7.6362775    76.063788   0.01974657  0.019884294            4 
  322000   0.75074503   -7.6161998    76.211973  0.019723595   0.01982569            8 
  323000   0.75452714   -7.5899339    76.086203  0.019630083  0.019767243            3 
  324000   0.75055347   -7.6036171    76.190322  0.019596276  0.019709162            2 
  325000   0.75082791   -7.6136239    75.959179  0.019476712  0.019650973            5 
  326000   0.75913359   -7.6077525     76.15859  0.019467942   0.01959243            5 
  327000   0.75872239   -7.6323727    76.263088  0.019435038  0.019534139            5 
  328000   0.74890328   -7.5939052    76.209859  0.019362261  0.019476473            5 
  329000   0.73453397    -7.599461    76.220324   0.01930606  0.019418043            4 
  330000   0.74168579   -7.6516764     76.25752  0.019256949   0.01935971            4 
  331000   0.72750167   -7.6448704    76.285696  0.019205865  0.019301201            5 
  332000   0.73104139   -7.6534457    76.458871  0.019191484  0.019243284            3 
  333000   0.74521553   -7.6390863    76.494666  0.019142809  0.019185553            3 
  334000   0.73532071     -7.67177    76.389278  0.019059201  0.019128232            7 
  335000   0.72720063   -7.6498109    76.548086  0.019041812  0.019070897            4 
  336000   0.74177023   -7.6423621     76.63837  0.019007532  0.019013576            4 
  337000   0.73730334   -7.6576392    76.417092  0.018896413  0.018956124            4 
  338000   0.72585063   -7.6685386    76.500025  0.018860953  0.018899085            8 
  339000    0.7423427   -7.6774112    76.461442  0.018795831  0.018841925            4 
  340000   0.74305319   -7.6683663    76.563068  0.018765458  0.018784979           10 
  341000   0.72108755   -7.6682363    76.436352   0.01867946  0.018727456            6 
  342000   0.72153337   -7.6725063    76.542749  0.018650767  0.018670443            5 
  343000   0.71892485    -7.680942     76.59504  0.018609096  0.018613627            5 
  344000   0.73617756   -7.6833542    76.448488  0.018519498  0.018556796            3 
  345000   0.72571858   -7.7193946    76.383133  0.018450032  0.018499811            3 
  346000   0.70555489   -7.7038354    76.610401  0.018451445   0.01844289            3 
  347000   0.70870656   -7.7047009    76.612153  0.018398692  0.018386178            3 
  348000   0.71571635   -7.6952841     76.58385  0.018339045  0.018329608           10 
  349000   0.70968431   -7.7135709    76.555618  0.018279756  0.018273248            3 
  350000   0.72563001   -7.6708265    76.617258  0.018242204  0.018216745            5 
  351000   0.71192443    -7.733164    76.587213  0.018183099    0.0181601            3 
  352000   0.71601733    -7.705759    76.692407  0.018156346  0.018103504            7 
  353000   0.69134677   -7.7032675    76.674091  0.018100588   0.01804721            4 
  354000   0.69428459    -7.710218    76.721826  0.018060693  0.017991269            6 
  355000   0.70044497   -7.7125692     76.72472  0.018010498  0.017935488            4 
  356000   0.70306193   -7.7320176    76.510355  0.017909727  0.017879423            6 
  357000   0.70158402   -7.7085257    76.647634  0.017891604  0.017823665            4 
  358000     0.686648   -7.7073368    76.734025  0.017861738  0.017767848            5 
  359000   0.70099227   -7.7199041    76.640385  0.017790247  0.017712205            5 
  360000   0.68025916   -7.7352823    76.657696  0.017744837    0.0176567            8 
  361000   0.69270404   -7.7413987    76.859483  0.017742263  0.017601562            6 
  362000   0.70211158   -7.7655732    76.729922  0.017663426  0.017546252            7 
  363000     0.673405   -7.7584775    76.718486  0.017612141  0.017491109            2 
  364000   0.69128194   -7.7771565    76.710262  0.017561873  0.017436074            6 
  365000   0.68504931   -7.7566958    76.799581  0.017534151  0.017381411            3 
  366000   0.67600356   -7.7816623     76.73661  0.017471906  0.017326791            4 
  367000   0.68226279   -7.7644857      76.8041  0.017439623  0.017272559            3 
  368000   0.66036136    -7.769326    77.010723  0.017439022  0.017218622            5 
  369000   0.68977069   -7.7689428    76.848352  0.017355093  0.017164759            3 
  370000   0.68158589   -7.7828541    76.901531  0.017320165  0.017110834            7 
  371000   0.66432208   -7.7774062    76.953577   0.01728517  0.017057323            4 
  372000   0.67603011   -7.7990081    77.006292  0.017250513  0.017003733            4 
  373000   0.66666392   -7.7735577    76.849358  0.017169204  0.016950286            5 
  374000   0.66607963   -7.7939014    76.965577  0.017149193  0.016897027            5 
  375000   0.67256992   -7.8052827    76.886765  0.017085948  0.016843727            4 
  376000   0.66234695   -7.7903228    76.890756  0.017041391  0.016790461            7 
  377000   0.66405585   -7.7955486    76.789196  0.016973739  0.016737202            4 
  378000    0.6692888    -7.816007    76.711965  0.016911809  0.016683899            4 
  379000   0.66254562   -7.8126244    76.728009  0.016870714  0.016630569            4 
  380000   0.67232794   -7.8382479    76.670646  0.016813738  0.016577339            6 
  381000   0.66805266   -7.8461323    76.808658  0.016799794  0.016524334           18 
  382000   0.64722597   -7.8297295    76.909042  0.016777714  0.016471703            5 
  383000   0.65739615   -7.8267298    76.975108  0.016748283  0.016419272            9 
  384000   0.64356648   -7.8394713    76.768602  0.016659853  0.016366945           12 
  385000   0.64438391   -7.8613177    76.905386  0.016646187   0.01631466            9 
  386000   0.64936676   -7.8446206    76.889693  0.016599675  0.016262594            3 
  387000   0.64094231   -7.8443704    76.984898  0.016577282  0.016210594            8 
  388000   0.63501168    -7.836637    76.832073  0.016501734   0.01615886           10 
  389000   0.64919367   -7.8230411    76.958632  0.016486425  0.016107182           12 
  390000   0.64003972   -7.8905447    76.825057  0.016415611  0.016055682           14 
  391000   0.63816862   -7.8648809    76.830358  0.016374757  0.016004384           12 
  392000   0.63720239   -7.8359014    76.902208  0.016348259  0.015953222           10 
  393000    0.6435613   -7.8846555    76.949001  0.016316582  0.015902245            6 
  394000   0.62779075   -7.8637993    77.037757  0.016293942   0.01585143            9 
  395000   0.64972898   -7.8774709    76.848527  0.016212769  0.015800957            5 
  396000   0.63500836   -7.8614615    76.888531  0.016180246  0.015750424            4 
  397000    0.6290337   -7.8718969    77.170546  0.016198687   0.01570024            5 
  398000   0.62902163   -7.8688764     76.89821  0.016100965  0.015650319            5 
  399000   0.63425371   -7.8797822    76.911403  0.016063367  0.015600424            3 
  400000   0.63290308   -7.8898411    77.001682  0.016042017  0.015550654            3 
  401000   0.60929643   -7.8659337    76.927879  0.015986675  0.015500902            4 
  402000   0.63153888   -7.8930843    76.864985  0.015933869  0.015451381            5 
  403000   0.62721093   -7.9186469    76.827456  0.015886571  0.015401723            3 
  404000   0.63418913   -7.9091857    76.770723  0.015835545  0.015352156            4 
  405000   0.62442163   -7.9038118    76.714216  0.015784818   0.01530282            8 
  406000   0.62478341   -7.9141029    76.779143  0.015759266  0.015253558           10 
  407000   0.62123735   -7.9183453    76.729859  0.015710454  0.015204607            3 
  408000   0.63863329   -7.9019116    76.927186  0.015712252  0.015155722            2 
  409000   0.61142843    -7.929948    76.673601  0.015622168  0.015106891            4 
  410000   0.61278509    -7.904436    77.122726  0.015675351  0.015058296            4 
  411000   0.61529916   -7.9386917    76.857361  0.015583407  0.015010025            5 
  412000   0.60334608   -7.9084128    77.062987  0.015587174   0.01496202            3 
  413000   0.60793358   -7.9594384    76.715116   0.01547924  0.014914162            9 
  414000   0.59259904   -7.9500146    76.711608  0.015441145  0.014866276            3 
  415000   0.60095162   -7.9297026    76.765922  0.015414844  0.014818499            3 
  416000     0.595025   -7.9557607     76.78651  0.015381913  0.014770822            5 
  417000   0.59822148   -7.9455148    76.834977  0.015354712  0.014723304            6 
  418000   0.60270648   -7.9406641    76.783179  0.015307651  0.014675975            5 
  419000     0.597754   -7.9666799    76.832464   0.01528092  0.014628914            4 
  420000   0.60056955   -7.9548114    76.729319  0.015224071  0.014582015            3 
  421000    0.6172286   -7.9603773    76.874487  0.015216644  0.014535242            6 
  422000    0.6034278   -7.9493022    76.879987  0.015181672  0.014488742            7 
  423000   0.58171096   -7.9632254    76.952766  0.015160119  0.014442379            7 
  424000   0.59588418   -7.9583544    76.925693  0.015119043  0.014396219           13 
  425000   0.59200526   -7.9632846    76.871864  0.015072915  0.014350159            3 
  426000   0.59526211    -7.980015    76.786522  0.015020838  0.014304243            6 
  427000   0.58706355   -7.9819895    76.873476   0.01500263  0.014258441            8 
  428000   0.59151879   -7.9734303    76.729338  0.014939513  0.014213042            4 
  429000   0.59686082   -7.9905447    76.893012  0.014936482  0.014167613           10 
  430000   0.57594558   -7.9923798     76.85842  0.014895043  0.014122251            6 
  431000   0.58607463   -8.0006057    76.761942   0.01484183  0.014077089            6 
  432000   0.57215529   -7.9894113    76.814086  0.014817532  0.014032113            9 
  433000    0.5730624   -7.9879832    76.789793  0.014778636  0.013987371            5 
  434000   0.56709759   -7.9986725     76.89916  0.014765584  0.013942748            8 
  435000   0.57574213   -7.9977724    76.989367  0.014748921  0.013898315            6 
  436000   0.57480772   -8.0263941    76.811037  0.014681009   0.01385398            7 
  437000   0.56655599   -8.0043369    76.756761  0.014637064  0.013809754            5 
  438000   0.56386753   -8.0041259    76.842349  0.014619929  0.013765817            5 
  439000   0.56867231   -8.0253018    76.817207  0.014581854  0.013722014            6 
  440000    0.5683828   -8.0121362    76.990615  0.014581556  0.013678502            4 
  441000    0.5581674   -8.0243989    76.770546  0.014506906  0.013635078            7 
  442000   0.55729711    -8.015342    77.067804  0.014530129  0.013591722            6 
  443000   0.55964485   -8.0043699    76.733253  0.014434397  0.013548541            6 
  444000   0.56916901   -8.0501271    76.839401  0.014421809  0.013505431            6 
  445000   0.56003327   -8.0217137    77.005197  0.014420449   0.01346254            5 
  446000   0.54979769   -8.0414118    76.891728  0.014366915  0.013419901            7 
  447000   0.54402509   -8.0546735    76.772434  0.014312534  0.013377253            5 
  448000   0.54876664   -8.0386977    76.683345  0.014264015  0.013334759            4 
  449000   0.55011311   -8.0476883    76.882117  0.014269138  0.013292382            4 
  450000   0.55471973   -8.0514489    76.743135  0.014211692   0.01325021            6 
  451000   0.56284169   -8.0526775    76.850046  0.014199935  0.013208266            5 
  452000   0.55149632   -8.0509231     76.81186  0.014161479  0.013166449            5 
  453000   0.55109948   -8.0465156    76.817349  0.014131227  0.013124775            6 
  454000   0.54729809   -8.0664022    76.844566  0.014105097  0.013083229            5 
  455000    0.5368871   -8.0770446     76.73285  0.014053635   0.01304185            7 
  456000   0.54765371   -8.0701179    76.732723  0.014022793    0.0130006            5 
  457000   0.54292235   -8.0601554    76.666696  0.013980069  0.012959512            5 
  458000    0.5328741   -8.0767595    76.682191  0.013952364  0.012918601            4 
  459000   0.53087628   -8.0664013    76.678212  0.013921244    0.0128778            6 
  460000   0.52587064   -8.0713211    76.666899  0.013888931  0.012837151            5 
  461000   0.52995081   -8.0779071     76.67941  0.013861065  0.012796589            8 
  462000   0.52429376   -8.0822473    76.771354  0.013847647  0.012756196            6 
  463000   0.52059411   -8.0825185    76.843803  0.013830778  0.012715973            5 
  464000   0.52086692   -8.0843744    76.673322  0.013770352  0.012675909            5 
  465000   0.52620118   -8.0833256     76.79138  0.013761896  0.012635959            6 
  466000   0.52382733   -8.1046155    76.695303  0.013715183  0.012596123           10 
  467000    0.5233036   -8.1105164     76.60828  0.013670285  0.012556303            9 
  468000   0.52018183   -8.1016564    76.722353  0.013661388  0.012516702            9 
  469000   0.50585716   -8.1284232    76.698953  0.013628101  0.012477244            5 
  470000   0.51531751   -8.1000637    76.640085  0.013588668  0.012437777            6 
  471000   0.50041813   -8.1171385    76.587885  0.013550581  0.012398441            7 
  472000   0.51437287   -8.1104241    76.603276   0.01352459   0.01235925            5 
  473000   0.51657972   -8.1259145    76.607949   0.01349682  0.012320215            9 
  474000   0.49932449   -8.1178601    76.564122   0.01346064  0.012281371            5 
  475000   0.50757108   -8.1232419    76.512849  0.013423307  0.012242655            4 
  476000   0.50310167    -8.114266    76.576771  0.013406297  0.012204096            6 
  477000   0.51742525   -8.1236619    76.576761   0.01337819  0.012165607            7 
  478000   0.50914218    -8.128987    76.590195  0.013352544  0.012127281           10 
  479000   0.50042547   -8.1285511    76.376966  0.013287572  0.012089065            7 
  480000   0.49617994   -8.1295799    76.515379   0.01328392  0.012050991            6 
  481000   0.49595524   -8.1400876     76.42285  0.013240272  0.012013029            3 
  482000   0.50135805   -8.1251112    76.531382  0.013231567  0.011975214            4 
  483000   0.49121789   -8.1370451    76.437337  0.013187946  0.011937594            2 
  484000   0.49393644   -8.1534194    76.497541  0.013171064    0.0119001            8 
  485000    0.4947347    -8.161169    76.551245  0.013153135  0.011862726            7 
  486000   0.50076656   -8.1514277    76.419008  0.013103396  0.011825559            7 
  487000    0.4834832    -8.153334     76.48622  0.013087991  0.011788504            6 
  488000   0.47800702    -8.169251    76.390588  0.013044841  0.011751529            9 
  489000     0.484247   -8.1818786    76.536419  0.013043016  0.011714778            6 
  490000     0.480201   -8.1686834    76.381287  0.012990015  0.011678115            7 
  491000   0.48568151   -8.1667064    76.534495  0.012989561  0.011641611            6 
  492000    0.4757908   -8.1717419    76.424266  0.012944489  0.011605224            7 
  493000   0.49642109   -8.1700624    76.286524   0.01289495  0.011568943            6 
  494000   0.49156925   -8.1702679    76.472987  0.012900301  0.011532747            8 
  495000   0.48409091   -8.1823246    76.287562  0.012843024  0.011496696            6 
  496000   0.46522321    -8.183332    76.357018    0.0128288  0.011460819            8 
  497000   0.48593139   -8.1819114     76.40172  0.012810483  0.011425057            6 
  498000   0.46833448   -8.1830852    76.290614  0.012766167  0.011389455           10 
  499000   0.47455895   -8.1790311    76.417693  0.012761806   0.01135398            8 
  500000   0.48224885   -8.1792905    76.210992  0.012701832  0.011318632            7 
  501000   0.48047881   -8.1801425    76.356018  0.012700602  0.011283399            6 
  502000   0.46391438   -8.1890776    76.336294  0.012672028  0.011248307            6 
  503000     0.473564   -8.2009424    76.323718  0.012644751  0.011213371            7 
  504000   0.46923562   -8.2085923    76.429875  0.012637215  0.011178554           12 
  505000   0.45818488   -8.1868176    76.227024  0.012578717  0.011143838            7 
  506000   0.46075659   -8.1962431    76.222607   0.01255313  0.011109232            7 
  507000   0.45714548   -8.1930322    76.308304  0.012542456  0.011074766           11 
  508000   0.45715903   -8.2262841    76.302832  0.012516869  0.011040454            9 
  509000   0.45696948   -8.2089047    76.270539  0.012486991  0.011006237            6 
  510000    0.4531036   -8.2003811    76.320669  0.012470698  0.010972181            5 
  511000    0.4531998   -8.2162571    76.201353  0.012426835  0.010938318            6 
  512000   0.45437305   -8.2258705    76.164296  0.012396532  0.010904543            3 
Loop time of 1149.93 on 48 procs for 500000 steps with 4000 atoms

Performance: 75134.734 tau/day, 434.807 timesteps/s
99.4% CPU use with 48 MPI tasks x no OpenMP threads

MPI task timing breakdown:
Section |  min time  |  avg time  |  max time  |%varavg| %total
---------------------------------------------------------------
Pair    | 67.6       | 75.104     | 82.507     |  35.4 |  6.53
Neigh   | 7.376      | 7.6566     | 8.0648     |   5.2 |  0.67
Comm    | 66.801     | 73.258     | 81.773     |  36.9 |  6.37
Output  | 0.98181    | 0.9822     | 0.99104    |   0.1 |  0.09
Modify  | 979.12     | 982.19     | 986.05     |   4.7 | 85.41
Other   |            | 10.74      |            |       |  0.93

Nlocal:        83.3333 ave          93 max          78 min
Histogram: 6 8 6 3 12 4 5 3 0 1
Nghost:        1934.77 ave        1950 max        1913 min
Histogram: 1 0 6 2 9 9 4 7 7 3
Neighs:        12224.1 ave       13596 max       10987 min
Histogram: 4 3 2 8 9 7 11 1 1 2
FullNghs:      24448.1 ave       27767 max       22880 min
Histogram: 8 9 6 9 7 2 3 3 0 1

Total # of neighbors = 1173510
Ave neighs/atom = 293.37750
Neighbor list builds = 26887
Dangerous builds = 0

#clear
#
#next RN
#
#jump SELF
Total wall time: 0:19:13
