
units lj                  # Use reduced LJ style units
atom_style atomic         # Uncharged point particles
atom_modify map hash      # Needed for indexing of clusters etc
                          # Used to be able to find where atoms are in relation to each other.

lattice fcc 1.0 spacing 1 1 1
Lattice spacing in x,y,z = 1.5874011 1.5874011 1.5874011
region box block 0 10 0 10 0 10 units lattice
create_box 2 box
Created orthogonal box = (0.0000000 0.0000000 0.0000000) to (15.874011 15.874011 15.874011)
  3 by 4 by 4 MPI processor grid
create_atoms 1 box
Created 4000 atoms
  using lattice units in orthogonal box = (0.0000000 0.0000000 0.0000000) to (15.874011 15.874011 15.874011)
  create_atoms CPU = 0.002 seconds
set type 1 type/fraction 2 1.0 78393
Setting atom values ...
  4000 settings made for type/fraction
mass 1 1.0
mass 2 1.0
pair_style lj/cut  3.5
pair_modify tail  yes
pair_coeff 1  1  1.0  1.0   # Intearaction between 1 and 1 set with epsilon = 1 and sigma = 1
pair_coeff 1  2  1.5  0.8
pair_coeff 2  2  0.5  0.88

write_data data.0
System init for write_data ...
Neighbor list info ...
  update every 1 steps, delay 10 steps, check yes
  max neighbors/atom: 2000, page size: 100000
  master list distance cutoff = 3.8
  ghost atom cutoff = 3.8
  binsize = 1.9, bins = 9 9 9
  1 neighbor lists, perpetual/occasional/extra = 1 0 0
  (1) pair lj/cut, perpetual
      attributes: half, newton on
      pair build: half/bin/atomonly/newton
      stencil: half/bin/3d
      bin: standard
WARNING: Not all mixed pair coeffs generated from mixing. Use write_data with 'pair ij' option to store all pair coeffs. (../write_data.cpp:312)


#############################
#   M E L T   S Y S T E M   #
#############################

velocity all create 2.4 3143649 mom yes dist gaussian # Assign velocities
                                                    # Temperature 2.4, random number seed, zero linear momentum
                                                                                # Gaussian distribution

timestep 0.002   # simulation timestep
thermo 1000       # output thermodynamic data every 1000 steps bf 100

# Define a fix  in this case with index 1 applied to all
# particles in the simulation. This fix is for simulations
# in the anisotropic NPT ensemble. Note that we use the MTK
# correction.
fix 1 all npt temp 2.4 2.4 0.1 iso 5.68 5.68 0.5 mtk yes tchain 5 pchain 5 # Use NPT ensemble
                                                                         # Set temperature and pressure and damping
                                                                         # Numbers of thermostats in chain and in barostat
run 10000          # run for 10000 steps
Per MPI rank memory allocation (min/avg/max) = 3.642 | 3.644 | 3.648 Mbytes
Step Temp E_pair E_mol TotEng Press Volume 
       0          2.4   -2.7016284            0   0.89747158   -1.6956087         4000 
    1000    2.4125339   -1.4304216            0    2.1874745     5.637515    4277.7722 
    2000    2.3523614   -1.4394204            0    2.0882395    5.5695872     4278.036 
    3000    2.4527366   -1.4151457            0    2.2630395     5.747917    4279.6057 
    4000    2.3437455   -1.4482913            0     2.066448    5.4703932    4284.5388 
    5000     2.442117   -1.4211054            0    2.2411544    5.8650166    4247.2198 
    6000    2.3426542   -1.4619536            0    2.0511491    5.7552295    4202.1989 
    7000    2.3876064     -1.41172            0    2.1687942    5.7451314    4263.2882 
    8000     2.363268   -1.4694448            0     2.074571    5.4400988    4270.0961 
    9000     2.421038   -1.4036381            0     2.227011    5.8877177    4259.9906 
   10000    2.4362911   -1.4391096            0    2.2144134    5.6386242    4265.8314 
Loop time of 2.40601 on 48 procs for 10000 steps with 4000 atoms

Performance: 718202.654 tau/day, 4156.265 timesteps/s
99.6% CPU use with 48 MPI tasks x no OpenMP threads

MPI task timing breakdown:
Section |  min time  |  avg time  |  max time  |%varavg| %total
---------------------------------------------------------------
Pair    | 1.0139     | 1.0929     | 1.1722     |   2.8 | 45.42
Neigh   | 0.20624    | 0.21221    | 0.22573    |   1.0 |  8.82
Comm    | 0.7717     | 0.83455    | 0.93396    |   3.4 | 34.69
Output  | 0.00025213 | 0.00025676 | 0.00033539 |   0.0 |  0.01
Modify  | 0.21987    | 0.25123    | 0.29099    |   4.3 | 10.44
Other   |            | 0.01487    |            |       |  0.62

Nlocal:        83.3333 ave          90 max          74 min
Histogram: 2 4 1 6 2 9 8 4 6 6
Nghost:        1577.71 ave        1608 max        1544 min
Histogram: 1 2 4 6 5 13 6 7 2 2
Neighs:        8964.23 ave       10016 max        7555 min
Histogram: 1 1 8 3 5 6 8 4 8 4

Total # of neighbors = 430283
Ave neighs/atom = 107.57075
Neighbor list builds = 912
Dangerous builds = 239

# Equilibrate just above the melting temperature to avoid step fn in T

fix 1 all npt temp 1.25 1.25 0.1 iso 5.68 5.68 0.5 mtk yes tchain 5 pchain 5
run 2000
Per MPI rank memory allocation (min/avg/max) = 3.643 | 3.645 | 3.649 Mbytes
Step Temp E_pair E_mol TotEng Press Volume 
   10000    2.4362911   -1.4391096            0    2.2144134    5.6386242    4265.8314 
   11000    1.2424039   -2.2387341            0  -0.37559413    5.6405666    3334.2028 
   12000     1.254138   -2.2463628            0  -0.36562613    5.6643389     3328.681 
Loop time of 0.58527 on 48 procs for 2000 steps with 4000 atoms

Performance: 590496.471 tau/day, 3417.225 timesteps/s
99.6% CPU use with 48 MPI tasks x no OpenMP threads

MPI task timing breakdown:
Section |  min time  |  avg time  |  max time  |%varavg| %total
---------------------------------------------------------------
Pair    | 0.24864    | 0.27706    | 0.29928    |   2.1 | 47.34
Neigh   | 0.038661   | 0.040919   | 0.044839   |   0.6 |  6.99
Comm    | 0.19338    | 0.21647    | 0.24829    |   2.6 | 36.99
Output  | 5.3368e-05 | 5.5247e-05 | 7.2164e-05 |   0.0 |  0.01
Modify  | 0.042937   | 0.046033   | 0.050312   |   0.8 |  7.87
Other   |            | 0.004737   |            |       |  0.81

Nlocal:        83.3333 ave          91 max          72 min
Histogram: 1 1 1 4 8 10 7 9 6 1
Nghost:        1857.52 ave        1891 max        1822 min
Histogram: 2 1 4 10 7 7 6 5 5 1
Neighs:        11476.1 ave       12910 max        9287 min
Histogram: 1 0 2 7 5 6 10 8 5 4

Total # of neighbors = 550855
Ave neighs/atom = 137.71375
Neighbor list builds = 144
Dangerous builds = 15

#############################
# L I N E A R  Q U E N C H  #
#############################

# Define solid atoms. This closely follows ten Wolde  Ruiz-Montero and Frenkel  Faraday Discuss  1996  104  93-110
# Compute components of the per-atom q6 vector
compute q6 all orientorder/atom degrees 1 6 components 6 nnn NULL cutoff 1.3 # compute the Q6 parameter.
                                                                             # Use all neighbours within 1.3 unit cell.

# get number of connections
compute coord_number all coord/atom orientorder q6 0.5

# An atom is solid if it has 8 or more connections (of a possible 14)
variable is_solid atom c_coord_number>=8
group solid dynamic all var is_solid    # Must be dynamic to update
dynamic group solid defined

# do clustering
compute cluster solid cluster/atom 1.3 # Create a cluster where all atoms within are solid and max 1.3 units from another member

# define chunks one chunk per cluster
compute clus_chunks solid chunk/atom c_cluster nchunk every compress yes  # Says which atoms are in which chunk

# count the size of each chunk
compute size_chunks solid property/chunk clus_chunks count


# Find the maximum entry in the vector of chunk sizes
variable max_n equal max(c_size_chunks)


# Thermo style which includes this variable
# thermo_style custom step temp pe vol v_max_n

thermo ${N}  # Print the thermo information every 100 steps
thermo 1000  

# Reset the npt fix at a lower temperature (below freezing)
fix 1  all npt temp  ${temp} ${temp}  0.1  iso  5.68  5.68  0.5  mtk yes tchain  5  pchain  5
fix 1  all npt temp  0.45 ${temp}  0.1  iso  5.68  5.68  0.5  mtk yes tchain  5  pchain  5
fix 1  all npt temp  0.45 0.45  0.1  iso  5.68  5.68  0.5  mtk yes tchain  5  pchain  5

dump dmp2 all dcd ${N} traj.dcd
dump dmp2 all dcd 1000 traj.dcd


compute msd all msd com yes
variable twopoint equal c_msd[4]/6/(step*dt+1.0e-6)
fix 9 all vector 10 c_msd[4]
variable fit equal slope(f_9)/6/(10*dt)
thermo_style custom step temp pe c_msd[4] v_twopoint v_fit v_max_n

fix 1 all npt temp 1.25 ${temp} 0.1 iso 5.68 5.68 0.5 mtk yes tchain 5 pchain 5
fix 1 all npt temp 1.25 0.45 0.1 iso 5.68 5.68 0.5 mtk yes tchain 5 pchain 5
run 2000000 # 5000000  # Run for this many steps
Neighbor list info ...
  update every 1 steps, delay 10 steps, check yes
  max neighbors/atom: 2000, page size: 100000
  master list distance cutoff = 3.8
  ghost atom cutoff = 3.8
  binsize = 1.9, bins = 8 8 8
  4 neighbor lists, perpetual/occasional/extra = 1 3 0
  (1) pair lj/cut, perpetual
      attributes: half, newton on
      pair build: half/bin/atomonly/newton
      stencil: half/bin/3d
      bin: standard
  (2) compute orientorder/atom, occasional
      attributes: full, newton on
      pair build: full/bin/atomonly
      stencil: full/bin/3d
      bin: standard
  (3) compute coord/atom, occasional
      attributes: full, newton on
      pair build: full/bin/atomonly
      stencil: full/bin/3d
      bin: standard
  (4) compute cluster/atom, occasional
      attributes: full, newton on
      pair build: full/bin/atomonly
      stencil: full/bin/3d
      bin: standard
Per MPI rank memory allocation (min/avg/max) = 9.809 | 9.816 | 9.822 Mbytes
Step Temp PotEng c_msd[4] v_twopoint v_fit v_max_n 
   12000     1.254138   -2.2463628 3.8979589e-30 2.7069158e-32 8.3333333e+20            1 
   13000    1.2627737   -2.2514679     1.211906 0.0077686281   0.10317024            3 
   14000    1.2591107   -2.2518162    2.5604418  0.015240725   0.10737675            2 
   15000     1.262248   -2.2321407    3.8870033  0.021594462      0.11043            1 
   16000     1.224089   -2.2546695    5.2031495  0.027099736   0.11103804            2 
   17000    1.2426789   -2.2394014    6.5464989   0.03209068   0.11090643            1 
   18000    1.2331654   -2.2368771    7.9003663  0.036575769   0.11117109            1 
   19000    1.2502922    -2.218589    9.2039725  0.040368299    0.1112813            4 
   20000    1.2655091   -2.2684266    10.561751  0.044007295    0.1110038            4 
   21000    1.2670968   -2.2389919    11.819792  0.046903937   0.11063194            2 
   22000    1.2286392   -2.2106339    13.206517  0.050024686   0.11060902            1 
   23000    1.2295113    -2.219047    14.420366  0.052247703   0.11038704            1 
   24000    1.2680729   -2.2226242    15.806749  0.054884544   0.11029807            1 
   25000    1.2442247   -2.2146798    16.922032  0.056406772   0.11002878            3 
   26000    1.2524565   -2.2231854    18.419804  0.059037833   0.10979881            2 
   27000    1.2301676   -2.2357943    19.710338  0.060834376   0.10982206            1 
   28000    1.2702833    -2.214886     20.98932  0.062468213   0.10985592            1 
   29000    1.2083382   -2.2538046    22.243988  0.063919504   0.10972498            3 
   30000     1.253954    -2.241461    23.599021  0.065552836   0.10968649            1 
   31000    1.2126296    -2.260105    24.867176  0.066847247   0.10954324            2 
   32000    1.2377011   -2.2510905    26.289852  0.068463155   0.10945566            1 
   33000    1.2530475   -2.2372413    27.342818  0.069047518   0.10932042            1 
   34000     1.246631   -2.2249587    28.705831  0.070357428   0.10924448            1 
   35000    1.2324352   -2.2582883    29.895284  0.071179248   0.10915364            1 
   36000     1.224116    -2.266817    31.127729  0.072054926   0.10905593            1 
   37000    1.2517405   -2.2319513    32.685073  0.073615027   0.10894509            1 
   38000    1.2270226     -2.22512    34.117571  0.074819234   0.10891555            2 
   39000    1.2294199   -2.2489957    35.611521  0.076092993   0.10895959            3 
   40000    1.2322237   -2.2476453    37.035665  0.077157635   0.10912492            2 
   41000    1.2086226   -2.2430686    38.385321  0.078018944   0.10933023            1 
   42000    1.2540727   -2.2603112    39.459017  0.078291699   0.10949179            1 
   43000    1.2233524   -2.2397402    40.966345   0.07939214   0.10962492            2 
   44000    1.2129056   -2.2340597    42.336883  0.080183489     0.109745            1 
   45000    1.2215088   -2.2302065    44.097482  0.081662002   0.10998359            1 
   46000     1.205582    -2.252317    45.341176  0.082139811   0.11023254            1 
   47000    1.2419047   -2.2393874    46.596784  0.082618411   0.11040649            1 
   48000    1.2291588   -2.2352834    47.691597  0.082797911   0.11051854            1 
   49000    1.2282144    -2.236806    48.822086  0.083030758   0.11055321            1 
   50000    1.2233813   -2.2261975    50.219045  0.083698407   0.11055731            2 
   51000    1.2425547   -2.2185475    51.486516  0.084128293   0.11054717            2 
   52000     1.231727   -2.2380217     52.93298  0.084828493   0.11054792            1 
   53000    1.2136533   -2.2615622    54.226417  0.085261662   0.11051816            2 
   54000    1.2296118   -2.2392982    55.899877  0.086265241   0.11047859            1 
   55000     1.234801   -2.2317901     56.55906  0.085695545   0.11050465            1 
   56000    1.2256725   -2.2391884    58.117907   0.08648498   0.11047881            1 
   57000    1.2179498   -2.2697457    59.012018   0.08627488   0.11044114            2 
   58000     1.238406   -2.2427861    60.539079  0.086981435   0.11041231            1 
   59000    1.2553113   -2.2732055    61.445939  0.086788049   0.11036909            4 
   60000    1.2166258   -2.2695234     63.38061  0.088028624   0.11030349            2 
   61000    1.2053066   -2.2517821    64.690479   0.08837497   0.11028311            2 
   62000    1.2207671   -2.2014681    66.183853  0.088956791   0.11026063            3 
   63000    1.2515879   -2.2570217    67.193078  0.088879732   0.11025394            1 
   64000    1.2136201   -2.2310256    68.378952  0.089035094   0.11019887            1 
   65000    1.2243229   -2.2727622    69.321275  0.088873428   0.11010497            1 
   66000    1.2183142    -2.237873    70.828874  0.089430395   0.11005465            3 
   67000    1.2208906    -2.216254    72.397301  0.090046394    0.1100481            2 
   68000    1.2203181   -2.2310097    74.258022  0.091002478   0.11001613            2 
   69000    1.2651435   -2.2188521    74.909112  0.090469941   0.10999263            3 
   70000     1.213543   -2.2433003    76.548129  0.091128724   0.10996685            1 
   71000    1.2273548   -2.2366015    78.090161  0.091655118   0.10995955            3 
   72000    1.1931544   -2.2308636    79.652383  0.092190258   0.10999517            1 
   73000    1.2174983   -2.2412479    80.216434  0.091571271   0.11003509            2 
   74000    1.1933151   -2.2470303    81.706254  0.092011546   0.11004546            2 
   75000    1.2392247   -2.2591648    82.577048  0.091752275   0.11002772            1 
   76000    1.2148845   -2.2549739    83.968183  0.092070376   0.10998497            2 
   77000    1.2365533   -2.2469616    85.629465  0.092672581   0.10996823            2 
   78000    1.1830499   -2.2632923    86.780414  0.092714117   0.10994464            1 
   79000    1.2284125   -2.2789294    87.998876  0.092825818   0.10992661            3 
   80000    1.2080508   -2.2573674    89.543988  0.093274987   0.10989824            2 
   81000    1.2074895   -2.2631325    90.427935  0.093032854   0.10988052            2 
   82000    1.2443802   -2.2577176    91.722772  0.093214198   0.10983447            1 
   83000      1.22349   -2.2715016    93.379547  0.093754564   0.10977899            1 
   84000    1.2538047   -2.2580542    94.280808  0.093532547   0.10973362            2 
   85000    1.2059651   -2.2408281    95.392759  0.093522312   0.10968984            1 
   86000    1.1987416    -2.256542    96.780772  0.093779817   0.10962374            2 
   87000    1.2381808   -2.2739688    98.043336   0.09391124    0.1095708            3 
   88000     1.228757   -2.2720891     99.54602  0.094267064   0.10952622            2 
   89000     1.228258   -2.2689942    100.82555  0.094405941    0.1094895            2 
   90000    1.2254075   -2.2663062    101.89641  0.094348525   0.10945017            2 
   91000    1.2254388   -2.2786665    103.25495  0.094555811   0.10941961            4 
   92000    1.2059926   -2.2498242    105.24837  0.095333672   0.10941278            1 
   93000    1.2112537   -2.2618275    106.57755  0.095499597    0.1094187            1 
   94000    1.1991767   -2.2521998    108.12102  0.095851964   0.10941396            2 
   95000    1.2380245   -2.2515374    109.54705  0.096093905   0.10944047            1 
   96000    1.2260176   -2.2700531    111.40437  0.096705186   0.10949284            2 
   97000    1.1976446   -2.2327665    113.01896  0.097095329   0.10955657            3 
   98000    1.2169351   -2.2681107    114.27897  0.097175993   0.10961734            2 
   99000    1.2150605   -2.2702112    115.10483  0.096889589   0.10967542            1 
  100000    1.2104349   -2.2717013    116.66984  0.097224863   0.10973298            1 
  101000    1.2422042   -2.2284337     118.4077  0.097696126   0.10979144            3 
  102000    1.2227308   -2.2560732    120.12407  0.098140577   0.10986579            1 
  103000    1.2085195    -2.271806    121.32043  0.098155686   0.10992694            1 
  104000    1.1998967   -2.2345236    121.75734  0.097561973   0.10996627            2 
  105000    1.2390012   -2.2420779    123.47469  0.097995781   0.10999321            4 
  106000    1.2041715   -2.2737775      124.506  0.097882072     0.109993            1 
  107000    1.2188197   -2.2575723    124.88968  0.097266107    0.1099986            1 
  108000    1.2323542   -2.2794666    126.47762  0.097590758   0.10999255            1 
  109000    1.2052059   -2.2602115    127.56587  0.097527424   0.10999984            2 
  110000     1.228979   -2.2731426     129.3424  0.097986665   0.10999962            2 
  111000    1.2152262   -2.2574103    130.80276  0.098200271   0.11000741            1 
  112000    1.2228631   -2.2726255     132.1929  0.098357813   0.11002884            2 
  113000    1.1986757   -2.2875319    133.54755  0.098486391   0.11004669            2 
  114000    1.2121129   -2.2566672    135.33557  0.098929506   0.11006228            1 
  115000    1.2150244   -2.2749524    135.92639   0.09849738   0.11008679            1 
  116000    1.1959478   -2.2518785    137.90555  0.099070077   0.11011109            1 
  117000    1.2101611   -2.2880816    139.00956  0.099009661   0.11013462            2 
  118000    1.1880695   -2.2761639    139.61384  0.098597346    0.1101437            2 
  119000    1.2117836   -2.2565971    142.16411  0.099554699   0.11014623            1 
  120000    1.2270466   -2.2848728    143.03753  0.099331621    0.1101596            1 
  121000    1.2236163   -2.2690902    143.84426  0.099066293   0.11016421            2 
  122000    1.2247045   -2.2452261    145.74367  0.099551687   0.11017441            1 
  123000    1.1789511   -2.2633838     146.9803  0.099580147   0.11019439       -1e+20 
  124000    1.1923195   -2.2613783    148.46913  0.099777639   0.11021389            1 
  125000    1.1949554   -2.2541442    148.47902   0.09898601   0.11021661            1 
  126000    1.2127066   -2.2644757    150.62503  0.099619728   0.11021721            3 
  127000    1.1720941   -2.2723077    151.76616  0.099584094    0.1102183            2 
  128000    1.2288703   -2.2657006    152.89807  0.099543014   0.11019853            1 
  129000    1.1904152   -2.2747289    153.21541  0.098976363   0.11017221            1 
  130000    1.2267717   -2.2711612     154.3407  0.098936343   0.11012477            2 
  131000    1.1935374   -2.2812619    156.23555  0.099386485   0.11007695            1 
  132000    1.1778548   -2.2667645    156.92988  0.099071891   0.11002096            2 
  133000    1.2174555   -2.2711198    159.16088  0.099724861   0.10997321            1 
  134000     1.210838   -2.2831893    159.82869  0.099395951   0.10993769            1 
  135000    1.1837621   -2.2830635    160.82644  0.099275579   0.10989474            2 
  136000    1.2041714   -2.2574117     161.9709  0.099246878   0.10984612       -1e+20 
  137000    1.1900006    -2.289141    162.71187  0.098973157   0.10980371            3 
  138000    1.2165765   -2.2820283    163.67644  0.098838431   0.10975954            1 
  139000    1.2271976   -2.2744399     167.0229   0.10013363   0.10972747            1 
  140000    1.2047834   -2.2662535    168.27976   0.10016652   0.10969939            1 
  141000    1.1914741   -2.2734267    168.64445  0.099671661   0.10966062            2 
  142000    1.1856779   -2.2610202     169.7409  0.099613205   0.10960967            2 
  143000    1.1865704   -2.2896135    170.26162  0.099220055   0.10956047            2 
  144000    1.1685231   -2.3017427    171.89453  0.099475998   0.10950945            1 
  145000    1.1891478   -2.2770544    173.82152  0.099897425   0.10946216            3 
  146000    1.1933398    -2.278168    174.70768  0.099718992   0.10941697            1 
  147000    1.2091711   -2.2979021    175.93225  0.099734836    0.1093696            1 
  148000    1.1779799   -2.2737874    177.47938  0.099932081   0.10932359            2 
  149000    1.1854816    -2.297748    178.44807  0.099803169   0.10928038            2 
  150000    1.2076601   -2.2791222    179.21636  0.099564643   0.10923725            1 
  151000    1.1995166   -2.2894524    181.52051   0.10017688   0.10919314            1 
  152000    1.1667663   -2.2829459    181.57038  0.099545165     0.109146            3 
  153000    1.2000096   -2.3084489    182.91851   0.09962882   0.10910857            1 
  154000    1.1683195   -2.2918479    185.30621   0.10027392   0.10908308            1 
  155000    1.1846121   -2.2764128    186.38302   0.10020593   0.10905531            1 
  156000    1.1883262   -2.2672559    187.78475   0.10031236   0.10903333            1 
  157000    1.2006897   -2.2518834    189.63761   0.10065691   0.10900787            1 
  158000    1.1706107   -2.3178906    189.81896   0.10011549   0.10898626            2 
  159000    1.1885978   -2.2745002    191.89915   0.10057607   0.10896393            3 
  160000     1.162358   -2.2936407    193.03225   0.10053763   0.10894233            4 
  161000    1.1860186   -2.2955769      193.486   0.10014803    0.1089198            2 
  162000    1.2027868   -2.2937968    195.59996   0.10061726   0.10890739            1 
  163000    1.1666441   -2.2916603     198.1964    0.1013274   0.10890732            2 
  164000     1.157427   -2.2813631     198.8293   0.10103115   0.10891416            1 
  165000    1.1898621   -2.2874562    200.44504   0.10123487   0.10891277            1 
  166000    1.1688041   -2.2914424    202.46305   0.10163808   0.10891349            1 
  167000    1.2123349   -2.2907071    203.32091   0.10145754   0.10891749            1 
  168000    1.1932611   -2.2887402     203.1687   0.10077813    0.1089105            1 
  169000     1.198093   -2.2744137    204.01683   0.10060001   0.10888994            2 
  170000    1.1886826    -2.296588    205.75108   0.10085837   0.10886322            2 
  171000    1.1974186   -2.2823536    206.62423   0.10069407   0.10883192            1 
  172000    1.1962359   -2.2886026    207.10088   0.10033957     0.108794            1 
  173000    1.1528682    -2.296193    209.04774   0.10069737   0.10875734            1 
  174000    1.1916832   -2.2773577    210.06061   0.10060374   0.10872675            1 
  175000     1.171314   -2.3107137    212.49691   0.10118901   0.10869663            1 
  176000    1.1840302   -2.2897195    213.56388   0.10111926   0.10866892            1 
  177000    1.2203641   -2.2801006    214.27925   0.10088477   0.10862973            1 
  178000    1.1910133   -2.2901249    215.06127   0.10068411   0.10859853            1 
  179000    1.1850437    -2.297302    215.73293   0.10043433   0.10857051            1 
  180000    1.1740528   -2.2766776    217.76496   0.10081711   0.10853777            2 
  181000    1.2238633   -2.2788917    219.22447   0.10093208   0.10851012            1 
  182000    1.1779056   -2.2792485    220.13638   0.10079505   0.10847931            1 
  183000    1.1769634   -2.3087054     221.5775    0.1009005    0.1084406            1 
  184000    1.1726584   -2.2888143     222.2174   0.10064194   0.10839678            3 
  185000    1.1818244   -2.2933087     223.1374   0.10051234   0.10835503            3 
  186000     1.144084   -2.2832948    223.86988   0.10030012   0.10831355            1 
  187000    1.1555815   -2.2894771     224.5712   0.10007629   0.10826848            1 
  188000    1.1832299   -2.3026096    225.88044   0.10012431   0.10821816            1 
  189000     1.200329   -2.3040781    227.32864   0.10023309   0.10816583            2 
  190000     1.173093    -2.283459    227.40989   0.09974118   0.10811138       -1e+20 
  191000    1.1813301   -2.3036697    230.63077   0.10062425   0.10805688            1 
  192000    1.1950382   -2.2982682    229.71349  0.099702034   0.10800117            1 
  193000    1.1789287   -2.2878264    231.95687   0.10015409   0.10795084            3 
  194000    1.1713879   -2.2946674    235.36642   0.10110242   0.10790413            3 
  195000    1.1852488    -2.294871    236.02753   0.10086646   0.10786345            2 
  196000    1.1684886   -2.2786275      236.239   0.10044175    0.1078195            1 
  197000    1.1588507   -2.2778278    237.74832   0.10057035    0.1077743            1 
  198000    1.1813319   -2.3241337    238.83075   0.10051799     0.107725            4 
  199000    1.1809395   -2.3066924    240.57402   0.10074289   0.10767377            2 
  200000    1.1693005   -2.3175075    240.03758   0.10001566   0.10762478            1 
  201000    1.2085241   -2.3168579    241.59948   0.10016562   0.10757233            3 
  202000    1.1743737   -2.3063037    243.05536   0.10027036   0.10752954            3 
  203000    1.1670856   -2.2908729     243.0012  0.099754188    0.1074781            1 
  204000    1.1435065   -2.3042934    245.12564   0.10013302    0.1074274            2 
  205000     1.200341   -2.3140562    245.98658  0.099994543   0.10737489            1 
  206000     1.164734   -2.3048606    248.53956   0.10054189   0.10733094            2 
  207000    1.1690486   -2.3288982      248.723   0.10013003   0.10728471            2 
  208000    1.1694035   -2.2912811    250.48333    0.1003539   0.10723864            1 
  209000    1.1798846   -2.2979429    250.80999   0.10000398   0.10718945            2 
  210000    1.1467855   -2.2941158    253.53363   0.10060858   0.10714123            2 
  211000    1.1513354   -2.2811412    254.45741   0.10049661   0.10710307            1 
  212000    1.1762502   -2.2815061    255.07817   0.10026657    0.1070623            1 
  213000    1.1710939   -2.2784813    257.48661   0.10073811   0.10702642            1 
  214000    1.1561925   -2.2737679    258.01825    0.1004744   0.10699106            1 
  215000     1.154404   -2.2951744    259.19739    0.1004641   0.10694776            1 
  216000    1.1510259   -2.2855855    259.54046   0.10013135   0.10690833            1 
  217000    1.1611787   -2.2966204    261.59491   0.10045887   0.10686465            1 
  218000    1.1881775   -2.3093769    261.36936  0.099911835   0.10682669            2 
  219000    1.1573079   -2.3059293    263.70211   0.10034327   0.10678283            2 
  220000    1.1690308   -2.3224817    264.31388   0.10011889   0.10673665            2 
  221000    1.1586786   -2.3257263    265.83846   0.10024075   0.10669334            2 
  222000    1.1600544   -2.3282633    267.01605   0.10023125   0.10664883            3 
  223000    1.1748289   -2.2755655    268.17697   0.10021561   0.10660291            3 
  224000    1.1605499   -2.3140492    268.62893  0.099936359   0.10655635            1 
  225000    1.1609633   -2.2864592    268.84456  0.099572058   0.10649656            1 
  226000     1.174922   -2.2874296    272.57785   0.10050806   0.10644068            1 
  227000    1.1502955    -2.304856    272.02229  0.099861339   0.10639284       -1e+20 
  228000    1.1656367   -2.2616957    274.39311   0.10028988   0.10634818            1 
  229000    1.1794842   -2.2733734     276.0764   0.10046448   0.10630814            2 
  230000     1.157852   -2.3058132    277.33373   0.10048324   0.10626747            1 
  231000    1.1401515   -2.3164051     276.1196  0.099610246   0.10622625            1 
  232000    1.1596236    -2.291387    280.74153   0.10084107   0.10618494            2 
  233000    1.1494027   -2.3130617    280.81093   0.10043309   0.10614396            2 
  234000    1.1810812   -2.3218651    281.27732   0.10016998   0.10610815            1 
  235000     1.146702   -2.3212179    283.22322   0.10043376   0.10607264            1 
  236000    1.1798942   -2.2967401    285.40637   0.10077909   0.10604574            2 
  237000    1.1584634   -2.3207615    287.55932   0.10111087   0.10601656            2 
  238000    1.1651366   -2.3362581    287.27867   0.10058777   0.10598786            3 
  239000    1.1357945   -2.3242866    288.07456   0.10044441   0.10595451            1 
  240000    1.1302077   -2.3050193    289.60086   0.10055586   0.10591546            1 
  241000    1.1527595   -2.3148818    288.63798  0.099805665   0.10587487            2 
  242000    1.1619177   -2.3140602    291.88993   0.10051306   0.10584194            2 
  243000    1.1421654   -2.3370851    293.23106   0.10055935   0.10580876            1 
  244000    1.1317693   -2.3168979     294.4635   0.10056814   0.10577984            1 
  245000    1.1677504     -2.31421    295.69131   0.10057528   0.10575274            1 
  246000     1.177082   -2.3476563    297.16456    0.1006655   0.10571789            2 
  247000    1.1603139   -2.3087277    297.08196   0.10023008   0.10568721            3 
  248000    1.1530857   -2.3439736    298.74799   0.10038575   0.10565979            4 
  249000    1.1358425   -2.3300646    300.20358   0.10046974   0.10563092            1 
  250000    1.1530512   -2.3445986    300.57509    0.1001917   0.10559719            1 
  251000    1.1561558   -2.2873384    302.87716   0.10055683   0.10556522            1 
  252000    1.1472422   -2.3400905    302.54562   0.10004815   0.10553691            1 
  253000    1.1604454   -2.3352719    305.07109   0.10048455    0.1055086            2 
  254000    1.1436268   -2.3338144     306.6375   0.10060285   0.10547892            4 
  255000    1.1521653   -2.3551632    307.43083   0.10046759   0.10544924            1 
  256000    1.1694365   -2.3570484    308.29397   0.10035611   0.10542007            1 
  257000    1.1741505   -2.3311334    309.63732   0.10040121   0.10538924            3 
  258000    1.1643094   -2.3143426     310.9339   0.10043085   0.10535859            4 
  259000    1.1414601   -2.3184994    312.32157   0.10048956   0.10532795            2 
  260000    1.1669559   -2.3332068    312.38564    0.1001236   0.10529701            4 
  261000    1.1633009   -2.3206861    312.80273  0.099873157   0.10526236            2 
  262000    1.1431219   -2.2955031    316.77176   0.10075438   0.10522787            3 
  263000    1.1707937   -2.3200657    315.28157  0.099899103   0.10519156            1 
  264000    1.1574347   -2.2878054    317.28775   0.10015396   0.10516097            2 
  265000    1.1423668   -2.3276766    319.23947   0.10038977   0.10512618            2 
  266000    1.1403455   -2.3209673    319.29222   0.10002889     0.105095            2 
  267000    1.1714911   -2.2882691     319.2721  0.099647972   0.10506183            1 
  268000    1.1504029    -2.345913    321.33742  0.099918352   0.10502618            1 
  269000    1.1557749   -2.3458756    322.69361  0.099967043   0.10499486            2 
  270000    1.1455575   -2.3014412     321.9771  0.099375648   0.10496463            2 
  271000    1.1735012    -2.354903    324.62627  0.099823576   0.10492724            2 
  272000    1.1499368   -2.3251281     325.6081  0.099757383   0.10488608            1 
  273000    1.1485225   -2.3253632    327.20086  0.099878162   0.10484687            1 
  274000    1.1388644   -2.3236904    327.55965  0.099622764   0.10480655            2 
  275000    1.1276377   -2.3471898    328.19942  0.099454368    0.1047675            2 
  276000    1.1438962   -2.3141349    330.00462  0.099639077   0.10472867            1 
  277000    1.1571646    -2.343407    330.46125  0.099416742    0.1046885            2 
  278000    1.1336058   -2.3010845    331.54873  0.099385112   0.10465153            1 
  279000    1.1187211   -2.3200536    333.12366    0.0994993   0.10461227            1 
  280000    1.1259618   -2.3390876    334.15222  0.099450067   0.10456836            2 
  281000     1.156168   -2.3249235    335.79926  0.099584598   0.10452617            2 
  282000    1.1583269   -2.3208159    338.28336  0.099965531   0.10448679            2 
  283000    1.1277997   -2.3249553    338.76943  0.099755426   0.10444864            2 
  284000    1.1293218   -2.3092352    340.41336   0.09988655   0.10441001            3 
  285000    1.1356751   -2.3366708    341.35487  0.099811365   0.10437325            1 
  286000    1.1200822   -2.3445084    341.29728  0.099445594   0.10433776            2 
  287000    1.1488604    -2.347059    341.25569  0.099087017   0.10430094            4 
  288000     1.140057   -2.3435487    344.30115  0.099624177   0.10426277            1 
  289000    1.1327628   -2.3480713    345.25344  0.099554047   0.10422208            2 
  290000    1.1281148    -2.360039    345.86104  0.099385355   0.10418095            2 
  291000     1.114279   -2.3513945    348.87921  0.099908137   0.10414138            2 
  292000    1.1398178   -2.3329001    348.96465  0.099590369   0.10410354            1 
  293000    1.1412889   -2.3557336     349.4051  0.099375739   0.10406862            2 
  294000    1.1255869   -2.3329915    351.81397  0.099720513   0.10403238            2 
  295000    1.1285544   -2.3250997    353.90777  0.099973946   0.10400141            2 
  296000    1.1572557   -2.3533521    353.58126  0.099544274   0.10397259            2 
  297000    1.1324553   -2.3220679    356.58356    0.1000515   0.10394501            3 
  298000    1.1139091   -2.3629946    358.66659   0.10029826   0.10391744            1 
  299000    1.1336805   -2.3476277    357.12397  0.099532879   0.10388721            1 
  300000    1.1166407   -2.3622594    359.90987  0.099974963   0.10386142            1 
  301000    1.1523772   -2.3335652    359.30032  0.099474063   0.10383599            1 
  302000    1.1398908   -2.3410106    361.99134  0.099887235   0.10380964            2 
  303000     1.121667   -2.3456114    363.81312   0.10005861   0.10378215            2 
  304000    1.1595109   -2.3437025    365.62865   0.10022715   0.10375589            1 
  305000    1.1320791   -2.3332341    365.58852  0.099887574   0.10373109            1 
  306000    1.1296161   -2.3903111    366.36338  0.099772162   0.10370577            1 
  307000    1.1308533   -2.3362508    370.09026   0.10045881   0.10368049            1 
  308000    1.1342489   -2.3613238    370.70912   0.10030009    0.1036563            5 
  309000    1.1356222   -2.2980541    370.47725  0.099912959    0.1036323            2 
  310000    1.1270837   -2.3571456     369.7868  0.099405052   0.10360281            4 
  311000     1.122716   -2.3261696    372.72896  0.099873783   0.10357434            2 
  312000    1.1215321   -2.3389974    374.10872  0.099922201   0.10354628            1 
  313000    1.1414532    -2.367561    373.14783  0.099347133    0.1035147            1 
  314000    1.1406162   -2.3639897    375.84165   0.09974566   0.10348133            2 
  315000    1.1386603   -2.3493321     377.8133  0.099950609   0.10345404            2 
  316000    1.1321003   -2.3590053    379.14304  0.099984979   0.10343066            2 
  317000     1.142083   -2.3658981    379.05073  0.099645302   0.10340552            4 
  318000    1.1243691   -2.3600511    380.15165  0.099620452   0.10337801            2 
  319000    1.1210662   -2.3369333    381.47003  0.099652568   0.10334923            2 
  320000    1.1226638   -2.3522464    382.65255  0.099649102   0.10332523            2 
  321000    1.1093722    -2.351972    383.75688  0.099625358   0.10330095            1 
  322000    1.1462632   -2.3612303    384.60162  0.099534581   0.10327708            3 
  323000    1.1386588   -2.3656137    384.71027  0.099254455   0.10325115            1 
  324000    1.1254808   -2.3544252    388.34645  0.099883345   0.10322825            1 
  325000    1.1238112   -2.3804077     387.0147  0.099234539   0.10320445            3 
  326000    1.1152513   -2.3570442    389.48199  0.099560836   0.10318317            3 
  327000    1.1473747   -2.3551341    391.83351  0.099855635     0.103162            3 
  328000    1.1096913   -2.3332034    392.91135  0.099825037   0.10314012            1 
  329000    1.1236311   -2.3413058    394.39657  0.099897813   0.10311933            5 
  330000    1.1207308   -2.3474975    394.25859   0.09956025   0.10309838            4 
  331000    1.1239963   -2.3302955    396.48414  0.099819773   0.10307675            1 
  332000    1.0992149   -2.3787142    396.75076  0.099586033   0.10305688            1 
  333000    1.1241254   -2.3784466    398.69273  0.099772956   0.10303467            3 
  334000    1.1290304   -2.3598764    398.16506  0.099342579    0.1030076            1 
  335000    1.1142045   -2.3082223    399.84719  0.099464475   0.10298306            1 
  336000    1.1248845   -2.3495709    404.00726   0.10020021   0.10296022            3 
  337000    1.1154765   -2.3329914    404.47054   0.10001744   0.10294426            1 
  338000    1.0991685   -2.3577055    405.02612  0.099858511   0.10292508            1 
  339000    1.1555086   -2.3860937    404.64795  0.099470981   0.10290555            2 
  340000    1.1247212   -2.3274613    407.49956  0.099877343   0.10288938            1 
  341000    1.1200582   -2.3782924    407.77734  0.099652332   0.10287231            1 
  342000    1.0898868   -2.3641033    409.79735  0.099853155   0.10285242            2 
  343000    1.1025494   -2.3559985    411.94534    0.1000839   0.10283718            2 
  344000    1.1143541   -2.3346867    413.30938    0.1001234   0.10282024            1 
  345000    1.0984039   -2.3547278    412.92937  0.099741393   0.10280324            2 
  346000    1.1239226   -2.3717712    414.93137  0.099935301   0.10278327            2 
  347000    1.1376662   -2.3605624     414.9146  0.099643275   0.10276773            3 
  348000    1.1112414   -2.3477687    415.79916  0.099568764    0.1027511            1 
  349000    1.1127067   -2.3491904    417.54547  0.099700445   0.10273253            3 
  350000    1.1112348   -2.3542244    419.70217  0.099929088   0.10271356            2 
  351000    1.1141363   -2.3756736    421.60872   0.10009704    0.1026937            1 
  352000    1.1255468   -2.3659213    421.68234    0.0998301   0.10267449            3 
  353000    1.1231639   -2.3387711    421.74919  0.099563076    0.1026548            2 
  354000    1.1070266   -2.4027852    423.66013  0.099731669   0.10263301            1 
  355000    1.1352743   -2.3653887    422.18349  0.099104105   0.10260982            2 
  356000    1.1146625    -2.378041    423.96316  0.099242312    0.1025861            3 
  357000    1.1021547   -2.3735935    426.36179  0.099524226   0.10256353            3 
  358000    1.1134774   -2.3607673    425.86967  0.099131674   0.10254107            1 
  359000    1.1253222   -2.3523006    429.17577  0.099622974   0.10251658            1 
  360000    1.0781444   -2.3587133    428.11802  0.099101394   0.10249157            3 
  361000    1.1132669    -2.364691    429.50498  0.099147041   0.10246285            3 
  362000    1.0924572   -2.3879358    427.92103  0.098508524    0.1024338            3 
  363000    1.1152698   -2.3708236    432.77168  0.099350706   0.10240921            3 
  364000    1.0946871   -2.3703439    432.20579  0.098948211   0.10238076            1 
  365000    1.0818572   -2.3653582    432.01674  0.098633958   0.10235235            1 
  366000    1.1116788    -2.366321    433.40558  0.098680688   0.10232277            2 
  367000    1.1081675   -2.3664695     434.7524   0.09871762   0.10229086            2 
  368000    1.0978701   -2.3762614    436.65449  0.098880092   0.10225976            2 
  369000     1.109446   -2.3820008    438.19968  0.098961084    0.1022274            3 
  370000    1.1012536   -2.3671705    437.48452   0.09853255   0.10219667            2 
  371000    1.1016023   -2.3933063    441.13451  0.099086818   0.10216705            2 
  372000    1.0934883   -2.3783595    439.57347  0.098470759   0.10213902            2 
  373000    1.0987074   -2.3709434    442.29221  0.098814166     0.102109            2 
  374000    1.1183552   -2.3735892    443.33974  0.098783364   0.10208103            2 
  375000    1.1173265   -2.3559075    444.08121  0.098684714   0.10204963            1 
  376000    1.1445747   -2.3538817    444.17434  0.098442894   0.10201672            1 
  377000    1.0946908   -2.3522065    445.54597  0.098484962   0.10198477            1 
  378000    1.1185167   -2.3682448    445.64078  0.098245322   0.10195331            1 
  379000    1.1154977   -2.4055365    445.97323  0.098059197   0.10191954            4 
  380000    1.0927232   -2.3831459    448.56112  0.098368666   0.10188421            1 
  381000    1.0868774   -2.3880272    448.03645  0.097995725   0.10185023            3 
  382000    1.1190377   -2.3767182     451.6557  0.098528731    0.1018135            2 
  383000    1.1046077   -2.3609655    452.73142  0.098505531   0.10178066            1 
  384000    1.0793911   -2.3717743    453.55347  0.098427403    0.1017478            1 
  385000     1.073922   -2.3863831    453.78353  0.098221543   0.10171437            2 
  386000    1.1172622   -2.3898995    454.66297  0.098156945   0.10168033            2 
  387000    1.1025338   -2.3615455     454.6319   0.09789662   0.10164634            1 
  388000    1.1031034   -2.3946583    456.31493  0.098005784   0.10161124            1 
  389000    1.0729356    -2.395899    456.97794  0.097895873   0.10157638            1 
  390000     1.098609   -2.3460723     458.7534   0.09802423   0.10153933            4 
  391000    1.1011218   -2.3719705    458.02241  0.097617734   0.10150347            2 
  392000    1.0985691   -2.3792981    462.72432  0.098368266   0.10146786            2 
  393000    1.1054407   -2.3916668    461.70891  0.097902653   0.10143341            2 
  394000    1.1063674   -2.3903218    462.84099   0.09789361   0.10139686            1 
  395000    1.0888266   -2.3513967    464.83886   0.09806727   0.10135965            1 
  396000     1.099582   -2.3589777    463.40597  0.097518092   0.10132416            4 
  397000    1.1067768   -2.3684568    467.33911  0.098098051   0.10128881            1 
  398000    1.1061968   -2.3971266    467.73306  0.097934058   0.10125493            1 
  399000    1.1133718    -2.389808    467.78203  0.097698837   0.10121964            3 
  400000    1.0751416   -2.3661728    469.13375  0.097736199   0.10118446            1 
  401000    1.0910096   -2.3799104    469.32515  0.097532242   0.10114885            2 
  402000    1.0806794   -2.3686371    471.65013  0.097771585   0.10111335            1 
  403000    1.0741683   -2.3855933     475.1767  0.098258209   0.10107837            1 
  404000    1.0864171   -2.3623312    476.27521  0.098241587   0.10104698            2 
  405000    1.0994842   -2.3923682    475.95733  0.097933607   0.10101493            1 
  406000    1.1027978   -2.3818047    476.02261  0.097705791   0.10098271            1 
  407000    1.0983354   -2.3789705    477.91131  0.097852438   0.10095132            3 
  408000    1.1011123    -2.389882      478.184  0.097668301   0.10091976            2 
  409000    1.0891197   -2.4010687    477.52711  0.097295662   0.10088793            2 
  410000    1.1070277   -2.3881163    479.57067  0.097473714   0.10085392            3 
  411000    1.1034477   -2.3774465    481.54294  0.097636443   0.10081986            1 
  412000    1.0926765   -2.4042337     482.7749  0.097648645   0.10078545            5 
  413000     1.087446    -2.420369    481.76231  0.097207891   0.10074803            1 
  414000     1.090544   -2.3933228    483.44999  0.097312799   0.10071142            2 
  415000    1.0862361   -2.3811518    483.23157  0.097034452   0.10067262            1 
  416000    1.0832237   -2.3835148    486.12421  0.097380651    0.1006371            1 
  417000    1.0885407   -2.3655008    487.99694  0.097521371   0.10060209            5 
  418000    1.0924618   -2.3941349     487.6096  0.097210846   0.10056812            3 
  419000    1.1022788   -2.3758776     487.5935  0.096975637   0.10053251            2 
  420000    1.1122514   -2.3740451    487.46923  0.096720085   0.10049284            2 
  421000     1.088696   -2.4162441    487.06909  0.096411142    0.1004513            1 
  422000    1.0827248   -2.3877615    490.77805  0.096915098   0.10041199            2 
  423000    1.0801688   -2.4014914    490.88522  0.096707096   0.10037179            5 
  424000    1.0913762   -2.4193522    491.47322   0.09659458   0.10033074            2 
  425000    1.0904573   -2.4009688    496.00972  0.097256807   0.10029322            3 
  426000    1.0801127   -2.3729315    496.29496  0.097084304   0.10025263            1 
  427000    1.0977804   -2.3846755    497.88519  0.097167289   0.10021359            2 
  428000    1.0843989   -2.4184908     496.2397   0.09661988   0.10017549            4 
  429000    1.1062863   -2.3976328    496.89805  0.096522543   0.10013972            1 
  430000    1.0886087   -2.4116471    500.79999  0.097054261   0.10010059            2 
  431000    1.0786976   -2.3888974    498.36512  0.096358298   0.10006143            1 
  432000    1.0762726   -2.3736537    500.70881  0.096587348   0.10002049            2 
  433000    1.0683219   -2.3886305    502.20416   0.09665207  0.099979115            2 
  434000    1.1056895   -2.4116978    502.86206  0.096555694  0.099938641            2 
  435000    1.0820967   -2.3886776    502.07369    0.0961827  0.099898518            1 
  436000    1.0860059   -2.3905848    504.53095  0.096431756  0.099860261            1 
  437000    1.0850444   -2.3979963    506.31352  0.096551014  0.099820642            1 
  438000    1.1037781   -2.3986811    504.94158  0.096069555  0.099780408            1 
  439000    1.0811936   -2.4110085    507.44519  0.096325965  0.099741808            1 
  440000    1.0903216   -2.4117112    507.68625  0.096152699  0.099703675            2 
  441000    1.0825242   -2.4065477    509.89119  0.096351321   0.09966231            1 
  442000    1.0928443   -2.4162079    511.95435  0.096522314  0.099621928            2 
  443000      1.10023   -2.4066175    512.30146  0.096369725  0.099582854            2 
  444000    1.0887552   -2.4162716     510.6942  0.095851014  0.099541715            1 
  445000    1.0783237    -2.391073    516.26118  0.096678123  0.099497537            3 
  446000    1.0854823   -2.3808694    512.82894  0.095820056  0.099453733            1 
  447000    1.0668094   -2.4087086    513.49137  0.095729189   0.09941042            3 
  448000    1.0696485    -2.407535    515.53598  0.095895829  0.099367915            1 
  449000    1.0728737   -2.3978838    514.05284  0.095406985  0.099322976            2 
  450000    1.0845205   -2.3999684    517.47795  0.095829251  0.099277949            2 
  451000    1.0632493   -2.4202966    514.50406  0.095067268  0.099233469            1 
  452000    1.0690783   -2.3965405    518.87382  0.095662578  0.099187129            3 
  453000    1.0652373   -2.3815413    518.66061   0.09541218  0.099142426            2 
  454000    1.0566153   -2.4106465     519.6526  0.095384105  0.099099294            2 
  455000    1.0894864   -2.3967327    521.55151  0.095522255  0.099055389            1 
  456000    1.0698094   -2.3662943    525.01962  0.095946567  0.099013523            2 
  457000    1.0751982   -2.3862773     524.4221  0.095627662  0.098973979            2 
  458000    1.1011191   -2.4078699    524.94288  0.095513625   0.09893294            1 
  459000     1.094056   -2.4126851    525.32648  0.095375179  0.098891057            2 
  460000    1.0325601   -2.4046608    525.26273  0.095156291  0.098847045            1 
  461000    1.0639798   -2.3862398    529.28235  0.095676492  0.098803247            1 
  462000    1.0527876   -2.4077646    529.00177   0.09541879  0.098761497            2 
  463000    1.0486721   -2.4239274    531.87694  0.095730191  0.098720227            1 
  464000    1.0683488   -2.4096163     531.2024   0.09540273  0.098679624            2 
  465000    1.0652423   -2.3948785    531.96195  0.095333682  0.098637715            1 
  466000     1.078916   -2.3831934    532.97433  0.095310144   0.09859679            1 
  467000    1.0543481    -2.418574    535.13347   0.09549134  0.098555517            3 
  468000      1.06662   -2.3931801    535.39136  0.095333219  0.098515623            1 
  469000    1.0485127   -2.4389015    536.76946  0.095374815  0.098474013            1 
  470000    1.0466437    -2.434932    534.88361  0.094837519  0.098433729            2 
  471000     1.065627   -2.4009476    537.71757  0.095137574  0.098392857            3 
  472000    1.0369004     -2.41009    539.44101  0.095240291  0.098351809            2 
  473000    1.0653102   -2.3856348    540.01629  0.095140291  0.098312346            3 
  474000    1.0263969   -2.4068255    542.08894  0.095303962  0.098272736            2 
  475000    1.0569354   -2.4434433    541.23612  0.094953705  0.098232036            3 
  476000     1.053036   -2.4162008    545.15847  0.095440909  0.098193336            1 
  477000    1.0609752   -2.4042544    543.58835  0.094966518  0.098156124            4 
  478000    1.0563859   -2.4395977    545.16325  0.095042408  0.098118359            2 
  479000    1.0351366   -2.4176051    545.98343  0.094986679  0.098080244            3 
  480000    1.0750963   -2.4131246    549.10848  0.095331334  0.098043038            2 
  481000    1.0668753   -2.4178663    549.55908  0.095211206  0.098004738            3 
  482000    1.0624469   -2.3969501    550.12088  0.095110801  0.097965803            1 
  483000    1.0522412   -2.4288057    548.59376  0.094650407  0.097926658            4 
  484000    1.0596647   -2.4452318     549.1954  0.094558436  0.097887806            3 
  485000    1.0722554   -2.4195745    552.50035  0.094931332  0.097850456            1 
  486000    1.0601789   -2.4199639    555.86871  0.095313565  0.097812233            2 
  487000    1.0459685   -2.4508827     553.6758  0.094742609  0.097773453            3 
  488000    1.0438353   -2.4234389     554.1812  0.094634768  0.097735271            4 
  489000    1.0300688   -2.3872192    555.74838  0.094708313   0.09769735            2 
  490000     1.073797    -2.391836    559.21175  0.095104039  0.097661137            1 
  491000    1.0490144   -2.4212427    560.36923  0.095106793  0.097625942            3 
  492000    1.0595686   -2.4275901     560.6039  0.094953236  0.097591246            3 
  493000    1.0560249   -2.4193904    562.45264   0.09507313  0.097556025            1 
  494000    1.0728528   -2.4293483    563.01616  0.094975736  0.097522209            2 
  495000     1.068531    -2.411411    564.75932  0.095077327  0.097489458            1 
  496000    1.0653728   -2.4449551    564.09035  0.094773245  0.097456072            3 
  497000    1.0580599   -2.4187854    566.63036  0.095008444  0.097422991            1 
  498000    1.0857493   -2.4259651    567.57073  0.094975022  0.097389678            1 
  499000    1.0444841   -2.4300541    566.30501  0.094573315  0.097357728            1 
  500000    1.0591918   -2.4100177    570.64841  0.095108068  0.097323615            3 
  501000    1.0579196   -2.4252333    571.19833  0.095009702  0.097290416            4 
  502000    1.0714446   -2.4094898    571.65065  0.094895526  0.097258912            2 
  503000    1.0506883   -2.4320871    571.61704  0.094701298  0.097226126            2 
  504000     1.080555   -2.4385233    572.47631  0.094655474   0.09719255            1 
  505000    1.0537875   -2.4407281    572.73724  0.094511095  0.097158294            4 
  506000    1.0487239   -2.4016449    575.33105   0.09475149  0.097123783            2 
  507000    1.0770292   -2.4149866    577.42767  0.094909216  0.097090094            4 
  508000    1.0546566   -2.4546488    575.14327  0.094347649  0.097055451            2 
  509000    1.0501217    -2.409475    575.47695  0.094216921  0.097018447            2 
  510000    1.0316091    -2.406125    579.12771  0.094628711  0.096980976            2 
  511000    1.0446714   -2.4410892    578.06176  0.094269694   0.09694267            4 
  512000    1.0459487   -2.4476403    576.74163  0.093870708  0.096902921            1 
  513000    1.0614355   -2.4371583    578.22621  0.093928885   0.09686261            1 
  514000    1.0548547   -2.4311805    578.15887  0.093735225  0.096823746            2 
  515000    1.0344765    -2.434278    580.10457  0.093868053   0.09678381            3 
  516000    1.0602949   -2.4466778    580.90723  0.093815767  0.096743793            1 
  517000    1.0788761   -2.3821551    584.11083  0.094150682  0.096704627            1 
  518000    1.0359433   -2.4112004    582.47074  0.093705075  0.096666227            1 
  519000    1.0637805   -2.4428477    585.27079  0.093974115  0.096625968            4 
  520000    1.0419678   -2.4221754    585.42126   0.09381751  0.096588416            2 
  521000    1.0397069   -2.4462614    587.22612  0.093926122  0.096550399            4 
  522000    1.0427831      -2.4534    585.87846  0.093531044  0.096512592            5 
  523000    1.0298137   -2.4526403    585.36744  0.093270784  0.096470824            6 
  524000     1.036325   -2.4300148    590.26857  0.093872227  0.096429688            1 
  525000     1.031019   -2.4219223    588.02378  0.093337108  0.096390625            4 
  526000    1.0394508   -2.4175243    589.24571  0.093353249  0.096350594            1 
  527000    1.0411533     -2.43636    591.42781  0.093521159  0.096311349            1 
  528000    1.0420214   -2.4370488    592.16703  0.093460705  0.096272549            2 
  529000    1.0342395   -2.4313505    594.45835  0.093644983   0.09623239            1 
  530000    1.0486239    -2.451092    594.20837  0.093428989  0.096193033            1 
  531000    1.0627261   -2.4774395    596.45285  0.093605281  0.096154324            4 
  532000    1.0571526   -2.4646777    596.96551  0.093509634  0.096114549            2 
  533000    1.0466789   -2.4413105    597.93621  0.093485962    0.0960763            1 
  534000    1.0560281    -2.432652    599.54784  0.093562396  0.096037489            1 
  535000    1.0279367   -2.4658241    598.67581  0.093251684  0.095997757            2 
  536000    1.0300301   -2.4477199    598.91137   0.09311433  0.095957774            2 
  537000    1.0362064   -2.4379368    602.58489  0.093511001  0.095917043            1 
  538000    1.0423064   -2.4386965    601.97316  0.093242435  0.095877198            2 
  539000    1.0247302   -2.4538282    600.27917  0.092807541  0.095837326            3 
  540000    1.0201881   -2.4022879     605.7557  0.093480818  0.095796676            1 
  541000    1.0492624   -2.4469923    602.74743  0.092844643  0.095754952            3 
  542000    1.0271488   -2.4592442    605.51865  0.093099423  0.095714368            3 
  543000    1.0179726   -2.4333728    605.57149  0.092936079  0.095674374            2 
  544000    1.0335029   -2.4416564     604.4649  0.092595726  0.095632322            1 
  545000    1.0301969   -2.4588455    605.55944  0.092593187  0.095591143            3 
  546000    1.0250518   -2.4567476    604.15645   0.09220947  0.095549166            1 
  547000    1.0460669   -2.4440054    604.79786  0.092138613   0.09550516            1 
  548000    1.0119119   -2.4486051     610.0147  0.092763792  0.095461233            2 
  549000     1.021512   -2.4376564     608.2606  0.092328567  0.095416906            2 
  550000    1.0281278   -2.4250363    607.65181  0.092068456  0.095373444            1 
  551000    1.0644696   -2.4613021    607.67254  0.091904497  0.095327423            3 
  552000    1.0395083   -2.4360506    611.76211  0.092355391  0.095283391            3 
  553000    1.0422685    -2.454936    612.02084  0.092227372  0.095239441            2 
  554000    1.0528296   -2.4699142    612.59378  0.092147079  0.095194813            1 
  555000    1.0202243   -2.4540318    612.67382  0.091993067    0.0951499            2 
  556000    1.0213157   -2.4116231    615.10961  0.092192688  0.095105287            2 
  557000    1.0571945    -2.444286    613.00866  0.091712846  0.095059374            1 
  558000    1.0455786   -2.4350524    614.76257  0.091810419  0.095013873            2 
  559000    1.0490422   -2.4435884    614.92649  0.091670616   0.09496752            2 
  560000     1.018019   -2.4628924    619.25645  0.092151258  0.094922694            2 
  561000    1.0242366   -2.4552192    619.32858  0.091997709  0.094879262            3 
  562000    1.0363567   -2.4530105    619.11487  0.091802324  0.094835745            2 
  563000    1.0207823   -2.4462863    622.65734  0.092163608  0.094792588            3 
  564000   0.99427945   -2.4533741    619.42677  0.091522867  0.094749481            2 
  565000    1.0335722    -2.462523    619.17271  0.091323409    0.0947051            4 
  566000    1.0225897   -2.4506111    623.68309  0.091826131  0.094659382            2 
  567000    1.0402206   -2.4562386     623.1077  0.091579615  0.094615736            3 
  568000    1.0158677   -2.4700175    626.35003  0.091894077  0.094572127            2 
  569000    1.0434479   -2.4452616     624.1412   0.09140908  0.094528309            3 
  570000    1.0239441   -2.4433412    628.40927    0.0918727  0.094484761            2 
  571000    1.0304509    -2.460842    624.64934  0.091163067  0.094440362            4 
  572000    1.0277842   -2.4659339    626.64188   0.09129398  0.094394788            2 
  573000    1.0150044   -2.4569644    628.82915  0.091452757  0.094350934            4 
  574000    1.0099616   -2.4476242    631.29665  0.091651663  0.094307419            2 
  575000    1.0249972    -2.467856    630.63914  0.091396976  0.094264126            2 
  576000    1.0278928   -2.4761426    632.10677  0.091450632  0.094220369            2 
  577000    1.0339878   -2.4435256    637.17774  0.092024515   0.09417866            1 
  578000     1.008303   -2.4687724      637.243  0.091874711  0.094138674            2 
  579000    1.0130234    -2.466453    637.50384  0.091753575  0.094099501            2 
  580000    1.0472847   -2.4809576    636.78569  0.091492197  0.094060577            2 
  581000   0.99822328   -2.4721059    637.28107  0.091405776  0.094020051            2 
  582000    1.0108569   -2.4634807    639.01535  0.091497044  0.093979456            1 
  583000    1.0257628   -2.4527598    636.88951  0.091036236  0.093937985            5 
  584000    1.0172988   -2.4634595    639.93087  0.091314337  0.093896029            2 
  585000    1.0221083   -2.4732973    642.54242  0.091530259   0.09385565            1 
  586000    1.0311753   -2.4595755    642.54495  0.091374424  0.093814038            2 
  587000    1.0155711    -2.458265     640.2223  0.090889027   0.09377239            1 
  588000    1.0117089   -2.4716982    643.64096  0.091218957  0.093732833            4 
  589000    1.0291569   -2.4699641    643.80497  0.091087291  0.093693219            2 
  590000     1.021655   -2.4858529     643.2103  0.090848912  0.093651341            3 
  591000    1.0226666   -2.4529383    646.10825  0.091103814  0.093610312            2 
  592000    1.0223198   -2.4717943    647.70179  0.091174239  0.093568476            1 
  593000    1.0112252   -2.4429566    648.90606  0.091189721  0.093529118            3 
  594000    1.0291415   -2.4486875    650.51203  0.091261508  0.093488995            2 
  595000    1.0254534   -2.5024213    650.40908  0.091093709  0.093448957            3 
  596000    1.0258587   -2.4752828    649.58474  0.090825607  0.093408029            2 
  597000    1.0135524    -2.457546    650.57488  0.090811681  0.093369178            2 
  598000    1.0199202   -2.4714055    652.59809  0.090941763  0.093329218            2 
  599000    1.0035603   -2.4787087    655.62874  0.091211567  0.093289411            5 
  600000    1.0201043   -2.4537666    654.40209  0.090889179  0.093250511            1 
  601000    1.0247789   -2.4871438    655.05268  0.090828159  0.093213229            3 
  602000    1.0194653   -2.4869238    657.48795  0.091014389  0.093175067            2 
  603000    1.0182466   -2.4872261    659.72471  0.091172569  0.093137316            2 
  604000   0.99800531   -2.4830923    656.65517  0.090598119   0.09309954            3 
  605000    1.0058414   -2.4395481    661.26938  0.091083936  0.093060482            2 
  606000    1.0165143   -2.4637933    659.65519  0.090711659  0.093022265            1 
  607000   0.98168786   -2.4685607    659.28395  0.090511251  0.092983526            3 
  608000    1.0226099   -2.4505374    662.49104  0.090801952  0.092944085            1 
  609000    1.0089018   -2.4554247    662.46141  0.090648798  0.092904834            3 
  610000    1.0101364   -2.4644677    662.61197  0.090520761  0.092864907            3 
  611000    1.0146717   -2.4729377    665.10665  0.090712854  0.092825498            2 
  612000    1.0162646   -2.4678334    662.78852  0.090248981  0.092785216            2 
  613000    1.0145087   -2.4622714    665.71624  0.090499761  0.092744444            2 
  614000    1.0131432   -2.4753069    667.47693  0.090591332  0.092704294            3 
  615000    1.0211184   -2.4797372     664.8743  0.090091369  0.092662466            3 
  616000    1.0152756    -2.513954    666.91873  0.090221689  0.092620955            2 
  617000     1.006827   -2.4722009    668.66428  0.090311221  0.092579749            1 
  618000   0.99513764    -2.461234    669.31384  0.090252675  0.092539457            2 
  619000    1.0142396   -2.4764313    669.29773  0.090104702  0.092499244            2 
  620000    1.0219835   -2.4746501    668.86156  0.089900748  0.092457742            2 
  621000   0.99046414   -2.4709664     673.1616  0.090333011  0.092416533            2 
  622000    1.0208408   -2.4788031    675.49858  0.090500881  0.092376919            3 
  623000   0.99162511   -2.4732852    673.26934  0.090057429  0.092336769            2 
  624000    1.0164067   -2.4647841    675.31669  0.090186524  0.092296529            3 
  625000    1.0209679   -2.4761022     673.6988  0.089826506  0.092257199            1 
  626000    1.0250523   -2.4712667    675.50443   0.08992338  0.092218528            2 
  627000    1.0024475   -2.4963671    677.38039  0.090029291  0.092178952            2 
  628000   0.99557059   -2.4889615    680.11413   0.09024869  0.092140327            2 
  629000    1.0132544   -2.4730779    677.31149  0.089733901  0.092100724            1 
  630000   0.99182637    -2.481608    680.92474   0.09006941  0.092062154            1 
  631000    1.0014047    -2.479365    680.88643   0.08992161  0.092022986            2 
  632000   0.99358026   -2.4828311    679.58916  0.089608275  0.091982479            5 
  633000    1.0067009   -2.4908146    679.18082  0.089412957  0.091941117            3 
  634000   0.98973278   -2.4785924    683.40932  0.089827724  0.091900287            2 
  635000     1.001265   -2.4609088    682.71377  0.089594983  0.091858076            3 
  636000   0.98734455   -2.4922853    682.86819  0.089474344  0.091815746            3 
  637000   0.98021451   -2.5019049    683.63713  0.089434475  0.091773006            3 
  638000    1.0116825   -2.4715549    685.73222  0.089567949  0.091731457            2 
  639000   0.98536097   -2.5124545    685.11662  0.089347498  0.091689176            3 
  640000   0.98668174   -2.4701536    682.59181  0.088879142  0.091646893            2 
  641000    1.0148454    -2.471632     686.1424   0.08920208  0.091604117            4 
  642000    1.0167261   -2.4903026    687.93936  0.089296386  0.091560867            1 
  643000     1.012837    -2.448592    687.98684  0.089163665  0.091517571            2 
  644000   0.97637121   -2.4953754    688.45947  0.089086371  0.091473934            2 
  645000   0.99668947   -2.4817939    687.65525  0.088844347  0.091430924            3 
  646000   0.97838254   -2.4706289    688.89395  0.088866608  0.091386525            2 
  647000   0.99913163    -2.496961    690.75048  0.088968377  0.091341931            1 
  648000   0.98294351   -2.4914686    691.57867  0.088937586  0.091298441            1 
  649000    1.0033986   -2.4807386    691.64906  0.088809586  0.091256063            2 
  650000   0.99985757    -2.503628    689.89562  0.088448156  0.091212318            4 
  651000    1.0168872   -2.4757601    689.88011  0.088310306  0.091168569            2 
  652000   0.97628191   -2.5056672    692.86535  0.088556409  0.091125325            5 
  653000    1.0047677    -2.504059    695.17423  0.088715446  0.091082009            2 
  654000    0.9978734   -2.4819868    697.15437  0.088832106  0.091039741            1 
  655000    1.0020111   -2.5050628    697.76022  0.088773565  0.090997963            2 
  656000   0.99550957   -2.4763033    696.58772  0.088489293  0.090956004            3 
  657000   0.99768467   -2.4764978    698.90327  0.088648309  0.090914808            2 
  658000    1.0084808   -2.4693451    699.98377  0.088650427  0.090873246            3 
  659000    1.0046491   -2.4983819     701.2949  0.088681702   0.09083265            2 
  660000   0.99173497   -2.5008407    700.96965  0.088506269  0.090791568            2 
  661000   0.98420529   -2.4943774    703.13463  0.088645313  0.090750949            6 
  662000    1.0009579   -2.4826743    702.77743  0.088466444  0.090709374            3 
  663000   0.96952587   -2.4775837    702.08122  0.088245503   0.09066753            2 
  664000   0.98134691   -2.5105446    705.23989  0.088509022  0.090625947            3 
  665000   0.99448165   -2.4960677    705.68991   0.08843232  0.090584378            2 
  666000   0.97454418   -2.5045199    706.58494  0.088411529  0.090544331            3 
  667000    1.0017029   -2.5078206    708.61856  0.088533054  0.090502874            2 
  668000   0.98482226    -2.497456    705.77708  0.088046043  0.090461242            1 
  669000   0.97048172   -2.4964329    707.05018  0.088073017  0.090419849            3 
  670000   0.98499287   -2.5071736    709.68369  0.088269116  0.090378829            7 
  671000   0.98126494   -2.4877571    710.30796  0.088215097  0.090337409            3 
  672000   0.99613791    -2.499853    710.50114   0.08810778   0.09029636            1 
  673000   0.98438442   -2.4831293    711.96053  0.088157569  0.090255443            3 
  674000   0.99901836    -2.511453    713.08165  0.088165387  0.090213795            1 
  675000   0.97742552   -2.5071868    710.69705  0.087740377  0.090172254            4 
  676000   0.97808288   -2.5194904    711.19124  0.087671504  0.090129221            2 
  677000   0.97672773   -2.5085438    715.21007   0.08803669  0.090085812            5 
  678000   0.98633913    -2.479533    716.89278  0.088113665  0.090044066            1 
  679000    1.0011625   -2.4935072    715.25604  0.087783019  0.090001971            2 
  680000   0.99119294   -2.4938303    716.99873  0.087867492    0.0899607            2 
  681000   0.99899512   -2.5066603    720.44883   0.08816065  0.089920314            2 
  682000   0.98984106   -2.5030193    718.78742  0.087828375  0.089879886            1 
  683000   0.98032634   -2.5047459    719.77638  0.087820446  0.089840618            2 
  684000   0.97530606   -2.5167047    719.90739  0.087708016  0.089801275            3 
  685000   0.99657434   -2.5034607    720.17964  0.087613095  0.089762207            2 
  686000    0.9600453    -2.502305    722.66019  0.087786709  0.089722506            2 
  687000    1.0035855   -2.4986554    723.55075  0.087766952  0.089683076            2 
  688000    0.9655898   -2.4756098    725.11876  0.087829307  0.089643555            4 
  689000   0.97003451   -2.4923928    723.83023  0.087545988  0.089604608            3 
  690000    0.9677104   -2.4920135    728.44712  0.087976705  0.089564989            3 
  691000   0.97887384   -2.5093709    731.87897  0.088263262  0.089527119            1 
  692000   0.99135745   -2.5380181    728.82481   0.08776792  0.089489422            2 
  693000   0.98072707   -2.5231192    731.65608  0.087981732  0.089449695            2 
  694000     0.947376   -2.5032082    727.36414  0.087339594  0.089412718            2 
  695000   0.96084534   -2.5015811     732.8659  0.087873608  0.089374501            2 
  696000   0.98136621   -2.4821127    732.31491  0.087681383  0.089336452            2 
  697000   0.97642579   -2.5183166    732.39632  0.087565319  0.089297056            2 
  698000   0.96518435   -2.5111554    733.27234  0.087544453  0.089259608            4 
  699000   0.97690146   -2.4924215    734.14643  0.087523418  0.089222087            2 
  700000    0.9748335   -2.4919243    737.38975  0.087784494  0.089184132            2 
  701000   0.97606267   -2.5096201    738.54812   0.08779697  0.089147106            4 
  702000   0.96925239   -2.5266209    735.74627  0.087339301  0.089110079            2 
  703000   0.95034945   -2.5004699     742.0111  0.087957693  0.089073248            2 
  704000   0.98223894   -2.5254029    739.58702  0.087545812  0.089036746            3 
  705000   0.95033574   -2.5267668    741.29933  0.087624034  0.089001419            3 
  706000   0.96229102   -2.5244634    739.17088  0.087248687  0.088965957            2 
  707000   0.94517305   -2.5187789    739.81911  0.087201687  0.088929805            2 
  708000    0.9686867   -2.5077276    746.91479  0.087913699  0.088893624            6 
  709000   0.96239221   -2.5143908    743.74766   0.08741745  0.088856742            3 
  710000   0.97956389   -2.5216605    743.98654  0.087322364  0.088820195            1 
  711000   0.97514294   -2.4808785    744.36384   0.08724377  0.088783951            3 
  712000   0.95969758   -2.5125494    746.02164  0.087315267  0.088746844            3 
  713000   0.98162045   -2.5165578    744.60564  0.087027307  0.088709691            2 
  714000    0.9775452   -2.5014215    746.19043  0.087090386  0.088672088            2 
  715000   0.95974954   -2.4931421    743.83135   0.08669363  0.088633436            1 
  716000   0.98264404   -2.4976717    748.18072  0.087078762  0.088596051            1 
  717000   0.97987162   -2.5314903     742.5245  0.086299919  0.088557236            2 
  718000   0.95391142   -2.5479774    746.77061  0.086672541  0.088517794            2 
  719000   0.95361278   -2.5337253    746.89045  0.086565885  0.088478587            3 
  720000   0.97500071   -2.5194787    751.34549  0.086961284  0.088439841            2 
  721000   0.98879902   -2.5102501    748.70499  0.086535482  0.088400909            3 
  722000   0.96196687   -2.5159338    751.01503  0.086682252  0.088363348            4 
  723000   0.97992262   -2.5156746    751.23038  0.086587181  0.088324697            4 
  724000   0.97193118   -2.5086355    752.22281  0.086581815  0.088286222            3 
  725000   0.96648138   -2.5430894     750.5375  0.086268678  0.088248228            5 
  726000   0.96242181   -2.5222213    753.85684  0.086530859   0.08821003            4 
  727000   0.94816103   -2.5396702    752.95179  0.086308091  0.088171743            1 
  728000   0.96591164   -2.5222927    757.89746  0.086755661  0.088132933            1 
  729000   0.96368355   -2.5458293    754.23312  0.086217777  0.088093411            2 
  730000    0.9827951   -2.5078864     758.8665  0.086628596  0.088055716            2 
  731000   0.95000576   -2.5312573    760.01321  0.086640813  0.088017943            2 
  732000   0.98478363   -2.5318067    757.21617  0.086204027  0.087979471            2 
  733000   0.97363548   -2.5073998    758.79184  0.086265557  0.087940852            1 
  734000   0.98302348   -2.5254243    759.61622  0.086241624  0.087902601            4 
  735000   0.97008876     -2.51424    760.71363  0.086248711  0.087864039            3 
  736000   0.95341174   -2.5393515    761.66593  0.086239349   0.08782492            2 
  737000   0.92832108   -2.5263332    759.46713  0.085873714  0.087786332            1 
  738000   0.95801501   -2.5274552     763.4489  0.086206967  0.087747889            5 
  739000   0.97053812   -2.5256585    761.77586  0.085901653  0.087709392            1 
  740000   0.94930933   -2.5353641    764.24605  0.086063745  0.087669831            2 
  741000    0.9619315   -2.5122219    765.06087  0.086039234  0.087630385            1 
  742000   0.95995742   -2.5303605    763.68852  0.085769151  0.087589886            5 
  743000   0.95647979   -2.5538246    762.47302  0.085517387  0.087549143            2 
  744000   0.95704863   -2.5339561    760.64888  0.085198127  0.087508064            2 
  745000   0.93870992   -2.5454021    766.91483  0.085784657  0.087466717            1 
  746000   0.96507263   -2.5241662    768.29449  0.085823781  0.087426445            2 
  747000   0.95843239   -2.5419129    767.30673  0.085598699  0.087386033            2 
  748000   0.96340178   -2.5536672    769.22766  0.085698269  0.087345957            2 
  749000   0.96055661   -2.5466158    771.21298  0.085804738  0.087306845            1 
  750000   0.95215538   -2.5521108    769.00854  0.085445393   0.08726609            2 
  751000   0.96023918   -2.5210183    773.04383  0.085779387  0.087226101            2 
  752000    0.9434165   -2.4936547    772.02747  0.085552689  0.087187373            4 
  753000   0.96574258    -2.574178    773.19702  0.085568506  0.087147688            2 
  754000   0.96151048   -2.5481152     773.0705  0.085441036  0.087107515            4 
  755000   0.95209439   -2.5537793    774.20715  0.085453328  0.087068074            1 
  756000   0.95244589   -2.5354398    775.47951  0.085480545  0.087028449            2 
  757000   0.96676066   -2.5515483    773.30286  0.085128012  0.086989202            3 
  758000   0.95747217   -2.5476765    775.42032  0.085248496  0.086950083            5 
  759000   0.96058847   -2.5559706    772.76208  0.084844321  0.086910202            3 
  760000   0.95113501   -2.5525007    773.22621  0.084783576   0.08687106            2 
  761000   0.94264272   -2.5403496    777.14725  0.085101538   0.08683124            3 
  762000   0.93936055   -2.5337005    776.66045  0.084936619  0.086790929            3 
  763000   0.93729499   -2.5405971    780.05224  0.085195745  0.086750992            2 
  764000    0.9290587   -2.5641719    779.51434   0.08502556  0.086710517            3 
  765000   0.95812323   -2.5193657    781.53881  0.085134947  0.086671119            2 
  766000   0.92448343   -2.5533163    780.79861  0.084943278   0.08663159            2 
  767000   0.93856444   -2.5555106    779.30679  0.084670446  0.086590687            2 
  768000   0.92400804   -2.5242088    781.22893  0.084768765  0.086550162            1 
  769000   0.94948052   -2.5551336    782.10584  0.084753559  0.086509855            2 
  770000   0.95243997   -2.5572544    784.13269  0.084862845   0.08646848            3 
  771000   0.92639749   -2.5369421    782.85492  0.084614669  0.086427456            3 
  772000   0.94043383   -2.5582812    779.51034  0.084144035  0.086385905            3 
  773000   0.96491821   -2.5776987    784.26697   0.08454797  0.086344927            1 
  774000   0.95800726   -2.5455804     783.2001  0.084323869  0.086303814            2 
  775000   0.92490279   -2.5497854    785.24569  0.084435021  0.086263226            3 
  776000   0.95847651   -2.5613552     786.2373    0.0844327  0.086223538            2 
  777000   0.93953928   -2.5488742    788.26403  0.084541401  0.086182978            1 
  778000   0.93931141   -2.5518797    787.57941  0.084359406  0.086142742            1 
  779000   0.95299175   -2.5399584     790.5787  0.084571962  0.086103484            5 
  780000    0.9669815   -2.5513896    791.96911  0.084612085  0.086063969            2 
  781000   0.93206745   -2.5372139    793.55692  0.084673167  0.086023501            1 
  782000   0.94116151   -2.5483395    794.72391  0.084689249  0.085984076            4 
  783000   0.91905323   -2.5575629    794.30276  0.084536266  0.085944691            3 
  784000   0.93085835   -2.5437543    792.10509  0.084194843  0.085905936            3 
  785000    0.9384464   -2.5619716    794.55879  0.084348067  0.085867446            4 
  786000   0.94540052    -2.565404    795.96049  0.084389365  0.085828486            2 
  787000   0.94937602   -2.5576214    793.03946  0.083972835  0.085789975            3 
  788000   0.94007423   -2.5556423    797.64602  0.084353428   0.08575096            2 
  789000   0.94143261   -2.5811415    795.78137  0.084049574  0.085712081            2 
  790000   0.93654564   -2.5771433    797.67702  0.084143145  0.085672705            2 
  791000   0.92237881   -2.5513922    797.51696  0.084019908  0.085634087            4 
  792000   0.94471873   -2.5631323    798.93727  0.084063265  0.085596275            3 
  793000   0.93688702   -2.5417863    796.32013  0.083682233   0.08555748            3 
  794000   0.92816667   -2.5641148    799.87207  0.083949629  0.085517873            2 
  795000   0.92606279   -2.5517534    804.50607  0.084329776  0.085479623            2 
  796000   0.95290923   -2.5567251    804.13578   0.08418507  0.085441269            1 
  797000   0.93035164   -2.5603569    803.51255  0.084014277   0.08540383            4 
  798000   0.93551093   -2.5510303    803.70006  0.083928578  0.085365864            4 
  799000   0.92297737   -2.5541106    803.41543  0.083793849  0.085327839            3 
  800000   0.94734603   -2.5564005    804.96427  0.083850445  0.085289435            2 
  801000   0.94134257   -2.5523445    806.49389  0.083904899  0.085250744            2 
  802000   0.93991008   -2.5453055    808.92723   0.08405312  0.085212747            2 
  803000   0.91800374   -2.5647318    808.25997    0.0838792  0.085174865            2 
  804000    0.9251478   -2.5494017    808.03401  0.083751452  0.085137553            3 
  805000   0.94086415   -2.5625624    812.23413  0.084082208  0.085099388            3 
  806000   0.93482048   -2.5700764    809.55295  0.083700677  0.085061181            2 
  807000   0.92776647   -2.5622275    811.76662  0.083825549  0.085023407            2 
  808000   0.91286293   -2.5485145    809.49557   0.08348758  0.084984563            1 
  809000   0.92994968   -2.5735035    811.41245  0.083581834  0.084946618            6 
  810000   0.91578658   -2.5912887    811.18374  0.083455118   0.08490759            3 
  811000   0.94880861   -2.5546394    814.28186  0.083670557  0.084868691            1 
  812000   0.92554088   -2.5797912    809.91686  0.083119547  0.084830036            5 
  813000   0.91233943   -2.5747277     814.0432  0.083440262  0.084790704            2 
  814000   0.94155906   -2.5555442    811.09502  0.083035936  0.084751012            4 
  815000   0.93015923   -2.5672246    816.49278  0.083485969  0.084711503            2 
  816000   0.92666921   -2.5918712    814.31198  0.083160946  0.084672863            2 
  817000   0.90893691   -2.5305805    818.84672  0.083521697  0.084635201            2 
  818000   0.92370348   -2.5765002    817.27786  0.083259765  0.084596488            1 
  819000   0.94135069   -2.5757598    818.40344  0.083272633  0.084559127            2 
  820000   0.90356998   -2.5523929    819.00571  0.083232288  0.084521889            2 
  821000   0.92491176   -2.5551334    821.69835  0.083404218  0.084483984            3 
  822000   0.90386818   -2.5704689    819.18398  0.083047848  0.084445387            2 
  823000   0.94920475   -2.5611994    821.74432  0.083206189  0.084407641            1 
  824000   0.91982206   -2.5676911     820.6861  0.082998189  0.084369841            6 
  825000   0.94399381   -2.5758411     820.4427     0.082873  0.084331297            4 
  826000   0.92861721   -2.5663139    819.72144  0.082699903  0.084291793            3 
  827000   0.93491464   -2.5895133    822.24395  0.082854086   0.08425228            4 
  828000   0.90874422   -2.5609125     819.3922  0.082467009  0.084213059            4 
  829000    0.9251892   -2.5790149    824.80997   0.08291214  0.084173344            2 
  830000    0.9281278   -2.6059346    820.72688  0.082402298  0.084134248            2 
  831000   0.92049758   -2.5524666    822.44655  0.082475587  0.084095424            2 
  832000   0.90382307   -2.5946559     824.1754  0.082549619  0.084055825            4 
  833000   0.92390765   -2.5845967    825.07271  0.082540287  0.084016256            1 
  834000   0.93345382   -2.5755425     826.5148  0.082585412  0.083976946            3 
  835000   0.93593655   -2.5745609    828.40876  0.082675525  0.083937362            3 
  836000   0.91176303    -2.586247    826.95192  0.082431412  0.083898166            3 
  837000   0.90935193   -2.5495248    826.92559  0.082330305  0.083859418            1 
  838000   0.92265931      -2.5505    826.60835  0.082200512  0.083820396            7 
  839000   0.91726144   -2.5740557    829.80782  0.082420323  0.083781564            2 
  840000   0.93975695   -2.5692319     830.6034  0.082401131  0.083743701            3 
  841000   0.93555902   -2.5792197    830.04451  0.082247771  0.083704953            2 
  842000   0.90543406    -2.555714    834.65507  0.082606401  0.083666465            3 
  843000   0.92029643   -2.5849348    833.33419  0.082377836   0.08362852            1 
  844000   0.90727966   -2.5821271    831.84812  0.082133503  0.083590526            3 
  845000   0.92275846   -2.5711289    835.33104  0.082379787   0.08355235            2 
  846000   0.91155881   -2.5930241    831.75834   0.08193049  0.083513914            3 
  847000   0.90070785   -2.5592132    839.00654  0.082546885  0.083475387            3 
  848000   0.92045822   -2.5815114    834.85308  0.082041379  0.083436486            8 
  849000   0.90004212   -2.6059865    833.41984  0.081804068  0.083398102            3 
  850000   0.91648258    -2.595868    837.23129  0.082081498  0.083358877            1 
  851000    0.9449656   -2.5925495     839.6589  0.082222767  0.083321463            5 
  852000   0.93117557   -2.5966237    838.33009  0.081996292  0.083283379            3 
  853000   0.93851422   -2.5954009    839.30145  0.081995062  0.083245932            2 
  854000   0.89375919   -2.5820053    839.42636  0.081911237  0.083208365            3 
  855000   0.92247537   -2.5724408    840.38404  0.081908776  0.083170426            2 
  856000     0.913991   -2.5888078    839.83266   0.08175941  0.083132054            2 
  857000   0.91450193   -2.6039634     842.3955  0.081913215  0.083092845            1 
  858000   0.91813459   -2.5826112    840.51496  0.081635097  0.083053887            5 
  859000   0.90392451   -2.5977447    842.50103  0.081732735  0.083015181            2 
  860000    0.9114273   -2.5707917    845.11039  0.081890541  0.082977142            1 
  861000   0.94553783    -2.583928    843.80887  0.081669461  0.082939734            3 
  862000   0.89865586   -2.5834265     843.0783  0.081504089  0.082902438            2 
  863000   0.91347482   -2.5974926    848.57765  0.081940676  0.082865369            3 
  864000    0.9193927   -2.5996439    846.25549  0.081621864  0.082827232            2 
  865000   0.91652329   -2.5633459    847.46961  0.081644471  0.082790391            5 
  866000   0.89983533   -2.5822705     848.6436  0.081663164  0.082753119            1 
  867000   0.90468649   -2.6094041    849.47963   0.08164933  0.082715718            2 
  868000   0.92230542   -2.5870528    849.92457  0.081597981  0.082678396            4 
  869000   0.91047525   -2.6008153    852.97157  0.081796276  0.082641174            3 
  870000   0.90286169   -2.5949436     852.3681  0.081644454  0.082603661            4 
  871000   0.89764837   -2.5880338    853.74123  0.081682093  0.082567046            4 
  872000    0.9207106   -2.6216516    850.81136  0.081308425  0.082530345            3 
  873000   0.89494616   -2.6037382    850.44319  0.081180144  0.082493571            2 
  874000   0.90623152   -2.5936021     853.0661  0.081337347  0.082456347            2 
  875000   0.89364295   -2.5888827    853.42557  0.081278625  0.082419624            3 
  876000     0.892269   -2.6036949    854.27089  0.081266257  0.082382774            2 
  877000    0.8802544   -2.6075256    855.40823  0.081281664  0.082345599            2 
  878000   0.91452464   -2.5821574    858.48546  0.081481156   0.08230931            2 
  879000   0.91324427   -2.5983059    856.40869   0.08119157  0.082272342            4 
  880000    0.9189161   -2.6053253    855.81038   0.08104265  0.082235951            5 
  881000   0.90259355   -2.6165734    857.39402  0.081100456  0.082198662            2 
  882000   0.90486917   -2.5872422    859.89557  0.081244857  0.082161579            1 
  883000   0.89244444   -2.6023365    855.80711  0.080766998  0.082124138            4 
  884000   0.88872854   -2.5953162    859.85846  0.081057547  0.082086849            2 
  885000   0.89909931   -2.6042002    860.31157  0.081008622   0.08204983            1 
  886000    0.8879539   -2.6022009    856.02367  0.080513889  0.082011732            2 
  887000   0.92127244   -2.6098972    864.07132  0.081179192  0.081974279            2 
  888000   0.88455067   -2.6147356    860.78808  0.080779663    0.0819367            6 
  889000   0.88998056   -2.5868402    861.94966  0.080797681  0.081900056            9 
  890000    0.8867636   -2.6143347    859.76847  0.080502666  0.081862663            4 
  891000    0.8976576   -2.5983656    859.75824  0.080411358  0.081825208            3 
  892000   0.88918034   -2.6098273    862.73049  0.080598888  0.081788092            2 
  893000   0.89212997   -2.6063365    863.02648  0.080536253  0.081751668            1 
  894000   0.89076739   -2.6102737    867.11892   0.08082764  0.081714933            2 
  895000   0.89390956   -2.6275783    866.94459  0.080721097  0.081677615            2 
  896000   0.90714585   -2.6180929    865.74633  0.080519562  0.081640086            2 
  897000   0.88406262    -2.614515    867.03732  0.080549733  0.081602581            2 
  898000   0.89435909   -2.5797524    866.90095  0.080447378  0.081564904            2 
  899000   0.90779957   -2.6109717    863.55853  0.080048066  0.081526788            2 
  900000   0.90687481   -2.5946738    864.62676  0.080058034  0.081488694            2 
  901000   0.87633485    -2.595339    868.20228  0.080299878  0.081451687            2 
  902000    0.9105562   -2.6178426    865.47956  0.079959309  0.081414163            3 
  903000   0.89461014   -2.6159084    867.95866  0.080099544  0.081375585            4 
  904000   0.88113143   -2.6330466    868.22017  0.080035045  0.081336548            2 
  905000   0.87518033   -2.5791856    866.18148  0.079758884  0.081297365            2 
  906000    0.8845511   -2.5955094    871.32435  0.080143888  0.081259447            3 
  907000   0.88554846   -2.6136216     867.7377  0.079725992  0.081221463            2 
  908000   0.90571782   -2.6046528    871.39097  0.079973474  0.081183313            4 
  909000   0.88642404   -2.6292203    873.92957  0.080118223  0.081145348            2 
  910000   0.90183874   -2.5811392    875.60962  0.080184031  0.081108229            3 
  911000   0.87755447   -2.6081057    872.46175  0.079808064  0.081070878            2 
  912000   0.87015148   -2.6296761    872.82973  0.079754178  0.081033419            1 
  913000    0.8980744   -2.5972042    875.90446  0.079947468  0.080996034            3 
  914000   0.87090352   -2.6106558    875.56981  0.079829487  0.080959086            7 
  915000   0.87186816   -2.6163915     877.1114  0.079882641  0.080921945            3 
  916000   0.88879219   -2.6133177    876.45238  0.079735479  0.080884444            2 
  917000   0.88263498   -2.6124227    879.37244  0.079913889   0.08084708            6 
  918000   0.88709757   -2.6038323    880.18814  0.079900884  0.080810053            3 
  919000   0.90176576   -2.6115328    880.40231  0.079833361  0.080772571            1 
  920000   0.88289243   -2.6188579     881.0768  0.079807682  0.080735982            2 
  921000   0.88301163    -2.626958    878.24092  0.079464433  0.080698551            4 
  922000   0.90774278   -2.6321863    879.94345  0.079532126  0.080660966            2 
  923000   0.87899946   -2.6241292    882.02579  0.079633964  0.080623801            3 
  924000   0.88482391   -2.5856015    886.18121  0.079922547  0.080586836            2 
  925000   0.88754191   -2.6075297    882.98715  0.079548392  0.080549744            2 
  926000   0.88464787   -2.6121842    885.63638  0.079700898  0.080512907           12 
  927000   0.89617624   -2.6230843    886.28036  0.079672812  0.080476733            3 
  928000   0.87248727    -2.618056    883.02652  0.079294767  0.080441131            3 
  929000   0.87813625   -2.6146521    887.24616  0.079587923  0.080404701            3 
  930000   0.88915625   -2.6237601    886.50224  0.079435685  0.080368595            2 
  931000   0.87931815   -2.6161676    888.72385  0.079549217  0.080332562            2 
  932000   0.85801842   -2.6126206    884.58247  0.079093569  0.080295786            4 
  933000   0.89939168   -2.6370079    885.40788  0.079082519  0.080259129            3 
  934000   0.87911591   -2.6427711    892.13612  0.079598155  0.080221902            3 
  935000   0.87634165   -2.6251334    888.69535  0.079206359  0.080185779            4 
  936000   0.87740363   -2.6293001    894.05685  0.079599079  0.080149852            2 
  937000   0.89061633   -2.6206624    895.15393  0.079611698  0.080114354            2 
  938000   0.87833814   -2.6251309    895.63835  0.079569861  0.080079131            2 
  939000   0.88847206   -2.6376242     894.3885  0.079374201  0.080043714            3 
  940000   0.88057015   -2.6480018     893.0983  0.079175381  0.080008198            3 
  941000   0.88142197   -2.6337905    892.80041  0.079064861  0.079973049            2 
  942000   0.88052368   -2.6354588    896.11882  0.079274488  0.079937642            4 
  943000   0.88441897   -2.6770186    893.62532   0.07897007  0.079902057            3 
  944000   0.86952137   -2.6084254    893.86503  0.078907576  0.079866369            5 
  945000   0.88414145   -2.6395419    893.00262  0.078748026   0.07983043            4 
  946000   0.85791347   -2.6237988      900.426   0.07931871  0.079795435            3 
  947000   0.87451382   -2.6018638     899.1533  0.079122959  0.079760709            4 
  948000   0.88576545   -2.6228545    902.19647  0.079307003  0.079726185            6 
  949000   0.88622678   -2.6189369    897.75715   0.07883361  0.079691227            9 
  950000   0.87793739   -2.6270231    899.34067  0.078889533  0.079656115            2 
  951000   0.88337219   -2.6528065    899.76484  0.078843747  0.079620558            3 
  952000   0.89078358   -2.6240336    900.21715  0.078800521  0.079585327            3 
  953000   0.86461036   -2.6255428    902.26524  0.078896925  0.079550516            2 
  954000   0.88666305   -2.6617404    902.74224  0.078855891  0.079515908            2 
  955000   0.84896577    -2.621923    904.07417  0.078889544   0.07948036            2 
  956000   0.87620801   -2.6335353    900.47292  0.078493107  0.079444516            3 
  957000   0.86611134   -2.6105128    905.94924  0.078887952  0.079408788            4 
  958000   0.88104147   -2.6392859    901.45715  0.078414853  0.079373299            5 
  959000   0.86926665   -2.6402723    902.50726  0.078424336  0.079337195            2 
  960000   0.87672016   -2.6449322    903.32671  0.078413777  0.079300964            4 
  961000   0.89559556   -2.6439827    903.72949  0.078367108  0.079264849            4 
  962000   0.89717582   -2.6344965    906.99248  0.078568302  0.079228521            2 
  963000   0.87535623   -2.6457621    906.82043  0.078471827  0.079192561            2 
  964000   0.87130917   -2.6410601    909.02534  0.078581029  0.079156776            7 
  965000   0.86448626   -2.6413148    903.93483  0.078060003  0.079121083            3 
  966000   0.86263349    -2.642645    907.86453  0.078318197  0.079086018            3 
  967000   0.87337774   -2.6244019    909.22788  0.078354695  0.079050935            2 
  968000   0.85728963   -2.6282442    912.70307  0.078572923  0.079015504            3 
  969000   0.86377107   -2.6448653    911.78864  0.078413196  0.078980568            4 
  970000    0.8548638   -2.6546373    912.80606  0.078419764  0.078945828            1 
  971000   0.86733753   -2.6449553    912.36768   0.07830138   0.07891068            4 
  972000    0.8715606   -2.6354922    917.14608  0.078630494  0.078876181            3 
  973000   0.86669142   -2.6370792    913.41047  0.078229742  0.078841634            5 
  974000   0.84753335   -2.6219334    918.36157   0.07857303  0.078807579           10 
  975000    0.8605837   -2.6592903    915.79399  0.078272991  0.078773026            4 
  976000   0.86341726   -2.6446599     917.4641  0.078335391    0.0787385            4 
  977000   0.86033802   -2.6418683    917.10719  0.078224769  0.078704399            2 
  978000   0.86425692    -2.648547    914.72607  0.077941894  0.078669892            2 
  979000   0.86893856   -2.6563339    918.66019  0.078197156  0.078635533            2 
  980000   0.84868587   -2.6457142    920.24889  0.078252457   0.07860123            2 
  981000   0.86243668   -2.6668989    918.55938  0.078029169  0.078566244            2 
  982000   0.87647236   -2.6432657    920.41451  0.078107138  0.078532166            3 
  983000   0.85622055   -2.6445729    919.36015  0.077938297  0.078497818            4 
  984000   0.88034808   -2.6585159    921.83825  0.078068958  0.078464138            4 
  985000   0.87794113   -2.6524785    920.41367  0.077869177  0.078429727            2 
  986000   0.86929363   -2.6337732    920.48033  0.077795836  0.078395939            4 
  987000   0.87965699    -2.635189    919.66466  0.077648148  0.078361438            2 
  988000   0.85031465   -2.6573251    920.60574  0.077648932  0.078326778            5 
  989000   0.86556392   -2.6265902    919.49921  0.077477183  0.078292334            3 
  990000   0.86476687   -2.6530787    921.78505  0.077591334  0.078258064            2 
  991000   0.87173557   -2.6507649    922.52182  0.077574993  0.078223587            2 
  992000   0.87304226   -2.6612438    928.61649  0.078008778  0.078189788            2 
  993000   0.85509548   -2.6487999    925.38967  0.077659422  0.078155379            3 
  994000    0.8586226   -2.6619306    924.22851  0.077483946  0.078120952            2 
  995000   0.86807967   -2.6711441    928.22943  0.077741158  0.078086681            2 
  996000   0.87126401   -2.6261391    925.19485  0.077409208  0.078052773            2 
  997000   0.86657025   -2.6738953     926.9048   0.07747449   0.07801876            2 
  998000   0.86634348   -2.6363553    926.94832  0.077400494  0.077984658            3 
  999000   0.85891581   -2.6342243    932.43151  0.077780406  0.077950725            3 
 1000000   0.86862033   -2.6735479    927.46224   0.07728852  0.077916398            3 
 1001000   0.84418562   -2.6352013    932.57843  0.077637232  0.077882673            2 
 1002000   0.85867487    -2.662727    928.52727  0.077222827  0.077847978            4 
 1003000   0.83987969   -2.6554556    930.73602  0.077329347  0.077813864            2 
 1004000   0.86331524    -2.660627    930.84393  0.077261283   0.07777947            3 
 1005000   0.86022482   -2.6614149    934.08458  0.077453116   0.07774534            4 
 1006000   0.85099055   -2.6592612    934.74873  0.077431141   0.07771105            4 
 1007000   0.84175126   -2.6550283    930.35605  0.076990736  0.077677037            2 
 1008000   0.85315815    -2.672598    932.83696  0.077119458  0.077642907            3 
 1009000   0.85468806   -2.6600913    932.96931  0.077053957  0.077609154            1 
 1010000   0.84962437   -2.6682911    937.88431  0.077383194  0.077575632            5 
 1011000   0.85240707   -2.6640416    934.69648   0.07704389  0.077541462            2 
 1012000   0.85472253   -2.6499642    937.77249  0.077221055  0.077507608            2 
 1013000   0.86600676   -2.6580679    935.18228  0.076931744  0.077473756            6 
 1014000   0.82964003   -2.6578288    936.69223  0.076979966  0.077440059            1 
 1015000   0.85130641   -2.6818825    934.88845   0.07675603  0.077406741            2 
 1016000   0.84320536   -2.6778477     940.7414  0.077160548  0.077373894            7 
 1017000   0.85781222   -2.6658248    943.46729  0.077308037  0.077341044            1 
 1018000   0.85521487   -2.6533186    941.65907  0.077084075  0.077308749            5 
 1019000   0.85386687   -2.6681432    941.72427  0.077013761  0.077276214            2 
 1020000   0.86713819   -2.6527116    944.44281   0.07716036  0.077243978            4 
 1021000   0.84430538   -2.6573822    944.40692  0.077081857  0.077211657            2 
 1022000   0.85571209   -2.6666327    940.56762  0.076693381   0.07717958            2 
 1023000     0.860585   -2.6432675    946.29791  0.077085199  0.077147457            5 
 1024000    0.8371592   -2.6754501    945.31392  0.076929844  0.077115088            4 
 1025000   0.83120957   -2.6530318    944.81468  0.076814202  0.077082684            4 
 1026000   0.83373211   -2.6647499    950.14201  0.077172028   0.07705075            2 
 1027000   0.84655361   -2.6880881    948.31849   0.07694892  0.077018738            3 
 1028000   0.83982804   -2.6855883    943.17006  0.076456717  0.076987117            4 
 1029000   0.85884967   -2.6813319    951.12959  0.077027016  0.076955023            5 
 1030000   0.84090309   -2.6822042    950.55863  0.076906038   0.07692399            5 
 1031000   0.82524045   -2.6767964    954.04201  0.077112998  0.076892544            6 
 1032000   0.84582746    -2.661042    952.63364  0.076924551  0.076861644            3 
 1033000   0.82418519    -2.686677    954.47225  0.076998407  0.076830834            3 
 1034000   0.84630764   -2.6765914      950.777  0.076626128  0.076799935            2 
 1035000   0.85366075   -2.6829238    954.85274  0.076880252  0.076768628            2 
 1036000    0.8335122   -2.6893205    951.70306  0.076552691   0.07673772            2 
 1037000   0.83056347   -2.6908121    952.14302  0.076514225    0.0767065            2 
 1038000   0.85462886   -2.6766096     961.2525  0.077171845  0.076675922            2 
 1039000   0.82857055   -2.6741567     955.7714  0.076657956  0.076645452            6 
 1040000   0.84129479   -2.6670484     961.1356   0.07701407  0.076614974            2 
 1041000   0.81035308   -2.6789204    955.34577  0.076476607  0.076583829            2 
 1042000    0.8425089   -2.6953218    958.50201  0.076655631  0.076553473            4 
 1043000   0.83376108   -2.6813749    960.74412  0.076761275  0.076523007            5 
 1044000   0.82244248   -2.6816616    959.60217  0.076596598  0.076492722            4 
 1045000   0.83506864   -2.6998984    962.49014    0.0767536  0.076463254            3 
 1046000   0.84650459   -2.6756658    962.56479  0.076686169  0.076433354            6 
 1047000    0.8207019   -2.6748469    963.40532  0.076679825  0.076403128            4 
 1048000   0.83210026    -2.656442    965.33531  0.076760123  0.076372898            4 
 1049000   0.82016936    -2.682367    963.95073  0.076576957  0.076342602            2 
 1050000   0.82988619   -2.6913644      962.602  0.076396984  0.076311986            2 
 1051000    0.8403336   -2.7100323    964.82422  0.076500493  0.076281086            7 
 1052000    0.8230729   -2.7163222    962.42555  0.076237765  0.076249714            2 
 1053000   0.84736041   -2.6761024    963.05557  0.076215224  0.076218189            7 
 1054000   0.84283693   -2.6718249    965.23994  0.076315618  0.076186943            2 
 1055000   0.81967298   -2.6626396    965.65696  0.076276221   0.07615525            1 
 1056000   0.84731891   -2.7113247    962.35678  0.075943559  0.076123369            3 
 1057000   0.82283889   -2.6742771    961.36774  0.075793735  0.076091363            5 
 1058000   0.82831246   -2.6957877    968.74876  0.076303463   0.07605982            3 
 1059000    0.8328739   -2.6865035    966.93021  0.076088307  0.076028302            4 
 1060000   0.82212762   -2.6737489    969.69017  0.076233504  0.075997145            3 
 1061000   0.83569581   -2.7095392     965.5442  0.075836019  0.075965771            2 
 1062000   0.82368595   -2.6978947    967.54274  0.075921433  0.075934677            7 
 1063000    0.8494926   -2.6823564    968.56353  0.075930035  0.075903554            2 
 1064000   0.82622999   -2.6837816    972.83118  0.076192918  0.075873065            1 
 1065000   0.83083751   -2.6790787    969.99918  0.075899779  0.075842115            3 
 1066000   0.82697188   -2.7053014    972.05558  0.075989335  0.075811432            2 
 1067000   0.83829584    -2.692328     970.5852  0.075803281   0.07578076            3 
 1068000   0.82235877    -2.677914    973.07802  0.075926812  0.075750207            1 
 1069000   0.81811716   -2.6871191    975.43925  0.076039854  0.075719895            4 
 1070000   0.83411335   -2.6720509    975.28099  0.075956463  0.075690124            3 
 1071000    0.8278729   -2.7170808    971.78196  0.075613286  0.075659754            3 
 1072000   0.81582023   -2.6835268     973.6809  0.075690369  0.075629351            5 
 1073000   0.81660938   -2.6893694    975.65222  0.075772928  0.075599557            3 
 1074000   0.80512503   -2.6952205    975.61747   0.07569968  0.075569383            3 
 1075000   0.81962488   -2.6893639    977.43058  0.075769812  0.075539396            6 
 1076000   0.83280143   -2.7076639     977.6954  0.075719904  0.075509568            3 
 1077000   0.81196872   -2.7119602    975.70447  0.075495548  0.075479309            5 
 1078000   0.81009353   -2.6779239    979.35428  0.075707659  0.075449292            4 
 1079000   0.82428201   -2.7100103    977.93783    0.0755281  0.075419485            3 
 1080000   0.83900281   -2.6863327    978.31874  0.075487557  0.075389243            2 
 1081000   0.82299573   -2.6927105    981.80999  0.075686863  0.075359088            3 
 1082000   0.80279393   -2.7227706     980.8639  0.075544047  0.075329147            4 
 1083000   0.82801426   -2.6903748       987.06  0.075951062  0.075299601            3 
 1084000   0.81830546   -2.6877317    983.75964  0.075627279  0.075269666            4 
 1085000    0.8194198    -2.706499      981.941  0.075417895  0.075239409            3 
 1086000   0.82693884   -2.6906708     982.4819  0.075389955  0.075209468            3 
 1087000   0.83520071    -2.702829     985.8533  0.075579063  0.075179758            8 
 1088000    0.8162623   -2.6995085     983.9138  0.075361045  0.075149923            7 
 1089000   0.83023309   -2.7051823    984.67941   0.07535043  0.075119851            1 
 1090000   0.83413948   -2.7127018    983.20184  0.075168336  0.075089778            2 
 1091000   0.81724422   -2.6894452    988.38572  0.075495395  0.075059616            2 
 1092000   0.81216322     -2.69373     986.1382  0.075254747  0.075029942            4 
 1093000   0.81314879   -2.7196505    982.89699  0.074938776  0.074999701            2 
 1094000    0.8111251   -2.7105201    989.15365  0.075346865  0.074969412            2 
 1095000   0.80825594   -2.6767291    989.26829   0.07528678   0.07493887            4 
 1096000   0.82434126   -2.7126144    984.87903  0.074884354   0.07490849            4 
 1097000   0.79645254   -2.6689798    986.81232  0.074962954  0.074877715            3 
 1098000   0.80559659   -2.6698112    989.07509  0.075066415  0.074846648            7 
 1099000   0.81312497   -2.7085561    988.21149  0.074932627  0.074815879            3 
 1100000   0.81790876   -2.6909925    988.21204  0.074864548  0.074785157            3 
 1101000    0.8151101   -2.6915673    990.92903  0.075002197  0.074753684            3 
 1102000   0.83325535      -2.6989     987.2797  0.074658174  0.074722355            3 
 1103000   0.82844386   -2.6880503    993.16015  0.075034765  0.074691707            4 
 1104000   0.80675742   -2.7087755    988.85733  0.074642009  0.074660924            4 
 1105000   0.82230732   -2.6977443    994.39914  0.074992394  0.074630224            1 
 1106000   0.81434781   -2.6890523    996.56336  0.075087655  0.074599731            2 
 1107000   0.82530908   -2.7406674    991.84181  0.074664394  0.074568854            5 
 1108000   0.80830689    -2.702631    992.76733  0.074666616  0.074538317            3 
 1109000   0.81944941   -2.7091649    993.82083  0.074678451  0.074507571            4 
 1110000   0.79852504   -2.7187715    993.79819  0.074609473  0.074476871            3 
 1111000   0.79567229   -2.7113282    991.67295  0.074382909    0.0744459            4 
 1112000   0.82473203   -2.7288836    999.65685  0.074914332   0.07441527            4 
 1113000   0.79801532   -2.7028865    992.81562  0.074334802  0.074384042            3 
 1114000   0.81772331   -2.7127608     995.8884  0.074497935  0.074352986            4 
 1115000   0.79812336   -2.6932235    995.28067  0.074385701  0.074321557            4 
 1116000   0.79828912   -2.6990289    998.41372  0.074552996  0.074290173            6 
 1117000   0.82625578   -2.7101711    997.85295  0.074444416  0.074258807            2 
 1118000   0.80042683    -2.734978    993.00981  0.074016831  0.074227408            6 
 1119000   0.81069808   -2.7352818    998.42184  0.074353726   0.07419605            7 
 1120000   0.80658357   -2.7130259    996.03268  0.074109574  0.074164744            4 
 1121000   0.79775397    -2.741214    994.70878  0.073945048  0.074133917            4 
 1122000   0.80329072   -2.7067711    999.31849  0.074221516  0.074102386            4 
 1123000   0.81149295   -2.7191582    1000.5652  0.074247938  0.074071722            6 
 1124000   0.80238409   -2.7259095    1002.5589  0.074329697  0.074041337            3 
 1125000     0.801221   -2.7164416    1001.2359   0.07416562  0.074010744            2 
 1126000   0.80393843   -2.7012203    1002.6189  0.074202112  0.073980191            4 
 1127000   0.81989327   -2.6883663    1005.9459  0.074382274  0.073949791            5 
 1128000   0.78211793   -2.7072333    1001.2102  0.073966477  0.073919024            5 
 1129000   0.81453842   -2.7389274    1002.3723  0.073986735  0.073887672            3 
 1130000   0.80377711   -2.7219864    997.99012  0.073598091  0.073856803            2 
 1131000   0.81266719    -2.748144    1003.7774  0.073959428   0.07382546            2 
 1132000    0.8007767   -2.7273754     1006.569    0.0740996  0.073794614            3 
 1133000   0.80031372   -2.7230056    1006.0342  0.073994865   0.07376396            2 
 1134000   0.79170126   -2.7399756     1005.833  0.073914832  0.073732967            3 
 1135000   0.79369243   -2.7347009     1004.959  0.073785538  0.073702305            4 
 1136000   0.81350421   -2.7311744     1008.133  0.073953418  0.073671749            4 
 1137000   0.82292108   -2.7081516     1006.555  0.073772723  0.073641438            2 
 1138000   0.78540907   -2.7202138    1009.2221  0.073903198  0.073610845            4 
 1139000   0.79448123   -2.7285038    1007.7599  0.073731334  0.073580331            3 
 1140000   0.78349032   -2.7238166     1009.346  0.073782603  0.073549785            4 
 1141000   0.81235988   -2.7303649    1009.0919  0.073699379  0.073519454            2 
 1142000   0.80392152   -2.7379005    1008.7421  0.073609321  0.073489196            2 
 1143000   0.79557347   -2.7383023    1012.5136  0.073819889  0.073459446            2 
 1144000   0.82263931   -2.7336278    1008.8508  0.073488545    0.0734297            5 
 1145000    0.7835985   -2.7193228    1013.0846    0.0737325  0.073399241            3 
 1146000   0.81808259   -2.7496773    1012.5752   0.07363112  0.073369468            3 
 1147000   0.80407524    -2.725545     1009.834  0.073367774  0.073339627            2 
 1148000   0.79957282   -2.7497736     1014.057  0.073610409   0.07330946            4 
 1149000   0.80180177   -2.7356449    1014.9782  0.073613158  0.073279805            3 
 1150000   0.80529952    -2.741352     1014.501  0.073514568  0.073249821            3 
 1151000    0.8004209   -2.7048297    1013.9076  0.073407729  0.073220378            2 
 1152000   0.81034905   -2.7503937    1014.8008  0.073408622  0.073190604            2 
 1153000   0.79650544   -2.7238818     1018.264  0.073595261  0.073161119            3 
 1154000   0.79747289   -2.7394265     1012.052    0.0730829  0.073131181            3 
 1155000   0.79409244    -2.719792    1020.2484  0.073610999  0.073101116            5 
 1156000   0.79465058   -2.7486882    1016.0176  0.073242331  0.073071083            3 
 1157000   0.79629134   -2.7310861    1018.6192  0.073366406  0.073040908            4 
 1158000   0.78342606   -2.7274783    1019.9095  0.073395908  0.073010613            4 
 1159000   0.78374739   -2.7276885    1015.2295  0.072996082  0.072980187            3 
 1160000   0.77590476   -2.7535892    1017.0895  0.073066771  0.072949212            5 
 1161000   0.77493829   -2.7507292    1016.8047  0.072983401  0.072918326            2 
 1162000   0.77518615   -2.7349818     1022.368  0.073319562  0.072887441            3 
 1163000   0.77687265   -2.7418944    1017.2836  0.072892202  0.072856662            2 
 1164000   0.78424884   -2.7205922    1018.2658  0.072899898  0.072826195            3 
 1165000   0.79381035    -2.753498     1018.491  0.072853434  0.072795834            5 
 1166000   0.79488306   -2.7421224    1021.2707  0.072989617  0.072764951            4 
 1167000   0.78110361   -2.7239379    1021.9346  0.072974482  0.072734633           10 
 1168000   0.79045976   -2.7609444    1019.1503  0.072713351  0.072704508            3 
 1169000   0.78376287   -2.7441952    1019.0694  0.072645378  0.072674477            3 
 1170000   0.78012786   -2.7486835    1022.4057  0.072820918  0.072643603            2 
 1171000   0.78000124   -2.7321575    1024.2761  0.072891836  0.072613161            3 
 1172000   0.77672076   -2.7624771    1024.3714   0.07283642  0.072583204            2 
 1173000   0.78590307   -2.7382557    1026.6752  0.072937994  0.072553235            4 
 1174000   0.77945214   -2.7556741    1023.3062  0.072636729    0.0725229            2 
 1175000   0.77929538   -2.7543001    1024.4008  0.072652538  0.072492635            3 
 1176000   0.78269632   -2.7377407    1025.0105  0.072633961  0.072462133            4 
 1177000   0.79262003   -2.7525512    1024.3397  0.072524762  0.072431895            4 
 1178000   0.77922188   -2.7602866    1027.2705  0.072670522  0.072401137            4 
 1179000   0.78070699   -2.7616232    1024.9485   0.07244476  0.072370518            5 
 1180000   0.78049408   -2.7681592    1025.1424   0.07239706  0.072339413            5 
 1181000   0.78781505   -2.7529176    1021.1092   0.07205117  0.072308425            3 
 1182000   0.78742788    -2.753544    1028.6208  0.072519797  0.072277336            4 
 1183000   0.76756824    -2.734426     1026.232   0.07229022   0.07224627            4 
 1184000   0.77515426   -2.7350583    1025.7967  0.072198532   0.07221569            5 
 1185000   0.77331751   -2.7408757    1031.0814   0.07250924  0.072184872            2 
 1186000   0.76131248   -2.7569238     1025.403  0.072049116  0.072153683            2 
 1187000   0.78528805   -2.7552497    1029.5967  0.072282833  0.072122162            4 
 1188000   0.77210133   -2.7396802    1030.5848  0.072291304  0.072091281            5 
 1189000   0.77819311   -2.7442538    1025.9052   0.07190252  0.072060005            3 
 1190000   0.77869343   -2.7546834    1030.0528   0.07213255  0.072028942            4 
 1191000   0.77295262   -2.7501557    1025.7504   0.07177095  0.071997159            3 
 1192000    0.7777472   -2.7542297    1030.2136  0.072022763  0.071965853           15 
 1193000   0.75828309   -2.7482668    1030.8461  0.072006576   0.07193481            4 
 1194000   0.78123925    -2.727966    1032.1715  0.072038767  0.071903892            5 
 1195000   0.77003098   -2.7859491    1031.9136  0.071960503  0.071872782            3 
 1196000   0.78312387   -2.7667715    1028.7921  0.071682838   0.07184135            5 
 1197000   0.76994719   -2.7531277    1028.7429  0.071619527   0.07180958            3 
 1198000   0.77657441   -2.7401251    1032.0055  0.071786696  0.071777817            3 
 1199000   0.78971807   -2.7445926    1031.6261  0.071700454  0.071746656            3 
 1200000   0.77102089   -2.7680769     1034.041    0.0718084  0.071715166            3 
 1201000   0.78767151   -2.7691315    1029.7383  0.071450064  0.071683346            4 
 1202000   0.76287027   -2.7181457      1032.23  0.071563366   0.07165167            4 
 1203000   0.77004505   -2.7612311    1033.5448  0.071594956  0.071620228            6 
 1204000   0.77070058   -2.7808425    1033.2103   0.07151234   0.07158896            4 
 1205000   0.77251869   -2.7591593     1033.501  0.071473099  0.071557767            3 
 1206000   0.76977321   -2.7681547    1034.1115  0.071456017  0.071526255            4 
 1207000   0.77630327   -2.7643278    1036.2115  0.071541808  0.071495076            2 
 1208000   0.77362623   -2.7649673    1036.2826  0.071487483  0.071464031            4 
 1209000   0.77035807   -2.7563319       1037.8   0.07153295  0.071432358            5 
 1210000   0.76943324   -2.7794476    1033.7163  0.071192583  0.071400439            4 
 1211000   0.76162441   -2.7528717    1037.5686  0.071398886  0.071368741            3 
 1212000   0.77929258   -2.7695751    1036.9997  0.071300859   0.07133738            5 
 1213000   0.79492569   -2.7478775    1037.3599  0.071266827  0.071305778            4 
 1214000   0.75922661    -2.748825    1039.0759  0.071325911  0.071274493            5 
 1215000   0.78408199   -2.7764315    1041.3261  0.071421543  0.071243374            6 
 1216000    0.7773468   -2.7637867    1041.3424  0.071363924  0.071212179            6 
 1217000   0.76506567   -2.7600204    1039.7903  0.071199006   0.07118095            7 
 1218000   0.77376189   -2.7801651    1039.4572  0.071117761  0.071149582           11 
 1219000   0.76733216   -2.7483104    1043.3564  0.071325979  0.071118107            8 
 1220000   0.75240968   -2.7597201    1038.5502  0.070939221  0.071086967            1 
 1221000   0.75861237   -2.7556312    1040.5873  0.071020154  0.071055185            6 
 1222000   0.77874586   -2.7727042    1039.0942  0.070860217  0.071023949            2 
 1223000   0.76833471   -2.7821642     1043.532  0.071104663  0.070992407            4 
 1224000   0.76387677   -2.7610595    1044.0285  0.071080369   0.07096101            4 
 1225000   0.75991716   -2.7657927    1045.2672  0.071106611  0.070929616            6 
 1226000   0.76420952   -2.7397432    1044.1604  0.070973383  0.070898421            2 
 1227000   0.75141008   -2.7711989    1043.3271  0.070858944  0.070867059            5 
 1228000   0.75890261   -2.7665431    1043.3606  0.070803517  0.070835449            4 
 1229000   0.76772597   -2.7661076    1043.1768  0.070733441  0.070803691            5 
 1230000    0.7689613   -2.7804418    1045.4429  0.070829464  0.070772091            3 
 1231000    0.7743517   -2.7675551    1047.5018  0.070911302  0.070740519            4 
 1232000   0.75573327   -2.7635461    1042.8776  0.070540966  0.070709059            4 
 1233000   0.76967755   -2.7684071    1047.4807  0.070794858    0.0706777            6 
 1234000   0.75280284   -2.7954364     1049.424  0.070868721   0.07064679            3 
 1235000   0.74509291   -2.8006022    1046.0714  0.070585114  0.070615688            5 
 1236000   0.76129857   -2.7465046    1048.5493   0.07069507  0.070584159            4 
 1237000   0.75547011   -2.7890487    1051.8919  0.070863101  0.070553143            3 
 1238000   0.76431455   -2.7806347    1049.8828  0.070670625  0.070522213            3 
 1239000   0.74341822   -2.7732098    1050.8771   0.07068046  0.070491297            5 
 1240000   0.75062962   -2.7726433    1050.6484  0.070608093  0.070460268            3 
 1241000   0.75111862   -2.7543825    1053.7967  0.070762607  0.070429155            7 
 1242000   0.76104108   -2.7928959    1049.7459  0.070433835  0.070398256            3 
 1243000   0.76073426   -2.7947019    1050.1288  0.070402841  0.070367288            4 
 1244000   0.74998286   -2.7632161    1054.5573  0.070642903  0.070336436            6 
 1245000   0.74708078   -2.7918816    1052.6117  0.070455935  0.070305879            7 
 1246000   0.75041436   -2.7977909    1046.9267  0.070019178  0.070275267            8 
 1247000    0.7422963   -2.7651751     1056.264  0.070587008  0.070244433            3 
 1248000   0.76010168     -2.77384    1050.9524  0.070175776  0.070213415            4 
 1249000   0.75213655   -2.8016546    1051.2951  0.070142452  0.070182377            1 
 1250000   0.76684412   -2.7890801    1054.2303  0.070282018  0.070151296            5 
 1251000   0.73787717    -2.784039     1053.089  0.070149813  0.070120105            2 
 1252000   0.75913917   -2.7743457    1055.3378  0.070243461  0.070088808            2 
 1253000   0.74967116   -2.7858655    1051.8777  0.069957281  0.070057675            3 
 1254000   0.75619611   -2.7798741    1056.7074   0.07022245  0.070026413            4 
 1255000   0.76438226    -2.773895    1053.4747  0.069951839  0.069995031            4 
 1256000   0.74817143   -2.7965779    1056.3133  0.070084478    0.0699641            4 
 1257000   0.75929144   -2.8044046    1054.0022  0.069875513  0.069932738            5 
 1258000   0.76494946     -2.80028    1055.4532  0.069916083  0.069901439            8 
 1259000   0.74396158   -2.7992028    1058.7775  0.070080587  0.069870727            3 
 1260000   0.72448582   -2.7911769    1058.0606  0.069977551  0.069840138            4 
 1261000   0.75321155   -2.8126807    1054.9075  0.069713686  0.069809063            3 
 1262000   0.73040071   -2.8028171    1059.1375  0.069937766  0.069778366            2 
 1263000   0.74832663   -2.7911572    1056.0926  0.069681483  0.069747812            5 
 1264000   0.73938901   -2.7755733    1063.8137  0.070135394  0.069717355            5 
 1265000   0.74132673   -2.7946952     1059.235  0.069778328  0.069686922            3 
 1266000   0.75385282   -2.7900931    1058.6082  0.069681951  0.069656315            3 
 1267000   0.75457861   -2.7791892    1060.0186  0.069719721  0.069625549            6 
 1268000   0.74311313   -2.7904584    1063.1176  0.069868404  0.069595074            5 
 1269000   0.75152494   -2.8019143    1059.5527   0.06957924  0.069564077            4 
 1270000   0.72798762   -2.7844953    1062.2089  0.069698746  0.069533512            4 
 1271000   0.75124942   -2.7844399    1066.0567  0.069896193  0.069502981            3 
 1272000   0.73894104   -2.7896767    1061.6709  0.069553913  0.069472287            3 
 1273000    0.7403458   -2.7767988     1063.541  0.069621694  0.069441436            5 
 1274000   0.75509664   -2.8258556    1058.3451  0.069227181  0.069410018            5 
 1275000   0.75488944   -2.8080603     1059.467  0.069246208  0.069378262            5 
 1276000   0.75134568   -2.8059859    1062.3712  0.069381606  0.069346779            3 
 1277000   0.76297888   -2.7964987    1062.8474  0.069358352  0.069314902            3 
 1278000    0.7309407   -2.8039653    1061.7275  0.069231055  0.069283342            3 
 1279000   0.76277407   -2.7973149    1061.8243  0.069183233  0.069251942            4 
 1280000   0.74451236   -2.8056332    1061.9348   0.06913638  0.069220068            4 
 1281000   0.74110872   -2.8026279    1063.9149  0.069211222  0.069188655            4 
 1282000   0.74806437   -2.7839115     1062.988  0.069096986  0.069156934            7 
 1283000   0.74277769   -2.8007912    1065.3646  0.069197491  0.069125542            4 
 1284000   0.74282572    -2.786714    1064.6757  0.069098891  0.069094365            3 
 1285000   0.72787848   -2.8082116    1065.0577   0.06906989  0.069063089            6 
 1286000   0.75463724   -2.8039601    1067.5226  0.069175905  0.069031885            3 
 1287000   0.72523099    -2.812863    1063.7893  0.068880426   0.06900064            4 
 1288000   0.74277275   -2.7920025    1065.9054  0.068963862  0.068969172            6 
 1289000   0.73141697   -2.8206043    1065.6396  0.068893173  0.068937785            7 
 1290000   0.75279547   -2.8137504    1067.2832  0.068945944   0.06890617            7 
 1291000   0.73848316   -2.8134036    1065.5293  0.068779327  0.068874467            5 
 1292000   0.74479836   -2.8014668    1066.5977  0.068795001  0.068843416            4 
 1293000   0.73838244   -2.8178898    1069.2784  0.068914564  0.068812125            3 
 1294000   0.76575858   -2.7996858    1066.5912  0.068688256  0.068780968            6 
 1295000   0.73449682    -2.818416    1071.5432  0.068953872  0.068749831            3 
 1296000   0.74051328   -2.8223195    1070.5499  0.068836801  0.068718594            6 
 1297000   0.73037531   -2.8256516    1072.5424  0.068911742  0.068687463            5 
 1298000   0.72289503   -2.8361424    1069.2996  0.068650461   0.06865633            4 
 1299000   0.74184436   -2.8287623    1071.1881  0.068718764  0.068624958            2 
 1300000   0.75076021   -2.8036684    1072.7139  0.068763712  0.068593954            8 
 1301000   0.71671094   -2.8153817    1075.2894  0.068875825   0.06856294            6 
 1302000   0.73652766   -2.8096209    1071.5774  0.068585345  0.068532083            6 
 1303000   0.73099466   -2.7938094    1072.1246  0.068567703  0.068501494            4 
 1304000    0.7398086   -2.8234973    1075.7298  0.068745514  0.068470912            4 
 1305000   0.72649888   -2.8145853    1076.6901  0.068754155  0.068440323            8 
 1306000   0.72877281   -2.8145084    1074.1352  0.068538486  0.068409742            2 
 1307000   0.73331913   -2.8162664    1075.9032  0.068598777  0.068379088            4 
 1308000   0.73205541   -2.8253631    1076.6276  0.068592481  0.068348344            6 
 1309000   0.72560034   -2.8074449      1075.91  0.068494397  0.068317687            4 
 1310000   0.73351556   -2.8037971    1079.9956  0.068702012  0.068287097            3 
 1311000   0.73103593    -2.834539    1073.9361  0.068264433  0.068256313            3 
 1312000   0.72946239   -2.8011106    1079.4791  0.068564478  0.068225455            5 
 1313000   0.72767381   -2.7941249    1076.6421    0.0683322  0.068194648            3 
 1314000   0.72535316   -2.7938665    1075.2536  0.068192136  0.068163953            2 
 1315000   0.72978369   -2.8262677    1077.3114  0.068270683  0.068132786            3 
 1316000   0.71938254   -2.8201934    1080.3637  0.068412086  0.068101895            5 
 1317000    0.7356348    -2.833629    1077.8149  0.068198866    0.0680709            7 
 1318000   0.73614486   -2.8272429    1076.7954  0.068082665   0.06803965            4 
 1319000   0.73930146   -2.8160247    1077.2653  0.068060733  0.068008567            5 
 1320000   0.72060095   -2.8241087    1075.8458  0.067919558  0.067977651            5 
 1321000   0.72717693   -2.8289657    1077.3983  0.067966078  0.067946587            7 
 1322000   0.71000234   -2.8311608    1077.7004   0.06793371   0.06791577            2 
 1323000   0.73094252   -2.8500459    1077.1894  0.067850179  0.067884607            3 
 1324000   0.72450005   -2.8216289    1083.6987  0.068208632  0.067853071            3 
 1325000   0.72092056   -2.8128043    1079.0691  0.067865983  0.067821806            5 
 1326000   0.72429736   -2.8290594    1080.5608  0.067908548  0.067790449            5 
 1327000   0.72910147   -2.8214206    1078.4644  0.067725722  0.067758542            4 
 1328000   0.72754734   -2.8315889     1078.951  0.067705258  0.067726789            3 
 1329000    0.7137559   -2.8149023    1079.4585  0.067686137  0.067695381            3 
 1330000   0.72019894   -2.8244106    1077.7981  0.067531208  0.067664116            3 
 1331000   0.71830137   -2.8041738    1083.8597  0.067859987  0.067632668           10 
 1332000   0.72115344   -2.8263867    1081.0174  0.067631217  0.067601217            3 
 1333000   0.72537389   -2.8414327    1085.4052   0.06785479  0.067569895            4 
 1334000   0.72626193   -2.8483197    1080.7044  0.067510271  0.067538637            5 
 1335000   0.71517591   -2.8338498    1082.3649   0.06756335  0.067507726            4 
 1336000   0.72578007   -2.8454076    1081.6416  0.067467668  0.067476511            4 
 1337000   0.70153731   -2.8336768    1082.2963   0.06745801  0.067445254            5 
 1338000   0.73449413   -2.8253637    1080.6107  0.067302608  0.067413629            3 
 1339000   0.72177225   -2.8423007    1083.9275  0.067458768  0.067382119            4 
 1340000   0.72682048   -2.8494142    1083.5656   0.06738592   0.06735097            5 
 1341000   0.69458885   -2.8488332     1084.352  0.067384541  0.067319597            6 
 1342000    0.7211013    -2.823077    1084.6134   0.06735056  0.067288781            5 
 1343000   0.72445315   -2.8354576    1086.4373   0.06741358  0.067257895            7 
 1344000   0.70832453   -2.8549843    1089.9635  0.067582059  0.067226826            5 
 1345000   0.74236104   -2.8376832    1086.7711  0.067334023  0.067195973            5 
 1346000   0.71429433    -2.838451    1088.2122  0.067373218  0.067164975            3 
 1347000   0.70570227   -2.8446799    1084.7439  0.067108631  0.067133992            3 
 1348000   0.70812271   -2.8173842    1087.2139  0.067211539  0.067102805            2 
 1349000   0.71100671   -2.8497947    1089.4556  0.067300199  0.067071695            4 
 1350000   0.71746158   -2.8247944    1089.5873  0.067258477  0.067040724            4 
 1351000   0.72680991   -2.8441224    1088.2472   0.06712603  0.067009667            6 
 1352000   0.72256873   -2.8370806    1086.6765  0.066979565  0.066978422            3 
 1353000   0.70730069   -2.8423537    1087.7782  0.066997919  0.066946782            5 
 1354000    0.7076186   -2.8368869    1090.2216   0.06709882   0.06691544            6 
 1355000   0.71871018   -2.8444825    1089.7189  0.067018385  0.066884173            5 
 1356000   0.71197963   -2.8529868    1088.2636  0.066879521  0.066853047            7 
 1357000    0.7071987   -2.8386253     1091.716  0.067042253   0.06682162            4 
 1358000    0.7327315    -2.835314    1088.6735  0.066806181  0.066790517            2 
 1359000   0.71541586     -2.85595    1092.4913  0.066991129  0.066759207            6 
 1360000   0.71869537   -2.8286905    1088.3118  0.066685772  0.066728207            5 
 1361000   0.70894472   -2.8362028    1093.8619  0.066976606     0.066697            4 
 1362000   0.71861839   -2.8450437    1090.3473  0.066712389  0.066665719            5 
 1363000   0.71470169   -2.8692571    1090.4348  0.066668795  0.066634609            4 
 1364000    0.6963855   -2.8398638    1091.7803  0.066702123  0.066603234           12 
 1365000   0.71401282   -2.8586954    1091.6878  0.066647607  0.066572306            3 
 1366000   0.70400535   -2.8398986    1092.2535  0.066633326  0.066541065            7 
 1367000   0.70075107   -2.8552862    1094.6863   0.06673289  0.066509812            7 
 1368000   0.71695075   -2.8511639    1093.3285  0.066601397  0.066478537            4 
 1369000   0.71810742   -2.8487056    1091.9853  0.066470985   0.06644737            4 
 1370000   0.71174968   -2.8477361     1094.223  0.066558574  0.066415791            3 
 1371000   0.70743401   -2.8377522    1092.0708  0.066379211   0.06638425            3 
 1372000   0.69886991   -2.8582331    1093.8594  0.066439466  0.066352728            5 
 1373000   0.69208222   -2.8511591    1095.2969  0.066478325  0.066321315            6 
 1374000   0.70067148   -2.8654651    1095.1183  0.066419111  0.066290151            6 
 1375000   0.71058831   -2.8677974    1095.4748  0.066392413  0.066258618            4 
 1376000   0.70778334   -2.8548589    1092.0337  0.066135764  0.066227167            6 
 1377000   0.69934934   -2.8366541    1096.5673  0.066362099  0.066195903            8 
 1378000    0.7104145   -2.8665104    1095.5021  0.066249524  0.066164415            4 
 1379000   0.70717013    -2.864064    1092.9804  0.066049096  0.066132927            4 
 1380000   0.69390597   -2.8323023    1094.9097  0.066117737  0.066101356            6 
 1381000   0.69428235   -2.8648669    1096.8829  0.066188928  0.066070251            3 
 1382000   0.70995713   -2.8457236     1096.145  0.066096537  0.066039175            4 
 1383000   0.69792133   -2.8561639    1099.2866  0.066238043  0.066008144           10 
 1384000   0.71336449   -2.8478339    1096.3049  0.066010654  0.065976837            5 
 1385000   0.69160936   -2.8739192    1099.4628  0.066152998  0.065945422            4 
 1386000   0.70655185     -2.88444    1095.1705  0.065847192  0.065913998            8 
 1387000   0.70279303   -2.8747276    1096.4131  0.065874373  0.065882586            4 
 1388000   0.68473438    -2.861677    1101.9218  0.066157647  0.065851304            9 
 1389000    0.6896717   -2.8543399    1097.7299  0.065858526  0.065820161            7 
 1390000   0.69603113   -2.8703067    1098.0111  0.065828002  0.065789092            7 
 1391000    0.6877899   -2.8614446    1100.8396  0.065950132  0.065758007            6 
 1392000   0.69935459   -2.8738955    1099.1887  0.065803921  0.065726915            5 
 1393000   0.70035163   -2.8594731    1101.4708  0.065893205  0.065695732            3 
 1394000   0.70059288   -2.8885917    1099.5407  0.065730556  0.065664549            6 
 1395000   0.70159945   -2.8789712    1100.0371  0.065713085  0.065633529            5 
 1396000   0.69177943    -2.866247    1105.5414  0.065994594  0.065602758            5 
 1397000   0.70072793   -2.8376056    1102.0872  0.065741301  0.065572212            5 
 1398000   0.69919477   -2.8737538      1101.09  0.065634833  0.065541687            4 
 1399000   0.68999159   -2.8742276    1101.6408  0.065620728  0.065511136            7 
 1400000   0.69079917   -2.8607345    1102.6385  0.065633245  0.065480529            4 
 1401000     0.690383   -2.8614708    1108.7167  0.065947938  0.065450197            4 
 1402000   0.69806623    -2.863491    1103.1441   0.06556967  0.065419913            4 
 1403000   0.68556181   -2.8753793    1103.6032  0.065550199  0.065389132            6 
 1404000   0.69041031   -2.8810738    1107.5756   0.06573929  0.065358232            4 
 1405000   0.68777877   -2.8548686    1104.1405  0.065488761  0.065327734           18 
 1406000   0.69335644   -2.8766743    1103.5186  0.065405324  0.065296885            4 
 1407000   0.70199507   -2.8670099    1103.7351  0.065371659  0.065266142            5 
 1408000   0.70192105    -2.889924     1108.914  0.065631746   0.06523568            4 
 1409000   0.69270679   -2.8685407    1105.3019  0.065371533  0.065205239            5 
 1410000   0.67527688   -2.8825607    1105.8825  0.065359488  0.065174522            5 
 1411000   0.69707361   -2.8710579     1106.191  0.065331385   0.06514376            3 
 1412000   0.68638612   -2.8524144    1103.8175  0.065145035   0.06511281            3 
 1413000   0.69573124   -2.8710711    1108.1287  0.065353193   0.06508211           12 
 1414000    0.6810047   -2.8766468     1105.446  0.065148869   0.06505122            3 
 1415000   0.68859668   -2.8693877     1108.882  0.065305184  0.065020465            7 
 1416000   0.68822992   -2.8628229    1111.2497  0.065398406  0.064989926            9 
 1417000   0.69942237   -2.8823391    1109.0666  0.065223864  0.064959149           11 
 1418000   0.67796085   -2.8753359    1108.2828  0.065131805  0.064928627            4 
 1419000   0.68560315   -2.8888748    1105.8289  0.064941793  0.064897839            7 
 1420000   0.67425191   -2.8693091    1108.8457  0.065073104  0.064867173            5 
 1421000   0.69939391   -2.9012914      1108.97  0.065034602  0.064836484            7 
 1422000   0.68066437    -2.880782    1110.3187  0.065067903  0.064805915            3 
 1423000   0.68427587   -2.8859341    1114.0566  0.065241077  0.064775279            3 
 1424000   0.66496735   -2.8812459    1113.1072  0.065139698  0.064744758            5 
 1425000   0.68037395   -2.8982886     1111.758  0.065015086    0.0647144            9 
 1426000   0.68188507   -2.8771543    1113.3678  0.065063568  0.064684153            4 
 1427000   0.69472319   -2.9118689    1108.6577  0.064742914   0.06465355            5 
 1428000   0.68685439   -2.8870527    1113.7149  0.064992698  0.064622884            5 
 1429000   0.66306489   -2.8844942    1111.6269  0.064825455  0.064592172            3 
 1430000   0.69390553   -2.8918787    1111.2038  0.064755468  0.064561431            4 
 1431000   0.68731233   -2.9091137    1112.0207  0.064757789  0.064530809            3 
 1432000   0.67861799   -2.8730877    1113.4017  0.064792931  0.064500118            5 
 1433000   0.66641595   -2.8811192    1110.7754  0.064594985  0.064469333            6 
 1434000   0.67477759   -2.8880269    1111.1756  0.064573196  0.064438468            6 
 1435000   0.68552571   -2.8946332    1112.6947  0.064616416  0.064407856            4 
 1436000   0.67536016   -2.8645536    1113.5446  0.064620739   0.06437733            4 
 1437000   0.67738336   -2.8787267    1114.0119  0.064602869  0.064346722            4 
 1438000   0.66366418   -2.8667962    1111.1468  0.064391913  0.064316155            5 
 1439000   0.67880786   -2.8974813    1114.9453  0.064567136  0.064285233            4 
 1440000   0.69401656   -2.8596444    1116.3021  0.064600816  0.064254683            8 
 1441000   0.67124674   -2.9030776    1113.4379  0.064390348  0.064224361           13 
 1442000   0.67842532    -2.903173    1116.3398  0.064513393  0.064193999            4 
 1443000   0.68750348    -2.900941    1113.9378   0.06432997   0.06416363            7 
 1444000   0.66772775   -2.8822194    1119.5429  0.064608891  0.064133311           11 
 1445000   0.67697746   -2.8899455    1117.3055  0.064435148  0.064103246            8 
 1446000   0.68014254    -2.893016    1115.5579  0.064289874  0.064072768            5 
 1447000   0.66955537   -2.8946713    1118.4414  0.064411508  0.064042418            3 
 1448000   0.67249138   -2.9052598    1114.9443  0.064165765  0.064011969            3 
 1449000   0.67344427   -2.9011644    1116.6136  0.064217486  0.063981349            4 
 1450000   0.66841008   -2.8935102    1115.5416  0.064111586  0.063950519            4 
 1451000   0.66424514   -2.8935676    1113.8594  0.063970789  0.063919816            7 
 1452000   0.65455973   -2.9027022    1117.5558  0.064138875  0.063888951            5 
 1453000   0.68474906   -2.9178436    1120.7955  0.064280538  0.063858119            3 
 1454000   0.67887842   -2.8946606    1115.9789  0.063960279   0.06382731            2 
 1455000   0.69011099   -2.9214381    1116.6128  0.063952624  0.063796719           10 
 1456000   0.67190116   -2.9013033    1117.8563   0.06397987  0.063765928            5 
 1457000    0.6840784   -2.9234349    1118.0411  0.063946526  0.063734936            4 
 1458000   0.67528895   -2.8954331    1115.3821  0.063750692  0.063704078            8 
 1459000   0.67098436   -2.9019007     1116.739  0.063784501  0.063673168            5 
 1460000   0.65989049   -2.8979951    1118.2627  0.063827779  0.063642452           10 
 1461000   0.68444537   -2.9047852    1118.8706  0.063818764  0.063611734            4 
 1462000   0.67018072   -2.9124073    1115.4372   0.06357941  0.063580838            5 
 1463000   0.66484229   -2.8989036    1117.4334  0.063649657  0.063549623            4 
 1464000   0.67435712   -2.9015296    1121.3873  0.063831242  0.063518485            4 
 1465000   0.66675567   -2.9202913    1120.3149  0.063726672   0.06348766            4 
 1466000   0.66003132   -2.9092583    1118.2857  0.063567854  0.063456694            7 
 1467000   0.66768751   -2.9102699    1119.5251  0.063594927  0.063425655            6 
 1468000   0.67406271   -2.9063563    1117.6566   0.06344554  0.063394511           10 
 1469000   0.67099629   -2.9198693    1123.4843  0.063732941   0.06336369           10 
 1470000   0.68182333   -2.9045196    1120.7819  0.063536388  0.063332769            5 
 1471000   0.65360812   -2.8917477    1124.4548  0.063701268  0.063301954            6 
 1472000   0.65465088   -2.9214018    1122.2803  0.063534889  0.063270958           11 
 1473000   0.66066036   -2.9041591    1117.1912  0.063203846  0.063240094            4 
 1474000   0.66245679   -2.9090007    1120.6399  0.063355941  0.063209377            8 
 1475000   0.66192804   -2.9207505    1120.0235  0.063278162  0.063178609            6 
 1476000   0.66806212   -2.9169546    1122.4654  0.063373162  0.063147769           10 
 1477000   0.65636754   -2.9233732    1122.0804  0.063308531  0.063117091            8 
 1478000   0.68033371   -2.9202396    1121.4202  0.063228471  0.063086243            5 
 1479000   0.65207915   -2.9176022    1125.5993   0.06342119  0.063055192            5 
 1480000   0.66438138    -2.917126    1124.7846  0.063332469  0.063024448            4 
 1481000   0.68010746   -2.9255166    1123.8882  0.063239265  0.062993964            4 
 1482000   0.65753859   -2.9290366    1119.9625  0.062975846  0.062963387           22 
 1483000    0.6506258   -2.9174021    1128.5764  0.063417417   0.06293286            2 
 1484000   0.65362366   -2.9186016    1127.9869  0.063341581  0.062902759            5 
 1485000   0.66950303   -2.9112252    1122.5776  0.062995374  0.062872297            8 
 1486000   0.65170072   -2.9227615    1127.1486  0.063209323   0.06284202            4 
 1487000   0.65009521   -2.9264271    1124.9723  0.063044848  0.062811262            7 
 1488000   0.67120256   -2.9201443    1123.2546  0.062906281  0.062780297           14 
 1489000   0.65305571   -2.9037981    1125.0667  0.062965452  0.062749356            8 
 1490000   0.65646607   -2.9442091     1126.814  0.063020917  0.062718261            4 
 1491000   0.65785978   -2.9019604    1122.1198  0.062716288   0.06268716            4 
 1492000   0.64501483   -2.9203031    1124.8622  0.062827421  0.062656047            9 
 1493000   0.65426488   -2.9218722    1120.1493  0.062522289  0.062625134            5 
 1494000   0.65979353   -2.9340369    1127.1454  0.062870669  0.062594054            4 
 1495000   0.66190541   -2.9381565    1122.1518  0.062550267  0.062563114            4 
 1496000    0.6440412   -2.9146652     1123.708  0.062595145  0.062532057            4 
 1497000   0.66368695   -2.8937643    1123.3182   0.06253163  0.062500901            7 
 1498000   0.64463503   -2.9426252    1121.8435  0.062407851  0.062469775            3 
 1499000   0.64912347   -2.9434829    1123.2952  0.062446923  0.062438655            5 
 1500000   0.65548814   -2.9532322    1121.3603  0.062297797   0.06240734            6 
 1501000    0.6481015   -2.9228296    1129.0937  0.062685638  0.062376115           10 
 1502000   0.66064499   -2.9318691    1126.9657  0.062525836  0.062344851            6 
 1503000   0.65898954   -2.9331292     1124.819  0.062365214    0.0623134           10 
 1504000    0.6447069   -2.9171979    1128.0271    0.0625015  0.062282242            7 
 1505000   0.65530935   -2.9276752     1126.058  0.062350942  0.062250908            7 
 1506000   0.64634973   -2.9124057    1126.5561    0.0623371   0.06221963            5 
 1507000    0.6615616   -2.9309614    1122.4162  0.062066811  0.062188318            7 
 1508000   0.64837597   -2.9461442    1125.0339  0.062170306  0.062156972            9 
 1509000   0.65663907   -2.9494457     1124.982   0.06212624  0.062125506            3 
 1510000   0.65936857   -2.9226088    1127.6147  0.062230391  0.062094354            5 
 1511000   0.65086029   -2.9333375    1125.8846  0.062093788  0.062063215           12 
 1512000   0.65674209   -2.9219071    1130.6509  0.062315415  0.062032006            3 
 1513000   0.63441816   -2.9447997     1127.832  0.062118967  0.062000797            6 
 1514000   0.64456239   -2.9368931    1129.2102  0.062153797  0.061969482            7 
 1515000   0.64250948   -2.9488411    1126.1576  0.061944863  0.061938374           11 
 1516000   0.67389856   -2.9375695    1128.9318    0.0620565   0.06190734            8 
 1517000   0.64942003   -2.9271981    1127.5734  0.061940968  0.061876249            4 
 1518000    0.6556432   -2.9220176    1125.4167  0.061781771  0.061845307            6 
 1519000   0.63819992   -2.9591525    1130.7073  0.062031341  0.061814502            9 
 1520000   0.65363857   -2.9415953     1130.528  0.061980704  0.061783751            7 
 1521000     0.662259   -2.9339324    1131.1777  0.061975547  0.061752915            7 
 1522000   0.64546726   -2.9380756     1131.493  0.061952089  0.061722413            7 
 1523000    0.6332057   -2.9265295    1130.7878  0.061872829  0.061691716            5 
 1524000   0.64840262   -2.9643539    1128.3384  0.061698295  0.061661007            6 
 1525000   0.62824563   -2.9663003    1130.3049  0.061765297  0.061629918           12 
 1526000   0.62303221   -2.9174328       1131.1  0.061768241  0.061599103            7 
 1527000   0.64761034   -2.9265191     1133.462  0.061856693  0.061568458            3 
 1528000   0.65600098   -2.9747575     1130.369  0.061647523  0.061537764            6 
 1529000   0.64537168   -2.9561108    1131.6848   0.06167892  0.061506857            6 
 1530000   0.62492254   -2.9556271    1132.7593  0.061697131   0.06147606           10 
 1531000    0.6596839   -2.9383068    1133.9976  0.061724235  0.061445241            9 
 1532000   0.65919299   -2.9391531    1136.5221  0.061821262  0.061414596            3 
 1533000   0.62590311   -2.9409029    1135.5556  0.061728395  0.061383803            7 
 1534000   0.63203371   -2.9380942     1134.084  0.061608215  0.061352846            5 
 1535000   0.64808447    -2.964768    1130.7943  0.061389484  0.061321954            5 
 1536000   0.64797814   -2.9564827    1131.9879  0.061414274  0.061290998           12 
 1537000    0.6351347   -2.9642747    1134.5815  0.061514937   0.06126013           14 
 1538000   0.63634811    -2.945729    1132.2369    0.0613479  0.061229195            5 
 1539000   0.63387989   -2.9573756    1133.1546  0.061357734  0.061198515            4 
 1540000   0.63563883   -2.9358009    1133.3074  0.061326158  0.061167623            6 
 1541000   0.61974306   -2.9526016    1134.6125  0.061356936  0.061136934           10 
 1542000   0.63599541   -2.9463774    1132.9172  0.061225532  0.061106237            8 
 1543000   0.62514034   -2.9715346    1130.8006   0.06107154  0.061075385            9 
 1544000   0.63964171   -2.9639268    1134.1651  0.061213573  0.061044416            4 
 1545000   0.64020198    -2.953059    1134.1866  0.061175111  0.061013696           12 
 1546000   0.64130069   -2.9492503    1136.8889  0.061281205  0.060982886            6 
 1547000   0.65475908   -2.9583044    1133.5006  0.061059072  0.060952156            7 
 1548000   0.63128934   -2.9709597    1137.8936  0.061256114  0.060921383            7 
 1549000   0.64332934   -2.9531381     1133.954  0.061004625  0.060890576           10 
 1550000   0.63528589   -2.9579393    1134.5828  0.060999074  0.060860014            5 
 1551000   0.62845522   -2.9530632    1139.1365  0.061204411  0.060829424            5 
 1552000   0.62832454   -2.9511319    1136.3333  0.061014459   0.06079891            9 
 1553000   0.63784719   -2.9569839    1136.2496  0.060970681  0.060768208           12 
 1554000   0.63655226    -2.944467    1137.3511  0.060990512  0.060737522            9 
 1555000   0.63706028   -2.9748917    1136.0885  0.060883626  0.060706782            5 
 1556000    0.6399757    -2.948715    1134.2991  0.060748669  0.060676009           10 
 1557000   0.61757054   -2.9640478      1138.08  0.060912011   0.06064507            7 
 1558000   0.62101371   -2.9667999    1138.3366  0.060886637  0.060614064            4 
 1559000   0.64729008    -2.981742    1135.4461   0.06069308  0.060582881            4 
 1560000   0.62329533   -2.9515314    1140.3432  0.060915767  0.060552088            5 
 1561000   0.61363283   -2.9697545    1139.9136  0.060853812  0.060521424            8 
 1562000   0.62075857   -2.9611314    1138.2351  0.060725305    0.0604904            7 
 1563000   0.61722595   -2.9381144    1136.8743  0.060613899  0.060459639            4 
 1564000   0.60711396   -2.9857846    1136.4158  0.060550711   0.06042895            5 
 1565000   0.62863064   -2.9732089    1138.1696  0.060605411  0.060398171            8 
 1566000   0.62664274   -2.9817752    1139.2231  0.060622771   0.06036727            6 
 1567000   0.62846458   -2.9879866    1141.0845  0.060683072  0.060336475            4 
 1568000    0.6256932   -2.9579976    1139.8911  0.060580946  0.060305694            7 
 1569000   0.62290712    -2.956903    1140.1151  0.060554231  0.060274804            5 
 1570000   0.63371242     -2.98938    1140.6641  0.060544804  0.060243803            5 
 1571000   0.62389946   -2.9648584     1139.275  0.060432579  0.060212867            9 
 1572000   0.63483609   -2.9442613    1138.0075  0.060326943  0.060182041            7 
 1573000   0.61273518   -2.9737936    1138.2077  0.060299198  0.060151483           10 
 1574000   0.62274051   -2.9848108    1135.7678  0.060131712  0.060120654            4 
 1575000   0.63125822   -2.9913803    1136.1897  0.060115855  0.060089503            4 
 1576000   0.64131296   -2.9608436    1140.4154  0.060301154  0.060058515            6 
 1577000   0.63225024   -2.9635106    1137.6094  0.060114635  0.060027633            9 
 1578000   0.62239278   -2.9755451    1135.8983  0.059986179  0.059996755            4 
 1579000   0.62128428   -2.9858527    1138.5548  0.060088387   0.05996574            8 
 1580000   0.63298842   -2.9782604    1143.2605  0.060298548  0.059934973            9 
 1581000     0.601105   -2.9622466    1141.5937  0.060172553   0.05990428            7 
 1582000   0.62910567   -2.9798176    1140.1815  0.060060128  0.059873495            3 
 1583000   0.61756368   -2.9882219    1141.0617  0.060068527  0.059842324            7 
 1584000   0.63493082   -2.9673462    1137.2444  0.059829775  0.059811353            6 
 1585000   0.62342516   -2.9769408    1143.6595  0.060129314  0.059780629           15 
 1586000   0.60929423   -2.9860257    1140.3224  0.059916058  0.059749931            5 
 1587000   0.61982332   -2.9649016    1142.2245   0.05997818   0.05971913            8 
 1588000   0.61710431   -2.9856666     1143.982  0.060032641  0.059688336            6 
 1589000   0.63335917    -2.992017    1140.4481  0.059809529  0.059657698            6 
 1590000   0.62271318    -2.980475    1143.8058  0.059947896  0.059627005            7 
 1591000   0.60527573   -2.9712414    1142.7513   0.05985498  0.059596223            8 
 1592000   0.62629814   -2.9957311    1140.8047  0.059715491  0.059565685            8 
 1593000   0.60517561   -2.9994247    1143.6639  0.059827575  0.059534798            8 
 1594000   0.62166358   -2.9874957    1145.0916  0.059864678  0.059503971            9 
 1595000   0.61480483   -2.9840546    1144.6155  0.059802274  0.059473195            4 
 1596000   0.61618366   -2.9824926    1144.9101  0.059780187  0.059442443           10 
 1597000   0.60241453   -2.9938575    1144.5738  0.059725205  0.059411627            5 
 1598000   0.61081748    -2.989018    1145.0895  0.059714723  0.059380732            6 
 1599000   0.61325846   -2.9803236    1141.5628  0.059493581  0.059349957            8 
 1600000   0.59952288   -3.0036869    1145.1312  0.059642249  0.059319284            8 
 1601000   0.61464987    -2.995604    1142.9838  0.059493224  0.059288427           16 
 1602000   0.62466461   -2.9666144    1143.2792  0.059471455  0.059257535            3 
 1603000   0.60464778   -2.9979758    1141.7078  0.059352663  0.059226883            9 
 1604000   0.61444852   -3.0047703    1141.0026   0.05927902  0.059195901            5 
 1605000   0.62073921   -2.9870153    1144.5364  0.059425565  0.059165053            9 
 1606000   0.60926669   -2.9938542    1143.9523  0.059358253  0.059133943            6 
 1607000   0.61189054   -2.9882007    1142.4579  0.059243824  0.059102998            8 
 1608000   0.60955261   -3.0195521    1143.0185  0.059236031  0.059071996            5 
 1609000   0.61556956   -2.9979399    1144.2369  0.059262323   0.05904105           10 
 1610000   0.60529904   -2.9972258    1144.0042  0.059213469   0.05900994            5 
 1611000   0.61797087    -3.009695    1141.9131  0.059068546  0.058978862           10 
 1612000   0.61022736    -3.005109    1140.4897  0.058958315  0.058947819            5 
 1613000   0.61234325   -2.9936151    1144.2657  0.059116847  0.058916929           10 
 1614000   0.61598871   -3.0055012    1145.4814  0.059142991   0.05888595           10 
 1615000   0.61152302   -3.0015617    1140.6844  0.058858844  0.058854955            6 
 1616000   0.61905154    -2.998104    1143.7856  0.058982341  0.058823915            6 
 1617000   0.60941775   -3.0068194    1145.3479  0.059026381   0.05879314            4 
 1618000   0.59687299   -2.9911975    1148.1815  0.059135841  0.058762578            7 
 1619000   0.59875657   -2.9985362    1144.0605  0.058887197  0.058731955            9 
 1620000   0.62224042   -2.9810191     1144.691  0.058883284  0.058701303           10 
 1621000    0.6051992   -3.0050993    1147.0098  0.058966161  0.058670746           10 
 1622000   0.61168539   -3.0106956    1145.1504  0.058834276  0.058639866           13 
 1623000   0.60946385   -3.0037696    1144.1544  0.058746887  0.058609126           10 
 1624000     0.612374   -2.9983252    1148.7547  0.058946772  0.058578449            7 
 1625000   0.61442228   -2.9931457    1143.9078   0.05866194  0.058547665            8 
 1626000   0.60581109   -3.0071972    1142.3391  0.058545464  0.058516633            5 
 1627000   0.59391344   -2.9935638    1144.7346  0.058632178  0.058485642            8 
 1628000   0.59462351   -3.0073542    1146.4038  0.058681605  0.058454698            4 
 1629000   0.59118881   -2.9941166    1144.4214  0.058544169  0.058423701            6 
 1630000   0.60366213    -3.012273    1146.3728  0.058608018  0.058392846            6 
 1631000   0.60588564   -3.0278087    1147.0537  0.058606872  0.058361966            7 
 1632000    0.6160571   -3.0068199     1144.184  0.058424426  0.058331079            4 
 1633000   0.59479756   -3.0220519    1143.9773  0.058378103  0.058299982           10 
 1634000   0.60293677    -3.017989    1145.1649  0.058402943  0.058268914            7 
 1635000   0.59546884   -3.0117523     1148.856  0.058555349   0.05823813           17 
 1636000   0.60660805   -2.9964095    1149.3177  0.058543079  0.058207334            4 
 1637000    0.6137675   -3.0202091    1150.0219  0.058543162  0.058176712           16 
 1638000   0.60657685   -3.0098128    1147.0102  0.058354202  0.058146085           11 
 1639000   0.59131081   -3.0087093    1148.0968  0.058373844  0.058115358            7 
 1640000   0.58537854   -3.0145888    1150.5966  0.058465276  0.058084811            6 
 1641000   0.60914587   -3.0088688    1150.0387  0.058401315  0.058054389            5 
 1642000   0.58085963   -3.0188813    1147.8001  0.058252139  0.058023726            4 
 1643000   0.58593236   -3.0103319    1153.6636  0.058514079  0.057993267            9 
 1644000   0.59949549   -3.0162459    1149.5194  0.058268419  0.057962755            5 
 1645000   0.60054428   -3.0150572     1144.512  0.057979333  0.057932049            8 
 1646000    0.5928165   -3.0204932    1150.6745  0.058256099  0.057901476           21 
 1647000   0.58749948   -3.0097719    1151.3272  0.058253755  0.057870914            4 
 1648000    0.6098755   -3.0062872    1151.3313  0.058218615  0.057840821           10 
 1649000   0.61058082   -3.0104386    1146.3809  0.057933135  0.057810479           10 
 1650000    0.5915721    -3.026856    1147.8047  0.057969932  0.057779881            7 
 1651000   0.59100482    -3.021251    1147.5057  0.057919731  0.057749449           13 
 1652000   0.60280203   -3.0133443    1152.9533   0.05815947  0.057719089            5 
 1653000   0.58261492   -3.0229065    1148.4905    0.0578993  0.057688577            6 
 1654000   0.59887065   -3.0379936    1149.2631  0.057903217  0.057657937            6 
 1655000   0.59291866   -3.0608907    1149.3299  0.057871597  0.057627314            9 
 1656000    0.5917202   -3.0226664    1150.0718  0.057873984  0.057596682           19 
 1657000   0.58626421   -3.0181721    1151.1524  0.057893402  0.057566268            5 
 1658000   0.58425299   -3.0226456    1151.0516   0.05785342  0.057535782            4 
 1659000   0.58799092   -3.0183014    1152.0993  0.057871174  0.057505349            8 
 1660000   0.59079013   -3.0148008    1149.8786  0.057724829  0.057474943            5 
 1661000   0.58640727   -3.0218075    1150.4426  0.057718371  0.057444263            5 
 1662000   0.59769312   -3.0362396    1150.3773  0.057680368  0.057413577            7 
 1663000   0.57787197    -3.025749    1150.4624  0.057649948  0.057383112           11 
 1664000   0.59831213   -3.0189824    1154.7468  0.057829868  0.057352601            5 
 1665000   0.58633242    -3.029725     1153.378  0.057726626  0.057322173            7 
 1666000   0.59271279   -3.0290997    1150.2474  0.057535386  0.057291549           11 
 1667000   0.57250179    -3.037248    1146.6503  0.057321053  0.057260753           10 
 1668000   0.57508528   -3.0536565    1151.2439   0.05751618  0.057230213            8 
 1669000   0.58638376   -3.0273703    1149.5394  0.057396615  0.057199573            5 
 1670000   0.58388585    -3.028677    1151.2016  0.057445187  0.057168932            9 
 1671000   0.57898922   -3.0303202    1152.2794  0.057464561  0.057138502            7 
 1672000   0.58778862    -3.033934    1151.6161  0.057397135  0.057108142           11 
 1673000   0.57936265   -3.0565516     1154.248  0.057493925  0.057077852            9 
 1674000   0.59482198    -3.045718    1152.3456  0.057364875  0.057047567            5 
 1675000   0.59066858   -3.0350558    1156.3405  0.057529379  0.057017541            8 
 1676000   0.58171847   -3.0463905     1152.633  0.057310712  0.056987474            7 
 1677000   0.58956442   -3.0368429    1155.9069   0.05743922  0.056957151            6 
 1678000    0.5807753   -3.0421217    1151.4492  0.057183609  0.056926974            7 
 1679000   0.58479715   -3.0343212    1154.2219  0.057287169  0.056896777            7 
 1680000   0.58198985   -3.0372414    1152.0744  0.057146548  0.056866481            8 
 1681000   0.57236341   -3.0642079    1154.0985  0.057212895  0.056836227           11 
 1682000   0.59382398   -3.0267008    1154.9813  0.057222617  0.056806073            9 
 1683000   0.57970082    -3.028686    1157.3412  0.057305468  0.056775972            5 
 1684000   0.57043711   -3.0511902    1152.8856  0.057050951  0.056745799            5 
 1685000    0.5949338   -3.0320892    1153.8972  0.057067121   0.05671566            6 
 1686000   0.58166847   -3.0481595    1151.3282  0.056906297  0.056685254            5 
 1687000   0.57525595   -3.0494527    1152.3148    0.0569213  0.056654772           19 
 1688000   0.57753366   -3.0610764    1149.6135  0.056754221  0.056624045            6 
 1689000   0.57765951   -3.0422028    1152.4229   0.05685923  0.056593529            3 
 1690000   0.58209847   -3.0473213     1154.282   0.05691726  0.056562876            7 
 1691000    0.5798483   -3.0581668    1152.7348   0.05680735  0.056532423           19 
 1692000   0.57001272   -3.0369222    1151.5313  0.056714503  0.056501748            7 
 1693000   0.57926571   -3.0625129     1153.036  0.056755069  0.056471171           12 
 1694000   0.59240463    -3.038675    1153.7263  0.056755527  0.056440684            6 
 1695000   0.57025508   -3.0459317    1155.5972  0.056814023  0.056410433           11 
 1696000   0.57352572   -3.0362538    1155.4997   0.05677573  0.056380115            7 
 1697000   0.58628579   -3.0458209    1156.3656  0.056784797  0.056349831            6 
 1698000   0.57218852   -3.0366873    1155.6218  0.056714853  0.056319635            5 
 1699000   0.57310904   -3.0481602    1154.1293  0.056608265  0.056289291            5 
 1700000   0.58271993   -3.0649183     1151.927  0.056467011  0.056258849           12 
 1701000   0.56774841   -3.0514636    1152.2184  0.056448089  0.056228416           10 
 1702000   0.56248833   -3.0471377    1151.8429  0.056396539   0.05619808            8 
 1703000   0.55967962   -3.0604914    1156.8686  0.056609347  0.056167524           14 
 1704000   0.56891646   -3.0459707    1153.4857  0.056410688  0.056137004           17 
 1705000   0.57970882   -3.0485079    1150.4388   0.05622868  0.056106461           12 
 1706000   0.57653565   -3.0579088    1154.5732  0.056397676  0.056075848            6 
 1707000   0.57065141   -3.0477642    1155.3934  0.056404679  0.056045386            5 
 1708000   0.57430169   -3.0524292    1151.6508   0.05618905   0.05601488           12 
 1709000    0.5590016   -3.0605816    1155.5451  0.056346063  0.055984149            8 
 1710000   0.57016955   -3.0594787    1155.6214  0.056316833  0.055953462           12 
 1711000    0.5687492    -3.043535    1152.8899   0.05615088  0.055922889            5 
 1712000   0.56296274   -3.0641956    1155.6623  0.056253033  0.055892358           11 
 1713000   0.56534733   -3.0561738    1155.5001  0.056212303  0.055861828           10 
 1714000   0.57156597    -3.066213    1152.2735  0.056022631  0.055831138            8 
 1715000   0.57196413   -3.0493022    1151.8126  0.055967569  0.055800301           13 
 1716000   0.58150869   -3.0626854    1153.4028  0.056012181  0.055769262            8 
 1717000   0.57733233   -3.0716786    1152.9792     0.055959  0.055738492           25 
 1718000   0.55973498   -3.0685264    1154.1099  0.055981274  0.055707594            8 
 1719000   0.56910353   -3.0538795    1150.7394   0.05578531  0.055676847            9 
 1720000   0.56138085   -3.0665605    1153.9702   0.05590941  0.055646103           10 
 1721000   0.55882296   -3.0710273    1156.0832  0.055979235  0.055615453           17 
 1722000   0.57429784    -3.050084    1151.5598  0.055727826  0.055584896           10 
 1723000   0.56451437   -3.0599627    1155.7062  0.055896025  0.055554377            5 
 1724000   0.56466672    -3.076913    1153.7732  0.055770167  0.055523836           16 
 1725000   0.56233254    -3.066458    1153.7051  0.055734546  0.055493157            7 
 1726000   0.57626443    -3.054933    1153.6117  0.055697747  0.055462511            4 
 1727000   0.55972985   -3.0780699    1158.6739  0.055909761  0.055432106           11 
 1728000   0.56331229   -3.0720005    1153.8194  0.055643295  0.055401615           10 
 1729000   0.56643948   -3.0599472    1156.0936  0.055720725  0.055371123            5 
 1730000   0.56479998   -3.0905242    1154.8536  0.055628785  0.055340525            8 
 1731000   0.54667828   -3.0719485    1155.6146  0.055633283  0.055309899            4 
 1732000    0.5603062   -3.0984428    1155.6215  0.055601496  0.055279284            6 
 1733000   0.56950646   -3.0719355    1155.5674  0.055566811  0.055248896            8 
 1734000   0.53982619   -3.0787304    1154.4844   0.05548272  0.055218545           10 
 1735000   0.56106832   -3.0758387     1155.045  0.055477664   0.05518824            7 
 1736000   0.57010343     -3.08849    1159.0074  0.055635917  0.055158023            8 
 1737000   0.56101414   -3.0910473    1154.5238  0.055388782  0.055127758            6 
 1738000   0.55839558   -3.0575411    1155.3121  0.055394713  0.055097469            6 
 1739000   0.55572027   -3.0798999    1157.9373  0.055488655  0.055067214            7 
 1740000   0.55183955   -3.0732788    1160.7647  0.055592178  0.055037103           10 
 1741000   0.55845072   -3.0730735    1156.0193  0.055333108  0.055006927            6 
 1742000   0.54654931   -3.0861009    1155.3577  0.055269696  0.054976587            6 
 1743000   0.56956693   -3.0734287    1157.9175  0.055360368   0.05494619           14 
 1744000   0.55954385   -3.0739769    1157.1985  0.055294269  0.054915861           12 
 1745000   0.55190106   -3.0840204    1155.9262  0.055201826  0.054885535           16 
 1746000   0.55826867   -3.0856912    1155.9666  0.055172134  0.054855063            5 
 1747000   0.54983924   -3.0711772    1154.6223  0.055076433  0.054824596            5 
 1748000   0.56185759   -3.0974722    1153.9889  0.055014726  0.054794002            8 
 1749000   0.55403802   -3.0592376    1155.0858  0.055035536  0.054763559           11 
 1750000   0.55593531   -3.0818935    1157.7685  0.055131833  0.054733095            5 
 1751000     0.550855   -3.0855526    1152.8983  0.054868565  0.054702601            9 
 1752000    0.5577683   -3.0756128    1154.5343  0.054915061  0.054672131           11 
 1753000   0.54651192   -3.0963307    1158.3694   0.05506605  0.054641944           10 
 1754000   0.54661426   -3.0939105     1157.412  0.054989167  0.054611547           17 
 1755000   0.55759386   -3.0886991    1159.8355  0.055072913  0.054581023           10 
 1756000   0.55290878    -3.082068     1155.509  0.054836229  0.054550546            7 
 1757000   0.53621493   -3.0814734    1156.8922   0.05487062  0.054520231           12 
 1758000   0.56050255   -3.0845188     1158.249  0.054903727  0.054489976            5 
 1759000   0.54035322   -3.0857064     1156.691    0.0547987  0.054459668            5 
 1760000   0.55441953   -3.0848878    1156.1131  0.054740206  0.054429422            9 
 1761000   0.55282205   -3.0902703    1155.9708  0.054702385  0.054399119            7 
 1762000    0.5580448   -3.0957456     1159.634  0.054844587  0.054368765           26 
 1763000   0.55302666   -3.1007888    1155.8826  0.054636161  0.054338335            8 
 1764000   0.55169094   -3.0763413    1157.3184  0.054673017  0.054307922            6 
 1765000   0.55434404   -3.1215372    1156.3692  0.054597226  0.054277541           10 
 1766000   0.54238788   -3.0802777    1159.0795  0.054694201  0.054247269            5 
 1767000   0.54546561   -3.0978291    1155.0872  0.054474965  0.054216976            3 
 1768000   0.54918837   -3.0992627    1158.3477  0.054597839  0.054186709            9 
 1769000   0.54596737   -3.0965487    1160.5988  0.054673019   0.05415659           11 
 1770000   0.55319819    -3.095896    1160.9125    0.0546569  0.054126462           14 
 1771000   0.54944408   -3.1017818    1157.7601  0.054477701  0.054096237            6 
 1772000   0.53709514   -3.1021369    1159.0611  0.054508139  0.054066198           14 
 1773000   0.55343074   -3.0889801    1158.8969  0.054469678   0.05403623           17 
 1774000   0.53651759    -3.100049    1158.7836  0.054433652  0.054006028           18 
 1775000   0.53552878   -3.0915165    1159.3778  0.054430883  0.053975952            8 
 1776000   0.53586936   -3.1084133    1159.1368  0.054388928  0.053945979            5 
 1777000   0.54146754    -3.102296    1158.1835  0.054313615  0.053916037            9 
 1778000   0.54621494   -3.1278737    1159.1651  0.054329072  0.053886081            6 
 1779000   0.54146028   -3.1046472    1159.8565  0.054330921  0.053856068            7 
 1780000   0.53593931   -3.1008334    1159.0717  0.054263657  0.053825904           14 
 1781000   0.54919665   -3.0906342    1157.9307  0.054179803  0.053796019           27 
 1782000   0.55874362   -3.1034636    1157.9938  0.054152349  0.053765975            8 
 1783000   0.53964124   -3.1267353    1157.5946   0.05410332  0.053735906            7 
 1784000   0.55211279   -3.1058395    1158.1861  0.054100623  0.053705777           18 
 1785000   0.55317726   -3.1135275    1157.6813  0.054046745  0.053675652           10 
 1786000    0.5354884   -3.1125546    1158.1483  0.054038276  0.053645422           13 
 1787000   0.53868795   -3.0989491    1162.5539  0.054213484  0.053615248            8 
 1788000   0.54478695   -3.1080608    1156.9341  0.053921238   0.05358517            6 
 1789000   0.52959191   -3.1142759    1161.8689  0.054120967  0.053554936           10 
 1790000   0.52817086   -3.1117079    1156.4549  0.053838681  0.053524746           12 
 1791000   0.53334864   -3.0989986    1159.6069  0.053955281  0.053494718            8 
 1792000   0.54307874   -3.1020426    1156.7605  0.053792804  0.053464651            8 
 1793000   0.53378972   -3.1117927     1157.742  0.053808422  0.053434573           10 
 1794000   0.53521997   -3.1446691    1156.5893  0.053724882  0.053404324           19 
 1795000   0.54193419   -3.1109684    1156.1377  0.053673986  0.053374135            8 
 1796000   0.53122056   -3.1217699    1158.9915  0.053776515  0.053344059           11 
 1797000   0.52738695   -3.1045591     1158.466  0.053722224    0.0533142           10 
 1798000   0.53243518   -3.1114131    1158.2872  0.053684056  0.053284202           22 
 1799000   0.53714443   -3.0952999    1159.2011  0.053696549  0.053254175           34 
 1800000   0.51564454   -3.1001388    1160.4694  0.053725435   0.05322407           14 
 1801000   0.53920101   -3.1043407    1160.4602  0.053695177  0.053194068            7 
 1802000   0.51771135   -3.1114943    1160.8847  0.053685011  0.053164193            6 
 1803000   0.52131127   -3.1129459    1159.9773  0.053613298  0.053134243            7 
 1804000   0.52955255   -3.1087597    1160.3164  0.053599243  0.053104291            8 
 1805000   0.53206072   -3.1215919    1160.0692  0.053558133  0.053074463            6 
 1806000   0.54196589   -3.1105098    1160.1322  0.053531388  0.053044604            9 
 1807000   0.51893106   -3.1210037    1159.4147  0.053468671  0.053014525            6 
 1808000   0.54111075   -3.1179326    1159.2024  0.053429314  0.052984504           20 
 1809000   0.53476733   -3.1274798    1161.6963  0.053514664  0.052954549            8 
 1810000    0.5333172     -3.12701    1158.2522  0.053326531  0.052924494           11 
 1811000   0.52919677   -3.1258851    1157.5625  0.053265347  0.052894496           13 
 1812000   0.53230461   -3.1154792    1162.6188  0.053468489  0.052864527           20 
 1813000   0.53187084   -3.1333653    1159.1781  0.053280847  0.052834418            9 
 1814000   0.53072285   -3.1220671      1156.61  0.053133498  0.052804479           11 
 1815000   0.53066691   -3.1427007    1156.8608   0.05311574  0.052774522            7 
 1816000   0.51167071     -3.12277    1159.2037     0.053194  0.052744586           10 
 1817000   0.52747345   -3.1262699    1159.6241  0.053184006  0.052714704           12 
 1818000   0.54046395   -3.1331637    1162.5442  0.053288603  0.052684953           10 
 1819000   0.52835718   -3.1220165    1160.3437  0.053158499  0.052655208            5 
 1820000   0.53365494   -3.1194534    1163.0294  0.053252264  0.052625528            9 
 1821000   0.52090842   -3.1125593    1161.5738  0.053156409  0.052595873           14 
 1822000   0.52875638   -3.1305278    1163.7254   0.05322564  0.052566158            8 
 1823000   0.52886325   -3.1105758    1164.0595  0.053211717  0.052536601           15 
 1824000   0.52018176   -3.1318047    1160.7492  0.053031306  0.052506819           20 
 1825000   0.52435473   -3.1458514    1163.7417  0.053138889   0.05247701           11 
 1826000   0.52352904   -3.1304235    1161.4645  0.053005863    0.0524472           16 
 1827000   0.53183797   -3.1386839    1159.1196  0.052869895   0.05241737           15 
 1828000   0.51674422   -3.1349905    1160.8477  0.052919753  0.052387575           23 
 1829000    0.5296955   -3.1436698    1158.2525  0.052772578  0.052357778            9 
 1830000    0.5337487   -3.1314679    1163.1601  0.052967216  0.052328005           12 
 1831000   0.51323084   -3.1264105    1161.5966  0.052867131  0.052298416           11 
 1832000   0.52491197   -3.1360751     1159.671  0.052750684  0.052268584           15 
 1833000   0.52177935   -3.1440277    1158.2118  0.052655566  0.052238818           40 
 1834000   0.53090253   -3.1374595     1162.568  0.052824793  0.052209187           17 
 1835000   0.53804604   -3.1435038    1159.5376  0.052658385  0.052179392           20 
 1836000   0.52961236   -3.1491697    1161.1651  0.052703572   0.05214966            8 
 1837000   0.51585097   -3.1457043     1160.101  0.052626609  0.052119782           12 
 1838000   0.52335935    -3.129926    1161.3642  0.052655251  0.052089927           17 
 1839000   0.51133535   -3.1325457    1157.6968  0.052460432  0.052059972           15 
 1840000   0.51234399   -3.1580935    1156.7588  0.052389438  0.052030056           10 
 1841000   0.51514896   -3.1335945    1157.9196  0.052413527  0.052000158           15 
 1842000   0.52207854   -3.1458531    1160.0066  0.052479487  0.051970345            5 
 1843000   0.51908864   -3.1436328    1160.0575  0.052453314  0.051940628            7 
 1844000   0.52508768   -3.1481864    1159.9056  0.052418003  0.051910743           13 
 1845000   0.49862723   -3.1402564    1159.1035  0.052353365  0.051881104           10 
 1846000   0.50846871   -3.1501502    1159.6742  0.052350766  0.051851405           14 
 1847000   0.51356109   -3.1457176    1160.2983  0.052350583  0.051821821           16 
 1848000   0.51593525   -3.1386292    1159.3958  0.052281556  0.051792193            9 
 1849000   0.52141429   -3.1471332    1161.3146  0.052339761  0.051762666            5 
 1850000   0.50283992    -3.150506    1161.0973   0.05230168  0.051733193           24 
 1851000   0.52037161   -3.1647341    1157.9477  0.052131625  0.051703598           11 
 1852000   0.51458006   -3.1298691    1163.3476  0.052346456  0.051674149           13 
 1853000   0.50992838   -3.1493691    1162.8814  0.052297238  0.051644817           13 
 1854000   0.50709835    -3.146842    1161.5813  0.052210595  0.051615394            4 
 1855000   0.51071398   -3.1767724    1158.0639  0.052024434  0.051585923           21 
 1856000   0.51124781     -3.15105    1162.7242  0.052205647  0.051556427           15 
 1857000   0.51157336   -3.1619692    1160.9177   0.05209647  0.051526938           11 
 1858000   0.51493571   -3.1607439    1161.5819  0.052098219  0.051497364           24 
 1859000   0.50586775   -3.1564063    1163.1793  0.052141799  0.051467766            5 
 1860000   0.51060402   -3.1670402    1159.4796  0.051948009  0.051438218            9 
 1861000   0.49843867   -3.1832317    1161.1351  0.051994227  0.051408542            8 
 1862000   0.50613756    -3.165869    1159.0474  0.051872868  0.051378885            9 
 1863000   0.50621221   -3.1509184    1159.7835  0.051877953  0.051349349           15 
 1864000   0.50803098   -3.1452656      1161.15  0.051911214  0.051319811           21 
 1865000   0.49416634   -3.1583933    1159.4993  0.051809622   0.05129019           27 
 1866000    0.5177849   -3.1675368    1159.5496  0.051784101  0.051260723           20 
 1867000   0.50225222   -3.1759477    1160.2959  0.051789675  0.051231162           16 
 1868000   0.51122202   -3.1671378    1161.8203  0.051829956  0.051201708           16 
 1869000   0.50914709    -3.165745    1160.8277  0.051757969  0.051172204           27 
 1870000   0.50074112   -3.1500283    1161.5462  0.051762306  0.051142816           24 
 1871000   0.50563835   -3.1601541    1160.4723  0.051686813   0.05111348            6 
 1872000   0.49879228   -3.1522865    1159.9806  0.051637314   0.05108415            9 
 1873000   0.50676006   -3.1795743    1158.6968  0.051552627  0.051054719           17 
 1874000   0.49851398   -3.1627372    1160.1139   0.05158813  0.051025431           11 
 1875000   0.50644955   -3.1555942    1160.9391  0.051597295  0.050996098           10 
 1876000   0.50101212   -3.1508638    1165.8754  0.051789063  0.050966896           18 
 1877000   0.50086859    -3.157018      1162.98  0.051632926  0.050937791           22 
 1878000   0.50064632   -3.1645202    1166.0471   0.05174153  0.050908672            6 
 1879000   0.50384359   -3.1661615    1163.5935  0.051605173  0.050879683           17 
 1880000   0.50917455   -3.1518876    1162.7628  0.051540906   0.05085061           11 
 1881000   0.49860468   -3.1768287    1160.7539  0.051424503  0.050821364           41 
 1882000   0.50297084   -3.1695412    1158.1283  0.051280921  0.050792156           25 
 1883000   0.49210965   -3.1673576    1164.6593   0.05154272  0.050763027            9 
 1884000   0.49296622   -3.1738705    1162.8802  0.051436669  0.050733762            7 
 1885000   0.50331382   -3.1614806    1163.1784  0.051422565  0.050704789            7 
 1886000   0.49965974    -3.177008    1161.4023  0.051316821  0.050675634           11 
 1887000    0.4965507    -3.171539    1162.5566  0.051340604  0.050646476            8 
 1888000   0.49924529   -3.1571317    1163.5225  0.051356042  0.050617445           13 
 1889000   0.50131257   -3.1739902    1162.0839   0.05126539  0.050588323           11 
 1890000   0.50705846   -3.1657287    1160.3843   0.05116333  0.050559257           15 
 1891000   0.49794183    -3.171691    1160.3309   0.05113392  0.050530202           10 
 1892000   0.49735579   -3.1828523    1161.6006  0.051162815  0.050501078           16 
 1893000   0.49092607   -3.1869856    1162.1333  0.051159242  0.050471924           14 
 1894000   0.50644149   -3.1719034    1164.2423  0.051225022  0.050442738           24 
 1895000   0.50119086   -3.1823929    1159.3417  0.050982483  0.050413687           17 
 1896000    0.5054265   -3.1789708    1163.7326  0.051148584  0.050384465           18 
 1897000   0.49162026   -3.1861481    1165.2836  0.051189754  0.050355454           15 
 1898000   0.48203333   -3.1902431    1160.7439  0.050963468  0.050326388           15 
 1899000   0.48791802   -3.1882419    1164.7609  0.051112907   0.05029716            8 
 1900000   0.50269163   -3.1760328    1162.4638  0.050985256  0.050268001           14 
 1901000   0.50122108   -3.1841781    1164.7157   0.05105715   0.05023887           34 
 1902000   0.49807523   -3.1633795    1161.3709   0.05088376  0.050209777           12 
 1903000   0.49978265   -3.1872185    1162.0701  0.050887636  0.050180623           17 
 1904000   0.48346589   -3.1943363    1163.4651  0.050921968   0.05015148           12 
 1905000   0.48290848   -3.1907381    1161.0866  0.050791188  0.050122419           15 
 1906000   0.49913646   -3.1853463    1164.8517  0.050929159   0.05009338           17 
 1907000   0.50104586   -3.1712289    1162.9414  0.050818975  0.050064355           12 
 1908000   0.48719303   -3.1865176    1163.4005  0.050812392  0.050035383           46 
 1909000   0.49736285   -3.1963593    1161.3806  0.050697597  0.050006444           13 
 1910000     0.486574   -3.1943866    1161.8432  0.050691237   0.04997739            8 
 1911000   0.49552356   -3.1843501     1160.983  0.050627204  0.049948331           11 
 1912000   0.48623606   -3.1861061    1163.7129  0.050719704  0.049919343           20 
 1913000   0.48933219   -3.1841414    1162.5121  0.050640881  0.049890278           11 
 1914000   0.48814195   -3.1880124    1159.9812  0.050504232  0.049861289           17 
 1915000   0.48608338   -3.1848722    1162.2467  0.050576443  0.049832226           11 
 1916000   0.48401286   -3.1833851     1160.107  0.050456983  0.049803322           15 
 1917000   0.48567563   -3.1944888    1160.4772  0.050446756  0.049774265           30 
 1918000   0.49911764   -3.2022179    1160.8646  0.050437286    0.0497451           27 
 1919000   0.49742497   -3.1975248      1162.86  0.050497653  0.049716008           13 
 1920000   0.48559291   -3.1916861    1161.3626  0.050406364  0.049687064           11 
 1921000   0.49045976   -3.1937575    1160.0527  0.050323302  0.049658166           11 
 1922000   0.47591862   -3.1931072    1162.8172  0.050416979  0.049629249           18 
 1923000   0.48217467   -3.1990882    1164.4638  0.050462116  0.049600413           12 
 1924000     0.478019   -3.2018998      1163.33  0.050386782  0.049571517           10 
 1925000   0.48416747   -3.2091168    1163.8712  0.050384036  0.049542675           20 
 1926000   0.48304381    -3.192817    1161.2307  0.050243626  0.049513787           10 
 1927000   0.47451432    -3.193357    1162.6702  0.050279807  0.049484989           13 
 1928000   0.48367457   -3.2095538    1162.3292  0.050238988    0.0494562           19 
 1929000   0.48592008   -3.2057168    1163.9183  0.050281594  0.049427332           23 
 1930000   0.48074399   -3.1989173     1163.347  0.050230871  0.049398394           15 
 1931000   0.47170598    -3.218165    1160.8387  0.050096611  0.049369354           28 
 1932000   0.48699884   -3.2057712    1162.1024   0.05012519  0.049340348           39 
 1933000   0.47746743   -3.2238494    1162.7576  0.050127506  0.049311455           45 
 1934000   0.48080372   -3.2024283    1162.6796  0.050098223  0.049282509           19 
 1935000   0.46953652   -3.2076561    1162.0353  0.050044586  0.049253619           30 
 1936000     0.480871    -3.224932    1159.7993  0.049922491  0.049224779           17 
 1937000   0.48071317      -3.2183    1162.1094  0.049996101  0.049195975           20 
 1938000   0.47316823   -3.1983376    1160.6957  0.049909514  0.049167087           39 
 1939000    0.4924195   -3.1949923    1159.8979  0.049849488  0.049138266           23 
 1940000   0.47561016   -3.1919758    1160.8689  0.049865503  0.049109438           12 
 1941000   0.47603892   -3.2151984    1160.8236  0.049837865  0.049080725           14 
 1942000   0.47852661   -3.1999166    1163.3512  0.049920667  0.049051966           18 
 1943000    0.4804451    -3.214504    1162.3272  0.049851054  0.049023172           29 
 1944000   0.47407358   -3.2260059    1159.2744  0.049694547  0.048994204           12 
 1945000   0.47478304    -3.188738    1161.1863  0.049750915  0.048965333           11 
 1946000   0.47678126   -3.2150495    1159.3412  0.049646336  0.048936649           23 
 1947000   0.47158445   -3.2079119    1160.3628  0.049664562  0.048907896           24 
 1948000   0.47715762   -3.2079841    1159.6838   0.04961002  0.048879234           19 
 1949000   0.47664531   -3.2102788    1160.1609  0.049604965  0.048850343           23 
 1950000   0.46869868    -3.226199    1158.6661  0.049515644  0.048821494           25 
 1951000   0.46910412    -3.210448    1160.7151  0.049577787  0.048792538           19 
 1952000   0.47133722   -3.2020523    1160.3987   0.04953888  0.048763755           17 
 1953000   0.47993085    -3.219955    1161.7958  0.049573125  0.048734878           29 
 1954000   0.46336816   -3.2301992    1161.1762  0.049521334  0.048705941           14 
 1955000     0.479118    -3.236081    1159.1514  0.049409691  0.048676919            8 
 1956000   0.48561914   -3.2247159    1161.7847   0.04949662   0.04864801           13 
 1957000   0.47683542   -3.2131928    1161.3884  0.049454453  0.048619197            8 
 1958000   0.47492648   -3.2365075    1157.3124  0.049255721   0.04859042           13 
 1959000   0.47470076   -3.2410811    1158.3278  0.049273769  0.048561471           27 
 1960000   0.47717497   -3.2224488    1158.7313  0.049265787  0.048532538           22 
 1961000   0.46790416   -3.2249057    1159.3601  0.049267386  0.048503672           30 
 1962000   0.47122965   -3.2328754    1158.7179  0.049214999  0.048474729           11 
 1963000   0.47231814   -3.2251681    1157.3491  0.049131817  0.048445901           22 
 1964000   0.46973721   -3.2235037    1160.8589  0.049255722  0.048417099           12 
 1965000   0.46689173   -3.2075333    1162.4753  0.049299207  0.048388338           22 
 1966000   0.47994887   -3.2111244    1159.7433  0.049158328  0.048359671           25 
 1967000    0.4707545   -3.2342446    1160.1291  0.049149682  0.048331002           19 
 1968000   0.46769924   -3.2216266    1160.9616  0.049159959  0.048302224            9 
 1969000   0.46354458   -3.2177998    1160.7978   0.04912806  0.048273573           16 
 1970000   0.46075716   -3.2140944    1159.5149  0.049048853   0.04824492           16 
 1971000   0.46619097   -3.2160217     1159.409   0.04901949  0.048216337           29 
 1972000   0.46102576   -3.2038023    1161.8238  0.049096678  0.048187811           16 
 1973000    0.4718052   -3.2276868    1163.0463   0.04912343  0.048159234           10 
 1974000   0.45709382   -3.2316839    1159.0074  0.048928039  0.048130638           11 
 1975000   0.47283007   -3.2538843    1160.4349  0.048963499  0.048101834           13 
 1976000   0.45038643   -3.2398045    1158.3645  0.048851405  0.048073178           22 
 1977000    0.4656156   -3.2277236    1161.0083  0.048938133  0.048044479           42 
 1978000   0.46222367   -3.2271178    1161.4877  0.048933589  0.048015832           16 
 1979000    0.4692244   -3.2301049    1158.9124  0.048800421  0.047987199           19 
 1980000   0.46378858   -3.2242728    1159.2838  0.048791407  0.047958543           44 
 1981000   0.45004778   -3.2352548    1157.8933  0.048708283  0.047929878           13 
 1982000    0.4548167   -3.2396826    1157.9983  0.048688122  0.047901246           19 
 1983000   0.45569241   -3.2452636    1156.5902  0.048604396  0.047872578           16 
 1984000   0.45531645   -3.2456939    1159.5304  0.048703395  0.047843894           15 
 1985000   0.46669582   -3.2407664     1158.034  0.048616038  0.047815218           26 
 1986000   0.46241493   -3.2285756    1157.6887  0.048577067  0.047786589           21 
 1987000   0.45837709   -3.2436756    1157.9207   0.04856235  0.047758037           32 
 1988000   0.45314319   -3.2381574    1157.4245  0.048517124  0.047729444           15 
 1989000    0.4471558   -3.2448739    1158.2151  0.048525853  0.047700867           11 
 1990000   0.45119919   -3.2597216    1156.9983  0.048450517  0.047672302           25 
 1991000   0.44757181   -3.2421454    1158.0882  0.048471798  0.047643687           47 
 1992000     0.450968   -3.2424188    1159.6257  0.048511786  0.047615117           41 
 1993000   0.46423064   -3.2475035    1161.6558  0.048572328  0.047586662           45 
 1994000   0.45426966   -3.2648336    1160.1683  0.048485804  0.047558219           29 
 1995000   0.45958706   -3.2335876    1159.3612  0.048427786  0.047529668           29 
 1996000   0.45983497      -3.2409    1158.5558  0.048369899  0.047501181           15 
 1997000   0.45793314   -3.2603486    1160.2317  0.048415612  0.047472807           20 
 1998000   0.44700892   -3.2363501    1159.5675  0.048363677   0.04744434           15 
 1999000    0.4634516   -3.2433976    1159.2178  0.048324906  0.047415905           24 
 2000000    0.4646315   -3.2566918    1157.9914   0.04824964  0.047387516           39 
 2001000   0.44127649   -3.2577267    1157.7158   0.04821405  0.047358973           76 
 2002000   0.46198046   -3.2531995    1160.8011  0.048318396  0.047330523           77 
 2003000   0.44909512   -3.2466514    1158.7852  0.048210399  0.047302082           70 
 2004000   0.45041509   -3.2561169    1158.2849  0.048165541  0.047273658          105 
 2005000   0.46410964   -3.2643802    1160.0744  0.048215894  0.047245282           15 
 2006000    0.4524612   -3.2537874    1158.2617  0.048116553  0.047216976           37 
 2007000   0.45798069    -3.260816    1159.1813  0.048130762  0.047188606           32 
 2008000   0.44981012    -3.270886    1159.1888  0.048107106  0.047160223           46 
 2009000   0.44718901   -3.2570006    1156.5499  0.047973696  0.047131806           48 
 2010000   0.45664938   -3.2518216    1157.9474   0.04800777  0.047103454           12 
 2011000   0.45977668   -3.2615105    1155.6598  0.047889102  0.047075069           49 
 2012000   0.45011129   -3.2650188    1160.2039   0.04805351  0.047046671           43 
Loop time of 4811.2 on 48 procs for 2000000 steps with 4000 atoms

Performance: 71832.419 tau/day, 415.697 timesteps/s
99.4% CPU use with 48 MPI tasks x no OpenMP threads

MPI task timing breakdown:
Section |  min time  |  avg time  |  max time  |%varavg| %total
---------------------------------------------------------------
Pair    | 295.16     | 324.87     | 347.02     |  65.9 |  6.75
Neigh   | 32.712     | 33.705     | 34.822     |   9.6 |  0.70
Comm    | 298.36     | 322.38     | 354.85     |  76.2 |  6.70
Output  | 4.3633     | 4.3658     | 4.4029     |   0.3 |  0.09
Modify  | 4072.4     | 4084.6     | 4094.6     |   7.6 | 84.90
Other   |            | 41.28      |            |       |  0.86

Nlocal:        83.3333 ave          91 max          76 min
Histogram: 1 3 5 5 13 6 5 5 2 3
Nghost:        2154.08 ave        2172 max        2135 min
Histogram: 1 3 6 3 14 5 5 4 3 4
Neighs:        14197.3 ave       15714 max       12810 min
Histogram: 5 2 5 5 10 4 8 4 3 2
FullNghs:      28393.4 ave       31296 max       25981 min
Histogram: 3 2 8 5 13 5 5 3 3 1

Total # of neighbors = 1362885
Ave neighs/atom = 340.72125
Neighbor list builds = 108677
Dangerous builds = 0

#clear
#
#next RN
#
#jump SELF
Total wall time: 1:20:14
