
units lj                  # Use reduced LJ style units
atom_style atomic         # Uncharged point particles
atom_modify map hash      # Needed for indexing of clusters etc
                          # Used to be able to find where atoms are in relation to each other.

lattice fcc 1.0 spacing 1 1 1
Lattice spacing in x,y,z = 1.5874011 1.5874011 1.5874011
region box block 0 10 0 10 0 10 units lattice
create_box 2 box
Created orthogonal box = (0.0000000 0.0000000 0.0000000) to (15.874011 15.874011 15.874011)
  3 by 4 by 4 MPI processor grid
create_atoms 1 box
Created 4000 atoms
  using lattice units in orthogonal box = (0.0000000 0.0000000 0.0000000) to (15.874011 15.874011 15.874011)
  create_atoms CPU = 0.003 seconds
set type 1 type/fraction 2 0.35 78393
Setting atom values ...
  1418 settings made for type/fraction
mass 1 1.0
mass 2 1.0
pair_style lj/cut  3.5
pair_modify tail  yes
pair_coeff 1  1  1.0  1.0   # Intearaction between 1 and 1 set with epsilon = 1 and sigma = 1
pair_coeff 1  2  1.5  0.8
pair_coeff 2  2  0.5  0.88

write_data data.0
System init for write_data ...
Neighbor list info ...
  update every 1 steps, delay 10 steps, check yes
  max neighbors/atom: 2000, page size: 100000
  master list distance cutoff = 3.8
  ghost atom cutoff = 3.8
  binsize = 1.9, bins = 9 9 9
  1 neighbor lists, perpetual/occasional/extra = 1 0 0
  (1) pair lj/cut, perpetual
      attributes: half, newton on
      pair build: half/bin/atomonly/newton
      stencil: half/bin/3d
      bin: standard
WARNING: Not all mixed pair coeffs generated from mixing. Use write_data with 'pair ij' option to store all pair coeffs. (../write_data.cpp:312)


#############################
#   M E L T   S Y S T E M   #
#############################

velocity all create 2.4 8172548 mom yes dist gaussian # Assign velocities
                                                    # Temperature 2.4, random number seed, zero linear momentum
                                                                                # Gaussian distribution

timestep 0.002   # simulation timestep
thermo 1000       # output thermodynamic data every 1000 steps bf 100

# Define a fix  in this case with index 1 applied to all
# particles in the simulation. This fix is for simulations
# in the anisotropic NPT ensemble. Note that we use the MTK
# correction.
fix 1 all npt temp 2.4 2.4 0.1 iso 5.68 5.68 0.5 mtk yes tchain 5 pchain 5 # Use NPT ensemble
                                                                         # Set temperature and pressure and damping
                                                                         # Numbers of thermostats in chain and in barostat
run 10000          # run for 10000 steps
Per MPI rank memory allocation (min/avg/max) = 3.642 | 3.644 | 3.648 Mbytes
Step Temp E_pair E_mol TotEng Press Volume 
       0          2.4   -6.1483103            0   -2.5492103   -4.0910289         4000 
    1000    2.4392775   -5.0143555            0   -1.3563539    5.4268571     4054.221 
    2000    2.4212032   -4.9726409            0   -1.3417441     5.775748    4028.7725 
    3000    2.3912741   -5.0121523            0   -1.4261378    5.5862053     4022.464 
    4000    2.4149478   -5.0035429            0   -1.3820269    5.4008162     4051.561 
    5000    2.3942545   -5.0456688            0   -1.4551848    5.5729142    4016.9184 
    6000     2.355189   -5.0228734            0   -1.4909731     5.804357    4000.4264 
    7000    2.4485889   -5.0097843            0   -1.3378192     5.896687    4007.0675 
    8000    2.4343002   -4.9288332            0   -1.2782957    5.8575596    4044.5117 
    9000    2.4155582   -5.0021846            0   -1.3797531    5.1576998    4076.7584 
   10000    2.3830475   -5.0491248            0   -1.4754471    5.4667351    4011.6106 
Loop time of 2.56548 on 48 procs for 10000 steps with 4000 atoms

Performance: 673558.328 tau/day, 3897.907 timesteps/s
99.5% CPU use with 48 MPI tasks x no OpenMP threads

MPI task timing breakdown:
Section |  min time  |  avg time  |  max time  |%varavg| %total
---------------------------------------------------------------
Pair    | 1.0602     | 1.1499     | 1.2238     |   3.3 | 44.82
Neigh   | 0.20231    | 0.21437    | 0.22982    |   1.2 |  8.36
Comm    | 0.79664    | 0.87808    | 0.98281    |   4.3 | 34.23
Output  | 0.00025035 | 0.00025503 | 0.00032656 |   0.0 |  0.01
Modify  | 0.26595    | 0.30784    | 0.34088    |   4.3 | 12.00
Other   |            | 0.01507    |            |       |  0.59

Nlocal:        83.3333 ave          94 max          76 min
Histogram: 2 11 6 8 4 6 4 2 3 2
Nghost:        1641.88 ave        1674 max        1620 min
Histogram: 6 6 5 8 8 5 4 3 1 2
Neighs:        9510.42 ave       11381 max        8356 min
Histogram: 5 5 6 11 6 9 2 2 1 1

Total # of neighbors = 456500
Ave neighs/atom = 114.12500
Neighbor list builds = 907
Dangerous builds = 211

# Equilibrate just above the melting temperature to avoid step fn in T

fix 1 all npt temp 1.25 1.25 0.1 iso 5.68 5.68 0.5 mtk yes tchain 5 pchain 5
run 2000
Per MPI rank memory allocation (min/avg/max) = 3.643 | 3.645 | 3.649 Mbytes
Step Temp E_pair E_mol TotEng Press Volume 
   10000    2.3830475   -5.0491248            0   -1.4754471    5.4667351    4011.6106 
   11000    1.2281527   -6.9053399            0   -5.0635715    5.9144438    3214.5767 
   12000    1.2747444   -6.9876223            0   -5.0759837    5.6701133    3204.5607 
Loop time of 0.584436 on 48 procs for 2000 steps with 4000 atoms

Performance: 591339.535 tau/day, 3422.104 timesteps/s
99.6% CPU use with 48 MPI tasks x no OpenMP threads

MPI task timing breakdown:
Section |  min time  |  avg time  |  max time  |%varavg| %total
---------------------------------------------------------------
Pair    | 0.23983    | 0.283      | 0.30941    |   2.5 | 48.42
Neigh   | 0.036208   | 0.040171   | 0.04309    |   0.7 |  6.87
Comm    | 0.18335    | 0.21258    | 0.25871    |   3.2 | 36.37
Output  | 5.1269e-05 | 5.2294e-05 | 6.6128e-05 |   0.0 |  0.01
Modify  | 0.040216   | 0.043904   | 0.047205   |   0.9 |  7.51
Other   |            | 0.004734   |            |       |  0.81

Nlocal:        83.3333 ave          90 max          75 min
Histogram: 1 3 6 1 10 3 7 4 8 5
Nghost:        1906.48 ave        1944 max        1884 min
Histogram: 6 5 8 3 9 8 7 1 0 1
Neighs:        11927.4 ave       13490 max       10340 min
Histogram: 4 1 3 6 12 6 5 5 3 3

Total # of neighbors = 572514
Ave neighs/atom = 143.12850
Neighbor list builds = 142
Dangerous builds = 7

#############################
# L I N E A R  Q U E N C H  #
#############################

# Define solid atoms. This closely follows ten Wolde  Ruiz-Montero and Frenkel  Faraday Discuss  1996  104  93-110
# Compute components of the per-atom q6 vector
compute q6 all orientorder/atom degrees 1 6 components 6 nnn NULL cutoff 1.3 # compute the Q6 parameter.
                                                                             # Use all neighbours within 1.3 unit cell.

# get number of connections
compute coord_number all coord/atom orientorder q6 0.5

# An atom is solid if it has 8 or more connections (of a possible 14)
variable is_solid atom c_coord_number>=8
group solid dynamic all var is_solid    # Must be dynamic to update
dynamic group solid defined

# do clustering
compute cluster solid cluster/atom 1.3 # Create a cluster where all atoms within are solid and max 1.3 units from another member

# define chunks one chunk per cluster
compute clus_chunks solid chunk/atom c_cluster nchunk every compress yes  # Says which atoms are in which chunk

# count the size of each chunk
compute size_chunks solid property/chunk clus_chunks count


# Find the maximum entry in the vector of chunk sizes
variable max_n equal max(c_size_chunks)


# Thermo style which includes this variable
# thermo_style custom step temp pe vol v_max_n

thermo ${N}  # Print the thermo information every 100 steps
thermo 1000  

# Reset the npt fix at a lower temperature (below freezing)
fix 1  all npt temp  ${temp} ${temp}  0.1  iso  5.68  5.68  0.5  mtk yes tchain  5  pchain  5
fix 1  all npt temp  0.45 ${temp}  0.1  iso  5.68  5.68  0.5  mtk yes tchain  5  pchain  5
fix 1  all npt temp  0.45 0.45  0.1  iso  5.68  5.68  0.5  mtk yes tchain  5  pchain  5

dump dmp2 all dcd ${N} traj.dcd
dump dmp2 all dcd 1000 traj.dcd


compute msd all msd com yes
variable twopoint equal c_msd[4]/6/(step*dt+1.0e-6)
fix 9 all vector 10 c_msd[4]
variable fit equal slope(f_9)/6/(10*dt)
thermo_style custom step temp pe c_msd[4] v_twopoint v_fit v_max_n

fix 1 all npt temp 1.25 ${temp} 0.1 iso 5.68 5.68 0.5 mtk yes tchain 5 pchain 5
fix 1 all npt temp 1.25 0.45 0.1 iso 5.68 5.68 0.5 mtk yes tchain 5 pchain 5
run 500000 # 5000000  # Run for this many steps
Neighbor list info ...
  update every 1 steps, delay 10 steps, check yes
  max neighbors/atom: 2000, page size: 100000
  master list distance cutoff = 3.8
  ghost atom cutoff = 3.8
  binsize = 1.9, bins = 8 8 8
  4 neighbor lists, perpetual/occasional/extra = 1 3 0
  (1) pair lj/cut, perpetual
      attributes: half, newton on
      pair build: half/bin/atomonly/newton
      stencil: half/bin/3d
      bin: standard
  (2) compute orientorder/atom, occasional
      attributes: full, newton on
      pair build: full/bin/atomonly
      stencil: full/bin/3d
      bin: standard
  (3) compute coord/atom, occasional
      attributes: full, newton on
      pair build: full/bin/atomonly
      stencil: full/bin/3d
      bin: standard
  (4) compute cluster/atom, occasional
      attributes: full, newton on
      pair build: full/bin/atomonly
      stencil: full/bin/3d
      bin: standard
Per MPI rank memory allocation (min/avg/max) = 9.817 | 9.822 | 9.826 Mbytes
Step Temp PotEng c_msd[4] v_twopoint v_fit v_max_n 
   12000    1.2747444   -6.9876223 2.9128689e-30 2.0228255e-32 8.3333333e+20            1 
   13000    1.2469347   -6.9711592   0.51502751 0.0033014583  0.042399726            2 
   14000    1.2334522   -6.9699112   0.97614838 0.0058104068  0.040330063            2 
   15000     1.236764   -7.0427706    1.4168065 0.0078711471  0.039100035            2 
   16000     1.249474    -7.080731    1.8097939 0.0094260096  0.037568621            1 
   17000    1.2451998   -7.0267656    2.2339061   0.01095052  0.036443256            1 
   18000    1.2452667   -7.0349904    2.5990674  0.012032719  0.035800957            4 
   19000    1.2583131   -7.0499741    2.9841413  0.013088339  0.034951305            1 
   20000     1.247281   -7.0078701    3.4007466  0.014169777  0.034415162            2 
   21000    1.2356649   -7.0580883    3.8212122   0.01516354  0.034366798            1 
   22000    1.2425698   -7.0719768    4.1796156  0.015831877  0.034167957            2 
   23000    1.2180544   -6.9861503    4.6192518  0.016736419  0.034058837            1 
   24000    1.2547607   -7.0218033    5.0115794  0.017401317  0.033989493            2 
   25000    1.2249467   -7.0164047    5.5619177  0.018539725  0.034076973            1 
   26000    1.2306729   -7.0343955    6.0356057   0.01934489  0.034395611            1 
   27000    1.2426741   -7.0616373    6.4318085   0.01985126  0.034623217            2 
   28000    1.2052506   -7.0438881    6.8898567  0.020505525  0.034819736            1 
   29000    1.1989499    -7.063721    7.4522461    0.0214145  0.035155246            3 
   30000     1.216902   -7.0172121    7.9019542  0.021949872  0.035503076            2 
   31000    1.2243773   -7.0358357    8.3468151  0.022437675  0.035750464            1 
   32000    1.2212291   -7.0797487    8.7889538    0.0228879  0.035934734            1 
   33000    1.2436987   -7.0676448     9.236629   0.02332482  0.036121808            1 
   34000    1.2269801   -7.1167957    9.6743452   0.02371163  0.036244939            1 
   35000     1.209846   -7.0701227    10.032093  0.023885935  0.036313814            1 
   36000    1.2304189   -7.1101008    10.408827  0.024094507  0.036314522            1 
   37000    1.1986168   -7.1156911    10.932552  0.024622866  0.036312274            3 
   38000    1.2037717   -7.0381827    11.369614  0.024933364  0.036339818            2 
   39000    1.2148417   -7.0972084     11.70804  0.025017179  0.036304484       -1e+20 
   40000      1.19451   -7.1163317    11.928374  0.024850778  0.036212789            1 
   41000    1.2126868   -7.0692123     12.34343  0.025088273  0.036065901            1 
   42000    1.1938237   -7.1161006    12.702892   0.02520415  0.035930024            2 
   43000    1.1866776   -7.1271074    13.009996  0.025213171  0.035755217            1 
   44000    1.1618097   -7.1060395    13.511851  0.025590627  0.035609333            1 
   45000    1.1806609   -7.1603942    13.832467   0.02561568  0.035468628            2 
   46000    1.1815598   -7.1374847     14.28735   0.02588288  0.035340266            4 
   47000    1.1954725   -7.1398036    14.683912  0.026035305   0.03523894            4 
   48000    1.2079457   -7.1322818    15.115091  0.026241477   0.03514662            2 
   49000     1.166194   -7.1126664    15.503299  0.026366154   0.03505717            1 
   50000    1.1966798   -7.1484768    15.974992  0.026624987  0.034985407            3 
   51000    1.1855658   -7.1344144    16.280506  0.026602133  0.034918429            2 
   52000    1.1711005   -7.1312186    16.633005  0.026655457  0.034843642            3 
   53000    1.2002011   -7.1623043    17.146192   0.02695942  0.034771387            2 
   54000    1.1866809   -7.1759323    17.514795  0.027029004  0.034719421            1 
   55000     1.191685   -7.1603628    17.844216  0.027036691  0.034658021            1 
   56000    1.1576248   -7.1316423     18.37678  0.027346398  0.034604782            2 
   57000    1.1874656   -7.1675411    18.642729  0.027255452   0.03455787            1 
   58000    1.1760333    -7.173909    19.076816  0.027409219  0.034487412            1 
   59000     1.215586   -7.1316296    19.451108  0.027473316  0.034434763            1 
   60000    1.1541735    -7.142601    19.915806  0.027660841  0.034392216            1 
   61000    1.1599388   -7.1672425    20.331603  0.027775414   0.03435167            1 
   62000    1.1764491   -7.1550935    20.569345  0.027646969  0.034295925            2 
   63000    1.1765884   -7.1585381    21.001343  0.027779554  0.034243109            3 
   64000    1.1529022   -7.1901742    21.476779  0.027964556  0.034193415            2 
   65000    1.1674887    -7.178158    21.823995  0.027979481  0.034155035            2 
   66000    1.1594145   -7.1912569    22.178138  0.028002699  0.034106714            1 
   67000    1.1466638    -7.187455     22.59166   0.02809908   0.03406615            3 
   68000    1.1563907   -7.1368592    23.034481  0.028228531  0.034031628            3 
   69000    1.1486383   -7.1913373    23.173582  0.027987418  0.033977269            1 
   70000    1.1641209   -7.1814835    23.666051  0.028173871  0.033916248            2 
   71000    1.1261173    -7.213061    23.849288  0.027992122  0.033860007            2 
   72000    1.1452763   -7.2103758     24.22723  0.028040775  0.033799047            1 
   73000    1.1479533   -7.2245702    24.450836  0.027911913  0.033723228            2 
   74000    1.1678316   -7.2520456    24.711531  0.027828301  0.033636125            2 
   75000    1.1563281   -7.2356759    24.975129  0.027750143  0.033536522            1 
   76000    1.1588133   -7.2472385     25.17093  0.027599704  0.033424294            1 
   77000    1.1322602    -7.242216     25.40907  0.027498993  0.033301182            2 
   78000    1.1572082    -7.255654    25.668764  0.027423893  0.033164017            2 
   79000    1.1657816   -7.2467152    26.002547  0.027428847   0.03303084            1 
   80000    1.1173055   -7.2874928    26.294367  0.027389966  0.032904954            1 
   81000    1.1245258   -7.2767382    26.557767  0.027322805  0.032777736            1 
   82000    1.1372065   -7.2377142    27.070736   0.02751091  0.032657382            2 
   83000    1.1592166   -7.2182757    27.400657  0.027510699  0.032547617            3 
   84000    1.1222547    -7.255936    27.754358  0.027534085  0.032444971            1 
   85000    1.1375672   -7.2311964    28.077002  0.027526472   0.03234479            3 
   86000    1.1427471   -7.2872825     28.30696  0.027429225    0.0322401            2 
   87000      1.12299   -7.2959336    28.606302  0.027400673  0.032133049            2 
   88000    1.1247015    -7.269454    28.904208  0.027371409  0.032029642            1 
   89000    1.1103036   -7.2472884    29.415816  0.027542899   0.03194007            2 
   90000    1.1315151   -7.2856017    29.629582  0.027434798   0.03185492            3 
   91000    1.1152513   -7.2675852    29.894598  0.027376005  0.031767983            1 
   92000    1.1027509   -7.2657563    30.328596  0.027471554  0.031677298            2 
   93000    1.1155372   -7.2814062    30.625693  0.027442377  0.031591193            2 
   94000    1.0976709   -7.3051094     30.84307  0.027343147  0.031507871            2 
   95000    1.1120715   -7.2911262     31.13714  0.027313281  0.031422171            1 
   96000    1.1331845   -7.3135739    31.466029  0.027314261  0.031337766            2 
   97000    1.1231699   -7.3021045    31.883422  0.027391256  0.031255686            2 
   98000    1.1073557   -7.3049048     32.24435  0.027418665  0.031178318            2 
   99000    1.0981837   -7.3653494    32.375918  0.027252456  0.031102966            1 
  100000    1.0894963   -7.3389865    32.913577  0.027427981  0.031027196            2 
  101000    1.1070119   -7.3127246    33.116543  0.027323881  0.030953425            1 
  102000    1.1058988   -7.3274234    33.418108  0.027302376  0.030878662            1 
  103000    1.0827988   -7.3318016    33.819686  0.027362206  0.030805855            2 
  104000    1.1268079    -7.330486    33.936752   0.02719291  0.030733787            2 
  105000     1.109722   -7.3143447    34.403004  0.027303971  0.030661831            3 
  106000     1.077867   -7.2984458    34.770486  0.027335287  0.030591814            1 
  107000    1.1144778   -7.3153005    34.859005  0.027148757  0.030520803            1 
  108000    1.1082682   -7.3799994    35.123878  0.027101758  0.030449065            2 
  109000    1.1059761   -7.3303777    35.361688   0.02703493    0.0303687            5 
  110000    1.0906079   -7.3813923    35.339231  0.026772145  0.030285374            1 
  111000    1.0934967   -7.3837683    35.590276  0.026719426  0.030196082            2 
  112000    1.0829039   -7.3481126     35.91054  0.026719152  0.030109582            2 
  113000    1.0936675   -7.3338898    36.162101  0.026668216  0.030023202            1 
  114000     1.091076   -7.3535957    36.534846  0.026706759  0.029940187            1 
  115000    1.0960632   -7.3741851    36.733909  0.026618775  0.029855668            1 
  116000    1.0960274   -7.3740126    37.026978   0.02659984  0.029773448            1 
  117000    1.0707457   -7.3700593    37.382172  0.026625479  0.029694495            1 
  118000     1.069399   -7.3882702    37.623163   0.02657003  0.029618854            2 
  119000    1.0880376   -7.4207709    38.114401  0.026690757  0.029546344            3 
  120000    1.0918795   -7.4255087    38.153879  0.026495749  0.029474561            4 
  121000    1.0756381   -7.3736698    38.505501   0.02651894  0.029401368            2 
  122000      1.08553   -7.4117135    38.852399  0.026538524  0.029329044            3 
  123000    1.0867506   -7.3933133    39.044136  0.026452667   0.02925581            1 
  124000    1.0920676   -7.4031315    39.245649  0.026374764  0.029183528            1 
  125000    1.0894105    -7.415804    39.692652  0.026461768  0.029114723            2 
  126000     1.066091   -7.4139421    39.833921  0.026345185  0.029045732            1 
  127000    1.0649081   -7.4104382    40.087156  0.026303908  0.028976394            3 
  128000    1.0529756   -7.4000752    40.755954  0.026533824  0.028910244            2 
  129000    1.0633003   -7.3969484    40.856404  0.026393026  0.028846817            1 
  130000    1.0628931   -7.4263022    40.944992   0.02624679  0.028781749            1 
  131000    1.0626114     -7.41477    41.178419  0.026194923  0.028711549            2 
  132000    1.0514874   -7.4276656    41.506457  0.026203571  0.028642196            1 
  133000    1.0395373   -7.4492356    41.433033  0.025960547  0.028572031            1 
  134000    1.0734263   -7.4440509    41.905588  0.026060689  0.028501298            1 
  135000    1.0585643   -7.4405024    42.193864  0.026045595  0.028433865            1 
  136000    1.0443505   -7.4503562    42.449331   0.02601062  0.028367938            3 
  137000    1.0588799    -7.382152    42.829354  0.026051918  0.028304248            1 
  138000    1.0516679     -7.45045     43.04171  0.025991371  0.028239488            2 
  139000    1.0477689    -7.443932    43.372263  0.026002555  0.028177018            4 
  140000    1.0381478   -7.4744191    43.670447  0.025994314  0.028114634            3 
  141000    1.0660734    -7.473335    43.792564   0.02588213  0.028052887            2 
  142000    1.0422662   -7.4789855     44.01719  0.025831684  0.027991716            2 
  143000     1.027262   -7.4675529    44.365629  0.025854096  0.027929315            2 
  144000    1.0261451   -7.4633592    44.531511  0.025770551  0.027867193            3 
  145000    1.0634729   -7.4403402     44.69965  0.025689454  0.027807216            1 
  146000    1.0487454   -7.4921253     44.80231  0.025572094  0.027742192            1 
  147000    1.0214616   -7.4819351    45.177322  0.025610727  0.027674359            1 
  148000    1.0304255   -7.4843857     45.19356  0.025446824  0.027606279            2 
  149000    1.0172385   -7.4955242    45.348014  0.025362424  0.027535528            1 
  150000    1.0212465   -7.4996239    45.868541  0.025482523  0.027468148            1 
  151000    1.0492815   -7.5238941    45.908004  0.025335543  0.027402062            3 
  152000    1.0296307    -7.474033    46.128864  0.025289948  0.027333965            2 
  153000    1.0285613    -7.509949    46.230369   0.02517994  0.027263527            4 
  154000    0.9886256   -7.5512147    46.548684  0.025188682   0.02719458            2 
  155000    1.0062213   -7.4941135    47.004365  0.025271164  0.027129181            3 
  156000    1.0024357   -7.5236682    47.125831  0.025174055  0.027064575            2 
  157000    1.0268479   -7.5341384    47.415516  0.025167472  0.026999583            1 
  158000    1.0143449   -7.5192916    47.290559  0.024942278  0.026932694            3 
  159000   0.99965536    -7.548096    47.400103  0.024842821  0.026863779            1 
  160000    1.0175252   -7.5329526    47.518264  0.024749096  0.026792361            3 
  161000   0.97874176   -7.5689462    47.458928  0.024564662  0.026717635            2 
  162000   0.98989902   -7.5795923    47.668196  0.024520677  0.026641083            2 
  163000    1.0219022   -7.6011797    47.970695  0.024524895  0.026565192            2 
  164000    1.0286504   -7.5669186    48.222615  0.024503361  0.026489262            3 
  165000   0.98920326   -7.5157196    48.525293  0.024507724  0.026414686            2 
  166000   0.99154277   -7.5559919    48.518012  0.024356432  0.026339381            1 
  167000    1.0051543   -7.5884813    48.549216  0.024226156  0.026261959            1 
  168000    1.0044604   -7.5828231    48.617666  0.024115906  0.026183871            2 
  169000   0.99763875   -7.5910226     48.83532  0.024080533  0.026104579            2 
  170000   0.99198696   -7.5826522    49.090577  0.024064008  0.026026661            2 
  171000    1.0045682   -7.5702696    49.234871  0.023993602  0.025949146            6 
  172000   0.95854956   -7.6039692    49.423471   0.02394548  0.025870779            3 
  173000    1.0045886   -7.5642312    49.854512  0.024014697  0.025793605            1 
  174000    0.9948505     -7.62959    49.864182  0.023881313  0.025718443            1 
  175000   0.98062885   -7.5525119    50.050947  0.023833784    0.0256446            1 
  176000   0.99628569   -7.5737809    50.285667  0.023809502  0.025570636            1 
  177000   0.96490003   -7.6251009    50.521387  0.023785964  0.025494879            2 
  178000     1.002632   -7.6300815    50.509323  0.023646687  0.025420913            2 
  179000   0.98631173   -7.6141782    50.855544  0.023675766  0.025347038            2 
  180000   0.98708869   -7.6507508    50.904043  0.023566686  0.025272689            2 
  181000    0.9869816   -7.6036577    51.108473  0.023530604  0.025199374            2 
  182000     1.008124   -7.6159704    51.344182  0.023509241  0.025126877            1 
  183000   0.97812768   -7.6525742    51.325496  0.023372266  0.025054673            2 
  184000   0.97212805   -7.6312831    51.530303  0.023337999  0.024981392            5 
  185000   0.97157134   -7.6379749    51.807467  0.023336697  0.024908162            3 
  186000   0.98276193   -7.6488724     51.96942   0.02328379  0.024835713            1 
  187000   0.97862169   -7.6506844    52.121466  0.023227035  0.024764121            1 
  188000   0.95037712   -7.6701188    52.227612  0.023150537  0.024693637            5 
  189000   0.98789498   -7.6111834    52.464992  0.023132713   0.02462218            5 
  190000   0.97145642    -7.646963    52.610572  0.023074812  0.024550385            1 
  191000   0.96169774   -7.6553819    52.594169  0.022946845  0.024479175            1 
  192000   0.97100023   -7.6971938    53.123701  0.023057162  0.024409686            3 
  193000   0.96981891   -7.6827288     53.06087  0.022910565  0.024340364            2 
  194000   0.94596728   -7.6760484     53.09345  0.022806465  0.024270293            1 
  195000   0.94339842    -7.701721    53.380116  0.022812016  0.024199839            2 
  196000   0.96311859   -7.6894929    53.548308  0.022767138   0.02413051            5 
  197000   0.94465715   -7.6949819    53.831201  0.022771236  0.024062694            2 
  198000   0.95962295   -7.6762561    53.931202  0.022698317  0.023995189            2 
  199000   0.94284707   -7.7113215    54.080388  0.022646729  0.023927416            1 
  200000   0.94350672   -7.7081941    54.044956  0.022518732  0.023858702            2 
  201000   0.93752691    -7.702933    54.094686  0.022427316  0.023788326            4 
  202000   0.94100436   -7.7148374    54.211139  0.022364331  0.023717146            2 
  203000   0.93849724   -7.7229777    54.282781  0.022283572  0.023645788            1 
  204000   0.93172446   -7.6889752    54.206102  0.022143015  0.023573945            1 
  205000   0.93494391   -7.7176489    54.477598  0.022145365  0.023500474            1 
  206000   0.94641012   -7.7155659    54.574923  0.022077234  0.023428516            1 
  207000   0.94033537   -7.7450923      54.7429  0.022038204  0.023357204            1 
  208000   0.92015261   -7.7497619    54.941711  0.022011904  0.023285259            2 
  209000   0.94889185   -7.7237548    55.067905    0.0219569  0.023213681            1 
  210000   0.94339269   -7.7554229    55.021706   0.02183401  0.023142125            2 
  211000   0.93907089   -7.7367427    55.353457  0.021861555  0.023070537            1 
  212000   0.93448103   -7.7703127     55.12734  0.021669552  0.022998726            3 
  213000   0.91735597    -7.740166    55.244331  0.021613588  0.022926725            2 
  214000   0.94808799   -7.7529655    55.524917  0.021621852  0.022855352            1 
  215000    0.9006812   -7.7594595    55.748781  0.021608055  0.022784675            1 
  216000   0.92537771   -7.7899985    55.725913  0.021499195  0.022714073            1 
  217000   0.92641936   -7.7691495    55.993339  0.021502818  0.022644293            3 
  218000   0.91437497   -7.7966397     55.94067  0.021384048  0.022575301            3 
  219000   0.91068354   -7.7750534    56.127444  0.021357475  0.022505729            2 
  220000   0.90782051   -7.7726271    56.046942  0.021229902  0.022434746            1 
  221000   0.91332106   -7.7979459    56.244241  0.021208236  0.022363331            2 
  222000   0.91610655   -7.8510855    56.310275  0.021137491  0.022292448            2 
  223000   0.91273204   -7.8231297    56.419553   0.02108354  0.022221926            2 
  224000   0.91716201   -7.8049117    56.565299  0.021043638  0.022151937            1 
  225000   0.88590128   -7.8224007    56.861024  0.021059638  0.022082864            2 
  226000   0.90887069   -7.8125147    56.926985  0.020990776  0.022014419            2 
  227000   0.92037026   -7.8210857    57.077018  0.020953384  0.021947788            2 
  228000   0.89231034    -7.796407    57.261455  0.020928894  0.021881654            1 
  229000   0.89629931   -7.8554227    57.254091  0.020834822  0.021815417            1 
  230000    0.8771981   -7.8211589    57.482744  0.020827081  0.021749331            2 
  231000   0.91158723   -7.8618533    57.671596  0.020805049   0.02168417            3 
  232000   0.90763157   -7.8470972    57.745853  0.020742045  0.021618705            2 
  233000   0.89513871   -7.8110801    57.894972  0.020706356   0.02155379            2 
  234000   0.90775018   -7.8301951     57.94433  0.020635445  0.021488541            2 
  235000   0.88396324   -7.8562716    57.997014  0.020566317  0.021423513            1 
  236000   0.87957447   -7.8286667     58.03355  0.020492073  0.021357914            4 
  237000   0.88417872   -7.8196905    58.309612  0.020502676  0.021292845            2 
  238000   0.88146066   -7.8458808     58.45634  0.020467906  0.021227758            2 
  239000    0.8878841   -7.8358601    58.208221  0.020295754  0.021162964            3 
  240000   0.87741183   -7.8895003    58.319089  0.020249684  0.021097402            2 
  241000    0.8905923   -7.8427208    58.667806   0.02028624  0.021032732            3 
  242000   0.88663165   -7.8644751    58.694039  0.020211446  0.020968411            2 
  243000   0.87115224   -7.8774398    58.890055  0.020195492  0.020904267            5 
  244000   0.87230269   -7.8936639    58.740137  0.020061522  0.020839837            3 
  245000    0.8896933   -7.8980084    58.676067  0.019957846  0.020775622            2 
  246000   0.86793394   -7.9025934    58.850169  0.019935694  0.020711333            1 
  247000   0.85344587   -7.8909084    58.844261  0.019852989  0.020646313            3 
  248000    0.8819549   -7.9245631    58.989072  0.019821597  0.020580751            2 
  249000   0.86317289   -7.9152591    59.092668  0.019776663  0.020515485            2 
  250000   0.88543654   -7.8748365    59.095561   0.01969852  0.020450401            5 
  251000     0.871617   -7.8834935    59.103027  0.019622519  0.020385868            2 
  252000   0.86405455   -7.9077031    59.119304  0.019550034  0.020321058            1 
  253000   0.86116372   -7.9278061    59.301126   0.01953265   0.02025613            3 
  254000   0.86413879   -7.9098371    59.473998  0.019512467  0.020191455            1 
  255000   0.87298496   -7.9522572    59.315377   0.01938411  0.020126951            3 
  256000   0.86828968   -7.9199726     59.24477  0.019285407  0.020061624            2 
  257000   0.86491441   -7.9435022    59.381749  0.019254782  0.019996652            1 
  258000   0.85959167   -7.9521531    59.532493  0.019228842  0.019931465            3 
  259000   0.87017718   -7.9554468    59.551854  0.019160828  0.019866433            3 
  260000   0.86046027   -7.9042739    59.740787  0.019147688  0.019801219            3 
  261000   0.84558953   -7.9570924    59.667805  0.019051023  0.019736856            2 
  262000   0.84901106   -7.9579024      59.9343  0.019063072  0.019673307            1 
  263000   0.85172723   -7.9739064    59.984722  0.019006566  0.019609989            2 
  264000   0.84861687   -7.9350199    59.960316  0.018926867  0.019546469            1 
  265000   0.83134188   -7.9769589    59.986276  0.018863609  0.019481815            2 
  266000   0.84925597   -7.9843273    60.030305  0.018806487  0.019418273            4 
  267000   0.83844083   -7.9833198    60.046133   0.01874099  0.019354569            3 
  268000   0.84899628    -7.975174    60.253394  0.018735508  0.019291044            5 
  269000   0.82510928   -7.9915183    60.169748  0.018639947  0.019227646            2 
  270000   0.82499118   -7.9608074    60.448637  0.018656987   0.01916412            4 
  271000   0.85145413   -7.9915199     60.16853  0.018502008  0.019100565            1 
  272000    0.8170896   -8.0241872    60.231403  0.018453248  0.019036885            2 
  273000   0.83852159   -8.0105511    60.404927  0.018438622  0.018973244            2 
  274000   0.82729351   -8.0096719    60.393016  0.018367706  0.018909658            1 
  275000   0.85421649    -8.014162    60.343566  0.018285929  0.018846292            3 
  276000    0.8239035   -7.9948485    60.550956  0.018282294  0.018783108            2 
  277000   0.84704933   -8.0346699    60.375572  0.018163529  0.018719679            1 
  278000   0.84416706   -8.0467671    60.458059  0.018122919   0.01865672            1 
  279000   0.83794491   -8.0358793    60.450191  0.018055612  0.018593469            1 
  280000   0.82154288   -8.0251882    60.652578  0.018051362  0.018530632            2 
  281000   0.81234808   -8.0166398    60.546487   0.01795566   0.01846762            4 
  282000   0.81019891   -8.0307642    60.554449  0.017894341  0.018404523            3 
  283000   0.81597946   -8.0484218    60.726718  0.017881837  0.018342209            1 
  284000   0.83116271   -8.0569772    60.785053   0.01783599  0.018280258            2 
  285000   0.81932322    -8.073773    60.636858  0.017730076  0.018218413            2 
  286000   0.80782273   -8.0555602    60.832143  0.017724983   0.01815654            2 
  287000    0.8018787   -8.0785852    60.839638    0.0176654  0.018094983            3 
  288000   0.80656817   -8.0624075    60.693251  0.017561704  0.018033313            2 
  289000   0.81075699   -8.0762942    60.849694  0.017546048  0.017971785            2 
  290000   0.79664413    -8.065061    60.844443  0.017484035  0.017910289            2 
  291000   0.79828736   -8.0736091    60.885452  0.017435696   0.01784892            2 
  292000   0.81668224   -8.0691657    60.924908  0.017387245  0.017787617            2 
  293000   0.80725012   -8.1043614     60.98118  0.017343908  0.017726374            1 
  294000   0.79784806   -8.0628532    61.093869  0.017316856  0.017665887            1 
  295000   0.78720343   -8.0909201    61.233821  0.017297689  0.017605729            3 
  296000    0.8027751   -8.1031776    61.203999  0.017230856  0.017545656            2 
  297000   0.79503622   -8.0500764    61.354257  0.017214999  0.017486417            1 
  298000   0.78223611   -8.1003556    61.328115   0.01714992  0.017427327            3 
  299000   0.79053508   -8.1029299    61.425089   0.01711959  0.017368233            2 
  300000   0.78634676   -8.0835455    61.557496  0.017099304  0.017309711            1 
  301000   0.79049365   -8.0978784    61.612384  0.017057692  0.017251429            1 
  302000   0.79003805   -8.0969846    61.489661  0.016967346  0.017193154            1 
  303000   0.78019984   -8.1396845    61.554126  0.016929078   0.01713539            3 
  304000   0.78544524   -8.1059483     61.67201  0.016905704  0.017077706            3 
  305000   0.78045602   -8.1145019    61.852525  0.016899597  0.017020246            2 
  306000   0.77504003   -8.1345185    61.709226  0.016805345  0.016962959            2 
  307000   0.77229044    -8.124548    61.730459  0.016756368  0.016906023            2 
  308000   0.78652766   -8.1182422     61.74234  0.016705179  0.016849114            2 
  309000   0.77627303   -8.1392051    61.808127  0.016668858  0.016792377            2 
  310000   0.76991477   -8.1268932    61.901187  0.016640104  0.016735788            2 
  311000   0.75244517   -8.1449126    61.985975  0.016609318  0.016679578            1 
  312000   0.77052828   -8.1550198    61.857275  0.016521708  0.016623303            5 
  313000   0.77527748   -8.1712057    61.892403  0.016478276  0.016567272            3 
  314000   0.76017952   -8.1521321    62.104863  0.016482182  0.016511432            1 
  315000    0.7591582   -8.2045883    61.836351  0.016358823  0.016455666            3 
  316000   0.76078246   -8.1842331    61.936601  0.016333492  0.016399976            1 
  317000   0.76568024   -8.1632399    62.046476  0.016310851  0.016344433            1 
  318000   0.75870137   -8.2022213     62.07503  0.016267041   0.01628922            3 
  319000   0.74690208   -8.1884161    62.131372  0.016230766  0.016234197            1 
  320000   0.74288785   -8.2058638    62.177546  0.016192069  0.016179556            5 
  321000   0.75392924   -8.2348786    61.934671  0.016078575  0.016124507            2 
  322000   0.75694897   -8.2123497    62.086494  0.016067933  0.016069567            1 
  323000   0.74163807    -8.236164    62.267677  0.016064932  0.016014857            1 
  324000   0.74372674   -8.2297474    62.103552  0.015973136  0.015960601            2 
  325000   0.73676196   -8.2353729     62.05158  0.015910662  0.015906166            3 
  326000   0.73546501   -8.2565114    62.135085  0.015883202   0.01585169            3 
  327000   0.73533477    -8.260508    62.102743  0.015826387  0.015797514            3 
  328000   0.74929725   -8.2381221    62.134154  0.015786116  0.015743516            3 
  329000   0.73181348   -8.2417845    62.171107  0.015747494  0.015689502            1 
  330000   0.74437172   -8.2433865    62.252905   0.01572043  0.015635729            1 
  331000   0.72546567   -8.2615566    62.144497  0.015645644  0.015582002            1 
  332000   0.75922087   -8.2399862    62.148839  0.015599608  0.015528551            3 
  333000   0.72390004    -8.281166    62.198424  0.015565171  0.015475148            2 
  334000   0.72203509   -8.2432213    62.138149   0.01550353  0.015421619            2 
  335000     0.740448   -8.2691135    62.247089  0.015484351  0.015368196            4 
  336000   0.71336009   -8.2583413    62.090217  0.015399359  0.015315207            2 
  337000   0.73527937   -8.2678811    62.244639  0.015391849  0.015262496            2 
  338000   0.72531692   -8.2667786    62.159971  0.015325437   0.01520981            2 
  339000   0.72922877   -8.2954089    62.148428  0.015277391   0.01515745            4 
  340000   0.71671643   -8.2793658    62.251298  0.015257671  0.015105274            6 
  341000   0.72466496   -8.2961676    62.230537  0.015207854  0.015052981            2 
  342000   0.74667638   -8.2924436    62.315423   0.01518407  0.015001006            3 
  343000   0.71840792   -8.2830265     62.28348  0.015132041  0.014949068            4 
  344000   0.70947624   -8.2836151    62.290692  0.015089799  0.014897103            2 
  345000   0.72095888   -8.3045042     62.26225  0.015039191  0.014845093            3 
  346000   0.69507524   -8.3062385    62.328742  0.015011739  0.014793541            3 
  347000   0.70602946   -8.3303516    62.166979   0.01492963  0.014742175            5 
  348000   0.69738463   -8.2970194    62.228969  0.014901573  0.014690907            2 
  349000   0.71905581   -8.3341718    62.242008  0.014861988  0.014639899            2 
  350000   0.71347317   -8.3067409    62.289374  0.014830803  0.014589071            6 
  351000   0.70203407   -8.3241951    62.199875  0.014767302  0.014538165            1 
  352000   0.71241186   -8.2971778    62.416803  0.014776705   0.01448755            1 
  353000    0.7007586   -8.3315853     62.29285  0.014705583  0.014437132            3 
  354000   0.69874558   -8.3451331    62.316268  0.014669555  0.014387013            2 
  355000   0.71748925   -8.3431325    62.337469  0.014633209  0.014336895            2 
  356000   0.70985609   -8.3259823     62.37509  0.014600911  0.014286788            2 
  357000   0.68778231   -8.3526701    62.263748  0.014534022  0.014236947            6 
  358000   0.70277992   -8.3530891    62.254478  0.014491266   0.01418706            2 
  359000   0.70578867   -8.3566111    62.374128  0.014478674  0.014137648            5 
  360000   0.69714461   -8.3530429     62.49101  0.014465512  0.014088408            5 
  361000   0.70540436   -8.3604357    62.346363  0.014392051  0.014039319       -1e+20 
  362000   0.68065446   -8.3818062    62.355356  0.014354364  0.013990401            3 
  363000    0.6862383    -8.401428    62.522018   0.01435308  0.013941742            3 
  364000   0.67228926   -8.3991819    62.456158  0.014298571  0.013893354            3 
  365000    0.6648049   -8.3797177     62.45891  0.014260025  0.013844897            2 
  366000   0.70478272   -8.3876909    62.424039  0.014213124  0.013796816            2 
  367000   0.69709873   -8.3857808    62.361241  0.014160137  0.013748749            2 
  368000   0.67485084   -8.4235872    62.380272  0.014125967   0.01370092            3 
  369000   0.67048191   -8.3934244    62.439465  0.014101053  0.013653128            1 
  370000   0.66604122   -8.4379437    62.381684  0.014049929  0.013605569            2 
  371000   0.67388286   -8.4160064     62.26087  0.013984921  0.013558174            2 
  372000   0.66966714    -8.412362    62.518465  0.014005032  0.013510953            3 
  373000   0.66639205   -8.4123092    62.464907   0.01395552  0.013463953            2 
  374000   0.66578885   -8.4243502    62.430761  0.013910597  0.013417029            2 
  375000   0.66457879   -8.4014244    62.461928  0.013880428  0.013370273            5 
  376000   0.65151746   -8.4378702    62.331718  0.013814654  0.013323569            2 
  377000   0.66663804   -8.4337559    62.399093  0.013792903  0.013277041            3 
  378000    0.6583704   -8.4290562    62.434263  0.013764167  0.013230673            1 
  379000   0.66467233   -8.4240029    62.264721  0.013690572  0.013184462            3 
  380000   0.65302983   -8.4507844    62.416377  0.013687802   0.01313842            2 
  381000   0.66084411   -8.4529099    62.380014  0.013643922  0.013092521            1 
  382000   0.65494473   -8.4462826    62.360591  0.013603968  0.013046864            3 
  383000   0.66185854   -8.4507443    62.351621  0.013566497  0.013001271            1 
  384000   0.64854671    -8.453768    62.427918  0.013547725  0.012955915            1 
  385000   0.65054244   -8.4426418    62.231594  0.013470042  0.012910612            2 
  386000   0.64702617   -8.4428974    62.375964  0.013466314  0.012865552            1 
  387000   0.65097514   -8.4703419    62.385522  0.013433575  0.012820655            4 
  388000   0.64199253   -8.4712317    62.305496  0.013381765  0.012776062            3 
  389000   0.64876154   -8.4989591    62.233145  0.013331865  0.012731517            3 
  390000   0.64364572   -8.4841229     62.31007  0.013314117  0.012686955            2 
  391000   0.64871684   -8.4949491    62.255264  0.013268385  0.012642664            4 
  392000   0.63765202   -8.4854308    62.314624  0.013247156  0.012598394            3 
  393000   0.64352832   -8.4946788    62.318979  0.013214372   0.01255432            2 
  394000   0.63623676   -8.5122483    62.314405  0.013179866  0.012510447            2 
  395000   0.64638746   -8.5003956    62.261855  0.013135412   0.01246678            2 
  396000   0.64824541   -8.4940331    62.386732  0.013128521   0.01242328            2 
  397000   0.63884807   -8.5219216    62.210657  0.013058492  0.012379954            2 
  398000   0.61890958   -8.5042697    62.312965  0.013047103  0.012336726            2 
  399000   0.63328427   -8.5237236    62.239173  0.012998992  0.012293591            3 
  400000   0.63520307   -8.5033296    62.269913  0.012972899  0.012250664            2 
  401000    0.6302455   -8.5291556    62.384587  0.012964378  0.012207877            1 
  402000   0.63368744   -8.5219794    62.266942  0.012907741  0.012165201            2 
  403000   0.61739789   -8.5221942    62.317714   0.01288621  0.012122779            1 
  404000   0.61292311   -8.5457123    62.363419  0.012863742  0.012080528            3 
  405000    0.6358383   -8.5394159    62.295095  0.012817921  0.012038318            3 
  406000   0.61984514   -8.5266078     62.26076  0.012779302  0.011996335            2 
  407000   0.61099346    -8.546657    62.248655  0.012745425  0.011954616            3 
  408000   0.61549769   -8.5520041    62.178677  0.012699893  0.011913007            2 
  409000   0.61274203    -8.559521    62.195808  0.012672332   0.01187149            2 
  410000     0.628397   -8.5363118    62.230866   0.01264855  0.011830078            5 
  411000   0.60623907   -8.5643047    62.176964  0.012606846  0.011788812            3 
  412000   0.61650774   -8.5646553    62.056909  0.012551964  0.011747586            2 
  413000   0.61170146   -8.5585179    62.232677  0.012557037  0.011706682            2 
  414000   0.60846747   -8.5669872    62.163262  0.012512734  0.011665896            1 
  415000   0.61210291   -8.5592228    62.204293  0.012490822  0.011625217            3 
  416000   0.60947275   -8.5475987    62.204749  0.012460887  0.011584828            4 
  417000   0.60321414   -8.5589175    62.087606  0.012407595  0.011544673            3 
  418000    0.6045803   -8.5621329     62.17212  0.012394761  0.011504646            3 
  419000   0.59635523   -8.5615304    62.140876  0.012358965   0.01146481            2 
  420000   0.58315144   -8.5727119    62.200744  0.012341417   0.01142514            2 
  421000    0.5952925   -8.5588865    62.122791  0.012296673  0.011385533            2 
  422000   0.59229197   -8.5979916    62.220377  0.012286804  0.011345984            1 
  423000   0.60078065   -8.5875965    62.141606  0.012242239  0.011306608            2 
  424000   0.60235011    -8.607664    62.101462  0.012205476  0.011267393            4 
  425000   0.58554172   -8.6022138    62.119271  0.012180249  0.011228307            2 
  426000   0.57843175   -8.5904002    62.179075  0.012163356  0.011189405            3 
  427000    0.5939529   -8.5967549    62.109114  0.012121217  0.011150628            2 
  428000   0.58455332    -8.611525    62.039293  0.012079302  0.011111947            2 
  429000   0.57162335   -8.6022548    61.933887   0.01203067   0.01107349            4 
  430000   0.58845279   -8.6097813    62.030384  0.012021392  0.011035124            1 
  431000   0.58086569   -8.6223161    61.955392  0.011979001  0.010996866            9 
  432000   0.58711193   -8.6330016    62.098961  0.011978966  0.010958747            4 
  433000   0.57036957   -8.6465053    62.020332  0.011936169  0.010920768            4 
  434000   0.57683121   -8.6212916    62.016574  0.011907944  0.010883065            2 
  435000   0.58223867   -8.6194922    61.988697  0.011875229  0.010845434            2 
  436000   0.57908538   -8.6394075    61.995185  0.011849233   0.01080789            4 
  437000   0.55815425   -8.6315624    62.107709  0.011843575  0.010770587            2 
  438000   0.57489136   -8.6481925     62.10188  0.011815426  0.010733386            3 
  439000   0.56278386   -8.6360251    62.080735  0.011784498  0.010696415            3 
  440000   0.56340026   -8.6390993    62.081401  0.011757841  0.010659575            1 
  441000    0.5508181   -8.6651792    61.962789  0.011708766  0.010622793            3 
  442000   0.55583889   -8.6385434    62.071295  0.011702733  0.010586299            5 
  443000   0.57139498   -8.6574554    61.908223   0.01164564  0.010549876            7 
  444000   0.56451345   -8.6291811    61.962664  0.011629629  0.010513623            5 
  445000   0.55701881   -8.6322276    62.017156    0.0116137   0.01047751            2 
  446000   0.55068177   -8.6776063    62.028743  0.011589825  0.010441454            3 
  447000   0.54876376    -8.646099    61.934793  0.011546382  0.010405555            2 
  448000   0.54630611   -8.6450708    62.012173  0.011535002   0.01036986            2 
  449000   0.55553752   -8.6730294    61.945265  0.011496894  0.010334356            5 
  450000   0.55014455   -8.6611291    61.916277  0.011465977   0.01029898            6 
  451000   0.54702528   -8.6665708    62.082856  0.011471333  0.010263796            5 
  452000   0.55327753   -8.6781343     61.87388  0.011407426  0.010228733            9 
  453000   0.54173544   -8.6772381    61.969796  0.011399889  0.010193815            5 
  454000   0.53985339   -8.6913231    61.862199  0.011355029  0.010159019            4 
  455000   0.53688302   -8.6942378    61.883189  0.011333917  0.010124307            5 
  456000    0.5422646   -8.6814013    61.867236  0.011306147  0.010089813            6 
  457000   0.54023623    -8.702945    61.902643  0.011287863   0.01005537            8 
  458000   0.53624736   -8.6735737    61.937545  0.011269568  0.010021144            5 
  459000   0.54046576   -8.6824365    61.917915  0.011241451 0.0099870306            5 
  460000   0.52465905   -8.7091747    61.788797  0.011193623 0.0099530763            3 
  461000    0.5271663    -8.704885    61.723501  0.011157538  0.009919209            2 
  462000   0.53549189    -8.706614    61.750321  0.011138225 0.0098854459            5 
  463000   0.52688808    -8.707326    61.886711  0.011138717 0.0098519026            3 
  464000   0.50728855   -8.7147915    61.728514  0.011086299 0.0098183999            3 
  465000   0.52791323   -8.6920148    61.914699  0.011095824 0.0097850363            5 
  466000   0.52276088   -8.7161074    61.685342  0.011030998 0.0097518394            6 
  467000   0.52309874   -8.7292241      61.7726  0.011022948 0.0097188113            7 
  468000    0.5213914   -8.7087356    61.793291  0.011003079 0.0096858903            3 
  469000   0.50846264    -8.720727    61.792507  0.010979479 0.0096531517            2 
  470000   0.50845534   -8.7148617    61.710166  0.010941519 0.0096205013            3 
  471000   0.52095925   -8.7315114    61.821297  0.010937951 0.0095880214            4 
  472000    0.5016445   -8.7253085    61.748123  0.010901858 0.0095556383            4 
  473000    0.5063475   -8.7271626    61.796248  0.010887288 0.0095234622            1 
  474000   0.50681726   -8.7478077    61.725889   0.01085195 0.0094914285            2 
  475000   0.51132764   -8.7355259    61.733546  0.010830447 0.0094594939            5 
  476000   0.51469328   -8.7351054    61.874076  0.010832296 0.0094276959            3 
  477000   0.50478687    -8.746268    61.801571   0.01079692 0.0093960064            4 
  478000   0.50984296   -8.7476344     61.74686  0.010764794 0.0093645253            2 
  479000   0.49508563   -8.7489928    61.707383  0.010735453 0.0093331829            2 
  480000   0.50319878   -8.7721594    61.719609   0.01071521 0.0093019572            3 
  481000   0.49841377    -8.760238    61.747158  0.010697706 0.0092708489            3 
  482000   0.49991843   -8.7621912    61.737557  0.010673851 0.0092398532            3 
  483000   0.49403013   -8.7695561    61.692495  0.010643978  0.009208978            3 
  484000   0.49917339   -8.7440445    61.712128  0.010625366 0.0091782048            4 
  485000   0.49115663   -8.7758378    61.648218  0.010592477 0.0091475846            3 
  486000   0.48781044   -8.7732012     61.70861  0.010581037 0.0091171124            5 
  487000   0.50480277   -8.7791805    61.710822  0.010559689 0.0090867638            1 
  488000   0.49814391   -8.7730851    61.688117  0.010534173 0.0090565241            1 
  489000   0.49653513   -8.7783123     61.70028  0.010514703 0.0090264358            2 
  490000   0.49058041   -8.7653867     61.67071  0.010488216 0.0089964642            4 
  491000   0.48968978   -8.7727364    61.549434  0.010446272 0.0089666336            3 
  492000   0.48884043   -8.7791709    61.659322  0.010443652 0.0089369103            1 
  493000   0.46854416   -8.7850406    61.530738  0.010400733 0.0089073178            2 
  494000   0.48275085    -8.800142     61.62904  0.010396262 0.0088778529            2 
  495000   0.48317624   -8.7946672    61.700933  0.010387362 0.0088484978            2 
  496000   0.47811248   -8.7964563     61.67879    0.0103627 0.0088192882            2 
  497000   0.48490885   -8.8044158    61.594913  0.010327786 0.0087901345            3 
  498000   0.46518078   -8.7883582    61.482521   0.01028824 0.0087611454            8 
  499000   0.46880949   -8.8023018    61.658781  0.010297058 0.0087322808            4 
  500000    0.4617328   -8.7894345    61.614619  0.010269103  0.008703518            2 
  501000   0.46897525   -8.8347081    61.575438  0.010242089 0.0086748093            1 
  502000   0.45823383   -8.8090392    61.546908   0.01021695  0.008646258            1 
  503000   0.46572155   -8.7996468     61.60135  0.010205658 0.0086178162            1 
  504000   0.47570955   -8.8139608    61.561184  0.010178767 0.0085894724            1 
  505000   0.46341767   -8.8251079    61.624889  0.010169124 0.0085613044            4 
  506000   0.45916213   -8.8264927     61.52984  0.010133373 0.0085332144            3 
  507000   0.46350246   -8.8254072    61.516939  0.010111265 0.0085052649            3 
  508000   0.46188189   -8.8281947    61.548936   0.01009661 0.0084774124            2 
  509000   0.44819847   -8.8356286    61.476909  0.010064982 0.0084496602            3 
  510000   0.45619356   -8.8124875    61.568166  0.010060158  0.008422059            3 
  511000   0.45582132    -8.829432    61.576926  0.010041899 0.0083945771            6 
  512000   0.44350489    -8.835861    61.359959 0.0099869725 0.0083671927            2 
Loop time of 1232.18 on 48 procs for 500000 steps with 4000 atoms

Performance: 70119.517 tau/day, 405.784 timesteps/s
99.4% CPU use with 48 MPI tasks x no OpenMP threads

MPI task timing breakdown:
Section |  min time  |  avg time  |  max time  |%varavg| %total
---------------------------------------------------------------
Pair    | 78.435     | 83.365     | 89.549     |  27.0 |  6.77
Neigh   | 8.1202     | 8.4205     | 8.7177     |   4.4 |  0.68
Comm    | 74.246     | 81.912     | 89.157     |  37.0 |  6.65
Output  | 0.84964    | 0.85016    | 0.85799    |   0.1 |  0.07
Modify  | 1040.2     | 1045.6     | 1051       |   7.8 | 84.86
Other   |            | 12.04      |            |       |  0.98

Nlocal:        83.3333 ave          90 max          78 min
Histogram: 5 4 4 10 3 8 4 6 3 1
Nghost:        2126.92 ave        2142 max        2101 min
Histogram: 1 0 1 6 2 8 12 7 6 5
Neighs:        13996.2 ave       15400 max       12576 min
Histogram: 2 4 5 6 5 10 6 3 4 3
FullNghs:      27993.1 ave       30145 max       25945 min
Histogram: 4 2 6 10 4 7 1 6 6 2

Total # of neighbors = 1343671
Ave neighs/atom = 335.91775
Neighbor list builds = 26742
Dangerous builds = 0

#clear
#
#next RN
#
#jump SELF
Total wall time: 0:20:35
