
units lj                  # Use reduced LJ style units
atom_style atomic         # Uncharged point particles
atom_modify map hash      # Needed for indexing of clusters etc
                          # Used to be able to find where atoms are in relation to each other.

lattice fcc 1.0 spacing 1 1 1
Lattice spacing in x,y,z = 1.5874011 1.5874011 1.5874011
region box block 0 10 0 10 0 10 units lattice
create_box 2 box
Created orthogonal box = (0.0000000 0.0000000 0.0000000) to (15.874011 15.874011 15.874011)
  3 by 4 by 4 MPI processor grid
create_atoms 1 box
Created 4000 atoms
  using lattice units in orthogonal box = (0.0000000 0.0000000 0.0000000) to (15.874011 15.874011 15.874011)
  create_atoms CPU = 0.002 seconds
set type 1 type/fraction 2 0.39 78393
Setting atom values ...
  1580 settings made for type/fraction
mass 1 1.0
mass 2 1.0
pair_style lj/cut  3.5
pair_modify tail  yes
pair_coeff 1  1  1.0  1.0   # Intearaction between 1 and 1 set with epsilon = 1 and sigma = 1
pair_coeff 1  2  1.5  0.8
pair_coeff 2  2  0.5  0.88

write_data data.0
System init for write_data ...
Neighbor list info ...
  update every 1 steps, delay 10 steps, check yes
  max neighbors/atom: 2000, page size: 100000
  master list distance cutoff = 3.8
  ghost atom cutoff = 3.8
  binsize = 1.9, bins = 9 9 9
  1 neighbor lists, perpetual/occasional/extra = 1 0 0
  (1) pair lj/cut, perpetual
      attributes: half, newton on
      pair build: half/bin/atomonly/newton
      stencil: half/bin/3d
      bin: standard
WARNING: Not all mixed pair coeffs generated from mixing. Use write_data with 'pair ij' option to store all pair coeffs. (../write_data.cpp:312)


#############################
#   M E L T   S Y S T E M   #
#############################

velocity all create 2.4 8172548 mom yes dist gaussian # Assign velocities
                                                    # Temperature 2.4, random number seed, zero linear momentum
                                                                                # Gaussian distribution

timestep 0.002   # simulation timestep
thermo 1000       # output thermodynamic data every 1000 steps bf 100

# Define a fix  in this case with index 1 applied to all
# particles in the simulation. This fix is for simulations
# in the anisotropic NPT ensemble. Note that we use the MTK
# correction.
fix 1 all npt temp 2.4 2.4 0.1 iso 5.68 5.68 0.5 mtk yes tchain 5 pchain 5 # Use NPT ensemble
                                                                         # Set temperature and pressure and damping
                                                                         # Numbers of thermostats in chain and in barostat
run 10000          # run for 10000 steps
Per MPI rank memory allocation (min/avg/max) = 3.642 | 3.644 | 3.648 Mbytes
Step Temp E_pair E_mol TotEng Press Volume 
       0          2.4   -5.9084669            0   -2.3093669   -4.1681406         4000 
    1000    2.3638405   -5.0809641            0   -1.5360898    5.7732653    3868.6635 
    2000    2.3742809   -4.9637622            0   -1.4032312     5.624674    3952.9404 
    3000    2.4402166   -4.9868376            0   -1.3274278    5.6023534    3946.5649 
    4000      2.34456   -4.9872892            0   -1.4713284    5.9213264    3906.8839 
    5000    2.4191266   -5.0383779            0   -1.4105952    5.2469547    3948.1744 
    6000    2.3829204   -5.0250559            0   -1.4515688    5.6798833    3914.3613 
    7000     2.412467   -5.0705851            0   -1.4527893    5.6936336    3886.1067 
    8000    2.3387457   -5.0235765            0   -1.5163349    5.6984531    3904.4232 
    9000    2.4084137   -5.1136844            0    -1.501967    5.4762156    3895.4493 
   10000    2.4397971   -5.1108918            0   -1.4521111    5.6295812     3884.842 
Loop time of 2.73351 on 48 procs for 10000 steps with 4000 atoms

Performance: 632153.286 tau/day, 3658.294 timesteps/s
99.4% CPU use with 48 MPI tasks x no OpenMP threads

MPI task timing breakdown:
Section |  min time  |  avg time  |  max time  |%varavg| %total
---------------------------------------------------------------
Pair    | 1.1068     | 1.1801     | 1.253      |   3.0 | 43.17
Neigh   | 0.20806    | 0.21603    | 0.22942    |   0.8 |  7.90
Comm    | 0.86268    | 0.93656    | 1.0255     |   4.1 | 34.26
Output  | 0.0002546  | 0.00025966 | 0.00034321 |   0.0 |  0.01
Modify  | 0.33105    | 0.38511    | 0.45011    |   5.2 | 14.09
Other   |            | 0.01541    |            |       |  0.56

Nlocal:        83.3333 ave          92 max          73 min
Histogram: 2 1 6 6 6 9 3 6 6 3
Nghost:        1678.48 ave        1697 max        1655 min
Histogram: 1 2 7 3 8 4 7 8 4 4
Neighs:        9824.48 ave       11204 max        8157 min
Histogram: 1 3 3 3 10 10 4 7 4 3

Total # of neighbors = 471575
Ave neighs/atom = 117.89375
Neighbor list builds = 904
Dangerous builds = 185

# Equilibrate just above the melting temperature to avoid step fn in T

fix 1 all npt temp 1.25 1.25 0.1 iso 5.68 5.68 0.5 mtk yes tchain 5 pchain 5
run 2000
Per MPI rank memory allocation (min/avg/max) = 3.643 | 3.645 | 3.649 Mbytes
Step Temp E_pair E_mol TotEng Press Volume 
   10000    2.4397971   -5.1108918            0   -1.4521111    5.6295812     3884.842 
   11000    1.2268769   -7.0023089            0   -5.1624537    5.9187048    3100.7229 
   12000    1.2469977   -7.0636398            0   -5.1936109    5.6090976    3097.9946 
Loop time of 0.611175 on 48 procs for 2000 steps with 4000 atoms

Performance: 565468.267 tau/day, 3272.386 timesteps/s
99.6% CPU use with 48 MPI tasks x no OpenMP threads

MPI task timing breakdown:
Section |  min time  |  avg time  |  max time  |%varavg| %total
---------------------------------------------------------------
Pair    | 0.26461    | 0.29207    | 0.32223    |   2.1 | 47.79
Neigh   | 0.038604   | 0.040872   | 0.043258   |   0.5 |  6.69
Comm    | 0.1943     | 0.22864    | 0.25915    |   2.6 | 37.41
Output  | 5.1399e-05 | 5.2868e-05 | 6.8601e-05 |   0.0 |  0.01
Modify  | 0.041704   | 0.044674   | 0.04797    |   0.8 |  7.31
Other   |            | 0.004867   |            |       |  0.80

Nlocal:        83.3333 ave          94 max          72 min
Histogram: 2 0 5 9 4 12 7 6 1 2
Nghost:        1953.75 ave        1979 max        1930 min
Histogram: 3 2 4 13 8 2 7 3 1 5
Neighs:        12334.0 ave       14814 max       10056 min
Histogram: 1 2 5 6 12 7 13 1 0 1

Total # of neighbors = 592033
Ave neighs/atom = 148.00825
Neighbor list builds = 141
Dangerous builds = 8

#############################
# L I N E A R  Q U E N C H  #
#############################

# Define solid atoms. This closely follows ten Wolde  Ruiz-Montero and Frenkel  Faraday Discuss  1996  104  93-110
# Compute components of the per-atom q6 vector
compute q6 all orientorder/atom degrees 1 6 components 6 nnn NULL cutoff 1.3 # compute the Q6 parameter.
                                                                             # Use all neighbours within 1.3 unit cell.

# get number of connections
compute coord_number all coord/atom orientorder q6 0.5

# An atom is solid if it has 8 or more connections (of a possible 14)
variable is_solid atom c_coord_number>=8
group solid dynamic all var is_solid    # Must be dynamic to update
dynamic group solid defined

# do clustering
compute cluster solid cluster/atom 1.3 # Create a cluster where all atoms within are solid and max 1.3 units from another member

# define chunks one chunk per cluster
compute clus_chunks solid chunk/atom c_cluster nchunk every compress yes  # Says which atoms are in which chunk

# count the size of each chunk
compute size_chunks solid property/chunk clus_chunks count


# Find the maximum entry in the vector of chunk sizes
variable max_n equal max(c_size_chunks)


# Thermo style which includes this variable
# thermo_style custom step temp pe vol v_max_n

thermo ${N}  # Print the thermo information every 100 steps
thermo 1000  

# Reset the npt fix at a lower temperature (below freezing)
fix 1  all npt temp  ${temp} ${temp}  0.1  iso  5.68  5.68  0.5  mtk yes tchain  5  pchain  5
fix 1  all npt temp  0.45 ${temp}  0.1  iso  5.68  5.68  0.5  mtk yes tchain  5  pchain  5
fix 1  all npt temp  0.45 0.45  0.1  iso  5.68  5.68  0.5  mtk yes tchain  5  pchain  5

dump dmp2 all dcd ${N} traj.dcd
dump dmp2 all dcd 1000 traj.dcd


compute msd all msd com yes
variable twopoint equal c_msd[4]/6/(step*dt+1.0e-6)
fix 9 all vector 10 c_msd[4]
variable fit equal slope(f_9)/6/(10*dt)
thermo_style custom step temp pe c_msd[4] v_twopoint v_fit v_max_n

fix 1 all npt temp 1.25 ${temp} 0.1 iso 5.68 5.68 0.5 mtk yes tchain 5 pchain 5
fix 1 all npt temp 1.25 0.45 0.1 iso 5.68 5.68 0.5 mtk yes tchain 5 pchain 5
run 500000 # 5000000  # Run for this many steps
Neighbor list info ...
  update every 1 steps, delay 10 steps, check yes
  max neighbors/atom: 2000, page size: 100000
  master list distance cutoff = 3.8
  ghost atom cutoff = 3.8
  binsize = 1.9, bins = 8 8 8
  4 neighbor lists, perpetual/occasional/extra = 1 3 0
  (1) pair lj/cut, perpetual
      attributes: half, newton on
      pair build: half/bin/atomonly/newton
      stencil: half/bin/3d
      bin: standard
  (2) compute orientorder/atom, occasional
      attributes: full, newton on
      pair build: full/bin/atomonly
      stencil: full/bin/3d
      bin: standard
  (3) compute coord/atom, occasional
      attributes: full, newton on
      pair build: full/bin/atomonly
      stencil: full/bin/3d
      bin: standard
  (4) compute cluster/atom, occasional
      attributes: full, newton on
      pair build: full/bin/atomonly
      stencil: full/bin/3d
      bin: standard
Per MPI rank memory allocation (min/avg/max) = 9.822 | 9.828 | 9.833 Mbytes
Step Temp PotEng c_msd[4] v_twopoint v_fit v_max_n 
   12000    1.2469977   -7.0636398 7.6243406e-31 5.2946808e-33 8.3333333e+20            1 
   13000    1.2229474   -7.0664521    0.4786668 0.0030683768  0.038821901            2 
   14000     1.248914   -7.0877627   0.90969462 0.0054148487  0.036619339            2 
   15000    1.2796652   -7.0418146    1.3390499 0.0074391657   0.03582597            1 
   16000     1.249321   -7.0615346    1.7064951  0.008887995  0.035206402            1 
   17000    1.2740727   -7.1064709    2.1821803  0.010696962  0.035168422            3 
   18000    1.2393577   -7.0647372     2.629098   0.01217175  0.035517051            1 
   19000    1.2169552   -7.1440026    3.0655311  0.013445312  0.035926612            1 
   20000    1.2428393    -7.110011    3.5049492  0.014603954  0.036073803            1 
   21000    1.2176696   -7.0690031    3.9204143  0.015557199  0.036091987            1 
   22000    1.2027707   -7.1196811    4.3759696  0.016575642  0.036170395            2 
   23000    1.2035632   -7.1124064    4.7429313  0.017184533  0.036114433            2 
   24000    1.2524324   -7.0886279    5.2397541   0.01819359  0.036056223            2 
   25000    1.2160441   -7.1354459    5.6902233  0.018967411    0.0360896            2 
   26000    1.2523598   -7.1261844    6.0523535  0.019398568  0.036076544            1 
   27000    1.2191521   -7.1221123      6.44064  0.019878518  0.035987942            4 
   28000    1.2282801   -7.1340751    6.8987311  0.020531938  0.035896534            3 
   29000     1.218592   -7.1444195    7.3125212  0.021012992  0.035815556            1 
   30000    1.2254438   -7.1752111    7.6781677  0.021328243   0.03574452            2 
   31000    1.2288708   -7.1915105    8.0033173  0.021514294  0.035615441            1 
   32000    1.2414788   -7.1578146    8.4624433  0.022037612  0.035446375            1 
   33000    1.2220357   -7.1585515     8.946653  0.022592558  0.035342746            1 
   34000    1.2265783   -7.1766155    9.3264068   0.02285884  0.035272437            1 
   35000     1.214134   -7.1488043    9.7446959  0.023201657  0.035199385            1 
   36000    1.2323273   -7.1697945     10.12857  0.023445764  0.035104977            2 
   37000    1.2001561   -7.1774324    10.492746  0.023632309  0.035010998            1 
   38000    1.1939356    -7.169409    10.825588  0.023740324  0.034886473            2 
   39000    1.2175393   -7.1524651    11.219961  0.023974275  0.034762012            1 
   40000    1.1758541   -7.1875534    11.659824    0.0242913  0.034646992            1 
   41000     1.241121   -7.2088621    11.905429  0.024198026  0.034518117            1 
   42000    1.1862128   -7.1787326    12.360196  0.024524198  0.034381207            6 
   43000     1.230205   -7.1977071    12.688664  0.024590433  0.034262126            2 
   44000    1.1830583   -7.2515021    12.944614  0.024516314  0.034097101            1 
   45000    1.2148418   -7.2300164    13.258468  0.024552718  0.033907524            3 
   46000     1.189053   -7.2563888     13.70922  0.024835543  0.033755356            1 
   47000    1.2070091   -7.2175693    13.996702  0.024816846  0.033607608            2 
   48000    1.2106007   -7.2299929    14.290271  0.024809498  0.033436971            1 
   49000    1.2146177   -7.2497772    14.565257  0.024770844  0.033265789            2 
   50000    1.2033928   -7.2690464    14.861024  0.024768374  0.033073438            3 
   51000    1.1907887   -7.2571506    15.374401  0.025121569  0.032916021            3 
   52000    1.1649206   -7.2771956    15.642287  0.025067768  0.032766785            2 
   53000      1.19571   -7.2093228    16.052486  0.025239758  0.032621424            1 
   54000    1.1660047   -7.2620111    16.282048  0.025126617  0.032473277            2 
   55000    1.1971145   -7.2903772    16.687199  0.025283635  0.032336158            4 
   56000     1.165151   -7.2581764    16.996589  0.025292543  0.032206829            1 
   57000    1.1757134    -7.195706    17.288346  0.025275359  0.032087031            1 
   58000    1.1761357    -7.229048    17.679015  0.025400884   0.03196172            1 
   59000    1.1839377   -7.2870707    17.927498  0.025321324  0.031838765            4 
   60000    1.1645083   -7.2740582    18.352973  0.025490241  0.031706848            2 
   61000    1.1783727   -7.2714674    18.692972  0.025536847  0.031586998            1 
   62000    1.1769852   -7.2647205    19.037615  0.025588192  0.031476782            3 
   63000    1.1810366   -7.3174298    19.270694  0.025490336  0.031374285            4 
   64000    1.1516466   -7.2875508    19.592655  0.025511269  0.031255698            1 
   65000    1.1706741   -7.2779032     19.89587  0.025507525  0.031146223            2 
   66000    1.1649089   -7.3088498    20.265059  0.025587195  0.031050086            2 
   67000     1.166143   -7.2171096    20.645032  0.025677901  0.030959812            1 
   68000    1.1432287   -7.2913027    20.907892  0.025622416   0.03085675            1 
   69000    1.1716861   -7.2798627    21.281528  0.025702329  0.030759775            2 
   70000    1.1445764   -7.2903073    21.587709  0.025699653  0.030669666            1 
   71000    1.1381749   -7.3301548    21.917678  0.025724974  0.030586645            2 
   72000    1.1655614   -7.2960846    22.096974  0.025575201  0.030494947            3 
   73000    1.1631208   -7.3006731    22.421749  0.025595603  0.030397876            1 
   74000    1.1629298   -7.2997335    22.741005   0.02560924  0.030302293            1 
   75000    1.1409248   -7.3472755    23.049404  0.025610448  0.030207016            4 
   76000    1.1466422   -7.3531754     23.43665  0.025698081  0.030122138            2 
   77000     1.162727   -7.3351185    23.793229  0.025750247  0.030048609            1 
   78000    1.1493079   -7.3520306    24.176353  0.025829436  0.029984961            3 
   79000    1.1466282   -7.3486022    24.565859  0.025913353  0.029926107            1 
   80000    1.1367391   -7.3670336    24.731212  0.025761679  0.029866977            4 
   81000    1.1310255   -7.3853644    25.154043  0.025878645  0.029805454            2 
   82000    1.1343542   -7.3629829    25.456999  0.025870934  0.029748303            2 
   83000    1.1392865   -7.3718623    25.772876  0.025876382  0.029691619            3 
   84000     1.175214   -7.3359603    26.146603   0.02593909   0.02963317            2 
   85000    1.1237655   -7.2866744    26.267728  0.025752674  0.029572091            1 
   86000    1.1224787   -7.4044659    26.345413  0.025528501  0.029492828            1 
   87000    1.1083322   -7.3427959    26.615409  0.025493686  0.029402253            1 
   88000    1.1079711   -7.3379522    26.869271  0.025444386  0.029313819            1 
   89000    1.1340805   -7.3589801    26.986539  0.025268295  0.029223102            1 
   90000    1.1202068   -7.3532595    27.244524  0.025226411  0.029123766            5 
   91000    1.1449101   -7.3634936    27.577599  0.025254211  0.029021627            3 
   92000    1.1173913   -7.4183969    27.807862   0.02518828  0.028918712            2 
   93000    1.0995084   -7.4425941    27.923292  0.025020871  0.028814366            3 
   94000    1.1305854   -7.3957843    28.281351   0.02507212  0.028713197            1 
   95000    1.0995119   -7.3698126    28.591357  0.025080138  0.028614867            2 
   96000    1.1258575   -7.4193087    28.768883  0.024972988  0.028518396            1 
   97000    1.1333666   -7.3972599    29.049798  0.024956871  0.028425564            1 
   98000    1.0987671   -7.3859941    29.373151  0.024977169  0.028330608            3 
   99000     1.110791   -7.4083415    29.611858  0.024925806   0.02823585            1 
  100000    1.1035461   -7.3738623     29.97813  0.024981775  0.028142162            1 
  101000    1.0815495    -7.403851    30.162605  0.024886637  0.028056997            2 
  102000    1.0971841    -7.409965    30.414123  0.024848139  0.027969611            2 
  103000    1.1046604   -7.4003886    30.844305  0.024954939   0.02788866            1 
  104000    1.0987311   -7.4145368    31.144676   0.02495567  0.027811209            2 
  105000    1.0970267   -7.4379686    31.434503  0.024948018  0.027739844            2 
  106000    1.1226882   -7.4416344    31.775648  0.024980855  0.027673839            2 
  107000    1.0741083    -7.434399    31.975433  0.024902985  0.027607565            3 
  108000    1.0800946   -7.4415243    32.174165  0.024825745  0.027538182            1 
  109000    1.0896523   -7.5010518      32.4814  0.024832875  0.027470226            4 
  110000    1.0877138     -7.46157    32.764083  0.024821275  0.027402007            1 
  111000    1.1106125   -7.4970377    33.003879  0.024777687  0.027338311            2 
  112000    1.0579935   -7.4477188    33.328272  0.024797821  0.027274358            2 
  113000    1.0946728   -7.4089898    33.643602  0.024810916  0.027210755            1 
  114000    1.0642607   -7.4599554     33.92134  0.024796301  0.027147529            2 
  115000    1.0931434   -7.4773635    34.098458  0.024709028  0.027086661            1 
  116000    1.0695476   -7.4645901    34.373821  0.024693837  0.027024796            1 
  117000    1.1009222   -7.4959079    34.653618  0.024682064  0.026962007            2 
  118000    1.0823346   -7.5117692    35.013424  0.024726995  0.026905629            1 
  119000    1.1018085   -7.4761234    35.349618  0.024754634   0.02684904            1 
  120000    1.0705291   -7.4852926    35.542494  0.024682288  0.026793334            1 
  121000    1.0874628   -7.5027422    35.720357  0.024600797   0.02673854            2 
  122000    1.0775617   -7.4668493    35.875971  0.024505444  0.026679484            1 
  123000    1.0581274   -7.5146187    36.187371  0.024517189  0.026624138            1 
  124000    1.0671549   -7.5174644    36.300928  0.024395785  0.026563183            1 
  125000    1.0732972   -7.5180661    36.787851  0.024525234   0.02650422            1 
  126000     1.077191   -7.4943336    36.839041  0.024364445  0.026443864            2 
  127000    1.0438381   -7.5117146    36.974675  0.024261598  0.026381289            1 
  128000    1.0445076   -7.5364054    37.272066  0.024265668  0.026319114            4 
  129000    1.0843602    -7.526911    37.352009  0.024129204  0.026255562            7 
  130000    1.0660446   -7.5514885    37.724848  0.024182595  0.026191473            2 
  131000    1.0619784     -7.52985    37.754356  0.024016766  0.026126393            1 
  132000    1.0529754   -7.5502333    38.067179   0.02403231  0.026057941            1 
  133000     1.062252   -7.5417313    38.344507   0.02402538  0.025992314            1 
  134000    1.0530617   -7.5135782     38.59579  0.024002357  0.025931664            3 
  135000    1.0324834   -7.5363365    38.773036  0.023933973  0.025870484            2 
  136000    1.0458147   -7.5487683    38.931517  0.023855096   0.02580723            1 
  137000    1.0467151   -7.5636176    39.323244  0.023919248  0.025744069            3 
  138000    1.0557059   -7.5587768    39.435903  0.023813951  0.025683015            2 
  139000    1.0373298   -7.5702575    39.702633  0.023802538   0.02562231            2 
  140000    1.0474077   -7.5627345    39.946521  0.023777691  0.025561694            4 
  141000    1.0114363   -7.5716534    40.160019  0.023735236  0.025499571            1 
  142000    1.0511617   -7.5998843    40.314767    0.0236589   0.02543912            1 
  143000    1.0352454   -7.5697766     40.74204  0.023742448  0.025381541            1 
  144000    1.0268644   -7.6418742    40.820085  0.023622735  0.025323901            1 
  145000       1.0294   -7.5713635     41.11725  0.023630603  0.025266861            2 
  146000    1.0510944   -7.6169581    40.988557  0.023395295  0.025207902            2 
  147000    1.0325648   -7.6276442    41.270552  0.023396004  0.025147691            2 
  148000    1.0231317   -7.6244065    41.607793  0.023427811  0.025086947            2 
  149000    1.0280329    -7.590934    41.779442  0.023366578  0.025025974            2 
  150000    1.0231988   -7.6365391    41.959745  0.023310969  0.024965206            3 
  151000    1.0084765   -7.6072057      42.0464  0.023204415  0.024903176            1 
  152000    1.0325178   -7.6092714    42.403056  0.023247289  0.024839609            2 
  153000    1.0019922   -7.6363866    42.450599  0.023121241  0.024776436            2 
  154000    1.0409835   -7.6235382     42.57091  0.023036207  0.024712298            2 
  155000     1.006703   -7.6696615    42.588376  0.022896976  0.024645523            5 
  156000    1.0150876   -7.6251755    42.945197   0.02294081  0.024579708            2 
  157000    1.0145271   -7.6452477    43.337351   0.02300284  0.024516477            2 
  158000    1.0127677   -7.6383545    43.372248  0.022875658  0.024454248            2 
  159000     1.015831   -7.6509292    43.557128  0.022828683  0.024392364            1 
  160000    1.0072343   -7.6618679    43.697131  0.022758922   0.02432724            2 
  161000    1.0075516   -7.6516921    43.704142  0.022621191  0.024261439            2 
  162000   0.99181351   -7.6513654    43.947835  0.022606911  0.024195271            2 
  163000    1.0211747   -7.6145308    44.108626  0.022550422  0.024127426            2 
  164000   0.99197649   -7.6708144    44.243472  0.022481439  0.024060412            2 
  165000     1.015625   -7.6616718    44.382187  0.022415246  0.023991703            4 
  166000   0.98822689   -7.6492909    44.708153  0.022443852  0.023925609            1 
  167000     1.009472   -7.6289163    44.872084  0.022391259  0.023858315            1 
  168000   0.99654308   -7.7215366    44.862091  0.022253021  0.023792431            3 
  169000    1.0079572   -7.6574842    45.105375  0.022241309  0.023725642            4 
  170000   0.99310924   -7.6830737     45.39189  0.022250926   0.02366107            7 
  171000   0.99609645   -7.6979472     45.55873   0.02220211  0.023596382            7 
  172000   0.98028138   -7.6618597    45.757078  0.022169127  0.023531701            1 
  173000   0.98254591   -7.6902614    45.904275  0.022111886  0.023466645            2 
  174000    1.0191897   -7.7103797    46.101745   0.02207938   0.02340236            2 
  175000   0.99557116   -7.7301363     46.28822   0.02204201  0.023339903            4 
  176000   0.98882856   -7.7372063    46.432632  0.021985148  0.023276156            2 
  177000   0.97678815   -7.7214678    46.584956  0.021932653  0.023213289            1 
  178000   0.97466546   -7.7186379     46.81484   0.02191706   0.02315099            3 
  179000   0.98344406    -7.717435    46.937532  0.021851737  0.023088678            2 
  180000   0.98190497    -7.721661     46.98912  0.021754222  0.023026963            3 
  181000   0.96236838   -7.7616061    47.125099  0.021696639  0.022964516            4 
  182000   0.96093497   -7.7640282     47.34832  0.021679634  0.022901999            3 
  183000   0.98121416     -7.69964     47.58599  0.021669394  0.022839985            3 
  184000   0.99140306   -7.7462775    47.761034  0.021630903  0.022778894            4 
  185000   0.96032265   -7.7729489    47.922656  0.021586782   0.02271783            1 
  186000   0.97674642   -7.7849946    48.014414  0.021511834  0.022655554            1 
  187000   0.95818566   -7.7744632    48.073755  0.021423242  0.022593049            1 
  188000   0.98919185   -7.7465593    48.261667  0.021392583  0.022532518            2 
  189000   0.96204402    -7.791288    48.369775  0.021327061  0.022472439            5 
  190000    0.9870837   -7.7582656    48.576357   0.02130542  0.022411176            7 
  191000   0.94088245   -7.7771807    48.778809  0.021282203  0.022351438            2 
  192000   0.95578558    -7.803484     49.03772  0.021283733  0.022292431            3 
  193000   0.95854038   -7.7919863     48.97921  0.021148191  0.022231996            1 
  194000   0.96729732    -7.790892    49.361604  0.021203438  0.022172236            3 
  195000   0.96285132   -7.8065357    49.432815  0.021125135  0.022113879            5 
  196000   0.94643385   -7.7997708    49.895895  0.021214241  0.022057756            1 
  197000   0.94189936   -7.8424426    49.845998  0.021085448  0.022002426            4 
  198000   0.93517413   -7.8114559    50.015596  0.021050335  0.021946376            1 
  199000   0.94141487   -7.7819018     50.28014  0.021055335  0.021889048            1 
  200000   0.95046157   -7.8028822    50.299838  0.020958266  0.021832709            2 
  201000   0.93759762   -7.8099877      50.3983  0.020894818  0.021775484            4 
  202000   0.96908167   -7.7878589    50.621261  0.020883358  0.021718724            2 
  203000   0.92573705   -7.8051641    50.690583  0.020808942  0.021661667            2 
  204000    0.9297593    -7.833775    50.709944  0.020714846  0.021604498            6 
  205000   0.92751664    -7.844776    51.050174  0.020752103  0.021547268            2 
  206000   0.94295554   -7.8302989    51.018072  0.020638378  0.021490588            1 
  207000   0.93163956   -7.8653889    51.119401  0.020579469  0.021433199            1 
  208000   0.93459218   -7.8375368     51.21196  0.020517612  0.021375876            2 
  209000   0.94756507   -7.8643134    51.410482  0.020498597  0.021319927            5 
  210000   0.91890671   -7.8559322    51.446016  0.020415086   0.02126347            1 
  211000   0.93325735   -7.8602089    51.688053  0.020413923   0.02120703            2 
  212000   0.92524022   -7.8686331    51.657337  0.020305557  0.021149064            2 
  213000   0.90032405    -7.870038    51.664658   0.02021309  0.021089234            2 
  214000   0.92496454   -7.8703129    51.771019  0.020160054  0.021029391            1 
  215000   0.92153937   -7.8631632    51.982468  0.020148244  0.020970615            3 
  216000     0.928714   -7.8865914    52.055824  0.020083266   0.02091219            2 
  217000   0.93439676   -7.8648215    52.022186  0.019977798  0.020853014            3 
  218000   0.92674082   -7.9300859     52.23627  0.019967993  0.020793293            3 
  219000   0.92576036   -7.9060073    52.188199  0.019858523   0.02073374            2 
  220000   0.91112246   -7.9172837    52.127474  0.019745255  0.020672952            1 
  221000   0.90143694   -7.8893982    52.424647  0.019767966   0.02061185            2 
  222000    0.9069718   -7.8706026    52.644023   0.01976127  0.020551794            2 
  223000    0.9057059   -7.9362406    52.713076  0.019698459   0.02049192            4 
  224000   0.92141745   -7.9312383    52.798434  0.019642275  0.020432091            3 
  225000    0.9023451   -7.9510735     52.83748  0.019569437  0.020372584            2 
  226000   0.91120422   -7.9370685    52.929698   0.01951685  0.020312184            1 
  227000   0.91065742   -7.9190677    52.938414  0.019434073  0.020252374            3 
  228000   0.91648436   -7.9068522    53.133241  0.019420044  0.020192347            3 
  229000   0.90040513   -7.9611295    53.204096  0.019361025  0.020132681            1 
  230000   0.88329432   -7.9474292    53.334512  0.019324098  0.020074888            5 
  231000   0.89488103   -7.9488162    53.577657  0.019328159  0.020017005            2 
  232000   0.90713386     -7.96477    53.693472  0.019286448  0.019959379            3 
  233000   0.88852308   -7.9636388     53.74861  0.019223394  0.019902334            5 
  234000    0.8975417   -7.9754848    53.990696  0.019227456  0.019845551            5 
  235000   0.89699091   -7.9764183    53.936899   0.01912656  0.019789228           11 
  236000   0.89167911   -7.9577522     54.17738  0.019130431  0.019732513            4 
  237000   0.88481017   -7.9933215    54.128387  0.019032485   0.01967578            2 
  238000   0.89361718    -7.965648     54.27473  0.019003757  0.019618784            2 
  239000   0.88818993   -7.9683817     54.26101   0.01891946  0.019561596            2 
  240000   0.87533297   -7.9562931    54.362753  0.018875956  0.019504361            4 
  241000   0.90873351   -7.9761028    54.502948  0.018846109   0.01944734            4 
  242000   0.88054806    -7.949441    54.562869  0.018788867  0.019390354            1 
  243000   0.86699514   -7.9726995    54.535882  0.018702291  0.019333037            2 
  244000   0.89616591   -8.0134545      54.5753  0.018639105  0.019274529            5 
  245000   0.85603475   -7.9864945    54.734028  0.018617016  0.019216328            1 
  246000   0.88629125   -8.0064486    54.747099  0.018545765  0.019157982            3 
  247000   0.89208746   -7.9914235    54.700978  0.018455121  0.019099551            3 
  248000   0.89760927   -8.0517981    54.841096  0.018427788   0.01904096            4 
  249000   0.85980029    -8.026345    54.766834  0.018328927  0.018982635            1 
  250000   0.86322473   -8.0434535    54.981256  0.018327085  0.018923702            2 
  251000   0.85034271   -8.0408461    54.989755  0.018256891  0.018865002            3 
  252000   0.86016451   -8.0496822    54.891678   0.01815201   0.01880645            3 
  253000   0.85616087   -8.0603031    55.027092  0.018124866  0.018747572            2 
  254000   0.85537094   -8.0703102    55.068342  0.018067041  0.018688612            2 
  255000   0.88705207   -8.0558428    55.281246  0.018065767  0.018630743            4 
  256000   0.85641033   -8.0403898    55.385274  0.018029061  0.018572899            3 
  257000   0.86244506   -8.0975172    55.322876  0.017938676  0.018514475            5 
  258000   0.87203778   -8.0857547    55.222995  0.017836885  0.018455881            3 
  259000   0.85271909   -8.0713732    55.255028  0.017778323   0.01839685            3 
  260000   0.86599053   -8.0684737    55.372331  0.017747542   0.01833875            1 
  261000   0.84535066   -8.0776983    55.591044  0.017749375  0.018281218            2 
  262000   0.85131817   -8.0752713    55.679364  0.017709721   0.01822333            2 
  263000   0.84950671   -8.0850095    55.547008  0.017600446  0.018165133            1 
  264000   0.84443255   -8.0622945    55.710848  0.017585495  0.018107114            5 
  265000   0.84071937   -8.0989083     55.77105  0.017538066  0.018049565            4 
  266000   0.85033016   -8.0764022    55.988675  0.017540312  0.017992682           13 
  267000   0.84260607   -8.0910135    55.940589   0.01745961  0.017936553            9 
  268000   0.84858193   -8.0914471    55.986443   0.01740872  0.017880138            1 
  269000     0.828256   -8.1023134    55.866447   0.01730683  0.017822871            8 
  270000    0.8500156   -8.1111376    55.972462  0.017275451   0.01776589            2 
  271000    0.8418059   -8.0942556    56.198592   0.01728124  0.017709432            2 
  272000   0.84015621   -8.1076025    56.127933  0.017196058  0.017652447            3 
  273000   0.82038652   -8.1021008    56.334149  0.017196016  0.017595601            4 
  274000   0.84285326   -8.1500222    56.191221  0.017089787  0.017538665            2 
  275000   0.82775933   -8.1463831     56.25159  0.017045936  0.017481903            5 
  276000   0.79999397    -8.155546    56.311328  0.017002213  0.017425324            1 
  277000   0.81794941    -8.125929    56.565388  0.017017265  0.017369116            2 
  278000   0.82493258   -8.1477368     56.41888  0.016912134  0.017312904            4 
  279000   0.83193161   -8.1349008    56.428352  0.016854346  0.017256675            5 
  280000   0.81694571    -8.158368    56.438652  0.016797218  0.017200171            2 
  281000   0.81335246   -8.1836092    56.463828  0.016744907  0.017143762            5 
  282000    0.8331764   -8.1889412    56.424664  0.016673955  0.017087156            2 
  283000    0.8175079   -8.1588095    56.494367  0.016635562  0.017030292            4 
  284000   0.83533884   -8.1866845    56.535754   0.01658913  0.016973699            4 
  285000   0.81800849   -8.2062547    56.681397  0.016573508  0.016917934            2 
  286000   0.80412789   -8.1743495    56.710038  0.016523904    0.0168623            2 
  287000   0.80567295     -8.19376    56.612539  0.016438019  0.016806497            4 
  288000   0.79544277   -8.1653474    56.875562  0.016457049  0.016750926            2 
  289000   0.81452945   -8.1972289    56.792394  0.016376123  0.016695583            2 
  290000   0.81129605   -8.2107794    56.654698  0.016280086  0.016640338            3 
  291000   0.80897562   -8.1874507    56.855229  0.016281566  0.016584693            1 
  292000   0.78582303   -8.2133609    56.781087  0.016204648  0.016529133            2 
  293000   0.78412867   -8.2327159     56.79743   0.01615399  0.016473828            3 
  294000   0.80349135   -8.2326004    56.874629  0.016120927  0.016419212            2 
  295000   0.79014921   -8.2296349    56.908425  0.016075826  0.016364488            1 
  296000    0.7818825    -8.218836    57.065741  0.016065806   0.01630982            1 
  297000   0.78027882   -8.2230609    57.021523  0.015999305  0.016255481            2 
  298000   0.78584599   -8.2447711    57.031467  0.015948397  0.016201048            1 
  299000   0.79584094   -8.2233777    57.090991  0.015911647  0.016146869            2 
  300000   0.78215937   -8.2454909    57.146452  0.015874014  0.016092841            2 
  301000    0.7779049   -8.2372415    57.169852  0.015827755  0.016039279            2 
  302000   0.78731529   -8.2177018    57.199513   0.01578353  0.015985487            2 
  303000   0.78153238   -8.2799662    57.105301  0.015705528  0.015932148            3 
  304000    0.7978895   -8.2385108    57.259347  0.015696093  0.015878524            3 
  305000   0.79666916   -8.2385683    57.124711  0.015607845  0.015824967            1 
  306000   0.81338823   -8.2824197    57.234062  0.015586618  0.015771411            6 
  307000   0.78021082     -8.24067    57.266014  0.015544521  0.015717887            2 
  308000   0.77276336   -8.2647871    57.312967  0.015506755  0.015664372            1 
  309000    0.7685939   -8.2712556    57.216782  0.015430632  0.015610797            3 
  310000   0.78351317   -8.3018856    57.323871  0.015409643  0.015557481            4 
  311000   0.78110464   -8.3216679    57.272564  0.015346346  0.015504527            2 
  312000   0.78824369   -8.2974838    57.278184   0.01529866  0.015451267            2 
  313000   0.78372525   -8.3276931    57.256902  0.015244117  0.015398294            3 
  314000    0.7746671   -8.3073906    57.278418  0.015201279   0.01534533            2 
  315000   0.77386743   -8.3560182    57.291419   0.01515646   0.01529251            1 
  316000   0.78389137   -8.3112199    57.464129  0.015154042  0.015240173            1 
  317000   0.73435735   -8.3179355    57.528351  0.015123121  0.015188361            4 
  318000   0.76011531    -8.325356    57.506592  0.015069862  0.015136737            1 
  319000   0.74882076   -8.3244596    57.582938  0.015042565   0.01508513            2 
  320000   0.72971945   -8.3530497    57.499345  0.014973788  0.015033356            1 
  321000   0.75422293    -8.350807    57.457407  0.014916253  0.014981612            1 
  322000   0.77549245   -8.3550562    57.707716  0.014934709  0.014930434            4 
  323000   0.74819732   -8.3650334     57.63369  0.014869373  0.014879588            3 
  324000   0.75464107   -8.3543884    57.700519  0.014840668  0.014828737            4 
  325000   0.74677958   -8.3543105    57.676754  0.014788911   0.01477832            2 
  326000    0.7378963    -8.360923    57.769546  0.014767266  0.014728009            2 
  327000   0.74464373   -8.3442956    57.779426  0.014724624  0.014677823            2 
  328000   0.74961961   -8.3575173    57.739185  0.014669508  0.014627973            3 
  329000   0.75242362   -8.3713045    57.663782  0.014605821  0.014578034            4 
  330000   0.74294983   -8.3892078    57.708483  0.014572849  0.014528196            3 
  331000   0.74407318   -8.3973185    57.611306  0.014504357  0.014478414            5 
  332000   0.74330461   -8.4029818    57.695183  0.014481723  0.014428559            2 
  333000   0.73999998   -8.4033779    57.600811  0.014414617  0.014378762            1 
  334000   0.73423656   -8.4020095    57.627542  0.014378129  0.014328996            5 
  335000   0.74805698   -8.4045661    57.593611  0.014326769  0.014279071            1 
  336000   0.73165497    -8.417051     57.69982  0.014310471  0.014229207            7 
  337000   0.74643416     -8.39391    57.601395  0.014243668  0.014179721            3 
  338000    0.7221811   -8.4151033    57.740562  0.014235839  0.014130344            4 
  339000   0.71812629   -8.4249385    57.712602  0.014186972  0.014081279            4 
  340000   0.71082132    -8.409984    57.688634  0.014139371  0.014032327            3 
  341000   0.70780949   -8.4264087    57.729794  0.014107965   0.01398356            3 
  342000   0.72096107   -8.4536632    57.740839  0.014069405   0.01393502            2 
  343000   0.72257226   -8.4474887    57.865441  0.014058659  0.013886641            2 
  344000    0.7086854   -8.4430143    57.740309  0.013987478  0.013838136            3 
  345000   0.72276935   -8.4474134    57.593952  0.013911583  0.013789655            2 
  346000   0.71719109   -8.4614621    57.645928  0.013883894   0.01374128            3 
  347000   0.70798459   -8.4560685    57.679044  0.013851836  0.013693006            2 
  348000   0.72167639    -8.464781    57.642556  0.013803294  0.013644787            4 
  349000   0.70678628   -8.4247999    57.700368  0.013777547  0.013596977            2 
  350000   0.70401552   -8.4607718    57.690444   0.01373582  0.013549239            4 
  351000   0.69691667    -8.466844    57.702263  0.013699493  0.013501765            3 
  352000    0.7075967   -8.4636154    57.683632  0.013656163   0.01345442            3 
  353000   0.70616464   -8.4735691    57.805519  0.013646251  0.013407279            3 
  354000    0.6947253   -8.4656379     57.77291  0.013600026  0.013360254            4 
  355000   0.70113948   -8.4827873    57.935158  0.013599802  0.013313525            2 
  356000   0.72458151   -8.5059483    57.741331  0.013516229  0.013267078            2 
  357000   0.69532605   -8.4673041    57.817814  0.013496222  0.013220614            1 
  358000   0.70400484   -8.4852561    57.772443  0.013447962  0.013174255            1 
  359000   0.70263644   -8.4820399    57.784109   0.01341321  0.013128103            2 
  360000   0.70390146   -8.5093441    57.711491  0.013359141  0.013082087            4 
  361000   0.70462342   -8.4736798    57.829819   0.01334945  0.013036172            2 
  362000   0.69044712    -8.480852    57.805791  0.013307042  0.012990256            2 
  363000   0.69813584   -8.4726643     57.85564  0.013281827  0.012944569            2 
  364000   0.69513302   -8.4946432    57.863011  0.013247026  0.012899122            3 
  365000   0.68360389   -8.5003084    57.735383  0.013181594    0.0128538            3 
  366000   0.67836329   -8.5306337    57.710167  0.013139838  0.012808405            2 
  367000   0.68797682   -8.5139187    57.739745   0.01311075   0.01276311            1 
  368000   0.68303517   -8.5122001    57.835842  0.013096885  0.012717984            2 
  369000   0.67966993    -8.501144    57.809572  0.013055459  0.012673257            1 
  370000   0.67837242   -8.5491365    57.759723  0.013008947  0.012628638            6 
  371000   0.66473148   -8.5112177    57.830508  0.012989782  0.012584212            4 
  372000   0.65851758   -8.5610516    57.756382  0.012938258  0.012539965            1 
  373000   0.67183866   -8.5592214     57.68067  0.012886656  0.012495599            2 
  374000    0.6729322   -8.5605428    57.699208   0.01285633  0.012451186            5 
  375000   0.67478591   -8.5337574     57.69705  0.012821567  0.012407092            3 
  376000   0.66934173   -8.5483593    57.634066  0.012773508  0.012363138            2 
  377000   0.66184064   -8.5374536    57.778135  0.012771471  0.012319476            3 
  378000   0.66000834   -8.5730914    57.806825  0.012744009  0.012275947            3 
  379000   0.65180121   -8.5680497    57.694716  0.012685734  0.012232596            2 
  380000   0.64784783   -8.5716817    57.777794  0.012670569  0.012189481            2 
  381000   0.66096736   -8.5647789    57.819899  0.012646522  0.012146694            2 
  382000   0.67268563    -8.572605    57.713268  0.012590154  0.012104024            4 
  383000   0.64161024   -8.5733151     57.77433  0.012570568  0.012061437            6 
  384000   0.65274395   -8.5776874    57.784269  0.012539989  0.012018958            2 
  385000   0.65446526    -8.591216     57.67133  0.012482972  0.011976744            2 
  386000   0.64214771   -8.5926952    57.765102  0.012470877   0.01193449            1 
  387000   0.67510158   -8.5980069    57.758586  0.012437249  0.011892627            8 
  388000   0.65135513   -8.5789364    57.748883  0.012403111    0.0118509            3 
  389000   0.64599926   -8.6159031    57.774452  0.012376703  0.011809327            3 
  390000   0.64894961   -8.5938709    57.710409  0.012331284  0.011767958            3 
  391000   0.64849321   -8.6349269    57.684104   0.01229414   0.01172662            3 
  392000   0.64634699   -8.6197919    57.787789  0.012284819  0.011685452            4 
  393000   0.61794306   -8.6330468    57.654364  0.012225268  0.011644449            5 
  394000   0.64135896   -8.6269193    57.800588  0.012225167    0.0116034            5 
  395000   0.63410632   -8.6136012    57.724845  0.012178237   0.01156253            3 
  396000    0.6314316   -8.6277922    57.645146  0.012130713  0.011521723            2 
  397000   0.63845401   -8.6333605     57.62955  0.012096883   0.01148109            6 
  398000   0.63483716   -8.6347837    57.762982  0.012094427   0.01144066            5 
  399000   0.64084475   -8.6411789    57.663875  0.012043416  0.011400379            5 
  400000   0.63490852    -8.637538    57.792055  0.012040011  0.011360305            2 
  401000   0.64095504   -8.6180865     57.62969  0.011976245  0.011320495            7 
  402000   0.62428426   -8.6531546    57.623756  0.011945223   0.01128069            6 
  403000   0.63425753   -8.6551152    57.635418  0.011917994  0.011240893            4 
  404000   0.63144183   -8.6805494    57.630583  0.011887496  0.011201472           10 
  405000   0.62014587   -8.6371353    57.543684  0.011840264  0.011161965            4 
  406000   0.61376879   -8.6594678    57.527412  0.011807761  0.011122653            5 
  407000   0.62408482   -8.6630725    57.510639  0.011775315  0.011083438            8 
  408000   0.62407951   -8.6535962    57.620245  0.011768841  0.011044389            8 
  409000   0.62339995   -8.6693547    57.513905    0.0117184  0.011005422            7 
  410000    0.6009262   -8.6711318    57.537335   0.01169458  0.010966634            3 
  411000   0.61445613   -8.6828328    57.504185  0.011659405  0.010928081            3 
  412000   0.60974354   -8.6749065    57.492324  0.011628706   0.01088957            2 
  413000   0.61286464    -8.677685    57.538236  0.011609813  0.010851178            7 
  414000   0.59920635   -8.6829364    57.595884  0.011593374  0.010812885            8 
  415000   0.59988947   -8.6736715    57.439724  0.011534081  0.010774784            5 
  416000   0.59613062    -8.681911    57.538718  0.011526185  0.010736833            6 
  417000   0.60171484   -8.7144635    57.442409  0.011479298  0.010698907            6 
  418000   0.60078606   -8.7177823    57.452388  0.011453825  0.010661092            7 
  419000   0.59631609   -8.6983859     57.37064  0.011410231  0.010623563            7 
  420000   0.59670153   -8.6956135    57.462105  0.011401211  0.010586152            2 
  421000   0.58987074   -8.7165699    57.455048  0.011372733   0.01054893            3 
  422000   0.57959942   -8.7201747    57.435949  0.011342012  0.010511833            4 
  423000   0.60142494    -8.727945    57.269601  0.011282427  0.010474835            6 
  424000   0.59192035   -8.7182572    57.419504   0.01128528  0.010438007            5 
  425000   0.58242668   -8.7346608    57.357542  0.011246577  0.010401305            5 
  426000   0.58149558   -8.7431343    57.414191  0.011231258  0.010364748            2 
  427000   0.59401507   -8.7391474    57.416885  0.011205481  0.010328437            4 
  428000   0.58511569   -8.7329169    57.369193  0.011170014    0.0102922            7 
  429000   0.57825902   -8.7179199    57.335767  0.011137484  0.010256057            6 
  430000    0.5825938   -8.7342487    57.431904  0.011130214  0.010220147           10 
  431000   0.57825277   -8.7501589    57.360946   0.01109067  0.010184397            6 
  432000   0.58096547   -8.7544677     57.33399  0.011059797  0.010148781           10 
  433000   0.57973414   -8.7555841    57.366555  0.011040523  0.010113265            5 
  434000    0.5560705   -8.7451101    57.355019  0.011012868  0.010077932            3 
  435000   0.56917353   -8.7751372    57.297236  0.010976482  0.010042686            4 
  436000   0.56390827   -8.7675287    57.342345  0.010959928  0.010007561            5 
  437000   0.56362598   -8.7682508    57.355454  0.010937348 0.0099726385            6 
  438000   0.55511734   -8.7667954    57.415379  0.010923778 0.0099377771            5 
  439000   0.56338895   -8.7818119    57.295772  0.010876191 0.0099031261            4 
  440000   0.55874504   -8.7940615     57.35272  0.010862258 0.0098686269            3 
  441000   0.56568982   -8.7748248     57.34747  0.010836635 0.0098343091            4 
  442000   0.56014982   -8.7898104    57.301731  0.010803494 0.0098000934            4 
  443000   0.56796143   -8.7901417    57.273794  0.010773851 0.0097660439            6 
  444000   0.55072976   -8.7879346    57.262226  0.010747415 0.0097321575           10 
  445000   0.55789863   -8.7970914    57.333779  0.010736663 0.0096984177            3 
  446000   0.54674491   -8.8010916    57.222273  0.010691755 0.0096647507            4 
  447000   0.57201904   -8.8040626    57.244673  0.010672012 0.0096311964            5 
  448000   0.54094747   -8.7965625    57.220395  0.010643675 0.0095977708            4 
  449000    0.5431205   -8.8196677    57.165004  0.010609689 0.0095645421            4 
  450000   0.54942332   -8.8090292    57.232916  0.010598688 0.0095313994            5 
  451000   0.53931809   -8.8196863    57.164804  0.010562602 0.0094983962           11 
  452000   0.55101991   -8.8029557    57.199339  0.010545601 0.0094655284            6 
  453000   0.54367424   -8.8171918    57.118074  0.010507372 0.0094328367            6 
  454000   0.54964208   -8.7996495    57.170237  0.010493803 0.0094002789            5 
  455000   0.54038253   -8.8295482    57.237464  0.010483052 0.0093678905            7 
  456000   0.54095048   -8.8095398     57.25792  0.010463801  0.009335657            3 
  457000   0.54682888   -8.8249244    57.267485  0.010442649 0.0093035684            3 
  458000   0.52465245   -8.8121828    57.269666  0.010420245  0.009271588            4 
  459000   0.53918922    -8.822266    57.249803  0.010393937 0.0092396898            4 
  460000   0.53453601   -8.8207981    57.209577  0.010364054 0.0092079331            5 
  461000   0.53044412   -8.8311938    57.168262  0.010334104 0.0091763424            4 
  462000    0.5328689   -8.8440523    57.183184  0.010314427 0.0091448286            4 
  463000   0.52509733   -8.8421844    57.130393  0.010282648 0.0091135011            2 
  464000   0.52233942   -8.8289962    57.216122  0.010275884 0.0090822523            6 
  465000   0.52978363   -8.8272345     57.11489  0.010235643 0.0090511375            3 
  466000   0.52267707   -8.8531108    57.183637  0.010225972 0.0090201471            6 
  467000   0.51515433   -8.8432167    57.108632  0.010190691 0.0089892309            3 
  468000    0.5076131   -8.8515402    57.100474  0.010167463 0.0089585062            7 
  469000   0.51608066   -8.8514895    57.060094  0.010138609 0.0089278946            4 
  470000   0.52269022   -8.8572432    57.108896  0.010125691 0.0088974153            6 
  471000   0.51359527   -8.8688013      57.1372    0.0101092 0.0088670312            5 
  472000   0.51487842   -8.8580667    57.131995  0.010086863 0.0088367976            4 
  473000   0.50872691   -8.8610055    57.027428  0.010047116  0.008806682            5 
  474000   0.50667691    -8.861913    57.008553  0.010022601 0.0087767002            6 
  475000   0.50776173   -8.8699813    57.123043  0.010021587  0.008746845            6 
  476000   0.50280213   -8.8633755    56.980819 0.0099756335 0.0087170456            9 
  477000    0.5063742   -8.8660865    57.029159 0.0099631655 0.0086873979            5 
  478000   0.50072685   -8.8814612    57.024413 0.0099414945 0.0086578556            7 
  479000   0.50922411   -8.8728357    56.971454 0.0099115265 0.0086284365            6 
  480000   0.50008687   -8.8946851    57.012212 0.0098979535 0.0085991397            4 
  481000   0.49651777   -8.8926291    57.072337 0.0098877923 0.0085699341            5 
  482000   0.49608385    -8.898025    56.949302 0.0098460065 0.0085408811            4 
  483000   0.49385453     -8.89015    57.119401  0.009854969 0.0085119542            6 
  484000   0.49826305    -8.901034    56.979676 0.0098105502 0.0084831548            6 
  485000   0.49806958   -8.9002876    56.992478  0.009792522 0.0084545189            6 
  486000   0.49989518   -8.8921668    56.955484 0.0097660295 0.0084260071            8 
  487000   0.48886939   -8.8977943    57.018441 0.0097567489 0.0083975936            4 
  488000   0.49031232   -8.8917497    57.017904 0.0097366639 0.0083693055            5 
  489000   0.48717112   -8.9177563    56.940154 0.0097035027 0.0083412003           12 
  490000   0.49581051   -8.9167843    56.898605 0.0096766336  0.008313126            3 
  491000   0.49546722   -8.9028639    56.975281 0.0096699391 0.0082852237            3 
  492000   0.47657347   -8.9183645    56.954114 0.0096466995 0.0082574227            4 
  493000   0.48524524   -8.9099966    56.940143 0.0096247706  0.008229768            6 
  494000   0.48263607   -8.9202472    56.944583 0.0096060362 0.0082021888            4 
  495000   0.46434792   -8.9224341    56.906071 0.0095801466 0.0081747583            4 
  496000   0.47328797   -8.9185982    56.840577  0.009549828 0.0081473853            4 
  497000   0.47547008   -8.9236643    56.855449 0.0095331068 0.0081201007            3 
  498000   0.46520248   -8.9216614    56.915523 0.0095240166 0.0080929587            8 
  499000   0.47571604   -8.9230908    56.792285 0.0094843496 0.0080659757            5 
  500000   0.46914761   -8.9458834    56.942525 0.0094904209 0.0080390805            3 
  501000   0.46503339   -8.9378843    56.886028 0.0094620806 0.0080123218            6 
  502000   0.46001652   -8.9430959    56.823682 0.0094328821 0.0079856298            8 
  503000   0.47086724   -8.9279416    56.898881 0.0094265872 0.0079590419            6 
  504000   0.45669768    -8.934894    56.863394 0.0094020162 0.0079325689            8 
  505000   0.46130393   -8.9453948    56.819925 0.0093762252 0.0079061964            4 
  506000   0.46425508   -8.9532406    56.847163  0.009362181 0.0078799241            6 
  507000    0.4608557   -8.9355513    56.749258 0.0093276229 0.0078538004            7 
  508000   0.44792098   -8.9633293     56.79546 0.0093168406 0.0078278133            4 
  509000   0.44603436    -8.962689    56.875615 0.0093116593 0.0078019291            7 
  510000    0.4546125   -8.9646612    56.777233 0.0092773257 0.0077761123            4 
  511000   0.45597485   -8.9702099    56.815971 0.0092654878 0.0077504148            6 
  512000   0.45099144   -8.9658732    56.755242 0.0092375068  0.007724867            3 
Loop time of 1228.94 on 48 procs for 500000 steps with 4000 atoms

Performance: 70304.436 tau/day, 406.854 timesteps/s
99.4% CPU use with 48 MPI tasks x no OpenMP threads

MPI task timing breakdown:
Section |  min time  |  avg time  |  max time  |%varavg| %total
---------------------------------------------------------------
Pair    | 81.619     | 86.636     | 91.52      |  27.6 |  7.05
Neigh   | 8.0709     | 8.4655     | 8.8837     |   7.0 |  0.69
Comm    | 78.35      | 83.989     | 90.49      |  31.7 |  6.83
Output  | 1.2125     | 1.2137     | 1.2558     |   0.6 |  0.10
Modify  | 1033.7     | 1036.7     | 1039.4     |   4.4 | 84.36
Other   |            | 11.92      |            |       |  0.97

Nlocal:        83.3333 ave          90 max          75 min
Histogram: 1 1 3 6 6 7 12 4 5 3
Nghost:        2174.69 ave        2199 max        2151 min
Histogram: 1 1 7 10 5 8 8 6 0 2
Neighs:        14479.5 ave       16476 max       12707 min
Histogram: 2 2 7 10 4 7 9 4 2 1
FullNghs:      28958.6 ave       31627 max       25888 min
Histogram: 1 2 2 10 4 11 8 6 2 2

Total # of neighbors = 1390012
Ave neighs/atom = 347.50300
Neighbor list builds = 26690
Dangerous builds = 0

#clear
#
#next RN
#
#jump SELF
Total wall time: 0:20:32
