
units lj                  # Use reduced LJ style units
atom_style atomic         # Uncharged point particles
atom_modify map hash      # Needed for indexing of clusters etc
                          # Used to be able to find where atoms are in relation to each other.

lattice fcc 1.0 spacing 1 1 1
Lattice spacing in x,y,z = 1.5874011 1.5874011 1.5874011
region box block 0 10 0 10 0 10 units lattice
create_box 2 box
Created orthogonal box = (0.0000000 0.0000000 0.0000000) to (15.874011 15.874011 15.874011)
  3 by 4 by 4 MPI processor grid
create_atoms 1 box
Created 4000 atoms
  using lattice units in orthogonal box = (0.0000000 0.0000000 0.0000000) to (15.874011 15.874011 15.874011)
  create_atoms CPU = 0.003 seconds
set type 1 type/fraction 2 0.05 78393
Setting atom values ...
  207 settings made for type/fraction
mass 1 1.0
mass 2 1.0
pair_style lj/cut  3.5
pair_modify tail  yes
pair_coeff 1  1  1.0  1.0   # Intearaction between 1 and 1 set with epsilon = 1 and sigma = 1
pair_coeff 1  2  1.5  0.8
pair_coeff 2  2  0.5  0.88

write_data data.0
System init for write_data ...
Neighbor list info ...
  update every 1 steps, delay 10 steps, check yes
  max neighbors/atom: 2000, page size: 100000
  master list distance cutoff = 3.8
  ghost atom cutoff = 3.8
  binsize = 1.9, bins = 9 9 9
  1 neighbor lists, perpetual/occasional/extra = 1 0 0
  (1) pair lj/cut, perpetual
      attributes: half, newton on
      pair build: half/bin/atomonly/newton
      stencil: half/bin/3d
      bin: standard
WARNING: Not all mixed pair coeffs generated from mixing. Use write_data with 'pair ij' option to store all pair coeffs. (../write_data.cpp:312)


#############################
#   M E L T   S Y S T E M   #
#############################

velocity all create 2.4 9622624 mom yes dist gaussian # Assign velocities
                                                    # Temperature 2.4, random number seed, zero linear momentum
                                                                                # Gaussian distribution

timestep 0.002   # simulation timestep
thermo 1000       # output thermodynamic data every 1000 steps bf 100

# Define a fix  in this case with index 1 applied to all
# particles in the simulation. This fix is for simulations
# in the anisotropic NPT ensemble. Note that we use the MTK
# correction.
fix 1 all npt temp 2.4 2.4 0.1 iso 5.68 5.68 0.5 mtk yes tchain 5 pchain 5 # Use NPT ensemble
                                                                         # Set temperature and pressure and damping
                                                                         # Numbers of thermostats in chain and in barostat
run 10000          # run for 10000 steps
Per MPI rank memory allocation (min/avg/max) = 3.642 | 3.644 | 3.648 Mbytes
Step Temp E_pair E_mol TotEng Press Volume 
       0          2.4   -8.0440018            0   -4.4449018    -2.648783         4000 
    1000    2.3865965   -4.4901522            0  -0.91115239    5.6134861    5038.5198 
    2000    2.3994519   -4.5280004            0  -0.92972235    5.5670191    5034.9148 
    3000    2.4110606   -4.4865826            0  -0.87089584    5.6977977    5038.0096 
    4000    2.3738954    -4.422561            0  -0.86260809    5.8294464    5051.6144 
    5000    2.4516567    -4.438694            0  -0.76212824    5.9206117    5038.5659 
    6000    2.4096923   -4.4831034            0  -0.86946858    5.9083585    5011.8522 
    7000    2.4048955   -4.4690681            0  -0.86262665    5.7187035    5043.4888 
    8000    2.4253004   -4.5262783            0  -0.88923719    5.5926461    5032.3326 
    9000    2.4035927     -4.52759            0  -0.92310228    5.4580087    5046.5282 
   10000    2.3983108   -4.5328675            0  -0.93630058    5.5019989    5035.2136 
Loop time of 2.09378 on 48 procs for 10000 steps with 4000 atoms

Performance: 825302.023 tau/day, 4776.053 timesteps/s
99.6% CPU use with 48 MPI tasks x no OpenMP threads

MPI task timing breakdown:
Section |  min time  |  avg time  |  max time  |%varavg| %total
---------------------------------------------------------------
Pair    | 0.87551    | 0.93649    | 1.0165     |   2.9 | 44.73
Neigh   | 0.16978    | 0.17572    | 0.19011    |   0.9 |  8.39
Comm    | 0.63473    | 0.73121    | 0.79152    |   3.9 | 34.92
Output  | 0.00024282 | 0.00024973 | 0.00031624 |   0.0 |  0.01
Modify  | 0.2018     | 0.23579    | 0.26678    |   3.1 | 11.26
Other   |            | 0.01432    |            |       |  0.68

Nlocal:        83.3333 ave          93 max          73 min
Histogram: 1 1 3 8 9 7 9 5 2 3
Nghost:        1419.96 ave        1452 max        1388 min
Histogram: 2 2 4 7 7 11 8 4 2 1
Neighs:        7565.08 ave        8358 max        6662 min
Histogram: 1 6 2 9 5 4 4 7 7 3

Total # of neighbors = 363124
Ave neighs/atom = 90.781000
Neighbor list builds = 902
Dangerous builds = 174

# Equilibrate just above the melting temperature to avoid step fn in T

fix 1 all npt temp 1.25 1.25 0.1 iso 5.68 5.68 0.5 mtk yes tchain 5 pchain 5
run 2000
Per MPI rank memory allocation (min/avg/max) = 3.643 | 3.645 | 3.649 Mbytes
Step Temp E_pair E_mol TotEng Press Volume 
   10000    2.3983108   -4.5328675            0  -0.93630058    5.5019989    5035.2136 
   11000    1.2528562   -6.0080593            0   -4.1292447    5.6867738    4170.2927 
   12000    1.2477678   -6.0410544            0   -4.1698706    5.4805209    4169.3535 
Loop time of 0.477783 on 48 procs for 2000 steps with 4000 atoms

Performance: 723340.717 tau/day, 4186.000 timesteps/s
99.6% CPU use with 48 MPI tasks x no OpenMP threads

MPI task timing breakdown:
Section |  min time  |  avg time  |  max time  |%varavg| %total
---------------------------------------------------------------
Pair    | 0.20231    | 0.21695    | 0.25772    |   2.2 | 45.41
Neigh   | 0.031085   | 0.032789   | 0.039059   |   0.7 |  6.86
Comm    | 0.1359     | 0.16819    | 0.19443    |   3.7 | 35.20
Output  | 5.0818e-05 | 5.1953e-05 | 6.7329e-05 |   0.0 |  0.01
Modify  | 0.039537   | 0.055338   | 0.069357   |   4.3 | 11.58
Other   |            | 0.004463   |            |       |  0.93

Nlocal:        83.3333 ave          90 max          76 min
Histogram: 3 2 4 3 8 10 3 9 3 3
Nghost:        1597.56 ave        1623 max        1571 min
Histogram: 1 2 4 5 7 15 7 3 3 1
Neighs:        9138.33 ave       10227 max        8186 min
Histogram: 2 4 5 5 13 5 5 8 0 1

Total # of neighbors = 438640
Ave neighs/atom = 109.66000
Neighbor list builds = 143
Dangerous builds = 10

#############################
# L I N E A R  Q U E N C H  #
#############################

# Define solid atoms. This closely follows ten Wolde  Ruiz-Montero and Frenkel  Faraday Discuss  1996  104  93-110
# Compute components of the per-atom q6 vector
compute q6 all orientorder/atom degrees 1 6 components 6 nnn NULL cutoff 1.3 # compute the Q6 parameter.
                                                                             # Use all neighbours within 1.3 unit cell.

# get number of connections
compute coord_number all coord/atom orientorder q6 0.5

# An atom is solid if it has 8 or more connections (of a possible 14)
variable is_solid atom c_coord_number>=8
group solid dynamic all var is_solid    # Must be dynamic to update
dynamic group solid defined

# do clustering
compute cluster solid cluster/atom 1.3 # Create a cluster where all atoms within are solid and max 1.3 units from another member

# define chunks one chunk per cluster
compute clus_chunks solid chunk/atom c_cluster nchunk every compress yes  # Says which atoms are in which chunk

# count the size of each chunk
compute size_chunks solid property/chunk clus_chunks count


# Find the maximum entry in the vector of chunk sizes
variable max_n equal max(c_size_chunks)


# Thermo style which includes this variable
# thermo_style custom step temp pe vol v_max_n

thermo ${N}  # Print the thermo information every 100 steps
thermo 1000  

# Reset the npt fix at a lower temperature (below freezing)
fix 1  all npt temp  ${temp} ${temp}  0.1  iso  5.68  5.68  0.5  mtk yes tchain  5  pchain  5
fix 1  all npt temp  0.45 ${temp}  0.1  iso  5.68  5.68  0.5  mtk yes tchain  5  pchain  5
fix 1  all npt temp  0.45 0.45  0.1  iso  5.68  5.68  0.5  mtk yes tchain  5  pchain  5

dump dmp2 all dcd ${N} traj.dcd
dump dmp2 all dcd 1000 traj.dcd


compute msd all msd com yes
variable twopoint equal c_msd[4]/6/(step*dt+1.0e-6)
fix 9 all vector 10 c_msd[4]
variable fit equal slope(f_9)/6/(10*dt)
thermo_style custom step temp pe c_msd[4] v_twopoint v_fit v_max_n

fix 1 all npt temp 1.25 ${temp} 0.1 iso 5.68 5.68 0.5 mtk yes tchain 5 pchain 5
fix 1 all npt temp 1.25 0.45 0.1 iso 5.68 5.68 0.5 mtk yes tchain 5 pchain 5
run 500000 # 5000000  # Run for this many steps
Neighbor list info ...
  update every 1 steps, delay 10 steps, check yes
  max neighbors/atom: 2000, page size: 100000
  master list distance cutoff = 3.8
  ghost atom cutoff = 3.8
  binsize = 1.9, bins = 9 9 9
  4 neighbor lists, perpetual/occasional/extra = 1 3 0
  (1) pair lj/cut, perpetual
      attributes: half, newton on
      pair build: half/bin/atomonly/newton
      stencil: half/bin/3d
      bin: standard
  (2) compute orientorder/atom, occasional
      attributes: full, newton on
      pair build: full/bin/atomonly
      stencil: full/bin/3d
      bin: standard
  (3) compute coord/atom, occasional
      attributes: full, newton on
      pair build: full/bin/atomonly
      stencil: full/bin/3d
      bin: standard
  (4) compute cluster/atom, occasional
      attributes: full, newton on
      pair build: full/bin/atomonly
      stencil: full/bin/3d
      bin: standard
Per MPI rank memory allocation (min/avg/max) = 9.738 | 9.743 | 9.748 Mbytes
Step Temp PotEng c_msd[4] v_twopoint v_fit v_max_n 
   12000    1.2477678   -6.0410544            0            0 8.3333333e+20            2 
   13000    1.2594215   -6.0497001   0.58036751 0.0037203044  0.047560944            2 
   14000    1.2689517   -6.0336014    1.1540429 0.0068693026  0.047597061            2 
   15000    1.2385583   -6.0513881    1.6785619 0.0093253433  0.046663222            2 
   16000    1.2692877   -6.0003637    2.2060287  0.011489732  0.045973569            3 
   17000    1.2300558   -6.0527034    2.7625896  0.013542105  0.045774667            2 
   18000    1.2208262   -6.0461241    3.3088928  0.015318948  0.045614159            2 
   19000    1.2331527   -5.9992666    3.8090866   0.01670652    0.0453956            2 
   20000    1.2234943   -6.0253823    4.3218273  0.018007613  0.044926496            2 
   21000    1.2484106   -6.0439528    4.8619254  0.019293354   0.04473337            1 
   22000    1.2089421   -6.0394248    5.3668478  0.020328969  0.044594535            3 
   23000    1.2445723   -6.0575387    5.9024562   0.02138571  0.044385421            6 
   24000    1.2245146   -6.0568438     6.419266  0.022289117   0.04420907            4 
   25000    1.2037017   -6.0551368    6.9419912   0.02313997  0.044027662            4 
   26000    1.2318367   -6.0501353    7.4308685  0.023816886  0.043936417            4 
   27000    1.1995889   -6.0546746    8.0146011  0.024736423  0.043847695            4 
   28000     1.219128   -6.0907347    8.6174509  0.025647175  0.043923713            3 
   29000    1.1970013   -6.0468626    9.1213869  0.026210881  0.044062348            2 
   30000    1.2048608   -6.0541744    9.6574914  0.026826364  0.044135504            2 
   31000    1.2266005   -6.0951888    10.123865  0.027214691  0.044166316            6 
   32000    1.2110105   -6.0850956    10.552243  0.027479798  0.044127031            4 
   33000    1.2045608   -6.0534874    11.096951  0.028022602  0.043991551            3 
   34000    1.1984782   -6.1011968    11.653208  0.028561784  0.043891612            5 
   35000    1.2128785   -6.0686902    12.161562    0.0289561  0.043831335            5 
   36000    1.2222719   -6.0753656    12.671795  0.029332859  0.043791628            9 
   37000    1.1997786   -6.0887693     13.04407  0.029378535  0.043693459            2 
   38000    1.1973425   -6.0858229    13.265432   0.02909086  0.043449846            2 
   39000    1.1678289   -6.1035464    13.743438  0.029366321  0.043174271            1 
   40000    1.2073883   -6.0822018    14.147958  0.029474912  0.042887404            3 
   41000     1.202927   -6.1394193    14.538857  0.029550522  0.042554494            3 
   42000    1.1625241   -6.1080007    14.999875  0.029761657  0.042259813            3 
   43000    1.2212713   -6.1119696    15.443507  0.029929278  0.042006923            6 
   44000    1.2006389   -6.0904477    15.874764  0.030065841   0.04174304            3 
   45000    1.1811806   -6.0974168    16.395582  0.030362188  0.041560425            3 
   46000    1.2041702   -6.1036201     17.04009  0.030869728  0.041408907            6 
   47000     1.203345   -6.1074672      17.5154  0.031055674  0.041302989            4 
   48000    1.2017123   -6.1312436    17.769228  0.030849355  0.041180247            6 
   49000    1.1515158   -6.1160089    18.410983  0.031311196  0.041051314            4 
   50000    1.1963392   -6.1066135    18.796849  0.031328082  0.040940892            4 
   51000     1.176511   -6.1252674    19.178398  0.031337251  0.040804354            2 
   52000    1.1787147   -6.1440211    19.623389  0.031447738   0.04066575            2 
   53000    1.1722798     -6.08999    20.044799   0.03151698  0.040542251            2 
   54000      1.17425      -6.1627    20.576688  0.031754147  0.040442041            5 
   55000    1.1813283   -6.1078127    21.119491  0.031999228  0.040361049            2 
   56000    1.1590162    -6.168738    21.628329  0.032185013  0.040291948            2 
   57000    1.1646364   -6.1763213    22.080214  0.032281015    0.0402264            5 
   58000    1.1769373   -6.1512369    22.451279  0.032257584  0.040162224            3 
   59000    1.1557037   -6.1581989    22.922039   0.03237576  0.040098916            2 
   60000    1.1983767   -6.1633578    23.346496  0.032425689   0.04002861            6 
   61000    1.1814278   -6.1796006    23.872139  0.032612212  0.039978813            4 
   62000    1.1814615   -6.1740557     24.23623  0.032575578  0.039924378            8 
   63000    1.1582121   -6.1762758    24.386159  0.032256823  0.039831954            5 
   64000    1.1517826   -6.1818564     24.97127  0.032514675  0.039731592            5 
   65000    1.1499881   -6.1872472     25.37239  0.032528705  0.039637249            6 
   66000    1.1442163   -6.1423321    26.037539   0.03287568  0.039565579            4 
   67000    1.1666057   -6.1761511    26.373453  0.032802802  0.039505259            1 
   68000    1.1576827   -6.1762247    26.863814   0.03292134  0.039442432            5 
   69000    1.1676033   -6.1760405    27.199808   0.03285001  0.039379166            2 
   70000    1.1498649   -6.1526284    27.417719  0.032640141  0.039287326            1 
   71000    1.1874174   -6.1828091    27.782438  0.032608495  0.039189225            2 
   72000    1.1778291    -6.179279    28.288956  0.032741847  0.039097167            3 
   73000    1.1359037   -6.1628576    28.688068  0.032748936   0.03900912            4 
   74000    1.1525151    -6.204688    29.031926   0.03269361   0.03891741            2 
   75000    1.1595987   -6.1908199    29.384171  0.032649078  0.038817075            5 
   76000    1.1629714   -6.2089211    29.897956  0.032782847  0.038722458            7 
   77000    1.1656841   -6.2162369    30.300093  0.032792308  0.038623512            3 
   78000    1.1626196   -6.2072081    30.778004  0.032882483  0.038533852            7 
   79000    1.1303778   -6.2229764    31.115008  0.032821738  0.038451419            4 
   80000    1.1580449   -6.2213231    31.475468  0.032786946  0.038371117            4 
   81000      1.14004   -6.2015447    31.865731  0.032783673  0.038285774            6 
   82000    1.1518188   -6.2082784    32.298393   0.03282357  0.038198533            3 
   83000    1.1227624   -6.2297524    32.725312  0.032856738   0.03812164            3 
   84000    1.1371532   -6.1801025    33.444247  0.033178817  0.038054198            2 
   85000    1.1390893   -6.2202015    33.581478  0.032923017  0.037995654            5 
   86000    1.1189095   -6.2086876    34.078885  0.033022175  0.037931751            3 
   87000    1.1365882   -6.2167105    34.415332  0.032964877  0.037861454            3 
   88000     1.126539    -6.198812    35.207314  0.033340259  0.037804786            5 
   89000    1.1321037   -6.2192487    35.428346  0.033172608  0.037760723            2 
   90000    1.1214132   -6.2491842    35.797332  0.033145678  0.037715294            3 
   91000    1.1249618   -6.2108502    36.252582  0.033198335  0.037664346            6 
   92000    1.1234598   -6.2533337     36.79772  0.033331268  0.037616783            2 
   93000    1.0959543   -6.2698043     37.26174  0.033388656  0.037573874            6 
   94000    1.1136472   -6.2396291    37.516279  0.033259113  0.037533562            5 
   95000    1.1275246   -6.2389138    37.983521  0.033318878  0.037488465            7 
   96000    1.1416124   -6.2376748    38.409447  0.033341534    0.0374427            5 
   97000    1.1012383   -6.2347957    38.475943  0.033054934  0.037381807            3 
   98000    1.1300734   -6.2651804    38.739076  0.032941391  0.037313369            6 
   99000    1.1030536     -6.24745     39.02178  0.032846616  0.037238694            4 
  100000    1.1080648   -6.2581677    39.373192  0.032810993  0.037162087            1 
  101000    1.0891851   -6.2338465     39.94478  0.032957739  0.037089432            7 
  102000    1.1140148   -6.2986046    40.123097  0.032780308  0.037015005            5 
  103000    1.1025073   -6.2887295    40.439637  0.032718153  0.036941057            4 
  104000    1.1058124   -6.2639375    40.855825  0.032737039   0.03686501            7 
  105000    1.1114885   -6.2612328     41.46218  0.032906492   0.03679526            4 
  106000    1.1160337   -6.2790262    41.945016  0.032975641  0.036731918            4 
  107000    1.0674536   -6.2698253    42.079738  0.032772382   0.03666741            5 
  108000     1.093769   -6.2921931    42.347978  0.032675909  0.036597971            3 
  109000     1.111894   -6.2996778    42.600473  0.032569169  0.036527678            4 
  110000    1.1021907   -6.3111936     43.19739  0.032725296  0.036454053            4 
  111000      1.07868   -6.2937166    43.422871  0.032599753  0.036383334            5 
  112000    1.1136636   -6.2766025    44.090724  0.032805598  0.036321679            4 
  113000    1.1149854    -6.317035     44.56152  0.032862478  0.036262855            5 
  114000    1.1004191   -6.3479564    44.728888  0.032696555  0.036205002            6 
  115000    1.0920949   -6.3254887    45.276206  0.032808845  0.036149141            3 
  116000    1.0978439   -6.3000606    45.544585  0.032718811  0.036095745            6 
  117000    1.0638852   -6.3192108    45.894594  0.032688457  0.036039232            4 
  118000    1.0962217   -6.3356513     46.16182  0.032600155  0.035978183            2 
  119000     1.062803   -6.2861462    46.579529  0.032618718  0.035913805            3 
  120000    1.0549577   -6.3090546    46.769416  0.032478761  0.035849488            3 
  121000    1.0800996    -6.291085    47.195417   0.03250373  0.035786286            3 
  122000    1.0761861   -6.2997808    47.864015  0.032693999  0.035729815            2 
  123000    1.0647282   -6.3168003    48.175179   0.03263901  0.035676166           12 
  124000     1.058967   -6.3305453    48.498302  0.032592945  0.035619512            4 
  125000    1.0779599   -6.3369957    48.933189  0.032622126  0.035565607            3 
  126000     1.057132   -6.3377424    49.232733  0.032561331  0.035511575            6 
  127000    1.0620235   -6.3199854    49.489558  0.032473463  0.035456183            3 
  128000    1.0642368   -6.3138629    49.847492  0.032452794  0.035398699            3 
  129000    1.0517625   -6.3477376    50.170226  0.032409707   0.03534231            7 
  130000    1.0745489   -6.3328137    50.905003  0.032631412  0.035290027            9 
  131000    1.0485049   -6.3619118     51.10241  0.032507894  0.035239012           12 
  132000    1.0550232   -6.3549291    51.077005  0.032245584  0.035184497            4 
  133000      1.05967   -6.3872682    51.462798  0.032244861  0.035124294            5 
  134000    1.0825885   -6.3676174    51.722536  0.032165756  0.035063688            5 
  135000    1.0641168   -6.3472809    52.074116  0.032144516  0.034998998            4 
  136000    1.0732133   -6.3505397    52.550572  0.032200106  0.034935351            9 
  137000     1.045105   -6.3656195    52.528101    0.0319514  0.034872936            3 
  138000    1.0358252   -6.3760726    53.089038  0.032058598  0.034808301            3 
  139000    1.0357222   -6.3485486    53.434438  0.032035035  0.034748423            5 
  140000     1.030384   -6.3809474     53.65792  0.031939238   0.03468667            5 
  141000    1.0298552   -6.3845154    54.223186    0.0320468  0.034625305            5 
  142000    1.0403211   -6.3869445     53.97714  0.031676726  0.034560948            9 
  143000    1.0362923   -6.3825215    54.426704  0.031717193  0.034493332            6 
  144000    1.0344166   -6.3789552    54.892073  0.031766246  0.034426394            4 
  145000    1.0435728   -6.4138137    55.021666  0.031621647  0.034359332            7 
  146000    1.0246834   -6.3732827    55.244157  0.031532053  0.034289131            5 
  147000    1.0366264   -6.4051884    55.600136  0.031519351  0.034218809            4 
  148000    1.0384414   -6.4001345    55.844995  0.031444254  0.034148428            3 
  149000    1.0289441   -6.4189092    55.980708  0.031309121   0.03407567            8 
  150000    1.0280734   -6.4349408    56.365002   0.03131389  0.034001338            2 
  151000    1.0179065   -6.4188341    56.406622  0.031129482  0.033926755            3 
  152000    1.0231247    -6.426555    56.815067  0.031148611  0.033849985            8 
  153000    1.0227104   -6.4459199    57.069483  0.031083596  0.033776109            6 
  154000    1.0082044   -6.4551861    57.310873  0.031012377  0.033701493            3 
  155000    1.0048992   -6.4227027    57.555232  0.030943673  0.033624327            5 
  156000    1.0217348   -6.4129888    57.985791  0.030975316  0.033550121            2 
  157000    1.0200051   -6.4172101    58.269571  0.030928647  0.033474909            4 
  158000    1.0259515   -6.4081626    58.509439  0.030859409  0.033401371            2 
  159000    1.0000552   -6.4303207    58.594476  0.030709893  0.033325922            3 
  160000      1.00263    -6.458212    58.764027  0.030606264  0.033247525            9 
  161000    1.0079587   -6.4274775    59.232388  0.030658586  0.033170193            3 
  162000   0.98554258   -6.4064987    59.419166  0.030565414  0.033092087            4 
  163000    1.0092595   -6.4571817    59.386098  0.030360991  0.033010022            5 
  164000   0.99728923   -6.4628874    59.596111  0.030282577  0.032928997            8 
  165000    1.0189489    -6.437484    60.171212  0.030389501  0.032847973            5 
  166000    1.0048533   -6.4463256    60.590849  0.030417093  0.032769885            5 
  167000   0.99650565   -6.4690747    61.031691  0.030454935  0.032696094            8 
  168000   0.98457501   -6.4840296    61.003109  0.030259479   0.03262214            4 
  169000   0.99830444   -6.4614427     61.31398  0.030233718  0.032548051            9 
  170000    1.0139436   -6.4814006    61.465555  0.030130174  0.032473436            7 
  171000    1.0089307   -6.4882378    61.846081  0.030139416  0.032398487            9 
  172000   0.99898898   -6.4553312    62.140901  0.030107026  0.032323902            6 
  173000   0.99085651   -6.5016082    62.256823  0.029988835  0.032249213            5 
  174000    0.9996612   -6.4904864    62.492897  0.029929548  0.032172486            2 
  175000    1.0060225   -6.5246583    62.736644  0.029874592  0.032097378            6 
  176000    0.9797196   -6.5086196    63.022359  0.029840132  0.032024321            5 
  177000   0.98216336   -6.4870065    63.444271  0.029870184  0.031952519            4 
  178000   0.95858163   -6.4975919     63.53106  0.029743005  0.031879044            7 
  179000   0.99417964   -6.5081073    63.871078  0.029735139  0.031805269            4 
  180000   0.97832261   -6.4994636     63.75182  0.029514731  0.031732112            6 
  181000   0.97032339   -6.5236974    64.025751  0.029477786  0.031658387            7 
  182000   0.99091743   -6.4961938    64.531708  0.029547485  0.031584019            3 
  183000   0.97544279   -6.5253345     64.85532  0.029533388  0.031511305            5 
  184000    0.9664865   -6.5266907    64.783361   0.02934029  0.031436999            4 
  185000   0.97346756   -6.5241069    64.919542  0.029243037  0.031359651            4 
  186000   0.97073894    -6.522612    65.093652  0.029163822  0.031284551            8 
  187000   0.96391034   -6.5232749    65.394664  0.029142007  0.031208269            3 
  188000   0.98066928   -6.5100521    65.668089  0.029108195  0.031133841            6 
  189000   0.98577845   -6.5363728    65.939697   0.02907394  0.031059893            8 
  190000   0.97003531   -6.5801811    66.091032  0.028987295  0.030984246            8 
  191000   0.97528997   -6.5242372    66.336113  0.028942457  0.030908327            5 
  192000   0.98042713   -6.5422596    66.732509  0.028963762  0.030834201           12 
  193000   0.96982589   -6.5508181    67.170319  0.029002729  0.030762588            6 
  194000   0.96612123   -6.5226552    67.354409  0.028932306  0.030693625           12 
  195000   0.95592937   -6.5841486    67.475775  0.028835801  0.030623859            4 
  196000   0.97465234   -6.5204929    67.775263  0.028816013  0.030553801            6 
  197000   0.95870268   -6.5370308    68.013984  0.028770721  0.030484576            2 
  198000   0.96163317   -6.5600014     68.30767  0.028749019  0.030415124            8 
  199000   0.93407893   -6.5586974    68.683778  0.028762051  0.030348122            6 
  200000   0.95368275   -6.5628806     68.87644  0.028698516  0.030280511            7 
  201000    0.9478336   -6.5526954     68.90343  0.028566928  0.030213243            6 
  202000   0.95882471   -6.5764732    68.958425  0.028448195  0.030144057           11 
  203000   0.92812562    -6.542258    69.125815  0.028376771  0.030074262           12 
  204000   0.94080373   -6.5634994    69.519534  0.028398502  0.030005077            5 
  205000   0.95335902   -6.5848128    69.775068  0.028363849   0.02993655            7 
  206000    0.9344674   -6.5611493    69.819282  0.028244046  0.029867666            4 
  207000   0.93122661    -6.585853    69.857239  0.028122882  0.029797849            8 
  208000   0.92800114   -6.5623753    70.238086  0.028140259   0.02972885            5 
  209000    0.9500869   -6.5897836    70.526507  0.028120617  0.029659821            4 
  210000   0.94780551   -6.5951308    70.338225  0.027911994  0.029589576            9 
  211000   0.90971198   -6.6205863    70.715506  0.027928715  0.029517467            5 
  212000   0.94423116   -6.5918197    71.147534  0.027966798  0.029448152            6 
  213000   0.91256572   -6.5813522    71.010328  0.027781818  0.029379163            5 
  214000   0.93864385   -6.6185284    71.219011   0.02773326  0.029308774            6 
  215000   0.92048015   -6.5828675    71.440888  0.027690267  0.029238425           19 
  216000   0.93866138   -6.6275542    71.587785  0.027618744  0.029170397            5 
  217000   0.92456986   -6.6366721    71.992145  0.027646753  0.029101223            6 
  218000   0.93372305   -6.6438922    71.985334  0.027517329  0.029032681            8 
  219000   0.92310207   -6.6159202    72.565298  0.027612366  0.028963559           13 
  220000   0.92166962   -6.6009818    72.601572  0.027500595  0.028897039            8 
  221000   0.92141232   -6.6172432     72.62619  0.027385441   0.02882855            4 
  222000   0.90954507   -6.6418366    72.834057  0.027340111  0.028759725            3 
  223000   0.92568655   -6.6275953    72.827316  0.027214991  0.028690381            5 
  224000   0.92663278   -6.6432367    73.214637  0.027237588  0.028620807            7 
  225000   0.90638846    -6.669968    73.335741  0.027161385  0.028550997            5 
  226000   0.91526441   -6.6249634    73.554368  0.027121817  0.028482679            7 
  227000    0.9215948    -6.652688    73.672803  0.027045816  0.028414479            5 
  228000   0.88242337   -6.6431992     73.82723  0.026983637  0.028346197            4 
  229000   0.90507731   -6.6278071    74.468173  0.027099044   0.02828012            6 
  230000   0.89818394   -6.6611827    74.466415  0.026980585  0.028214329            8 
  231000   0.88384301   -6.6601504    74.500057  0.026875922  0.028148655            6 
  232000   0.88849163   -6.6347823    74.779632    0.0268605  0.028082948            6 
  233000   0.89789659    -6.681508    74.807171  0.026755068  0.028016258           10 
  234000   0.88473891   -6.6644535    74.719543  0.026609524  0.027948353           11 
  235000   0.88479967   -6.6419762    74.941817  0.026575112  0.027879161            5 
  236000   0.88536429    -6.685787    75.201493    0.0265542  0.027810265            7 
  237000   0.91477865   -6.6813298    75.318801  0.026483404  0.027743179            9 
  238000   0.86625042   -6.6584523     75.56994  0.026460063  0.027675845           12 
  239000   0.89736226     -6.68242    75.515442  0.026330349  0.027608178            6 
  240000   0.87904697   -6.7010382    75.874705  0.026345383  0.027541641            6 
  241000   0.88575141   -6.7021108    75.839786  0.026223992  0.027473965            6 
  242000   0.87517029   -6.6787596    76.262655  0.026261245  0.027407076           11 
  243000   0.87956672   -6.6801832    76.484519  0.026229259  0.027341356            7 
  244000   0.88872858   -6.6749481    76.656034  0.026180339  0.027275047            6 
  245000   0.87882134   -6.6785947    76.703739  0.026089707  0.027209048            7 
  246000   0.85817429   -6.7036258    76.818353  0.026022477  0.027141745            8 
  247000   0.88491785   -6.6989539    76.830387  0.025921183  0.027074078            5 
  248000   0.87282202   -6.7402592    76.732846  0.025783886  0.027005231           11 
  249000   0.86867958   -6.7074243    77.157022  0.025822296  0.026937629           10 
  250000   0.87511105   -6.7280892    77.160074  0.025720025  0.026870364            8 
  251000   0.87375109   -6.6909154    77.402508  0.025698044  0.026803087            7 
  252000   0.89411266   -6.6969479    77.654186  0.025679294  0.026736458           22 
  253000   0.85718927   -6.7433318    77.614806  0.025564824  0.026669513            8 
  254000   0.86954286   -6.7323071    77.705839  0.025494042   0.02660228           30 
  255000   0.85514736    -6.774367    77.674433  0.025383802  0.026534511           16 
  256000   0.85018376   -6.7573655    77.904481  0.025359531  0.026466487           12 
  257000   0.83868101   -6.7372219    77.962384  0.025279632  0.026398063           10 
  258000   0.86326887   -6.7490752     78.20479  0.025259945  0.026329603            8 
  259000   0.84863403   -6.7467369    78.373214  0.025216607   0.02626114           13 
  260000   0.85290662   -6.7466852    78.402224  0.025128918  0.026193639           16 
  261000   0.87011842   -6.7639135     78.60243  0.025096561  0.026125635            5 
  262000   0.83733208   -6.7477802    78.592412  0.024997586  0.026057683            8 
  263000    0.8451892    -6.754475    78.697373  0.024935796  0.025989916            9 
  264000   0.86067751   -6.7354491     79.06397  0.024957061   0.02592279           19 
  265000     0.863902   -6.7289298    78.881268   0.02480543  0.025855422           12 
  266000   0.83054397   -6.7476317    79.038352  0.024761389  0.025787942           14 
  267000   0.84505506   -6.7679881    79.233115  0.024729437  0.025720926            7 
  268000   0.84396516   -6.7724648    79.189129  0.024623485  0.025653383            9 
  269000    0.8368438   -6.7873133    79.407371  0.024599557  0.025585762           16 
  270000   0.80666742   -6.7877674    79.451317  0.024522011  0.025517881            9 
  271000   0.82709635   -6.8354124    79.520407   0.02445277  0.025449782           14 
  272000   0.83386386   -6.7769201    79.571207  0.024378433   0.02538229           16 
  273000   0.83147718   -6.8099049    79.730166  0.024337657  0.025314624            6 
  274000   0.83647052   -6.8026417    79.741573  0.024252303  0.025246819            7 
  275000    0.8267065   -6.8074065    79.955214  0.024228853  0.025178622           11 
  276000   0.82159079   -6.8053038    79.761433  0.024082558  0.025110486           25 
  277000   0.83872841   -6.8000285    79.784364  0.024002516  0.025042143           15 
  278000   0.81969527   -6.8417401    80.137597  0.024022061  0.024973921           15 
  279000    0.8208207   -6.8024287    80.171439  0.023946069  0.024906236           18 
  280000   0.81974338   -6.8120921     80.22271  0.023875807  0.024838568           23 
  281000   0.81736539   -6.8260964    80.446894  0.023857323  0.024770238           12 
  282000   0.80716936   -6.8080116    80.706098   0.02384932  0.024702362            6 
  283000   0.79967322   -6.8434388    80.532832  0.023714026  0.024634837            9 
  284000   0.83083134   -6.8414228    80.322364  0.023568769  0.024566274           12 
  285000   0.81471862   -6.8263023    80.773919  0.023618105  0.024498703            6 
  286000    0.8064786   -6.8323593     80.75589  0.023530271   0.02443155           15 
  287000   0.80052913   -6.8414929    80.778242  0.023454774  0.024363923           10 
  288000   0.82096257   -6.8361275    81.041577   0.02344953  0.024296983           16 
  289000   0.80617929   -6.8100631    81.270607  0.023434431  0.024229946           10 
  290000   0.80397361     -6.83802    80.913379  0.023250971  0.024162836           17 
  291000    0.8084228   -6.8282367    81.327798  0.023289747  0.024095714            9 
  292000   0.80765296   -6.8488766    81.295622  0.023200805  0.024028954           13 
  293000   0.78916128   -6.8573849    81.420085  0.023157021  0.023962452            8 
  294000    0.7969749   -6.8466707    81.497447  0.023100183  0.023896096           14 
  295000   0.82169669     -6.86018    81.436343  0.023004617  0.023829169           20 
  296000   0.79827183   -6.8831868    81.776292  0.023022605  0.023762967           12 
  297000     0.777301   -6.8782037    81.820252  0.022957422  0.023696489           10 
  298000    0.8036521   -6.8269625    81.885426  0.022898609  0.023630503            6 
  299000   0.77924921   -6.8556669    81.792573  0.022796146  0.023564711           10 
  300000   0.80132038   -6.8847189    82.028391  0.022785664  0.023498894           11 
  301000   0.78513357   -6.8794868    82.041139  0.022713494  0.023433089           11 
  302000   0.79124337   -6.8618664    82.195647  0.022680918  0.023367603           18 
  303000   0.78095654   -6.8848352    82.159136  0.022596022  0.023301814           14 
  304000   0.77718752   -6.8776051    82.200913  0.022533145   0.02323626           23 
  305000   0.77685006   -6.8603392     82.30424  0.022487497  0.023171215            8 
  306000    0.7795446    -6.931946    82.082897   0.02235373  0.023105954           13 
  307000   0.76573084   -6.9132007    82.249217  0.022326063  0.023040224           22 
  308000    0.7761993   -6.9075213    82.630787  0.022356815  0.022974751           28 
  309000   0.77679601   -6.9228336    82.294375  0.022193736  0.022909072           35 
  310000   0.77744894   -6.8939799    82.569993  0.022196235  0.022843827            9 
  311000   0.77248924   -6.8973137     82.52622  0.022113135  0.022778729            6 
  312000   0.79097483   -6.8949397    82.856857  0.022130571  0.022713789            4 
  313000   0.78928793   -6.9235357    82.719462  0.022023286  0.022648286            6 
  314000   0.75256505   -6.9193501    82.768941  0.021966279  0.022583207           11 
  315000   0.76715233   -6.9070039    82.545589  0.021837457  0.022517587           19 
  316000    0.7735602   -6.9077077      82.7699  0.021827505  0.022452254            8 
  317000   0.76193161   -6.9433327    82.792199  0.021764511  0.022386844           12 
  318000   0.75402521   -6.9521413    82.789932  0.021695475  0.022321371           25 
  319000   0.75813802   -6.9222061    82.994609  0.021680932  0.022256267           10 
  320000   0.74252307   -6.9362433      83.0227  0.021620495  0.022191416           13 
  321000   0.75538507   -6.9322081     83.08096  0.021568266  0.022126441           12 
  322000   0.77195467   -6.9574666    83.033971  0.021489123  0.022061445           10 
  323000   0.76197492    -6.948381    83.120878  0.021445015   0.02199676           32 
  324000     0.756542   -6.9586428    83.188687  0.021396267  0.021932389           31 
  325000   0.75671025   -6.9842987    83.056759  0.021296605   0.02186805           34 
  326000   0.74800843   -6.9469315    83.366708  0.021310508  0.021803906           20 
  327000   0.74253915   -6.9480183    83.270375  0.021220789   0.02174015           32 
  328000   0.74307954   -6.9802613    83.463649  0.021205195  0.021676445           16 
  329000   0.74836482     -6.96678    83.528848  0.021157256  0.021612862           24 
  330000   0.73663661   -6.9746091    83.429214  0.021067983  0.021549151           10 
  331000   0.72725036   -6.9947009    83.248425  0.020958818  0.021485192           16 
  332000   0.71724021   -7.0095604    83.238104  0.020893098  0.021420978           27 
  333000   0.74771714   -6.9801123     83.50718  0.020897693  0.021357173           22 
  334000   0.73637939   -6.9774713    83.422839  0.020814082  0.021293558           46 
  335000    0.7246788    -6.981045    83.580586  0.020791191  0.021229882           13 
  336000   0.72356792   -6.9700854     83.54128  0.020719563  0.021166903           21 
  337000   0.73861878   -6.9832188    83.539501  0.020657641  0.021103853           16 
  338000   0.72487998   -6.9834418    83.553884   0.02060007  0.021040865           17 
  339000   0.73260933   -7.0156156    83.671108  0.020568119  0.020978014           11 
  340000   0.71751545      -6.9764     83.81941  0.020543973  0.020915265           20 
  341000   0.71719671   -6.9941001    83.843184  0.020489537  0.020852887           10 
  342000   0.71960806   -7.0217477    83.993206  0.020466181  0.020790863           13 
  343000   0.70741222   -6.9990297    83.859049  0.020373919  0.020728773           13 
  344000   0.71439918   -7.0152655    83.999475   0.02034871  0.020666913           19 
  345000   0.72133766   -7.0158858    84.068005  0.020306281  0.020605621           15 
  346000   0.71269212   -6.9971591    83.875739  0.020201286  0.020544516           13 
  347000    0.7098626   -7.0320573    84.047459  0.020184308  0.020483578           12 
  348000   0.70656853   -7.0180576    84.276373  0.020181124  0.020422889           11 
  349000   0.70889372   -7.0611229    84.088226  0.020078373  0.020362194           22 
  350000   0.70065786   -7.0576758    84.288749   0.02006875  0.020301466           11 
  351000     0.709805   -7.0561444    84.466515  0.020053778  0.020241008           41 
  352000    0.7041301   -7.0613141    84.373931  0.019974889  0.020180595           17 
  353000   0.71013294   -7.0348467    84.405366  0.019925724  0.020120738           21 
  354000   0.71908857   -7.0520749    84.467527  0.019884069   0.02006119           40 
  355000   0.70725453   -7.0401089    84.437795  0.019821079  0.020001915           29 
  356000   0.71153472    -7.051646    84.320683  0.019737988  0.019942785           38 
  357000   0.70157775   -7.0543766     84.61593  0.019751618  0.019883733           74 
  358000   0.67944776   -7.0426746    84.333261  0.019630647  0.019824811           62 
  359000   0.70110314    -7.044412    84.715435  0.019664678  0.019766081           57 
  360000   0.70889849   -7.0732512    84.793516  0.019628129  0.019707832           67 
  361000   0.70274534   -7.0738698     84.76793  0.019567851  0.019649806           30 
  362000   0.70151114   -7.0852801    84.684699  0.019494636  0.019591812           63 
  363000   0.68939083   -7.0852298    84.550097  0.019410032  0.019533645           38 
  364000   0.68055324   -7.0941363    84.588518  0.019365503  0.019475503           44 
  365000   0.68705632   -7.1102406    84.676141  0.019332452  0.019417507           46 
  366000   0.67482405   -7.1225063    84.794153  0.019306501   0.01935949          106 
  367000   0.68671519   -7.0864288    84.718382   0.01923669  0.019301804           91 
  368000   0.68528128   -7.1130014    84.882479  0.019221576  0.019244278           76 
  369000   0.68630021   -7.1021453    84.955665  0.019186013  0.019186796          122 
  370000   0.69458762   -7.1012357    84.657659   0.01906704   0.01912933           83 
  371000   0.67292207   -7.1302951    84.656136  0.019015305  0.019071942          211 
  372000   0.66968592   -7.1134897    84.945877  0.019029094  0.019014665          185 
  373000   0.67699126   -7.1278869    84.845592  0.018955673  0.018957701          245 
  374000   0.67743628   -7.1121634    84.983669  0.018935755  0.018901121          115 
  375000   0.69159655    -7.149431    84.766332  0.018836963  0.018844635          221 
  376000   0.65940842   -7.1428069    84.978867  0.018833969  0.018788401          240 
  377000   0.66999626   -7.1351658    84.733673  0.018729813  0.018732093          193 
  378000   0.66183117   -7.1273432    85.011201  0.018741446  0.018675774          213 
  379000   0.65054613   -7.1517904    84.889589  0.018665257  0.018619731          243 
  380000    0.6688649   -7.1317645    84.901481  0.018618746  0.018563748          273 
  381000    0.6620957   -7.1638773    84.982542  0.018587608  0.018508011          247 
  382000   0.65437914    -7.158902    85.060618  0.018555981  0.018452195          205 
  383000    0.6351719   -7.1689445    84.992869  0.018492791   0.01839646          376 
  384000   0.67324168   -7.1459594    85.032332  0.018453197  0.018341029          348 
  385000   0.66709186   -7.1626276      85.0165   0.01840184  0.018285589          156 
  386000   0.64324415   -7.1596554    84.999929  0.018350589  0.018230431          318 
  387000   0.65960527   -7.1636077    85.195502  0.018345285  0.018175198          346 
  388000   0.65282766   -7.1615033    84.715365  0.018194881  0.018119911          361 
  389000   0.65779145    -7.178991    85.046535  0.018219052  0.018064882          362 
  390000   0.63498826   -7.1818376     84.92505  0.018146378  0.018010185          404 
  391000   0.66098417   -7.1692046    85.065752  0.018129956  0.017955479          306 
  392000   0.62875675   -7.1628978    85.018791  0.018073723  0.017901008          314 
  393000   0.64769206   -7.1881943    85.134538  0.018052277  0.017846764          374 
  394000   0.63731513   -7.1838515    84.938192  0.017964931  0.017792589          321 
  395000   0.64333265   -7.1980342    84.972291  0.017926644  0.017738613          380 
  396000   0.62741908    -7.182794    85.189319  0.017927045  0.017684852          183 
  397000   0.62803819   -7.2027234    84.906367  0.017822495  0.017631238          364 
  398000   0.63507081   -7.2097787    85.022574  0.017802046  0.017577502          372 
  399000   0.61598763   -7.2121651    84.987628  0.017750131  0.017523911          204 
  400000   0.62497966   -7.2274381    85.032163  0.017715034  0.017470381          226 
  401000   0.63604313   -7.2202001    85.048716  0.017674297  0.017416987          366 
  402000   0.63902051   -7.2015165    84.889865  0.017597401  0.017363752          187 
  403000   0.61335957   -7.2039263      85.0206  0.017580769  0.017310735          267 
  404000   0.61919123   -7.2461607    85.082259  0.017549971  0.017257823          430 
  405000   0.61963352   -7.2321082     85.13313  0.017517105  0.017204989          485 
  406000   0.62208379   -7.2329289    85.189466  0.017485522   0.01715251          461 
  407000   0.60761474   -7.2466904    85.152589   0.01743501  0.017099921          454 
  408000   0.62176267   -7.2441901    85.112405   0.01738407  0.017047406          480 
  409000   0.62447595   -7.2312146    84.880267  0.017294268  0.016995005          560 
  410000    0.6173546   -7.2446406    84.783064   0.01723233   0.01694255          598 
  411000   0.59992701   -7.2552758    84.874618  0.017208966  0.016890398          561 
  412000   0.60616079   -7.2510744     84.86942  0.017166145   0.01683825          592 
  413000   0.60622799   -7.2945094    84.912917  0.017133357  0.016786274          572 
  414000   0.60193357   -7.2589992    84.843843  0.017078068   0.01673421          657 
  415000   0.60952106   -7.2787098    84.896778  0.017047546   0.01668233          638 
  416000   0.60988662   -7.2598469     84.87087  0.017001376  0.016630599          636 
  417000   0.60887799   -7.2934317     84.73292  0.016933038  0.016579061          652 
  418000   0.60448171   -7.2813494    84.861226  0.016918107  0.016527497          677 
  419000   0.61744534   -7.2784635    84.891944  0.016883839  0.016476258          774 
  420000   0.59205212   -7.2965123    84.737689  0.016813033  0.016425129          708 
  421000   0.58319244   -7.2658923    84.944812  0.016814096  0.016374218          743 
  422000   0.58307409    -7.303519    84.835522   0.01675267  0.016323345          754 
  423000    0.5960024   -7.3038502    84.798909  0.016705853   0.01627257          799 
  424000   0.59395978   -7.3178372    84.809222  0.016668479  0.016221818          861 
  425000   0.59123499   -7.3028088    84.919625  0.016650907  0.016171368          856 
  426000   0.59063252   -7.3095828    84.763343  0.016581249  0.016121008          858 
  427000   0.57929058    -7.316065    84.542908  0.016499397    0.0160708          873 
  428000   0.59360981   -7.3268942    84.852036  0.016521035  0.016020891          932 
  429000   0.57764809   -7.3016755    84.693143  0.016451659  0.015971034          879 
  430000   0.58270003   -7.3273333    84.731792   0.01642089  0.015921352          857 
  431000   0.58030268   -7.3127089    84.836099  0.016402958  0.015871722          872 
  432000   0.57253461    -7.353368    84.891596  0.016375694  0.015822309          923 
  433000   0.57719122   -7.3307403    84.755705  0.016311722   0.01577302          831 
  434000   0.58485877   -7.3504614    84.877959  0.016297611  0.015724091          894 
  435000    0.5700209   -7.3458944    84.894558  0.016263325  0.015675216          995 
  436000   0.57664475   -7.3425342    84.840223  0.016215639  0.015626478          935 
  437000    0.5721891   -7.3268557    84.741172  0.016159644  0.015577931          990 
  438000   0.57840437   -7.3421617    84.756603  0.016125685  0.015529592         1004 
  439000   0.56148636   -7.3631923    84.710678  0.016080235  0.015481235          987 
  440000   0.55781315   -7.3558367    84.774045   0.01605569  0.015433168         1047 
  441000   0.55374225   -7.3716959    84.848863  0.016033421  0.015385183         1023 
  442000   0.57301228    -7.372343    84.726012  0.015973984  0.015337287         1026 
  443000   0.56099324   -7.3547017    84.654135  0.015924405  0.015289499         1017 
  444000   0.56280674    -7.368057    84.649623  0.015887692  0.015241875         1073 
  445000   0.56171894   -7.3727007     84.70854  0.015863022  0.015194469         1052 
  446000   0.55200514   -7.3729528    84.519122  0.015792063    0.0151472         1064 
  447000   0.55730313   -7.3990042    84.513779  0.015755738       0.0151         1113 
  448000   0.55090487   -7.3882159    84.422283   0.01570355  0.015052862         1096 
  449000   0.54597101    -7.390059    84.782697  0.015735467  0.015005852         1146 
  450000   0.54425131   -7.3972441    84.795204  0.015702815  0.014959112         1132 
  451000   0.55094488   -7.4143322    84.578689  0.015627991  0.014912497         1204 
  452000   0.53689183    -7.408149    84.619034  0.015600854  0.014865991         1131 
  453000   0.52474054   -7.4173022    84.521268  0.015548431  0.014819551         1160 
  454000   0.53586281   -7.4154094    84.517809  0.015513548  0.014773245         1253 
  455000   0.55035398   -7.4143284     84.53599  0.015482782  0.014727073         1207 
  456000   0.53735269   -7.4096197    84.450773  0.015433255  0.014681124         1166 
  457000   0.53897372   -7.4196346    84.582195  0.015423449  0.014635268         1152 
  458000   0.53703346   -7.4268316    84.508271  0.015376323  0.014589583         1204 
  459000   0.52118783   -7.4347477    84.582009  0.015356211   0.01454396         1222 
  460000   0.53155475   -7.4248639    84.516169    0.0153109  0.014498515         1303 
  461000   0.53415696   -7.4350527    84.504823  0.015275637  0.014453193         1216 
  462000   0.52604819   -7.4298736    84.424603  0.015228103  0.014408173         1273 
  463000   0.53370743   -7.4311662    84.325599  0.015177394  0.014363261         1213 
  464000   0.51583288   -7.4328712    84.422922  0.015162163  0.014318445         1200 
  465000   0.52882967   -7.4546337    84.351112  0.015116687  0.014273841         1286 
  466000   0.52179103   -7.4590446    84.389842  0.015091173  0.014229326         1264 
  467000   0.52335074   -7.4354249     84.38662  0.015058283  0.014185042         1303 
  468000   0.51636654   -7.4611078    84.459404  0.015039068  0.014140808         1315 
  469000   0.52704961   -7.4752747    84.315434   0.01498142  0.014096701         1354 
  470000   0.51792636   -7.4559148    84.426134  0.014969173  0.014052788         1307 
  471000   0.51968514   -7.4519188    84.413135  0.014935091  0.014009047         1347 
  472000   0.50882169   -7.4730089    84.355972  0.014893357    0.0139654         1352 
  473000   0.51841882   -7.4651834    84.418652  0.014872913  0.013921931         1292 
  474000   0.51264792   -7.4664026    84.293445  0.014819523  0.013878594         1353 
  475000   0.51185383   -7.4650756    84.227262  0.014776713  0.013835428         1285 
  476000   0.49907881   -7.4622236    84.313744  0.014760809  0.013792392         1311 
  477000   0.50367198   -7.4610119    84.381695  0.014741736  0.013749492         1310 
  478000   0.50856592   -7.4793213    84.200073  0.014679232  0.013706898         1289 
  479000    0.5098455    -7.456553    84.436372  0.014689696    0.0136644         1282 
  480000   0.50771021   -7.4752556    84.281379  0.014632184  0.013622015         1343 
  481000   0.50508219   -7.4742272    84.336376  0.014611292  0.013579722         1343 
  482000   0.49381836   -7.4774091    84.303061  0.014575218   0.01353765         1282 
  483000   0.48593412   -7.4933392    84.311653  0.014546524  0.013495659         1336 
  484000   0.48657606   -7.4951861    84.256897  0.014507041  0.013453777         1369 
  485000   0.50640867   -7.5026107    84.326806  0.014489142  0.013412062         1377 
  486000   0.49596519   -7.4848957    84.299178  0.014454592  0.013370442         1326 
  487000   0.49246272   -7.5236568    84.252981  0.014417006  0.013329013         1323 
  488000   0.48933748   -7.5009931    84.144734  0.014368978  0.013287709         1331 
  489000   0.48775882   -7.5057255    84.097357   0.01433152  0.013246538         1402 
  490000   0.47793356   -7.4922021     84.17431  0.014315359  0.013205554         1336 
  491000   0.48533994   -7.5151513    84.148454  0.014281815  0.013164721         1404 
  492000   0.48339407   -7.5078329    84.066331  0.014238877  0.013124033         1390 
  493000   0.48162885   -7.5134787    84.220459  0.014236048  0.013083422         1428 
  494000   0.48934204   -7.4949253    84.036884  0.014176262  0.013043082         1391 
  495000   0.46956186   -7.5237541     84.03371  0.014147089  0.013002777         1393 
  496000   0.47428185   -7.5085175    84.015655  0.014115533  0.012962596         1301 
  497000   0.45747771   -7.5210198    84.120231  0.014104666  0.012922606         1347 
  498000   0.47138678   -7.5029469    83.832036  0.014028118  0.012882675         1329 
  499000   0.47857008   -7.5280131    84.129475  0.014049678  0.012842964         1427 
  500000   0.46432368   -7.5202062    84.021798  0.014003633  0.012803406         1372 
  501000   0.46737984    -7.542579    84.175505  0.014001248     0.012764         1395 
  502000   0.47023997   -7.5281978    84.054469  0.013953265  0.012724739         1399 
  503000   0.45151385    -7.540468    84.044172  0.013923819  0.012685582         1396 
  504000   0.46171116   -7.5402248    84.039721  0.013895457  0.012646635         1436 
  505000   0.45731018   -7.5285705     83.86338  0.013838842  0.012607762         1400 
  506000   0.45589296   -7.5313419     84.09419  0.013849504  0.012569116         1404 
  507000   0.46588857   -7.5389737     83.98827  0.013804778  0.012530541         1436 
  508000   0.47198362   -7.5525333    83.921957  0.013766725  0.012492144         1519 
  509000    0.4566383   -7.5532814    83.971136   0.01374773  0.012453868         1420 
  510000   0.44281034   -7.5524537    83.947132  0.013716852  0.012415771         1454 
  511000   0.45002101   -7.5571732    83.928149  0.013686913  0.012377763         1430 
  512000   0.45176527   -7.5498182    84.052148  0.013680363  0.012339928         1451 
Loop time of 1069.21 on 48 procs for 500000 steps with 4000 atoms

Performance: 80807.056 tau/day, 467.633 timesteps/s
99.4% CPU use with 48 MPI tasks x no OpenMP threads

MPI task timing breakdown:
Section |  min time  |  avg time  |  max time  |%varavg| %total
---------------------------------------------------------------
Pair    | 65.048     | 69.156     | 74.018     |  16.5 |  6.47
Neigh   | 6.6257     | 6.7956     | 7.0269     |   3.1 |  0.64
Comm    | 55.105     | 60.926     | 66.574     |  26.8 |  5.70
Output  | 0.88373    | 0.88427    | 0.8935     |   0.1 |  0.08
Modify  | 914.55     | 919.5      | 925.26     |   9.2 | 86.00
Other   |            | 11.95      |            |       |  1.12

Nlocal:        83.3333 ave          89 max          78 min
Histogram: 3 5 6 4 6 7 7 4 3 3
Nghost:        1759.98 ave        1779 max        1740 min
Histogram: 1 2 5 5 6 14 8 4 0 3
Neighs:        10678.6 ave       11810 max        9807 min
Histogram: 3 3 6 9 10 7 5 3 1 1
FullNghs:      21356.0 ave       23120 max       20020 min
Histogram: 6 4 4 9 7 7 4 3 3 1

Total # of neighbors = 1025088
Ave neighs/atom = 256.27200
Neighbor list builds = 26992
Dangerous builds = 0

#clear
#
#next RN
#
#jump SELF
Total wall time: 0:17:52
