
units lj                  # Use reduced LJ style units
atom_style atomic         # Uncharged point particles
atom_modify map hash      # Needed for indexing of clusters etc
                          # Used to be able to find where atoms are in relation to each other.

lattice fcc 1.0 spacing 1 1 1
Lattice spacing in x,y,z = 1.5874011 1.5874011 1.5874011
region box block 0 10 0 10 0 10 units lattice
create_box 2 box
Created orthogonal box = (0.0000000 0.0000000 0.0000000) to (15.874011 15.874011 15.874011)
  3 by 4 by 4 MPI processor grid
create_atoms 1 box
Created 4000 atoms
  using lattice units in orthogonal box = (0.0000000 0.0000000 0.0000000) to (15.874011 15.874011 15.874011)
  create_atoms CPU = 0.021 seconds
set type 1 type/fraction 2 0.67 78393
Setting atom values ...
  2693 settings made for type/fraction
mass 1 1.0
mass 2 1.0
pair_style lj/cut  3.5
pair_modify tail  yes
pair_coeff 1  1  1.0  1.0   # Intearaction between 1 and 1 set with epsilon = 1 and sigma = 1
pair_coeff 1  2  1.5  0.8
pair_coeff 2  2  0.5  0.88

write_data data.0
System init for write_data ...
Neighbor list info ...
  update every 1 steps, delay 10 steps, check yes
  max neighbors/atom: 2000, page size: 100000
  master list distance cutoff = 3.8
  ghost atom cutoff = 3.8
  binsize = 1.9, bins = 9 9 9
  1 neighbor lists, perpetual/occasional/extra = 1 0 0
  (1) pair lj/cut, perpetual
      attributes: half, newton on
      pair build: half/bin/atomonly/newton
      stencil: half/bin/3d
      bin: standard
WARNING: Not all mixed pair coeffs generated from mixing. Use write_data with 'pair ij' option to store all pair coeffs. (../write_data.cpp:312)


#############################
#   M E L T   S Y S T E M   #
#############################

velocity all create 2.4 8172548 mom yes dist gaussian # Assign velocities
                                                    # Temperature 2.4, random number seed, zero linear momentum
                                                                                # Gaussian distribution

timestep 0.002   # simulation timestep
thermo 1000       # output thermodynamic data every 1000 steps bf 100

# Define a fix  in this case with index 1 applied to all
# particles in the simulation. This fix is for simulations
# in the anisotropic NPT ensemble. Note that we use the MTK
# correction.
fix 1 all npt temp 2.4 2.4 0.1 iso 5.68 5.68 0.5 mtk yes tchain 5 pchain 5 # Use NPT ensemble
                                                                         # Set temperature and pressure and damping
                                                                         # Numbers of thermostats in chain and in barostat
run 10000          # run for 10000 steps
Per MPI rank memory allocation (min/avg/max) = 3.642 | 3.644 | 3.648 Mbytes
Step Temp E_pair E_mol TotEng Press Volume 
       0          2.4   -4.3445498            0  -0.74544977   -3.8717164         4000 
    1000    2.3750786   -4.0344673            0  -0.47274007    5.2355619    3656.5945 
    2000      2.42485   -4.0619086            0    -0.425543    5.6251449    3613.3124 
    3000     2.403151   -4.0251725            0   -0.4213471    5.3498622    3663.2528 
    4000    2.4206832   -3.9913885            0  -0.36127155    5.6320391    3661.9922 
    5000     2.384372   -4.0519322            0  -0.47626831    5.5339741    3627.4812 
    6000    2.4188779   -4.0285737            0   -0.4011639    5.6071721    3637.8853 
    7000    2.3847027   -4.0212688            0  -0.44510906    5.9399368    3624.6515 
    8000    2.4491825   -4.0092252            0  -0.33636994    5.8734333    3629.4011 
    9000    2.3789584   -4.0316501            0  -0.46410471    5.3013347    3663.0821 
   10000    2.3670513   -4.0139101            0  -0.46422087    5.7675264    3619.6289 
Loop time of 2.62532 on 48 procs for 10000 steps with 4000 atoms

Performance: 658205.076 tau/day, 3809.057 timesteps/s
99.6% CPU use with 48 MPI tasks x no OpenMP threads

MPI task timing breakdown:
Section |  min time  |  avg time  |  max time  |%varavg| %total
---------------------------------------------------------------
Pair    | 1.173      | 1.2641     | 1.323      |   2.4 | 48.15
Neigh   | 0.21946    | 0.22389    | 0.22822    |   0.5 |  8.53
Comm    | 0.8194     | 0.88744    | 0.98559    |   3.2 | 33.80
Output  | 0.00024989 | 0.00025404 | 0.00032196 |   0.0 |  0.01
Modify  | 0.2174     | 0.23414    | 0.25364    |   2.3 |  8.92
Other   |            | 0.01554    |            |       |  0.59

Nlocal:        83.3333 ave          95 max          76 min
Histogram: 3 10 6 6 7 8 5 2 0 1
Nghost:        1753.94 ave        1795 max        1724 min
Histogram: 2 5 9 4 12 6 6 2 1 1
Neighs:        10545.6 ave       12168 max        9631 min
Histogram: 7 10 6 6 4 6 3 2 3 1

Total # of neighbors = 506189
Ave neighs/atom = 126.54725
Neighbor list builds = 908
Dangerous builds = 211

# Equilibrate just above the melting temperature to avoid step fn in T

fix 1 all npt temp 1.25 1.25 0.1 iso 5.68 5.68 0.5 mtk yes tchain 5 pchain 5
run 2000
Per MPI rank memory allocation (min/avg/max) = 3.644 | 3.646 | 3.650 Mbytes
Step Temp E_pair E_mol TotEng Press Volume 
   10000    2.3670513   -4.0139101            0  -0.46422087    5.7675264    3619.6289 
   11000    1.2667342   -5.9248747            0   -4.0252485    5.6336423     2777.137 
   12000    1.2524713   -5.9773355            0   -4.0990982    5.8723121     2749.997 
Loop time of 0.68693 on 48 procs for 2000 steps with 4000 atoms

Performance: 503107.703 tau/day, 2911.503 timesteps/s
99.6% CPU use with 48 MPI tasks x no OpenMP threads

MPI task timing breakdown:
Section |  min time  |  avg time  |  max time  |%varavg| %total
---------------------------------------------------------------
Pair    | 0.29677    | 0.32655    | 0.38665    |   2.6 | 47.54
Neigh   | 0.041642   | 0.044333   | 0.050125   |   0.7 |  6.45
Comm    | 0.20029    | 0.26596    | 0.29982    |   3.2 | 38.72
Output  | 5.1626e-05 | 5.3079e-05 | 6.7942e-05 |   0.0 |  0.01
Modify  | 0.042199   | 0.045149   | 0.048142   |   0.8 |  6.57
Other   |            | 0.004884   |            |       |  0.71

Nlocal:        83.3333 ave          90 max          75 min
Histogram: 2 4 2 2 7 6 10 6 7 2
Nghost:        2122.60 ave        2147 max        2099 min
Histogram: 4 5 1 7 6 7 7 5 4 2
Neighs:        13851.5 ave       15170 max       12171 min
Histogram: 2 3 3 7 9 3 6 2 7 6

Total # of neighbors = 664873
Ave neighs/atom = 166.21825
Neighbor list builds = 144
Dangerous builds = 9

#############################
# L I N E A R  Q U E N C H  #
#############################

# Define solid atoms. This closely follows ten Wolde  Ruiz-Montero and Frenkel  Faraday Discuss  1996  104  93-110
# Compute components of the per-atom q6 vector
compute q6 all orientorder/atom degrees 1 6 components 6 nnn NULL cutoff 1.3 # compute the Q6 parameter.
                                                                             # Use all neighbours within 1.3 unit cell.

# get number of connections
compute coord_number all coord/atom orientorder q6 0.5

# An atom is solid if it has 8 or more connections (of a possible 14)
variable is_solid atom c_coord_number>=8
group solid dynamic all var is_solid    # Must be dynamic to update
dynamic group solid defined

# do clustering
compute cluster solid cluster/atom 1.3 # Create a cluster where all atoms within are solid and max 1.3 units from another member

# define chunks one chunk per cluster
compute clus_chunks solid chunk/atom c_cluster nchunk every compress yes  # Says which atoms are in which chunk

# count the size of each chunk
compute size_chunks solid property/chunk clus_chunks count


# Find the maximum entry in the vector of chunk sizes
variable max_n equal max(c_size_chunks)


# Thermo style which includes this variable
# thermo_style custom step temp pe vol v_max_n

thermo ${N}  # Print the thermo information every 100 steps
thermo 1000  

# Reset the npt fix at a lower temperature (below freezing)
fix 1  all npt temp  ${temp} ${temp}  0.1  iso  5.68  5.68  0.5  mtk yes tchain  5  pchain  5
fix 1  all npt temp  0.45 ${temp}  0.1  iso  5.68  5.68  0.5  mtk yes tchain  5  pchain  5
fix 1  all npt temp  0.45 0.45  0.1  iso  5.68  5.68  0.5  mtk yes tchain  5  pchain  5

dump dmp2 all dcd ${N} traj.dcd
dump dmp2 all dcd 1000 traj.dcd


compute msd all msd com yes
variable twopoint equal c_msd[4]/6/(step*dt+1.0e-6)
fix 9 all vector 10 c_msd[4]
variable fit equal slope(f_9)/6/(10*dt)
thermo_style custom step temp pe c_msd[4] v_twopoint v_fit v_max_n

fix 1 all npt temp 1.25 ${temp} 0.1 iso 5.68 5.68 0.5 mtk yes tchain 5 pchain 5
fix 1 all npt temp 1.25 0.45 0.1 iso 5.68 5.68 0.5 mtk yes tchain 5 pchain 5
run 5000000 # 5000000  # Run for this many steps
Neighbor list info ...
  update every 1 steps, delay 10 steps, check yes
  max neighbors/atom: 2000, page size: 100000
  master list distance cutoff = 3.8
  ghost atom cutoff = 3.8
  binsize = 1.9, bins = 8 8 8
  4 neighbor lists, perpetual/occasional/extra = 1 3 0
  (1) pair lj/cut, perpetual
      attributes: half, newton on
      pair build: half/bin/atomonly/newton
      stencil: half/bin/3d
      bin: standard
  (2) compute orientorder/atom, occasional
      attributes: full, newton on
      pair build: full/bin/atomonly
      stencil: full/bin/3d
      bin: standard
  (3) compute coord/atom, occasional
      attributes: full, newton on
      pair build: full/bin/atomonly
      stencil: full/bin/3d
      bin: standard
  (4) compute cluster/atom, occasional
      attributes: full, newton on
      pair build: full/bin/atomonly
      stencil: full/bin/3d
      bin: standard
Per MPI rank memory allocation (min/avg/max) = 9.848 | 9.853 | 9.857 Mbytes
Step Temp PotEng c_msd[4] v_twopoint v_fit v_max_n 
   12000    1.2524713   -5.9773355 1.8380459e-30 1.2764207e-32 8.3333333e+20            4 
   13000    1.2304588   -5.9763955   0.55264549 0.0035425991  0.045598619            2 
   14000    1.2402526   -6.0049704    1.0793905 0.0064249434  0.044582167            2 
   15000     1.273084   -5.9661882    1.5828616 0.0087936751  0.043502891            2 
   16000    1.2576742   -5.9897676    2.1629954  0.011265601  0.044131262            2 
   17000    1.2495622   -5.9980893    2.6770834  0.013122957  0.044461217            2 
   18000    1.2381076   -5.9282824    3.2107647  0.014864651  0.044754119            1 
   19000    1.2692366   -5.9676796    3.6887855  0.016178883  0.044381469            2 
   20000    1.2365655   -5.9784421    4.1308253  0.017211771  0.043663386            4 
   21000    1.2724453   -5.9950859    4.6956559  0.018633555  0.043212643            3 
   22000    1.2442864   -5.9596855    5.2733797  0.019974923  0.043191062            4 
   23000    1.2702624   -6.0148743    5.9292439  0.021482767  0.043604774            2 
   24000    1.2337874   -5.9601659    6.6572164  0.023115334  0.044430188            1 
   25000    1.2638963   -6.0212038    7.2032285  0.024010761   0.04528985            2 
   26000     1.249354   -5.9596725    7.7783444   0.02493059  0.045774688            2 
   27000     1.247345   -5.9842586    8.2641427  0.025506613  0.046081269            2 
   28000    1.2255689    -6.005768    8.8804294  0.026429849  0.046251041            2 
   29000    1.2265481   -5.9493232    9.5734169  0.027509818  0.046543938            1 
   30000    1.2692237   -5.9888968    10.115763  0.028099341  0.046797114            1 
   31000    1.2229331   -6.0205573    10.699997  0.028763431  0.047047299            5 
   32000    1.2482123   -5.9717339    11.294631  0.029413101  0.047238058            2 
   33000    1.2430154   -5.9856935    11.852732   0.02993114  0.047285143            4 
   34000    1.2352464   -5.9996156    12.363287  0.030302173   0.04734566            4 
   35000    1.2358757    -5.987164    12.881194  0.030669508  0.047346192            3 
   36000    1.2482177   -6.0072467    13.276738  0.030733189   0.04724087            3 
   37000    1.2350428   -6.0013446    13.820001  0.031126128  0.047128481            3 
   38000    1.2242411   -6.0133623    14.299597  0.031358764  0.047016167            3 
   39000    1.2430034   -5.9886328    14.870404  0.031774368  0.046888268            1 
   40000    1.2383959   -6.0213296    15.376091  0.032033522  0.046745659            2 
   41000    1.2469926   -5.9666498    16.166635  0.032859013  0.046706771            3 
   42000    1.2525821   -5.9955626    16.732306   0.03319902  0.046734897            1 
   43000    1.2468681   -6.0028213    17.158587  0.033253075  0.046695013            4 
   44000    1.2720647   -5.9904434    17.619029  0.033369372  0.046633371            2 
   45000    1.2473149   -6.0046788     18.06489    0.0334535  0.046540605            2 
   46000     1.224838   -6.0094413    18.578666  0.033657004   0.04642742            2 
   47000    1.2418571   -6.0170779    19.161697   0.03397464  0.046336055            2 
   48000    1.2633741   -5.9801728    19.918859  0.034581351  0.046275435            2 
   49000     1.237319   -5.9381582    20.377136  0.034654993  0.046238972            1 
   50000     1.223582   -5.9783837    20.733373  0.034555621  0.046166851            2 
   51000    1.2483124   -6.0091909    21.287667  0.034783769  0.046082482            4 
   52000     1.243895     -6.01767    21.840516  0.035000827  0.046025196            1 
   53000     1.222295   -6.0409206    22.422499  0.035255502  0.045992825            3 
   54000     1.243511   -6.0441868    22.945097    0.0354091  0.045948149            2 
   55000    1.2498632   -6.0101893    23.675307  0.035871677  0.045922457            1 
   56000    1.2457386   -6.0185216    24.152035  0.035940528  0.045918011            2 
   57000    1.2513587   -6.0198265    24.713774  0.036131249  0.045895205            3 
   58000    1.2572525    -5.950546    25.421621  0.036525317  0.045896649            4 
   59000    1.2433548   -5.9905461    25.923279  0.036614801  0.045907378            1 
   60000     1.254171   -6.0236838     26.44867  0.036734263  0.045911298            2 
   61000    1.2756388   -6.0328862    26.896381   0.03674369  0.045904549            3 
   62000    1.2498476   -6.0030783    27.529665  0.037002238  0.045889436            2 
   63000    1.2566569   -6.0050858    28.152367   0.03723858   0.04589075            3 
   64000    1.2546466   -6.0417573    28.799763  0.037499692  0.045911672            3 
   65000    1.2470444    -6.008112    29.251176  0.037501507  0.045942935            2 
   66000    1.2329464   -5.9906425    29.626066  0.037406648  0.045921858            2 
   67000    1.2285475   -5.9942927    30.278616   0.03765997  0.045884647            2 
   68000    1.2151868   -6.0131656    30.654748  0.037567093  0.045860074            2 
   69000    1.2180423   -6.0248464    31.197721  0.037678407  0.045836067            1 
   70000     1.273849   -6.0044537    31.739854  0.037785541   0.04581205            3 
   71000    1.2337944   -5.9388261    32.484758   0.03812765  0.045792114            3 
   72000    1.2314842   -6.0482862    32.818772  0.037984689  0.045790062            3 
   73000    1.2562075   -5.9927541    33.355783  0.038077378  0.045773866            1 
   74000    1.2533982   -6.0355042    33.821159  0.038086891  0.045744605            3 
   75000    1.2456474   -5.9861054    34.453682  0.038281868  0.045722787            5 
   76000    1.2242091   -5.9972035    34.709953  0.038059159  0.045676416            2 
   77000    1.2313094   -6.0664101    34.998289  0.037876936  0.045614273            5 
   78000    1.2481247   -6.0242164    35.859959  0.038311922  0.045567494            1 
   79000     1.220551   -6.0232719    36.287816  0.038278287  0.045530633            2 
   80000     1.227813   -6.0213929    36.769682  0.038301751  0.045491538            4 
   81000    1.2363298   -6.0008355    37.289786  0.038363977  0.045447922            4 
   82000    1.2389234   -6.0023804    37.790305  0.038404781  0.045403466            4 
   83000     1.237097   -6.0057341     38.09554  0.038248534  0.045351197            2 
   84000    1.2314221   -5.9980427    38.572878  0.038266744  0.045289062            2 
   85000    1.2251452   -5.9972328    39.177073  0.038408895  0.045223276            2 
   86000    1.2432234   -6.0260817    39.488576  0.038264124   0.04514975            2 
   87000    1.2728005   -5.9946287    40.236847   0.03854104   0.04508725            1 
   88000    1.2462228    -5.997968    40.550123  0.038399737  0.045016087            4 
   89000    1.2513213   -6.0273041     40.95074  0.038343389  0.044951223            2 
   90000    1.2465047   -6.0595789    41.354281  0.038291001  0.044878491            2 
   91000    1.2180567   -5.9861178    42.260827  0.038700391  0.044826498            4 
   92000    1.2456869   -6.0245818    42.712859  0.038689183  0.044773071            2 
   93000     1.232592   -6.0043456    43.165134  0.038678435  0.044726312            2 
   94000    1.2303804   -6.0305575    43.789523  0.038820499  0.044682903            2 
   95000      1.23732   -6.0232119    44.190539   0.03876363  0.044646591            2 
   96000     1.246097   -5.9902992    44.757209  0.038851744   0.04459926            6 
   97000    1.2507355    -6.002963    45.274548   0.03889566  0.044551221            6 
   98000    1.2513549   -6.0180758    45.709174  0.038868345  0.044509792            2 
   99000    1.2188947   -6.0175979    46.097881   0.03880293   0.04445993            3 
  100000    1.2577761    -6.023857    46.160272  0.038466893  0.044392973            5 
  101000    1.2427401   -5.9946597    46.811235  0.038623131  0.044330356            1 
  102000    1.2349567   -6.0167155     47.22376  0.038581503  0.044265491            5 
  103000    1.2273623   -6.0115125    47.696037  0.038589027  0.044199411            3 
  104000    1.2200275   -6.0003298    48.199634  0.038621502  0.044136271            2 
  105000    1.2503167   -5.9829923    48.598185  0.038569988  0.044068234            2 
  106000    1.2219103   -6.0329105    48.719996  0.038301883  0.043988285            1 
  107000    1.2106088    -6.059871    49.055428  0.038205162    0.0439037            2 
  108000      1.24214   -5.9917432     49.51697  0.038207538  0.043814814            4 
  109000    1.2398135   -5.9964356    50.283337  0.038442918  0.043734182            3 
  110000    1.2473598   -6.0146533    50.560431  0.038303357  0.043658219            2 
  111000    1.2517814   -6.0189436    51.018878  0.038302461  0.043582281            2 
  112000    1.2148832   -6.0366593    51.669641  0.038444673  0.043512998            2 
  113000    1.1996137   -6.0311342     52.12957  0.038443635   0.04344717            1 
  114000    1.2614134   -6.0342997    52.580199  0.038435818  0.043382835            2 
  115000    1.2227355   -6.0110441    53.160944  0.038522423  0.043324045            2 
  116000    1.2412223   -6.0430109    53.722689  0.038593886  0.043263626            1 
  117000    1.2431365   -6.0693859    53.899591  0.038390022  0.043199135            5 
  118000    1.2039002   -6.0398386    54.496572  0.038486279  0.043137415            4 
  119000     1.233375   -6.0159149    54.855077  0.038413919   0.04307437            2 
  120000    1.2107572   -6.0182037    55.363487  0.038446866  0.043015443            1 
  121000    1.2149429   -6.0512714    55.392719  0.038149256  0.042953145            2 
  122000    1.2519947   -6.0222779    55.760104  0.038087502  0.042883712            1 
  123000    1.2512921   -6.0622896    56.528886  0.038298703  0.042810013            3 
  124000    1.2225522   -6.0399916    56.878492  0.038224793  0.042745887            2 
  125000    1.2447349   -6.0231472    57.570052  0.038380034  0.042682413            2 
  126000    1.2061994   -6.0249488    57.615663  0.038105597  0.042617924            2 
  127000    1.2183191    -5.999847    58.230828  0.038209205   0.04254931            2 
  128000    1.2508117   -6.0297391    58.584823  0.038141161  0.042484557            2 
  129000    1.2384771   -6.0582101    59.126399  0.038195348  0.042422847            4 
  130000    1.1962227   -6.0349657    59.514753  0.038150483  0.042364041            2 
  131000    1.2380556   -6.0592932    59.940836  0.038130302  0.042301012            6 
  132000    1.2484024   -6.0458172    60.484624  0.038184737  0.042242163            5 
  133000    1.2150603   -6.0272755    60.929438  0.038176339   0.04218157            3 
  134000    1.2417878   -5.9951596     61.65378  0.038341903   0.04213083            2 
  135000    1.2320364   -5.9496019    62.452221  0.038550754  0.042086199            2 
  136000    1.2278673   -6.0608512    62.425105  0.038250677  0.042041001            2 
  137000    1.2043496   -6.0334559    62.987933  0.038313828  0.041993546            2 
  138000    1.2353726   -6.0475638    63.370539  0.038267234  0.041950735            5 
  139000    1.2501964    -6.025931    64.303878  0.038551486   0.04191291            2 
  140000    1.2293744    -5.965431    65.032447   0.03870979  0.041879691            2 
  141000    1.2142268   -6.0557301     65.26544  0.038572955  0.041848398            2 
  142000        1.212   -6.0086585     65.77434  0.038599965  0.041823075            1 
  143000    1.2264047   -6.0354231    66.328012  0.038652687  0.041799279            2 
  144000     1.218097   -6.0549873    66.769695   0.03863987  0.041771435            2 
  145000    1.2282891   -6.0454984    67.239919  0.038643632  0.041741038            3 
  146000    1.2434478   -6.0558129    67.794545  0.038695516  0.041713924            1 
  147000    1.2227158   -6.0508902    68.219512  0.038673192  0.041687792            2 
  148000     1.205814   -6.0263694    68.585303  0.038617851  0.041658968            2 
  149000     1.239041   -6.0495298    69.194414  0.038699337  0.041632096            2 
  150000    1.2610554   -6.0155828    69.617862   0.03867659  0.041608495            5 
  151000    1.2409206   -5.9970298    70.413412  0.038859499  0.041590055            4 
  152000    1.2185214   -6.0242293    70.640019   0.03872808  0.041570149            2 
  153000    1.2124831   -6.0617158    71.081339  0.038715326  0.041549034            3 
  154000    1.2376153     -6.03319     71.56862  0.038727608  0.041525783            2 
  155000    1.2516974   -6.0594808    72.148134  0.038789319  0.041503422            4 
  156000    1.2294622   -6.0759821     72.54661  0.038753531  0.041482498            2 
  157000    1.2173271   -6.0772798    72.951485  0.038721595  0.041461629            2 
  158000     1.229892   -6.0456922    73.483945  0.038757355  0.041434871            2 
  159000    1.2405537   -6.0594034    73.837372  0.038698832  0.041409911            1 
  160000    1.1885554   -6.0556671    74.211833  0.038651996  0.041387538            3 
  161000    1.2392719   -6.0626369     74.98962  0.038814503  0.041368922            4 
  162000    1.2377897   -6.0538435    75.329399  0.038749691  0.041354233            2 
  163000    1.2272068   -6.1008373    75.401723  0.038548938  0.041335611            2 
  164000    1.1921127   -6.0571667    76.375301  0.038808588  0.041316926            2 
  165000    1.2117729   -6.0332873    77.006796  0.038892321  0.041302701            2 
  166000     1.237886   -6.0106389    77.635173  0.038973481  0.041287867            3 
  167000    1.2422769   -6.0389054    77.993223  0.038918774   0.04127589            2 
  168000    1.2273212   -6.0380638    78.454302  0.038915824  0.041257919            2 
  169000    1.2544627   -6.1008573    78.533591   0.03872465  0.041240927            1 
  170000    1.2352431   -6.0624821    78.950599  0.038701274  0.041218783            4 
  171000    1.2330853   -6.0920096    79.198904  0.038595957  0.041195215            4 
  172000    1.2149174   -6.0992867    79.994515  0.038757032  0.041176701            3 
  173000    1.2161316   -6.0517888      80.8382  0.038939403  0.041157496            7 
  174000    1.2447492   -5.9798816    81.628293   0.03909401   0.04114611            2 
  175000    1.2097938   -6.0809454    81.600096  0.038857188  0.041136801            4 
  176000    1.2220673   -6.0327857    82.121042  0.038883069  0.041121524            1 
  177000    1.2483064   -6.0277648    82.779059  0.038973191  0.041106686            3 
  178000    1.2154389   -6.1194707    82.846396  0.038785766  0.041091989            4 
  179000    1.2314957   -6.0214539    83.616877  0.038927783  0.041075277            1 
  180000    1.2215513   -6.0408811    83.944973  0.038863413  0.041058962            3 
  181000    1.2438959   -6.0593152    84.391292  0.038854186  0.041047248            2 
  182000     1.217615   -6.0545857    85.099384  0.038964919  0.041035769            2 
  183000    1.1637646   -6.0540595    85.641652  0.038998931  0.041022137            2 
  184000    1.2085234   -6.0258785    85.953742  0.038928325  0.041009027            4 
  185000    1.2329133   -6.0825999    86.058941  0.038765289  0.040995277            3 
  186000    1.2582393   -6.0794886    86.625946  0.038810907  0.040978635            3 
  187000    1.2400258   -6.0242682    87.152128  0.038837847  0.040959614            3 
  188000    1.2033308   -6.0263003    87.440693  0.038759172  0.040939028            2 
  189000    1.2091161   -6.0579121    87.695825  0.038666589  0.040920382            3 
  190000    1.2305414   -6.0663211    88.130489  0.038653723  0.040899039            2 
  191000    1.1751174   -6.0062782    88.841212  0.038761436  0.040879911            2 
  192000     1.228852   -6.0471446    89.491756  0.038841908  0.040864065            5 
  193000    1.2365934   -6.0353277    90.033394  0.038874522  0.040848937            2 
  194000    1.2098331   -6.0596378    90.448679  0.038852525  0.040837628            4 
  195000    1.2514155   -6.0347031    91.233725  0.038988771  0.040825476            3 
  196000    1.2296011   -6.0387853    91.476096  0.038892898  0.040815589            2 
  197000    1.2099482   -6.1340982     91.82387  0.038842584   0.04080424            4 
  198000    1.2423352   -6.0715313    92.727502  0.039026727  0.040794302            3 
  199000    1.2003736   -6.0487977    93.265988  0.039056109  0.040786742            3 
  200000    1.2240533   -6.1028267    93.795506  0.039081461  0.040782371            2 
  201000    1.2071671   -5.9901239    95.024031  0.039396364   0.04078156            2 
  202000    1.2120712   -6.0370142    95.252735  0.039295683  0.040783764            3 
  203000    1.2445563   -6.0764304     95.71514  0.039291929  0.040783448            3 
  204000    1.1923478   -6.0739209    96.068365  0.039243613  0.040782346            3 
  205000    1.1921528   -6.0469077     96.25158  0.039126659  0.040781036            2 
  206000    1.2191029   -6.0698634    96.959845  0.039223238   0.04078168            6 
  207000    1.2128648   -6.0311041    96.973717  0.039039338  0.040776476            3 
  208000    1.2025848    -6.075079    97.256645  0.038965002  0.040768233            5 
  209000    1.2198357   -6.0173408    98.267683  0.039181692   0.04076223            2 
  210000    1.2161925   -6.0648568    99.127644  0.039336366  0.040760186            4 
  211000    1.2320536   -6.0760825    99.609249  0.039340146  0.040762124            4 
  212000    1.2055918   -6.0600038    100.22426  0.039396328  0.040760992            3 
  213000    1.2200781   -6.0472446    100.69366  0.039395017   0.04076117            2 
  214000    1.2362168   -6.0939907    100.95961  0.039314489  0.040763573            2 
  215000    1.2362834   -6.0333431    101.77737  0.039448591  0.040765065            3 
  216000    1.2034111   -6.0590376    102.45506  0.039527415  0.040766724            1 
  217000    1.2129907   -6.0562061     102.8878  0.039511445  0.040769845            3 
  218000    1.2420194   -6.1004957    102.84946  0.039315541  0.040771252            3 
  219000    1.2131085    -6.114777    102.97898  0.039185306  0.040770765            2 
  220000    1.1967062   -6.1091139    103.45516  0.039187559  0.040766228            1 
  221000    1.2256703   -6.0719877     103.9287    0.0391888  0.040761763            3 
  222000    1.2239796   -6.0572245    104.84752  0.039357177  0.040759024            4 
  223000    1.2307124    -6.030989     105.5817  0.039455045  0.040758858            2 
  224000    1.2226062   -6.0575691    105.91604  0.039403289  0.040759293            2 
  225000    1.2150338   -6.1050387    106.12673  0.039306197  0.040760887            1 
  226000    1.2314152   -6.0287688    107.39747  0.039600836   0.04076199            1 
  227000    1.2427627   -6.0793446    106.92486  0.039252885  0.040761282            2 
  228000     1.212862   -6.0761352    107.55538  0.039311176  0.040760054            6 
  229000    1.2177027   -6.0185811    108.76201  0.039578608   0.04076151            3 
  230000    1.2146687   -6.0799724    108.65496  0.039367739  0.040761339            3 
  231000    1.2320364   -6.0204898    109.50809  0.039505083  0.040760217            3 
  232000    1.2207325   -6.0699545    109.78278  0.039433468  0.040759158            3 
  233000    1.2265374   -6.0353746      110.408   0.03948784  0.040753828            1 
  234000    1.2055516   -6.0452486    110.60098  0.039387813  0.040753561            3 
  235000    1.2180635   -6.0879653    111.73321  0.039621706  0.040754695            4 
  236000    1.2248879   -6.0605385    112.18276  0.039612556  0.040756439            1 
  237000    1.2028431   -6.0110003    112.96249  0.039719583  0.040759824            3 
  238000    1.2096898   -6.0934122    113.07877  0.039593406  0.040762289            3 
  239000    1.2191096    -6.065961    113.28738   0.03950048  0.040764134            6 
  240000    1.1989432   -6.0810769    114.01083  0.039587092  0.040764903            2 
  241000    1.2504672    -6.100591    113.69325  0.039313017  0.040763271            2 
  242000    1.1909044   -6.0325637    114.65498  0.039481744  0.040761186            2 
  243000    1.2027183   -6.0839805    114.99171  0.039434744  0.040759522            2 
  244000    1.2043599   -6.1054725    114.99051  0.039272716  0.040755121            1 
  245000    1.2229391   -6.0707407    115.58206  0.039313626  0.040750596            1 
  246000    1.1885464   -6.0449739    116.18423  0.039357802   0.04074737            2 
  247000     1.199915   -6.0803271    116.31495  0.039242561  0.040741972            2 
  248000    1.2220777   -6.0958141    116.38627  0.039108289  0.040733967            3 
  249000    1.2176592   -6.0900166    117.06549  0.039178545  0.040725139            3 
  250000    1.1905194   -6.0669908    117.87203  0.039290676  0.040716678            2 
  251000    1.2132242   -6.0800142    117.80798  0.039112875  0.040708566            2 
  252000    1.2035274   -6.0602301    118.28105  0.039114104  0.040699984            3 
  253000    1.1848291   -6.0308936    119.15128  0.039246141  0.040691622            2 
  254000     1.210159   -6.0756295    119.55792  0.039225038  0.040683778            5 
  255000    1.2105803   -6.0560716    119.96479   0.03920418  0.040675653            2 
  256000    1.2003083   -6.1009791    120.37257  0.039183779  0.040666016            1 
  257000    1.1871514    -6.108546    120.35271  0.039024873  0.040657892            3 
  258000    1.2129432   -6.1050906    121.70429  0.039310171  0.040651338            2 
  259000    1.1984516   -6.0686821    122.57505   0.03943856  0.040647685            2 
  260000    1.2326361   -6.0850213    123.51028  0.039586629  0.040646828            3 
  261000    1.2194128   -6.0606025    123.83483   0.03953858  0.040648006            2 
  262000    1.2302333   -6.0520096    125.08571  0.039785531   0.04065192            2 
  263000    1.2048583   -6.0639649    125.08707  0.039634688  0.040657756            3 
  264000     1.182995   -6.0320116    125.93046  0.039750776  0.040662553            3 
  265000     1.212167   -6.0735023    126.07935  0.039647596  0.040667326            2 
  266000    1.1619164   -6.0871564     126.7103   0.03969621  0.040668562            1 
  267000    1.2181553   -6.0878401    127.33985  0.039744023  0.040671468            3 
  268000    1.2087708    -6.068631    127.62302  0.039683775  0.040673232            5 
  269000    1.2054557   -6.1119322    127.15352  0.039390805  0.040673997            3 
  270000    1.2215756   -6.0998664    127.83393  0.039454917  0.040672522            4 
  271000    1.1928092   -6.0823942    129.13622  0.039709785  0.040673169            2 
  272000    1.2084669   -6.0658069    129.28455  0.039609237  0.040673749            3 
  273000    1.2246519   -6.0472052    129.69595  0.039589729  0.040674139            2 
  274000    1.2417205   -6.0970016    130.00651  0.039539693  0.040673653            5 
  275000    1.2342608   -6.0618291    130.69899  0.039605754  0.040673089            5 
  276000     1.222102   -6.0906917    131.13773  0.039594725  0.040673745            2 
  277000    1.1995697   -6.1091605     130.9037  0.039381379   0.04067161            2 
  278000    1.2157756   -6.0907002    132.00267  0.039569145  0.040670104            3 
  279000    1.2023866   -6.0555658    132.50794  0.039578237  0.040668298            2 
  280000    1.2010732   -6.0982693    132.83183  0.039533283  0.040665521            2 
  281000     1.169864   -6.0583475    133.26562  0.039521239  0.040662919            7 
  282000    1.1846646   -6.1042283    133.74336  0.039522269  0.040661083            4 
  283000    1.2143344   -6.1111681    134.31813  0.039551865  0.040660091            2 
  284000    1.2211816   -6.0839112    135.09847   0.03964157  0.040657874            1 
  285000    1.2223953   -6.1294588    134.54773   0.03934144  0.040654213            2 
  286000    1.2079459   -6.0479247    135.76364  0.039558171  0.040650241            4 
  287000     1.196198    -6.076578    136.22618  0.039554639  0.040647396            2 
  288000    1.2085314   -6.0975271    136.00182  0.039352379  0.040643377            2 
  289000    1.1811668   -6.0969864     136.4604  0.039348442  0.040638022            2 
  290000    1.2119157   -6.0453701    137.46331  0.039500952  0.040635436            3 
  291000    1.1772579   -6.1293588     137.3728  0.039339289  0.040631421            2 
  292000    1.2062059   -6.0628667    138.91387  0.039644369  0.040628058            2 
  293000    1.1773946   -6.0886027    139.15762   0.03957839  0.040627157            3 
  294000    1.2369542   -6.1339281     138.9414  0.039382482  0.040625697            2 
  295000    1.1826199   -6.0776895    140.01758  0.039552988  0.040621791            4 
  296000     1.206569    -6.058252    140.41388  0.039530935  0.040616894            1 
  297000     1.182997   -6.0846645    139.74426   0.03920995  0.040609268            1 
  298000    1.1946271   -6.0544323    140.54512  0.039302325  0.040601065            2 
  299000     1.229953   -6.1009696    140.93677  0.039280036  0.040593067            3 
  300000    1.2053038   -6.1048757    141.11207  0.039197798  0.040583407            1 
  301000    1.2158905     -6.06958    141.84631  0.039270849  0.040574472            3 
  302000     1.188242   -6.0911938    141.86724  0.039146589  0.040565587            3 
  303000    1.2000262   -6.1065199    142.17889  0.039103104  0.040556916            2 
  304000    1.2018316   -6.0759561    143.25858  0.039270445  0.040548714            3 
  305000    1.1819296   -6.1007145    143.22025  0.039131216  0.040539321            3 
  306000    1.1785682    -6.111279    143.55362  0.039094124  0.040529677            2 
  307000    1.2086993   -6.0851187    144.26885  0.039160926  0.040519684            1 
  308000    1.2103491    -6.079078    144.61418  0.039127214  0.040510761            4 
  309000      1.21393   -6.0650674    145.28229  0.039180767  0.040501985            3 
  310000    1.1944085   -6.0963252    144.80679  0.038926556  0.040490998            3 
  311000    1.1906375    -6.084629    145.41387  0.038964059  0.040480019            3 
  312000    1.2156284   -6.0910912    146.19833  0.039048699  0.040468343            2 
  313000    1.2168218   -6.0784381     146.9119  0.039113925  0.040455839            4 
  314000    1.2287706   -6.0707163    146.99294  0.039010864  0.040443999            3 
  315000    1.1937738   -6.1706576    146.79005  0.038833346  0.040431142            2 
  316000    1.2080573   -6.0872138    147.48455  0.038893604  0.040417063            3 
  317000    1.1762815   -6.1215867    147.80885  0.038856166  0.040403025            4 
  318000    1.2146998   -6.1228175    147.94609  0.038769939  0.040388723            4 
  319000     1.217501   -6.0741059    149.04038   0.03893427   0.04037548            3 
  320000    1.1855188   -6.0897529    149.68874  0.038981443  0.040362955            2 
  321000    1.1966548   -6.1325723    149.43726  0.038794719  0.040348399            4 
  322000    1.1613415   -6.0928336    150.09931  0.038845578  0.040334405            8 
  323000    1.2162133   -6.0987909    150.45174  0.038816239  0.040320163            2 
  324000    1.2258349   -6.1277238    150.52907  0.038716325  0.040304143            5 
  325000    1.2060138   -6.1014261    151.58268  0.038867353   0.04029018            2 
  326000    1.2177471   -6.1051659     152.2497  0.038918636  0.040275695            3 
  327000    1.2037567   -6.1180552     151.7063  0.038661138  0.040260957            2 
  328000    1.1918333   -6.0901929     152.8313   0.03882909  0.040246796            3 
  329000    1.2008554   -6.1032796    153.46343  0.038871182  0.040232688            3 
  330000    1.1802309   -6.0822332    154.23922  0.038949298  0.040220228            2 
  331000    1.1731618   -6.0891829    154.24392  0.038832809    0.0402068            2 
  332000    1.1935288   -6.1367579    154.60986  0.038807696  0.040193317            3 
  333000    1.1755667   -6.1317286     154.9249  0.038769995  0.040180333            3 
  334000     1.218104    -6.081927    155.81835  0.038876834  0.040168125            2 
  335000    1.2051029   -6.0921118    155.79975  0.038756156  0.040155506            2 
  336000    1.1896178   -6.1552601    155.54214  0.038576921   0.04014221            5 
  337000    1.2180037   -6.0814485    157.63088  0.038978952  0.040131811            4 
  338000    1.1999777   -6.1323193    156.45036  0.038572573  0.040120775            3 
  339000     1.188266   -6.0829615    158.41252  0.038941132  0.040109193            3 
  340000    1.2008077   -6.1302491    158.41188  0.038826441  0.040098642            2 
  341000    1.1809612   -6.1074948    158.51787  0.038738482  0.040087238            2 
  342000    1.2171372   -6.1338731    159.68399  0.038909354  0.040078717            3 
  343000    1.1869835   -6.1151504    159.60711  0.038777237   0.04006863            2 
  344000    1.1971704   -6.0930677    160.57858   0.03889985  0.040059071            4 
  345000    1.1833023   -6.0974341    161.29614  0.038960419  0.040049886            3 
  346000    1.1677651   -6.1016559    161.15125  0.038812923  0.040039999            2 
  347000      1.18272   -6.1208187    161.64257  0.038819062  0.040029128            3 
  348000    1.1938209    -6.125575    161.98374  0.038789209  0.040017115            2 
  349000    1.1925041    -6.112201    161.97911  0.038676961  0.040004777            3 
  350000     1.198148   -6.0972653    163.07218   0.03882671  0.039992563            2 
  351000    1.1752579   -6.1124912    162.61258  0.038606976  0.039979348            3 
  352000    1.1906239   -6.1214991    163.18015  0.038631665  0.039966135            3 
  353000     1.189367   -6.0887586    163.75668   0.03865833   0.03995317            1 
  354000    1.1889897   -6.0306862    165.12452  0.038871121   0.03994172            3 
  355000    1.1832948   -6.1265981    165.14947  0.038767482  0.039931458            2 
  356000    1.1941925    -6.125699    165.11258  0.038649948  0.039918013            1 
  357000    1.1972779    -6.066932    166.26135  0.038809838  0.039904686            1 
  358000    1.1892763   -6.0939902    166.30312  0.038711154  0.039892695            3 
  359000    1.1988929   -6.0923199    166.63414  0.038680162  0.039879898            2 
  360000    1.1913613   -6.1155256    166.37101  0.038511807   0.03986763            2 
  361000    1.2137512   -6.1185289    167.86643   0.03875033   0.03985649            2 
  362000    1.1826012   -6.1097408    168.03782   0.03868274  0.039845699            5 
  363000    1.1940982   -6.1033766    169.09434  0.038818718  0.039835878            3 
  364000    1.2089539   -6.0472467    170.47798  0.039028842  0.039827283            2 
  365000    1.1945503   -6.0942736    170.32454  0.038886881  0.039819712            1 
  366000      1.20514   -6.1255569    170.78305  0.038885029  0.039811886            2 
  367000    1.2029794   -6.1095478    171.07962  0.038846417  0.039803995            2 
  368000    1.2203107   -6.1273055    171.49523   0.03883497  0.039795929            3 
  369000    1.1966289    -6.130137    171.63547  0.038761397  0.039787595            7 
  370000    1.1721027    -6.118943    172.04876  0.038749721  0.039778265            1 
  371000    1.1995524   -6.1123261    172.20653  0.038680712  0.039769346            1 
  372000    1.1850631   -6.1413916    171.81767  0.038489621  0.039758985            5 
  373000    1.1811759   -6.0831001    173.44932  0.038750966  0.039749395            1 
  374000    1.1953983   -6.0939314    173.94477  0.038757748  0.039740508            2 
  375000    1.1849628    -6.114296    174.61409  0.038803131  0.039730883            3 
  376000     1.165853   -6.1558822    174.57666  0.038691637  0.039720886            2 
  377000    1.1967535    -6.110996    175.25554  0.038739068  0.039711618            4 
  378000    1.2116116   -6.0933494    175.75306  0.038746266   0.03970276            3 
  379000     1.190653   -6.1669929    175.55279  0.038599997  0.039692876            8 
  380000    1.2039775   -6.1538349    176.21381   0.03864338  0.039682996            2 
  381000    1.1954925   -6.1452726    176.39316   0.03858118  0.039673173            2 
  382000    1.1909549   -6.1050766    178.20961  0.038876441  0.039664932            3 
  383000    1.1915997   -6.1568314    177.20181   0.03855566  0.039656874            2 
  384000    1.1931813   -6.1620409     177.5283  0.038526107  0.039648845            2 
  385000    1.1879298   -6.1220835    178.78497  0.038698046  0.039639874            3 
  386000    1.1849524   -6.0965784    179.29459  0.038707814   0.03963094            2 
  387000    1.2008433   -6.0955918     179.1206  0.038570327  0.039622081            3 
  388000     1.181343   -6.1524973    179.65807  0.038586356  0.039613746            3 
  389000    1.1754134   -6.1644217     180.2251  0.038608633  0.039605905            3 
  390000    1.1720443   -6.1168042    181.43488  0.038768137   0.03959844            2 
  391000    1.1866939   -6.1456546    181.95401  0.038779627  0.039591419            3 
  392000    1.1976873   -6.0997608    182.56701  0.038811014  0.039584233            2 
  393000    1.1892663   -6.1316508    182.42942  0.038683082  0.039578032            3 
  394000     1.179544    -6.128031    183.23242  0.038754741  0.039571674            1 
  395000    1.2061003   -6.0984597    183.80178  0.038776748  0.039564374            1 
  396000    1.1794492    -6.077051     184.4279  0.038810585     0.039556            2 
  397000    1.2131945    -6.152632    183.59058  0.038537065  0.039548557            2 
  398000    1.1875507   -6.0910398    185.01275  0.038738012  0.039540841            3 
  399000    1.1902175   -6.1274965    184.18141  0.038467295  0.039532142            2 
  400000    1.1945707   -6.0897951    185.54586  0.038655388  0.039523295            3 
  401000    1.1807257   -6.1099104    185.42451  0.038533772  0.039515328            3 
  402000    1.1831419   -6.1526709    185.80342  0.038516464  0.039506027            3 
  403000    1.1917276   -6.1317877    187.06036  0.038680803  0.039497043            2 
  404000    1.1725249   -6.1295055     186.8882  0.038549546   0.03948841            2 
  405000    1.1749517    -6.149273    187.68228  0.038617753  0.039479951            2 
  406000    1.1756675   -6.1277662     188.5266  0.038695936   0.03947222            2 
  407000    1.1986013   -6.1422428    188.45997  0.038587218  0.039465046            3 
  408000    1.1753313   -6.0938876    189.55331  0.038715953  0.039457856            3 
  409000    1.1718667    -6.107169    189.81839  0.038675303  0.039451422            3 
  410000    1.1849733    -6.128055    190.15162  0.038648703  0.039444221            2 
  411000    1.1743223   -6.1484434    190.81507  0.038689187  0.039437743            4 
  412000    1.1717302   -6.1431262    191.47259  0.038728274  0.039431889            4 
  413000     1.187143   -6.1272409    191.36184  0.038612155  0.039426164            3 
  414000    1.1814246   -6.1266176    191.39564  0.038525693  0.039419804            3 
  415000    1.1796454   -6.1525302    192.56529  0.038667728  0.039412409            3 
  416000    1.1678604   -6.0834285    192.35016  0.038531683  0.039404166            2 
  417000    1.1710352   -6.1603281    192.77314  0.038523808   0.03939562            3 
  418000     1.184734   -6.1271456    193.46961  0.038570495   0.03938704            5 
  419000    1.1944967   -6.1406924    192.95251  0.038375598  0.039377813            6 
  420000    1.2000175   -6.1376958    194.41465  0.038574335  0.039369202            3 
  421000    1.1709136   -6.1063528    194.62233  0.038523818  0.039361059            2 
  422000    1.1827178    -6.128198    194.84838  0.038477169  0.039353401            2 
  423000    1.1716564   -6.1732233    195.25251  0.038465822   0.03934545            3 
  424000    1.2045061   -6.1381014    195.84819  0.038492177  0.039337676            4 
  425000    1.2026311   -6.0903985    197.02443  0.038632241  0.039330926            5 
  426000      1.19825   -6.1642524     196.7422  0.038486347  0.039323343            3 
  427000    1.2060336   -6.1815969    197.52793  0.038549557  0.039315421            2 
  428000    1.1797748   -6.1612745    197.97413  0.038546366  0.039307909            2 
  429000    1.1946502   -6.1316238    198.11032  0.038482969  0.039300804            3 
  430000     1.208601   -6.1599548    198.69578  0.038506934  0.039294233            5 
  431000    1.1942209   -6.1817073     199.3403  0.038542207  0.039286748            4 
  432000    1.1712244   -6.0972136    200.36745  0.038651128  0.039281245            2 
  433000    1.1672909    -6.141517     200.9263  0.038669418  0.039274934            2 
  434000    1.2067185   -6.1927399    199.73333  0.038351253  0.039268282            5 
  435000     1.170372   -6.1713081    200.22562  0.038357398  0.039261036            8 
  436000    1.1773947    -6.130867    202.66296  0.038735275  0.039254527            3 
  437000    1.2091041   -6.1478079    201.84958  0.038491529  0.039248285            2 
  438000    1.1698972   -6.1463705    202.65672  0.038557214  0.039242751            3 
  439000    1.1741248   -6.1279005    203.55241  0.038639409   0.03923655            2 
  440000    1.1931998    -6.172027     203.4263  0.038527708  0.039230117            4 
  441000    1.1819268   -6.1163147    204.04142  0.038556579    0.0392247            2 
  442000    1.1757606   -6.1582847    204.09528  0.038479503  0.039220058            3 
  443000    1.1980226   -6.1522343    205.25717  0.038611206   0.03921519            2 
  444000     1.195398   -6.1254272    205.73487  0.038613902   0.03920947            3 
  445000     1.167008   -6.1539639    205.55682  0.038493786  0.039203908            3 
  446000    1.1679612   -6.1365104     205.5314  0.038402727  0.039197475            3 
  447000    1.1950936   -6.1639563    205.97283  0.038399111  0.039190825            6 
  448000    1.1736153   -6.1349759     206.7203  0.038452437  0.039183895            3 
  449000    1.2018711    -6.163332    206.66743  0.038356983   0.03917694            3 
  450000    1.1912354   -6.1227569    207.52737  0.038430995  0.039169786            3 
  451000    1.1755866    -6.100487    208.59862  0.038543721  0.039162663            2 
  452000    1.1908032    -6.141539    208.47352  0.038435383  0.039156527            6 
  453000    1.1934867   -6.1704371    208.84171  0.038418268  0.039150612            3 
  454000    1.1821919   -6.1541291    209.28427   0.03841488  0.039144725            5 
  455000    1.1752631   -6.1915442    209.77674  0.038420649  0.039138706            3 
  456000    1.1877118   -6.1417279    209.66947   0.03831679  0.039132499            2 
  457000    1.2162524    -6.122018    211.82567  0.038626126  0.039126705            9 
  458000    1.1618468   -6.0964426    212.22819  0.038615027  0.039121948            3 
  459000    1.1669378    -6.159503    211.64777  0.038425521  0.039116747            3 
  460000    1.1585422   -6.1658651    212.62781  0.038519531  0.039110299            2 
  461000    1.1694524   -6.2257569    211.69984  0.038268228  0.039104221            2 
  462000    1.1788255   -6.1206743    213.24438  0.038463994  0.039098703            3 
  463000    1.1767437   -6.1617684    213.39824  0.038408611  0.039093055            3 
  464000    1.1743201   -6.1299823     213.8611  0.038408962  0.039086875            3 
  465000    1.1629427   -6.1338038    214.81765  0.038497787   0.03908089            3 
  466000    1.1899447   -6.1643816    214.69157  0.038392627  0.039075238            2 
  467000    1.1818998   -6.1453597     216.3053  0.038598377  0.039070864            3 
  468000    1.1805045   -6.1735192    216.49236  0.038549209  0.039067695            2 
  469000    1.2118786   -6.1683679    216.63346  0.038492087  0.039064467            2 
  470000    1.1777126   -6.1678094     217.2649  0.038522145  0.039059842            3 
  471000    1.1743051   -6.1217977    218.68318  0.038691292  0.039055352            2 
  472000    1.1922108   -6.1546359    218.62359  0.038598798  0.039051483            1 
  473000    1.1537542    -6.148412    219.41991  0.038657489  0.039046815            5 
  474000    1.1860853   -6.1275441    219.35755   0.03856497  0.039043348            4 
  475000    1.1693775   -6.1560533    219.10296  0.038439116  0.039038426            4 
  476000    1.1740193   -6.1406585     220.6283  0.038625402  0.039033904            5 
  477000    1.1675371   -6.2058402    220.17727  0.038465631  0.039028514            4 
  478000    1.1642798   -6.1762265    220.91117  0.038513104  0.039024257            1 
  479000    1.1504037    -6.150356    222.58749  0.038724337  0.039020453            4 
  480000    1.1554273   -6.1604608    222.06687  0.038553277  0.039016448            2 
  481000    1.1492048   -6.1098532    223.20551  0.038670393   0.03901225            5 
  482000    1.1648137   -6.1146199    223.83452  0.038698914  0.039008485            3 
  483000    1.1494921   -6.1584033    224.05584  0.038656976   0.03900598            3 
  484000    1.1702721   -6.1810608    224.36989  0.038631179  0.039003617            2 
  485000    1.1487408    -6.140606    225.10203  0.038677325  0.039001675            1 
  486000    1.1832217   -6.2128715     226.1181  0.038771965  0.038999551            3 
  487000    1.1795796   -6.1548266     226.5773  0.038770927  0.038997795            2 
  488000    1.1554981   -6.1361773     227.3405  0.038821807  0.038996601            3 
  489000    1.2024231   -6.1495869    227.09937  0.038701325  0.038995303            5 
  490000    1.1599275   -6.2118219    226.16299  0.038463094  0.038993324            2 
  491000    1.1604484   -6.1681434    227.57889  0.038625067   0.03898984            4 
  492000    1.1690705   -6.1862922    227.21931  0.038485656  0.038986909            1 
  493000    1.1776371   -6.1707874    227.33048  0.038426383  0.038983493            4 
  494000    1.1825176   -6.1797413    228.21851  0.038498399  0.038979275            4 
  495000    1.1857645    -6.195009    227.65111  0.038325102  0.038974702            2 
  496000    1.1690755    -6.153558    229.80707  0.038610059  0.038970283            3 
  497000    1.1893931   -6.1519995     229.2841  0.038444685  0.038966385            2 
  498000    1.1716045     -6.17809    230.34869   0.03854563  0.038962277            4 
  499000    1.1896873   -6.2073958    230.62764   0.03851497  0.038958803            4 
  500000    1.1609434   -6.1703824     230.8541  0.038475684  0.038954492            3 
  501000    1.1791076   -6.1722956    231.64783   0.03853091  0.038950376            8 
  502000    1.1546181     -6.17225     232.6926   0.03862759  0.038946603            4 
  503000    1.1917384   -6.2061782    231.62046  0.038373172   0.03894295            6 
  504000    1.1551722   -6.1877088    232.07008  0.038371376  0.038938742            2 
  505000    1.1737783   -6.1586795    232.37162  0.038345153   0.03893415            2 
  506000    1.1637586   -6.1791505    232.94563  0.038363906  0.038930138            2 
  507000     1.172298   -6.1942587     233.8663  0.038439563  0.038925681            2 
  508000     1.155183    -6.151239    234.77371  0.038512748  0.038922014            4 
  509000    1.1494908   -6.1612291    235.54123  0.038562742  0.038918277           11 
  510000    1.1647982   -6.1881053     235.8141  0.038531716  0.038914835            2 
  511000    1.1915143   -6.1998516    235.78186  0.038451054  0.038911914            2 
  512000    1.1410908    -6.167308    236.08747  0.038425694  0.038907966            3 
  513000    1.1646624   -6.1841526    236.93838  0.038489015  0.038903767            2 
  514000    1.1602157   -6.1567873    238.04133  0.038592952  0.038899809            3 
  515000    1.1832071   -6.2135764    236.05934  0.038197304  0.038895082            4 
  516000    1.1656648   -6.1952946    237.32482  0.038327651  0.038889492            3 
  517000    1.1695076   -6.1916157    237.52372  0.038285578  0.038884566            1 
  518000    1.1755464   -6.1714537    239.09115  0.038463828  0.038879746            9 
  519000    1.2030781   -6.1571238    238.54378  0.038301827  0.038874928            2 
  520000    1.1530481   -6.2112491    238.15706  0.038166196   0.03886917            3 
  521000    1.1835601    -6.175168    239.07482  0.038239735  0.038864155            2 
  522000     1.167284   -6.1737596    239.84186   0.03828893  0.038858701            3 
  523000    1.1493249   -6.1752056    240.99964  0.038400197  0.038854245            4 
  524000    1.1507659   -6.1856631     241.1769  0.038355104  0.038850053            2 
  525000    1.1735892   -6.1717697    241.54895  0.038341103   0.03884567            3 
  526000    1.1738328   -6.2085185    242.50541  0.038419741  0.038840993            6 
  527000    1.1575436   -6.1841697    242.88929  0.038407542  0.038837084            1 
  528000    1.1574109    -6.225724    242.27823  0.038238358  0.038832476            1 
  529000    1.1592456   -6.1825663    243.14037  0.038301885  0.038828016            7 
  530000    1.1522453   -6.2115313    243.60205  0.038302208  0.038823286            2 
  531000    1.1919335   -6.1905881    243.75917  0.038254734  0.038818878            2 
  532000    1.1859652   -6.1724052    244.85699  0.038354792  0.038813898            4 
  533000    1.1855229   -6.1630596    245.04523  0.038312263  0.038809499            2 
  534000    1.1478714   -6.1655312    245.78939  0.038356646  0.038804465            3 
  535000    1.1554544     -6.19333    245.19625  0.038192563  0.038799334            4 
  536000    1.1534361   -6.1515905    246.65161  0.038347577   0.03879423            1 
  537000    1.1536325   -6.1807859    247.28322  0.038374181  0.038789421            5 
  538000    1.1722813   -6.2511174    246.27686  0.038146973  0.038783686            3 
  539000    1.1489913   -6.1674036    247.67914  0.038293003  0.038778253            3 
  540000    1.1634155   -6.1973543    247.33942  0.038169663  0.038772769            4 
  541000    1.1624397    -6.219301    247.04654  0.038053995  0.038766794            3 
  542000    1.1609007   -6.2011358    248.65585  0.038231219  0.038760706            2 
  543000    1.1621422   -6.1884237    248.82567  0.038186874  0.038754817            5 
  544000     1.145041   -6.1965084    249.65852  0.038244258  0.038749856            8 
  545000    1.1722558   -6.2191583     249.8143  0.038197904  0.038744199            1 
  546000    1.1832092   -6.2089543    249.66109  0.038104562  0.038738906            3 
  547000    1.1469844   -6.2084187    249.85051  0.038063758  0.038732779            2 
  548000    1.1771805    -6.180397     250.8922  0.038152706  0.038727189            4 
  549000     1.172437   -6.1960816    250.45403  0.038016702  0.038721517            2 
  550000    1.1539186   -6.1949051    251.86824  0.038161854  0.038715796            3 
  551000      1.17062   -6.1589918    252.91957  0.038251598  0.038710772            3 
  552000    1.1723043    -6.172848    253.04588  0.038201371  0.038705786            2 
  553000    1.1362358   -6.1785327    253.60664  0.038216793  0.038700275            4 
  554000    1.1850472   -6.1657828    254.91216  0.038344188   0.03869504            2 
  555000     1.180247   -6.1726143    254.60951  0.038229656  0.038690397            5 
  556000    1.1538942   -6.1706369     255.2703  0.038259937  0.038685344            2 
  557000    1.1522696    -6.169496    255.30563  0.038196534  0.038680801            4 
  558000    1.1486574   -6.2015953    255.14247  0.038103714  0.038675388            2 
  559000    1.1722444   -6.1958085    256.73798  0.038273402  0.038671006            3 
  560000    1.1746141   -6.1264533    257.92358  0.038381486  0.038666822            1 
  561000    1.1713632   -6.1660238    257.86245  0.038303988  0.038662323            2 
  562000    1.1643236   -6.2186103    256.38466  0.038016705  0.038656912            2 
  563000     1.162761   -6.2132364    258.54506  0.038268955  0.038651761            1 
  564000    1.1730802   -6.1895631    258.14775  0.038142399  0.038646978            3 
  565000    1.1591735   -6.1541064    260.52055   0.03842486  0.038642953            4 
  566000    1.1502233   -6.2094681    259.69317  0.038235155  0.038639194            3 
  567000    1.1522619   -6.1882349    260.48368  0.038283904  0.038635527            3 
  568000     1.151382   -6.1955333    261.02912  0.038296526  0.038630947            2 
  569000    1.1608349   -6.1883569    260.95649  0.038218584  0.038626645            3 
  570000    1.1630755   -6.2159942     261.3313   0.03820633  0.038622633            2 
  571000    1.1415103   -6.1734174    262.06748   0.03824686  0.038618681            2 
  572000    1.1673673   -6.1959646     262.4472  0.038235315  0.038614537            3 
  573000    1.1822423   -6.2183452    261.80441  0.038075103  0.038610261            2 
  574000    1.1629789   -6.1788544    264.07938   0.03833905  0.038606374            1 
  575000    1.1332861    -6.195307    263.96815  0.038256254   0.03860307            1 
  576000    1.1651502   -6.2086086    264.51556  0.038269033  0.038599654            2 
  577000    1.1559699   -6.2156242     264.9734  0.038268833  0.038596148            5 
  578000    1.1458124   -6.2182511    265.34283  0.038255887  0.038592198            5 
  579000    1.1676281   -6.1783954    266.44486  0.038348425  0.038588229            2 
  580000     1.172171     -6.17989    266.50847  0.038291446  0.038584787            3 
  581000    1.1405548   -6.2659994    266.52697  0.038228194  0.038580867            3 
  582000    1.1534092   -6.2202897    267.13786   0.03824998  0.038576793            1 
  583000    1.1709976   -6.2307511    267.37363  0.038218072  0.038573389            2 
  584000    1.1267749    -6.221854    267.35745   0.03815032  0.038569552            2 
  585000    1.1653287   -6.2728976    267.85209  0.038155568  0.038565677            5 
  586000     1.158796   -6.1832721    269.26171  0.038290914  0.038562103            2 
  587000    1.1490064   -6.2126808    268.33791  0.038094535   0.03855872            6 
  588000    1.1641332   -6.2278002    269.40576  0.038181089  0.038555189            1 
  589000    1.1433834   -6.1973413    270.72303  0.038302636  0.038551905            4 
  590000    1.1697743   -6.2524435    269.51303  0.038066813   0.03854834            5 
  591000    1.1490311   -6.1858654    271.94372  0.038345138  0.038544723            2 
  592000     1.167128   -6.2123293    271.30422  0.038190347  0.038541663            3 
  593000    1.1630374   -6.1911126    273.27661  0.038403122  0.038538659            2 
  594000    1.1562559   -6.1958721     273.4822  0.038367313   0.03853588            2 
  595000    1.1451407   -6.1983628    272.91276  0.038223075  0.038531981            2 
  596000     1.131601   -6.2242236     272.9331  0.038161786  0.038527749            2 
  597000     1.159843   -6.2073638    274.06816  0.038256303  0.038523836            2 
  598000    1.1588335   -6.2032389    275.17563  0.038346659  0.038520532            5 
  599000    1.1581778   -6.2210167    274.14286  0.038138962  0.038516806            3 
  600000    1.1798703   -6.2134581    275.18466  0.038220091  0.038513828            3 
  601000    1.1679741   -6.1977615    275.90712  0.038256673  0.038510349            2 
  602000    1.1585291   -6.2135511    276.18959  0.038232224   0.03850709            3 
  603000    1.1400942   -6.2327476    276.16373  0.038165247   0.03850369            3 
  604000    1.1388341   -6.1408447    278.14135   0.03837491  0.038500703            3 
  605000    1.1691191   -6.1678295    277.65196  0.038244072  0.038497211            8 
  606000    1.1266127   -6.2341829    278.12424  0.038245907  0.038494143            2 
  607000    1.1547024   -6.2271753    277.90669  0.038153033  0.038490961            1 
  608000    1.1526294   -6.2079006    278.69817  0.038198762  0.038487479            5 
  609000    1.1698302   -6.1730201    279.23835  0.038209954  0.038483988            2 
  610000    1.1379377   -6.2116757     279.8527  0.038231244  0.038480836            4 
  611000    1.1708835   -6.2075656     280.8133  0.038299687  0.038477124            8 
  612000    1.1417879   -6.2130897    280.18009  0.038150883  0.038473555            3 
  613000    1.1641217   -6.2068423    280.69297   0.03815837   0.03846967            2 
  614000    1.1666746    -6.213258    280.84137  0.038116364  0.038465714            4 
  615000    1.1471901   -6.2145984    281.13434  0.038094084  0.038461768            7 
  616000    1.1758128    -6.229067    281.00531  0.038014788    0.0384576            3 
  617000    1.1621148   -6.2699671    281.33827  0.037998145  0.038454004            5 
  618000    1.1463315   -6.2157129    282.26869  0.038062122  0.038449669            2 
  619000    1.1705759   -6.2148682    283.55746  0.038174133  0.038446438            4 
  620000    1.1475275   -6.1953338    283.79277  0.038144189   0.03844328            3 
  621000    1.1508359   -6.2038121     284.8291  0.038221833  0.038440014            1 
  622000    1.1316819   -6.2541659     284.0408  0.038054769  0.038436249            4 
  623000    1.1485269   -6.2497438    284.03312  0.037992659  0.038431931            8 
  624000    1.1440979   -6.2248993    285.44983   0.03812097  0.038427919            3 
  625000    1.1268311   -6.2018689    285.70304  0.038093739  0.038424294            4 
  626000    1.1291314   -6.1861888    286.11465   0.03808768  0.038419977            3 
  627000    1.1634315   -6.2113862    286.79453  0.038117295  0.038415354            1 
  628000    1.1315988   -6.2399787    285.82784  0.037928323   0.03841026            3 
  629000    1.1501613   -6.2092943    286.43455  0.037948403   0.03840526            3 
  630000     1.178403   -6.2460618    286.87482  0.037946404  0.038400918            2 
  631000    1.1472198   -6.2564906    286.24057  0.037802505  0.038395789            3 
  632000    1.1628763   -6.1940123    287.39625  0.037895076  0.038390879            4 
  633000    1.1687041   -6.2339625    287.90063   0.03790161  0.038385836            2 
  634000    1.1623456    -6.211856    288.35242  0.037901212  0.038380939            2 
  635000    1.1413904   -6.2115381     289.6292  0.038009081  0.038376269            2 
  636000    1.1790651   -6.2358843    289.35167  0.037912955  0.038371664            5 
  637000    1.1460959   -6.2119281    289.83854   0.03791713   0.03836739            2 
  638000    1.1494851   -6.2291467    290.61279  0.037958829  0.038363098            2 
  639000    1.1506108   -6.2063398    290.87622   0.03793378  0.038358334            1 
  640000    1.1598358   -6.1952627    290.59081  0.037837345  0.038353381            4 
  641000    1.1324263   -6.2307557    291.88636  0.037946744  0.038348375            3 
  642000    1.1812228   -6.2330789    291.07349  0.037782125  0.038343013            3 
  643000    1.1660284   -6.1796544    292.35633  0.037889623  0.038337993            2 
  644000    1.1347344   -6.2581959    291.65163  0.037739601  0.038332457            4 
  645000    1.1526246   -6.2018742     293.9144  0.037973437  0.038327225            3 
  646000    1.1285792   -6.2404385    293.07486  0.037806354  0.038321355            2 
  647000    1.1590934   -6.2122603    293.94595  0.037860117  0.038315853            2 
  648000    1.1391474    -6.228275    292.24596  0.037583071   0.03830973            2 
  649000    1.1238384   -6.2018742    293.99701  0.037750002  0.038303298            2 
  650000    1.1483476   -6.2144103    295.11632  0.037835426  0.038297424            2 
  651000    1.1414742   -6.2580605    294.27443  0.037669538  0.038291079            4 
  652000    1.1666004     -6.24036    295.66342  0.037789292  0.038284542            2 
  653000    1.1209287   -6.1973358    295.87433  0.037758337   0.03827851            3 
  654000    1.1524345   -6.2830943    295.27898  0.037624743  0.038272099            5 
  655000     1.148489   -6.2138644    297.35211  0.037831058   0.03826573            3 
  656000    1.1382503   -6.2263391     296.9844  0.037726677  0.038259985            2 
  657000    1.1872359   -6.2018585    297.92786  0.037788922  0.038253855            2 
  658000    1.1685351     -6.18799    299.51234   0.03793216  0.038248735            2 
  659000    1.1803972     -6.23379    298.99373   0.03780902  0.038243458            3 
  660000    1.1531718   -6.1878934    300.38785  0.037927759  0.038238306            2 
  661000    1.1668172   -6.2411448    299.21035  0.037721931  0.038232384            2 
  662000    1.1421315   -6.2293269    299.03622  0.037643029  0.038226421            3 
  663000    1.1442887   -6.2595639    299.73078  0.037673552  0.038220218            7 
  664000    1.1492587   -6.2420436    300.08098  0.037660765  0.038214114            2 
  665000    1.1530789   -6.2459625    299.77094  0.037565281  0.038207598            3 
  666000    1.1441787   -6.2414413    301.32343  0.037703132  0.038200707            6 
  667000    1.1475551   -6.2500243    300.71915  0.037571109   0.03819422            2 
  668000    1.1693439   -6.2211698    302.08534  0.037685297    0.0381872            6 
  669000    1.1391505   -6.2563351    301.77694  0.037590551   0.03818051            2 
  670000    1.1284702   -6.2415513    301.98754  0.037560639  0.038173391            2 
  671000    1.1450448   -6.2464871    302.49775  0.037568026  0.038166001            3 
  672000    1.1504552   -6.2556736    303.07705  0.037583959  0.038158479            7 
  673000    1.1428182   -6.2394335    303.83281  0.037621695  0.038151133            5 
  674000    1.1292896   -6.2199515    303.11917  0.037477642  0.038143616            2 
  675000    1.1278995   -6.2278819     303.3918  0.037455777  0.038135842            3 
  676000    1.1550628   -6.2240756    303.47956  0.037411189  0.038127483            3 
  677000    1.1306746   -6.2247529    305.04038  0.037548053  0.038119765            1 
  678000    1.1708015   -6.2333404    305.82975  0.037589694  0.038112804            3 
  679000    1.1278193   -6.2405874    304.87205  0.037416795  0.038105401            2 
  680000    1.1450395   -6.2384588      305.917  0.037489829  0.038098347            2 
  681000    1.1707825    -6.250076    306.86324  0.037550568  0.038091196            1 
  682000    1.1421121    -6.215188    307.55219  0.037579691  0.038084187            1 
  683000    1.1217602   -6.2155341    307.45205  0.037512452  0.038077068            5 
  684000    1.1281245   -6.2451996    308.85349  0.037628349  0.038070183            3 
  685000    1.1390925   -6.1855819    309.50531  0.037652714  0.038063628            3 
  686000    1.1321623   -6.2044887     309.5607  0.037604555  0.038056646            3 
  687000    1.1202712   -6.2449433    308.53321  0.037425184  0.038050034            2 
  688000     1.125117   -6.2507229    309.14423  0.037444795  0.038042518            5 
  689000    1.1474226   -6.2289821    308.28155  0.037286109  0.038034957            2 
  690000    1.1770857   -6.2435559     309.3877  0.037365664  0.038027128            2 
  691000    1.1524396   -6.2795164    308.60125  0.037216745  0.038018925            4 
  692000    1.1287292   -6.2562799    310.23559  0.037359777  0.038010945            2 
  693000    1.1451857   -6.2475803    309.86618  0.037261446  0.038003195            4 
  694000    1.1398836   -6.2769444    310.12786  0.037239176  0.037994761            3 
  695000    1.1312983   -6.2281541    311.70183   0.03737432  0.037986716            5 
  696000    1.1415607   -6.2272784    311.28943  0.037271243   0.03797887            4 
  697000    1.1508498   -6.2030904    312.83387  0.037402424  0.037970785            6 
  698000    1.1057606   -6.1634361    313.81256  0.037465682   0.03796322            3 
  699000    1.1180001   -6.2316137    312.11559  0.037209775  0.037955101            4 
  700000    1.1555154   -6.2461847    312.32279  0.037181284  0.037946202            3 
  701000    1.1361247   -6.2541032    312.46253  0.037144856  0.037937215            1 
  702000    1.1267616   -6.2654363    312.86983  0.037140294  0.037928363            2 
  703000    1.1485852   -6.2602337    312.74408  0.037072556  0.037919654            5 
  704000    1.1325991   -6.2581168    312.53799  0.036995501  0.037910048            4 
  705000    1.1435051   -6.2656818    313.23266  0.037025138  0.037901311            2 
  706000    1.1456017   -6.2756562      314.965  0.037177172  0.037892195            4 
  707000    1.1108121   -6.2663145    315.36645  0.037171906  0.037883021            3 
  708000    1.1105943   -6.2487784      315.076  0.037085216  0.037874402            2 
  709000    1.1487562   -6.2404676    317.01129  0.037260377   0.03786574            4 
  710000    1.1462954   -6.2512289    316.22187  0.037115242  0.037857518            3 
  711000    1.1382618   -6.2279598    316.83456  0.037134852  0.037848791            3 
  712000    1.1133246   -6.2618644     315.3231  0.036905793  0.037839958            2 
  713000    1.1384687    -6.260823    317.15976  0.037068696  0.037831155            4 
  714000    1.1406562   -6.2354743    317.21372  0.037023076  0.037822249            2 
  715000    1.1265344   -6.2610692    316.44882  0.036882147  0.037812854            5 
  716000    1.1314816   -6.2389133    318.38626  0.037056128  0.037803347            2 
  717000    1.1060384   -6.2912091    317.06657  0.036851066  0.037793282            2 
  718000    1.1303717   -6.2457705     318.1301  0.036923177  0.037783207            5 
  719000    1.1243166   -6.2201248    318.32874  0.036894847  0.037773233            2 
  720000    1.1318886   -6.2756243     318.0464  0.036810926  0.037763012            3 
  721000    1.1187047   -6.2655594    318.19556  0.036777111  0.037752958            5 
  722000    1.1282288   -6.2950663    319.05859  0.036825784  0.037742787            2 
  723000    1.1357495   -6.2499995     319.3625  0.036809878  0.037732561            2 
  724000    1.1243435   -6.2907844    318.80532  0.036694903  0.037722415            4 
  725000    1.1339478   -6.2436729    321.15615  0.036914499  0.037712273            4 
  726000    1.1357244   -6.3033947    319.18985  0.036637953  0.037701976            2 
  727000    1.1243911    -6.273678    320.60519  0.036749792  0.037691958            2 
  728000    1.1365095   -6.2592007    322.41909  0.036906947  0.037682097            3 
  729000    1.1336806   -6.2474176     322.0454  0.036813603  0.037672411            4 
  730000    1.1392308    -6.225504    322.46773  0.036811385  0.037662352            3 
  731000    1.1177365   -6.2790799    322.27527  0.036739087  0.037652237            5 
  732000     1.151759   -6.2354901    323.61789  0.036841745   0.03764268            2 
  733000    1.1337601   -6.2076875    324.24445  0.036862716  0.037633468            1 
  734000    1.1191511   -6.2821797    323.49613  0.036727535  0.037624022            3 
  735000    1.1297507   -6.2234725     325.6997  0.036927403  0.037614809            3 
  736000    1.1636988   -6.2704961    323.93419  0.036677331  0.037605062            2 
  737000    1.1533967   -6.2850945    324.64747  0.036708217  0.037594996            5 
  738000     1.132804   -6.2777828    326.34916  0.036850628  0.037585314            4 
  739000    1.1345881    -6.259913    324.37073  0.036577665  0.037575318            4 
  740000    1.1329281   -6.2619831     325.8399  0.036693683  0.037565059            3 
  741000    1.1479431   -6.2891606    324.92487  0.036541258  0.037554723            4 
  742000    1.1373224   -6.2803657    326.33088  0.036649919  0.037544234            3 
  743000    1.1405146   -6.3095241    326.22388  0.036588591   0.03753408            2 
  744000    1.1395944   -6.2939076     326.6873   0.03659132  0.037523555            4 
  745000    1.1622047   -6.2708153    327.24847  0.036604974  0.037513271            5 
  746000    1.1276279   -6.2981139    327.11347  0.036540826  0.037503057            2 
  747000    1.1147681   -6.2479149    328.42987  0.036638763  0.037492711            2 
  748000    1.1601246   -6.2485177    328.98848  0.036652014  0.037482807            3 
  749000    1.1224233   -6.2739885    328.34515  0.036531504  0.037472668            2 
  750000    1.1239222   -6.2618268    329.21225  0.036579139  0.037462574            3 
  751000    1.1459515   -6.2580184    330.27393  0.036648239  0.037452853            4 
  752000    1.1411922   -6.3236103     329.1166  0.036471254  0.037442772            3 
  753000    1.1509459    -6.254363    330.40594  0.036565509  0.037433187            4 
  754000     1.136798   -6.2697263    332.21129  0.036716544  0.037423708            6 
  755000     1.123908   -6.2751524    331.18347  0.036554467  0.037414274            4 
  756000    1.1263617   -6.3110481    331.99371  0.036595426  0.037404449            4 
  757000    1.1114481   -6.2926671    332.32625  0.036583691  0.037395273            1 
  758000    1.1457798   -6.2678453    333.49073  0.036663449  0.037386087            4 
  759000    1.1250678   -6.2662345    333.27689  0.036591665  0.037376814            3 
  760000     1.119896   -6.2331368    334.82293   0.03671304  0.037367968            6 
  761000    1.1382258   -6.2884681    334.13681  0.036589664  0.037358612            3 
  762000     1.139345   -6.2587155    334.03668  0.036530696  0.037349507            3 
  763000    1.1371214   -6.2595413    336.29006  0.036728927  0.037340703            2 
  764000    1.1390863    -6.292201    335.46186  0.036590517  0.037332235            2 
  765000    1.1283675   -6.2522571    336.79349  0.036687744  0.037323168            2 
  766000    1.1455232    -6.273448    336.61971  0.036620944  0.037314486            4 
  767000    1.1418783   -6.2664874    335.65211   0.03646807  0.037305711            3 
  768000    1.1626101   -6.3102628    336.07031  0.036465963    0.0372964            2 
  769000    1.1099973   -6.3011415    336.47415  0.036462305  0.037287119            3 
  770000    1.1339051   -6.2775647    337.22549  0.036496266  0.037277845            3 
  771000    1.1182311   -6.2452703    338.04709  0.036537731  0.037268727            3 
  772000    1.1151483   -6.2441495    338.66532  0.036557138  0.037259634            2 
  773000    1.1274452   -6.2773444    338.79888  0.036524243  0.037250581            5 
  774000    1.1131137   -6.2470031    339.77857  0.036582533  0.037241565            4 
  775000    1.1357269   -6.2750181    340.72695  0.036637307  0.037233033            2 
  776000    1.0957522   -6.2754062    340.33509  0.036548012  0.037224269            5 
  777000    1.1499572   -6.2559286    341.38827  0.036613929  0.037215726            2 
  778000     1.143852   -6.2478757     341.4955  0.036578353  0.037207061            5 
  779000    1.1348031    -6.270704    342.47016  0.036635661  0.037198326            4 
  780000    1.1163339   -6.2711467    341.76111  0.036512939  0.037189816            5 
  781000    1.1365399   -6.2451313    343.17683  0.036617246  0.037181196            5 
  782000    1.1295261   -6.2798591    341.60811  0.036403251  0.037172473            1 
  783000    1.1378355   -6.2729032    343.07164   0.03651252  0.037163384            3 
  784000    1.1505113   -6.2443326    343.24772  0.036484664  0.037154475            5 
  785000    1.1194563   -6.2790573    341.81636  0.036286238  0.037145417            2 
  786000    1.1230785   -6.2639033    343.49132  0.036417654  0.037136513            2 
  787000    1.1282937   -6.2809727    343.16227  0.036336538  0.037126988            3 
  788000    1.1314402   -6.2520793    343.51249  0.036327463  0.037117003            2 
  789000    1.1330631   -6.2702093     343.2242  0.036250972   0.03710678            5 
  790000    1.1093354    -6.248664    344.25984  0.036314329  0.037096648            3 
  791000    1.1179089    -6.292073    344.19908  0.036262018    0.0370865            1 
  792000     1.158343     -6.27317    344.42456  0.036239958  0.037076593            2 
  793000    1.1114954     -6.26508     345.5361  0.036311066  0.037066487            4 
  794000    1.1286185   -6.2895296    345.04725  0.036214027  0.037056313            3 
  795000    1.1263361   -6.3205836    345.61235   0.03622771  0.037046704            2 
  796000    1.1221913    -6.314536    345.40367  0.036160351  0.037036846            6 
  797000     1.108323   -6.2982664    346.85966  0.036267217  0.037027314            5 
  798000     1.124717   -6.2768768    347.20179  0.036257497  0.037017369            2 
  799000    1.1417974   -6.2821569    346.86642   0.03617714  0.037008137            3 
  800000     1.120437   -6.2690104     347.9843  0.036248364  0.036999293            1 
  801000    1.1116854   -6.3112213    349.08842   0.03631798  0.036989859            4 
  802000    1.1257935   -6.2464082    350.17458  0.036385555  0.036980557            3 
  803000    1.1369999   -6.2799893     349.9533  0.036317279  0.036971662            4 
  804000    1.1385643   -6.2851114    349.51067   0.03622623  0.036961949            4 
  805000    1.1113982   -6.2864572    349.31336  0.036160803  0.036952627            5 
  806000    1.1188215   -6.2656925    351.19597  0.036310584  0.036943519            2 
  807000    1.1076651   -6.2793442    351.58049  0.036305296  0.036934212            7 
  808000    1.1177197   -6.3272676    350.88779  0.036188923  0.036925269            3 
  809000    1.1349868   -6.2288427    352.03764  0.036262633  0.036916269            3 
  810000    1.1340118   -6.3061288    351.20033  0.036131721  0.036907264            2 
  811000    1.1103455   -6.3195523    352.87458  0.036259205  0.036898201            2 
  812000    1.1117769   -6.3142613    352.29293  0.036154858  0.036888878            4 
  813000    1.1199084    -6.271276    353.91168   0.03627631  0.036879654            2 
  814000    1.1293413   -6.2758124    354.07196  0.036248154  0.036871121            2 
  815000    1.1278347   -6.3002434     355.2756  0.036326749  0.036862888            3 
  816000    1.1257424   -6.2837991    355.19116  0.036273607  0.036854479            2 
  817000    1.1270433   -6.2907304     355.2364  0.036233823   0.03684599            3 
  818000    1.1225638    -6.332836    354.38117  0.036102401  0.036836659            4 
  819000    1.1170678   -6.3120126    354.78818  0.036099734  0.036827408            2 
  820000    1.1031816   -6.3175207    353.78507  0.035953767  0.036818483            4 
  821000     1.140944   -6.2828463    357.83675  0.036321229  0.036809838            9 
  822000     1.114106   -6.2763687    357.23923  0.036216467  0.036801096            3 
  823000    1.1307269   -6.3147177    357.02999  0.036151275   0.03679218            4 
  824000    1.0965743   -6.2533807    357.14719  0.036119254   0.03678323            3 
  825000     1.134719   -6.2844502    357.88186  0.036149683  0.036774241            2 
  826000    1.1054337   -6.2525748     357.9183  0.036109595  0.036765189            2 
  827000      1.11141     -6.26812    357.58799  0.036032647  0.036755996            2 
  828000    1.0925573   -6.3336827    358.19814  0.036050537  0.036746539            2 
  829000    1.0991957   -6.3127705    357.29828  0.035916595  0.036736625            3 
  830000    1.1144019   -6.3324178    358.32933   0.03597684  0.036726851            5 
  831000    1.1250389   -6.2886183    359.26091  0.036026966  0.036717594            3 
  832000    1.1296737   -6.3310839     358.5084  0.035908294  0.036708259            9 
  833000    1.0874043   -6.2937624    360.28867  0.036043285  0.036698839            1 
  834000    1.1443561   -6.3283958    358.87386  0.035858699  0.036688815            4 
  835000    1.1192611    -6.315993    359.42827  0.035871085  0.036678905            2 
  836000    1.1334565    -6.324662    360.09549  0.035894686  0.036669158            7 
  837000    1.0947828   -6.3563705    359.93486  0.035835808  0.036659676            2 
  838000    1.0978949   -6.3001996    360.91287  0.035890301  0.036650202            5 
  839000    1.1047492   -6.2709351    361.56582  0.035912378  0.036641038            4 
  840000    1.1109784   -6.3009191    363.28488  0.036040166   0.03663233            3 
  841000    1.0970302   -6.3327476    363.07807   0.03597682  0.036623459            5 
  842000     1.122121   -6.3409273    362.94847  0.035921266   0.03661415            6 
  843000    1.1052632   -6.3116654    363.52886  0.035936028  0.036604929            3 
  844000    1.1063317   -6.2842776    364.25869   0.03596551  0.036596064            3 
  845000    1.1189937   -6.2873535    363.92526  0.035890065  0.036587138            2 
  846000    1.1057886    -6.328915      364.504  0.035904649   0.03657774            3 
  847000    1.1246688   -6.2941314    365.95782  0.036005295  0.036568794            2 
  848000    1.1044179   -6.2925567    365.89787  0.035956945  0.036559921            3 
  849000    1.0941812     -6.27209    366.89735  0.036012696  0.036551359            3 
  850000    1.1275573   -6.3046633    366.19544  0.035901513  0.036542571            4 
  851000    1.1154671   -6.3150649    367.45662  0.035982826  0.036533477            3 
  852000    1.1103289   -6.2951101    367.85205  0.035979269  0.036524582            1 
  853000    1.1137825   -6.3018252    366.47217  0.035802283  0.036515906            4 
  854000    1.1100329   -6.3205687    366.34728  0.035748173  0.036507161            1 
  855000    1.1182186   -6.2853928    368.02369  0.035869756  0.036498199            3 
  856000    1.1078276   -6.2953178    366.98259  0.035726498  0.036489125            3 
  857000    1.1134192   -6.3354621    367.99762  0.035783511  0.036479878            3 
  858000    1.1096894   -6.2894786    368.39096  0.035780008  0.036470933            3 
  859000    1.1141893   -6.3093851    369.17743  0.035814652  0.036462049            3 
  860000    1.1238386   -6.3260787    369.04669  0.035760338  0.036452962            5 
  861000    1.0946125    -6.292188    369.52935  0.035765519  0.036443261            2 
  862000    1.1279425   -6.3121667    369.18753  0.035690983  0.036433469            9 
  863000    1.1365951   -6.3355253    370.24178  0.035751427  0.036423861            2 
  864000    1.1252253   -6.3161114    371.93617  0.035873473  0.036414413            2 
  865000    1.1003347   -6.3108237    370.47354  0.035691093  0.036404973            3 
  866000    1.1110137   -6.2775109     372.0993  0.035806322   0.03639547            5 
  867000    1.1223437   -6.2659944    371.86563  0.035742564  0.036386169            3 
  868000    1.1272578    -6.276223    371.55185  0.035671261   0.03637704            4 
  869000    1.0944545   -6.2954898    373.14482  0.035782971  0.036367647            3 
  870000     1.119308   -6.2748518    372.80136  0.035708943  0.036358566            2 
  871000    1.1147189   -6.3296005    372.35993  0.035625711  0.036349409            2 
  872000    1.0961762    -6.252363    374.19493  0.035760219  0.036340106            2 
  873000    1.1324983   -6.2921789    374.44919  0.035743527    0.0363313            3 
  874000    1.1053062   -6.3518265    373.80176    0.0356409  0.036322336            4 
  875000    1.0734398   -6.3133108    375.26589  0.035739608  0.036313153            4 
  876000    1.1218521   -6.3127297    376.20209   0.03578787  0.036304523            2 
  877000    1.1341434   -6.3172325    375.39683  0.035670546  0.036296013            3 
  878000    1.1378344   -6.2880155    377.86626  0.035864299  0.036287562            4 
  879000    1.1208724   -6.2975343    377.33577  0.035773205  0.036279079            3 
  880000    1.1061066   -6.3021736     376.5764  0.035660644  0.036270374            3 
  881000    1.1265288   -6.3074594    377.39813  0.035697893  0.036261623            3 
  882000    1.1018205   -6.3441487    377.30407  0.035648533  0.036252904            2 
  883000    1.0988385   -6.3251089    377.41133  0.035618283  0.036243677            3 
  884000    1.0976374   -6.2987376    378.40131  0.035671315  0.036234542            5 
  885000    1.1287007   -6.3005082    379.59851  0.035743739  0.036225611            3 
  886000     1.139107   -6.2987701    378.12487  0.035564792  0.036216733            5 
  887000    1.1342134   -6.2690476    380.14569  0.035714552   0.03620789            3 
  888000    1.1418008   -6.3622602    377.37975  0.035414767  0.036198733            3 
  889000     1.109262   -6.2943184    380.12562  0.035632323   0.03618962            4 
  890000    1.1160311   -6.3412708    379.89739  0.035570916  0.036180407            6 
  891000    1.0984597   -6.2771526    381.26416  0.035658825  0.036172041            5 
  892000     1.115134   -6.3382126    380.79097  0.035574643  0.036163123            7 
  893000    1.0961372   -6.3354814    382.13104  0.035659858  0.036154906            4 
  894000     1.102397   -6.2632312    382.50266   0.03565461   0.03614652            8 
  895000    1.1077754   -6.3188511    381.48874  0.035520367  0.036138111            4 
  896000    1.1282834   -6.2843745    382.44757  0.035569901  0.036129495            5 
  897000    1.1345145   -6.3184089    383.98269  0.035672862  0.036121055            2 
  898000    1.1054591   -6.3817354    382.82473   0.03552568  0.036112483            7 
  899000    1.1046133   -6.3666193    383.30314   0.03553051  0.036103599            2 
  900000    1.0991265   -6.3440592    382.96934  0.035460124  0.036094508            5 
  901000     1.113319   -6.3067598    384.05265  0.035520963  0.036085532            2 
  902000    1.1352551   -6.2926649     384.7328   0.03554442   0.03607656            1 
  903000    1.1228789   -6.3124788    385.89463  0.035612277  0.036067722            3 
  904000    1.1007586   -6.3367078    384.08838  0.035406377  0.036058854            3 
  905000    1.1093604   -6.3360781    385.85229  0.035529677  0.036050473            1 
  906000    1.1118925   -6.3144974    387.52716  0.035644514  0.036041848            2 
  907000    1.0815273   -6.3297823    386.27532  0.035490199  0.036033534            7 
  908000    1.1122288   -6.2949117    387.70222  0.035582069  0.036025135            3 
  909000    1.1113923   -6.3786573    386.48011  0.035430887  0.036016392            2 
  910000    1.1130915   -6.3210382    388.23797  0.035552928  0.036007514            3 
  911000    1.0921772   -6.3564135    387.80292  0.035474105  0.035999025            2 
  912000    1.1041056   -6.3208627    388.48738   0.03549775   0.03599061            4 
  913000    1.1012671    -6.342536    387.98085  0.035412637  0.035982731            2 
  914000    1.1056483   -6.3025787    390.24527  0.035580349  0.035974384            5 
  915000    1.1108939   -6.2955739    388.60495  0.035392072  0.035966118            2 
  916000    1.1186549   -6.3460859    388.96458  0.035386152  0.035957639            3 
  917000    1.0932198   -6.3105781    391.21394  0.035551976    0.0359493            4 
  918000     1.124483   -6.3048275      391.821  0.035568355  0.035940664            5 
  919000    1.0885577   -6.3364232    389.80898  0.035347205  0.035932165            2 
  920000    1.1090483   -6.3330837    392.09924  0.035516235  0.035924088           10 
  921000    1.1017387   -6.2625517    393.19261  0.035576603  0.035916186            3 
  922000    1.0882641   -6.3143891    393.14883  0.035534059   0.03590849            3 
  923000    1.1194131   -6.3079815    393.49135  0.035526485  0.035900692            4 
  924000    1.1185958   -6.3706622     391.9097  0.035345391  0.035892523            2 
  925000    1.1127413   -6.3189964     392.6681  0.035375505  0.035883998            2 
  926000    1.0854367   -6.3312162    392.59282  0.035330527  0.035875691            3 
  927000    1.0904531   -6.3481505    393.95426  0.035414802  0.035867438            3 
  928000    1.0894318   -6.3607398    393.91823  0.035373404  0.035859244            3 
  929000    1.0993824   -6.3485853    395.20581  0.035450826  0.035850949            4 
  930000    1.0968291   -6.3240874    394.33201   0.03533441  0.035842611            2 
  931000    1.1022594   -6.3488399    394.38723  0.035301399   0.03583438            3 
  932000    1.1048881    -6.324715    395.16833  0.035333363  0.035825863            4 
  933000    1.1073288   -6.3059266    396.54894  0.035418804  0.035817722            3 
  934000    1.0938537   -6.4177358    394.29952  0.035180186  0.035809132            3 
  935000    1.1421012   -6.3353951    396.74206  0.035360255  0.035800714            2 
  936000    1.0945994    -6.310014    396.99221  0.035344748   0.03579232            3 
  937000    1.0884574     -6.35587    396.77744  0.035287926  0.035784035            3 
  938000    1.1342039   -6.3535745    396.91845  0.035262833  0.035775575            3 
  939000    1.0914587   -6.3633141    395.63135  0.035111054  0.035766339            2 
  940000    1.1199885   -6.3338702    397.51763  0.035240925  0.035757366            4 
  941000     1.102027   -6.3550469    397.70674  0.035220221  0.035748563            4 
  942000    1.1035554   -6.3232211    398.15145  0.035222174  0.035739904            3 
  943000    1.0877019    -6.366643    397.55076  0.035131739  0.035731424            3 
  944000     1.099485   -6.3659027    399.00762   0.03522313  0.035722821            3 
  945000    1.0997485   -6.3430626    399.15532  0.035198882  0.035714426            2 
  946000    1.0866361   -6.3472435    399.41821  0.035184831  0.035705786            6 
  947000    1.1115758   -6.3462665    400.36451  0.035230949  0.035697101            4 
  948000    1.0859225   -6.3474468    399.67133  0.035132852  0.035688133            3 
  949000    1.0891476   -6.3243671    401.07449  0.035219046  0.035679392            2 
  950000    1.1146368    -6.368705    399.70881  0.035062176  0.035670563            2 
  951000    1.1180652   -6.3242499    402.75986  0.035292662  0.035661864            2 
  952000    1.0921011   -6.3466824    400.87381  0.035090495  0.035653244            4 
  953000    1.0691009   -6.3091994     402.4619  0.035192541  0.035644736            5 
  954000    1.1054664    -6.355224    402.91879  0.035195562   0.03563606            3 
  955000    1.0824178   -6.2879056    404.22661  0.035272828  0.035627643            3 
  956000    1.0944414   -6.3312344    402.30196  0.035068163  0.035619633            5 
  957000    1.1213781   -6.3477333     402.9172  0.035085092  0.035610892            1 
  958000    1.1032218   -6.3304286    403.99876   0.03514255   0.03560233            3 
  959000    1.1072004   -6.3397214    403.15862  0.035032901  0.035593898            2 
  960000    1.0972143   -6.3568043    403.57683  0.035032711  0.035585301            3 
  961000    1.1089252   -6.3473619    404.29993   0.03505896  0.035576814            5 
  962000    1.0939229   -6.3084871    406.09546  0.035178054  0.035568373            1 
  963000    1.0962563   -6.3535394    405.28469  0.035071365  0.035560169            5 
  964000    1.0745982   -6.3711884    406.22636  0.035116387  0.035551406            2 
  965000    1.0924951   -6.3376019    406.78693  0.035128405  0.035542853            2 
  966000    1.1021329   -6.3896461    404.49352  0.034894196  0.035534147            2 
  967000    1.0988638   -6.3557045    404.71682  0.034877354  0.035525649            3 
  968000    1.0803237   -6.3500925    407.53907  0.035084286  0.035516737            2 
  969000    1.0794574   -6.3564986    407.62716  0.035055655  0.035507952            5 
  970000    1.0652011   -6.2768848    408.04744  0.035055622  0.035499278            3 
  971000    1.1161182   -6.3665653    406.54315  0.034890418  0.035490692            7 
  972000    1.1111828   -6.3830543    407.92217  0.034972751  0.035481942            2 
  973000    1.0839627   -6.3143508    408.93629  0.035023663  0.035473153            6 
  974000    1.1067736   -6.3197521      409.573   0.03504218  0.035464506            2 
  975000    1.1247964   -6.3421865    408.62287  0.034925031  0.035455859            6 
  976000    1.1000768   -6.3605174    408.40417  0.034870575  0.035446898            4 
  977000    1.0957244   -6.3029865     409.9324  0.034965234  0.035438094            2 
  978000    1.0899835   -6.3528199    409.91762  0.034928223  0.035429519            3 
  979000    1.0858913   -6.3591583    409.33006  0.034842531  0.035420763            5 
  980000    1.1051733   -6.3854888    408.85261  0.034766378  0.035412104            6 
  981000    1.0973145    -6.371379    408.63799  0.034712707  0.035402738            3 
  982000    1.0881012   -6.3800105    409.47673  0.034748534  0.035393619            5 
  983000    1.0884495   -6.3681738    411.66022  0.034898289  0.035384331            2 
  984000    1.1040601   -6.3539092    411.25361  0.034828388  0.035375215            2 
  985000    1.0679085   -6.3572584    412.16813    0.0348704  0.035366144            6 
  986000    1.0947824   -6.2989763    412.72273  0.034881907  0.035357388            2 
  987000    1.0853552    -6.394214    412.14578  0.034797853  0.035348524            8 
  988000    1.0812861   -6.3669157    411.82109  0.034735247  0.035339398            3 
  989000    1.0669232   -6.3489701     411.4055  0.034665108  0.035330161            2 
  990000    1.1173131   -6.3408092     412.5753   0.03472856  0.035320732            4 
  991000    1.0834886   -6.3363148    413.70995   0.03478893     0.035312            5 
  992000    1.1065632   -6.4212402    413.31273  0.034720491  0.035303159            5 
  993000    1.0963633   -6.3494338    413.85392  0.034730943  0.035294428            3 
  994000    1.0824402   -6.3493569    414.69648  0.034766639  0.035285781            2 
  995000    1.0929404   -6.3484987    416.03843  0.034844089  0.035277354            3 
  996000    1.0942698   -6.4001182    415.24997  0.034743137  0.035268737            4 
  997000    1.0946265   -6.3842766     416.3583  0.034800927  0.035260036            3 
  998000     1.087949   -6.3522761    416.08746  0.034743442  0.035251318            6 
  999000    1.0837253   -6.3811244    416.42698  0.034736986  0.035242327            4 
 1000000    1.0815322   -6.3761393    416.77677  0.034731397  0.035233545            3 
 1001000    1.0730772   -6.3427132      417.455  0.034753164   0.03522509            3 
 1002000    1.0779604   -6.3497419    417.75186  0.034743168  0.035216409            6 
 1003000     1.102069   -6.4130986    416.62682  0.034615057   0.03520753            3 
 1004000    1.0877678   -6.3527064    416.67814  0.034584839   0.03519855            3 
 1005000    1.0786442   -6.3653042    418.66872  0.034715482  0.035189805            3 
 1006000     1.070352   -6.3970286    416.49311  0.034500754  0.035180861            3 
 1007000    1.0932099   -6.3493873    418.81814  0.034658899  0.035171668            2 
 1008000    1.0990882   -6.3730484    418.47538  0.034596178  0.035162514            6 
 1009000    1.1029929   -6.3318738    420.06644  0.034693297   0.03515329            4 
 1010000    1.0878851   -6.3599718    419.33593  0.034598674    0.0351442            3 
 1011000    1.0947827   -6.4249272     416.5838  0.034337603  0.035134564            3 
 1012000    1.0728098    -6.340341    420.15378  0.034597643  0.035124972            6 
 1013000    1.0910567   -6.3837427    419.78079  0.034532806  0.035115877            4 
 1014000    1.0889372   -6.3976714    419.41706  0.034468857  0.035106534            4 
 1015000    1.0979831   -6.3742827    420.24696  0.034503034   0.03509701            1 
 1016000    1.0950791   -6.3649281     420.4011  0.034481718  0.035087581            4 
 1017000    1.0925125   -6.3716393    420.65441  0.034468568  0.035078235            6 
 1018000    1.0726369   -6.3814701    420.76884  0.034444077  0.035068967            2 
 1019000    1.0996966   -6.4012438    421.46274  0.034467022  0.035059363            4 
 1020000    1.0773552   -6.3859274    420.61267   0.03436378  0.035049615            4 
 1021000    1.0867892   -6.3823154    420.58446  0.034327821   0.03503987            3 
 1022000    1.0604032   -6.3825053      422.549   0.03445442  0.035030391            4 
 1023000    1.0763141    -6.349688    423.11668  0.034466983  0.035021089            5 
 1024000     1.070036   -6.3928814    421.93927  0.034337506  0.035011535            2 
 1025000    1.0827486   -6.3515401    424.36145  0.034500931  0.035002337            4 
 1026000    1.0784114   -6.3671788    424.25269   0.03445847  0.034993226            3 
 1027000    1.1298735   -6.3743572     424.6369  0.034456094  0.034984313            8 
 1028000    1.0866437   -6.3622005    425.45922  0.034489237  0.034975123            2 
 1029000    1.1236879   -6.3677168    425.24853  0.034438657  0.034966231            4 
 1030000    1.1013533   -6.3522049    427.42971  0.034581692  0.034957482            2 
 1031000    1.1120486   -6.3349922    426.56597  0.034478336  0.034948223            5 
 1032000    1.1078312   -6.3692185    425.81735  0.034384476  0.034939083            6 
 1033000    1.0942006   -6.3704878     426.4351  0.034401025  0.034929952            5 
 1034000    1.1007203   -6.3625982    427.82781  0.034479997  0.034920976            3 
 1035000    1.0735119   -6.4228754    426.16249    0.0343126     0.034912            4 
 1036000    1.0897364    -6.384257    427.32268  0.034372802  0.034902983            3 
 1037000    1.0786353   -6.3524572     428.0663  0.034399413  0.034893943            4 
 1038000    1.0752347   -6.3842771    429.25289  0.034461536  0.034885224            3 
 1039000     1.081853   -6.3976029    426.96633  0.034244974  0.034876403            6 
 1040000    1.0913307   -6.3658904     430.2361  0.034474047  0.034867601            2 
 1041000    1.0757467   -6.4104673    428.37602  0.034292029  0.034858615            8 
 1042000    1.0721128   -6.4011353    430.23524  0.034407809  0.034849662            4 
 1043000    1.0728033   -6.3715294    429.03349  0.034278803   0.03484047            4 
 1044000    1.0853675   -6.4005474    428.01392  0.034164585  0.034831536            4 
 1045000    1.0815188    -6.380732    431.41822  0.034403367  0.034822707            2 
 1046000    1.1007057    -6.376499    430.50901  0.034298041  0.034813785            2 
 1047000    1.1055607   -6.3618444    430.74957  0.034284429   0.03480482            2 
 1048000    1.0941005   -6.3707403     431.4944  0.034310942  0.034795921            4 
 1049000    1.0936478   -6.4153328    431.01532  0.034240175  0.034787036            4 
 1050000    1.0755341   -6.3680768    432.35857  0.034314172  0.034777739            3 
 1051000    1.0713522   -6.4042126    432.95931  0.034329156  0.034768919            4 
 1052000     1.071169    -6.346987    433.99437  0.034378515  0.034760349            6 
 1053000    1.0761102   -6.3729189    434.58868    0.0343929  0.034751755            3 
 1054000    1.0870106   -6.3717603    433.22318  0.034252307  0.034743258            4 
 1055000    1.0731295   -6.3598174    434.80791  0.034345016  0.034734727            3 
 1056000    1.0881577   -6.3654714    433.10112  0.034177803  0.034725865            3 
 1057000    1.0572776   -6.4036454    433.59333  0.034184274  0.034716927            2 
 1058000    1.0594942   -6.3808883    434.02543  0.034185998  0.034707794            3 
 1059000    1.1065145   -6.3837343    435.02195  0.034232133  0.034698656            3 
 1060000    1.0842524   -6.3759613    436.32571  0.034302336  0.034689624            6 
 1061000     1.083506   -6.3992895    434.24723  0.034106757  0.034680502            5 
 1062000    1.0957872   -6.3423253    436.31737  0.034237082  0.034671467            4 
 1063000    1.0889882   -6.3969295    435.93854  0.034175176  0.034662251            3 
 1064000    1.0726523   -6.4060376    435.08053  0.034075856  0.034653169            7 
 1065000    1.0656122   -6.4042273      435.371  0.034066589  0.034643813            7 
 1066000    1.0570228   -6.3510767    437.99393  0.034239676  0.034634561            2 
 1067000    1.0643758   -6.4152435    436.28718  0.034074287  0.034625418            8 
 1068000    1.0747704    -6.387448    436.97421   0.03409599  0.034616328            3 
 1069000     1.058246   -6.4178219    437.17029   0.03407938  0.034607098            2 
 1070000    1.0971877   -6.4050781    437.13228   0.03404457  0.034597883            3 
 1071000    1.0734863   -6.3738002     438.5658  0.034124323  0.034588721            5 
 1072000    1.0710454   -6.3933574    438.62995  0.034097478  0.034579492            4 
 1073000    1.0752335   -6.3991121    439.20835  0.034110621  0.034570567            2 
 1074000    1.0995818    -6.380837    439.07952  0.034068864  0.034561625            5 
 1075000    1.0754142   -6.3896182    439.57969  0.034075945   0.03455257            2 
 1076000    1.0630354   -6.3834841    440.12708   0.03408667  0.034543701            2 
 1077000    1.0772017    -6.388956    441.46924   0.03415887   0.03453474            6 
 1078000    1.0796489   -6.4059981    440.31315  0.034037813  0.034525802            2 
 1079000    1.0896443   -6.3709984    442.24418  0.034155405  0.034516669            4 
 1080000    1.0880805   -6.3477942    442.87425  0.034172396  0.034508122            4 
 1081000     1.072562   -6.3888636    441.96486   0.03407068   0.03449914            6 
 1082000    1.0847709   -6.3898564    441.61936  0.034012581  0.034490297            4 
 1083000    1.0894993   -6.4094571    442.50915  0.034049642  0.034481049            3 
 1084000    1.0894472   -6.4239306    442.69545  0.034032553  0.034472105            4 
 1085000    1.0817054   -6.3632139    442.68233  0.034000179  0.034463179            2 
 1086000    1.0755076   -6.4329609    441.82755   0.03390328  0.034454126            6 
 1087000     1.099991   -6.4450273    441.46206  0.033844071  0.034445123            7 
 1088000    1.1101781    -6.377775    443.93759  0.034002573  0.034436043            3 
 1089000    1.0962005   -6.3445888     447.1898  0.034220217  0.034427196            2 
 1090000    1.0647489   -6.4258545    444.47078  0.033980947  0.034418425            3 
 1091000    1.0835617   -6.3873187    444.24884  0.033932848  0.034409728            2 
 1092000    1.0608028   -6.4332877    443.67245  0.033857788  0.034400618            2 
 1093000    1.0869459   -6.3556671    447.23036  0.034098076  0.034391845            2 
 1094000    1.0449032   -6.4249767    444.99354  0.033896522  0.034382843            2 
 1095000    1.0960913   -6.4179223    446.25818   0.03396181  0.034373852            6 
 1096000    1.0876275   -6.3866193    446.56538   0.03395418   0.03436514            2 
 1097000    1.0926413   -6.3821496    447.03348  0.033958788  0.034356478            3 
 1098000    1.0786458    -6.406577    447.67036  0.033976196  0.034347715            3 
 1099000    1.0715424   -6.3611653    447.17523  0.033907736   0.03433885            6 
 1100000    1.0729387   -6.3824021    447.17291  0.033876736  0.034329973            6 
 1101000    1.0982046   -6.4074334    448.77721  0.033967394  0.034321233            2 
 1102000     1.059591   -6.4079027    447.48224  0.033838645  0.034312553            8 
 1103000    1.0665648   -6.3903497    448.59376  0.033891943  0.034303901            6 
 1104000    1.0526385   -6.3714529     448.5622  0.033858862  0.034295289            4 
 1105000    1.0468948   -6.3844354    450.18846  0.033950864  0.034286502            3 
 1106000    1.1009338   -6.3875725    451.31161  0.034004793  0.034277528            3 
 1107000    1.0432036   -6.4207443    449.97822  0.033873699  0.034268888            2 
 1108000    1.0730584   -6.3809416    449.02833  0.033771686  0.034260255            3 
 1109000    1.0805178   -6.4246026    449.19395  0.033753678  0.034251685            5 
 1110000    1.1046471   -6.3779155     451.0956  0.033866036  0.034242882            3 
 1111000    1.0763924   -6.3917795    450.86075  0.033817938  0.034234139            2 
 1112000     1.058366   -6.4344057    449.46618  0.033683017  0.034225239            5 
 1113000    1.0706997   -6.3914617    451.48486  0.033803898  0.034216185            3 
 1114000    1.0833056   -6.4033953    451.45365  0.033771219  0.034207062            2 
 1115000    1.0818947   -6.4025969    451.65622   0.03375607  0.034198287            3 
 1116000    1.0820051   -6.4063846    451.70821  0.033729705  0.034189529            7 
 1117000    1.0903021   -6.3921343    452.44133  0.033754202  0.034180781            2 
 1118000    1.0746814   -6.4268132    451.83377  0.033678724  0.034171725            5 
 1119000    1.0546773   -6.3878605    453.09449  0.033742515  0.034162733            2 
 1120000    1.0474732   -6.4160528     454.8475   0.03384282   0.03415408            4 
 1121000    1.0823519   -6.4121089    454.75971  0.033806104   0.03414483            5 
 1122000    1.0795582   -6.4501978    452.90659  0.033638339  0.034136214            2 
 1123000    1.0882657   -6.4092449    456.36948  0.033865351  0.034127409            5 
 1124000    1.0934802   -6.4350877      454.349  0.033685424  0.034119002            3 
 1125000    1.0842414   -6.4044035    456.51034  0.033815581  0.034110607            3 
 1126000    1.0863486   -6.3773532    457.65007  0.033869899  0.034102045            1 
 1127000    1.0842908   -6.4110327    457.03216  0.033794155  0.034093792            2 
 1128000    1.0476914   -6.4459859    454.56578  0.033581987  0.034085124            5 
 1129000    1.0881093   -6.4324939     455.9512  0.033654503  0.034076668            3 
 1130000     1.082224   -6.4334969    456.33265   0.03365285  0.034068113            5 
 1131000    1.0654012    -6.446126    457.13958  0.033682551  0.034059572            3 
 1132000    1.0503081   -6.4064595    457.10632  0.033650347  0.034050962            4 
 1133000    1.0670882   -6.4101844    458.02657  0.033688333  0.034042876            4 
 1134000    1.0691066   -6.4087227    459.29731  0.033752007   0.03403452            7 
 1135000    1.0951952   -6.4278786    458.37587  0.033654616  0.034025916            3 
 1136000    1.0655217   -6.4279494    459.50276  0.033707656  0.034017837            4 
 1137000    1.0645316   -6.3826719    461.24426  0.033805648  0.034009776            4 
 1138000    1.0812949   -6.3968278    460.72267  0.033737747  0.034001633            2 
 1139000    1.0834471   -6.4004073    460.36317  0.033681824  0.033993674            2 
 1140000    1.0723763   -6.4205909    461.94212  0.033767699  0.033985547            5 
 1141000    1.0619741   -6.4329353    460.84227  0.033657776  0.033977552            3 
 1142000    1.0855787   -6.4424515    461.96142  0.033709969  0.033969456            3 
 1143000    1.0625431   -6.4133392    462.45266  0.033716292  0.033961475            4 
 1144000    1.0751449   -6.4604039    460.61995  0.033553318  0.033953271           12 
 1145000    1.0662352    -6.465144    461.21559  0.033567365  0.033944422            3 
 1146000    1.0813927   -6.4326031     462.2957  0.033616616  0.033935994            3 
 1147000    1.0573155   -6.4852867    462.06386  0.033570463  0.033927624            3 
 1148000    1.0897902   -6.4202051    463.68363    0.0336588   0.03391951            5 
 1149000     1.058637   -6.4625764    463.96108  0.033649629   0.03391124            4 
 1150000    1.0713182   -6.3777588    465.76805  0.033751308  0.033903247            6 
 1151000    1.0484742   -6.4045892    464.58063  0.033636015  0.033895275            5 
 1152000     1.090081   -6.3919686    465.56463  0.033677997   0.03388734            6 
 1153000    1.0649145   -6.4412624    464.71817   0.03358761  0.033879781            5 
 1154000    1.0726085   -6.4136137    466.39578  0.033679649  0.033871913            5 
 1155000    1.0713182   -6.4106548    467.24644  0.033711864   0.03386412            2 
 1156000    1.0677526   -6.4335731      466.963   0.03366227  0.033856776            3 
 1157000    1.0779346   -6.4315404    466.26106  0.033582617   0.03384906            2 
 1158000     1.043363    -6.406247     468.4986  0.033714637  0.033841244            2 
 1159000    1.0752114   -6.3925139    468.62137  0.033694375  0.033833663            4 
 1160000    1.0552194   -6.4321423    467.86583  0.033611051  0.033825909            2 
 1161000    1.0782672   -6.4209479    467.81008  0.033578099  0.033818018            5 
 1162000    1.0635992   -6.4575024    467.99516  0.033562476  0.033810205            7 
 1163000    1.0556845   -6.4371558    467.62822  0.033507324  0.033802475            4 
 1164000    1.0722869   -6.4313493    467.28379   0.03345388  0.033794426            3 
 1165000      1.05141   -6.4708866    468.67345  0.033524567  0.033786502            1 
 1166000    1.0526455   -6.4076404    468.59633  0.033490303  0.033778296            2 
 1167000    1.0469452   -6.4342726    468.03943  0.033421838  0.033770542            3 
 1168000    1.0613724    -6.410658     468.9786  0.033460231  0.033762711            4 
 1169000    1.0742498   -6.4190457    471.53219  0.033613644  0.033754945            3 
 1170000    1.0536598   -6.4389502    469.28672   0.03342498  0.033746691           11 
 1171000    1.0528087   -6.4516833    468.80563    0.0333622  0.033738349            5 
 1172000    1.0756237    -6.446038    470.12535   0.03342757  0.033730016            6 
 1173000    1.0596058   -6.3702234    472.77906    0.0335876  0.033722068            3 
 1174000    1.0699665   -6.3898019     471.7829  0.033488281   0.03371418            2 
 1175000    1.0788946   -6.4359507    469.97354  0.033331457  0.033706162            6 
 1176000    1.0630552   -6.4257111    472.21758   0.03346213    0.0336981            4 
 1177000     1.056144   -6.4551011    471.37519  0.033374058   0.03368999            5 
 1178000    1.0827261   -6.4559225    471.04582  0.033322426    0.0336818            2 
 1179000    1.0513479   -6.4461684    472.62255  0.033405608  0.033673393            4 
 1180000    1.0576575   -6.4395413    472.66485  0.033380286  0.033665158            4 
 1181000    1.0594891   -6.4448599    472.90624  0.033369054  0.033656791            4 
 1182000    1.0587252    -6.441064    472.32453  0.033299812  0.033648625            5 
 1183000    1.0728742   -6.4435298    473.11714  0.033327496  0.033640541            4 
 1184000    1.0569083   -6.4245367     472.6263  0.033264802  0.033631895            5 
 1185000    1.0795721   -6.4510263    473.46748  0.033295885   0.03362336            4 
 1186000    1.0660745   -6.4462181    473.12578  0.033243801  0.033615008            3 
 1187000    1.0663018   -6.4452455    472.14565  0.033146985   0.03360661            3 
 1188000    1.0521172   -6.4489615    475.01339  0.033320244  0.033598065            4 
 1189000    1.0690955   -6.4398658    475.62674  0.033335207  0.033589446            3 
 1190000    1.0576005   -6.4301356    475.19245  0.033276782   0.03358108            6 
 1191000    1.0467412   -6.4459829    475.33041  0.033258495  0.033572796            5 
 1192000    1.0570222   -6.4660433    475.49356     0.033242  0.033564304            5 
 1193000    1.0521272   -6.4056547    476.22689   0.03326536  0.033555957            2 
 1194000    1.0830551   -6.4314146    474.99708  0.033151667   0.03354733            3 
 1195000    1.0628244   -6.4421139    476.67079  0.033240641  0.033538654            5 
 1196000    1.0578856   -6.4365476    476.70985  0.033215569  0.033529976            4 
 1197000    1.0719176   -6.4531274    476.19071  0.033151679   0.03352152            4 
 1198000    1.0621862   -6.4358766    476.43495  0.033140996  0.033512799            2 
 1199000    1.0890581   -6.4654252    476.16288  0.033094445  0.033504205            1 
 1200000    1.0562649   -6.4457205    476.26251  0.033073786  0.033495766            4 
 1201000     1.038411   -6.4561093    478.85785  0.033226329  0.033487352            2 
 1202000    1.0913501   -6.4666752    477.86287  0.033129705  0.033478895            7 
 1203000    1.0662193   -6.4580464    478.75538  0.033163992  0.033470596            5 
 1204000     1.042675   -6.4430075    480.66058  0.033268313  0.033462416            2 
 1205000    1.0603607   -6.3805074    481.14714  0.033274353  0.033454326            3 
 1206000    1.0746593   -6.4909909    478.20535  0.033043488  0.033445971            4 
 1207000    1.0604814   -6.4432878    479.91333  0.033134033  0.033437488            3 
 1208000    1.0503696   -6.4270213    480.41254  0.033141042  0.033428967            3 
 1209000    1.0576689   -6.4021404    482.09016  0.033229264  0.033420898            2 
 1210000    1.0747758   -6.4473451    481.54024  0.033163928   0.03341256            3 
 1211000     1.051236    -6.448097    480.69125  0.033078121  0.033404162            5 
 1212000    1.0716491    -6.430098    481.99982  0.033140802   0.03339576            3 
 1213000    1.0541073   -6.4477107    482.53037  0.033149929  0.033387472            2 
 1214000    1.0545036   -6.4219281    482.63257  0.033129638  0.033379439            4 
 1215000    1.0582238   -6.4781734    481.90612  0.033052546  0.033371194            2 
 1216000    1.0542505    -6.472332    481.21812  0.032978216  0.033362575            3 
 1217000    1.0540801   -6.5133972    480.43849  0.032897733  0.033353961            4 
 1218000    1.0479505    -6.416842    482.80154  0.033032398   0.03334565            4 
 1219000    1.0654727   -6.4658005    482.66163  0.032995736  0.033336973            6 
 1220000    1.0668058    -6.486921    482.81671  0.032979283  0.033328454            3 
 1221000    1.0555427   -6.4806621    483.90335  0.033026437  0.033319891            3 
 1222000    1.0591916   -6.3936842    485.32621  0.033096441  0.033311631            4 
 1223000     1.035407   -6.4358409    484.89555  0.033040035  0.033303496            2 
 1224000    1.0505034   -6.4567481    485.95745  0.033085338  0.033295294            6 
 1225000    1.0720966   -6.4405245    484.29833  0.032945465   0.03328702            8 
 1226000    1.0329868   -6.4509999     483.5637  0.032868658  0.033278788            4 
 1227000    1.0456706   -6.4482576    484.70599   0.03291945  0.033270152            5 
 1228000    1.0627016   -6.4593226    484.90071  0.032905857   0.03326165            3 
 1229000    1.0600458   -6.4640593    485.82445  0.032941717  0.033253221            2 
 1230000    1.0506976   -6.4808037    485.17667  0.032871048  0.033244727            5 
 1231000    1.0321059   -6.4659138    485.28983  0.032852006  0.033236186            4 
 1232000    1.0430974   -6.4557345    486.45728  0.032904307  0.033227794            4 
 1233000    1.0706743   -6.4411378    487.66914  0.032959526  0.033219458            2 
 1234000    1.0566917   -6.4546343     487.4704  0.032919395  0.033211395            2 
 1235000     1.054619   -6.4790682    486.64993  0.032837377   0.03320325            2 
 1236000    1.0804598   -6.4551986    488.78352   0.03295466  0.033195151            4 
 1237000    1.0502207   -6.4778152    487.31222  0.032828902  0.033186792            4 
 1238000    1.0589877   -6.4563296     488.0013  0.032848768  0.033178337            3 
 1239000    1.0559485   -6.4442939    489.22232   0.03290438  0.033170085            3 
 1240000    1.0562142   -6.4310465    488.24972  0.032812481  0.033161647            5 
 1241000    1.0840444   -6.4327255    489.25245  0.032853374  0.033153152            6 
 1242000    1.0386708   -6.4386948    488.22183  0.032757772  0.033144573            2 
 1243000    1.0141567    -6.453654    487.67899  0.032695025  0.033135869            2 
 1244000    1.0336029   -6.4459881    489.55862  0.032794656  0.033127067            3 
 1245000    1.0551362   -6.4554767     489.2801  0.032749672  0.033118475            3 
 1246000    1.0397893   -6.4466949    490.53504  0.032807319  0.033109688            2 
 1247000    1.0638656   -6.4486373    490.90289  0.032805593  0.033100921            3 
 1248000    1.0411148   -6.4876112    489.43701  0.032681424  0.033092142            6 
 1249000    1.0603826   -6.4697867     490.2395  0.032708801  0.033083249            3 
 1250000    1.0526745   -6.4779104    490.29905  0.032686603  0.033074435            2 
 1251000    1.0491811   -6.4578095    491.46832  0.032738364  0.033065699            2 
 1252000    1.0373396   -6.4488809    491.77721  0.032732775  0.033057036            4 
 1253000    1.0568494   -6.4617684     491.5504  0.032691567  0.033048461            4 
 1254000    1.0274021   -6.5160629    489.87908  0.032554431  0.033039885            3 
 1255000    1.0604933   -6.4545534    491.69643  0.032649165  0.033031329            3 
 1256000    1.0351241   -6.5007371    492.73468  0.032692057  0.033022917            5 
 1257000    1.0313084   -6.4588286    494.57484  0.032788043  0.033014751            7 
 1258000     1.060767   -6.4415032    495.61524  0.032830898  0.033006794            3 
 1259000    1.0323419   -6.4791382    494.94453  0.032760427  0.032998627            4 
 1260000    1.0539064   -6.4805787      493.424  0.032633863  0.032990444            2 
 1261000    1.0754357   -6.4805538    494.73671  0.032694734  0.032982288            3 
 1262000    1.0568343   -6.4624763     494.3298  0.032641957   0.03297401            2 
 1263000    1.0437257   -6.4955201    495.81624  0.032714188  0.032965713            4 
 1264000    1.0306346   -6.4369257    498.58853  0.032871079  0.032957501            9 
 1265000    1.0676688   -6.4746876    496.34921  0.032697576  0.032949385            2 
 1266000    1.0780303   -6.4441662    498.38226  0.032805573  0.032941317            8 
 1267000    1.0577574   -6.4539213     498.6307  0.032796021  0.032933468            5 
 1268000    1.0343128   -6.4432668    499.05756   0.03279821  0.032925372            7 
 1269000    1.0666224   -6.4844491    495.72725  0.032553668  0.032917168            6 
 1270000    1.0522608   -6.5337201    495.71521  0.032527244  0.032908761            8 
 1271000    1.0516621   -6.4623726    498.76724   0.03270176  0.032900502            3 
 1272000    1.0646307   -6.4911909    499.12127  0.032699244  0.032892478            3 
 1273000    1.0502052    -6.462068    499.49433  0.032697979  0.032884334            3 
 1274000    1.0463538   -6.5050101    499.52743  0.032674479  0.032876069            6 
 1275000    1.0471901   -6.4763667    500.06934  0.032684271  0.032868053            3 
 1276000     1.061871   -6.4957094    500.16857  0.032665136  0.032860124            2 
 1277000    1.0356491   -6.4767121    500.93708  0.032689708  0.032851897            3 
 1278000    1.0294765   -6.4992103    498.75758  0.032522012  0.032844023            3 
 1279000    1.0633777   -6.4686198    499.44771   0.03254155  0.032835887            4 
 1280000    1.0643594   -6.5544134    497.95871  0.032419187  0.032827639            4 
 1281000    1.0576617   -6.4803341     501.3553  0.032614839  0.032819342            4 
 1282000    1.0299729   -6.4692386    501.09958  0.032572776  0.032811151            4 
 1283000    1.0599264    -6.478421    502.33589  0.032627688  0.032802844            3 
 1284000     1.023186   -6.4976677    501.15349  0.032525538  0.032794611            4 
 1285000    1.0322629   -6.4762564    501.05501   0.03249384  0.032786426            2 
 1286000    1.0373113   -6.5002696    500.78359  0.032450984  0.032778069            2 
 1287000    1.0378287   -6.4618346    502.97435  0.032567621  0.032769503            7 
 1288000    1.0275961    -6.512069    501.52019  0.032448252  0.032761036            2 
 1289000    1.0604143   -6.4580072    504.12394  0.032591411  0.032752651            6 
 1290000    1.0301071   -6.4917772    503.82895   0.03254709  0.032744253            6 
 1291000    1.0642085   -6.4849986    503.23325  0.032483427  0.032735793            2 
 1292000    1.0362793   -6.5483409    500.71967   0.03229616  0.032727418            7 
 1293000    1.0401306   -6.4957537    502.10908   0.03236073  0.032718999            5 
 1294000    1.0482458   -6.4816308    502.26077   0.03234549  0.032710702            3 
 1295000    1.0376421   -6.4922735    503.44604  0.032396785  0.032701895            4 
 1296000    1.0625684   -6.5226957     501.9741  0.032277141  0.032693294            6 
 1297000    1.0477642   -6.4707217    503.63189   0.03235877  0.032684781            5 
 1298000    1.0440799   -6.4856422    504.56666  0.032393854  0.032676169            4 
 1299000    1.0523486   -6.4658018     505.2108  0.032410238  0.032667881            4 
 1300000    1.0370421   -6.4696489    506.16756  0.032446639  0.032659633            1 
 1301000    1.0422272   -6.4862086     507.0513  0.032478305  0.032651385            4 
 1302000    1.0314176   -6.4724122    506.93851  0.032446141   0.03264284            2 
 1303000    1.0159124   -6.4900675    505.94689  0.032357821   0.03263435            4 
 1304000    1.0331176   -6.4493707    505.91598  0.032331031  0.032625985            8 
 1305000    1.0373423   -6.4843529     505.0319  0.032249802  0.032617576            2 
 1306000    1.0375265   -6.5071496    505.69033  0.032267122  0.032609071            3 
 1307000    1.0318332   -6.4447956    505.49906  0.032230239  0.032600373            3 
 1308000    1.0452707   -6.4973562    503.81966  0.032098602  0.032591532            7 
 1309000    1.0235535   -6.4980745    507.04186  0.032279212   0.03258292            3 
 1310000    1.0466518   -6.5135544    504.72867  0.032107422  0.032574053            7 
 1311000    1.0218079    -6.477866    504.66961  0.032079177  0.032565249            6 
 1312000    1.0438937   -6.4355385    508.46229  0.032295623  0.032556599            2 
 1313000    1.0434899   -6.4959733     506.7338  0.032161323  0.032547737            5 
 1314000    1.0220128   -6.4886282    505.80272  0.032077798  0.032538955            3 
 1315000    1.0268351   -6.5070243    505.31747  0.032022654  0.032530154            4 
 1316000    1.0483055    -6.484246    507.59347  0.032142444  0.032521267           10 
 1317000    1.0259587   -6.4990298     507.9685  0.032141768  0.032512237            2 
 1318000    1.0520919   -6.4977454    508.00746  0.032119845  0.032503322            4 
 1319000    1.0343051   -6.5401151    506.28734  0.031986817  0.032494318            4 
 1320000    1.0555307    -6.494876    508.64259  0.032111275  0.032485234            4 
 1321000    1.0313134   -6.5150348    507.83985  0.032036327  0.032476319            2 
 1322000    1.0545913   -6.4860014    507.89038  0.032015278  0.032467282            4 
 1323000    1.0635859   -6.4878741    510.92912  0.032182484  0.032458313            8 
 1324000    1.0440151   -6.5245322    507.96643  0.031971704  0.032449336            4 
 1325000    1.0340045   -6.4525397     509.7405  0.032059151  0.032440332            1 
 1326000    1.0245517   -6.5315573    509.52694  0.032021552  0.032431413            4 
 1327000    1.0339744   -6.4854382    510.65126  0.032068027   0.03242244            3 
 1328000    1.0380823   -6.5416199    510.32928  0.032023674  0.032413511            6 
 1329000    1.0351567   -6.5061878    510.11016  0.031985839  0.032404625            3 
 1330000    1.0709732   -6.5212678    510.24884  0.031970479  0.032395926            3 
 1331000    1.0389103   -6.4811984    511.83712    0.0320459  0.032386993            3 
 1332000    1.0441245   -6.4695284     512.2917  0.032050282  0.032378197            3 
 1333000    1.0247986   -6.5091193    512.29343  0.032026346  0.032369524            7 
 1334000    1.0383203   -6.4972383    512.53777  0.032017602  0.032360884            3 
 1335000    1.0327786   -6.5290593    512.19791  0.031972404  0.032352331            4 
 1336000    1.0291135   -6.4891584    514.62439  0.032099825  0.032343741            4 
 1337000    1.0351095   -6.5282175    512.62268  0.031951052  0.032335007            8 
 1338000    1.0419631   -6.5477961    513.70175  0.031994379  0.032326345            2 
 1339000    1.0527426   -6.4630618    515.27051  0.032068117  0.032317729            4 
 1340000    1.0673699   -6.4842115    514.71206  0.032009457  0.032309156            3 
 1341000     1.034696   -6.5118564    514.57573  0.031977115  0.032300493            4 
 1342000    1.0437536    -6.493404    514.28612  0.031935303  0.032291674            3 
 1343000    1.0408876    -6.484944    516.03133  0.032019815  0.032282908            9 
 1344000    1.0349992   -6.4683035    517.38627  0.032080002  0.032274419            4 
 1345000    1.0320936   -6.5111882    516.67413  0.032012028  0.032265834            3 
 1346000    1.0391643   -6.5220497    515.82592   0.03193573  0.032257436            5 
 1347000    1.0469684   -6.5151571    515.13759  0.031869438  0.032248618            3 
 1348000    1.0516751   -6.4896508    516.48369  0.031929011  0.032239952            3 
 1349000    1.0335699   -6.4994656    516.27945  0.031892726  0.032231203            2 
 1350000    1.0599302   -6.5147548    515.83274  0.031841527  0.032222539            1 
 1351000    1.0512181    -6.522453    516.84907  0.031880648  0.032213663            7 
 1352000    1.0458262   -6.4793868    517.53666  0.031899449  0.032204907            2 
 1353000    1.0307556   -6.5147322    516.31914  0.031800883  0.032196167            2 
 1354000    1.0503481   -6.4685881    518.60178  0.031917884  0.032187436            4 
 1355000    1.0334448   -6.5044589     518.0692  0.031861575  0.032178719           12 
 1356000    1.0259406   -6.5147048    517.37604  0.031795479  0.032170095            4 
 1357000    1.0324516    -6.509307    517.20088  0.031761292  0.032161425            4 
 1358000    1.0294425    -6.521673    517.34957  0.031747028  0.032152685            2 
 1359000    1.0504697   -6.5149058    519.30388  0.031843505  0.032143854            3 
 1360000    1.0317535   -6.5024388    519.71487  0.031845274  0.032135069            3 
 1361000    1.0416376    -6.487299    519.60655  0.031815243  0.032126368            4 
 1362000    1.0255359   -6.4581936    520.10327  0.031822275  0.032117752            3 
 1363000    1.0463459   -6.4961755    520.52162  0.031824506  0.032109018            1 
 1364000     1.045821   -6.5218969    518.56191  0.031681446  0.032100157            3 
 1365000     1.046994   -6.5207037    520.00383  0.031746266  0.032091215            4 
 1366000    1.0275117   -6.5080597    519.82105  0.031711875  0.032082268            3 
 1367000    1.0162051    -6.504449    520.75375  0.031745534  0.032073406            7 
 1368000    1.0463141   -6.4849936    521.28204   0.03175451  0.032064635            2 
 1369000    1.0154714   -6.4781949     522.0123  0.031775767  0.032056019            2 
 1370000    1.0342988   -6.5208139    519.84278  0.031620607  0.032047181            4 
 1371000    1.0189394   -6.5497069    520.26241  0.031623049  0.032038199            2 
 1372000    1.0394718   -6.5273615    521.57752  0.031679879  0.032029332            7 
 1373000    1.0229884    -6.540298    521.00271  0.031621917  0.032020389            2 
 1374000    1.0359025   -6.4851266    522.52581  0.031691279  0.032011759            7 
 1375000    1.0434376   -6.5503075    523.86895  0.031749634  0.032003263            2 
 1376000    1.0249363   -6.5433898    523.43634   0.03170036  0.031994757            2 
 1377000    1.0286334   -6.4931367    524.75934  0.031757404  0.031986293            4 
 1378000    1.0388626   -6.5556478    523.55161  0.031661321  0.031977898            4 
 1379000    1.0478835   -6.5216077    524.27036  0.031681796  0.031969373            6 
 1380000    1.0218935   -6.5109949    523.71073  0.031625044  0.031960888            4 
 1381000    1.0360635   -6.5370344    523.77677  0.031606129  0.031952314            4 
 1382000    1.0146366   -6.5609124     524.5646  0.031630764  0.031943916            4 
 1383000    1.0577375   -6.5350472    524.89995    0.0316281  0.031935303            3 
 1384000    1.0445516   -6.4949154    526.56475  0.031705489  0.031926843            3 
 1385000    1.0384145   -6.5163075    525.77095  0.031634835  0.031918314            3 
 1386000    1.0329577   -6.4766193    527.41194  0.031710675  0.031909892            5 
 1387000    1.0096889   -6.5170527    526.15923  0.031612547  0.031901337            3 
 1388000    1.0316442   -6.5173934    525.54512  0.031552901  0.031892803            2 
 1389000    1.0267845   -6.5454104    526.68731  0.031598711  0.031884208            3 
 1390000    1.0143055   -6.5350818    526.48333  0.031563749  0.031875776            7 
 1391000    1.0283841    -6.546789    527.20115  0.031584061  0.031867411            3 
 1392000    1.0504396   -6.5205562    527.89903  0.031603151  0.031858985            2 
 1393000    1.0149825   -6.5408723    526.14698  0.031475651   0.03185063            2 
 1394000     1.035196   -6.5314733    529.63058  0.031661321  0.031842273            5 
 1395000    1.0338951   -6.5498165    527.61289  0.031518094   0.03183378            5 
 1396000    1.0455763   -6.5056385    528.24428  0.031533207  0.031825286            3 
 1397000    1.0274501   -6.5110099    527.03652   0.03143859  0.031817007            3 
 1398000     1.040278   -6.5375464    529.20577  0.031545409  0.031808567            5 
 1399000    1.0312035   -6.5049376    528.88089  0.031503508  0.031799939            2 
 1400000    1.0037558   -6.5299631     529.2747  0.031504446  0.031791429            4 
 1401000    1.0419751    -6.530955    530.34156  0.031545418  0.031782702            4 
 1402000    1.0336937   -6.5059912    530.97514  0.031560576  0.031774218            4 
 1403000    1.0431062    -6.501166    531.86313  0.031590825  0.031765741            1 
 1404000    1.0334874   -6.5355069    530.29412  0.031475197  0.031757257           14 
 1405000      1.00929   -6.5717022    529.17331  0.031386318  0.031748586            3 
 1406000    1.0278817   -6.5628385    531.95412  0.031528812  0.031740095            4 
 1407000     1.010766   -6.5319996     530.8163  0.031439013  0.031731523            5 
 1408000     1.026071   -6.5580682    531.61068    0.0314637  0.031723042            4 
 1409000    1.0054907   -6.5616006    530.34528  0.031366529  0.031714443            9 
 1410000    1.0226704   -6.5444656    530.98798  0.031382268  0.031705819            3 
 1411000    1.0231756   -6.4922648    532.14666  0.031428459  0.031697248            4 
 1412000    1.0521292   -6.5425442    532.61745  0.031433986  0.031688595           18 
 1413000    1.0412301   -6.5036097    533.92687  0.031488964  0.031680033            5 
 1414000   0.99935725   -6.5576247    532.13207  0.031360919  0.031671554            7 
 1415000    1.0122167   -6.5092542    532.89282  0.031383558  0.031662984            3 
 1416000    1.0368644   -6.5379521    531.81751  0.031298112  0.031654349            6 
 1417000    1.0152072   -6.5275954    531.95583  0.031284159  0.031645605            5 
 1418000    1.0291385   -6.5582787    531.80839  0.031253431  0.031637078            2 
 1419000    1.0463859    -6.519229    534.51919  0.031390603  0.031628762            6 
 1420000    1.0398165   -6.5357293    535.36826  0.031418325  0.031620414            4 
 1421000    1.0225989   -6.5044904    535.52545  0.031405433  0.031612094            5 
 1422000    1.0357304   -6.5082891    536.36833  0.031432743  0.031603769            4 
 1423000    1.0445764   -6.5308839    533.15458  0.031222451   0.03159546            4 
 1424000   0.99181537   -6.5393137    533.50716  0.031221159  0.031586869            4 
 1425000    1.0335477    -6.554665    536.85313   0.03139492  0.031578324            4 
 1426000    1.0159435   -6.5184168    534.61013  0.031241826  0.031569675            8 
 1427000    1.0182111   -6.5454513    535.21243  0.031255106  0.031561043            3 
 1428000    1.0020658   -6.5082531    535.63981  0.031258159  0.031552549            7 
 1429000    1.0371997   -6.5275814    537.50394  0.031344993  0.031543949            2 
 1430000    1.0236399   -6.5140574    536.69352  0.031275846  0.031535347            3 
 1431000    1.0400433   -6.5308451    536.78386  0.031259251  0.031526606            4 
 1432000    1.0462174   -6.5557923    535.97118  0.031190129   0.03151807            4 
 1433000    1.0298831   -6.5723173     535.7608  0.031156129  0.031509482            2 
 1434000    1.0434256   -6.5225419    536.03742  0.031150478  0.031500963            2 
 1435000    1.0436018    -6.523901    538.15007  0.031251456  0.031492513            5 
 1436000    1.0212356   -6.5573141    538.38076   0.03124308   0.03148402            6 
 1437000    1.0427511   -6.5276272    538.48503  0.031227385  0.031475696            3 
 1438000    1.0047281   -6.5292923    537.79234  0.031165527  0.031467396            6 
 1439000    1.0294485   -6.5469797    539.62032  0.031249729   0.03145901            3 
 1440000     1.005969   -6.5885658     539.2539  0.031206823  0.031450426            3 
 1441000    1.0183028   -6.5663269    538.68744  0.031152408  0.031441846            4 
 1442000    1.0052652   -6.5128498    539.52042  0.031178942  0.031433124            7 
 1443000    1.0176768   -6.5063298     541.2742  0.031258617  0.031424636            4 
 1444000    1.0239967   -6.5558687    539.83309  0.031153803  0.031416075            2 
 1445000    1.0624295   -6.5271632     540.4023  0.031165069  0.031407668            3 
 1446000   0.99403343   -6.5609236    539.84889  0.031111623  0.031398991            2 
 1447000     1.012115   -6.5751018    539.53428  0.031072004  0.031390386            6 
 1448000    1.0347693   -6.5069835    541.37854  0.031156684  0.031381949            2 
 1449000    1.0287143   -6.5255162    541.81652   0.03116037   0.03137341            4 
 1450000    1.0104264   -6.5504654    540.33039  0.031053471  0.031364684            5 
 1451000    1.0146891   -6.5654025    539.85697   0.03100488  0.031355995            5 
 1452000    1.0367254   -6.5379612    539.80314  0.030980437   0.03134714            6 
 1453000    1.0240753   -6.5810548    539.29556  0.030930005  0.031338312            2 
 1454000    1.0464896   -6.5425239    541.30018  0.031023623  0.031329366            2 
 1455000    1.0202004   -6.5615394    542.53351  0.031072939   0.03132066            4 
 1456000    1.0173074   -6.5322214    544.29534  0.031152434  0.031312107            5 
 1457000    1.0119156   -6.5131186    543.36095  0.031077611  0.031303553            6 
 1458000     1.022979   -6.5668306    540.60181  0.030898595  0.031294982            5 
 1459000    1.0186179   -6.5426419    541.92916  0.030953231  0.031286132            2 
 1460000    1.0326337   -6.5558336    543.14679  0.031001529  0.031277311            5 
 1461000    1.0272747   -6.5536584    541.42056  0.030881848  0.031268543            6 
 1462000     1.012353    -6.502333    543.45301  0.030976574  0.031259809            3 
 1463000     1.020318   -6.5338316    543.23894  0.030943207  0.031251077            5 
 1464000    1.0471378   -6.5369494    544.09968  0.030971066  0.031242202            4 
 1465000     1.012287    -6.526489    544.92319  0.030996769  0.031233538            5 
 1466000    1.0061834   -6.5478007    543.55696  0.030897963  0.031224706            5 
 1467000   0.99907573   -6.5314287    544.60363  0.030936357  0.031215807            3 
 1468000    1.0294546   -6.5595198    543.52778  0.030854211  0.031206939            3 
 1469000    1.0263875    -6.536525    544.11248  0.030866376  0.031197985            2 
 1470000    1.0221494   -6.5502817     542.8909  0.030776128  0.031189357            4 
 1471000    1.0141641   -6.4878066    544.88619  0.030868241  0.031180641            3 
 1472000    1.0176392    -6.570696    544.16392  0.030806381  0.031171774            4 
 1473000    1.0188657   -6.5697527    543.79241  0.030764449  0.031162808            5 
 1474000    1.0200689   -6.5092433     546.0066  0.030868758  0.031153799            4 
 1475000    1.0133856   -6.5858071    542.55283  0.030652702  0.031144834            3 
 1476000    1.0322413   -6.6087865    543.06306  0.030660742  0.031135783            2 
 1477000    1.0250821   -6.5712527      544.068  0.030696683  0.031126561            4 
 1478000    1.0272387   -6.5519823    544.60168  0.030706004  0.031117231            4 
 1479000    1.0183418   -6.5592598    544.71028  0.030691361  0.031107952            3 
 1480000    1.0053717   -6.5453058    545.39254  0.030709039  0.031098922            4 
 1481000    1.0499449   -6.5043407    545.41611   0.03068963  0.031089842            4 
 1482000    1.0171778   -6.5670707    543.64542  0.030569356   0.03108074            5 
 1483000    1.0345563   -6.5362854    545.52621  0.030654428  0.031071542            4 
 1484000    1.0301837   -6.5740019    545.41349  0.030627442  0.031062242            5 
 1485000    1.0347523    -6.556824    546.56718  0.030671559  0.031052901            5 
 1486000    1.0244425   -6.5612515     547.7665  0.030718175  0.031043694            8 
 1487000    1.0479519   -6.5629903     544.4527  0.030511808  0.031034351            3 
 1488000    1.0028779   -6.5953485    545.36738  0.030542528  0.031025095            4 
 1489000   0.99697602   -6.5855242    545.84925  0.030548984  0.031015861            6 
 1490000    1.0123125   -6.5606104    545.88761  0.030530627  0.031006514            3 
 1491000   0.99731169   -6.5678533    545.63247   0.03049589  0.030997099            5 
 1492000    1.0143487   -6.5780949    546.70531  0.030535372  0.030987693            5 
 1493000    1.0196533   -6.5922507    544.51748  0.030392804   0.03097828            5 
 1494000    1.0061059   -6.5790394    545.98024  0.030454052  0.030968841            3 
 1495000    1.0139438   -6.5423523     545.1626  0.030388105  0.030959375            3 
 1496000    1.0455239   -6.5582077    544.60995  0.030337007  0.030949661            4 
 1497000   0.99565597   -6.5653226    545.56734  0.030370037  0.030940143            3 
 1498000    1.0453999   -6.5797699    546.45986  0.030399414  0.030930493            3 
 1499000   0.99645026   -6.5673904     547.5381  0.030439076  0.030920769            3 
 1500000    1.0080821    -6.555482    546.81312  0.030378507  0.030911034            4 
 1501000    1.0287151   -6.5548417    547.97616  0.030422838  0.030901377            6 
 1502000    1.0119276   -6.5804697    547.34839  0.030367754  0.030891763            5 
 1503000    1.0132631   -6.6225157    545.07891  0.030221718  0.030881954            2 
 1504000    0.9864798   -6.5735822    548.38173  0.030384626  0.030872242            6 
 1505000    1.0300006   -6.5801251    548.49704  0.030370822  0.030862383            3 
 1506000   0.99411366   -6.5834609    547.34002  0.030286632  0.030852482            6 
 1507000    1.0077495   -6.5904137    546.85277  0.030239591  0.030842589            7 
 1508000    1.0090533   -6.5957871    546.55186   0.03020291  0.030832864            3 
 1509000   0.99237995   -6.5541085    550.10837    0.0303793  0.030823192            2 
 1510000    1.0071959    -6.556595    548.34913  0.030262093  0.030813721            9 
 1511000    1.0307785   -6.5784267    547.62808  0.030202299  0.030803948            2 
 1512000    1.0235214   -6.5838112    547.77005  0.030190149  0.030794311            3 
 1513000    1.0174839   -6.5953548    549.63868  0.030273115  0.030784592            2 
 1514000   0.97884067   -6.5885681    548.94594   0.03021499  0.030774671            5 
 1515000    1.0244641   -6.5491817    552.18069  0.030372975  0.030765158            4 
 1516000   0.99997469   -6.5871755     549.0669  0.030181778  0.030755592            3 
 1517000   0.99860606   -6.5741389    550.13018  0.030220291  0.030745798           11 
 1518000    1.0070187   -6.5942897    551.94576  0.030300053  0.030736126            6 
 1519000    1.0206397   -6.5538024    550.98179  0.030227221  0.030726494            8 
 1520000    1.0092712   -6.5565667    551.72002  0.030247808  0.030716908           10 
 1521000    1.0160545   -6.5912258    551.88035  0.030236705  0.030707358            3 
 1522000    0.9994734   -6.5737256     552.3506  0.030242587   0.03069772            8 
 1523000   0.99906858   -6.6164976    552.67585  0.030240526  0.030688167            2 
 1524000    1.0153948   -6.6066137    552.46961  0.030209406  0.030678782            3 
 1525000    1.0082853   -6.6000468    551.72532  0.030148925   0.03066927            3 
 1526000    1.0147553   -6.5884013    552.95537   0.03019634  0.030659895            3 
 1527000    1.0272563   -6.5951695    553.18655  0.030189181  0.030650429            3 
 1528000    1.0068571   -6.5939092    554.14949   0.03022194  0.030640837            9 
 1529000    1.0232572   -6.5685693    555.16579  0.030257564  0.030631343            4 
 1530000    1.0314091   -6.5597508    556.50923   0.03031096  0.030622166            4 
 1531000    0.9985578   -6.6172293    554.24549  0.030167945  0.030612903            3 
 1532000   0.98720453   -6.5650805    555.60418   0.03022216  0.030603415            5 
 1533000    1.0032751   -6.5983824    555.09835  0.030174948  0.030593902           11 
 1534000    1.0025783   -6.5927471    552.13326  0.029994201  0.030584392            4 
 1535000    1.0070058   -6.5661437    556.73782  0.030224638  0.030574871            4 
 1536000    1.0194962   -6.5531808    556.70947  0.030203422  0.030565545            5 
 1537000   0.99758771   -6.6049741    554.52798  0.030065494   0.03055622            4 
 1538000    1.0120851   -6.5650877    554.90632  0.030066446   0.03054691            6 
 1539000    1.0034043   -6.5689731    559.10758  0.030274398  0.030537742            2 
 1540000   0.98125193   -6.5547215    557.72315  0.030179824   0.03052847            8 
 1541000    1.0094327   -6.5882679    556.51858  0.030095099  0.030519243            7 
 1542000   0.99782088   -6.5569639    557.21926  0.030113449  0.030510085            6 
 1543000    1.0341828   -6.5905615    556.64915  0.030063143  0.030500875            2 
 1544000   0.99525815    -6.574087    557.87402  0.030109781  0.030491533            4 
 1545000    1.0345539   -6.6374272    557.16871   0.03005225  0.030482335            6 
 1546000     0.995283   -6.5941229    559.05381  0.030134423  0.030473017            4 
 1547000    1.0010404   -6.5945059    557.60764  0.030037041  0.030463781            2 
 1548000    1.0110556   -6.5703076    560.10123  0.030151875  0.030454677            4 
 1549000    1.0090165   -6.5561074    560.15648  0.030135382  0.030445697            5 
 1550000    1.0232207   -6.5827634    560.15909   0.03011608  0.030436666            5 
 1551000     1.001687   -6.5816992    560.51002  0.030115518  0.030427821            3 
 1552000   0.99173636   -6.5393973    560.99038  0.030121906  0.030418989            5 
 1553000   0.99192874   -6.5558947    561.11631  0.030109268   0.03041011            4 
 1554000    1.0210551   -6.6179423    560.40073  0.030051519  0.030401196            3 
 1555000   0.98602865   -6.6162206    560.73797  0.030050267  0.030392142            4 
 1556000    1.0056129   -6.5848162    559.49188  0.029964218  0.030383023            7 
 1557000   0.98161105   -6.5566677    562.00825  0.030079654  0.030374001            3 
 1558000    1.0039977   -6.5730952    560.84448    0.0299981  0.030365223            2 
 1559000    1.0015443    -6.578881    560.69313  0.029970768   0.03035633            8 
 1560000    1.0171826   -6.5702637    562.25247  0.030034854  0.030347481            5 
 1561000    1.0015526   -6.5668665    562.47727  0.030027614   0.03033858            4 
 1562000    1.0217778   -6.6024695    561.23224  0.029941968  0.030329625            7 
 1563000   0.99392488   -6.6303922     561.3683  0.029930065  0.030320586            3 
 1564000    1.0229959   -6.5878648    562.89347  0.029992193  0.030311492            5 
 1565000   0.99963208   -6.6270997    562.18656  0.029935387  0.030302473            8 
 1566000   0.99531017   -6.6005216    562.20975  0.029917505  0.030293414            5 
 1567000    1.0099504   -6.5945722    563.38526  0.029960927  0.030284246            4 
 1568000    1.0136614    -6.606591    563.54664  0.029950395  0.030275259            2 
 1569000    1.0161458     -6.61496    564.02688  0.029956813  0.030266426            4 
 1570000   0.97206106   -6.5945562    563.73561  0.029922272  0.030257596            8 
 1571000    1.0063547   -6.5947123    563.38779  0.029884776  0.030248804            7 
 1572000    1.0009448   -6.5883772    567.01396  0.030057992  0.030239966            4 
 1573000   0.99831294   -6.6180537    565.17832  0.029941636  0.030231171            5 
 1574000    1.0253457   -6.5904841    566.07691  0.029970188  0.030222344            4 
 1575000    1.0131264   -6.6537517    562.82774  0.029779245  0.030213506            4 
 1576000   0.97117362   -6.6095474       565.49  0.029901121  0.030204741            4 
 1577000     1.005588   -6.5798308    566.95819  0.029959744   0.03019603            3 
 1578000   0.98576208    -6.618723    566.68528  0.029926346   0.03018741            9 
 1579000    1.0155356   -6.6407733    565.85657  0.029863657   0.03017867            5 
 1580000    1.0120182     -6.60907    565.17065  0.029808579  0.030169833            3 
 1581000   0.98829561   -6.6343044    565.93696  0.029830116  0.030161051            4 
 1582000   0.98405272   -6.6323688     568.5537  0.029949099   0.03015222            6 
 1583000   0.98351458   -6.5726903     569.1586  0.029962024  0.030143503            3 
 1584000   0.98792361   -6.5825413    566.57632  0.029807256  0.030134794            2 
 1585000   0.99411417   -6.5831423    569.57469  0.029946093  0.030125957            5 
 1586000   0.99540889   -6.6196131    566.72338  0.029777395   0.03011719            6 
 1587000    1.0123525    -6.619544    569.11122  0.029884017  0.030108397            7 
 1588000   0.98324647   -6.5969178    568.09355  0.029811794  0.030099772            1 
 1589000   0.97784868   -6.5903907    569.39154  0.029861104  0.030091026            5 
 1590000    0.9875525   -6.6096793    567.37155  0.029736454  0.030082295            3 
 1591000   0.97639718   -6.6084473    568.56415   0.02978023  0.030073415            5 
 1592000   0.99520715   -6.5886963    568.43576  0.029754803  0.030064709            4 
 1593000   0.97711425    -6.606399    569.08116  0.029769887  0.030055982            2 
 1594000   0.99163528   -6.6327748    568.80933     0.029737  0.030047185            5 
 1595000   0.97979685   -6.5999368    569.34975  0.029746591  0.030038341            4 
 1596000   0.98949167   -6.6128274    569.12162  0.029716041  0.030029552            8 
 1597000   0.97787434   -6.5923327    568.81023  0.029681185  0.030020653            4 
 1598000     1.005724   -6.6188592      568.754  0.029659679   0.03001166            7 
 1599000   0.98343263   -6.6062314    568.71469  0.029639081  0.030002736            4 
 1600000    1.0022152   -6.6304674    568.98124   0.02963444  0.029993882            9 
 1601000   0.97923199   -6.5866107    569.83342  0.029660286  0.029984904            6 
 1602000    1.0052404   -6.6304858    568.52433  0.029573675  0.029976044            7 
 1603000   0.98833984    -6.644685    567.99084  0.029527492  0.029966986            7 
 1604000   0.99972063   -6.5679673    571.06076  0.029668576  0.029958048            3 
 1605000    1.0112993   -6.5944216    570.52044  0.029622038  0.029949155            4 
 1606000    1.0157764   -6.6198358    571.35416  0.029646854  0.029940208            5 
 1607000    0.9900032   -6.6297453    570.26504  0.029571927   0.02993125            2 
 1608000    1.0042979   -6.6319164    569.78095  0.029528449  0.029922199            4 
 1609000   0.99928357   -6.5661955    573.28964  0.029691819  0.029913342            4 
 1610000    1.0055241   -6.6025118    571.32328  0.029571598  0.029904509            2 
 1611000   0.99346312   -6.5986795    571.86933  0.029581488  0.029895586            3 
 1612000    0.9867046   -6.5900926    572.86992  0.029614864  0.029886527            7 
 1613000    1.0095575   -6.6093364    572.79827  0.029592802  0.029877661            5 
 1614000   0.99946841   -6.6359708    571.79428  0.029522629  0.029868772            5 
 1615000   0.99648242   -6.6533989     572.9977  0.029566445   0.02985981            7 
 1616000   0.96321377   -6.5852669    571.81896  0.029487364  0.029850923            3 
 1617000   0.98317774   -6.6221721    571.81706   0.02946903   0.02984226            3 
 1618000    1.0024871   -6.6164482    573.91742  0.029558993  0.029833439            6 
 1619000   0.98186193   -6.5958165    575.49814  0.029622099   0.02982451            6 
 1620000   0.99624419   -6.6456624    572.67369  0.029458523  0.029815618            4 
 1621000   0.98739298   -6.6353886     573.1262  0.029463613  0.029806599            5 
 1622000   0.99071548   -6.5938487    574.28827  0.029505151  0.029797749            7 
 1623000   0.98689953   -6.5972916    573.25134  0.029433731  0.029788828            6 
 1624000   0.98083334   -6.6319359    574.58759  0.029484174   0.02977989            2 
 1625000    0.9935736   -6.6324725    574.87446  0.029480742  0.029770966            5 
 1626000   0.98036699   -6.6122514    573.34196  0.029384069  0.029761897            3 
 1627000    1.0000782   -6.5972254    574.52499  0.029426603  0.029752843            8 
 1628000    0.9925269   -6.6344746    576.12024  0.029490184  0.029743936            3 
 1629000    1.0000345   -6.6469136    575.29416  0.029429822  0.029735078            6 
 1630000    1.0247513   -6.6077496    575.37224  0.029415759  0.029726261            4 
 1631000     1.003412   -6.6129511    576.38186  0.029449308  0.029717582            6 
 1632000   0.98382509   -6.6374033    577.13488  0.029469714  0.029708856            7 
 1633000    0.9901304   -6.6346267    576.04843  0.029396225  0.029699996            3 
 1634000    1.0238602   -6.6525382    576.16408  0.029384133   0.02969119            4 
 1635000   0.99574355   -6.6306375    577.23025  0.029420502  0.029682364            6 
 1636000   0.96113677   -6.6115587    578.35749  0.029459937  0.029673611            5 
 1637000   0.99807704   -6.6604017    577.36138  0.029391233  0.029664938            4 
 1638000   0.98047594   -6.6297998    579.49091  0.029481629  0.029656277            3 
 1639000   0.98696087   -6.6635875    578.42407    0.0294094  0.029647645            3 
 1640000   0.99104772   -6.6313961    579.85354  0.029464103  0.029639039            4 
 1641000   0.98050426   -6.6052437    579.59299  0.029432916  0.029630637            4 
 1642000   0.98914182   -6.6765884    578.05823    0.0293371  0.029622131            4 
 1643000   0.99670039   -6.6446689    580.57177  0.029446732  0.029613641            6 
 1644000    0.9982354   -6.6121229     581.6964  0.029485827   0.02960524            3 
 1645000   0.98909804   -6.5929853    583.29695  0.029548984  0.029596897            4 
 1646000     0.982948   -6.6447343     581.2126  0.029425506  0.029588575            5 
 1647000   0.98629851   -6.5892105    581.16965  0.029405467   0.02958011            5 
 1648000   0.99434328   -6.6380903    578.95994  0.029275887  0.029571566            6 
 1649000    0.9877352   -6.6335678    581.38477  0.029380674  0.029563034            7 
 1650000   0.99533918   -6.6531524    580.34864  0.029310537  0.029554513            3 
 1651000   0.99602998   -6.6172224    582.64455  0.029408669  0.029546015            2 
 1652000     1.006721   -6.6322972    580.72504   0.02929404  0.029537361            6 
 1653000   0.97610233   -6.6447022    581.37141  0.029308903  0.029528838            2 
 1654000   0.97600965   -6.6124185    580.70481  0.029257598  0.029520392            5 
 1655000   0.97965957   -6.6112705    583.89729  0.029400669  0.029511851            6 
 1656000    1.0034968   -6.6425556    583.18418   0.02934703  0.029503323            5 
 1657000   0.98272791   -6.6364414    582.17157  0.029278393  0.029494846            4 
 1658000    0.9821548   -6.6365435    582.38345  0.029271384  0.029486272           10 
 1659000   0.97422689   -6.6304158    584.22744  0.029346365  0.029477831            3 
 1660000   0.98549628   -6.6068064    582.80962  0.029257511  0.029469356            8 
 1661000   0.98942032   -6.6449809    582.55825  0.029227285  0.029460849            6 
 1662000   0.97904034   -6.6030167    583.52608  0.029258227  0.029452274            7 
 1663000   0.98768059   -6.6274678     584.5191  0.029290394  0.029443743            9 
 1664000   0.98308209   -6.6114818    584.37007  0.029265328  0.029435341            4 
 1665000   0.96774353   -6.6369877    585.35388  0.029296991  0.029426786            4 
 1666000   0.97273053   -6.6203541    585.50432  0.029286931  0.029418312            4 
 1667000    1.0197094   -6.6532019    583.46727   0.02916753  0.029409818            4 
 1668000   0.98113533   -6.6149725    584.63117  0.029208192  0.029401262            9 
 1669000   0.98217595   -6.6586514    582.92292  0.029105399  0.029392803            3 
 1670000   0.96678018   -6.6110631    585.87062  0.029235061   0.02938418            3 
 1671000   0.97672224   -6.6517993    583.41985  0.029095344  0.029375531            5 
 1672000   0.98596859   -6.6345342    585.37493  0.029175385  0.029366839            5 
 1673000     1.000265   -6.6257353     587.0521  0.029241487  0.029358318            3 
 1674000   0.99913387   -6.6148365    586.27127  0.029185149  0.029349594            8 
 1675000   0.98850628    -6.620144    585.89301  0.029148906  0.029341064            4 
 1676000   0.98396464   -6.6530086    585.83694  0.029128726  0.029332433            5 
 1677000   0.97483777    -6.621986    585.61766   0.02910046  0.029323827            3 
 1678000   0.99383417   -6.6338853    585.84548  0.029094432  0.029315235            3 
 1679000   0.98908572   -6.6692815    585.17481  0.029043816  0.029306602            2 
 1680000   0.97537732   -6.6398457    585.86678  0.029060852  0.029297908            5 
 1681000   0.99634034   -6.6298185    588.26962  0.029162682  0.029289475            2 
 1682000   0.96455562   -6.6228171    587.12356  0.029088563  0.029280986            2 
 1683000   0.99845761   -6.6192459    589.33872  0.029180962  0.029272494            2 
 1684000    0.9699579   -6.6358562    588.13597  0.029104116  0.029264055            5 
 1685000   0.98101606   -6.6157832    589.27913  0.029143379  0.029255523            5 
 1686000   0.97701068   -6.6247046    588.36464  0.029080894   0.02924702            4 
 1687000    1.0095793   -6.6620422    587.29199  0.029010669  0.029238492            3 
 1688000   0.98309198   -6.6348413    588.44678  0.029050493  0.029230036            4 
 1689000   0.98460916   -6.6382312    589.95772  0.029107841  0.029221651            4 
 1690000   0.98999197   -6.6577564    590.28732   0.02910687  0.029213301            4 
 1691000   0.97430109   -6.6395899    589.35151   0.02904354  0.029204869            4 
 1692000    1.0013208   -6.6327237    590.56147  0.029085967  0.029196326            5 
 1693000   0.99742763   -6.6228225    592.07677  0.029143373  0.029187951            6 
 1694000   0.97360764   -6.6767787     588.7018  0.028960144  0.029179511            6 
 1695000   0.97177045   -6.6443859    590.50597  0.029031759  0.029171053            3 
 1696000   0.97425738   -6.6576264    590.99326  0.029038584  0.029162557            7 
 1697000   0.95638875   -6.6719072     588.8155  0.028914531   0.02915411            8 
 1698000   0.97923141   -6.6406865    592.46881  0.029076797  0.029145804            4 
 1699000    0.9635378   -6.6635594    592.92821  0.029082216  0.029137484            5 
 1700000   0.96884264   -6.6678936    590.47088  0.028944651  0.029129083            6 
 1701000   0.97088417     -6.62496    593.89734    0.0290955  0.029120758            6 
 1702000   0.98567855   -6.6524309    593.18609  0.029043581  0.029112485            6 
 1703000   0.97306194   -6.6207851    591.24914  0.028931745  0.029104077            5 
 1704000   0.97955259   -6.6156882    593.01254  0.029001005  0.029095732           10 
 1705000   0.98798714   -6.6361126    591.39883  0.028905124  0.029087466            4 
 1706000   0.99542731    -6.659636    591.51034  0.028893627  0.029079018            8 
 1707000   0.98994391   -6.6698574    593.38256    0.0289681  0.029070602            5 
 1708000   0.98155536   -6.6926745    592.55996  0.028911005  0.029062112            3 
 1709000   0.98050694   -6.6732106    591.37082  0.028836104  0.029053583            6 
 1710000   0.97760297   -6.6520601    593.98169  0.028946476   0.02904504            5 
 1711000   0.99257505   -6.6993147     593.2137  0.028892154  0.029036652            4 
 1712000    0.9987773   -6.6559763    593.31763  0.028880336  0.029028224            4 
 1713000    0.9704018   -6.6268994    595.39097   0.02896434  0.029019683            6 
 1714000     0.966895   -6.6621477    594.57783  0.028907907  0.029011381            4 
 1715000   0.96298393   -6.6592625    594.02036  0.028863963  0.029003043            3 
 1716000   0.97651131    -6.698738    591.36776  0.028718326  0.028994556            9 
 1717000   0.97406107   -6.6491286    594.45471  0.028851422  0.028986136            6 
 1718000   0.98471176   -6.6279147    594.99797   0.02886098  0.028977807            4 
 1719000   0.96117776   -6.6632856    594.60215  0.028825002  0.028969426            9 
 1720000   0.96810062   -6.6699897    593.82744  0.028770709  0.028961091            5 
 1721000   0.98511026   -6.6571539    594.25901  0.028774889  0.028952749            3 
 1722000   0.97210954   -6.6132857    598.39327   0.02895825  0.028944492            4 
 1723000   0.98001175   -6.6755914    595.01007  0.028777814  0.028936123            3 
 1724000    0.9545985   -6.6525919    594.53311  0.028738066  0.028927743            6 
 1725000   0.95114547   -6.6669311    597.10325  0.028845568  0.028919331            2 
 1726000   0.96467186   -6.6268022    594.18661  0.028688037  0.028910981            3 
 1727000   0.98023498   -6.6604166    593.97828  0.028661372  0.028902563            6 
 1728000   0.98555976   -6.6612953    594.50363  0.028670121  0.028894064            5 
 1729000    1.0007476   -6.6396744    597.30234   0.02878843  0.028885592            6 
 1730000   0.98213809   -6.6442294    597.12237   0.02876312  0.028877322            3 
 1731000   0.97543741   -6.6423663    596.69707  0.028726029  0.028868943            3 
 1732000   0.96957217    -6.670997    596.67591  0.028708425  0.028860479            4 
 1733000   0.99735808   -6.7225487    596.38948  0.028678086  0.028852089            9 
 1734000   0.97738926   -6.6681555    598.38791  0.028757589  0.028843551            5 
 1735000    0.9716181   -6.6811709    597.68366  0.028707188  0.028835104            2 
 1736000   0.98250521   -6.6603938    598.18335  0.028714639  0.028826566            4 
 1737000   0.98326969   -6.6451593    597.56948  0.028668657  0.028817995            3 
 1738000   0.95706181    -6.681008    594.13182  0.028487333  0.028809466            5 
 1739000   0.98222298   -6.6374631     598.7802  0.028693703  0.028800951            3 
 1740000   0.98526653   -6.6875252    598.44991  0.028661394  0.028792644            5 
 1741000   0.95448426   -6.6353022    598.27023  0.028636331  0.028784402            3 
 1742000   0.97722143   -6.6803585    599.31077   0.02866967  0.028775943            4 
 1743000   0.98331073    -6.664103    598.03005  0.028591989  0.028767485            4 
 1744000   0.98809506   -6.6507787    598.12567  0.028580164   0.02875907           10 
 1745000   0.97885663   -6.6377206     600.4312  0.028673887  0.028750695            5 
 1746000   0.97091656   -6.6700166    598.96616  0.028587541   0.02874227            9 
 1747000   0.95687387   -6.6464479    600.44807  0.028641866  0.028733979            3 
 1748000   0.96419268   -6.6716056    599.71125  0.028590353  0.028725672            6 
 1749000   0.96543772   -6.6674578    598.59783  0.028520956  0.028717234            7 
 1750000    0.9987855   -6.6451568    599.83922  0.028563772  0.028708823            6 
 1751000   0.98812287   -6.6703962    599.93726  0.028552125  0.028700294           19 
 1752000   0.99142537    -6.690902    598.58052  0.028471296  0.028691858            3 
 1753000   0.98364253   -6.6502025    600.19346  0.028531729  0.028683399            2 
 1754000   0.94998772   -6.6891732    598.29972   0.02842549  0.028674897            3 
 1755000   0.96279404   -6.6552704    601.17472  0.028545808  0.028666364            3 
 1756000   0.98278735   -6.6587643    601.48983  0.028544506  0.028657936            3 
 1757000   0.97422336   -6.6586203     600.4487   0.02847888  0.028649531            6 
 1758000   0.97061542   -6.6585336    602.51529  0.028560641  0.028641184            6 
 1759000    0.9643079   -6.6499738    603.45697  0.028589017   0.02863274            3 
 1760000   0.97569488   -6.7315632     599.8509  0.028402031  0.028624404            8 
 1761000    1.0021554   -6.6555709    602.99857  0.028534855  0.028616112            4 
 1762000   0.96372692   -6.6739142    603.71755  0.028552665   0.02860785            3 
 1763000   0.97405869   -6.6407475    604.38875  0.028568196  0.028599586            3 
 1764000    0.9554533   -6.6314639    604.21039  0.028543575  0.028591348            6 
 1765000   0.99218315    -6.692093    601.89615  0.028418138  0.028583205            6 
 1766000   0.95727282   -6.6550782    603.82683   0.02849315   0.02857484            3 
 1767000   0.98778862   -6.6783411    604.70472  0.028518426  0.028566444            5 
 1768000   0.94504088   -6.7148686     603.2779  0.028435044   0.02855803            4 
 1769000   0.97807742   -6.6797575    602.69602  0.028391559  0.028549598            4 
 1770000   0.96940786   -6.6677582     604.0561  0.028439553    0.0285413            9 
 1771000    0.9443682   -6.7151965    603.33297  0.028389468   0.02853293            8 
 1772000   0.97129326   -6.6933951     605.2067  0.028461564  0.028524555            8 
 1773000   0.98474428   -6.6469817    603.66591  0.028373092   0.02851621            3 
 1774000   0.95179326    -6.651025     603.9879  0.028372224  0.028507941            5 
 1775000   0.96169348   -6.6624848    604.93432  0.028400672  0.028499655            6 
 1776000   0.96479552   -6.6012866    606.10634  0.028439674  0.028491516            9 
 1777000   0.95618858   -6.7005628    604.39936   0.02834362  0.028483293            6 
 1778000   0.95993822    -6.662575     605.0821  0.028359678  0.028474955            6 
 1779000   0.97367277   -6.6899092     605.6906  0.028372241  0.028466716            5 
 1780000   0.96409172   -6.7144729    604.73982   0.02831179  0.028458498            5 
 1781000   0.97660994   -6.6771401    607.15424  0.028408864  0.028450294            3 
 1782000   0.97352622    -6.663614    605.96801  0.028337449  0.028442105            2 
 1783000   0.96907572   -6.6793276    607.22321  0.028380221   0.02843397            3 
 1784000   0.98175473   -6.6969837    606.35546  0.028323779  0.028425895            4 
 1785000   0.95388839     -6.75978    605.14159  0.028251241  0.028417688            4 
 1786000   0.97062133   -6.7038206    609.45553  0.028436708  0.028409539            6 
 1787000    0.9647711   -6.6758228    609.95095  0.028443898  0.028401679            4 
 1788000   0.96483942   -6.6733668    609.73541  0.028417944  0.028393825            4 
 1789000   0.98739654   -6.6578046    610.43725  0.028434752  0.028386069            7 
 1790000   0.95786946   -6.6707456    610.33834  0.028414262   0.02837826            5 
 1791000   0.96029764   -6.6826792    611.84814  0.028468646  0.028370414            7 
 1792000   0.97504836   -6.7120952    610.43008  0.028386816  0.028362604            7 
 1793000   0.95885324     -6.68435    610.80344  0.028388336  0.028354684            4 
 1794000    0.9711521   -6.6929626    610.89684  0.028376851  0.028346843            4 
 1795000   0.95749055   -6.6785922    610.86719  0.028359665  0.028339083            3 
 1796000   0.96456383   -6.7015081    611.35906  0.028366697  0.028331268            4 
 1797000   0.95719895    -6.710792    611.59565  0.028361883  0.028323471            4 
 1798000   0.97019306   -6.7218401    610.92171  0.028314874  0.028315675            5 
 1799000   0.96220002   -6.7083124    611.73964  0.028337022  0.028307925            7 
 1800000   0.95506289   -6.6804402     610.9134  0.028283028  0.028300183           16 
 1801000   0.94989065   -6.7049396    611.97595  0.028316489  0.028292428            5 
 1802000   0.96173045   -6.6700302    613.79073  0.028384699  0.028284656            6 
 1803000   0.97901684   -6.6813799    614.00756  0.028378978  0.028276923            7 
 1804000   0.97132345   -6.6995282     611.9953  0.028270293  0.028269028            4 
 1805000   0.97591377    -6.696215    612.19362  0.028263787   0.02826119            3 
 1806000   0.94690767   -6.7043772    612.87786  0.028279709  0.028253455            4 
 1807000   0.96937317   -6.6754882    614.56044  0.028341655  0.028245653            5 
 1808000   0.95360744   -6.6555121    614.48322   0.02832242  0.028237944            3 
 1809000   0.99049599   -6.6936824    614.85099  0.028323705  0.028230179            2 
 1810000   0.94322014   -6.7145058      612.245  0.028188075  0.028222277            2 
 1811000   0.96198084    -6.689272    612.75424  0.028195943  0.028214402            4 
 1812000   0.95266783   -6.7164396    612.68765   0.02817732   0.02820657            8 
 1813000   0.98835669   -6.7018306    613.07373  0.028179524  0.028198695            9 
 1814000   0.97062741   -6.6849552    614.25619  0.028218311  0.028190857            3 
 1815000   0.95953301   -6.7145391    613.41304  0.028164051  0.028182872            4 
 1816000   0.96156374   -6.6946028    613.25587   0.02814133  0.028175052            6 
 1817000   0.97749173   -6.6927395    614.90474  0.028201465  0.028167207           14 
 1818000   0.97448727   -6.7186571    615.03124  0.028191751  0.028159289            9 
 1819000   0.97432453   -6.7211033    615.45075  0.028195472  0.028151532           19 
 1820000   0.97215574   -6.7178486    617.31473  0.028265327  0.028143797            3 
 1821000   0.94908536   -6.7193481    616.74778   0.02822386  0.028136119            4 
 1822000   0.96660773   -6.7037572    617.56603  0.028245793  0.028128358           11 
 1823000   0.96169655    -6.731047    615.79346  0.028149271  0.028120681            4 
 1824000   0.97027057   -6.6667688    617.04999  0.028191246  0.028112994            2 
 1825000   0.97486364   -6.7347664    615.54283  0.028106978  0.028105223           11 
 1826000   0.97141589   -6.7283391    615.11072  0.028071866  0.028097396            6 
 1827000   0.97074089    -6.708471    617.75643  0.028177177  0.028089674            3 
 1828000   0.96001126   -6.7020081    617.75758  0.028161815  0.028081977            7 
 1829000   0.95541222   -6.7142473     616.1426  0.028072836  0.028074218            3 
 1830000   0.96007838   -6.6734545    619.56359  0.028213278  0.028066523           10 
 1831000   0.94807562   -6.6884313    619.98797  0.028217184  0.028058859            5 
 1832000   0.94050685   -6.7087759    617.25274  0.028077362  0.028051095            5 
 1833000    0.9800059   -6.7127158    616.71905  0.028037782   0.02804329            4 
 1834000   0.95553487   -6.6916419    619.23195  0.028136675  0.028035491            5 
 1835000   0.94614281    -6.686509    618.29201  0.028078656   0.02802783            3 
 1836000   0.94538321   -6.7200253    617.95936  0.028048264  0.028020202            3 
 1837000   0.94118675   -6.7053894    618.20489  0.028044134  0.028012459            3 
 1838000   0.98000885   -6.7055857    620.66953  0.028140621  0.028004768            7 
 1839000   0.94714578   -6.6938447    619.49867  0.028072262  0.027997194            5 
 1840000   0.95437756   -6.7575911    618.24019  0.028000008  0.027989534            3 
 1841000   0.94640155   -6.7226314    621.00456  0.028109929  0.027981786            5 
 1842000   0.95744469   -6.7320059     619.9554  0.028047204  0.027974137            8 
 1843000   0.94703753   -6.6957083    620.86689    0.0280732  0.027966456           11 
 1844000   0.95185318   -6.6951857    621.96409   0.02810756  0.027958938            5 
 1845000   0.95240519   -6.7189219    622.52849  0.028117818  0.027951388            8 
 1846000    0.9430967   -6.7272828    622.77276  0.028113613  0.027943684            5 
 1847000   0.93126079   -6.7139038    621.47477  0.028039829  0.027935893            8 
 1848000   0.94541677   -6.7075068    622.12081  0.028053788  0.027928209            4 
 1849000   0.96399674   -6.7082538    622.01544  0.028033867  0.027920576            4 
 1850000   0.94823767   -6.7204267    621.01577  0.027973683  0.027912807           10 
 1851000    0.9654776   -6.7027952    620.58008  0.027938955  0.027905014            3 
 1852000   0.95929806   -6.7167924    623.02881  0.028034054  0.027897214            4 
 1853000   0.96565123   -6.7467306    621.27405  0.027940009  0.027889369            4 
 1854000   0.97124415    -6.728669     622.5663  0.027983023  0.027881579            3 
 1855000   0.96235506   -6.7273589    620.97973  0.027896664  0.027873896            5 
 1856000   0.98605677   -6.6754593    622.25986   0.02793911  0.027866231            8 
 1857000   0.96605351   -6.7340982    622.01136  0.027912913   0.02785851            6 
 1858000   0.95676854   -6.7111858    622.96092  0.027940479  0.027850828            2 
 1859000    0.9484983   -6.6863567    624.19394  0.027980722  0.027843017            5 
 1860000   0.92046729   -6.7164828    623.26881   0.02792423  0.027835217            5 
 1861000   0.95092289   -6.7021728    623.80948  0.027933435  0.027827399            5 
 1862000   0.94546876   -6.7075055    622.98155   0.02788138  0.027819622            8 
 1863000   0.95218263   -6.7536076    622.02052  0.027823426  0.027811712            7 
 1864000   0.94849548   -6.7447613    622.08773  0.027811504  0.027803794            4 
 1865000    0.9403753   -6.7266115    622.99059  0.027836934  0.027795973            3 
 1866000   0.94644043   -6.7094613    624.76178  0.027901115  0.027788142            4 
 1867000   0.94996437   -6.7211532    622.83759  0.027800285   0.02778039            6 
 1868000   0.94465641    -6.723262    625.02819  0.027883128  0.027772593            2 
 1869000   0.94482401   -6.6995163    624.26666  0.027834255   0.02776485            3 
 1870000   0.96262777   -6.7201655    624.55588  0.027832259  0.027757155            6 
 1871000   0.96505601   -6.7366363    625.05483  0.027839606  0.027749448            3 
 1872000   0.96191226   -6.7207768    623.22295  0.027743187  0.027741829            6 
 1873000   0.95018147   -6.6985344    628.08588  0.027944736  0.027734213            3 
 1874000   0.97101426   -6.7424686    624.98197  0.027791799  0.027726604            5 
 1875000   0.97027353   -6.7372938     625.0081  0.027778138  0.027718871            4 
 1876000   0.94886857   -6.7036765    627.88234  0.027891006  0.027711253            3 
 1877000   0.93768735   -6.6848398    627.00626  0.027837252  0.027703684            4 
 1878000   0.92620721   -6.7759698    624.11259  0.027694027  0.027696091            5 
 1879000    0.9515011   -6.7154625    626.37722  0.027779724  0.027688366            3 
 1880000   0.94328793   -6.7197459    627.55216  0.027817029  0.027680722            4 
 1881000   0.95330082    -6.745317    626.16552  0.027740808  0.027672987            5 
 1882000   0.94468213   -6.6859112     627.9332  0.027804339  0.027665501            5 
 1883000   0.95965341   -6.6869488    628.11197  0.027797485  0.027657977            4 
 1884000   0.93597957   -6.7209166     628.0702  0.027780883  0.027650399            4 
 1885000   0.96659422    -6.661668    629.81094  0.027843101   0.02764284            5 
 1886000   0.94399301   -6.7526091    626.65241  0.027688777  0.027635245            5 
 1887000   0.92406132   -6.7392668    628.10424  0.027738219  0.027627612            4 
 1888000   0.93763414   -6.7326232    628.85081   0.02775648  0.027620109            4 
 1889000   0.94321036   -6.7714465    627.99346  0.027703964  0.027612454            4 
 1890000   0.95594329    -6.750859    628.95797  0.027731833  0.027604824            3 
 1891000   0.94562927   -6.7551666    628.14818  0.027681482  0.027597326            8 
 1892000   0.93961669   -6.7538154      628.143  0.027666623  0.027589723           10 
 1893000   0.96661552   -6.7303565    628.95277  0.027687655  0.027582166            5 
 1894000   0.92180344   -6.7354302    629.71253  0.027706465   0.02757463            5 
 1895000   0.91831609   -6.7339568    628.18733  0.027624773  0.027566997            4 
 1896000     0.956658   -6.7060013    630.34324   0.02770496    0.0275594            6 
 1897000   0.95233439   -6.6926775    631.65065  0.027747788   0.02755183            4 
 1898000   0.95487249   -6.7158804    628.96811   0.02761539  0.027544378            7 
 1899000   0.96234055   -6.7287166    631.50706  0.027712264  0.027536852            5 
 1900000   0.98077135   -6.6933913    631.28806  0.027688073    0.0275294            4 
 1901000   0.93947345   -6.7267363    632.55913  0.027729227  0.027522037            2 
 1902000   0.97262267   -6.6945781    633.38037   0.02775063  0.027514729            5 
 1903000   0.94424688   -6.7281006    631.63485   0.02765961  0.027507388            4 
 1904000   0.94281688   -6.7084093    634.23736  0.027758988   0.02750005            2 
 1905000   0.94758243   -6.7408641    632.41444  0.027664674  0.027492764            8 
 1906000   0.94917204   -6.7256668    632.74693  0.027664696  0.027485309            5 
 1907000   0.94957177   -6.7125464    634.24019  0.027715443   0.02747792            7 
 1908000   0.92480443   -6.7177824    631.76006  0.027592595  0.027470486            8 
 1909000    0.9494301   -6.7722712    630.65919  0.027530085  0.027462992            7 
 1910000   0.95170091   -6.7523477    631.31386  0.027544235  0.027455607            3 
 1911000   0.95219407   -6.7740128    633.27434  0.027615312   0.02744813            5 
 1912000   0.95719813   -6.7487318    633.13257   0.02759469  0.027440734            7 
 1913000   0.93222292   -6.7269423    634.49758  0.027639727  0.027433298            5 
 1914000    0.9517728   -6.7970396    631.34359  0.027487965  0.027425884            7 
 1915000   0.93901023   -6.7224214    634.27843  0.027601324  0.027418491            6 
 1916000   0.94315766   -6.7213234    633.43613  0.027550284  0.027411043            4 
 1917000   0.93590874    -6.767556    633.87079  0.027554807   0.02740362            4 
 1918000   0.93760751    -6.754752     632.6371  0.027486839  0.027396171            3 
 1919000   0.95380951   -6.7635533    633.50954  0.027510402  0.027388705            3 
 1920000   0.96383809   -6.7443033    634.87626  0.027555393  0.027381285            4 
 1921000   0.94699772   -6.7741321    633.06694   0.02746256  0.027373931            2 
 1922000   0.93663494   -6.7795072    634.51797  0.027511185  0.027366556            5 
 1923000   0.92740392   -6.7850444    633.65144  0.027459328  0.027359102            5 
 1924000   0.95563716   -6.7556953    634.34865  0.027475253  0.027351705            9 
 1925000   0.95373387   -6.7442536    633.81814  0.027438015  0.027344316            5 
 1926000   0.93417273   -6.7877617     634.8334  0.027467696  0.027336855            5 
 1927000   0.94615366   -6.7494596    634.87568  0.027455271  0.027329514            3 
 1928000   0.95458712   -6.7374569    638.83784  0.027612286  0.027322233            4 
 1929000    0.9442171   -6.7335043    637.75917  0.027551372   0.02731502            2 
 1930000   0.94560848   -6.7873206    638.26959  0.027559136   0.02730776           14 
 1931000   0.93312624   -6.7566373    636.94647  0.027487764  0.027300393            9 
 1932000   0.93114638   -6.7729046     637.4846  0.027496748   0.02729306            2 
 1933000   0.93692665   -6.7633459     637.2891  0.027474095  0.027285673            6 
 1934000   0.95014622   -6.7466174    637.45102  0.027466866   0.02727834            4 
 1935000   0.94438697   -6.7289649    639.33203  0.027533679  0.027271034            6 
 1936000    0.9389872   -6.7269559    638.03851  0.027463779   0.02726375            5 
 1937000   0.95713348   -6.7922305    637.77467  0.027438249  0.027256533            5 
 1938000   0.93531835   -6.7152773    638.96487   0.02747527  0.027249316            3 
 1939000   0.93272361   -6.6872542    639.63501  0.027489901  0.027242138            4 
 1940000   0.95274029   -6.7434866     641.2572  0.027545412  0.027234933            6 
 1941000   0.93825776   -6.7555365    639.62916  0.027461324  0.027227693           10 
 1942000   0.95325357   -6.7717362    638.74501  0.027409243  0.027220373            5 
 1943000   0.94753796   -6.7280222    639.86388  0.027443124  0.027213159            3 
 1944000   0.94131546   -6.7441411    639.71536   0.02742264  0.027205933            4 
 1945000   0.95765885   -6.7845211    638.47439  0.027355372  0.027198676            8 
 1946000   0.93731202   -6.7685967     639.8821  0.027401597  0.027191353            3 
 1947000   0.93453334   -6.7228067    640.81567  0.027427481   0.02718404            5 
 1948000   0.94457974   -6.7545287    641.34618  0.027436096  0.027176898            4 
 1949000   0.96116452   -6.7277832    641.28306   0.02741932  0.027169933            2 
 1950000   0.93350472   -6.7293996    640.99132  0.027392791  0.027162893            6 
 1951000   0.94803777   -6.7565357    640.64296  0.027363871  0.027155833            4 
 1952000   0.94443343   -6.7376393    643.16164  0.027457379  0.027148724            5 
 1953000   0.93467185   -6.7806985     640.8517  0.027344756  0.027141663            4 
 1954000      0.94144   -6.7338136     643.2427  0.027432732  0.027134583           10 
 1955000   0.94689826   -6.7567626     643.0244  0.027409395  0.027127517            5 
 1956000   0.93745717   -6.7413407    644.77869  0.027470121  0.027120426            9 
 1957000   0.93341871   -6.8028948    641.13813  0.027301062  0.027113324            4 
 1958000   0.94392467   -6.7257039    645.99775  0.027493946  0.027106216            4 
 1959000   0.94116009   -6.7401221    642.40964  0.027327277  0.027099202            5 
 1960000   0.93758992   -6.7658255    643.47187  0.027358498  0.027092163            7 
 1961000   0.95705792   -6.7622505    643.68327   0.02735353  0.027085076            7 
 1962000   0.92562357   -6.7833923    642.59602  0.027293409  0.027077991           13 
 1963000   0.93018471   -6.7510972     643.2663   0.02730796  0.027070764            5 
 1964000   0.96101258   -6.7836416    641.71564   0.02722826   0.02706364            7 
 1965000   0.93560215   -6.7531778    644.19723  0.027319645  0.027056479            3 
 1966000   0.92844652   -6.7721992    643.37692  0.027270978   0.02704934            7 
 1967000   0.93741835   -6.7335399    646.39438  0.027384951  0.027042189            3 
 1968000   0.94945014   -6.7564736    644.22836  0.027279317   0.02703513            3 
 1969000    0.9425275   -6.7747002    645.19944  0.027306562  0.027027978            7 
 1970000   0.92771082   -6.7445007    643.75678  0.027231674  0.027020771            8 
 1971000   0.95180636   -6.7294679    646.67083  0.027341063  0.027013575            5 
 1972000   0.92808891   -6.8017177    644.37253  0.027230076  0.027006556            4 
 1973000   0.95545581   -6.7851316    644.43027  0.027218714  0.026999334            3 
 1974000   0.93532748   -6.7771487     644.5462  0.027209819  0.026992124            6 
 1975000   0.93338679   -6.7688604    644.87816  0.027210049  0.026984813            6 
 1976000   0.93916146   -6.7786175    645.70782  0.027231268  0.026977579            6 
 1977000   0.91223479   -6.8017836    645.13503   0.02719335  0.026970218            7 
 1978000   0.94209623   -6.7666577    646.91113  0.027254429  0.026962917           16 
 1979000   0.94843889   -6.7298252    645.89114  0.027197707  0.026955755            7 
 1980000   0.93193775   -6.8325696    646.17454  0.027195898  0.026948645            6 
 1981000   0.92262355   -6.8147046    644.61596  0.027116606  0.026941331            5 
 1982000   0.93886829   -6.7594954    646.38442   0.02717728  0.026934094           13 
 1983000   0.93528252   -6.7829585    644.89812  0.027101114  0.026926871            6 
 1984000   0.94817154   -6.7700861    645.21005  0.027100557  0.026919647            5 
 1985000   0.94018219   -6.7826809    644.32295  0.027049662  0.026912384            8 
 1986000   0.94102516    -6.770989    646.51604  0.027128065  0.026905135            5 
 1987000   0.93910532   -6.8022278     646.4476  0.027111542  0.026897818            5 
 1988000   0.94215458   -6.7528368    646.25271  0.027089735  0.026890421            6 
 1989000   0.93316119   -6.7928696     645.9411  0.027063059  0.026883182            3 
 1990000   0.94137463   -6.8186982     646.4536  0.027070921  0.026875895            7 
 1991000    0.9447261   -6.7798035    645.97465  0.027037278  0.026868694            8 
 1992000   0.93965407   -6.8081157    646.79999  0.027058232  0.026861489            6 
 1993000   0.91811751   -6.7727082    648.63814  0.027121515  0.026854224            6 
 1994000   0.92306237   -6.8021515    646.59781  0.027022643  0.026847084            7 
 1995000   0.94674587   -6.7510891      646.798   0.02701746  0.026840028            3 
 1996000   0.93448468    -6.782976    648.65943  0.027081639  0.026832907            5 
 1997000   0.93017509    -6.808154    648.63543  0.027067077   0.02682572            5 
 1998000   0.91417132   -6.8033323    647.96428  0.027025537  0.026818558            7 
 1999000   0.93825548   -6.7801377    648.94089   0.02705273  0.026811417            8 
 2000000   0.93412214   -6.7665514    647.84015   0.02699334  0.026804188            8 
 2001000   0.94402325   -6.7667448    650.61682  0.027095486   0.02679704            8 
 2002000   0.92369494    -6.784508    649.54995  0.027037544  0.026789823            4 
 2003000   0.94464043   -6.7629363     651.2097  0.027093098  0.026782681            4 
 2004000   0.94546196   -6.7944746    649.30167  0.027000236  0.026775577            6 
 2005000   0.92776577   -6.7813117    649.85625  0.027009819  0.026768449           10 
 2006000   0.93888828   -6.7434401    650.90894  0.027040085  0.026761308            5 
 2007000   0.94419335   -6.7650324    651.48454  0.027050513   0.02675424            3 
 2008000   0.93654991   -6.8300751    649.71644  0.026963664  0.026747195           10 
 2009000    0.9378037   -6.7464998    652.46075  0.027064076  0.026740169            3 
 2010000   0.92909302    -6.811181    650.93545  0.026987373  0.026733233            5 
 2011000   0.94566452   -6.7561815    651.24519  0.026986789  0.026726111            4 
 2012000   0.94282073   -6.8198615    648.43203   0.02685686  0.026718881            5 
 2013000   0.93348339   -6.7793533    650.35963  0.026923316  0.026711631            5 
 2014000    0.9294605   -6.8189637    649.29973  0.026866093  0.026704395            6 
 2015000    0.9140629   -6.7712692    650.52162  0.026903293   0.02669724            6 
 2016000   0.94673181   -6.7808608    650.56497   0.02689174  0.026690248           12 
 2017000   0.92470439   -6.8264629    652.40344  0.026954365  0.026683126            4 
 2018000   0.91914342    -6.781711    653.71302  0.026995087  0.026675998            4 
 2019000   0.91526013   -6.8623427    650.46635  0.026847711  0.026668913            2 
 2020000   0.92506755    -6.817312    654.79537   0.02701301  0.026661835            7 
 2021000   0.93222435    -6.752236    654.70492  0.026995914  0.026654991            5 
 2022000   0.92554986   -6.7905646    655.65503  0.027021721  0.026648069            4 
 2023000   0.91645626   -6.7604695    655.64302  0.027007869  0.026641195           10 
 2024000   0.94604806   -6.8007095    654.03862  0.026928468    0.0266341            4 
 2025000   0.90996527    -6.811238    654.08563  0.026917104  0.026627091            6 
 2026000   0.93060066   -6.7826522    654.48378  0.026920195   0.02662006            8 
 2027000   0.95227758   -6.8034346    653.87095   0.02688172  0.026613073           19 
 2028000   0.93213915   -6.8277334    652.88349  0.026827888  0.026606006            4 
 2029000   0.92573147   -6.7859133    653.68906  0.026847752  0.026598876            7 
 2030000   0.92959658    -6.813846     652.6599  0.026792279  0.026591774            7 
 2031000   0.92944879   -6.7884287    655.05677  0.026877432  0.026584742            3 
 2032000   0.92248338   -6.8196278    653.41252  0.026796773  0.026577825            7 
 2033000   0.93500295   -6.7923544    656.51163  0.026910626  0.026570886            4 
 2034000   0.96674789    -6.806219    654.85428  0.026829494  0.026563841            7 
 2035000   0.92290161   -6.8130636    656.38661  0.026879059  0.026556854            5 
 2036000   0.93050271   -6.8006591    656.65562  0.026876867  0.026549747            6 
 2037000   0.92609398   -6.7629589    658.01429  0.026919256  0.026542824            7 
 2038000   0.92909426   -6.7902159    656.88087  0.026859702  0.026535939            7 
 2039000   0.93089137    -6.789223    658.45802  0.026910987  0.026529171            7 
 2040000   0.95988735   -6.8093114    655.94087   0.02679497  0.026522395            6 
 2041000   0.93287842   -6.7993011    657.56391   0.02684811  0.026515573            6 
 2042000   0.91657333   -6.7909543    658.01023  0.026853176  0.026508712            8 
 2043000   0.91025961   -6.8134319    658.36832  0.026854639  0.026501845           12 
 2044000    0.9187612   -6.8034718    657.81388  0.026818896  0.026494959            9 
 2045000   0.93439308   -6.8460336    656.77145  0.026763303  0.026488095            3 
 2046000   0.90646612   -6.8338277    657.34256  0.026773483  0.026481133            5 
 2047000   0.91314452   -6.7875935    657.97606  0.026786193   0.02647419            5 
 2048000   0.89712552     -6.81803    656.82412  0.026726242  0.026467091            4 
 2049000   0.90559106   -6.8190207    656.31244  0.026692388  0.026460013            7 
 2050000   0.92574888   -6.8348339    654.78044  0.026617091  0.026452917            5 
 2051000    0.9309795   -6.7843546    658.01101  0.026735373  0.026445872            5 
 2052000   0.89794461   -6.8056244    658.29833  0.026734013  0.026438862            6 
 2053000    0.9157186   -6.8385673    657.47603  0.026687613  0.026431885            6 
 2054000   0.90123099     -6.78514    658.02789   0.02669701  0.026424853            4 
 2055000   0.93833535   -6.7604142    658.26511  0.026693638  0.026417896            5 
 2056000   0.93146732   -6.8086865    656.17505  0.026595941  0.026410841            3 
 2057000   0.92398838   -6.7925958    659.34936  0.026711609  0.026403817            9 
 2058000   0.91702039   -6.7818112    658.86704    0.0266791  0.026396806            7 
 2059000   0.92525684    -6.777094    657.92547  0.026628034  0.026389822            3 
 2060000   0.93773915    -6.810692    657.23858  0.026587321  0.026382824            8 
 2061000    0.9005404   -6.8381889    657.44248  0.026582665  0.026375746            2 
 2062000   0.90595366   -6.7888988     659.3986  0.026648828  0.026368647            7 
 2063000   0.91300051   -6.8032898    659.55886  0.026642384  0.026361623            5 
 2064000   0.91092532   -6.8362254    658.01881  0.026567297  0.026354549            7 
 2065000   0.91690717   -6.8256997    659.52631  0.026615267  0.026347381            6 
 2066000   0.92966436   -6.8270106    659.14302  0.026586924  0.026340262            6 
 2067000   0.91935894    -6.821905    659.73341  0.026597863  0.026333145            6 
 2068000   0.93524708   -6.8274811    658.69055  0.026542978  0.026325994           10 
 2069000   0.89539685   -6.8455444     659.0933  0.026546371  0.026318869            4 
 2070000   0.91860278   -6.7904358    661.79555  0.026642333  0.026311837            5 
 2071000   0.90795158   -6.8212985    659.75887  0.026547516  0.026304883            2 
 2072000   0.92988561   -6.7921829    659.76615  0.026534997  0.026297787            5 
 2073000   0.91669519   -6.8052114    661.45002  0.026589887   0.02629071            4 
 2074000   0.92559108   -6.7915414    661.31174   0.02657151  0.026283628            3 
 2075000   0.93122008   -6.7993828    659.89959  0.026501992  0.026276562           11 
 2076000   0.90871523   -6.8154203    661.53647  0.026554932  0.026269608            6 
 2077000   0.91701338   -6.8292182    660.53961  0.026502151  0.026262646            7 
 2078000   0.89251208   -6.8438429    661.23862   0.02651743  0.026255631            8 
 2079000   0.90616057   -6.8356448    660.50036  0.026475083   0.02624853           12 
 2080000   0.92551972   -6.7962576      664.176  0.026609616  0.026241556            5 
 2081000   0.93786401   -6.8045866    664.12371  0.026594734  0.026234673            8 
 2082000   0.90950503   -6.8333521    661.92197  0.026493835  0.026227779            6 
 2083000   0.92096008   -6.7897643    665.39822  0.026620188  0.026221026            9 
 2084000    0.9152693   -6.8340602    661.59156  0.026455197  0.026214205            8 
 2085000    0.9283404    -6.839035    661.64221  0.026444533  0.026207252            5 
 2086000   0.93021314    -6.778919    662.88999  0.026481703  0.026200314            5 
 2087000   0.94305245   -6.8192901     660.7828  0.026384875  0.026193316            9 
 2088000   0.91433322   -6.8440299    661.10088  0.026384933  0.026186312            7 
 2089000   0.92199549   -6.8289667    663.05065  0.026450082   0.02617925            5 
 2090000   0.90519838   -6.8257276    663.55419  0.026457504  0.026172264            7 
 2091000   0.88604566   -6.8055544    665.59676  0.026526254  0.026165278           11 
 2092000   0.91466883   -6.8359357    661.62351  0.026355302  0.026158283           12 
 2093000    0.9208189   -6.8005198    664.92537  0.026474175  0.026151237            4 
 2094000   0.91428943   -6.8187518    662.64408  0.026370745  0.026144259            5 
 2095000   0.93069327   -6.8242227    662.60807  0.026356725  0.026137266            5 
 2096000   0.90943253    -6.791527    664.29543  0.026411237   0.02613028           15 
 2097000   0.91084007   -6.7956628    665.11795  0.026431329  0.026123257            7 
 2098000    0.9278158   -6.8294693    662.84658  0.026328511  0.026116078            6 
 2099000   0.93020087   -6.8147603    662.77497  0.026313124  0.026108874            4 
 2100000   0.92371795   -6.8440865    662.42756  0.026286808   0.02610162            7 
 2101000   0.89411539   -6.8471202    662.05017  0.026259328  0.026094366            6 
 2102000   0.90437751   -6.8207618    662.95805  0.026282828  0.026087053            3 
 2103000   0.91308182   -6.8064849    663.33752  0.026285367  0.026079951           10 
 2104000   0.93635951   -6.8036198    663.44498   0.02627713  0.026072812            3 
 2105000   0.89146852   -6.8133796    664.97073  0.026325049  0.026065692            3 
 2106000   0.89193451   -6.8071719    662.18889  0.026202473  0.026058456            3 
 2107000   0.90444583   -6.8117872    663.30671  0.026234248  0.026051323            9 
 2108000   0.92392567   -6.7985546    665.08989  0.026292295  0.026044165            4 
 2109000   0.91897394   -6.8271426    664.00532  0.026236973  0.026037007            9 
 2110000   0.91688868   -6.8111878    666.91968   0.02633964  0.026029942            6 
 2111000   0.92050526   -6.8164616    664.82607  0.026244516  0.026022817            9 
 2112000   0.93139645   -6.8046108    666.00931  0.026278776  0.026015675            6 
 2113000   0.91972346    -6.834733    663.86507  0.026181774  0.026008502           13 
 2114000   0.91536836   -6.8676535     664.4983  0.026194351  0.026001296            3 
 2115000   0.92733151   -6.8376732    664.06674  0.026164962   0.02599409            3 
 2116000   0.92081101   -6.8160076    667.47209  0.026286708  0.025986935            9 
 2117000   0.90897065   -6.8334573     665.0499  0.026178944  0.025979814            6 
 2118000    0.9088865   -6.8321773    666.26431  0.026214365  0.025972683            6 
 2119000   0.91246359   -6.8640932    665.18641  0.026159604  0.025965496            3 
 2120000   0.92415629     -6.79415    667.82973  0.026251169  0.025958331            5 
 2121000   0.91338305   -6.8558011    666.39873  0.026182568  0.025951198           15 
 2122000   0.90963397   -6.8588238    665.72987  0.026143963  0.025943945            3 
 2123000   0.89411504   -6.8160837    667.45332  0.026199298  0.025936729            8 
 2124000   0.89495059   -6.8424485    666.91718  0.026165928   0.02592955            3 
 2125000   0.93137213   -6.8469271    667.28975  0.026168226   0.02592242           10 
 2126000   0.91253421   -6.8680859    665.81369  0.026098059   0.02591524            9 
 2127000   0.92799449   -6.8302689    667.34277  0.026145697  0.025908066            7 
 2128000   0.94358359   -6.8396296     665.8309  0.026074205  0.025900938            9 
 2129000    0.8911322   -6.8532701    666.70041  0.026095992  0.025893788            4 
 2130000   0.92039036   -6.8150971    668.28206  0.026145621  0.025886651            5 
 2131000   0.93068363   -6.8421942    666.43615  0.026061167  0.025879501            3 
 2132000    0.8909106   -6.7989983    668.56421  0.026132122  0.025872442            8 
 2133000   0.91008266   -6.7707379    669.70613  0.026164484  0.025865393            9 
 2134000   0.89928326   -6.8329121    668.58617  0.026108488  0.025858347            5 
 2135000   0.91436445   -6.8135755    668.89207    0.0261082  0.025851329            8 
 2136000   0.90052995   -6.8107402    667.78224  0.026052678  0.025844258            3 
 2137000   0.90002026   -6.8179861    667.83791  0.026042658   0.02583716            3 
 2138000   0.91499859   -6.8007132     669.5866  0.026098636  0.025830038            6 
 2139000   0.90583214   -6.8292927    667.33161  0.025998582  0.025822861            5 
 2140000    0.9140188   -6.8339026    668.78971  0.026043213  0.025815691            5 
 2141000   0.90975557   -6.8538535    667.72882  0.025989756  0.025808437            9 
 2142000   0.89378033   -6.8307868    668.00714  0.025988451  0.025801248            9 
 2143000   0.91288227   -6.8715164    667.61974  0.025961259  0.025793944            7 
 2144000   0.90785684   -6.8754753    668.25038  0.025973662  0.025786705           10 
 2145000   0.89358146   -6.8669512    666.33122  0.025886994  0.025779434           10 
 2146000   0.91613381   -6.8201934    671.02755  0.026057298  0.025772171           11 
 2147000   0.89298236   -6.8479774    669.28113  0.025977376  0.025764959            3 
 2148000   0.90394986   -6.8689491    669.40777  0.025970196  0.025757703            4 
 2149000    0.9167242   -6.8751331    668.77845  0.025933707  0.025750466            4 
 2150000   0.91034053   -6.8578863    668.84287  0.025924142  0.025743244            5 
 2151000   0.91333791   -6.8676814    668.14568   0.02588508  0.025735963            4 
 2152000   0.91870836   -6.8644096    671.08655  0.025986933  0.025728694            8 
 2153000   0.90878453   -6.8684754    670.28313  0.025943766  0.025721579            3 
 2154000   0.91189201   -6.8693323    670.08033  0.025923875  0.025714374            5 
 2155000   0.89287352    -6.865425    670.86836  0.025942319  0.025707209            4 
 2156000   0.90930693    -6.866104    668.98819  0.025857614   0.02569996            6 
 2157000   0.92966832   -6.8625213    668.36456  0.025821533  0.025692724            6 
 2158000   0.92662962   -6.8481689    671.61242  0.025934987  0.025685497           23 
 2159000   0.88912177   -6.8678695    671.16965  0.025905884  0.025678292            4 
 2160000   0.90853007   -6.8380977    672.00544  0.025926136  0.025671141            9 
 2161000   0.90810143   -6.8277557    672.13082  0.025918974  0.025664055            5 
 2162000   0.90398942   -6.8701289     672.3319  0.025914736  0.025656975            7 
 2163000    0.9145891   -6.8224255    672.08373  0.025893193   0.02564981            3 
 2164000   0.93667512   -6.8726898    671.07489  0.025842379  0.025642692            5 
 2165000   0.89197213   -6.8184906    673.47057  0.025922655  0.025635559            6 
 2166000   0.90292767   -6.7958156    672.77359  0.025883871  0.025628536            4 
 2167000   0.94048295   -6.8740292    673.57578  0.025902776  0.025621431            5 
 2168000    0.8885516   -6.8792476    670.20202  0.025761148  0.025614184           20 
 2169000   0.92798158   -6.8513357    672.20383   0.02582618  0.025606949            7 
 2170000   0.89313058   -6.8612675    672.36955  0.025820643  0.025599721            7 
 2171000   0.89794036   -6.8339337    673.10169  0.025836853  0.025592612            6 
 2172000   0.88758225   -6.8698062     673.1761  0.025827812  0.025585501            8 
 2173000   0.89123002   -6.8324335     671.8233  0.025764047  0.025578318            9 
 2174000   0.90695776   -6.8442867     671.8429  0.025752948  0.025571159            5 
 2175000   0.90946477    -6.846625    672.16523  0.025753457  0.025564027            8 
 2176000   0.88526253   -6.8459446    672.62057   0.02575906  0.025556859           22 
 2177000   0.90557939   -6.8732908    671.27789  0.025695831  0.025549672            7 
 2178000   0.89278231   -6.8548116    673.73882  0.025778192  0.025542448            4 
 2179000   0.89421653   -6.8423643    675.66355  0.025839971  0.025535257            7 
 2180000   0.89281009   -6.8723243    673.65512  0.025751343   0.02552809            9 
 2181000   0.90170054   -6.8516384    673.43042   0.02573095  0.025520937            4 
 2182000   0.89507625   -6.8592259    675.58502  0.025801444  0.025513812            5 
 2183000   0.88012482   -6.8804953    673.78164  0.025720783  0.025506688            5 
 2184000   0.90041194   -6.8514723    674.37978  0.025731829  0.025499553            7 
 2185000   0.91017052   -6.8558894     673.9513  0.025703711  0.025492479            4 
 2186000   0.88749757   -6.8569104    674.25389  0.025703488   0.02548541            6 
 2187000   0.89843338    -6.853142    673.57278  0.025665782  0.025478376            8 
 2188000    0.8839511   -6.8465074    677.57678   0.02580655   0.02547127            6 
 2189000   0.90239579   -6.8440871    677.85749  0.025805447  0.025464242            6 
 2190000   0.90224888   -6.8602243     675.3906  0.025699794  0.025457185           10 
 2191000   0.91916354   -6.8545779    676.30183  0.025722723  0.025450116            6 
 2192000   0.90641706   -6.8639502    674.44357  0.025640342  0.025443077           18 
 2193000   0.89136308    -6.868685    674.95345  0.025648026   0.02543591           15 
 2194000   0.89235905    -6.868081    674.85004  0.025632408  0.025428824            6 
 2195000   0.91229835   -6.8708609     675.5502  0.025647312  0.025421763            7 
 2196000   0.91236867   -6.8352707     677.8817  0.025724108  0.025414687            4 
 2197000   0.89735702   -6.8635512    677.63187  0.025702923  0.025407698            4 
 2198000    0.8940084   -6.8917811    675.64368  0.025615851  0.025400584            4 
 2199000   0.88943226   -6.8637766    677.10741  0.025659671  0.025393492           10 
 2200000   0.91335628   -6.9017159    675.32753  0.025580588  0.025386385            9 
 2201000   0.92520633   -6.8361474    678.02163  0.025670969  0.025379341            7 
 2202000   0.89318777   -6.8595111    676.70406  0.025609448  0.025372261            6 
 2203000   0.88637385   -6.8719314    677.33455  0.025621673  0.025365179            8 
 2204000   0.91010936   -6.9089871    675.61595  0.025545068  0.025358083            6 
 2205000   0.89217107   -6.8917167    675.56846  0.025531688  0.025351006            5 
 2206000   0.90822855   -6.8601444    678.21287  0.025620009  0.025343985            7 
 2207000   0.90268696   -6.8681243    677.32605  0.025574915  0.025336946           11 
 2208000   0.90952567   -6.8616022    677.54361  0.025571543  0.025329858            7 
 2209000   0.89313063   -6.8892342    677.71642  0.025566486  0.025322746            9 
 2210000   0.87119228   -6.8940411    676.04711  0.025491972  0.025315604            6 
 2211000   0.88888873   -6.8860714    676.82453  0.025509744  0.025308438            5 
 2212000   0.90007659   -6.8730584    678.33853  0.025555249  0.025301286            3 
 2213000   0.88649691   -6.8704973    675.38998   0.02543267  0.025294087            4 
 2214000   0.90979006   -6.8700453    677.31278  0.025493555  0.025286808            5 
 2215000    0.8838731   -6.9229482    677.41492  0.025485889  0.025279636           13 
 2216000   0.89359767   -6.9033482    677.05544  0.025460869  0.025272551            4 
 2217000   0.87893065   -6.8829285    678.35207  0.025498123  0.025265392            4 
 2218000   0.90104848   -6.8908169    677.14401  0.025441239  0.025258242            7 
 2219000   0.92293961   -6.8786627    676.65553  0.025411429  0.025251076            6 
 2220000   0.89034864   -6.8845298    677.48304  0.025431045  0.025243961            8 
 2221000   0.88510341   -6.8859231    677.63872  0.025425436  0.025236846           11 
 2222000   0.89878156   -6.8753942    678.98659  0.025464544  0.025229711           10 
 2223000   0.90337963   -6.8642697    678.51316  0.025435341  0.025222682            4 
 2224000   0.89951182    -6.875255    680.31079  0.025491262  0.025215641            8 
 2225000   0.89776281   -6.8828256    680.10441  0.025472075   0.02520859           10 
 2226000   0.89411724   -6.9088743    678.00923  0.025382196  0.025201514           11 
 2227000   0.89128933   -6.8909215    679.31884  0.025419804  0.025194399            5 
 2228000   0.90249639   -6.8984542    678.14808  0.025364605  0.025187228            8 
 2229000   0.90401875   -6.8965437    678.34451  0.025360569  0.025180035            9 
 2230000   0.88705047   -6.8621792    680.09347  0.025414554  0.025172832            3 
 2231000   0.89412886    -6.854347    680.71502  0.025426379  0.025165724            4 
 2232000    0.8833715   -6.8974949    679.18028  0.025357687  0.025158672           15 
 2233000   0.89205888   -6.8698529    682.28241  0.025462099  0.025151548            7 
 2234000   0.91284153   -6.8689395    679.93449  0.025363119  0.025144464           11 
 2235000   0.90414066   -6.8803838    679.44194  0.025333406   0.02513735           10 
 2236000   0.90180173   -6.8820613    679.96195  0.025341456  0.025130247            5 
 2237000   0.88852536   -6.9062208    678.85559  0.025288913  0.025123133            4 
 2238000   0.88652091   -6.8969158    681.42398  0.025373249  0.025115964            9 
 2239000    0.8691419   -6.9105627     679.8102  0.025301853   0.02510886            7 
 2240000   0.90270761    -6.908434    681.92611  0.025369275  0.025101792            5 
 2241000   0.88646324   -6.8750147    681.44342  0.025340005  0.025094712            5 
 2242000   0.88464806   -6.8900387    682.07374  0.025352131  0.025087645            3 
 2243000   0.89038206   -6.8644497    682.81762  0.025368465  0.025080587            5 
 2244000   0.88003847   -6.8892264    682.13367  0.025331761  0.025073568            5 
 2245000   0.88396033    -6.916207    681.16347  0.025284465   0.02506648            3 
 2246000   0.90357398   -6.9043373    681.09212   0.02527056  0.025059315            8 
 2247000   0.90051068   -6.8737045    683.68855  0.025355605  0.025052242            5 
 2248000   0.90493018   -6.9152989    680.95968  0.025243167  0.025045188            8 
 2249000   0.88678144   -6.8955019    683.50389  0.025326215  0.025038169            6 
 2250000   0.87338706   -6.8824053    683.03983  0.025297772   0.02503114            7 
 2251000   0.88401508   -6.8840383    684.25307  0.025331448  0.025024118            9 
 2252000   0.87173604   -6.8717328    684.76576  0.025339171  0.025017106            9 
 2253000   0.87326466   -6.8731462    685.09305   0.02534003  0.025010134           10 
 2254000   0.88469971   -6.8773937    685.34754  0.025338197  0.025003159            5 
 2255000   0.88637507   -6.8689579    684.48306  0.025295013  0.024996142            6 
 2256000   0.91601214   -6.8867614    683.96865  0.025264799  0.024989082            5 
 2257000    0.8837158   -6.8734043    683.17672  0.025224365  0.024982039            5 
 2258000   0.86821984   -6.8847329     683.5328  0.025226336   0.02497499            8 
 2259000   0.88717029   -6.8726449    684.54122  0.025252369  0.024967958            4 
 2260000   0.87740459   -6.9319086    683.14997  0.025189896  0.024960866           14 
 2261000   0.89431527    -6.903864    683.97701  0.025209237  0.024953755            5 
 2262000   0.87687717   -6.8641712    682.63641  0.025148703  0.024946718            4 
 2263000   0.88445528   -6.8832756    686.27485  0.025271573  0.024939685            8 
 2264000   0.90898257   -6.9222684    682.42087  0.025118554   0.02493262            3 
 2265000   0.89987693   -6.9304286    681.37644  0.025069038  0.024925499            5 
 2266000   0.89816899   -6.8851687    683.66037  0.025141967  0.024918286            8 
 2267000   0.88509339   -6.8926339    683.92615  0.025140647  0.024911215            8 
 2268000   0.90589274   -6.9031668    684.30744  0.025143571  0.024904025            7 
 2269000   0.89499055   -6.9340223    682.24435  0.025056719  0.024896842            3 
 2270000   0.89094007   -6.8952906    683.65167  0.025097345  0.024889697           15 
 2271000   0.88370469   -6.9025072      682.539  0.025045465  0.024882508            9 
 2272000   0.89775445     -6.91041    683.27973   0.02506161   0.02487541           12 
 2273000   0.88022911   -6.8665393     684.4337  0.025092891  0.024868288           10 
 2274000   0.88383083   -6.9146874    686.16789  0.025145408  0.024861308           12 
 2275000   0.88504312   -6.9148111    687.49342  0.025182909  0.024854376            7 
 2276000   0.87291615   -6.9185294    684.43831  0.025059985  0.024847409            5 
 2277000   0.90378536   -6.8655561    686.73298  0.025132959  0.024840367            4 
 2278000    0.8986854   -6.8746584    686.19618  0.025102289  0.024833417           10 
 2279000   0.92306063   -6.8904791    687.97139  0.025156186  0.024826422            9 
 2280000   0.89415967   -6.9114486    686.18075  0.025079706  0.024819425            5 
 2281000   0.88909832   -6.9088156    687.18666   0.02510546  0.024812403            7 
 2282000   0.88835869   -6.9381016    685.10714  0.025018519  0.024805365            4 
 2283000   0.88382615   -6.9176866    686.62306  0.025062894   0.02479831            6 
 2284000   0.90373892   -6.8893659    685.89003  0.025025176  0.024791282            6 
 2285000   0.88228741   -6.8834466    688.13636  0.025096147  0.024784242            4 
 2286000   0.87534848   -6.9180823    686.20675  0.025014828  0.024777179            6 
 2287000   0.89056765    -6.918375     685.0541   0.02496189  0.024770079            7 
 2288000    0.8776275   -6.8959905    687.01503  0.025022401  0.024762977           10 
 2289000   0.88908445   -6.9030684    687.87328  0.025042714  0.024755855           10 
 2290000   0.88587737   -6.8886733    687.69876  0.025025428  0.024748754            5 
 2291000   0.88488747    -6.902935    685.92717  0.024950064  0.024741646            7 
 2292000   0.87453082   -6.8954887    687.67662  0.025002786  0.024734569            6 
 2293000   0.88387229   -6.9120464    686.13326  0.024935792  0.024727432           10 
 2294000   0.86646138   -6.8921061    687.36487  0.024969662  0.024720334            6 
 2295000   0.86681868   -6.8889941    686.71813  0.024935299   0.02471329            2 
 2296000   0.89042749   -6.8879223    687.24421  0.024943532  0.024706224            6 
 2297000   0.88799179   -6.9161355    688.16782  0.024966181  0.024699183            3 
 2298000   0.88457419   -6.8806281    689.24497  0.024994378  0.024692194           10 
 2299000   0.88846984   -6.9089519    686.40926  0.024880719   0.02468529            6 
 2300000   0.86478679   -6.9045241    690.27026  0.025009792  0.024678376            5 
 2301000   0.89621926   -6.9408221    687.50099   0.02489863  0.024671407            8 
 2302000   0.88516562   -6.8850273    689.27908  0.024952182  0.024664406            6 
 2303000   0.87979255   -6.9270264     687.9064  0.024891678  0.024657475            8 
 2304000   0.87893904    -6.881169    690.18624  0.024963333  0.024650534            8 
 2305000   0.90158167   -6.8872317     690.8549  0.024976677  0.024643646            4 
 2306000   0.87829541    -6.910138     690.0473  0.024936662   0.02463672            6 
 2307000   0.87631223   -6.9118196    689.50662  0.024906322  0.024629738            5 
 2308000   0.88771102   -6.9205538    689.85824  0.024908226  0.024622725           10 
 2309000   0.88344025   -6.8898504    690.18659  0.024909289   0.02461578            6 
 2310000   0.89678824   -6.9077208    691.60291    0.0249496  0.024608864           11 
 2311000   0.88615265   -6.9147408    691.62845  0.024939725  0.024601845           11 
 2312000   0.87420046   -6.9034642     690.7555  0.024897473   0.02459496           12 
 2313000   0.89063585   -6.8965543    690.76342  0.024886994  0.024588044            3 
 2314000   0.88999206    -6.922396    690.12726   0.02485333  0.024581092           12 
 2315000   0.87648613   -6.9199598    690.06382   0.02484031  0.024574094            8 
 2316000   0.91225023   -6.9271974     690.2419  0.024835992  0.024567009            8 
 2317000   0.87419919   -6.9480476    689.62972  0.024803256  0.024559914            7 
 2318000   0.89421661   -6.8924513    691.12792  0.024846416  0.024552914            8 
 2319000   0.86971495    -6.908346    689.22394  0.024767282  0.024545901            7 
 2320000   0.86683963   -6.9417944    691.03899  0.024821803  0.024538902            5 
 2321000   0.86395305   -6.9200813    689.66232   0.02476168  0.024531906            5 
 2322000   0.86407958   -6.9165397    691.14469  0.024804217  0.024524907            7 
 2323000   0.89452662   -6.8884593    691.41346   0.02480318  0.024517941            7 
 2324000   0.87031845   -6.8983071    691.97807  0.024812753  0.024510971            6 
 2325000   0.87514673   -6.9411209    689.21192  0.024702936  0.024504047            8 
 2326000   0.87849401    -6.887006    691.08811  0.024759534  0.024497077            9 
 2327000   0.88407644     -6.93483    692.03753  0.024782894  0.024490058            4 
 2328000   0.88748865   -6.9170029    692.01158  0.024771319   0.02448302            3 
 2329000   0.86979848   -6.9402525    690.64145  0.024711659  0.024475992            8 
 2330000   0.88544199   -6.9331329    690.59013  0.024699218  0.024468997           16 
 2331000   0.86675413   -6.9437431    690.72397  0.024693407  0.024462039            4 
 2332000   0.87125282   -6.9077131    690.25785  0.024666161   0.02445503            7 
 2333000   0.89102917   -6.9385169    693.22394  0.024761535  0.024448063           14 
 2334000   0.87829124   -6.9224358    693.88461  0.024774515  0.024441069            5 
 2335000   0.88026039   -6.9319126    690.63905  0.024648074  0.024434089            5 
 2336000   0.86836908   -6.9173074    693.26486  0.024731195  0.024427131            4 
 2337000   0.88239556   -6.9491359      693.249  0.024720047  0.024420168            3 
 2338000   0.86165368    -6.913497    691.16909   0.02463534  0.024413176            8 
 2339000   0.87620989   -6.9089212    693.77383  0.024717608  0.024406181            4 
 2340000   0.87202564   -6.9311407    691.98908  0.024643486  0.024399211            5 
 2341000    0.8588807   -6.9440624    689.67347  0.024550529  0.024392171            3 
 2342000   0.88444983   -6.9427725    693.47313  0.024675247  0.024385068            7 
 2343000   0.86493768   -6.9308886    692.90083   0.02464436  0.024378084            8 
 2344000    0.8629252   -6.9338755    691.80787   0.02459499  0.024371069            7 
 2345000   0.89222531   -6.9591616    692.90491  0.024623486  0.024364075           10 
 2346000   0.87432134   -6.9233747    693.81912  0.024645465  0.024357195            6 
 2347000   0.88336903   -6.9368771    694.27039  0.024650987  0.024350294            6 
 2348000   0.88004323   -6.9629721    693.01769  0.024596028  0.024343331           12 
 2349000   0.89218113    -6.908074    695.60193  0.024677236   0.02433643            9 
 2350000   0.86031563   -6.9474237    693.86605  0.024605179  0.024329513            7 
 2351000   0.88344832    -6.918535    694.62552  0.024621633  0.024322555            7 
 2352000   0.87829877   -6.9336306    693.85173  0.024583749  0.024315669            4 
 2353000   0.87178957   -6.9417147    694.44507  0.024594315  0.024308798            9 
 2354000   0.85644181   -6.9381911    694.44095  0.024583721  0.024301921            5 
 2355000   0.89126174   -6.9220819    694.75512  0.024584399  0.024294946            7 
 2356000   0.87321015   -6.9625368    692.60418  0.024497884  0.024287887            9 
 2357000   0.86794964   -6.9667679    691.59242  0.024451719  0.024280783            9 
 2358000   0.88704664   -6.9554455    692.55003  0.024475192  0.024273668           10 
 2359000   0.88427763    -6.957816    693.07416  0.024483332  0.024266622            5 
 2360000   0.86747375    -6.909994    696.13056  0.024580881  0.024259575            9 
 2361000   0.88420268    -6.964013    692.97732  0.024459174  0.024252514            9 
 2362000   0.87498647   -6.9303497    695.83879  0.024549774   0.02424545           13 
 2363000   0.88037021   -6.9658823    693.35519  0.024451798  0.024238431            9 
 2364000   0.87082482   -6.9458295    694.54916  0.024483543   0.02423133            5 
 2365000     0.880067   -6.9372437    695.31023  0.024500008  0.024224297            5 
 2366000   0.86096557   -6.9435493    694.13934  0.024448413  0.024217269            5 
 2367000   0.88005107   -6.9604021    695.80076  0.024496576   0.02421026            3 
 2368000   0.86599275   -6.9531027    695.78536   0.02448569  0.024203328           13 
 2369000   0.85753542   -6.9053533    698.41791  0.024567958  0.024196381            3 
 2370000   0.85324042   -6.9171389    697.20513  0.024514948  0.024189473            7 
 2371000   0.87960546    -6.944066    697.44799  0.024513145  0.024182616            5 
 2372000   0.87435053   -6.9338148    695.64501  0.024439468  0.024175787            5 
 2373000   0.88315694   -6.9501461    696.83222   0.02447086  0.024168875            4 
 2374000   0.87092536   -6.9591854    696.65502  0.024454332  0.024161884           16 
 2375000   0.86529633   -6.9651154     696.4417  0.024436551  0.024154924            4 
 2376000   0.88142755   -6.9517997    696.68152  0.024434677  0.024148074           10 
 2377000   0.88073787   -6.9666415    695.07624  0.024368119  0.024141068           12 
 2378000   0.87920199   -6.9386374    696.25424  0.024399153   0.02413409           10 
 2379000   0.87479686   -6.9334286    696.90801  0.024411798   0.02412712            7 
 2380000   0.86480356   -6.9951143      696.393  0.024383508  0.024120129            8 
 2381000    0.8727542   -6.9555283    696.59958  0.024380498   0.02411315            8 
 2382000   0.86156893   -6.9729204     695.0409  0.024315733  0.024106149           10 
 2383000   0.86498098   -6.9629816    695.72357  0.024329402  0.024099056            5 
 2384000    0.8740768   -6.9724173    695.91332  0.024325829  0.024092028            6 
 2385000   0.87072099   -6.9478481    697.40763  0.024367842  0.024084968           14 
 2386000   0.86713009   -6.9749291    695.70011  0.024297992  0.024077931           12 
 2387000   0.87649407   -6.9704562    696.42209  0.024313018  0.024070844            4 
 2388000   0.85840345   -6.9673326    696.87319  0.024318579  0.024063815            6 
 2389000   0.88656539   -6.9572219    697.59869  0.024333706  0.024056863            5 
 2390000   0.87451821   -6.9871022    696.11266  0.024271711  0.024049844            6 
 2391000    0.8619647   -6.9801888    696.72053  0.024282745  0.024042806            8 
 2392000   0.86987787   -6.9556431    698.45974  0.024333185  0.024035838           19 
 2393000   0.85506074   -6.9575395    698.08905  0.024310108  0.024028839           14 
 2394000   0.86752288   -6.9472262    698.88442  0.024327639  0.024021903            7 
 2395000   0.86476059   -6.9523969    698.79149  0.024314248  0.024014956           13 
 2396000   0.86250059   -6.9470398    697.26352  0.024250957  0.024008056            9 
 2397000   0.85928828   -6.9541021    699.17093  0.024307152  0.024001123           12 
 2398000   0.87047338   -6.9710138    697.70544  0.024246089  0.023994171           11 
 2399000   0.84970715   -6.9829791    698.39986  0.024260104  0.023987183            6 
 2400000   0.86280128   -7.0090906    697.05757  0.024203388   0.02398014            8 
 2401000   0.89136431   -6.9875624     696.4961   0.02417382  0.023973074            4 
 2402000   0.86909245   -6.9564806    697.97605    0.0242151  0.023966051           10 
 2403000   0.85909656   -6.9895569     698.0559  0.024207793  0.023959068           13 
 2404000    0.8596878   -6.9692624    698.64206  0.024218042  0.023952113            8 
 2405000   0.84358753   -6.9762951    697.15476  0.024156437  0.023945164            6 
 2406000   0.87848795   -6.9832424    699.78787  0.024237596  0.023938191            5 
 2407000   0.85358426   -6.9869245    700.07237  0.024237376  0.023931218           10 
 2408000   0.86620703   -6.9718078    700.23661  0.024232994  0.023924309            7 
 2409000   0.86012183   -6.9761946    699.45572  0.024195922  0.023917382            5 
 2410000   0.87129032   -6.9563789    701.63035  0.024261077  0.023910408            6 
 2411000   0.85628267   -6.9934892    697.23117  0.024098962  0.023903457            9 
 2412000   0.85553931   -6.9784802    698.92424  0.024147465  0.023896478            5 
 2413000    0.8702437    -6.956743    700.08137   0.02417742  0.023889553           12 
 2414000   0.86595909   -6.9788691    697.70186  0.024085262  0.023882599            8 
 2415000   0.86724781   -6.9895705    699.32522  0.024131305  0.023875648            7 
 2416000      0.86266   -6.9450764    700.95136  0.024177406  0.023868685           11 
 2417000   0.85440937   -6.9487941    701.40644  0.024183093  0.023861754           20 
 2418000   0.86821347   -6.9483607    699.70665  0.024114511  0.023854888            7 
 2419000    0.8555923    -6.961877    700.76981  0.024141168  0.023848013           13 
 2420000   0.85784126   -6.9534321    702.97695  0.024207195  0.023841174            6 
 2421000   0.86469169   -6.9682207      701.748  0.024154895  0.023834375           13 
 2422000   0.86816109   -6.9641813    699.70056  0.024074476  0.023827522            6 
 2423000     0.872737   -6.9514677     703.5211  0.024195938  0.023820723            5 
 2424000   0.85078698   -6.9594193    701.48641  0.024116007  0.023813909            8 
 2425000   0.87075102   -6.9447261    702.73431  0.024148945  0.023807087            8 
 2426000   0.87315541   -6.9793536    700.81948  0.024073217  0.023800159           20 
 2427000   0.86412398   -6.9699799    700.75858  0.024061207  0.023793292           12 
 2428000   0.87302003   -6.9647842    702.75698  0.024119885  0.023786432            8 
 2429000   0.86315941   -7.0082037    700.43844  0.024030412  0.023779574            7 
 2430000   0.87283382   -6.9904983    701.37482  0.024052634  0.023772597            6 
 2431000   0.84179708   -6.9630774    702.47148  0.024080333  0.023765663            5 
 2432000    0.8560275   -6.9701111    701.39304  0.024033479  0.023758809            6 
 2433000   0.87920594   -6.9714347    703.48227  0.024095159  0.023751954           12 
 2434000   0.86346458   -6.9903947    702.47256   0.02405069  0.023745095           11 
 2435000   0.86632068   -6.9811867     701.1825  0.023996663  0.023738214           11 
 2436000   0.83998247   -6.9947023    701.51203  0.023998085  0.023731331            6 
 2437000   0.86891604   -7.0165786    703.38763  0.024052374  0.023724431            8 
 2438000    0.8617932   -6.9825001     701.0679  0.023963218  0.023717533            6 
 2439000    0.8673131   -6.9847419    704.07003  0.024055966  0.023710557            6 
 2440000   0.87802841   -6.9836943    702.46379   0.02399125  0.023703684           11 
 2441000   0.84725346   -6.9336818    704.74284  0.024059226  0.023696851            7 
 2442000   0.86125185   -6.9443171     704.4106  0.024038036  0.023690001            7 
 2443000   0.85891602   -6.9788875    703.56639  0.023999399  0.023683124            7 
 2444000   0.87121886   -6.9637857    702.25465  0.023944853  0.023676298            4 
 2445000   0.86375066    -6.993619    704.21341  0.024001821  0.023669386            8 
 2446000   0.86414563   -6.9859793    703.52515  0.023968559  0.023662474           11 
 2447000   0.84507711   -7.0133665    703.32722  0.023952023  0.023655567           24 
 2448000   0.83415285   -6.9928983    704.23898  0.023973277  0.023648695            7 
 2449000   0.88081386   -7.0048445    703.71591  0.023945689  0.023641866           11 
 2450000   0.84582552   -6.9935917    705.59558   0.02399985  0.023634986            9 
 2451000   0.85587712   -6.9734421    705.29899  0.023979974  0.023628123            5 
 2452000   0.82469702   -6.9849611    705.63461    0.0239816  0.023621305           24 
 2453000   0.85026233    -7.001955    704.94547  0.023948413  0.023614439            7 
 2454000   0.84383436   -6.9954644    705.06958  0.023942868  0.023607575            8 
 2455000   0.85493122   -7.0096576    704.07282  0.023899281  0.023600754            4 
 2456000   0.85284213   -6.9767829    704.91921  0.023918268  0.023593877            5 
 2457000   0.85477697   -6.9988243    704.97487  0.023910422  0.023587103            8 
 2458000   0.85619285   -6.9849191    704.11479  0.023871535  0.023580334            4 
 2459000   0.86986223    -6.990771    705.81071    0.0239193   0.02357353           12 
 2460000   0.87692203   -7.0011282      705.281  0.023891633  0.023566708            6 
 2461000   0.85704951   -7.0158577    704.80225  0.023865713  0.023559933           20 
 2462000   0.87861098   -6.9720662    708.69405  0.023987749  0.023553228           12 
 2463000    0.8432546   -7.0125569    705.56991  0.023872307  0.023546541            6 
 2464000   0.85115347   -6.9708415    707.97133  0.023943835   0.02353989            9 
 2465000   0.86106984   -6.9706227    709.00667  0.023969124  0.023533284           23 
 2466000   0.85650776   -6.9549862    708.72361  0.023949838  0.023526672            8 
 2467000   0.88700063    -6.992041    707.27565  0.023891219   0.02352005            8 
 2468000   0.84974605   -6.9550802     709.4597  0.023955284  0.023513362            7 
 2469000   0.85627629    -6.982716    708.49099  0.023912886  0.023506761           14 
 2470000   0.85621634    -7.013392     707.3661  0.023865253  0.023500137           14 
 2471000   0.86238629   -6.9772824    709.76498  0.023936496  0.023493558            5 
 2472000   0.83805526   -7.0068637    709.56497  0.023920071  0.023486898           15 
 2473000    0.8494349   -6.9952549    709.21833  0.023898717  0.023480221            5 
 2474000   0.84954722   -6.9982664    709.38211  0.023894574   0.02347361            4 
 2475000   0.84664482   -6.9536049     709.3864  0.023885064   0.02346703            5 
 2476000   0.85920763   -6.9911361     709.0706  0.023864789  0.023460401            6 
 2477000   0.83904984   -7.0115387    707.85259  0.023814177  0.023453733            4 
 2478000   0.85955692   -6.9664167    710.50504  0.023893767  0.023447158            6 
 2479000   0.83270011   -7.0088191    709.03568  0.023834734   0.02344051            4 
 2480000   0.85073857   -7.0174591    709.43257   0.02383846   0.02343387            6 
 2481000   0.85519507   -6.9979155    708.55485   0.02379937   0.02342722            6 
 2482000   0.83623617   -6.9966745    708.55271   0.02378971  0.023420563            9 
 2483000   0.85556523   -6.9951696    709.82931  0.023822973  0.023413953            5 
 2484000   0.86293123   -7.0038853    709.78262  0.023811816  0.023407319           13 
 2485000   0.85419844   -7.0182916    709.99104  0.023809223  0.023400699            7 
 2486000   0.86554181    -7.023998    709.13826   0.02377106  0.023394053           14 
 2487000   0.85182541   -6.9988615    708.76634   0.02374904  0.023387465            5 
 2488000   0.86038758   -6.9589495    712.05683  0.023849706  0.023380877            5 
 2489000   0.85804353    -6.970274    711.93655  0.023836097  0.023374301            9 
 2490000   0.84951482   -7.0028321    710.26087  0.023770444  0.023367741            8 
 2491000   0.83674077   -7.0099797    708.93648  0.023716596  0.023361104            4 
 2492000   0.84616785   -7.0076744    708.64992  0.023697496  0.023354449            6 
 2493000   0.83587464   -7.0134944    709.31747  0.023710304  0.023347799            5 
 2494000   0.86565331   -7.0119223    710.21807   0.02373089   0.02334115            6 
 2495000   0.86500524   -6.9954462    710.38512  0.023726958  0.023334527            8 
 2496000    0.8565302   -6.9989134    710.94851  0.023736262  0.023327894            7 
 2497000   0.85366012   -6.9849738    712.60721  0.023782112  0.023321324            6 
 2498000   0.83399379    -7.027613    710.23512  0.023693459  0.023314786            8 
 2499000   0.85797841   -6.9755238    714.26222  0.023818268  0.023308217            6 
 2500000    0.8425473   -6.9834204    713.86708  0.023795569  0.023301653            6 
 2501000    0.8591338   -7.0092346    713.50172  0.023773881   0.02329506            7 
 2502000   0.84731535   -7.0197915    712.29627  0.023724229  0.023288544            6 
 2503000   0.86518072   -6.9877266    713.80996  0.023765147  0.023281964            4 
 2504000   0.85602352   -7.0142846    711.39628  0.023675329   0.02327534            6 
 2505000   0.85781992   -7.0032215    712.43539  0.023700446  0.023268725            5 
 2506000   0.83203928   -6.9958394    713.30151   0.02371979  0.023262164            8 
 2507000   0.85957715   -6.9960129    712.17795  0.023672981  0.023255677            4 
 2508000   0.85359835   -6.9919003    710.95953  0.023623057  0.023249104            5 
 2509000   0.83029179   -7.0382431     711.0023  0.023615062  0.023242508           15 
 2510000   0.84223047   -7.0307672    711.97957    0.0236381  0.023235852            8 
 2511000   0.86128112   -7.0099199    714.64256  0.023717064  0.023229232            5 
 2512000   0.83861461   -6.9841715    714.37749  0.023698829  0.023222656            9 
 2513000   0.85599478   -7.0052138    713.71339  0.023667376  0.023216187           14 
 2514000   0.84234014   -7.0215595    713.27238  0.023643343  0.023209702            9 
 2515000   0.86689144   -7.0041641     713.6719   0.02364718  0.023203207            5 
 2516000   0.84499903   -7.0335404    713.46262   0.02363085  0.023196629            8 
 2517000   0.85242363   -7.0453051    712.05535  0.023574869  0.023189925           15 
 2518000   0.85072616   -7.0587712    711.06881  0.023532857   0.02318327            7 
 2519000   0.84574267   -7.0569946    712.90137   0.02358414  0.023176593            9 
 2520000   0.84372867   -7.0287643    712.64971  0.023566459  0.023169961            4 
 2521000   0.83949684   -7.0708397     712.9708  0.023567725  0.023163278            7 
 2522000    0.8574674   -7.0175367    712.51949  0.023543467  0.023156599           13 
 2523000   0.85131311   -7.0645156     712.0606  0.023518979   0.02314996           10 
 2524000   0.86640179   -6.9959469    714.38047  0.023586254   0.02314333            8 
 2525000   0.85392176   -7.0220609    713.19441  0.023537769  0.023136712           11 
 2526000   0.83343506    -7.041584    713.80278  0.023548521  0.023130128            7 
 2527000   0.84470474   -7.0371422    712.40012  0.023492947  0.023123514           12 
 2528000   0.83293115   -7.0494648    714.38656  0.023549135  0.023116918           11 
 2529000   0.87270469   -7.0606013    712.73199  0.023485304  0.023110357           15 
 2530000   0.84550525   -7.0358335    715.01029  0.023551064  0.023103747           10 
 2531000   0.85794266     -7.03253    713.48677  0.023491596  0.023097127            4 
 2532000   0.83812272   -7.0186558    713.73973  0.023490644  0.023090563           12 
 2533000   0.83797324   -7.0042315    713.86541  0.023485505   0.02308404            3 
 2534000   0.84758883    -7.031939    715.10065  0.023516859  0.023077522            6 
 2535000   0.84638087   -6.9916771    714.70646  0.023494624  0.023070912           11 
 2536000   0.83895075   -7.0232861     713.4905  0.023445403  0.023064379           11 
 2537000   0.83454378   -7.0226373    714.64108  0.023473955  0.023057835            5 
 2538000   0.84380732   -7.0070933    716.09135  0.023512324  0.023051268            9 
 2539000   0.84162918   -7.0081078    714.55663  0.023452692  0.023044714            6 
 2540000   0.83844234   -7.0187302    716.66859  0.023512749  0.023038153            7 
 2541000   0.83335731   -7.0567586      712.478  0.023366063  0.023031586            9 
 2542000   0.82906818   -7.0306496    713.14827  0.023378844  0.023024962           30 
 2543000   0.85791134   -7.0761218    713.93046  0.023395283  0.023018365           13 
 2544000   0.84642935   -7.0361794    714.81588  0.023415091  0.023011749           12 
 2545000   0.84769431   -7.0324552    714.34552  0.023390489  0.023005195            8 
 2546000   0.86024968    -7.072076    712.56921  0.023323161  0.022998508           13 
 2547000   0.85970798    -7.028249    714.30246  0.023370713  0.022991885           11 
 2548000   0.82863128    -7.042019    715.40737  0.023397677  0.022985336            6 
 2549000   0.82785404   -7.0293002    717.28321  0.023449824  0.022978782           12 
 2550000   0.83101006   -7.0456791    715.96785  0.023397642  0.022972246            8 
 2551000   0.84415995    -7.010601    715.59146  0.023376175  0.022965686            5 
 2552000   0.85662593   -7.0329363    716.43645  0.023394607  0.022959105            7 
 2553000   0.84875788   -7.0119675    715.55913  0.023356807  0.022952571           11 
 2554000   0.84539784   -7.0414288    714.95285  0.023327879  0.022945982            6 
 2555000   0.84021349   -7.0418476    714.93795  0.023318263  0.022939396           13 
 2556000   0.84151774    -7.061031    715.26874  0.023319925  0.022932821            4 
 2557000    0.8356503    -7.036376    717.44298  0.023381664  0.022926284            8 
 2558000    0.8212525   -7.0119845    716.76207  0.023350341  0.022919772           11 
 2559000   0.84339296   -6.9875933    718.85356  0.023409325  0.022913268            6 
 2560000   0.82447186   -7.0054632    716.13297   0.02331162  0.022906767            7 
 2561000    0.8329056   -7.0420702    716.79709  0.023324128  0.022900198            8 
 2562000   0.83978146   -7.0686807    714.43278  0.023238121  0.022893605            7 
 2563000   0.84192943   -7.0443703    717.17391  0.023318179  0.022887027            8 
 2564000   0.83933641   -7.0329665     716.9074  0.023300422   0.02288046            9 
 2565000   0.83927426   -7.0421734    715.59167  0.023248592  0.022873871            9 
 2566000    0.8402375   -7.0445128    714.96063  0.023219038  0.022867246           10 
 2567000   0.85560276   -7.0485942    716.96849  0.023275175  0.022860665            8 
 2568000   0.83997708   -7.0252948    717.56831  0.023285576  0.022854125            7 
 2569000   0.83167545   -7.0378017    717.42436  0.023271842  0.022847584            8 
 2570000   0.84670278   -7.0541127    715.58344  0.023203095  0.022840967            8 
 2571000   0.83105322   -7.0550531    714.22021  0.023149884  0.022834297            6 
 2572000   0.84593403   -7.0753529     715.0607  0.023168115   0.02282759            9 
 2573000   0.82003376   -7.0557275    714.81041  0.023151004  0.022820911           10 
 2574000   0.82533391   -7.0284978    717.87713  0.023241295   0.02281425            7 
 2575000   0.84016719   -7.0492176    715.85665  0.023166882  0.022807557            4 
 2576000   0.83566271   -7.0252351    717.73925   0.02321879  0.022800897            7 
 2577000   0.83221531   -7.0710195    717.32938  0.023196526  0.022794264            5 
 2578000   0.83514328   -7.0729961    715.90466  0.023141475  0.022787611           17 
 2579000   0.85412907    -7.050786    714.81878  0.023097414  0.022780933            9 
 2580000   0.86981393   -7.0302615    717.01824  0.023159504  0.022774348            9 
 2581000   0.84625556   -7.0241502    716.32678  0.023128205  0.022767775            6 
 2582000   0.83027935   -7.0414172     717.7344  0.023164678  0.022761175            9 
 2583000   0.83333017   -7.0019365    719.77481  0.023221539  0.022754642            6 
 2584000   0.86041017   -7.0031227    719.12113  0.023191471  0.022748114            6 
 2585000   0.83783477     -7.02418    719.72982  0.023202122  0.022741581           10 
 2586000    0.8458212   -7.0383788    718.35941  0.023148989  0.022735006            8 
 2587000   0.85698299    -7.053981    717.96274  0.023127263  0.022728466           10 
 2588000   0.83243295   -7.0477924    720.16882  0.023189362  0.022721893            9 
 2589000   0.83131886   -7.0764027    716.04659  0.023047721   0.02271525            8 
 2590000   0.84747573   -7.0647567    718.51007  0.023118085  0.022708585            7 
 2591000     0.828725   -7.0839874     717.0095    0.0230609  0.022701931            5 
 2592000   0.82613461   -7.0678766    718.34362  0.023094895   0.02269525            7 
 2593000    0.8641751   -7.0547705    717.74487  0.023066746  0.022688591           12 
 2594000    0.8226171   -7.0558233    720.15458  0.023135267  0.022682001            8 
 2595000   0.82605049   -7.0466356    717.47266  0.023040227  0.022675344           18 
 2596000   0.82574807   -7.0758597    718.66505  0.023069628  0.022668682           13 
 2597000   0.84074554   -7.0367519    718.97442  0.023070672  0.022662047            8 
 2598000   0.83027184   -7.0231442     719.8018  0.023088331  0.022655492            6 
 2599000   0.83057344   -7.0325129    720.01899  0.023086411  0.022648913            8 
 2600000   0.83964639   -7.0588606    718.93797  0.023042884  0.022642381            8 
 2601000   0.81988363   -7.0403714    718.21713  0.023010929  0.022635809            5 
 2602000   0.83228559   -7.0417128    718.22725   0.02300241  0.022629226           10 
 2603000   0.83653958   -7.0588182    718.34928   0.02299748  0.022622685            6 
 2604000   0.84882318   -7.0464256    719.94927  0.023039851  0.022616093            4 
 2605000   0.82883358   -7.0514542      720.331  0.023043218  0.022609529            8 
 2606000   0.83956286   -7.0317162     720.7405  0.023047471   0.02260299            4 
 2607000   0.82773883   -7.0666897    719.12143  0.022986876  0.022596351            9 
 2608000   0.80902828   -7.0537517    719.02374  0.022974941  0.022589721            7 
 2609000   0.82481248   -7.0915422    719.87901  0.022993452  0.022583043            6 
 2610000   0.83168209     -7.07943    719.71363  0.022979362  0.022576402            9 
 2611000   0.83863065   -7.0893645    718.60762  0.022935262   0.02256974            9 
 2612000   0.85180357   -7.1164156    717.29833  0.022884709  0.022563093           10 
 2613000   0.82773496    -7.047519    719.87393  0.022958092  0.022556487           12 
 2614000   0.83161424   -7.0542923    718.85202  0.022916731  0.022549903            8 
 2615000   0.85267873   -7.0381239    722.23596  0.023015805  0.022543386           13 
 2616000   0.83486415   -7.0347951    721.99191  0.022999232  0.022536854            7 
 2617000   0.83664006   -7.0341452    720.14286  0.022931565  0.022530278           15 
 2618000   0.83584439   -7.0232755    721.30237  0.022959714  0.022523694            5 
 2619000   0.84246392   -7.0433294    720.69589   0.02293165  0.022517144            5 
 2620000   0.81486023   -7.0546957    722.59221  0.022983213  0.022510594           14 
 2621000   0.84492509   -7.0520176    720.75974  0.022916182  0.022504047            8 
 2622000   0.83644198   -7.0682043    720.24972  0.022891232  0.022497477            6 
 2623000   0.83294293   -7.0486987    720.43139  0.022888276   0.02249092           10 
 2624000   0.84052243   -7.0644905    721.09451  0.022900613  0.022484338            9 
 2625000   0.83139382   -7.0611503    720.46367  0.022871863  0.022477832            7 
 2626000   0.84389667    -7.066899    722.24597  0.022919712  0.022471271           11 
 2627000   0.84554887   -7.0605486    718.54053  0.022793444  0.022464686           10 
 2628000   0.83639767   -7.0338093    722.01558  0.022894964   0.02245811            6 
 2629000   0.83245009     -7.05118    721.63194  0.022874095  0.022451518            6 
 2630000    0.8436007   -7.0585006    720.93414  0.022843287  0.022444903            7 
 2631000   0.80673702   -7.0915743    721.10139  0.022839902   0.02243828           10 
 2632000   0.82510737   -7.0445579    721.25972  0.022836237  0.022431708            8 
 2633000   0.84040116   -7.0608707    722.17657  0.022856582   0.02242513            9 
 2634000   0.83239455   -7.0439426    721.05835  0.022812527   0.02241848            7 
 2635000   0.84452014    -7.090158    719.77758  0.022763364  0.022411876            5 
 2636000   0.83086113   -7.0474807    720.72875  0.022784799  0.022405272            9 
 2637000   0.83025046   -7.0881251    719.18277  0.022727303  0.022398618           26 
 2638000   0.81440459   -7.0738683    721.02882  0.022777004  0.022391965            8 
 2639000   0.81916426   -7.0570667    719.72692  0.022727261  0.022385359           10 
 2640000   0.81065535    -7.067977    719.26106  0.022703948  0.022378712            6 
 2641000   0.83053097    -7.075812    719.95867  0.022717363  0.022372047           15 
 2642000   0.79959037   -7.0558068    722.22499  0.022780248  0.022365378            7 
 2643000   0.83055741   -7.0583638    720.91175  0.022730223  0.022358747            4 
 2644000   0.84969766    -7.095851    719.44659  0.022675447  0.022352058            9 
 2645000   0.81953397   -7.1045388    722.07986  0.022749838  0.022345298           16 
 2646000   0.82645714   -7.1083467    718.03676  0.022613906  0.022338575            5 
 2647000   0.82285759   -7.1079805    718.34102  0.022614942  0.022331792           10 
 2648000   0.80750401   -7.0978433    720.51651  0.022674865  0.022325008           20 
 2649000    0.8315038   -7.0828556    720.70294   0.02267217  0.022318271           16 
 2650000    0.8190008   -7.1096396    718.45525  0.022592932  0.022311491           11 
 2651000   0.85030662   -7.0668734    722.06837  0.022697987  0.022304702            8 
 2652000   0.81576608   -7.0985598    718.82902  0.022587639  0.022297978            4 
 2653000   0.81276284   -7.0687171    721.50134  0.022663065  0.022291274            7 
 2654000    0.8372958   -7.0656602    721.97347   0.02266935  0.022284615            9 
 2655000   0.83461675   -7.0625408    721.80605  0.022655557  0.022277923            7 
 2656000   0.85044538   -7.0840925    719.62574  0.022578619  0.022271248            6 
 2657000    0.8378483   -7.0788063    720.52349  0.022598278  0.022264577            5 
 2658000   0.82255973   -7.0585756    722.03332  0.022637112  0.022257929            3 
 2659000   0.80911409   -7.0365084    721.55062  0.022613471  0.022251284           10 
 2660000   0.83816895   -7.0045174    723.58353  0.022668657   0.02224468            8 
 2661000   0.82947477   -7.0808169    720.79346  0.022572763  0.022238048            8 
 2662000   0.83013589   -7.0506269    721.68277  0.022592123  0.022231392            8 
 2663000   0.82778031   -7.0789377    720.15555  0.022535848  0.022224694            8 
 2664000   0.82658485   -7.0977548    720.90036  0.022550687  0.022218028           13 
 2665000   0.84174853    -7.073252    722.14718  0.022581213  0.022211311           22 
 2666000   0.82445104   -7.1007431    721.05577  0.022538627  0.022204652            6 
 2667000   0.82080094   -7.0929351    719.58089  0.022484092    0.0221979           11 
 2668000   0.82474864   -7.1146108    722.24841  0.022558983  0.022191196            4 
 2669000   0.82569903    -7.095027    720.79037  0.022505007  0.022184455            6 
 2670000   0.81802741   -7.0948045    721.31438  0.022512933  0.022177697           12 
 2671000   0.82040225   -7.0758035    721.42997  0.022508111  0.022170907           26 
 2672000    0.8187913   -7.0920839     720.7874  0.022479647  0.022164114           12 
 2673000   0.83753076   -7.1119197    719.75779  0.022439138  0.022157352            6 
 2674000   0.82999124   -7.0835625    723.02159   0.02253246  0.022150572           11 
 2675000   0.80832465   -7.0857835    722.75615  0.022515768  0.022143833            8 
 2676000   0.81429899   -7.1307791    721.75566  0.022476198  0.022137089            6 
 2677000    0.8210865   -7.0955708     721.5727  0.022462106  0.022130352            7 
 2678000   0.82574263   -7.0926667    721.90631    0.0224641  0.022123628           16 
 2679000   0.80457493   -7.1192666    720.14229  0.022400843  0.022116857           16 
 2680000   0.80559676   -7.1062294    721.98684   0.02244984  0.022110103            8 
 2681000   0.81125279   -7.1133914    720.50978  0.022395554  0.022103369            8 
 2682000    0.8227696    -7.080972    721.94032  0.022431653  0.022096606            6 
 2683000   0.81167704   -7.0779204    722.50252  0.022440754  0.022089906            7 
 2684000   0.82920422   -7.0810313    723.69084  0.022469288  0.022083241           12 
 2685000   0.83166395   -7.0902874    723.07713  0.022441872   0.02207655            4 
 2686000   0.82571615   -7.0687742     723.0207  0.022431766  0.022069814           10 
 2687000   0.80436793   -7.1153659    721.29688  0.022369957  0.022063068           25 
 2688000   0.82032562   -7.0861719    723.31492  0.022424198   0.02205634            5 
 2689000   0.81136428   -7.1138121     722.2287  0.022382196  0.022049636           14 
 2690000   0.82512273   -7.1059673    722.04146  0.022368075  0.022042913            7 
 2691000   0.81715268   -7.0965675    722.69952  0.022380141  0.022036202           12 
 2692000   0.81147843   -7.0764959    721.87909   0.02234643  0.022029534            8 
 2693000   0.81163572   -7.0846953    723.19241  0.022378772  0.022022862           12 
 2694000   0.83160376   -7.0799059     724.7426  0.022418417  0.022016163            6 
 2695000   0.80836468    -7.098753    723.52647  0.022372494  0.022009459           12 
 2696000   0.82820133   -7.1003207    723.18999  0.022353796  0.022002779            7 
 2697000   0.82166898   -7.0568437    724.31188  0.022380172  0.021996155            5 
 2698000    0.8105682    -7.101891    722.48415  0.022315424  0.021989512           29 
 2699000   0.81713808   -7.0769718    722.90032  0.022320005  0.021982905            6 
 2700000   0.81524006   -7.0885255    724.27067  0.022354033  0.021976278            5 
 2701000   0.83276652   -7.1031458    724.57501  0.022355146  0.021969684            4 
 2702000   0.80267662   -7.1054754    724.60833  0.022347901   0.02196302            7 
 2703000   0.82367066   -7.0980117    725.67776  0.022372603  0.021956385            8 
 2704000   0.82297898   -7.1006325    722.38463   0.02226284  0.021949777            5 
 2705000   0.83734131   -7.0586768    726.81317   0.02239104  0.021943172            3 
 2706000   0.81755923   -7.1078749    724.43086  0.022309401  0.021936511            9 
 2707000    0.8049056   -7.0438257    724.83737  0.022313674   0.02192988           14 
 2708000   0.80923499   -7.0820662    724.10665  0.022282947  0.021923287           10 
 2709000   0.82322996   -7.1056483    723.21828  0.022247394  0.021916644           10 
 2710000   0.82860816   -7.0868918     725.6392  0.022313629  0.021909996           10 
 2711000   0.82077077    -7.090189    724.80407  0.022279727  0.021903366           15 
 2712000   0.82148205   -7.1060747    723.39619  0.022228251  0.021896724           10 
 2713000   0.82898366   -7.0885701    726.07956  0.022302481  0.021890069            9 
 2714000   0.81668386   -7.1214928    725.14201  0.022265476  0.021883383            9 
 2715000   0.81504348   -7.1073891    723.46446  0.022205784  0.021876702           19 
 2716000   0.82069072   -7.0837618    726.05489  0.022277089  0.021870022            8 
 2717000   0.82375421   -7.0799016     726.0061  0.022267394  0.021863392            8 
 2718000   0.82308501   -7.0943311    724.71317   0.02221956  0.021856724            4 
 2719000    0.8030274   -7.0843336    725.89528  0.022247618  0.021850067           13 
 2720000   0.81629784   -7.1320141    722.54757  0.022136874  0.021843408           12 
 2721000     0.810861   -7.0779933    726.14368  0.022238873  0.021836718            8 
 2722000   0.83001827   -7.1229676    724.71183  0.022186867  0.021830073           10 
 2723000   0.81448758   -7.1350221    721.73962  0.022087759  0.021823356           11 
 2724000   0.83153652   -7.1109008    724.03648  0.022149917  0.021816647           10 
 2725000    0.8167078   -7.1235208    723.84596  0.022135962  0.021809955            6 
 2726000   0.81440148   -7.1007786    725.17084  0.022168343  0.021803269            7 
 2727000   0.81064198   -7.1144267    723.83316  0.022119336  0.021796622            8 
 2728000   0.82820386   -7.1053865    726.58472  0.022195281  0.021789953           34 
 2729000   0.80561871   -7.0823443    726.05528  0.022170981  0.021783316            6 
 2730000   0.81669668   -7.1159272    723.85359  0.022095653  0.021776668           13 
 2731000    0.8239438   -7.1115223     725.2128  0.022129037  0.021769992           17 
 2732000   0.80434015    -7.120272    724.57639  0.022101525  0.021763304           12 
 2733000    0.7979824   -7.0690942    726.32349   0.02214671  0.021756684           10 
 2734000   0.80452867   -7.1442609    723.77509  0.022060933  0.021750024           12 
 2735000    0.8252292   -7.1158772    727.59828  0.022169356  0.021743353            6 
 2736000   0.81427364   -7.1243561    724.56406  0.022068837  0.021736702           13 
 2737000   0.80891254   -7.0873377    725.45093  0.022087776  0.021730047           13 
 2738000   0.81735098   -7.1155557    724.12226   0.02203927  0.021723377            8 
 2739000   0.81403869   -7.0964612    725.44024  0.022071323   0.02171673           12 
 2740000   0.81720842   -7.1278715    725.81629  0.022074705  0.021710081            7 
 2741000   0.80212445   -7.1492777    723.18279  0.021986586   0.02170341           15 
 2742000   0.80185848   -7.1414942    725.21222  0.022040245  0.021696742           14 
 2743000   0.79215924    -7.092252     727.9062  0.022114054  0.021690095            9 
 2744000   0.80673065   -7.1465906    724.53721  0.022003681  0.021683469            8 
 2745000   0.83299032   -7.1087235    727.22653  0.022077308  0.021676828           10 
 2746000   0.81613969   -7.1053359    724.58005  0.021988955  0.021670197           11 
 2747000   0.81978877   -7.1058449    727.17607  0.022059704  0.021663574            8 
 2748000   0.81398506   -7.0962437    726.00547  0.022016178  0.021656982           10 
 2749000   0.82554556   -7.1006286    726.28693  0.022016701  0.021650412           21 
 2750000   0.82534282   -7.0978127    727.83183   0.02205551  0.021643856            9 
 2751000   0.80140009   -7.1278958    726.10632  0.021995224  0.021637262           10 
 2752000   0.82005681   -7.0993859    726.59598  0.022002058  0.021630669           12 
 2753000   0.80984134   -7.1016549    726.85323  0.022001853   0.02162406           15 
 2754000   0.80741747   -7.1069454    729.40334  0.022071028  0.021617452           12 
 2755000   0.81009732   -7.1080544    726.54238  0.021976479  0.021610847            8 
 2756000   0.80826889   -7.1109356     726.2804  0.021960583  0.021604237           10 
 2757000   0.82646969   -7.1504149    725.33154  0.021923937  0.021597596            9 
 2758000   0.80410637   -7.1492727    726.52149  0.021951943  0.021590956           17 
 2759000   0.80475494   -7.1594354    726.89666  0.021955318  0.021584304            6 
 2760000   0.81672661   -7.1570179    728.90312  0.022007944  0.021577631            8 
 2761000   0.80599424   -7.1534171    725.88776  0.021908963  0.021570966           15 
 2762000   0.81869826   -7.1414899    728.35658  0.021975518  0.021564267           15 
 2763000   0.80671614   -7.1591486    725.57942  0.021883804  0.021557588           13 
 2764000   0.79113332   -7.0900165    729.13214     0.021983  0.021550979           30 
 2765000   0.80638389   -7.1376364    725.98753  0.021880275  0.021544375           10 
 2766000   0.78929929   -7.1019812    728.69963  0.021954074  0.021537759            9 
 2767000   0.81671233   -7.1183571    728.07681  0.021927383  0.021531159           10 
 2768000   0.82339187   -7.1009646    728.92165  0.021944895  0.021524569           14 
 2769000   0.80287858   -7.1371752    728.43416  0.021922299  0.021517957           11 
 2770000   0.81552182   -7.1389515    726.49399  0.021856016  0.021511338           10 
 2771000   0.82885381   -7.1574074    727.31038  0.021872681  0.021504723           28 
 2772000   0.80489698   -7.1316471     726.8918  0.021852207  0.021498083           12 
 2773000   0.80347893   -7.1635538    725.49883  0.021802465  0.021491415           11 
 2774000   0.81814773   -7.1584619    727.54386   0.02185604  0.021484755           11 
 2775000   0.81472655   -7.1244067    728.16155  0.021866713  0.021478066           18 
 2776000   0.79627381   -7.1418007    727.20382  0.021830086  0.021471423           10 
 2777000   0.81421422   -7.1363008    729.13489  0.021880173    0.0214648           23 
 2778000   0.80307176   -7.1325235    726.83839  0.021803407  0.021458208           18 
 2779000   0.79906025   -7.1394506    728.82647  0.021855178  0.021451623            7 
 2780000   0.81642178   -7.1255006    728.17941   0.02182792  0.021445041            7 
 2781000   0.80674539   -7.1385754    727.22717  0.021791537  0.021438506            4 
 2782000   0.81832056   -7.1305339     728.0608  0.021808675  0.021431912            8 
 2783000    0.8224383   -7.1609471    728.03168  0.021799967  0.021425311            8 
 2784000   0.79858105   -7.1478551    728.78215    0.0218146  0.021418691           14 
 2785000   0.80395434   -7.1450857    728.42219  0.021795996  0.021412092           12 
 2786000   0.79702659   -7.1367888    728.38931  0.021787189  0.021405458           10 
 2787000   0.82476652    -7.168661    725.76861  0.021701011   0.02139881           10 
 2788000   0.81235213   -7.1544154    727.88985  0.021756631  0.021392175            9 
 2789000   0.80540439   -7.1531433    727.70285  0.021743243    0.0213855           27 
 2790000    0.7941363    -7.130188    728.48953  0.021758947  0.021378877            7 
 2791000   0.81400396    -7.135387    729.42168  0.021778983   0.02137227           15 
 2792000   0.79977923    -7.138804     728.5651  0.021745615  0.021365683            8 
 2793000    0.8055448   -7.1579231     726.5248  0.021676954  0.021359106            8 
 2794000   0.79471903   -7.1477601    729.02448  0.021743751  0.021352511           10 
 2795000   0.80158156   -7.1624657    729.80022    0.0217591  0.021345911            9 
 2796000   0.81440486   -7.1779241     728.8122  0.021721871  0.021339304           17 
 2797000   0.81907296   -7.1671218    729.81246  0.021743906  0.021332676           19 
 2798000   0.82024006   -7.1772508     727.5431  0.021668546  0.021326057           17 
 2799000   0.81002028   -7.2004142    729.65971  0.021723821  0.021319425           12 
 2800000   0.80628174   -7.1788346     727.6357  0.021655824  0.021312781           16 
 2801000   0.83344812   -7.1366059    727.70108  0.021650038  0.021306158           29 
 2802000   0.78941076   -7.1776037     729.6922  0.021701529  0.021299522           13 
 2803000   0.82592748   -7.1783271    729.27952  0.021681518  0.021292916           16 
 2804000   0.82942387    -7.163166    730.63982  0.021714212  0.021286322           18 
 2805000   0.80737754   -7.1526643    728.16509   0.02163295  0.021279737            7 
 2806000    0.8082305   -7.1259912     729.4473   0.02166332  0.021273129           29 
 2807000   0.78778125   -7.1592853     727.7815  0.021606148  0.021266548            9 
 2808000   0.81732636   -7.1437936    728.02507  0.021605682   0.02125999            7 
 2809000   0.81000532   -7.1750805    730.11654  0.021660037  0.021253438            5 
 2810000   0.79503982   -7.1552186    729.66123  0.021638827  0.021246875            8 
 2811000   0.80437662   -7.1567475    730.83933  0.021666054   0.02124035           35 
 2812000   0.80117214   -7.1666918      729.447  0.021617088  0.021233807           19 
 2813000   0.79846855    -7.109078    733.15078  0.021719125  0.021227282           14 
 2814000   0.80524885   -7.1446052    730.57698  0.021635187  0.021220793            9 
 2815000   0.80927599   -7.1206408    731.83089  0.021664621  0.021214316            7 
 2816000   0.82183551   -7.1483308    732.01764  0.021662454  0.021207811           11 
 2817000   0.78814722   -7.1793006    731.13486  0.021628649  0.021201276           16 
 2818000    0.7950747    -7.173494    730.54059  0.021603401  0.021194727            4 
 2819000   0.80189594   -7.1314147    732.50487  0.021653804  0.021188187            5 
 2820000   0.79738875   -7.1846136    729.16758  0.021547505  0.021181648           12 
 2821000   0.81761119   -7.1450038    729.73952  0.021556762  0.021175077            8 
 2822000   0.79620688   -7.1380677    729.77537  0.021550182  0.021168487           11 
 2823000   0.78902404    -7.175809    728.65578  0.021509499  0.021161888           18 
 2824000   0.79708647   -7.1802534    731.15244  0.021575556  0.021155271            6 
 2825000   0.80187219    -7.155882    732.42341   0.02160541  0.021148707           12 
 2826000   0.78782076   -7.1687989    729.85857  0.021522133  0.021142141            8 
 2827000   0.78474503   -7.1447189    730.08858    0.0215213  0.021135626            4 
 2828000   0.78706614    -7.139821    731.94771  0.021568473  0.021129149           14 
 2829000   0.79658529   -7.1884283    729.27516  0.021482124    0.0211226            5 
 2830000   0.79333537   -7.1506694    730.25232  0.021503308   0.02111604           17 
 2831000   0.81669831   -7.1759818    731.60668  0.021535579  0.021109486           22 
 2832000   0.78072269   -7.1634574    730.13441  0.021484652  0.021102894            9 
 2833000   0.80329356   -7.1693342    731.77725  0.021525393  0.021096342           20 
 2834000   0.79911096   -7.1887789    729.82618  0.021460426   0.02108981           18 
 2835000   0.80425606   -7.1706581    732.21668  0.021523124  0.021083315           13 
 2836000   0.78780951   -7.1719652    732.04022   0.02151035  0.021076804            9 
 2837000   0.78562377   -7.1479732    733.29191  0.021539534  0.021070317           14 
 2838000   0.80728471   -7.1834004    730.66939  0.021454939  0.021063793           12 
 2839000    0.7954344   -7.1944652    730.58983  0.021445046  0.021057271            8 
 2840000    0.7961917   -7.1634511    730.37968  0.021431329  0.021050708            7 
 2841000   0.79242534   -7.1574529    732.10604  0.021474423  0.021044151            8 
 2842000   0.79448996   -7.1834709    732.88213  0.021489624  0.021037628           18 
 2843000   0.80548094   -7.1833127    730.91342  0.021424359  0.021031128           13 
 2844000   0.80468107   -7.1828949    731.35486   0.02142976  0.021024611           38 
 2845000   0.78756335   -7.1677411    731.81266  0.021435637  0.021018106           13 
 2846000   0.78782943   -7.1627595    732.82334  0.021457699  0.021011618            7 
 2847000   0.80090148   -7.1754529    733.08617  0.021457855  0.021005153           11 
 2848000   0.80740766   -7.1884771     731.3751  0.021400254  0.020998669           13 
 2849000   0.79270312   -7.2217546    730.64446  0.021371372  0.020992158           30 
 2850000   0.78909528    -7.181601    733.14337  0.021436941  0.020985648           12 
 2851000   0.79311115   -7.1524692    732.37974  0.021407101  0.020979188            9 
 2852000   0.78457001   -7.2070227    731.79783  0.021382592  0.020972685           18 
 2853000   0.79241052   -7.1866549    729.83243   0.02131769  0.020966173            9 
 2854000   0.79440284   -7.1833235    732.58148  0.021390489  0.020959671            9 
 2855000    0.8097644   -7.2058419    732.16068  0.021370715  0.020953195           17 
 2856000    0.7846653   -7.1709207    732.73138  0.021379884  0.020946728            8 
 2857000   0.79219343   -7.1657915    734.02795  0.021410219  0.020940243            6 
 2858000    0.7942954   -7.2020915    732.87919  0.021369232   0.02093373           11 
 2859000   0.77256411   -7.1945425    731.70379  0.021327498  0.020927205           17 
 2860000   0.78683357   -7.1842656     732.5869  0.021345772  0.020920703            8 
 2861000   0.78333637   -7.1451832    733.31232  0.021359441  0.020914222           16 
 2862000   0.79181428   -7.1454912    733.51322  0.021357827  0.020907795           15 
 2863000   0.78842455   -7.2068451    731.83614  0.021301553   0.02090129           23 
 2864000    0.8064553   -7.1893549    732.69738  0.021319174  0.020894776           17 
 2865000   0.79843632   -7.1765575    733.41007  0.021332463  0.020888282            5 
 2866000   0.82382036   -7.2123866    731.26737  0.021262717  0.020881748            8 
 2867000   0.80479027   -7.1893402    731.85263  0.021272312  0.020875206            9 
 2868000   0.78269765    -7.202978    733.29518   0.02130681  0.020868698           10 
 2869000   0.79179891   -7.2128231    731.81355  0.021256348  0.020862171           13 
 2870000   0.78336037   -7.2259154    731.10955    0.0212285  0.020855641           14 
 2871000   0.81322034   -7.2083091    732.64422  0.021265651  0.020849106           22 
 2872000   0.78105901   -7.2271242     730.1078  0.021184651  0.020842579           17 
 2873000   0.80959245   -7.2256029    731.38644  0.021214365  0.020836018           15 
 2874000   0.79575718   -7.2148247    730.53205   0.02118221  0.020829448           16 
 2875000   0.79126053   -7.2171393    732.43713  0.021230062  0.020822881           31 
 2876000   0.78058011   -7.2182189    730.95536  0.021179745  0.020816313           15 
 2877000   0.78601888   -7.2043449     731.7758  0.021196148  0.020809805           13 
 2878000   0.80746093   -7.1745076    733.42955  0.021236667  0.020803289           18 
 2879000   0.78148182   -7.2125642    732.87912  0.021213359  0.020796789           10 
 2880000    0.7608909   -7.2097391    732.60388  0.021198029  0.020790288            8 
 2881000   0.79732634   -7.1960477    732.11121   0.02117642  0.020783769            8 
 2882000   0.77198713    -7.212265    733.94476   0.02122209  0.020777252            9 
 2883000   0.79146848   -7.1639549    733.51098   0.02120219  0.020770749           13 
 2884000   0.80387397   -7.1669454    733.58206  0.021196893  0.020764235           10 
 2885000   0.77346911   -7.1912776    732.57904  0.021160573  0.020757732            7 
 2886000   0.78733685   -7.1900158     730.6014  0.021096137  0.020751193           11 
 2887000   0.78108468   -7.2134186    732.36763  0.021139812  0.020744681           17 
 2888000   0.78736856   -7.2023384    732.98964   0.02115044  0.020738207           12 
 2889000   0.78518881    -7.183189    732.59113  0.021131624  0.020731716           20 
 2890000   0.78324665   -7.1849845    733.40107  0.021147666  0.020725246           29 
 2891000   0.78005451   -7.2061046    733.07922  0.021131074  0.020718746           22 
 2892000   0.78927247   -7.2292798     732.2772  0.021100657  0.020712244           23 
 2893000   0.78890241   -7.2051262    733.57164   0.02113065  0.020705723           24 
 2894000   0.79943023   -7.2142933    732.10778  0.021081196  0.020699198            9 
 2895000   0.78790714   -7.2122575    734.10983  0.021131544  0.020692709           61 
 2896000   0.76119079   -7.2369032    731.09314  0.021037441  0.020686215           58 
 2897000   0.78687765   -7.1786583    734.43725  0.021126374  0.020679729           40 
 2898000    0.7984491   -7.1613045    735.32103  0.021144497  0.020673327           21 
 2899000   0.77879164   -7.2118379    734.92668  0.021125868  0.020666909           14 
 2900000   0.78865628   -7.1844174    733.88978  0.021088787   0.02066051           26 
 2901000   0.78128458   -7.1731156    734.54434   0.02110032  0.020654138            9 
 2902000    0.7843329    -7.205938    735.59077  0.021123098  0.020647746           17 
 2903000   0.78621148   -7.2235003    734.16229  0.021074816  0.020641266           12 
 2904000   0.77778502   -7.2031511    734.89024  0.021088448  0.020634798           26 
 2905000   0.77900078   -7.1822808    734.33228  0.021065183  0.020628373           11 
 2906000   0.77411215    -7.233041    734.49549  0.021062614   0.02062194            9 
 2907000   0.77885067   -7.2586735    732.51222  0.020998516  0.020615443           24 
 2908000    0.7739936   -7.2141582    732.66895  0.020995786  0.020608976           18 
 2909000   0.78909175   -7.2212218    735.59542  0.021072402  0.020602506           20 
 2910000   0.77046149   -7.1931912    734.02748   0.02102026  0.020596056            8 
 2911000   0.78335218    -7.189775    734.74369  0.021033542  0.020589646           15 
 2912000   0.78790826   -7.2258449    734.60892  0.021022462   0.02058321            7 
 2913000   0.79552629   -7.1827692     736.9529  0.021082301   0.02057677           11 
 2914000   0.78476016   -7.1801703    735.99997  0.021047814  0.020570366            8 
 2915000   0.78350583   -7.2012863    735.46592  0.021025327  0.020563948           14 
 2916000   0.78766835    -7.218496    734.98092  0.021004256  0.020557492           15 
 2917000   0.79284989   -7.2240269    733.70108  0.020960493  0.020551021           15 
 2918000   0.78193088   -7.2363715    732.44696  0.020917494  0.020544521           12 
 2919000   0.77565794   -7.2021918    735.78191  0.021005536  0.020538054           11 
 2920000   0.77600093   -7.2352294    733.01853  0.020919478  0.020531599            9 
 2921000   0.77915062   -7.2052562    734.42872  0.020952548  0.020525134           21 
 2922000   0.79294878   -7.2415636    734.91665  0.020959293  0.020518685           13 
 2923000   0.79514669   -7.2347194    735.03521  0.020955503  0.020512236            6 
 2924000   0.77035978   -7.2665572    734.16758  0.020923609   0.02050578           21 
 2925000   0.77236025   -7.2328053    734.95197  0.020938803  0.020499316            8 
 2926000   0.78495241   -7.2007056    735.02382  0.020933693  0.020492869            7 
 2927000   0.76527431   -7.2370131    735.58878  0.020942625  0.020486427           26 
 2928000   0.79700658    -7.206293    735.36278  0.020929041  0.020480004            9 
 2929000   0.77444977   -7.1944026    737.80331  0.020991331  0.020473625           14 
 2930000   0.78000188   -7.1925516    737.58572  0.020977978   0.02046731           18 
 2931000   0.78785979   -7.2252202    734.76488   0.02089062  0.020460938           11 
 2932000   0.77487629   -7.2157839    736.03454  0.020919581  0.020454539            8 
 2933000    0.7948494   -7.2009876    737.37022  0.020950398  0.020448191            7 
 2934000   0.79904937   -7.2196296    735.56054  0.020891858  0.020441812            9 
 2935000   0.79099668   -7.2399194    736.30354  0.020905836  0.020435408           10 
 2936000   0.78773586   -7.2055192    734.86347  0.020857841  0.020428994           12 
 2937000   0.77551663   -7.2385292       736.66  0.020901714  0.020422569           15 
 2938000   0.79396924   -7.2496061    734.59711  0.020836088  0.020416143           16 
 2939000   0.79133265   -7.2035331    736.55527   0.02088452  0.020409708           10 
 2940000   0.79084103     -7.22521    735.83018  0.020856865  0.020403295           11 
 2941000   0.79061166   -7.2422188    734.12712  0.020801516  0.020396903           15 
 2942000   0.78217756   -7.2054671    735.32592  0.020828402  0.020390506           14 
 2943000   0.78553303   -7.2463504    735.24843  0.020819131  0.020384109           20 
 2944000   0.78585271   -7.2190334     736.1958  0.020838876  0.020377706            7 
 2945000   0.78565768   -7.2429289    736.24685  0.020833244  0.020371316           13 
 2946000   0.77955393   -7.2432267    736.81018  0.020842107  0.020364943           20 
 2947000    0.7907513   -7.2342375    735.55148  0.020799442  0.020358525            9 
 2948000   0.79196909   -7.2435429     737.4084  0.020844878  0.020352112            9 
 2949000   0.79312084   -7.2453046    735.91042  0.020795479  0.020345715            9 
 2950000   0.78702726   -7.2362613    736.24184  0.020797792  0.020339308           13 
 2951000   0.80579852   -7.2396721    737.90845  0.020837808  0.020332896           11 
 2952000   0.77744792   -7.2514803    737.07329  0.020807173  0.020326505            7 
 2953000   0.79000623   -7.2546366    736.58048   0.02078622  0.020320101           13 
 2954000    0.7901964   -7.2659552    735.23164  0.020741132  0.020313712            9 
 2955000   0.79067058   -7.2587355    735.41345   0.02073924  0.020307301           13 
 2956000   0.78042772   -7.2369865    734.66982   0.02071126  0.020300878            9 
 2957000   0.78097158   -7.2312512    736.61048  0.020758947  0.020294474            8 
 2958000   0.77691507   -7.2361068     737.8262  0.020786179  0.020288085           14 
 2959000   0.78145357   -7.2586965    735.47733  0.020713004  0.020281691           12 
 2960000   0.76710335   -7.2569611     734.8567  0.020688533  0.020275311           18 
 2961000   0.76150445   -7.2518439     734.9906  0.020685315  0.020268923           12 
 2962000   0.77952853   -7.2258451    734.96144  0.020677511  0.020262564           13 
 2963000   0.76811218   -7.2252293    738.27928  0.020763845  0.020256223           26 
 2964000   0.76206287   -7.2179346    739.00536  0.020777254  0.020249871            7 
 2965000   0.77782263    -7.232633    737.33693  0.020723354  0.020243551            7 
 2966000   0.76811084   -7.2369537    737.98369  0.020734538  0.020237223            9 
 2967000   0.77062472   -7.2367538    736.12832  0.020675439  0.020230873           12 
 2968000   0.79066456    -7.231652    738.36916  0.020731389  0.020224536           11 
 2969000   0.77797415    -7.264335    736.95485   0.02068471  0.020218232            8 
 2970000   0.77402113   -7.2487344    738.51248   0.02072145  0.020211912            7 
 2971000   0.78545099   -7.2427699    737.13484  0.020675834  0.020205576           25 
 2972000   0.77136185   -7.2311145    737.13172   0.02066879  0.020199251           14 
 2973000   0.79274312   -7.2270686    739.67233  0.020733051  0.020192931           15 
 2974000   0.77084242   -7.2164141    738.15044  0.020683435  0.020186596           15 
 2975000   0.77103092   -7.2213862    737.97146  0.020671469  0.020180252           16 
 2976000   0.77871286   -7.2498726    737.90759  0.020662735  0.020173916           32 
 2977000   0.78026626   -7.2494388    738.26417  0.020665776  0.020167573           10 
 2978000   0.77502678    -7.229626    736.95777  0.020622279  0.020161229           10 
 2979000   0.76135844     -7.26386     736.7977  0.020610879  0.020154866           38 
 2980000   0.78548457   -7.2454316    737.15377   0.02061392  0.020148498           35 
 2981000   0.78020048   -7.2156354    738.24564  0.020637528  0.020142184           19 
 2982000   0.76245903   -7.2199529    738.97077  0.020650871  0.020135882           13 
 2983000   0.77662603   -7.2563731    736.92297  0.020586741  0.020129581           22 
 2984000    0.7732639   -7.2399772    738.12386  0.020613378  0.020123257           20 
 2985000   0.77004022   -7.2298433    738.17017  0.020607766  0.020116956           19 
 2986000   0.76883559   -7.2556363    737.05967  0.020569872  0.020110657           20 
 2987000   0.77583327   -7.2532122    738.17346  0.020594059   0.02010433           10 
 2988000   0.77230743   -7.2516343    738.82647  0.020605379  0.020098032           14 
 2989000   0.74661751   -7.2174666     739.8536  0.020627122  0.020091735           17 
 2990000   0.77586985   -7.2480089    738.09404  0.020571183  0.020085465            6 
 2991000   0.75854929   -7.2172678    738.95357  0.020588253  0.020079171           10 
 2992000   0.77563128   -7.2465469    738.29165  0.020562936  0.020072846           20 
 2993000   0.75516106    -7.215245    738.13934  0.020551825  0.020066538           16 
 2994000   0.76150632   -7.2360763    740.46613  0.020609723  0.020060238           10 
 2995000   0.77662155   -7.2188433    740.73699  0.020610378  0.020053951            8 
 2996000   0.76661183   -7.2515354    739.95485  0.020581744  0.020047663           12 
 2997000   0.77899822   -7.2179345    737.77992  0.020514401  0.020041347            8 
 2998000   0.79902252   -7.2496325    740.25296    0.0205763  0.020035014           12 
 2999000   0.76734636   -7.2284356    738.84088  0.020530201  0.020028701           28 
 3000000    0.7726595   -7.2268786    738.25805  0.020507168  0.020022414           14 
 3001000   0.75823845    -7.233348    739.50769  0.020535035  0.020016146           15 
 3002000   0.78727574   -7.2406324    740.02177  0.020542465  0.020009857           14 
 3003000   0.76782054   -7.2227985    737.92796  0.020477521  0.020003563            9 
 3004000   0.76926957   -7.2564075    737.90144  0.020469969   0.01999727            8 
 3005000   0.77006491    -7.255666    738.75029  0.020486697  0.019990938            7 
 3006000   0.78261958   -7.2339157    739.66463  0.020505229  0.019984615           22 
 3007000   0.77726163   -7.2298813    740.31994  0.020516571  0.019978308           25 
 3008000   0.76319005   -7.2290381    740.07973  0.020503095  0.019971973           39 
 3009000   0.78577689   -7.2621546    736.72341  0.020403329  0.019965637           45 
 3010000   0.77088918   -7.2486332    737.55865  0.020419675  0.019959305           34 
 3011000   0.76383609    -7.240826    737.31445  0.020406134  0.019952985           44 
 3012000   0.77063298   -7.2614122    737.75226  0.020411473  0.019946646           28 
 3013000   0.78315858   -7.2683515    738.34343  0.020421048  0.019940313           40 
 3014000   0.76104118   -7.2816077    737.28652  0.020385051  0.019933977           37 
 3015000    0.7669994   -7.2811533    739.25758  0.020432769  0.019927632           23 
 3016000   0.77178574   -7.2597277    737.67768  0.020382341  0.019921278           19 
 3017000   0.77662797   -7.2657911    737.24988  0.020363769  0.019914937           27 
 3018000   0.77063929   -7.2377846    739.47649  0.020418503  0.019908608           10 
 3019000    0.7725704   -7.2651573     739.7006  0.020417925  0.019902319            8 
 3020000   0.78783349     -7.26893    739.92041   0.02041723  0.019896043           11 
 3021000   0.76146295   -7.2618129    739.79736  0.020407077  0.019889773           16 
 3022000   0.76579138   -7.2375171     740.1234  0.020409315  0.019883509           15 
 3023000    0.7624902   -7.2465971     738.3615  0.020353994  0.019877246            9 
 3024000   0.77950888   -7.2548531    739.79598  0.020386794  0.019870966            7 
 3025000   0.76731385   -7.2768426    739.78966   0.02037988   0.01986467           11 
 3026000   0.77046536   -7.2743428    738.06118  0.020325545  0.019858385           13 
 3027000   0.76897628   -7.2574957    740.15334  0.020376427  0.019852106           17 
 3028000   0.75177939   -7.2563944    740.22232  0.020371596  0.019845865           15 
 3029000   0.76244548   -7.2638717    738.71982  0.020323534   0.01983958           10 
 3030000   0.77013907   -7.2435675     739.8242    0.0203472  0.019833299            9 
 3031000    0.7679017   -7.2530431    739.74158  0.020338216  0.019827051           28 
 3032000   0.76562537   -7.2512813    740.69602   0.02035774  0.019820812            8 
 3033000   0.75954538   -7.2873125    739.04675  0.020305714  0.019814554           21 
 3034000   0.77496308   -7.2735475    739.84247  0.020320876  0.019808294           30 
 3035000   0.76983916   -7.2706131    740.78555  0.020340075  0.019802039           10 
 3036000    0.7656394   -7.2698462    740.02447  0.020312485  0.019795763           11 
 3037000    0.7663561   -7.2802686    739.77164   0.02029886  0.019789524           10 
 3038000   0.76306639   -7.2597377    741.23742  0.020332385  0.019783253            6 
 3039000   0.76199052   -7.2596016    740.11277  0.020294855  0.019776983            8 
 3040000   0.77113964   -7.2434808    740.70488   0.02030441  0.019770739           12 
 3041000   0.75642812   -7.3082211    740.15311  0.020282613  0.019764441           22 
 3042000   0.77042224   -7.2677251    741.05365  0.020300615  0.019758174            6 
 3043000   0.75145513   -7.2881532    740.74331  0.020285445  0.019751908           40 
 3044000   0.75904497   -7.2484212    739.91153   0.02025601  0.019745653            9 
 3045000   0.76682191   -7.2905314    738.89916  0.020221652  0.019739415           14 
 3046000   0.76662167   -7.2813768    738.78473  0.020211883  0.019733187           11 
 3047000   0.77223361   -7.2670412    740.31724  0.020247162  0.019726932           21 
 3048000   0.76338823   -7.2717914    740.67572   0.02025032  0.019720728           13 
 3049000    0.7574988   -7.2672606    740.61019  0.020241888  0.019714521           25 
 3050000   0.74956403   -7.2472056    741.47365  0.020258843  0.019708302           12 
 3051000   0.76289272   -7.2678921    741.48049   0.02025239   0.01970203           15 
 3052000   0.74888284   -7.2475048    742.31678  0.020268588  0.019695844           10 
 3053000   0.77134715   -7.2656048    741.37983  0.020236375  0.019689633           11 
 3054000   0.77088236   -7.2652053    741.28099  0.020227052  0.019683439            7 
 3055000   0.75306476   -7.2910729     740.5389  0.020200188  0.019677249           24 
 3056000   0.78010796   -7.2758279    741.43707   0.02021807  0.019671046            6 
 3057000   0.76238396    -7.258075    741.26256  0.020206699  0.019664849           16 
 3058000   0.75954009   -7.2754008    742.10236  0.020222977  0.019658655           10 
 3059000   0.75804924   -7.2754052    740.95952  0.020185233  0.019652455           10 
 3060000   0.75667216   -7.2675152    741.82213  0.020202128  0.019646264           20 
 3061000   0.76912047   -7.2854618    740.96875  0.020172295  0.019640059           11 
 3062000   0.74855575   -7.2985972    741.51212  0.020180495  0.019633834           11 
 3063000    0.7667513    -7.269316    740.46511  0.020145421  0.019627643            8 
 3064000    0.7725816   -7.3116886    740.80879  0.020148194   0.01962142           14 
 3065000   0.77617515   -7.2875331    741.66622  0.020164932  0.019615189           18 
 3066000   0.78169357    -7.294055     740.8795  0.020136973   0.01960898           13 
 3067000   0.74609865    -7.295562    741.45377  0.020146011  0.019602753           37 
 3068000   0.75654235   -7.2627544    739.49044  0.020086116  0.019596544           11 
 3069000   0.74181534   -7.2882808    741.12159  0.020123862  0.019590342            7 
 3070000   0.77865949   -7.2967775    739.49477  0.020073148   0.01958414           10 
 3071000   0.74908136   -7.2993592    741.24737  0.020114169  0.019577906           13 
 3072000   0.74408657   -7.2803052    741.64252  0.020118341  0.019571661           20 
 3073000    0.7613888   -7.3033143    740.84267  0.020090104  0.019565416           19 
 3074000   0.75146242   -7.3098046    742.22312  0.020120991  0.019559183           14 
 3075000   0.78630156    -7.318682    740.19943  0.020059605  0.019552966           11 
 3076000   0.76111201    -7.323434    741.15153  0.020078878  0.019546741           12 
 3077000   0.75762369   -7.2447404    742.95573  0.020121215  0.019540535            9 
 3078000   0.74313186   -7.2669379    741.00174  0.020061775   0.01953434           32 
 3079000   0.74818512   -7.3025987    741.30534  0.020063477  0.019528145           17 
 3080000     0.756973   -7.2651861    741.59903  0.020064909  0.019521955           32 
 3081000   0.76345611   -7.2754657    740.35928  0.020024864   0.01951572           31 
 3082000   0.75037065   -7.3470625     740.7018  0.020027628  0.019509486           19 
 3083000   0.76753503   -7.3256594     741.2046  0.020034723  0.019503241           14 
 3084000   0.77778841   -7.3101991      740.327  0.020004513  0.019496991           46 
 3085000   0.76727939   -7.3297069    741.52017  0.020030259  0.019490747           33 
 3086000   0.76606825   -7.3166183    740.77968  0.020003772   0.01948452           17 
 3087000   0.74255081   -7.3059224    741.51753   0.02001721    0.0194783            7 
 3088000   0.74747472   -7.3072062    740.39894  0.019980541  0.019472107           24 
 3089000   0.76764902   -7.3337187    738.70626  0.019928409  0.019465876           25 
 3090000   0.76139106   -7.2883546    739.65259  0.019947481  0.019459671            7 
 3091000   0.76019343   -7.2957465    742.18231  0.020009229  0.019453482           11 
 3092000   0.74612378   -7.3522724    738.75478  0.019910381  0.019447263           11 
 3093000   0.75398174   -7.3170479    741.26672  0.019971622  0.019441045           11 
 3094000   0.74538315    -7.265742    741.06302   0.01995968  0.019434889            6 
 3095000   0.76363034   -7.2878417    743.64003  0.020022618  0.019428728           14 
 3096000   0.74398091   -7.2987967    741.97337   0.01997129  0.019422551            9 
 3097000   0.74804242   -7.2920103    740.45206  0.019923906  0.019416365           16 
 3098000   0.76952416   -7.3020107    741.34509  0.019941497  0.019410169            9 
 3099000    0.7575959   -7.2973749    743.28914  0.019987339  0.019403984           18 
 3100000   0.76281104   -7.3012466    741.70074  0.019938192  0.019397824           10 
 3101000   0.74580126    -7.289089    741.52381  0.019927008  0.019391674           10 
 3102000   0.75789571   -7.2553954    743.82402  0.019982377  0.019385545           11 
 3103000   0.75455793   -7.2847423    741.86619  0.019923359   0.01937939           14 
 3104000   0.77405125   -7.2986554    741.91515  0.019918255  0.019373219            7 
 3105000   0.74755338   -7.3249045    741.44729  0.019899283  0.019367025           15 
 3106000   0.75240018   -7.3010986    742.40008   0.01991844  0.019360838           10 
 3107000   0.75452818   -7.3027471    741.61669  0.019891017  0.019354647           13 
 3108000   0.77271297   -7.3096974    741.77396  0.019888834  0.019348475            6 
 3109000   0.74984749    -7.316898    739.91485  0.019832606  0.019342275           13 
 3110000   0.74047289   -7.3120071    743.17242  0.019913516  0.019336079           14 
 3111000   0.76161899   -7.3048429    741.88243  0.019872561  0.019329847           19 
 3112000   0.75220953   -7.3292523    740.18395  0.019820693  0.019323634           14 
 3113000   0.76472095   -7.2988488    741.45708  0.019848407  0.019317413           21 
 3114000   0.74296827   -7.3339275    739.01694  0.019776733  0.019311178           16 
 3115000   0.76198343   -7.3313123    740.15382  0.019800798  0.019304954           16 
 3116000   0.75890391   -7.3284501    740.84749  0.019812995  0.019298701           17 
 3117000    0.7461446   -7.3100742    740.50994  0.019797614  0.019292472           16 
 3118000   0.75497442   -7.3033286    741.55665  0.019819239  0.019286226           64 
 3119000   0.74824381    -7.305425    740.95206  0.019796731  0.019280021           29 
 3120000   0.74711342   -7.3170445    739.39606  0.019748826  0.019273779           24 
 3121000   0.73849542   -7.3206896    739.75492  0.019752081  0.019267526           16 
 3122000    0.7723136   -7.3281662    742.24057  0.019812102  0.019261319           30 
 3123000   0.75655887   -7.3246086    741.90927  0.019796917  0.019255084           31 
 3124000   0.75709451   -7.3537864    739.65785  0.019730523  0.019248815           17 
 3125000   0.74274527   -7.3415662    741.95212   0.01978539   0.01924259           30 
 3126000   0.76560448   -7.3328869    741.65926  0.019771253  0.019236333           12 
 3127000   0.75949217     -7.33393    740.81508  0.019742434   0.01923009            9 
 3128000   0.75610327   -7.3298586    740.51429  0.019728109  0.019223862           14 
 3129000   0.75099395   -7.3385437    739.64676  0.019698699  0.019217646           14 
 3130000   0.74938525   -7.3171369    741.69244   0.01974687  0.019211427           13 
 3131000   0.74009054   -7.3053602    740.02715  0.019696241  0.019205208           11 
 3132000   0.73578301   -7.2917409     741.1398  0.019719556  0.019198997           15 
 3133000   0.75301699   -7.2986831    741.07688  0.019711589  0.019192783           45 
 3134000   0.74987691    -7.322702    739.76111  0.019670313   0.01918656           13 
 3135000   0.75634124   -7.3398425    740.94918  0.019695619    0.0191803           19 
 3136000   0.73438962   -7.3387413    739.93014  0.019662259  0.019174031           13 
 3137000   0.76957612   -7.3457281    738.83694  0.019626951  0.019167743           29 
 3138000    0.7514267   -7.3546926    739.72992   0.01964441  0.019161468           26 
 3139000   0.73669381   -7.3430231    739.34728  0.019627994  0.019155189           30 
 3140000   0.74059754   -7.3220593    741.67516  0.019683523  0.019148943           28 
 3141000   0.75493606   -7.3492042    740.53787  0.019647083  0.019142681            9 
 3142000   0.74672273   -7.3348256    742.22616  0.019685608  0.019136461           17 
 3143000   0.74995542   -7.3280093    740.55566  0.019635053  0.019130235           24 
 3144000   0.74377679    -7.333674    739.93817  0.019612441   0.01912402           31 
 3145000   0.74537311   -7.3315603    741.48958  0.019647313  0.019117813           25 
 3146000   0.74548774   -7.3477009    740.36537  0.019611289  0.019111561           19 
 3147000   0.74649887   -7.3360416    743.18991  0.019679851  0.019105319           17 
 3148000   0.74822569   -7.3136426    741.38166  0.019625732  0.019099104           23 
 3149000   0.74111515   -7.3357166    742.03557  0.019636805    0.0190929           14 
 3150000   0.73567362   -7.3275818    740.83272  0.019598749  0.019086722           11 
 3151000   0.75157072   -7.3374973    740.88253  0.019593847  0.019080558           20 
 3152000   0.74377777   -7.3115262    741.55516  0.019605413  0.019074401           10 
 3153000   0.74915414   -7.3049534    742.00926  0.019611197  0.019068258           15 
 3154000   0.75693584   -7.3250303    742.77678  0.019625258  0.019062082           17 
 3155000   0.74828178   -7.3395552    739.66512  0.019536849  0.019055903           12 
 3156000   0.74291283   -7.3233205    741.43387  0.019577362  0.019049737           15 
 3157000    0.7461676   -7.3078929    741.74724  0.019579433  0.019043557           15 
 3158000   0.75129713   -7.3097701    740.83399  0.019549134  0.019037396           12 
 3159000   0.75060894   -7.3225778    741.80023  0.019568435  0.019031216           15 
 3160000   0.74682714   -7.3093217    744.58082   0.01963557   0.01902508            8 
 3161000   0.74747098   -7.3129038    742.42397  0.019572497   0.01901894           14 
 3162000   0.75350946   -7.3240751    741.28208  0.019536213  0.019012783           34 
 3163000   0.75210102   -7.3308836    740.48699  0.019509089  0.019006625           20 
 3164000   0.74494022   -7.3223257    742.27716  0.019550073  0.019000462           18 
 3165000   0.73895619   -7.3259046    742.90721  0.019560485  0.018994294           19 
 3166000   0.72986336   -7.3239924    741.57104  0.019519137  0.018988137           21 
 3167000   0.73033225   -7.3339618    743.00458  0.019550694  0.018981988           40 
 3168000    0.7446552   -7.3331189     741.6564  0.019509059  0.018975833           13 
 3169000   0.73727615    -7.326391    740.77383  0.019479695  0.018969656            7 
 3170000   0.73507515   -7.3166283    740.23542  0.019459396  0.018963488           19 
 3171000    0.7499494    -7.321951    743.22742  0.019531888  0.018957296           32 
 3172000   0.74074324   -7.3280325    741.67333  0.019484902  0.018951119           18 
 3173000    0.7615733   -7.3353549    741.42897  0.019472344  0.018944927           17 
 3174000   0.76746168   -7.3351123     741.6069  0.019470881  0.018938737           10 
 3175000   0.74305805   -7.3197856    742.67657  0.019492823  0.018932561            7 
 3176000   0.74321555    -7.305928    741.18326  0.019447504  0.018926393            8 
 3177000   0.75144346   -7.3131997     740.3404  0.019419274  0.018920215           11 
 3178000   0.75304349   -7.3393822    742.79046  0.019477409  0.018914078           15 
 3179000    0.7333734   -7.3452158    743.26472  0.019483714  0.018907919           11 
 3180000   0.73756239   -7.3444995    741.49858  0.019431304  0.018901784           12 
 3181000   0.73531238   -7.3194461    741.94747  0.019436956   0.01889564           14 
 3182000   0.75781258   -7.3344419    744.35397  0.019493871    0.0188895           22 
 3183000   0.75066767   -7.3156446    742.40028  0.019436598  0.018883356           31 
 3184000   0.73457072   -7.3385138    742.18456  0.019424847  0.018877217           22 
 3185000   0.73491928   -7.3234332    741.86036  0.019410266   0.01887106           19 
 3186000    0.7360333     -7.33393    741.85657  0.019404074  0.018864874           23 
 3187000   0.74638192   -7.3508944    742.47025  0.019414032  0.018858686           11 
 3188000   0.73902998   -7.3421909    739.40207  0.019327741  0.018852478           11 
 3189000   0.74410933   -7.3424561    741.48331  0.019376067  0.018846304           10 
 3190000    0.7548597   -7.3677594    742.09062  0.019385857  0.018840136           14 
 3191000   0.73882566   -7.3359511    741.80248  0.019372257  0.018833986            7 
 3192000   0.74379452   -7.3337526    739.85289  0.019315291  0.018827805           71 
 3193000    0.7387481   -7.3510907    741.93207  0.019363505  0.018821617           25 
 3194000   0.73797765   -7.3322047    739.59524  0.019296474  0.018815422           28 
 3195000   0.74693393   -7.3424716    740.55443  0.019315452  0.018809243           12 
 3196000    0.7514647   -7.3463288    741.33055  0.019329645  0.018803071           18 
 3197000   0.72126265   -7.3812506    741.32898  0.019323558   0.01879688           32 
 3198000    0.7553154    -7.345485     740.3935  0.019293139  0.018790674           26 
 3199000   0.73077545   -7.3907653    739.84335  0.019272777   0.01878444           23 
 3200000   0.74759261   -7.3694198    740.34705  0.019279871  0.018778207           19 
 3201000   0.72305559    -7.379189    740.02763  0.019265532  0.018771968           28 
 3202000   0.74452335     -7.38323    739.57829  0.019247821  0.018765743           33 
 3203000   0.72409731   -7.4099924    740.23223  0.019258826  0.018759509           26 
 3204000   0.75600143   -7.3643478     739.6528  0.019237744  0.018753285           30 
 3205000   0.72913662   -7.3522202    742.30335  0.019300659  0.018747074           35 
 3206000    0.7294132   -7.3910544     740.2327  0.019240817  0.018740866           27 
 3207000   0.75183116   -7.3921126    739.68566  0.019220602  0.018734653           18 
 3208000   0.74118269   -7.3665901    742.23912  0.019280941  0.018728444           28 
 3209000   0.73359186   -7.3693488     739.6698  0.019208211  0.018722257           42 
 3210000    0.7215663   -7.3532826    740.20977  0.019216245  0.018716051           35 
 3211000   0.72713738   -7.3782165    738.98751   0.01917854  0.018709844           21 
 3212000   0.74640868   -7.3357099    742.06495  0.019252412   0.01870368           65 
 3213000   0.73276293   -7.3410658    742.79492  0.019265352  0.018697502           65 
 3214000   0.73030719   -7.3582492    740.59253  0.019202254  0.018691337           26 
 3215000   0.75386659   -7.3805747    739.80309  0.019175819   0.01868514           19 
 3216000   0.73537007   -7.3483553    741.02727  0.019201577   0.01867896           15 
 3217000   0.74725143   -7.3653362    740.57042  0.019183774  0.018672785           27 
 3218000   0.72158554   -7.3772968    739.48581  0.019149726  0.018666598           20 
 3219000   0.70918936   -7.3361836    741.76567  0.019202798  0.018660428           20 
 3220000   0.73951627   -7.3237083    742.10745  0.019205679  0.018654277           26 
 3221000   0.74162217   -7.3762451    742.09481   0.01919939  0.018648129           22 
 3222000   0.75601618   -7.3353449     741.8472  0.019187027  0.018641981           20 
 3223000   0.72722972   -7.3572231    740.61261  0.019149152   0.01863582           26 
 3224000   0.72471675   -7.3457127    741.63229  0.019169569   0.01862963           36 
 3225000    0.7370479   -7.3740729    741.28876  0.019154748  0.018623444           21 
 3226000   0.73677578   -7.3775477    739.17009  0.019094082  0.018617254           23 
 3227000   0.74073274    -7.349108    741.08898  0.019137718  0.018611063           19 
 3228000   0.72353725   -7.3699484    739.80825  0.019098726  0.018604872           33 
 3229000   0.72900093   -7.3761305    739.92322  0.019095778  0.018598675           26 
 3230000   0.74617222   -7.3883728    741.45191  0.019129306  0.018592486           22 
 3231000   0.75006694   -7.3752369    740.60637  0.019101578  0.018586255           28 
 3232000   0.75370835   -7.3755199     741.5328  0.019119555  0.018580048           18 
 3233000   0.72889285   -7.3782039    739.75957  0.019067934  0.018573855           27 
 3234000   0.74468197   -7.3621936     739.0344  0.019043352  0.018567649           19 
 3235000   0.73820646   -7.3592998    741.61789  0.019104016  0.018561464           31 
 3236000   0.73447294   -7.3691686    740.78953   0.01907678  0.018555303           29 
 3237000    0.7199993    -7.381145    740.02329  0.019051161  0.018549115           29 
 3238000   0.72539292   -7.3484293    740.62749  0.019060827  0.018542942            8 
 3239000   0.74889727   -7.3680016     742.1088  0.019093054  0.018536799           13 
 3240000   0.73784019   -7.3604997    740.47683  0.019045186  0.018530636           11 
 3241000   0.73283596   -7.3383132     741.1947  0.019057768  0.018524479            8 
 3242000   0.73952858   -7.3622811    740.89646  0.019044223  0.018518308           13 
 3243000   0.72619791   -7.3675553    741.11948  0.019044082  0.018512147           19 
 3244000   0.74109886   -7.3482426    741.00907  0.019035375  0.018506008           16 
 3245000   0.73391132   -7.3767458    741.79986  0.019049817  0.018499856           16 
 3246000   0.74449804   -7.3689635    741.76078  0.019042945  0.018493727           22 
 3247000   0.72923561   -7.3826307    740.84345  0.019013537  0.018487569           16 
 3248000   0.70369994   -7.3946128     740.7265  0.019004682  0.018481394           24 
 3249000   0.74454485    -7.397468     742.2475  0.019037845  0.018475202           33 
 3250000    0.7317929   -7.3624891    741.32817  0.019008415  0.018468994           18 
 3251000   0.72619114   -7.3701172    739.27394  0.018949911  0.018462817           28 
 3252000   0.73408385    -7.386423    739.64236  0.018953525  0.018456637           35 
 3253000    0.7198449   -7.3607145    741.00686  0.018982653  0.018450472           49 
 3254000   0.72383966   -7.3993408    741.39607  0.018986787  0.018444288           30 
 3255000   0.73084023   -7.3774381    740.23666  0.018951271  0.018438129           20 
 3256000   0.71769475   -7.3623274    741.38319  0.018974795  0.018431974           27 
 3257000   0.71894757   -7.3728159    741.56165  0.018973535  0.018425805           14 
 3258000   0.74771088    -7.385284    739.94034  0.018926242  0.018419624           38 
 3259000   0.74549125   -7.4030082    739.92833  0.018920127  0.018413462           30 
 3260000   0.72488369   -7.4027889    738.15671  0.018869037  0.018407299           28 
 3261000   0.72114804   -7.3576654    741.57651  0.018950642  0.018401154           32 
 3262000   0.73345251   -7.3542272    742.38636  0.018965521  0.018395029           24 
 3263000   0.72623284   -7.4037281     740.9882  0.018924001  0.018388895           11 
 3264000   0.72302336    -7.395196    740.79882  0.018913369  0.018382771           19 
 3265000   0.73393571   -7.3676938    741.47309  0.018924785  0.018376654           17 
 3266000   0.73394948   -7.3823317    741.20179  0.018912068  0.018370552           29 
 3267000   0.73618967   -7.3695604    741.42018   0.01891185  0.018364462           38 
 3268000    0.7466558   -7.3936259     742.0742  0.018922741  0.018358341           83 
 3269000   0.72687746   -7.3535329    741.98914  0.018914784  0.018352202           12 
 3270000   0.73281444   -7.3854621    741.22172  0.018889442  0.018346084           33 
 3271000   0.73797497   -7.3935174    741.39975  0.018888203  0.018339964           28 
 3272000   0.72022525   -7.3982727    742.53536  0.018911353  0.018333832           18 
 3273000   0.72198699   -7.3574566     742.0923  0.018894294  0.018327701           23 
 3274000   0.73530256   -7.3727143    740.99816  0.018860674  0.018321568           23 
 3275000   0.73161892   -7.3953848    741.13889  0.018858496  0.018315424           30 
 3276000   0.72721393   -7.3805139    742.34752  0.018883484  0.018309301           19 
 3277000   0.71678773   -7.3924746    741.72493  0.018861889   0.01830315           13 
 3278000   0.73191597   -7.3985836    741.92358  0.018861185  0.018297015           15 
 3279000   0.71711027   -7.3761492    740.98213  0.018831507  0.018290919           20 
 3280000   0.72774207   -7.3835361    741.91435   0.01884945   0.01828482           19 
 3281000    0.7232977   -7.3820558    740.49203   0.01880758  0.018278704           16 
 3282000   0.73028802   -7.3795209    741.06679  0.018816443  0.018272578           25 
 3283000   0.70484656   -7.3667338    739.68109  0.018775538  0.018266463           15 
 3284000   0.72228608   -7.4029737    740.00627  0.018778072  0.018260345           15 
 3285000    0.7170067   -7.3976922    740.83112   0.01879328  0.018254237           36 
 3286000    0.7267693   -7.3684578    742.18701  0.018821947  0.018248129           42 
 3287000   0.72114106   -7.3976035    741.68051   0.01880338  0.018242034           34 
 3288000   0.72938354    -7.382177    741.40063  0.018790567  0.018235917           24 
 3289000   0.71997856   -7.4070602    740.12762    0.0187526  0.018229798           26 
 3290000   0.74719872   -7.4021522      739.968  0.018742857  0.018223684           57 
 3291000   0.74062372   -7.4170992    741.27577  0.018770277  0.018217541           19 
 3292000   0.71035263   -7.4100727    740.00346  0.018732368  0.018211419           40 
 3293000   0.71700814   -7.3946063    741.00085  0.018751919  0.018205302           28 
 3294000    0.7277235   -7.3841985    740.53983  0.018734564  0.018199189           24 
 3295000   0.71186231   -7.4252213    738.88703  0.018687077  0.018193053           39 
 3296000   0.72621564   -7.4254849    739.89513  0.018706895  0.018186895           28 
 3297000   0.70415512   -7.4321106     739.7407  0.018697318  0.018180719           22 
 3298000   0.72207132   -7.4080778    739.71448  0.018690986   0.01817456           38 
 3299000   0.71379008   -7.4017089    739.69728  0.018684886  0.018168436           29 
 3300000     0.723012   -7.3986621    741.60166  0.018727315  0.018162335           49 
 3301000   0.71757872   -7.4039563    740.69464  0.018698744  0.018156225           67 
 3302000   0.73449895   -7.4169771    741.24227  0.018706902  0.018150129           23 
 3303000   0.72383277   -7.4084686    742.12397  0.018723483  0.018144041           36 
 3304000   0.71849779   -7.3772413    744.26452  0.018771805  0.018137983            8 
 3305000   0.71919287   -7.3919764    742.22268  0.018714641  0.018131895           10 
 3306000   0.73856876   -7.4052865    741.61646    0.0186937  0.018125822           35 
 3307000   0.72697597   -7.4006951    741.70193  0.018690201  0.018119737           13 
 3308000    0.7214971   -7.3870125    741.70741  0.018684689  0.018113659           13 
 3309000   0.71045593   -7.3841178    741.99472  0.018686278  0.018107566           14 
 3310000   0.72045177   -7.4102032     738.9898   0.01860498  0.018101483           11 
 3311000   0.70673019    -7.379421     740.7706  0.018644181  0.018095392           25 
 3312000    0.7057125   -7.4093399    741.64295  0.018660501  0.018089325           13 
 3313000   0.73248712   -7.4119458    742.18556  0.018668517  0.018083235           29 
 3314000   0.70418836   -7.3989278    741.65446  0.018649529  0.018077132           11 
 3315000   0.72486921   -7.4230497    741.39899  0.018637481  0.018071043           25 
 3316000   0.71378702   -7.4191843    741.38547  0.018631521   0.01806495           12 
 3317000   0.72310135   -7.3944286    740.73565  0.018609578  0.018058877           23 
 3318000   0.71164967   -7.4050242    741.22953  0.018616374  0.018052774           22 
 3319000   0.70760263   -7.4373896    739.90645  0.018577545  0.018046666           20 
 3320000    0.7364958   -7.3998443    741.30146  0.018606964  0.018040565           19 
 3321000   0.71135036   -7.4283954    740.70499  0.018586394  0.018034469           39 
 3322000   0.71868617   -7.4337512    740.21689  0.018568555  0.018028372           23 
 3323000   0.72863955   -7.4197447     740.6054   0.01857271   0.01802226           28 
 3324000    0.7216008   -7.4092027    741.55392  0.018590902  0.018016163           24 
 3325000    0.7099326   -7.4105504    741.66383  0.018588066  0.018010071           22 
 3326000   0.72273429   -7.4321432     739.8439  0.018536879  0.018003978           20 
 3327000   0.71216935   -7.4140923    742.02218  0.018585868  0.017997888           16 
 3328000   0.72829198   -7.4156245    741.44421   0.01856581  0.017991832           18 
 3329000   0.72914179   -7.4005736    741.75807   0.01856809  0.017985766           19 
 3330000   0.71761847       -7.424    741.31942  0.018551537  0.017979706           19 
 3331000   0.71356852   -7.4203453    740.97176   0.01853727  0.017973646           18 
 3332000   0.71205524    -7.413786     740.5382  0.018520863  0.017967595           21 
 3333000    0.7047854   -7.4542942    739.60039  0.018491859  0.017961519           24 
 3334000   0.73799501   -7.4210884    742.30071  0.018553807  0.017955456           25 
 3335000    0.7054399   -7.4168961    742.73161  0.018559011  0.017949404           18 
 3336000   0.70990499   -7.4105965    740.65839  0.018501658  0.017943356           19 
 3337000   0.70759306   -7.4206443    740.66172  0.018496197  0.017937289           25 
 3338000   0.70697836   -7.4333461    741.09269  0.018501415  0.017931219           28 
 3339000   0.71583063   -7.4126471    741.01143  0.018493846  0.017925134           24 
 3340000    0.7108889   -7.4399427    739.87722   0.01846001  0.017919046           51 
 3341000   0.71498644    -7.397294    739.81511  0.018452936  0.017912972           28 
 3342000   0.71627247   -7.4151121    740.58701  0.018466662   0.01790691           14 
 3343000   0.72162394   -7.4246937    741.35176  0.018480201  0.017900821           48 
 3344000   0.71535119   -7.4280269     740.8167  0.018461341  0.017894753           25 
 3345000   0.70435184   -7.4075114    741.63641  0.018476243  0.017888682           36 
 3346000   0.70481198   -7.4033049    743.00806  0.018504883  0.017882648           20 
 3347000   0.71776167    -7.410807    742.66123  0.018490719  0.017876618           31 
 3348000   0.71476167   -7.4161476    741.01185  0.018444142  0.017870601           28 
 3349000   0.69059887   -7.4108174    742.38612  0.018472831  0.017864579           37 
 3350000   0.70982541   -7.4305394    741.75572  0.018451635  0.017858562           24 
 3351000   0.71462501   -7.3722433    742.10505  0.018454816  0.017852555           36 
 3352000   0.70939043   -7.3811194    743.17989  0.018476032  0.017846573           20 
 3353000   0.71074664   -7.3980293    743.41848  0.018476451  0.017840577           35 
 3354000   0.70262129   -7.3950328    742.17301  0.018439997  0.017834581           35 
 3355000   0.70882709   -7.4010502    741.78596  0.018424887  0.017828604           14 
 3356000   0.70940876   -7.4399198    741.65777  0.018416214   0.01782262           34 
 3357000   0.70190603   -7.3971282    742.94482  0.018442678   0.01781662           53 
 3358000   0.72168302   -7.3936966    743.19838  0.018443478  0.017810621           34 
 3359000   0.71816234   -7.4163712    741.23268   0.01838922  0.017804651           24 
 3360000   0.70460529    -7.396865    742.98896  0.018427305  0.017798691           23 
 3361000   0.71415035   -7.3932959    742.88715  0.018419299  0.017792712           35 
 3362000   0.70872157   -7.3990839    744.10188  0.018443929  0.017786756           45 
 3363000   0.70914989    -7.421423    740.23934  0.018342733  0.017780786           19 
 3364000   0.69887763   -7.4345391    741.25584  0.018362461    0.0177748           31 
 3365000   0.70356451   -7.4118974    741.68578  0.018367652  0.017768816           42 
 3366000   0.69308147     -7.40825    742.69814  0.018387258  0.017762838           31 
 3367000   0.72110848   -7.4397085     742.1625   0.01836854  0.017756846           39 
 3368000   0.70806151   -7.4549911    742.70253  0.018376448  0.017750861           29 
 3369000   0.71935104   -7.4202024    741.55186  0.018342531  0.017744868           36 
 3370000   0.73582932   -7.4558247    741.29665  0.018330778   0.01773886           70 
 3371000   0.70926844   -7.4203846    741.82509  0.018338403  0.017732852           31 
 3372000   0.71457792    -7.419495    739.35438  0.018271905  0.017726853           13 
 3373000   0.71440472   -7.4360643    739.98807  0.018282144  0.017720861           27 
 3374000   0.70243252   -7.4568285     739.1882   0.01825697  0.017714849           38 
 3375000   0.70971805   -7.4388482    740.16118  0.018275585  0.017708805           44 
 3376000   0.71648573   -7.4719949    740.03086  0.018266955  0.017702773           25 
 3377000   0.71838259   -7.4420069    740.32182  0.018268725  0.017696749           19 
 3378000   0.70173015   -7.4600847    742.24406  0.018310738   0.01769072           33 
 3379000   0.71402532   -7.4573357    740.59947   0.01826476  0.017684683           24 
 3380000   0.70698239   -7.4307758    742.01985  0.018294375  0.017678674           20 
 3381000   0.69662536    -7.435103    740.55176  0.018252779  0.017672668           32 
 3382000   0.71422933   -7.4379879    741.98614  0.018282726  0.017666649           34 
 3383000    0.6927539   -7.4424715    739.72255  0.018221562  0.017660646           35 
 3384000   0.71890187   -7.4631627    739.00629  0.018198539  0.017654627           26 
 3385000   0.71170653   -7.4258261     742.0725  0.018268648  0.017648605           16 
 3386000   0.71025513   -7.4579762    741.99759   0.01826141  0.017642602           45 
 3387000   0.71725032   -7.4531162    741.83257  0.018251958  0.017636593           51 
 3388000   0.71383941   -7.4527724    741.47704  0.018237826  0.017630589           29 
 3389000   0.70115102   -7.4295854    740.20281  0.018201112   0.01762458           52 
 3390000   0.72227492   -7.4680544    739.28922  0.018173285  0.017618572           35 
 3391000   0.69690956   -7.4590525    740.98878  0.018209692  0.017612567           18 
 3392000    0.7014304   -7.4407018    741.21777  0.018209949  0.017606555           10 
 3393000   0.71652368   -7.4499369     740.1737  0.018178939  0.017600551           12 
 3394000   0.71809002   -7.4813287    739.86184  0.018165926  0.017594526           24 
 3395000   0.70419405    -7.466319    740.41365   0.01817412  0.017588509           19 
 3396000   0.70677168   -7.4529755    741.16184  0.018187128    0.0175825           25 
 3397000   0.69279911   -7.4607287    740.40522  0.018163213  0.017576501           23 
 3398000    0.7031858   -7.4556762    740.19179  0.018152634  0.017570507           21 
 3399000   0.70039838   -7.4563814    740.03508  0.018143451  0.017564489           46 
 3400000   0.71430476    -7.473939    738.92271  0.018110851  0.017558484           27 
 3401000   0.70343159   -7.4837263    737.53448   0.01807151  0.017552459           20 
 3402000   0.68268179   -7.4775226    739.69548  0.018119133  0.017546446           20 
 3403000   0.72544167   -7.4468026    740.23421  0.018127001  0.017540439           29 
 3404000   0.71358103   -7.4744442    740.23857  0.018121782  0.017534434           14 
 3405000   0.72250726   -7.4622352    740.82729  0.018130868  0.017528432           33 
 3406000   0.69330077   -7.4716126    738.37256  0.018065486  0.017522419           21 
 3407000   0.70833488   -7.4366867    741.77599   0.01814343  0.017516411           28 
 3408000   0.71908949   -7.4332403    741.05066   0.01812037  0.017510418           29 
 3409000   0.71364439   -7.4440762    741.75741  0.018132331  0.017504437           27 
 3410000   0.70859608   -7.4391084    740.11302  0.018086828  0.017498441           24 
 3411000   0.70252614   -7.4401379    742.34075  0.018135951  0.017492476           23 
 3412000   0.69468724   -7.4205722    740.89498  0.018095325  0.017486528           41 
 3413000   0.68748337   -7.4579798    741.00377  0.018092679   0.01748057           40 
 3414000   0.70422614   -7.4593105    740.32438  0.018070796  0.017474592           17 
 3415000   0.71127053    -7.470698    741.06266   0.01808352  0.017468611           21 
 3416000    0.7044421   -7.4518891    741.91725  0.018099074  0.017462627           77 
 3417000   0.70896626   -7.4664089    740.85706  0.018067922  0.017456648           47 
 3418000   0.70692222    -7.460136    742.28856  0.018097537   0.01745065           65 
 3419000   0.70373709   -7.4431607    740.12627  0.018039541  0.017444668           62 
 3420000    0.7157187   -7.4559427     741.2396  0.018061394  0.017438673           56 
 3421000   0.69391127   -7.4623448    741.03483  0.018051126  0.017432693           25 
 3422000   0.70462093   -7.4660115    739.05917  0.017997739  0.017426706           64 
 3423000   0.70269333   -7.4756696    738.87475  0.017987992  0.017420709           61 
 3424000   0.71241199   -7.4680101    737.83225  0.017957366  0.017414722           50 
 3425000   0.68663612   -7.4634663    740.50655  0.018017191  0.017408706           41 
 3426000   0.70037142   -7.4882617     740.2018  0.018004519  0.017402706           32 
 3427000   0.70693239    -7.472032    741.91081  0.018040823  0.017396693           22 
 3428000   0.70249029   -7.5005601    739.25152  0.017970914  0.017390711           40 
 3429000   0.68679712    -7.463138    742.03951  0.018033428  0.017384735           46 
 3430000   0.70299072   -7.4811033    740.11542  0.017981424  0.017378739           19 
 3431000   0.70501746   -7.4818064    739.45643  0.017960178  0.017372751           17 
 3432000   0.70367344    -7.498344    740.68693  0.017984822  0.017366752           20 
 3433000    0.7048751   -7.4948543    737.98931  0.017914101  0.017360756           22 
 3434000   0.70540284   -7.4772369    740.58975   0.01797199  0.017354759           16 
 3435000   0.71986348   -7.4547827    740.23784   0.01795822  0.017348787           30 
 3436000   0.70541936   -7.4727487    740.69254  0.017964022  0.017342831           47 
 3437000   0.72157951   -7.4897848    739.14839  0.017921356  0.017336858           38 
 3438000   0.69752145   -7.4810815    740.16479  0.017940779  0.017330865           21 
 3439000   0.69507706     -7.49136    739.94143   0.01793015  0.017324887           39 
 3440000   0.70239658   -7.4742403    739.98165  0.017925912   0.01731891           36 
 3441000   0.71473956   -7.4923092    739.22036  0.017902266  0.017312928           22 
 3442000   0.70249036   -7.4719233     738.7662  0.017886069  0.017306934           90 
 3443000    0.7053096   -7.4631493    739.41729  0.017896633  0.017300954           28 
 3444000   0.70987332   -7.4404928     741.2048  0.017934688   0.01729499           52 
 3445000   0.70639613   -7.4507048    740.01457  0.017900691  0.017289049           22 
 3446000    0.6962631      -7.4601    739.37563  0.017880045  0.017283099           26 
 3447000   0.70046275   -7.4731191    740.06371  0.017891493  0.017277166           23 
 3448000   0.71812121   -7.4602145    740.64026  0.017900238  0.017271217           26 
 3449000   0.68616009   -7.4741254    740.26868   0.01788607  0.017265271           28 
 3450000   0.68145585   -7.4750675    740.03603  0.017875266  0.017259307           58 
 3451000   0.69719036   -7.4675863    740.93934  0.017891899   0.01725337           15 
 3452000   0.69420618   -7.4634473    740.88102  0.017885309  0.017247431           19 
 3453000   0.71468905   -7.4730762    740.45866  0.017869936  0.017241519           28 
 3454000   0.69636209   -7.4804127    739.83773  0.017849781   0.01723559           32 
 3455000   0.68776396   -7.4857206    739.31154  0.017831923  0.017229658           31 
 3456000   0.69678037   -7.4907838    742.17994  0.017895928  0.017223747           31 
 3457000   0.67760927   -7.4385086    740.46457  0.017849402  0.017217811           26 
 3458000   0.71085199   -7.4427047    740.20516  0.017837988  0.017211902           27 
 3459000   0.69598219   -7.4482754    741.33244  0.017859989  0.017205984           33 
 3460000   0.69477194   -7.4587481    740.04364  0.017823787  0.017200069           47 
 3461000   0.69000036   -7.4589906    742.00568  0.017865879  0.017194153           18 
 3462000   0.70001888   -7.4341256    739.83563  0.017808483   0.01718824           37 
 3463000   0.70679499     -7.48107    738.42881  0.017769487  0.017182342           30 
 3464000   0.69993893   -7.4731705    740.64137  0.017817585  0.017176417           27 
 3465000   0.69958717   -7.4662922    740.20994  0.017802067  0.017170502           32 
 3466000   0.69622524   -7.4832065    739.66985  0.017783945  0.017164584           49 
 3467000   0.68680491   -7.4744712    739.71639  0.017779934  0.017158665           46 
 3468000   0.70892824   -7.4771196    740.01168  0.017781903  0.017152772           24 
 3469000   0.69526548   -7.4815265    739.68414  0.017768909  0.017146875           44 
 3470000   0.69564136   -7.4781014    739.93773  0.017769878  0.017140979           22 
 3471000   0.70287635   -7.5073763    739.40997  0.017752088  0.017135079           42 
 3472000   0.68630131   -7.5070876    738.47514  0.017724538  0.017129163           35 
 3473000   0.69303872   -7.4721449    739.78813  0.017750939  0.017123234           30 
 3474000   0.69303786   -7.4894938    740.52576  0.017763523   0.01711731           43 
 3475000    0.7135159   -7.4972796    738.18151  0.017702195  0.017111364           34 
 3476000   0.71451335   -7.5134125    739.24232  0.017722534  0.017105431           35 
 3477000    0.6800305   -7.5230444    739.95731  0.017734573  0.017099485           23 
 3478000   0.69484311   -7.5138846    739.01958  0.017707005  0.017093548           43 
 3479000   0.70561796   -7.5090503    738.57411  0.017691245  0.017087593           41 
 3480000   0.69760943   -7.5012796     738.1915  0.017676999  0.017081647           44 
 3481000   0.69611373   -7.5512726     738.8349  0.017687324   0.01707571           34 
 3482000   0.70967051   -7.4859364    739.93605  0.017708598  0.017069773           49 
 3483000   0.71473699   -7.5008013    738.96396  0.017680255  0.017063853           58 
 3484000   0.69112361   -7.5097492    741.20052  0.017728677  0.017057932           32 
 3485000   0.67975715   -7.4794849     740.9663  0.017717989  0.017052046           29 
 3486000   0.72487249   -7.5022657    739.42222  0.017675995  0.017046138          103 
 3487000   0.68694981   -7.4888659    741.40767  0.017718375  0.017040244           41 
 3488000   0.69060185   -7.5108445    738.67755  0.017648068  0.017034336           47 
 3489000   0.69980618    -7.499471    738.68357  0.017643154  0.017028434           47 
 3490000   0.70386867   -7.5023563    741.18837  0.017697908  0.017022522           48 
 3491000   0.69720648    -7.473913     739.4012  0.017650177  0.017016614           45 
 3492000   0.70636115   -7.5154137    738.41068  0.017621484  0.017010713           76 
 3493000   0.69376399   -7.4962094    738.22025  0.017611896  0.017004803           46 
 3494000   0.69011827   -7.5166483    738.74285   0.01761932  0.016998905           42 
 3495000   0.69628597   -7.5150513    738.73718  0.017614143  0.016993003           66 
 3496000    0.7108368   -7.5076395    740.41308  0.017649053  0.016987103          108 
 3497000   0.68759189   -7.4990999    739.64664  0.017625742  0.016981198           42 
 3498000   0.69463771   -7.5048445    739.91399  0.017627072  0.016975304           52 
 3499000   0.68579524   -7.5030428    739.96749  0.017623309  0.016969393           87 
 3500000   0.69259851   -7.5633415    737.72632  0.017564912   0.01696349           99 
 3501000   0.69634605   -7.5137452    738.80207  0.017585501   0.01695758          145 
 3502000   0.69828994   -7.5407684    739.77003  0.017603513  0.016951664           73 
 3503000   0.69849619   -7.5309616    738.36801  0.017565135  0.016945759           80 
 3504000    0.6932423   -7.5276903     740.2639  0.017605211  0.016939849          224 
 3505000   0.67490795    -7.530098    738.10095  0.017548762  0.016933949          114 
 3506000   0.68195281   -7.5255511    738.32363   0.01754905  0.016928058           74 
 3507000   0.69560003   -7.5344576    738.85007  0.017556555  0.016922162           76 
 3508000   0.67560012   -7.4996722    739.58733  0.017569064  0.016916274           68 
 3509000   0.69885123   -7.5420312    739.39108  0.017559397  0.016910386          104 
 3510000   0.68429224   -7.5358094    739.24341  0.017550888  0.016904493          131 
 3511000    0.6816677   -7.5219577    737.01311  0.017492953  0.016898604           87 
 3512000   0.68824254   -7.5346537    739.83403  0.017554908  0.016892715           64 
 3513000   0.67647621   -7.5400683    738.42141  0.017516401  0.016886824           67 
 3514000   0.68826894   -7.5473247    740.01334  0.017549169  0.016880943           94 
 3515000   0.69548845   -7.5287404    738.92591  0.017518395  0.016875058           58 
 3516000   0.70776039   -7.5415625    739.91195  0.017536783  0.016869169           71 
 3517000   0.69296381   -7.5152238    738.04659  0.017487598   0.01686327           53 
 3518000   0.68620281   -7.5255892    737.92774  0.017479812  0.016857367           75 
 3519000   0.71034917   -7.5254739    739.85841  0.017520565  0.016851485           91 
 3520000   0.68443739    -7.534483    738.33643  0.017479556  0.016845595           82 
 3521000   0.68460255   -7.5583837    738.14286   0.01747001  0.016839688           87 
 3522000   0.69297268   -7.5163678    737.82527  0.017457535  0.016833795           80 
 3523000   0.67510344   -7.5527253    738.52614  0.017469158  0.016827918           92 
 3524000   0.68221678    -7.544857    738.62684  0.017466582   0.01682204          136 
 3525000   0.69851623   -7.5310196    738.60637  0.017461144  0.016816165          155 
 3526000   0.68875488   -7.5603267    737.82964  0.017437834  0.016810294           88 
 3527000   0.68624532   -7.5333523    739.88331  0.017481413  0.016804419          164 
 3528000   0.69364922   -7.5412159    739.48314  0.017467005  0.016798556          189 
 3529000   0.68259624   -7.5471139    737.63847  0.017418496  0.016792695           90 
 3530000    0.6829455   -7.4912336    740.43774  0.017479645  0.016786839          129 
 3531000    0.6947168   -7.5673203    737.10909  0.017396136  0.016780971           95 
 3532000   0.67521815   -7.5388478    737.71192  0.017405434  0.016775101           62 
 3533000   0.68566888   -7.5355201    738.97456   0.01743029  0.016769236           76 
 3534000   0.69481008   -7.5341742    738.94959  0.017424769  0.016763366          231 
 3535000    0.6883349   -7.5414815    738.95398  0.017419943  0.016757496           49 
 3536000   0.68871765   -7.5530218    736.53988  0.017358123  0.016751627          330 
 3537000   0.68017104    -7.555337    737.63438  0.017379002   0.01674575          110 
 3538000   0.67908834   -7.5678951    737.22712  0.017364498   0.01673988           90 
 3539000   0.67497695    -7.560842    739.35578  0.017409715  0.016733999          139 
 3540000   0.68214013   -7.5702015    735.75422  0.017320015  0.016728122           85 
 3541000   0.68167293   -7.5687658    738.37436  0.017376785  0.016722253          366 
 3542000   0.69091816   -7.5399236    738.06422  0.017364583  0.016716375          186 
 3543000   0.68334603   -7.5614198    738.70939  0.017374856  0.016710496          135 
 3544000   0.68928625   -7.5518315    738.89375  0.017374289  0.016704636          114 
 3545000   0.68976415   -7.5832253    737.34088  0.017332884  0.016698773          189 
 3546000   0.68910566   -7.5527819    737.60514  0.017334206   0.01669292          249 
 3547000   0.69187697     -7.54701    738.88755  0.017359448  0.016687075          314 
 3548000   0.68306199   -7.5507891    738.58307  0.017347404  0.016681238          347 
 3549000   0.68258877   -7.5583137    738.90973  0.017350186  0.016675396          124 
 3550000   0.67507526   -7.5480202    738.01261   0.01732424  0.016669553          354 
 3551000    0.6885314    -7.546476    737.60329  0.017309755  0.016663723          280 
 3552000    0.6948907   -7.5410121    739.91197  0.017359046  0.016657883          112 
 3553000   0.69148807   -7.5523752    739.94854  0.017355018  0.016652057           85 
 3554000   0.67588341   -7.5539515    737.56342  0.017294209  0.016646214           99 
 3555000   0.68088273   -7.5307547    738.23713  0.017305137  0.016640377          295 
 3556000   0.66470217   -7.5673073    738.01824  0.017295141  0.016634541          173 
 3557000   0.68437917   -7.5495264    739.02122  0.017313776  0.016628708          154 
 3558000   0.67478119   -7.5635361    737.25543  0.017267553  0.016622878          157 
 3559000   0.66443775    -7.537638    738.58396  0.017293808   0.01661705          120 
 3560000   0.67089853   -7.5640172    738.95085  0.017297539   0.01661121          101 
 3561000   0.68919073   -7.5515429    737.39482  0.017256267  0.016605375          240 
 3562000   0.66298044   -7.5665795    737.40708   0.01725171  0.016599528          114 
 3563000   0.66820018   -7.5581647    737.96623  0.017259945  0.016593686          122 
 3564000   0.68743985   -7.5533778    737.61008  0.017246775  0.016587858          115 
 3565000   0.67672083   -7.5691391    737.17444  0.017231754  0.016582019          345 
 3566000    0.6917133   -7.5688928    737.84795  0.017242661   0.01657618          145 
 3567000   0.67997837   -7.5629127    738.25386   0.01724731  0.016570342          145 
 3568000   0.69136898    -7.565371    738.55194  0.017249438   0.01656451          259 
 3569000     0.681617    -7.550907    737.34191  0.017216352  0.016558667          171 
 3570000   0.67273534   -7.5846419    737.01709  0.017203947  0.016552829          264 
 3571000    0.6845795   -7.5521095    737.98996  0.017221832  0.016546984           96 
 3572000    0.6977521   -7.5952902    737.02256  0.017194442  0.016541139          146 
 3573000   0.67093741   -7.5983974    735.95213  0.017164664  0.016535285          110 
 3574000    0.6761387   -7.5721493    736.77688  0.017179091  0.016529419          146 
 3575000   0.68579875   -7.5784303     738.0098  0.017203026  0.016523568          101 
 3576000    0.6906245   -7.5971156    736.89265  0.017172181   0.01651771          166 
 3577000   0.68870044   -7.6079594    734.94519  0.017122011  0.016511839          123 
 3578000    0.6750532   -7.6108193    736.59892  0.017155742  0.016505977          209 
 3579000   0.68381667   -7.5910248     738.1696   0.01718752  0.016500111          238 
 3580000   0.68228587   -7.6006345    735.15298  0.017112499  0.016494266          265 
 3581000    0.6722253   -7.5868614    738.52873  0.017186278  0.016488433           78 
 3582000   0.68286625   -7.6143918    735.46197  0.017110133  0.016482583           84 
 3583000   0.68090567   -7.5834194     737.1281  0.017144109  0.016476743           79 
 3584000   0.67748237   -7.5746795     735.8753  0.017110196   0.01647089          170 
 3585000   0.67701465   -7.5751973    737.05086  0.017132749   0.01646505          101 
 3586000    0.6623738   -7.5921676    736.02256  0.017104075  0.016459216          183 
 3587000   0.67585556    -7.592416    735.82257  0.017094661  0.016453381          224 
 3588000     0.693804   -7.5877766    736.03516  0.017094834  0.016447563          113 
 3589000   0.67363838   -7.5867138    737.38779  0.017121478   0.01644175           62 
 3590000   0.68219925   -7.5674442    735.73631  0.017078373  0.016435937           88 
 3591000   0.68871937   -7.5747297    738.72132  0.017142888  0.016430111          147 
 3592000   0.67626986   -7.5901734    737.63851  0.017112994  0.016424293          233 
 3593000   0.66942988   -7.5869468    735.87676  0.017067371  0.016418482          164 
 3594000   0.67313941   -7.5877616    737.95501   0.01711081  0.016412676          128 
 3595000   0.66420523   -7.5753718    738.31672  0.017114435  0.016406863           91 
 3596000   0.66251422   -7.5748129    738.42513  0.017112188  0.016401065          344 
 3597000   0.67069492   -7.5945499     736.4344   0.01706131  0.016395267          235 
 3598000    0.6781145   -7.5630195    738.31905  0.017100219   0.01638948          166 
 3599000   0.68875761   -7.5852055     737.4423  0.017075167  0.016383691          150 
 3600000   0.66648307   -7.5921704    736.49476   0.01704849  0.016377909          285 
 3601000    0.6735168    -7.570305    738.17902  0.017082732  0.016372117          355 
 3602000   0.66528341   -7.5728961    736.55562  0.017040432  0.016366341          230 
 3603000   0.68634902   -7.5645595    737.93989  0.017067719  0.016360588          203 
 3604000   0.67274662    -7.594157    736.09415  0.017020305  0.016354813          362 
 3605000   0.68114337   -7.5612213    738.05113  0.017060821  0.016349053          279 
 3606000   0.68240031    -7.616057    737.43988  0.017041964  0.016343279          295 
 3607000   0.68974363    -7.604251    737.93683  0.017048721  0.016337499          113 
 3608000   0.67641038   -7.6050183    735.64853  0.016991143  0.016331726          263 
 3609000   0.67736418   -7.5688676    737.73975  0.017034722  0.016325952          116 
 3610000   0.68506735   -7.5929789    737.55582  0.017025758  0.016320181          259 
 3611000   0.65905308    -7.574206    738.51162    0.0170431  0.016314398          114 
 3612000   0.66670027   -7.5986077    737.24602  0.017009183  0.016308619          191 
 3613000   0.67189773   -7.5938148    737.63527  0.017013453  0.016302841          115 
 3614000   0.69491033   -7.6108271    737.05596  0.016995387  0.016297069          314 
 3615000   0.67100744   -7.5859242    736.83019  0.016985481  0.016291301          126 
 3616000   0.66176618    -7.562526    737.19803  0.016989261  0.016285543          167 
 3617000   0.68294457   -7.5696558    736.70794  0.016973273  0.016279792          158 
 3618000   0.67530048   -7.5603224    738.12488  0.017001218  0.016274035          163 
 3619000     0.692245   -7.5960114    736.85935  0.016967379  0.016268271          115 
 3620000   0.68623191   -7.6138282    736.66954  0.016958323  0.016262505          385 
 3621000   0.67708476   -7.5977959    737.17912  0.016965367  0.016256735          300 
 3622000   0.67394243   -7.5961287    736.62862  0.016948017  0.016250958          138 
 3623000   0.67571975   -7.6071842    735.11286  0.016908475  0.016245196          308 
 3624000    0.6724603   -7.5949944    735.82164  0.016920108   0.01623942          463 
 3625000    0.6743613   -7.6234025    736.25331  0.016925364  0.016233655          315 
 3626000   0.67393743   -7.5950922     737.5401  0.016950269   0.01622789          112 
 3627000      0.69758   -7.6172436    735.70844  0.016903512  0.016222137          329 
 3628000   0.65326364   -7.6446866    734.42394  0.016869348  0.016216367          414 
 3629000   0.68093956   -7.6008385     735.3758  0.016886557  0.016210598          145 
 3630000   0.66769574   -7.5874783    736.22786  0.016901466  0.016204841          222 
 3631000   0.65686393   -7.5775304    736.53605  0.016903884  0.016199076          393 
 3632000   0.67818418   -7.6014421    736.25909  0.016892876  0.016193336          277 
 3633000   0.67696963   -7.5935039    737.43233  0.016915137  0.016187602          425 
 3634000   0.67882055   -7.5897673    737.97626  0.016922956  0.016181863          353 
 3635000   0.67508208   -7.5991472    736.93961  0.016894535  0.016176128          178 
 3636000   0.66662933   -7.5976808    737.42429  0.016900997  0.016170394          298 
 3637000   0.66171134   -7.5936899    735.91578  0.016861786  0.016164661          234 
 3638000   0.66528064   -7.6026705    736.08817    0.0168611  0.016158932          377 
 3639000   0.68136143   -7.5911247    736.16646  0.016858259  0.016153207          345 
 3640000   0.67253294   -7.6013355    738.97573  0.016917943   0.01614748          208 
 3641000   0.67115942   -7.5978109     737.1065  0.016870514  0.016141751          212 
 3642000   0.67672957   -7.5741483    737.26602  0.016869532  0.016136037          348 
 3643000   0.66513783   -7.6032991    738.49871  0.016893099  0.016130308          469 
 3644000   0.66406713   -7.6341908    736.99328  0.016854036  0.016124586          463 
 3645000   0.66567047   -7.5852978    736.10801  0.016829173  0.016118857          182 
 3646000   0.66306693   -7.6135216    735.59566  0.016812846  0.016113128          405 
 3647000   0.66626221   -7.6103555    737.52778  0.016852385  0.016107415          241 
 3648000   0.65792403   -7.6206394    735.99635  0.016812782  0.016101697          492 
 3649000   0.67865242   -7.6068792    734.87374  0.016782537  0.016095979          359 
 3650000   0.66268087   -7.6261629    736.83742  0.016822772  0.016090267          460 
 3651000   0.66396022    -7.617731    736.63515  0.016813548  0.016084551          470 
 3652000   0.66454811    -7.628531      735.986  0.016794131  0.016078844          482 
 3653000   0.66848871   -7.6385681    734.67071  0.016759529  0.016073141          389 
 3654000    0.6631582   -7.6186526    737.24641  0.016813684  0.016067437          531 
 3655000   0.66816868   -7.6165795     736.4966  0.016791988  0.016061746          534 
 3656000   0.67647279   -7.6263118    737.12958  0.016801823  0.016056064          525 
 3657000   0.66736158   -7.6121147    735.73941   0.01676555  0.016050363          501 
 3658000   0.66207949   -7.6184454    736.12469  0.016769744  0.016044675          594 
 3659000   0.66377604   -7.6148803    735.49448  0.016750808  0.016038992          574 
 3660000   0.65603604   -7.6032717    737.36967  0.016788927  0.016033327          392 
 3661000   0.65874884    -7.614382    737.56405  0.016788765  0.016027639          493 
 3662000   0.65600441    -7.611968    735.82418  0.016744588   0.01602195          297 
 3663000   0.67201476   -7.6362361    735.99235  0.016743843  0.016016278          542 
 3664000   0.66867462   -7.6095456    737.65977  0.016777196  0.016010602          352 
 3665000   0.67750455    -7.620706    736.76176    0.0167522  0.016004928          329 
 3666000   0.65400097   -7.6078749    736.55082  0.016742835  0.015999256          627 
 3667000   0.66608494   -7.6158542    735.42275  0.016712634  0.015993573          414 
 3668000     0.659266   -7.6236457    736.73081  0.016737796  0.015987873          587 
 3669000   0.66094814   -7.6303903    736.76123  0.016733925   0.01598219          624 
 3670000   0.65595881   -7.6405388    735.37013  0.016697778  0.015976504          383 
 3671000   0.66632699   -7.6195734    736.32641  0.016714937  0.015970826          354 
 3672000   0.66915019   -7.6312726    737.68016  0.016741107  0.015965147          306 
 3673000   0.66669901   -7.6094016    736.86152  0.016717976  0.015959472          545 
 3674000   0.65342076   -7.6435669    735.05993  0.016672562  0.015953786          616 
 3675000   0.66459998   -7.6180544    736.80531  0.016707603   0.01594812          454 
 3676000   0.65907108   -7.6479308    734.30844  0.016646455  0.015942452          511 
 3677000   0.66986148   -7.6188305    735.44299  0.016667641   0.01593677          488 
 3678000   0.66679638   -7.6455075    735.25177  0.016658777  0.015931098          547 
 3679000   0.64696173   -7.6363389    735.24105  0.016654006  0.015925427          344 
 3680000   0.66249512   -7.6381155    735.29712   0.01665075  0.015919761          487 
 3681000   0.67133641   -7.6112888    736.06008  0.016663499  0.015914105          494 
 3682000   0.66491228     -7.63399    736.12034  0.016660337  0.015908449          505 
 3683000   0.67762466   -7.6397216    735.16141  0.016634116  0.015902784          567 
 3684000   0.64545252   -7.6131902    736.50856  0.016660074  0.015897124          503 
 3685000   0.66571627   -7.6256481    736.82184  0.016662638  0.015891475          472 
 3686000   0.66561885   -7.6384567    734.27376   0.01660051  0.015885821          639 
 3687000   0.65465554    -7.619583    734.83783  0.016608757  0.015880171          436 
 3688000   0.66105963   -7.6098766    736.54444  0.016642816  0.015874528          538 
 3689000   0.64925273   -7.6198636     735.9955  0.016625904  0.015868897          399 
 3690000   0.65868465   -7.6334974    734.69586  0.016592047  0.015863262          607 
 3691000   0.65878815   -7.6210732    738.70174  0.016677995   0.01585762          466 
 3692000   0.65243567   -7.6101138    735.56272  0.016602626  0.015851982          384 
 3693000   0.66456701   -7.6351793    737.13915  0.016633702  0.015846351          592 
 3694000   0.66504964    -7.621463    735.10603  0.016583334   0.01584071          470 
 3695000   0.65377204   -7.6323525    736.57604  0.016611999   0.01583507          405 
 3696000   0.66612583   -7.6406498    736.78306  0.016612172  0.015829432          580 
 3697000   0.67125336   -7.6405642    735.05895  0.016568816  0.015823788          514 
 3698000   0.67405133   -7.6427434    734.09209  0.016542548  0.015818142          529 
 3699000   0.65063777   -7.6414644    735.14804  0.016561864  0.015812499          601 
 3700000   0.66260595   -7.6647796    735.42738   0.01656368  0.015806861          553 
 3701000   0.67736483   -7.6406656    736.84082   0.01659103  0.015801225          589 
 3702000   0.64718499   -7.6452485    735.23934  0.016550498  0.015795596          473 
 3703000   0.66115491   -7.6386895     735.2375  0.016545987  0.015789966          547 
 3704000    0.6560485   -7.6296696    735.44458  0.016546179  0.015784336          545 
 3705000   0.65313583   -7.6322237    734.94154  0.016530399  0.015778722          593 
 3706000    0.6517576   -7.6354981    735.44971  0.016537365   0.01577309          569 
 3707000   0.66158881   -7.6316065    734.79324  0.016518147  0.015767459          671 
 3708000   0.66709077   -7.6436236    734.65812  0.016510655  0.015761838          559 
 3709000   0.65743723   -7.6407868    735.50228   0.01652517  0.015756209          664 
 3710000   0.65854516   -7.6457746    735.05695  0.016510713  0.015750582          444 
 3711000   0.64917256   -7.6455183     734.9834  0.016504612  0.015744956          311 
 3712000   0.64555333   -7.6234899    734.10503  0.016480447  0.015739333          738 
 3713000   0.65643902   -7.6356396    735.04952  0.016497206   0.01573371          703 
 3714000   0.66665673   -7.6672672    734.62229  0.016483178  0.015728083          555 
 3715000   0.65325151   -7.6413268    736.22438  0.016514679  0.015722471          695 
 3716000   0.65175028   -7.6669952    735.11885  0.016485442  0.015716857          701 
 3717000   0.65013824    -7.649616    734.42156  0.016465374  0.015711234          803 
 3718000   0.66406131   -7.6393632    736.24548  0.016501826  0.015705625          728 
 3719000   0.68410731   -7.6281789    735.92093  0.016490117  0.015700024          656 
 3720000   0.64114428   -7.6672228    735.10059  0.016467307  0.015694421          681 
 3721000   0.66441365    -7.651298    734.29442  0.016444827  0.015688816          556 
 3722000   0.66378241   -7.6461685    735.35051  0.016464054  0.015683206          516 
 3723000   0.65980497   -7.6427098    735.52425  0.016463521  0.015677598          651 
 3724000   0.65221971   -7.6370196    734.24198  0.016430406  0.015671997          569 
 3725000   0.64264608   -7.6355874    733.64231   0.01641258    0.0156664          625 
 3726000   0.65746744   -7.6353611    735.21063  0.016443251  0.015660797          612 
 3727000   0.66944013   -7.6318995    734.79315  0.016429504   0.01565521          713 
 3728000   0.65033454   -7.6702119    733.80496  0.016403008  0.015649624          663 
 3729000    0.6447598   -7.6467202    733.60959  0.016394243  0.015644035          596 
 3730000    0.6595465   -7.6464691    735.33115   0.01642831  0.015638444          573 
 3731000   0.64786538   -7.6478524    735.94006  0.016437507  0.015632865          606 
 3732000   0.66550182   -7.6582712    734.59962  0.016403171  0.015627282          703 
 3733000   0.66678042   -7.6481974    734.79107  0.016403051  0.015621703          326 
 3734000   0.64691117   -7.6423079    735.75751  0.016420227  0.015616133          638 
 3735000   0.65777452   -7.6592302    735.98214  0.016420842  0.015610558          616 
 3736000   0.66641267   -7.6419543    736.18722  0.016421021  0.015604987          565 
 3737000   0.65197953   -7.6331708    734.68962  0.016383231   0.01559942          724 
 3738000   0.65415434   -7.6547453    733.58384  0.016354196  0.015593831          595 
 3739000   0.65617549   -7.6465019    736.20871  0.016408325  0.015588257          536 
 3740000   0.66226126   -7.6558188    734.81323  0.016372844  0.015582682          606 
 3741000   0.64662939   -7.6650071    734.57299  0.016363116  0.015577103          592 
 3742000   0.64650726   -7.6748549    734.20952  0.016350648  0.015571534          594 
 3743000   0.66084883   -7.6648605    733.55727  0.016331759   0.01556597          546 
 3744000   0.65708808   -7.6384252    735.04081  0.016360417  0.015560418          692 
 3745000   0.63131888   -7.6753162    734.55431  0.016345223  0.015554862          625 
 3746000   0.65297899   -7.6676927    733.81299  0.016324368  0.015549296          733 
 3747000    0.6595035   -7.6434072    736.50798  0.016379948  0.015543744          737 
 3748000   0.65685803   -7.6429269    733.98444  0.016319469  0.015538178          692 
 3749000   0.65734959   -7.6671585    734.81271  0.016333527  0.015532624          624 
 3750000   0.64780387   -7.6527675    735.58092  0.016346243  0.015527073          661 
 3751000   0.65420075   -7.6740653    734.19037  0.016310992  0.015521504          670 
 3752000   0.66152716   -7.6687786    733.48156  0.016290902  0.015515951          647 
 3753000   0.64503571   -7.6573531    735.07885  0.016322028  0.015510418          681 
 3754000   0.64429304   -7.6458798    734.22964  0.016298829  0.015504875          619 
 3755000   0.65738551   -7.6304857    734.88551  0.016309044  0.015499322          685 
 3756000   0.63772311    -7.681844    734.12677  0.016287868  0.015493778          744 
 3757000   0.66944854   -7.6511099    735.51626  0.016314352   0.01548822          635 
 3758000   0.64620733   -7.6645868     734.3062  0.016283178  0.015482678          645 
 3759000   0.65486114   -7.6799803    734.23781   0.01627733  0.015477123          664 
 3760000   0.64265514   -7.6687792    733.30058  0.016252229  0.015471576          591 
 3761000   0.65687188    -7.690562    734.28899  0.016269808  0.015466026          665 
 3762000    0.6471659   -7.6832553      734.798  0.016276759  0.015460478          709 
 3763000   0.64081888   -7.6760401     733.8945  0.016252425  0.015454924          738 
 3764000   0.65156784   -7.6519782     735.7244   0.01628862   0.01544937          654 
 3765000   0.65246903   -7.6741344    733.58805  0.016237009  0.015443823          578 
 3766000    0.6621574   -7.6666704    733.20507  0.016224223  0.015438283          752 
 3767000   0.64319751   -7.6670851    734.48355  0.016248198  0.015432744          530 
 3768000   0.65041456    -7.665165    733.65161  0.016225487  0.015427201          669 
 3769000   0.64058368   -7.6750682    732.99845   0.01620674  0.015421656          566 
 3770000   0.64500056   -7.6663455    735.08414  0.016248544  0.015416138          756 
 3771000   0.64638962   -7.6687091    733.57564    0.0162109  0.015410618          672 
 3772000   0.63950438   -7.6615649    734.61481   0.01622956    0.0154051          749 
 3773000   0.65554031   -7.6646113    734.57867   0.01622446  0.015399594          709 
 3774000   0.64527406   -7.6846676    733.98451  0.016207042  0.015394075          732 
 3775000   0.64796429   -7.6818269    734.93964  0.016223833   0.01538856          660 
 3776000   0.64682033   -7.6706131    736.81893  0.016261011   0.01538305          664 
 3777000   0.64027617   -7.6612624    733.82508  0.016190651   0.01537754          675 
 3778000    0.6414316   -7.6619847    735.75752  0.016228991  0.015372045          674 
 3779000   0.65019767   -7.6524901    735.60602  0.016221355  0.015366554          682 
 3780000   0.65316331   -7.6760501    732.67123  0.016152364  0.015361051          669 
 3781000   0.64512959   -7.6772158    735.36023  0.016207358  0.015355551          616 
 3782000   0.63790916   -7.6776156    735.67319  0.016209968  0.015350051          630 
 3783000   0.66216312   -7.6739728     734.7105  0.016184477  0.015344558          654 
 3784000   0.64399596    -7.672109    733.78198  0.016159751  0.015339072          675 
 3785000   0.64842313   -7.6592362    735.05663  0.016183545  0.015333573          705 
 3786000   0.64529324   -7.6684323    734.44719  0.016165857  0.015328067          606 
 3787000   0.63876803   -7.6578423    735.27422  0.016179786  0.015322574          665 
 3788000   0.64266458   -7.6930954    734.42394   0.01615681  0.015317078          765 
 3789000   0.64565363   -7.6850128    734.14505  0.016146412  0.015311594          727 
 3790000   0.64589525   -7.6943722    732.88373  0.016114418  0.015306104          772 
 3791000   0.64423071   -7.6758853    734.83763  0.016153118  0.015300611          735 
 3792000   0.65095625    -7.691168    733.33516  0.016115839  0.015295131          742 
 3793000   0.63831295   -7.6901458    734.43351  0.016135722  0.015289647          801 
 3794000   0.64082269   -7.6466969    734.34924  0.016129618  0.015284174          653 
 3795000   0.64098593   -7.6905964     734.1603  0.016121219  0.015278701          679 
 3796000   0.64667134   -7.6850313     733.4017  0.016100318  0.015273224          688 
 3797000   0.64177245     -7.65076    735.50698  0.016142283  0.015267747          694 
 3798000   0.64398343   -7.6637162    734.48722  0.016115658  0.015262277          711 
 3799000   0.64930875   -7.6805266    733.16849  0.016082489  0.015256814          675 
 3800000   0.65790986   -7.6792953     734.0757  0.016098151  0.015251348          523 
 3801000   0.64622775   -7.7043829    735.80753  0.016131885  0.015245872          290 
 3802000    0.6287191   -7.6837169    733.88886  0.016085588  0.015240399          656 
 3803000     0.647812   -7.6932462    733.65866  0.016076314  0.015234921          656 
 3804000   0.64728736   -7.6909551    733.64322  0.016071749  0.015229446          701 
 3805000   0.65148991   -7.6839256    734.49221  0.016086119  0.015223967          484 
 3806000   0.62918334   -7.6938479    734.08789   0.01607304  0.015218491          696 
 3807000    0.6481215   -7.7175822    732.91874  0.016043226   0.01521301          597 
 3808000   0.64951645   -7.6819379     733.2028  0.016045229  0.015207532          609 
 3809000   0.66181766   -7.7001566    733.21011  0.016041177  0.015202055          579 
 3810000   0.64423015   -7.6767837    733.37423  0.016040556  0.015196588          473 
 3811000   0.64674334   -7.6905172    734.54935  0.016062043  0.015191125          553 
 3812000   0.65198446   -7.7027782     732.6499  0.016016306  0.015185668          693 
 3813000   0.64920626   -7.6975928     734.2615  0.016047327  0.015180208          675 
 3814000   0.63632754   -7.6824601    732.76429  0.016010407  0.015174753          658 
 3815000   0.63406422   -7.6893563    733.70503  0.016026759  0.015169304          731 
 3816000   0.64070165   -7.6866116    733.29071  0.016013511  0.015163855          712 
 3817000   0.62877898   -7.7154681    733.97081  0.016024164  0.015158409          789 
 3818000   0.64673468   -7.6870511    732.77857  0.015993945  0.015152965          708 
 3819000   0.64199489   -7.6965203    733.54447  0.016006469  0.015147508          706 
 3820000    0.6513571   -7.7161712    733.01426  0.015990712  0.015142061          635 
 3821000   0.63523399   -7.7259251    733.34635   0.01599377  0.015136608          770 
 3822000   0.65406571   -7.7093098    734.68277  0.016018724   0.01513115          744 
 3823000   0.63297756     -7.70758    732.30226  0.015962644  0.015125699          725 
 3824000   0.63675421   -7.6952241    733.47491  0.015984024  0.015120253          735 
 3825000   0.63994208   -7.6947886    733.34484  0.015977012  0.015114815          651 
 3826000   0.63901239   -7.6963513    733.41764  0.015974422  0.015109378          746 
 3827000   0.64021338   -7.6834241    733.15524  0.015964534  0.015103949          680 
 3828000   0.65761247   -7.7188382    733.18381  0.015960985   0.01509852          680 
 3829000   0.64459111   -7.6756174    734.13025  0.015977415  0.015093095          642 
 3830000   0.64712673   -7.6934892    733.62887  0.015962334  0.015087672          660 
 3831000   0.63845849   -7.6934864    733.62611  0.015958107  0.015082251          728 
 3832000   0.64183617   -7.6832108    732.79718  0.015935916  0.015076832          751 
 3833000   0.63515809   -7.7066856    733.93738  0.015956548  0.015071424          849 
 3834000   0.63221456   -7.6921038    735.09796  0.015977612  0.015066004          777 
 3835000   0.64628729   -7.6667844    733.29845  0.015934343  0.015060597          751 
 3836000   0.65205644   -7.6959155    733.46682  0.015933846   0.01505519          448 
 3837000   0.63016134   -7.7123347    732.29815  0.015904312   0.01504978          516 
 3838000   0.63802787    -7.695067    734.87517  0.015956122  0.015044365          717 
 3839000   0.64352621   -7.6861229    734.71571  0.015948505  0.015038961          666 
 3840000   0.63316421   -7.6646998    733.50344  0.015918043  0.015033561          484 
 3841000   0.62223699   -7.6964901    733.32146  0.015909951  0.015028168          532 
 3842000   0.63821111   -7.6938251    731.65693  0.015869706  0.015022767          733 
 3843000   0.62388628   -7.6993276    733.51237  0.015905811  0.015017377          540 
 3844000   0.62874573   -7.7057678    733.28109  0.015896659  0.015011991          693 
 3845000   0.61925906   -7.6763951    732.46512   0.01587484  0.015006606          693 
 3846000   0.61777407   -7.7264979    733.03941  0.015883156   0.01500121          711 
 3847000   0.62600703   -7.6759986    733.99182  0.015899658  0.014995822          709 
 3848000   0.65756195   -7.7058736    734.16008   0.01589917  0.014990435          654 
 3849000   0.64725889   -7.7062403    733.21037  0.015874477  0.014985046          574 
 3850000   0.64302673   -7.7211252     732.7257  0.015859864  0.014979656          645 
 3851000   0.63282785   -7.6947037    732.71761   0.01585557  0.014974264          632 
 3852000    0.6315435   -7.6892106    733.06247  0.015858915  0.014968879          724 
 3853000   0.64685029   -7.6898847    732.53251  0.015843337  0.014963498          604 
 3854000   0.62999051   -7.6915216    732.48423  0.015838182  0.014958122          683 
 3855000   0.63085801   -7.7034956    733.79872  0.015862489  0.014952748          741 
 3856000    0.6417245   -7.7042312    733.48546  0.015851605  0.014947372          602 
 3857000   0.64932705   -7.7145273    733.06783  0.015838472  0.014941997          667 
 3858000   0.62861415    -7.703571    731.92472  0.015809675  0.014936623          643 
 3859000   0.62250281   -7.7176899    731.84851  0.015803933  0.014931248          682 
 3860000   0.63558564   -7.7156631     732.3332  0.015810302  0.014925869          729 
 3861000   0.62754038   -7.7246124    733.53076  0.015832055  0.014920486          637 
 3862000   0.63128474   -7.7186419    730.89361  0.015771051  0.014915109          599 
 3863000   0.63147935   -7.6987208    732.85093  0.015809192  0.014909746          629 
 3864000    0.6297207   -7.6889927     733.6216  0.015821722   0.01490438          675 
 3865000   0.63799154   -7.7043338    734.34624  0.015833252  0.014899018          759 
 3866000   0.64244287   -7.7397922     732.2145  0.015783206  0.014893651          704 
 3867000   0.62935639   -7.7461376    733.14424   0.01579916  0.014888277          761 
 3868000    0.6284915   -7.7152771    732.31478  0.015777206  0.014882902          617 
 3869000   0.62846003   -7.7349219     732.4336  0.015775687  0.014877533          766 
 3870000   0.63444206   -7.7206354    732.92096  0.015782105  0.014872164          683 
 3871000   0.62278311   -7.7189398    731.65619  0.015750801  0.014866798          742 
 3872000    0.6263201   -7.7116003    733.02988  0.015776297  0.014861435          489 
 3873000   0.63054116   -7.7278434    731.57509  0.015740922  0.014856076          737 
 3874000   0.61136024   -7.7383954    733.69559  0.015782473  0.014850725          713 
 3875000   0.63058093   -7.7343282    732.37119  0.015749918  0.014845372          826 
 3876000   0.64192909   -7.7120711    731.32458  0.015723353  0.014840023          709 
 3877000   0.61005902   -7.7539184     733.3584  0.015763013  0.014834672          750 
 3878000   0.63853969   -7.7325482    732.20493  0.015734161  0.014829325          772 
 3879000    0.6193522   -7.7218802     731.7922  0.015721238  0.014823984          703 
 3880000   0.61924761   -7.7122944    731.72248  0.015715689  0.014818645          696 
 3881000   0.63540673   -7.7244311    733.36185   0.01574684   0.01481331          652 
 3882000   0.62536795   -7.7262168     731.5236  0.015703323  0.014807979          765 
 3883000    0.6278752   -7.7066822    732.94856   0.01572986  0.014802653          663 
 3884000   0.62178414   -7.7055241    732.29198  0.015711723  0.014797321          723 
 3885000   0.63156987   -7.7191246    732.59257  0.015714126  0.014791996          726 
 3886000   0.63637378   -7.7309916    731.90807  0.015695404  0.014786677          694 
 3887000    0.6283595   -7.7168628     733.1096  0.015717125  0.014781343          769 
 3888000   0.63584857   -7.7491733    731.87159  0.015686548  0.014776016          720 
 3889000   0.61070582   -7.7146861    734.72432  0.015743643  0.014770687          699 
 3890000   0.63165462   -7.7189562    731.99449  0.015681116   0.01476537          638 
 3891000   0.62390211   -7.7165195    731.75014  0.015671853  0.014760052          759 
 3892000   0.63583656   -7.7103937    732.39636  0.015681662  0.014754725          500 
 3893000   0.63673719   -7.7166395     732.8442  0.015687221  0.014749407          682 
 3894000   0.63616067   -7.7305147    731.66912  0.015658045  0.014744087          687 
 3895000   0.64391563   -7.7407309    732.83791  0.015679031  0.014738775          693 
 3896000   0.63608093   -7.7317373    731.78533  0.015652493  0.014733466          726 
 3897000   0.62787783   -7.7230038    732.28341  0.015659127  0.014728157          592 
 3898000   0.62610782   -7.7219715    731.60862  0.015640684  0.014722846          646 
 3899000   0.63465109   -7.7406799    732.04286  0.015645953   0.01471753          752 
 3900000   0.64178047   -7.7304943    733.28765   0.01566854  0.014712218          648 
 3901000   0.64044299    -7.747061    731.94265  0.015635791  0.014706913          796 
 3902000   0.63726741   -7.7276708    731.67716  0.015626114  0.014701609          721 
 3903000   0.62093717   -7.7193933    731.54237  0.015619233  0.014696311          703 
 3904000   0.63035169   -7.7430798    731.19575  0.015607833  0.014690995          785 
 3905000   0.63117812   -7.7142801    732.45413   0.01563069  0.014685687          784 
 3906000   0.62444944   -7.7222741    732.52462  0.015628192  0.014680387          845 
 3907000   0.62131375   -7.7414465    731.49853  0.015602306   0.01467507          726 
 3908000   0.62317208   -7.7267154    732.09297   0.01561099  0.014669772          815 
 3909000   0.62041501   -7.7349215    731.00456  0.015583793  0.014664484          836 
 3910000   0.62227155   -7.7416921    732.37957  0.015609113  0.014659183          795 
 3911000   0.62209066   -7.7175972    731.63072  0.015589166  0.014653887          860 
 3912000   0.62415247   -7.7467382    731.48249  0.015582023  0.014648584          778 
 3913000   0.62501903   -7.7396461    732.68316  0.015603611  0.014643287          800 
 3914000   0.63443262   -7.7398608    730.07588  0.015544113  0.014637994          913 
 3915000    0.6050198   -7.7350456    731.06901  0.015561282    0.0146327          743 
 3916000    0.6321257   -7.7403477    731.25077  0.015561176  0.014627412          851 
 3917000   0.62884169   -7.7452007    731.19457  0.015556007  0.014622122          860 
 3918000   0.62430909   -7.7473453    731.20893  0.015552342   0.01461683          782 
 3919000   0.61738597    -7.726695    732.50378  0.015575908  0.014611538          884 
 3920000   0.61635346    -7.725649    731.34552  0.015547311  0.014606257          754 
 3921000   0.63897011   -7.7554498    731.42914  0.015545123  0.014600976          844 
 3922000   0.62616837   -7.7657233    730.75176  0.015526767  0.014595689          869 
 3923000   0.60817156    -7.751337    729.93752  0.015505513  0.014590406          889 
 3924000   0.63099429    -7.743667    730.73834  0.015518568  0.014585129          931 
 3925000    0.6354499   -7.7213973    729.84827  0.015495717  0.014579862          889 
 3926000   0.62350165   -7.7377385    731.16839  0.015519791  0.014574602          852 
 3927000   0.63024943    -7.747121    731.59841  0.015524964  0.014569337          899 
 3928000   0.63229928   -7.7397981    730.00118  0.015487126  0.014564079          887 
 3929000   0.62676255   -7.7613058    732.15661  0.015528901  0.014558814          849 
 3930000   0.61416145   -7.7430414    732.26283  0.015527202  0.014553554          829 
 3931000   0.61616951   -7.7500967    731.42344  0.015505458  0.014548294          875 
 3932000   0.63330966   -7.7432389    731.02147  0.015492995  0.014543034          852 
 3933000   0.61484704   -7.7465506    731.57184  0.015500717  0.014537778          812 
 3934000   0.61895058   -7.7703217    731.71732  0.015499858  0.014532521          877 
 3935000   0.61297753   -7.7569123    731.19327  0.015484822  0.014527265          842 
 3936000   0.62198946   -7.7484508    730.41528  0.015464416  0.014522007          861 
 3937000   0.61648738   -7.7537964     731.3193  0.015479623  0.014516754          784 
 3938000   0.62222116   -7.7777541     729.7689  0.015442884  0.014511498          892 
 3939000   0.61357969   -7.7543326    730.67169  0.015458062  0.014506246          813 
 3940000   0.61556561   -7.7481925    730.86898  0.015458312  0.014500997          842 
 3941000    0.6055468   -7.7473718    731.21995  0.015461811   0.01449576          887 
 3942000   0.61419868   -7.7613532    730.78755  0.015448748  0.014490523          759 
 3943000   0.62596791   -7.7659515    730.67857  0.015442526  0.014485294          812 
 3944000   0.61858288   -7.7417666    733.12322  0.015490264  0.014480052          834 
 3945000    0.6215139   -7.7450445    730.65844  0.015434272  0.014474816          752 
 3946000   0.60274872   -7.7489635    733.02799  0.015480402  0.014469578          859 
 3947000   0.62919718   -7.7609274    730.83284  0.015430133  0.014464348          836 
 3948000   0.62522537   -7.7229576    731.45653   0.01543939  0.014459128          868 
 3949000   0.61820528   -7.7365729    732.86324  0.015465165  0.014453908          787 
 3950000   0.60549538   -7.7708739     730.5976  0.015413451  0.014448689          899 
 3951000   0.61491759   -7.7412844    730.43309  0.015406081  0.014443468          816 
 3952000   0.63121669   -7.7563725    730.99354     0.015414  0.014438247          843 
 3953000   0.61526802   -7.7525336    729.54901  0.015379649  0.014433033          849 
 3954000   0.62982468   -7.7733731    729.79068  0.015380852   0.01442782          858 
 3955000   0.62062085   -7.7807136    729.12511   0.01536294  0.014422603          870 
 3956000   0.62456104   -7.7769197    730.28755  0.015383543  0.014417391          827 
 3957000   0.61676883   -7.7596466    731.14686  0.015397752  0.014412178          873 
 3958000   0.62867632   -7.7614119    730.57254   0.01538177  0.014406983          812 
 3959000    0.6098977   -7.7604425    730.22226  0.015370512  0.014401788          865 
 3960000    0.6162341   -7.7781021    730.14132  0.015364927  0.014396596          906 
 3961000   0.60007261   -7.7683791    730.46069  0.015367767  0.014391399          874 
 3962000   0.62061553   -7.7674177    732.44531  0.015405631  0.014386207          812 
 3963000   0.61278666   -7.7862639    729.35084  0.015336673     0.014381          833 
 3964000    0.6117879   -7.7781501    730.16334  0.015349885  0.014375805          911 
 3965000   0.62187845    -7.782378    729.90881  0.015340664  0.014370615          803 
 3966000    0.6234816   -7.7652412    731.45279  0.015369238  0.014365422          848 
 3967000   0.61050603   -7.7699033    730.01131  0.015335083  0.014360241          658 
 3968000   0.61890394   -7.7839018    730.67794  0.015345219  0.014355056          887 
 3969000   0.61360899   -7.7590322    731.52872  0.015359216  0.014349872          766 
 3970000   0.61715121   -7.7619541    732.32848  0.015372134  0.014344687          875 
 3971000   0.60859265   -7.7849227    729.35484   0.01530586  0.014339506          890 
 3972000   0.61178296   -7.7823117    729.80152  0.015311378  0.014334324          705 
 3973000   0.61545798   -7.7682859    732.34974  0.015360973  0.014329147          838 
 3974000   0.60749155    -7.765932    729.99606  0.015307752  0.014323972          879 
 3975000    0.6190772   -7.7582707    731.00201   0.01532499  0.014318799          843 
 3976000   0.60383311   -7.7515565    731.36703  0.015328786  0.014313629          888 
 3977000   0.61527052   -7.7667929    731.72947  0.015332526  0.014308463          872 
 3978000   0.59494017   -7.7526219    732.23579  0.015339278  0.014303299          862 
 3979000   0.60567167   -7.7593821    730.06486  0.015289957  0.014298125          850 
 3980000   0.61641164   -7.7581993    730.30288  0.015291099  0.014292967          835 
 3981000   0.61653115   -7.7920408    729.42632  0.015268909  0.014287803          892 
 3982000   0.62461676   -7.7884734    728.67557  0.015249363  0.014282647          838 
 3983000     0.614276   -7.7778798    731.15831  0.015297479  0.014277491          919 
 3984000   0.61035109   -7.7830691    729.65136  0.015262119  0.014272337          884 
 3985000   0.61678796   -7.7806267    731.71543  0.015301452   0.01426718          933 
 3986000   0.61875879   -7.7778523    730.96201  0.015281862  0.014262021          910 
 3987000    0.6173747   -7.7573705    729.17144  0.015240604  0.014256873          861 
 3988000   0.60706186   -7.7684015    730.87621  0.015272405  0.014251729          793 
 3989000   0.59942633   -7.7644511    730.74008  0.015265733  0.014246584          843 
 3990000   0.61284491   -7.7904484     730.1865  0.015250345  0.014241439          757 
 3991000   0.61306112   -7.7692093    730.42197   0.01525144  0.014236294          831 
 3992000   0.60137472   -7.7641817    729.61391  0.015230751  0.014231157          933 
 3993000   0.59677047   -7.7820682    728.85303  0.015211057  0.014226021          831 
 3994000   0.60853506   -7.7941155    729.84225  0.015227889  0.014220878          840 
 3995000   0.60512519   -7.8020947    731.52271   0.01525913  0.014215743          876 
 3996000   0.60826889   -7.7907215    729.81692  0.015219739  0.014210602          868 
 3997000   0.61946716    -7.773354    731.16996  0.015244141  0.014205472          877 
 3998000    0.6090441   -7.7730472    730.22972   0.01522073  0.014200343          814 
 3999000    0.5990895   -7.7791591    729.92745  0.015210624  0.014195214          851 
 4000000   0.62752706    -7.758891    730.24244  0.015213384  0.014190092          798 
 4001000    0.6193121   -7.7895964    730.41829  0.015213244  0.014184975          820 
 4002000   0.61716887   -7.7927059    730.88568  0.015219175  0.014179853          929 
 4003000   0.63018189   -7.7870027    729.46481  0.015185794  0.014174725          708 
 4004000   0.60719695   -7.7970998    730.14368  0.015196131  0.014169609          912 
 4005000   0.62126042   -7.7783351    729.77008  0.015184563  0.014164494          821 
 4006000   0.62155632   -7.7879513    730.89209  0.015204112   0.01415938          804 
 4007000    0.6129048   -7.7816792    730.17536  0.015185412  0.014154268          808 
 4008000   0.60890294   -7.7912361    729.80403  0.015173903  0.014149163          829 
 4009000   0.62195768   -7.7975828    729.03156  0.015154061  0.014144061          903 
 4010000   0.61889076   -7.7547687    730.40035  0.015178727  0.014138958          825 
 4011000   0.61757838    -7.785264    729.41587  0.015154489  0.014133856          797 
 4012000    0.6045782   -7.7963448    730.02272  0.015163317  0.014128745          805 
 4013000   0.60911149   -7.7857896    729.17767   0.01514199  0.014123637          830 
 4014000   0.61523302   -7.7855518    729.90181  0.015153251  0.014118541          865 
 4015000    0.6145309   -7.7851177    729.74239  0.015146168  0.014113443          812 
 4016000   0.61446274   -7.7848681    729.31801  0.015133591  0.014108345          919 
 4017000   0.60591722   -7.7668904    731.38571  0.015172718  0.014103248          897 
 4018000   0.61173619   -7.7805614    730.64878  0.015153658  0.014098146          883 
 4019000   0.60175495   -7.7998525    729.34703  0.015122896  0.014093045          919 
 4020000   0.60803108   -7.7569935    730.33369  0.015139587  0.014087944          881 
 4021000   0.60176677   -7.7908363    730.95805  0.015148762  0.014082862          881 
 4022000   0.59495892   -7.7903705    730.01553  0.015125467   0.01407777          879 
 4023000   0.61792644   -7.7958414    728.26995  0.015085549  0.014072687          905 
 4024000   0.61698991   -7.7899484    730.48109  0.015127591  0.014067604          965 
 4025000   0.62336189   -7.7867361    729.42235  0.015101912  0.014062519          823 
 4026000   0.59296416   -7.7896923    729.37056  0.015097089  0.014057441          788 
 4027000   0.60603873   -7.7898023    729.03633  0.015086423  0.014052363          853 
 4028000   0.61587757   -7.7876557    728.56003  0.015072824  0.014047281          903 
 4029000   0.59062583   -7.7831078    730.26065  0.015104258  0.014042203          886 
 4030000   0.61557043   -7.8065144     728.5733  0.015065618  0.014037125          953 
 4031000   0.60237487   -7.8070421    730.63767  0.015104558  0.014032053          859 
 4032000   0.59863616   -7.7888497    728.77409  0.015062295  0.014026979          907 
 4033000   0.59400013    -7.795969    729.23366  0.015068056  0.014021907          888 
 4034000   0.59457483   -7.7942791     728.9979  0.015059451  0.014016832          900 
 4035000   0.60442502   -7.8026421    728.16969  0.015038614  0.014011758          937 
 4036000   0.61087245    -7.791374     729.5715  0.015063832  0.014006701          858 
 4037000   0.60547888   -7.7939727    729.41263  0.015056821   0.01400164          948 
 4038000   0.59037887   -7.7904729    729.14619  0.015047594   0.01399659          831 
 4039000    0.5960309   -7.8016596    728.78718  0.015036461  0.013991535          814 
 4040000   0.60420709   -7.7759751    730.64069  0.015070971  0.013986478          766 
 4041000   0.60764694   -7.8176969    730.03918  0.015054838  0.013981434          971 
 4042000   0.62271128   -7.7975151    729.85031  0.015047219  0.013976388          705 
 4043000   0.60781885   -7.7829533    731.09936  0.015069242  0.013971344          948 
 4044000    0.6149672   -7.7952678     729.2494  0.015027394  0.013966303          898 
 4045000   0.60188688   -7.7784762    729.36592   0.01502608  0.013961258          865 
 4046000   0.59395248   -7.7859919    729.73443  0.015029956  0.013956221         1007 
 4047000   0.60630418   -7.7884695    729.05563  0.015012265   0.01395118          860 
 4048000   0.60246589   -7.7743896    730.36069  0.015035423  0.013946149          742 
 4049000   0.60454863   -7.8027631    728.36968  0.014990732  0.013941116          962 
 4050000   0.59726767   -7.8082043    730.23549  0.015025422  0.013936083          781 
 4051000   0.60910792   -7.8048539    729.61123  0.015008871  0.013931049          855 
 4052000   0.60618237   -7.8139051    729.11599  0.014994982  0.013926019          840 
 4053000   0.59673766   -7.8099752    728.16065  0.014971639  0.013920999          843 
 4054000   0.58696424   -7.7915152    729.09008  0.014987051  0.013915976          764 
 4055000   0.59622686    -7.786626    729.22483  0.014986125  0.013910947          828 
 4056000   0.59983336    -7.799193    729.36416  0.014985293  0.013905928          845 
 4057000   0.60938452   -7.8130952    728.21128  0.014957918   0.01390091          810 
 4058000    0.6192633   -7.8166847    727.68435  0.014943411  0.013895881          921 
 4059000   0.61721226   -7.8256215    728.27181   0.01495179  0.013890859          848 
 4060000   0.59049484   -7.8183034    728.94653  0.014961957  0.013885841          868 
 4061000   0.58849679   -7.8101704    728.89663  0.014957248  0.013880825          935 
 4062000   0.59414585   -7.8026974    729.07026  0.014957128  0.013875803          861 
 4063000    0.6018327   -7.8188046    728.24671  0.014936556  0.013870782          967 
 4064000   0.61322681   -7.8072279    728.19999  0.014931922  0.013865763          947 
 4065000   0.60922537     -7.82395    728.51428  0.014934692  0.013860746          919 
 4066000   0.60041377   -7.7883332     729.0077  0.014941132  0.013855735          850 
 4067000   0.60689145   -7.8029448      727.974  0.014916277  0.013850727          987 
 4068000   0.60229892   -7.7992209    729.38564  0.014941528  0.013845718          766 
 4069000   0.59349855   -7.7885758    729.28741  0.014935844  0.013840713          817 
 4070000   0.60743366   -7.7977489    728.38754   0.01491375  0.013835709          871 
 4071000   0.58905294   -7.8095378     728.9027  0.014920632  0.013830709          880 
 4072000   0.60589073   -7.7958245    729.85018  0.014936358   0.01382571          933 
 4073000   0.59675386    -7.823109    729.81582  0.014931987  0.013820716          901 
 4074000   0.60744088   -7.8113036     728.6692  0.014904868  0.013815713          937 
 4075000   0.61038432    -7.819455    728.08326  0.014889228  0.013810728          872 
 4076000   0.61059761   -7.8190884    727.88431  0.014881508  0.013805746          842 
 4077000   0.60438978   -7.7994172    730.33458  0.014927941  0.013800769          954 
 4078000   0.60804667   -7.8238165    729.35725  0.014904309  0.013795794          869 
 4079000   0.59868993   -7.8066219     729.5473  0.014904537  0.013790817          867 
 4080000   0.60409773   -7.7995574    729.31449  0.014896129  0.013785841          788 
 4081000   0.59629372   -7.8272649    729.08291   0.01488775  0.013780867          877 
 4082000   0.60729428   -7.8146724    727.37759  0.014849289  0.013775888          844 
 4083000   0.60439178   -7.8082363    729.58751  0.014890757  0.013770916          800 
 4084000   0.59366737   -7.8023846    728.79171  0.014870872  0.013765954          837 
 4085000   0.58332633   -7.7887198    728.65949  0.014864535  0.013760988          878 
 4086000   0.59589063   -7.8096477    729.17008   0.01487131  0.013756015          925 
 4087000   0.59621604   -7.7996482    730.07063  0.014886034   0.01375106          909 
 4088000   0.60610482   -7.8210766    728.56464  0.014851693  0.013746101          899 
 4089000    0.6012193   -7.8170851    730.49739   0.01488745   0.01374114          834 
 4090000   0.59430165   -7.8229204    728.74029  0.014848009  0.013736176          891 
 4091000   0.59794066    -7.819426    730.58308  0.014881917  0.013731221          845 
 4092000   0.60554397    -7.807871    728.31371  0.014832065  0.013726267          868 
 4093000   0.60611687   -7.8331475    729.90846   0.01486091  0.013721322          924 
 4094000    0.5899915     -7.80339    728.92413  0.014837244  0.013716369          884 
 4095000    0.5958592   -7.8167923    728.11552  0.014817166  0.013711418          944 
 4096000   0.59683368   -7.8204571    727.91396  0.014809447  0.013706466          835 
 4097000   0.60567138   -7.8128265      728.536  0.014818485  0.013701516          869 
 4098000   0.60266272   -7.8048817     729.0832  0.014825996  0.013696573          939 
 4099000   0.59321123    -7.809711    727.95263  0.014799395  0.013691627          936 
 4100000   0.59728711   -7.7982255    726.94048  0.014775213  0.013686684          821 
 4101000   0.60183525   -7.8266718    728.05846  0.014794328  0.013681747          932 
 4102000   0.59431956   -7.8189824    728.03388  0.014790222  0.013676804          921 
 4103000   0.60757287   -7.8342901    727.99414   0.01478581  0.013671873          998 
 4104000   0.59969703   -7.8374696     729.0662  0.014803976  0.013666939         1007 
 4105000   0.60704775   -7.8279977    730.06039  0.014820552  0.013662014          851 
 4106000   0.59538532   -7.8046282    728.55971  0.014786485  0.013657088          833 
 4107000   0.59553885   -7.8043099    728.67525  0.014785229  0.013652161          934 
 4108000   0.59504789   -7.8234239    728.04094  0.014768763  0.013647228          867 
 4109000   0.60041975   -7.8314675    728.03942  0.014765138  0.013642302          818 
 4110000   0.57622243    -7.819761    728.33727  0.014767585  0.013637375          937 
 4111000   0.59268645   -7.8366067    726.65446   0.01472988  0.013632448          969 
 4112000   0.59503615   -7.8283495    728.30451  0.014759738  0.013627518          924 
 4113000   0.58440836   -7.8282154    728.95152  0.014769258    0.0136226          936 
 4114000    0.5860979   -7.8250996    728.83737  0.014763356  0.013617681          805 
 4115000   0.58415345   -7.8135635    729.19332  0.014766977  0.013612764          934 
 4116000   0.59042246   -7.8203365    728.61068  0.014751593  0.013607849          882 
 4117000   0.59357919   -7.8208595     727.9581  0.014734801  0.013602935          871 
 4118000   0.59494388   -7.8293024    727.08477   0.01471355  0.013598027          865 
 4119000   0.60057113   -7.8277565    729.65588  0.014761995  0.013593121         1028 
 4120000   0.59277608   -7.8144229    728.86671   0.01474245  0.013588222          924 
 4121000   0.60111699   -7.8480793    727.54696  0.014712185  0.013583316          984 
 4122000   0.58803053   -7.8112476    728.33566   0.01472456  0.013578413         1012 
 4123000   0.59226241   -7.8099332    729.79562  0.014750498  0.013573524          878 
 4124000   0.58686328   -7.8599848    728.42011  0.014719126   0.01356863          780 
 4125000    0.5964859   -7.8122969    728.10365  0.014709165   0.01356374          825 
 4126000   0.59159823   -7.8385886    728.13489  0.014706231  0.013558861          939 
 4127000   0.58733936   -7.8324428    727.84696  0.014696853  0.013553968          916 
 4128000   0.58190235   -7.8289701    730.19645  0.014740723   0.01354908          915 
 4129000   0.58941357    -7.829573    727.34853  0.014679675  0.013544201          922 
 4130000   0.60611625   -7.8232432    727.46753  0.014678522  0.013539322          757 
 4131000    0.5802933   -7.8319965    728.53891  0.014696581  0.013534444          920 
 4132000   0.58210018   -7.8258726     728.2867  0.014687938  0.013529575          850 
 4133000   0.59107819   -7.8157394    726.14767  0.014641255  0.013524698          941 
 4134000    0.6021844   -7.8393818    727.26863  0.014660309  0.013519821          987 
 4135000   0.59816762   -7.8267484      729.281   0.01469732  0.013514952          850 
 4136000   0.59668268   -7.8203756    728.56976  0.014679436  0.013510087          851 
 4137000    0.5826732   -7.8343757    728.26317  0.014669712   0.01350522         1059 
 4138000   0.58900063    -7.819262    727.03394  0.014641412  0.013500358          872 
 4139000   0.59967994   -7.8313658    729.21413   0.01468177   0.01349549          932 
 4140000   0.57022717   -7.8547806    726.38226  0.014621221  0.013490628          800 
 4141000   0.58310294   -7.8216934    728.89304  0.014668217  0.013485759          927 
 4142000   0.59567892   -7.8382084    728.18491  0.014650429  0.013480901          906 
 4143000   0.58152317   -7.8545741    726.58271  0.014614665  0.013476036         1013 
 4144000   0.58480676   -7.8336498    726.30856  0.014605626  0.013471176          990 
 4145000   0.58111333   -7.8306423    726.83428  0.014612672  0.013466319          978 
 4146000   0.60315971    -7.834417     727.3187  0.014618884  0.013461466          988 
 4147000   0.57159289   -7.8172069    728.75275  0.014644176  0.013456617          982 
 4148000   0.59300965   -7.8276013     728.5137  0.014635843  0.013451765          934 
 4149000   0.58311615   -7.8370024    728.47953  0.014631629  0.013446923          908 
 4150000   0.58997395   -7.8029101      727.586  0.014610161  0.013442081          902 
 4151000   0.57902375   -7.8502034    727.94857   0.01461392  0.013437232          994 
 4152000   0.58125419    -7.827797    728.00713  0.014611575  0.013432393          995 
 4153000   0.58472764   -7.8244509    727.49913  0.014597864  0.013427552          905 
 4154000   0.58937808   -7.8448187    728.24028  0.014609218  0.013422719          940 
 4155000   0.59080564   -7.8484375    728.41232  0.014609152  0.013417887          855 
 4156000   0.59794024   -7.8376925     726.1528   0.01456033  0.013413044          828 
 4157000   0.57142738   -7.8213135    728.61388  0.014606164  0.013408207          901 
 4158000   0.58674157   -7.8153994    728.96786  0.014609745  0.013403383          965 
 4159000   0.58118448   -7.8689113    727.24586  0.014571729  0.013398558         1003 
 4160000   0.58047765   -7.8259721    728.24576  0.014588256  0.013393729          953 
 4161000   0.57810423   -7.8408087    726.94318  0.014558663    0.0133889          930 
 4162000   0.58130493   -7.8347819    728.19015  0.014580133  0.013384075          981 
 4163000   0.58069814   -7.8333562    726.96469    0.0145521  0.013379254         1063 
 4164000   0.57175288   -7.8298379    726.83388  0.014545987   0.01337444          784 
 4165000   0.58305976   -7.8238333    728.09403  0.014567708  0.013369627          934 
 4166000    0.5918027   -7.8313869    727.93829  0.014561095  0.013364819          942 
 4167000   0.59648929   -7.8347831    728.68938  0.014572622   0.01336001          933 
 4168000   0.58013441   -7.8458346    728.10243   0.01455739  0.013355209          974 
 4169000   0.58097948   -7.8398204    727.82126  0.014548278  0.013350408          902 
 4170000   0.59636564   -7.8410725    728.49609  0.014558275  0.013345608          877 
 4171000   0.57643842   -7.8338768    728.80009  0.014560859  0.013340815          850 
 4172000    0.5914718   -7.8558889    727.74179   0.01453623   0.01333602          941 
 4173000    0.5819006   -7.8299901    728.55626  0.014549011  0.013331227          868 
 4174000   0.57649927   -7.8459216    728.20423  0.014538497  0.013326436          926 
 4175000   0.58439952   -7.8556979    727.61336  0.014523221  0.013321643          953 
 4176000   0.59104589   -7.8332039    726.63914  0.014500302  0.013316849          944 
 4177000   0.57258023   -7.8428593    728.40356  0.014532032  0.013312056          881 
 4178000   0.58865072   -7.8485332    727.12706  0.014503093  0.013307269          952 
 4179000   0.56695019   -7.8541228     727.9974  0.014516978  0.013302482          972 
 4180000   0.58806752   -7.8458299    727.73122  0.014508198  0.013297703          928 
 4181000   0.58118111    -7.833658    728.34612  0.014516984  0.013292926          912 
 4182000   0.58090673   -7.8340331    728.43618  0.014515307  0.013288144          960 
 4183000   0.59143288    -7.837548    727.13313  0.014485878  0.013283376         1005 
 4184000   0.57537563   -7.8654139    726.74038  0.014474593  0.013278594          918 
 4185000   0.57263874   -7.8722273    726.91978  0.014474707  0.013273815          971 
 4186000   0.58139398   -7.8260657    726.33617  0.014459631  0.013269044          924 
 4187000   0.58664759   -7.8370687    727.55953  0.014480526  0.013264276          941 
 4188000   0.57271282   -7.8559777    728.71983  0.014500156  0.013259507          966 
 4189000   0.57727076   -7.8553731     727.1286  0.014465039  0.013254738          973 
 4190000   0.59175905   -7.8606052    727.47156  0.014468408  0.013249975          882 
 4191000   0.58649446   -7.8548279    727.22664  0.014460086  0.013245215          988 
 4192000    0.5818319   -7.8572906    727.27311   0.01445756  0.013240454          968 
 4193000   0.58295317   -7.8513014    727.12224  0.014451114  0.013235703          908 
 4194000   0.58689046   -7.8665675    728.08834  0.014466864  0.013230948          945 
 4195000   0.59044371   -7.8599446    729.19318  0.014485363  0.013226198          916 
 4196000   0.58250035   -7.8421661     726.6009  0.014430428  0.013221445          917 
 4197000   0.57996557   -7.8378085    726.77717  0.014430489  0.013216698          967 
 4198000   0.58394879   -7.8375883    728.02428  0.014451808  0.013211955          973 
 4199000    0.5883684   -7.8531923    728.40993   0.01445602   0.01320721          965 
 4200000   0.58790204   -7.8679705    728.29352  0.014450268  0.013202465          989 
 4201000   0.57423503   -7.8672937    727.17562  0.014424653   0.01319772         1041 
 4202000   0.56908591   -7.8605402    725.70509  0.014392057  0.013192977         1046 
 4203000   0.57595165   -7.8542284    727.57179  0.014425644  0.013188235          977 
 4204000   0.59051766   -7.8390252    726.90075  0.014408911  0.013183495         1001 
 4205000   0.56874746   -7.8549537    726.86571   0.01440479  0.013178759          961 
 4206000   0.57217892   -7.8690575    726.72056  0.014398489  0.013174023          981 
 4207000   0.56396664   -7.8578431    727.49423  0.014410392  0.013169289          973 
 4208000   0.56320624   -7.8400328    726.81933  0.014393602  0.013164556          955 
 4209000   0.58779689   -7.8481081    728.23944  0.014418299  0.013159821          887 
 4210000   0.56181102   -7.8493532    727.02145  0.014390765  0.013155093          908 
 4211000   0.58483569   -7.8497679    726.36232  0.014374304  0.013150367          935 
 4212000   0.57754609   -7.8526428    727.09263   0.01438534  0.013145645          950 
 4213000   0.56646404   -7.8602648    726.01281  0.014360567  0.013140918          932 
 4214000   0.58789238    -7.874982    726.68842  0.014370519  0.013136195          938 
 4215000   0.58388147   -7.8494071      727.445  0.014382068  0.013131478          959 
 4216000   0.57842249   -7.8555392    727.57257  0.014381178  0.013126762          910 
 4217000     0.580837   -7.8864129    726.01693  0.014347026  0.013122046          971 
 4218000   0.57526331   -7.8579756    726.13581  0.014345974  0.013117328          910 
 4219000   0.56957747   -7.8702769    727.05263  0.014360682  0.013112609          972 
 4220000   0.55762059   -7.8579054     727.1543  0.014359287  0.013107895          896 
 4221000   0.57186751    -7.877545    726.00256  0.014333147  0.013103186          876 
 4222000   0.57503181   -7.8618728    727.27704  0.014354908  0.013098476          888 
 4223000    0.5772599   -7.8609603    726.52987  0.014336764  0.013093772          989 
 4224000   0.57573159   -7.8741281    728.23068  0.014366925  0.013089069         1021 
 4225000    0.5675105   -7.8680057    726.43245  0.014328056  0.013084368         1071 
 4226000    0.5753222   -7.8711289    727.54022   0.01434651  0.013079667         1019 
 4227000   0.57629284   -7.8704776    727.44314  0.014341202  0.013074966         1012 
 4228000   0.58509208   -7.8725536    727.31028  0.014335192  0.013070268         1041 
 4229000   0.58451306   -7.8683293    726.75812  0.014320921  0.013065579          943 
 4230000   0.58082218   -7.8638536    726.73878  0.014317155  0.013060886          906 
 4231000   0.57564523   -7.8597275    727.93894  0.014337409  0.013056195          941 
 4232000   0.57724707    -7.865206    727.29902  0.014321421  0.013051508         1010 
 4233000   0.56758963   -7.8569908    727.92586  0.014330378  0.013046817          989 
 4234000   0.56892921   -7.8730306    728.27516  0.014333868   0.01304213          995 
 4235000   0.58958361   -7.8560298    728.32229  0.014331411  0.013037446          960 
 4236000   0.56989087   -7.8785339    726.09765  0.014284263  0.013032758         1069 
 4237000   0.56944085   -7.8778844    727.72358   0.01431287  0.013028085          959 
 4238000   0.58048484   -7.8711764    727.18963  0.014298994  0.013023406          930 
 4239000   0.56959443   -7.8742701     726.5403  0.014282856  0.013018733          917 
 4240000   0.57823694   -7.8683397    727.33788  0.014295163  0.013014057          957 
 4241000   0.57291942   -7.8611892    725.48731  0.014255429  0.013009388          986 
 4242000   0.56650674   -7.8689983    725.00994  0.014242691  0.013004718          875 
 4243000   0.57700689    -7.862079    726.21946  0.014263089  0.013000049          965 
 4244000   0.55889675   -7.8648131    726.17914  0.014258937  0.012995388          957 
 4245000    0.5633775   -7.8443099    726.63326  0.014264493  0.012990726          973 
 4246000   0.58283176   -7.8623465    725.78166  0.014244419  0.012986063          983 
 4247000   0.57926109   -7.8641346    727.15406  0.014267994  0.012981402          974 
 4248000   0.57830377   -7.8686191    725.97069  0.014241421  0.012976744          959 
 4249000   0.57971399   -7.8653409    726.24354  0.014243421  0.012972085         1065 
 4250000   0.56938315   -7.8856535    726.99256  0.014254756  0.012967427          948 
 4251000   0.56208768   -7.8742228    725.14181  0.014215122  0.012962769         1051 
 4252000   0.57296969   -7.8593282    726.09714  0.014230502  0.012958122         1009 
 4253000   0.56572986   -7.8731439    726.33582  0.014231833  0.012953473          983 
 4254000   0.56251767   -7.8719682    726.25759  0.014226955  0.012948824          925 
 4255000   0.57630992    -7.891745    727.49112   0.01424777  0.012944179         1008 
 4256000   0.58466388   -7.8727978    726.37239  0.014222517  0.012939532          948 
 4257000   0.57027891   -7.8755096    726.82497  0.014228036  0.012934892          973 
 4258000    0.5574421   -7.8777046    725.88693  0.014206336  0.012930248         1031 
 4259000   0.55918969   -7.8740781      726.967  0.014224133  0.012925612          927 
 4260000   0.56838294    -7.867411    725.77832  0.014197542   0.01292097          859 
 4261000   0.56075122    -7.850292    726.95903  0.014217301  0.012916342          897 
 4262000   0.58073312   -7.8774731    726.97668   0.01421431   0.01291171          942 
 4263000   0.57350014   -7.8860039    727.84473  0.014227945  0.012907085          823 
 4264000   0.56903437   -7.8676086    726.48938   0.01419812  0.012902463         1024 
 4265000    0.5687621   -7.8792817     726.6636  0.014198195  0.012897844          960 
 4266000    0.5728021    -7.872651    725.84218   0.01417882  0.012893224          966 
 4267000   0.56708886   -7.8670217    727.51372  0.014208142  0.012888604          923 
 4268000   0.57933783   -7.8828262    725.12942   0.01415826  0.012883984          988 
 4269000   0.54856367   -7.8698101    726.20772  0.014175992  0.012879366         1017 
 4270000   0.55956651    -7.863354    726.47994  0.014177985  0.012874745          992 
 4271000   0.56679025   -7.8640028    725.80421  0.014161481  0.012870131         1030 
 4272000    0.5733244   -7.8772621    725.72345   0.01415659  0.012865517         1050 
 4273000   0.57373582   -7.8959584    725.91833  0.014157078  0.012860899         1013 
 4274000   0.58203927   -7.8797571    725.79266  0.014151315  0.012856288         1007 
 4275000   0.56822202   -7.8737098    724.74846   0.01412765  0.012851675         1026 
 4276000    0.5586047   -7.8783688    726.73576  0.014163076  0.012847073          956 
 4277000   0.58445715   -7.8856878    726.00257  0.014145479  0.012842473          947 
 4278000   0.57426822     -7.87379    725.19116  0.014126367  0.012837869          940 
 4279000   0.57218779   -7.8687748    726.30905  0.014144836  0.012833273          947 
 4280000   0.55782979    -7.888188    724.58667  0.014107996  0.012828672         1032 
 4281000   0.56497158   -7.8798116    725.46899  0.014121875  0.012824073          902 
 4282000    0.5625549   -7.8695357    725.75834  0.014124209  0.012819476          962 
 4283000   0.57883012   -7.8859089     726.3936  0.014133271  0.012814877          971 
 4284000   0.57552834   -7.8768114    725.80394  0.014118502  0.012810281          967 
 4285000   0.56709821   -7.8847186    726.45631  0.014127894  0.012805688         1028 
 4286000   0.57454291    -7.880673    725.85897  0.014112983  0.012801099          995 
 4287000   0.57401547   -7.8811711     726.0927  0.014114235  0.012796512          967 
 4288000   0.56884335   -7.8848675    725.87861  0.014106783  0.012791924         1109 
 4289000   0.56553587   -7.8684692    725.22226  0.014090741  0.012787344         1082 
 4290000   0.56110311   -7.8897259    725.78411   0.01409837  0.012782763         1035 
 4291000   0.56891234    -7.889266    725.57568  0.014091037  0.012778181          965 
 4292000   0.55753054   -7.8887251    725.69617  0.014090093  0.012773602         1038 
 4293000   0.56736331   -7.9012881    726.68307  0.014105968  0.012769023          964 
 4294000   0.56835548   -7.8696744    725.81417  0.014085821  0.012764448         1017 
 4295000   0.57411291    -7.881305    726.02006  0.014086536  0.012759874          860 
 4296000   0.56168506   -7.8833512    726.78216   0.01409804  0.012755305          960 
 4297000   0.56043178   -7.8779921    725.73369  0.014074426  0.012750734         1000 
 4298000   0.56367139   -7.8913358    726.73343  0.014090535  0.012746172          987 
 4299000   0.56530026   -7.8763142    725.69536  0.014067135  0.012741599          972 
 4300000     0.569502   -7.8825583    726.97459  0.014088655  0.012737036         1000 
 4301000   0.55538111   -7.8865787    725.84451  0.014063484  0.012732476          969 
 4302000   0.55670053   -7.8809482    726.35064  0.014070019  0.012727922         1003 
 4303000   0.55964138   -7.8712325    725.05668   0.01404169  0.012723369         1106 
 4304000   0.56668108   -7.8769584    726.53974  0.014067142  0.012718816          980 
 4305000   0.55500431   -7.8474387    725.69391  0.014047501  0.012714264         1065 
 4306000   0.55589873   -7.9056056    726.10056  0.014052109  0.012709715         1059 
 4307000   0.56118425   -7.8858354    725.48265  0.014036891  0.012705163         1027 
 4308000   0.56232621   -7.8986473    726.44186  0.014052187  0.012700614         1047 
 4309000   0.57663438   -7.8920248    726.20644  0.014044373  0.012696064         1089 
 4310000   0.55417293   -7.8780858    725.09666  0.014019657  0.012691514         1037 
 4311000   0.57121931   -7.8828683    725.49795  0.014024162   0.01268697         1090 
 4312000   0.55675198   -7.8764183    726.07047  0.014031974  0.012682428          936 
 4313000   0.56228421   -7.8755815     724.7178  0.014002585  0.012677896          928 
 4314000    0.5573665   -7.8732283    724.96974  0.014004206  0.012673359          960 
 4315000    0.5654305   -7.8913958    725.59617  0.014013058  0.012668822         1124 
 4316000    0.5514692   -7.8984626    725.17734  0.014001725  0.012664291          992 
 4317000   0.55239529   -7.8894673    724.66341  0.013988561  0.012659765          952 
 4318000   0.55585293   -7.8747463    726.72788  0.014025164   0.01265523          939 
 4319000   0.55637372   -7.8879517    724.09076  0.013971034  0.012650705         1018 
 4320000   0.56921431   -7.9004782    725.55379  0.013996022  0.012646182          960 
 4321000   0.55428946   -7.8963204    724.90933  0.013980354  0.012641658         1044 
 4322000   0.57377924   -7.8829044    725.51325  0.013988764  0.012637134         1022 
 4323000    0.5667648   -7.8904025    724.71841  0.013970206  0.012632613          918 
 4324000   0.56515895   -7.8749971     725.2368  0.013976966  0.012628098          950 
 4325000   0.56812227   -7.8877627     724.4966  0.013959472   0.01262358         1059 
 4326000   0.55254676   -7.9034733    726.34104  0.013991775  0.012619067         1020 
 4327000   0.55721808   -7.8854652    726.57318  0.013993013  0.012614559          888 
 4328000   0.56173466   -7.9007134     726.2568  0.013983688  0.012610052         1021 
 4329000   0.56321372   -7.8844033    726.29687  0.013981229  0.012605543         1036 
 4330000   0.57583517   -7.9066844    725.01494  0.013953328  0.012601037          969 
 4331000   0.54998706   -7.8834092    726.25195  0.013973908  0.012596534          988 
 4332000   0.55009815   -7.9127316    724.90479  0.013944767  0.012592038         1019 
 4333000   0.55078305   -7.8671964    726.00551  0.013962718  0.012587536         1027 
 4334000   0.56264223   -7.8876047    727.15035   0.01398151  0.012583033          844 
 4335000   0.56267764   -7.8759415    725.78374  0.013952013  0.012578536         1098 
 4336000   0.55798927   -7.8957329    726.64301   0.01396531   0.01257404         1060 
 4337000   0.56772634   -7.8815345    725.95862   0.01394894   0.01256954         1006 
 4338000   0.55767276   -7.8962147    726.01162  0.013946742  0.012565048         1063 
 4339000   0.55804685   -7.8937109    725.33492  0.013930532  0.012560558         1023 
 4340000   0.56494182   -7.9172182     725.4923  0.013930344   0.01255607         1004 
 4341000   0.56139485     -7.89495    724.07733  0.013899972  0.012551586          917 
 4342000   0.56639021   -7.9142308    726.34209  0.013940237  0.012547103          957 
 4343000   0.56453637   -7.9022661    725.38761  0.013918712  0.012542625          979 
 4344000   0.55492783   -7.8881807    724.94828   0.01390708  0.012538146          961 
 4345000   0.55597089     -7.89571    725.63836  0.013917115  0.012533672          849 
 4346000   0.53899856   -7.9039805    724.83558  0.013898519  0.012529197         1029 
 4347000   0.55848996   -7.8792247     726.7322  0.013931681   0.01252473          916 
 4348000   0.55460615   -7.8836007    724.39938  0.013883766  0.012520263          897 
 4349000    0.5507663    -7.879693    725.67574  0.013905031  0.012515793          942 
 4350000   0.54924035   -7.9103387    724.93049  0.013887557  0.012511326          939 
 4351000   0.55910241   -7.9097686    724.89853  0.013883753  0.012506864         1013 
 4352000   0.54858626    -7.908458    725.25854  0.013887457  0.012502396          962 
 4353000   0.56281562   -7.8827516    725.77536   0.01389416  0.012497933         1022 
 4354000   0.56178211   -7.8882435    725.29546  0.013881784  0.012493471         1022 
 4355000   0.55239044   -7.9021038    725.48036  0.013882135   0.01248901         1057 
 4356000   0.55024596   -7.8837236    724.48932  0.013859989  0.012484554         1034 
 4357000   0.55013429   -7.9079409    725.26434  0.013871631  0.012480099          935 
 4358000   0.55691975   -7.9162445    723.66147  0.013837798  0.012475643         1114 
 4359000   0.56231313   -7.8974769    724.99429  0.013860103  0.012471189          986 
 4360000   0.56782959   -7.8871503    724.72945  0.013851862   0.01246674          964 
 4361000   0.56267017   -7.9060282    725.28932  0.013859385   0.01246229          913 
 4362000   0.56762087   -7.9025528    725.15958  0.013853729   0.01245784         1035 
 4363000   0.55199556   -7.9087488    724.97752  0.013847076  0.012453392         1126 
 4364000   0.54136573    -7.895318    725.59478   0.01385569  0.012448946          934 
 4365000   0.55640162   -7.9104247    724.22955  0.013826452  0.012444501         1072 
 4366000   0.55911122   -7.8936273    724.66796  0.013831653  0.012440067         1014 
 4367000   0.55431882   -7.9070375     724.9314  0.013833513  0.012435631          980 
 4368000   0.55866772   -7.9121468    726.93394   0.01386855  0.012431196          936 
 4369000   0.55232113   -7.8970536    726.00788  0.013847713  0.012426764         1072 
 4370000    0.5481122   -7.9087019      725.036  0.013826011  0.012422332          960 
 4371000   0.54027661   -7.9022157    725.04346   0.01382299  0.012417903          994 
 4372000   0.55328101    -7.915157    725.49809  0.013828494  0.012413476         1027 
 4373000   0.56101321   -7.9184816    725.71895   0.01382954  0.012409052         1073 
 4374000   0.54957212   -7.9047396      725.189  0.013816282  0.012404632         1058 
 4375000   0.53675156   -7.9069518    724.78712  0.013805469  0.012400211         1006 
 4376000   0.55917861   -7.9013186    724.96312  0.013805666  0.012395786         1013 
 4377000   0.55442415   -7.9136511    724.09834  0.013786047  0.012391365         1070 
 4378000   0.55087468   -7.9167872    724.44851  0.013789564  0.012386952         1022 
 4379000   0.54898183    -7.909738    726.31462  0.013821927  0.012382541         1073 
 4380000   0.54532599   -7.9072096    724.70161  0.013788082   0.01237813         1005 
 4381000   0.55549166   -7.8862299    724.17283  0.013774877  0.012373723         1066 
 4382000   0.55249671   -7.9028974    724.49608  0.013777881  0.012369316         1016 
 4383000   0.54825717   -7.9112625    724.06817  0.013766601  0.012364915         1045 
 4384000   0.55567158   -7.9072134    726.06012  0.013801325   0.01236051         1003 
 4385000   0.55948781   -7.9009651    724.20026  0.013762833   0.01235611         1036 
 4386000   0.54796035   -7.9105867    724.10046  0.013757799  0.012351712          952 
 4387000   0.53637273   -7.9124277    725.38317  0.013779028   0.01234732          996 
 4388000   0.54797321   -7.9089859    724.55565  0.013760173   0.01234293          998 
 4389000   0.53881706   -7.8930479    724.90879  0.013763743   0.01233854         1009 
 4390000    0.5460267    -7.887512    726.44464  0.013789762  0.012334151         1083 
 4391000   0.54625183   -7.8989237    724.82826  0.013755945  0.012329763         1029 
 4392000   0.55993459   -7.9210664    725.17379  0.013759369  0.012325382          985 
 4393000   0.56000597   -7.9101407    726.43224  0.013780109  0.012321003         1058 
 4394000   0.56045589   -7.9097574    725.49474  0.013759193   0.01231662         1110 
 4395000   0.55085001   -7.9219304    723.92025  0.013726209  0.012312238         1002 
 4396000   0.54128479    -7.918059    725.17833  0.013746935   0.01230786         1069 
 4397000    0.5478469   -7.9200301     724.4079  0.013729207  0.012303481         1005 
 4398000   0.55290594      -7.9124    723.78164  0.013714219  0.012299103         1034 
 4399000   0.53791653   -7.9132256    725.75153  0.013748419  0.012294734         1000 
 4400000   0.55470463   -7.9046236    725.09484  0.013732857   0.01229036         1011 
 4401000   0.55151724   -7.9250831    724.31355  0.013714943  0.012285989         1018 
 4402000   0.55216455   -7.9032489    726.00304   0.01374381  0.012281619          996 
 4403000   0.54565883   -7.9201537    724.20759  0.013706707  0.012277253         1076 
 4404000   0.54803483    -7.918558    724.93001  0.013717265  0.012272885         1012 
 4405000   0.53858156   -7.9121196    724.96056  0.013714729  0.012268528         1037 
 4406000   0.54780709   -7.8920927    724.62183  0.013705209  0.012264169         1002 
 4407000   0.54659041   -7.9163449    725.11333  0.013711393  0.012259814         1013 
 4408000   0.54580113   -7.9130739    726.23156  0.013729423  0.012255465          929 
 4409000   0.55099928   -7.9126983    724.49701  0.013693525  0.012251115          980 
 4410000   0.55948658   -7.8946235    725.64578  0.013712127  0.012246767          987 
 4411000   0.53955138   -7.9083191    723.40039  0.013666598  0.012242417         1010 
 4412000   0.55185329   -7.9329002    725.34333  0.013700199  0.012238069         1072 
 4413000   0.54729117    -7.919603    724.83456  0.013687487  0.012233722         1014 
 4414000   0.53700835   -7.9011911     724.6404   0.01368072   0.01222938         1022 
 4415000   0.53365777   -7.9066578    725.72102  0.013698018  0.012225037          996 
 4416000   0.54725133   -7.8997551    725.37139  0.013688319  0.012220699         1078 
 4417000   0.55020286     -7.89847    725.66754  0.013690807  0.012216363          990 
 4418000   0.55396502   -7.9375917    724.87009  0.013672667  0.012212029         1079 
 4419000    0.5432386    -7.910004    725.22231  0.013676215  0.012207697         1052 
 4420000   0.54006706   -7.9301119    724.12687  0.013652467  0.012203361          982 
 4421000   0.54633953   -7.9095891    724.66327   0.01365949  0.012199025         1038 
 4422000   0.55620355   -7.9171356    724.01554  0.013644195  0.012194696         1053 
 4423000   0.55297698   -7.9252588    725.68442  0.013672553  0.012190365          977 
 4424000   0.54681109   -7.9024783     724.8816   0.01365434   0.01218604          985 
 4425000   0.54892752    -7.917943    724.80337  0.013649781  0.012181719         1004 
 4426000   0.53912531   -7.9048824    724.13442  0.013634102  0.012177397         1032 
 4427000   0.53726677   -7.9149633     725.3772  0.013654416   0.01217307         1020 
 4428000   0.55003137   -7.9121188    725.04062  0.013644998  0.012168747         1056 
 4429000   0.54399076   -7.9202673    724.99157  0.013640994  0.012164431         1037 
 4430000   0.55002906   -7.9164415    723.85137  0.013616467  0.012160112          897 
 4431000   0.53748652   -7.8982876    724.43104  0.013624296    0.0121558         1094 
 4432000    0.5444108   -7.9030313    723.90086  0.013611253  0.012151484         1099 
 4433000   0.54458808   -7.9130466    725.12705  0.013631233  0.012147169          960 
 4434000   0.54148818   -7.9229023    723.79108   0.01360305  0.012142859         1009 
 4435000   0.54177036   -7.9133787    722.37406  0.013573357  0.012138553         1088 
 4436000   0.52642103   -7.9166707    724.27797  0.013606063  0.012134243         1048 
 4437000   0.53365653   -7.9380964    723.19311  0.013582622  0.012129935         1086 
 4438000   0.53665156   -7.9265319    724.17963  0.013598085  0.012125633         1014 
 4439000   0.54490408   -7.9238636    725.14593  0.013613162  0.012121333         1016 
 4440000   0.54359815   -7.9158026    723.39399  0.013577215  0.012117031          974 
 4441000   0.54011311   -7.9229148    725.01644  0.013604602  0.012112737          951 
 4442000   0.54853219   -7.9393447    724.23245  0.013586831  0.012108442          975 
 4443000    0.5467383   -7.9182697    724.82662  0.013594918  0.012104152          952 
 4444000   0.53868195   -7.9117071    723.77791  0.013572193  0.012099856          883 
 4445000   0.54855563   -7.9447116    723.51033  0.013564123  0.012095564          956 
 4446000   0.54684056   -7.9286106    723.90194  0.013568412  0.012091281         1051 
 4447000   0.53463279   -7.9256726    725.12683  0.013588315  0.012086996         1027 
 4448000   0.54885347   -7.9257001    723.73845  0.013559249  0.012082709          939 
 4449000   0.53547087   -7.9161716    723.91141  0.013559441  0.012078428          977 
 4450000   0.52906743   -7.9277749    724.32734  0.013564182  0.012074148          982 
 4451000   0.53812553   -7.9126382    724.86399  0.013571182  0.012069871         1028 
 4452000   0.54451763   -7.9317957    725.08286  0.013572231  0.012065593         1025 
 4453000   0.54388057   -7.9118085      724.377  0.013555974  0.012061315         1113 
 4454000   0.53970351   -7.9299533     723.7472  0.013541146  0.012057039         1088 
 4455000    0.5346956   -7.9235274    724.36262  0.013549619  0.012052767         1037 
 4456000   0.53456797   -7.9208086    723.96067  0.013539061  0.012048499         1092 
 4457000   0.52753269   -7.9100596    725.40083   0.01356295  0.012044233          990 
 4458000   0.54427904   -7.9298503    723.56321  0.013525557  0.012039968         1109 
 4459000    0.5325203   -7.9103538    724.71828  0.013544111  0.012035702         1005 
 4460000   0.53450319   -7.9269795    723.54925  0.013519231  0.012031439         1066 
 4461000   0.53774573   -7.9247122    722.99864  0.013505915  0.012027178         1058 
 4462000   0.54045854   -7.9268336    723.54311  0.013513057  0.012022922          992 
 4463000   0.53971092   -7.9316104    723.09737  0.013501706  0.012018667         1064 
 4464000   0.53340452   -7.9269554    723.73296  0.013510547  0.012014414         1105 
 4465000   0.54137748   -7.9069423    724.44093  0.013520734  0.012010158         1070 
 4466000   0.53506681   -7.9269698    724.25185  0.013514178  0.012005904         1071 
 4467000     0.528218   -7.9372429     723.2688  0.013492814  0.012001657         1131 
 4468000   0.53320521   -7.9321121    724.96078  0.013521352  0.011997407         1063 
 4469000   0.54150816   -7.9249395    724.64702  0.013512475  0.011993155         1040 
 4470000   0.54371072   -7.9369805    723.86382  0.013494851  0.011988909         1109 
 4471000    0.5344295   -7.9456761    721.31919  0.013444404  0.011984663         1052 
 4472000    0.5293268   -7.9464675     723.3898  0.013479983   0.01198042         1056 
 4473000   0.52583976   -7.9326179    722.56792  0.013461657   0.01197618          826 
 4474000   0.53010524   -7.9296535    725.15105  0.013506762  0.011971941          981 
 4475000    0.5452065   -7.9267485    724.20738  0.013486171  0.011967704         1017 
 4476000   0.53486021   -7.9410109    724.19884  0.013482999   0.01196347          919 
 4477000   0.53153356    -7.930835     723.1674  0.013460788  0.011959238         1021 
 4478000   0.54054084   -7.9445321    724.13817  0.013475848  0.011955009         1005 
 4479000   0.52341886   -7.9395674    725.12757  0.013491248  0.011950776          991 
 4480000   0.54238318   -7.9353524    723.86151  0.013464686  0.011946547         1017 
 4481000   0.53321359   -7.9048213    724.63495  0.013476065   0.01194232          959 
 4482000   0.54498456   -7.9342858    723.12676  0.013445016  0.011938098          997 
 4483000   0.54017973    -7.938627    724.58865  0.013469192  0.011933876          994 
 4484000   0.52880176   -7.9344717     723.2291  0.013440921  0.011929656         1065 
 4485000   0.52632665   -7.9461295    723.71383  0.013446931  0.011925433         1078 
 4486000   0.52782898   -7.9383249    723.42411  0.013438552  0.011921215         1065 
 4487000   0.52511076   -7.9367553    722.98531  0.013427407  0.011916996         1020 
 4488000   0.52944463   -7.9378087    724.02437  0.013443709  0.011912779         1051 
 4489000   0.52933945   -7.9350864    722.55094  0.013413361  0.011908569         1014 
 4490000   0.52846278   -7.9317324    723.96992   0.01343671  0.011904357         1066 
 4491000   0.52374285   -7.9585742    724.28947  0.013439647  0.011900149         1053 
 4492000   0.53662052   -7.9299783     724.0776  0.013432725  0.011895944         1011 
 4493000   0.53786768   -7.9157133    724.29769  0.013433817  0.011891743          991 
 4494000   0.53742401   -7.9062412    723.43841  0.013414894  0.011887542         1003 
 4495000   0.52303988   -7.9469653    723.77881   0.01341822  0.011883345         1083 
 4496000   0.54296567   -7.9478137    723.34449  0.013407186  0.011879148         1047 
 4497000   0.53759011   -7.9422892    723.48801  0.013406864  0.011874953          988 
 4498000   0.51885486   -7.9169703    724.21749  0.013417398  0.011870756         1089 
 4499000   0.53369441   -7.9429014    724.25178  0.013415051  0.011866563         1055 
 4500000   0.52854129   -7.9461352     724.0269  0.013407906  0.011862372         1094 
 4501000   0.53155158    -7.929897    722.56513  0.013377863  0.011858182         1027 
 4502000   0.53984374   -7.9579124    723.20373  0.013386712  0.011853995         1045 
 4503000   0.52639652   -7.9395956     723.0889  0.013381614  0.011849807         1113 
 4504000   0.54398744    -7.931231    723.10836  0.013379003  0.011845623         1082 
 4505000   0.53136004   -7.9437997    723.24214  0.013378508  0.011841442         1032 
 4506000   0.53612976   -7.9501231    723.69144  0.013383848  0.011837266         1057 
 4507000   0.52554089    -7.952358    723.48403  0.013377044  0.011833085         1032 
 4508000   0.52696783    -7.946956    723.62829  0.013376743  0.011828906         1039 
 4509000    0.5356408   -7.9353816    725.15866   0.01340206  0.011824736         1007 
 4510000   0.53536189   -7.9469856    723.55131  0.013369389  0.011820561         1084 
 4511000   0.51599715   -7.9450306     725.0483  0.013394079  0.011816389         1027 
 4512000   0.52653619   -7.9478413    723.61198  0.013364583  0.011812217         1083 
 4513000   0.53646061   -7.9433793    723.75376   0.01336424  0.011808051         1049 
 4514000   0.52948286   -7.9520046    722.31879  0.013334788  0.011803883         1068 
 4515000   0.53026908   -7.9411134    723.85654  0.013360217  0.011799717         1060 
 4516000    0.5257254   -7.9414689     722.7824  0.013337437  0.011795555         1103 
 4517000   0.53249108   -7.9227387    723.15979  0.013341447  0.011791396         1010 
 4518000   0.53636193   -7.9415038    723.10804  0.013337539  0.011787237         1037 
 4519000   0.52889607   -7.9450833    723.14387  0.013335249   0.01178308         1071 
 4520000    0.5333247   -7.9350858    723.63377  0.013341331  0.011778928         1039 
 4521000   0.52456617   -7.9598392    723.93615  0.013343953  0.011774775         1122 
 4522000   0.53137462    -7.931977    722.69687  0.013318164  0.011770622         1061 
 4523000   0.53971415   -7.9390739    723.91647   0.01333769  0.011766481         1047 
 4524000    0.5265325   -7.9318455    724.40406  0.013343723  0.011762338         1083 
 4525000   0.52175056   -7.9482644    724.08338  0.013334869  0.011758192         1101 
 4526000   0.51127994   -7.9402979    722.98014   0.01331161   0.01175405         1067 
 4527000   0.51951517   -7.9432837    724.43436  0.013335438  0.011749907         1099 
 4528000   0.52567369   -7.9458785    723.36082  0.013312736  0.011745767         1119 
 4529000   0.52793223   -7.9575511    723.04159  0.013303923  0.011741636         1123 
 4530000   0.52969025   -7.9396521    724.26024  0.013323404  0.011737501         1058 
 4531000   0.52977962   -7.9515681    723.10862  0.013299283  0.011733371         1096 
 4532000   0.52783894    -7.956905      725.757  0.013345046  0.011729243         1076 
 4533000   0.52671291   -7.9461743    723.49446  0.013300508  0.011725116         1028 
 4534000   0.52600121   -7.9393807    723.83055  0.013303752   0.01172099         1033 
 4535000   0.52860328   -7.9419298    724.20648  0.013307727  0.011716866         1162 
 4536000   0.52114073   -7.9495308    724.19098  0.013304508  0.011712746         1123 
 4537000   0.52044832   -7.9506192     722.6267  0.013272844  0.011708624         1072 
 4538000   0.51390562   -7.9411253    722.55097  0.013268528  0.011704504         1045 
 4539000   0.52572082   -7.9333956    723.48017  0.013282664  0.011700387         1077 
 4540000   0.52276444   -7.9516444    723.53937  0.013280826   0.01169627         1123 
 4541000   0.52479565   -7.9351269    724.67928   0.01329882  0.011692149         1115 
 4542000   0.52423483   -7.9601837    723.11087  0.013267116  0.011688037         1101 
 4543000   0.53920031   -7.9428796    724.61202  0.013291731  0.011683925         1069 
 4544000   0.51260639   -7.9549483    725.31325  0.013301666  0.011679818         1053 
 4545000   0.52778536   -7.9356123    723.01075  0.013256523  0.011675712         1084 
 4546000   0.51185627   -7.9334795    723.31363  0.013259159  0.011671609         1033 
 4547000   0.52859237   -7.9627631    723.46938  0.013259097  0.011667507         1125 
 4548000   0.52859284   -7.9518063     724.4847  0.013274786  0.011663405         1116 
 4549000   0.51769903   -7.9415188    722.82794  0.013241517  0.011659309         1103 
 4550000    0.5229212   -7.9451533    722.73504  0.013236905  0.011655213         1128 
 4551000   0.52960718   -7.9454879    723.19684  0.013242453  0.011651118         1112 
 4552000   0.52376238   -7.9578087    723.15162  0.013238716  0.011647023         1099 
 4553000   0.52232421   -7.9511491    723.56838  0.013243436  0.011642935         1115 
 4554000   0.51168338   -7.9630548    723.20328  0.013233847  0.011638843         1059 
 4555000   0.52903448   -7.9458243    722.13919  0.013211474  0.011634748         1034 
 4556000   0.52207575   -7.9448643    723.11022  0.013226336  0.011630656         1144 
 4557000   0.52009017   -7.9538729    722.48922  0.013212077  0.011626572         1098 
 4558000   0.52325331    -7.948797    722.84668  0.013215714  0.011622484         1125 
 4559000    0.5268792   -7.9556198    722.95689  0.013214829  0.011618397         1132 
 4560000   0.52213544   -7.9476381    722.90183  0.013210925  0.011614313         1089 
 4561000    0.5284161   -7.9643151    723.39354  0.013217013  0.011610232         1097 
 4562000   0.52015183   -7.9607406    723.26034  0.013211682  0.011606152         1099 
 4563000   0.53163885   -7.9535822    722.08026  0.013187235  0.011602073         1153 
 4564000   0.52328971   -7.9547546    725.29889  0.013243114  0.011597999         1084 
 4565000   0.51958549   -7.9652855    721.60607  0.013172802  0.011593926         1111 
 4566000   0.51514283    -7.946239    723.42001  0.013203023  0.011589854         1074 
 4567000   0.51901656   -7.9410138     721.6173  0.013167238  0.011585784         1000 
 4568000   0.51898351   -7.9666726    722.42705  0.013179127  0.011581712         1084 
 4569000   0.51942557   -7.9587826     722.0626  0.013169596  0.011577644         1186 
 4570000   0.52422633   -7.9582183    722.49031  0.013174513  0.011573581         1055 
 4571000   0.53888375     -7.94914    722.09558  0.013164435  0.011569521         1130 
 4572000   0.51837123   -7.9713329    724.21589  0.013200202  0.011565466         1138 
 4573000   0.52439806   -7.9580739    722.79437  0.013171411  0.011561408         1073 
 4574000   0.52219332   -7.9498159    723.72219  0.013185436  0.011557351         1064 
 4575000    0.5202533   -7.9361258    723.35918  0.013175941  0.011553302         1088 
 4576000   0.52770249   -7.9661838    722.98459   0.01316624  0.011549252         1064 
 4577000   0.51713562   -7.9684271    723.43236  0.013171516  0.011545202         1019 
 4578000   0.51351119   -7.9549124    723.86323  0.013176482   0.01154115         1030 
 4579000   0.51160726    -7.963424    722.20767  0.013143475  0.011537099         1072 
 4580000   0.52072629   -7.9531218    722.49944  0.013145914  0.011533054         1099 
 4581000   0.52736511   -7.9371058    723.26352  0.013156944  0.011529012         1064 
 4582000   0.51852124   -7.9660667    723.00487  0.013149368  0.011524966         1027 
 4583000    0.5162964   -7.9585154    723.51394  0.013155756  0.011520923         1146 
 4584000   0.52775922   -7.9549824    722.99528  0.013143457  0.011516883         1084 
 4585000   0.51679194   -7.9668659    724.27396  0.013163831  0.011512848          990 
 4586000   0.52272399   -7.9531779    723.28639  0.013143015  0.011508811         1060 
 4587000   0.52589744   -7.9714658    721.76457  0.013112502   0.01150478         1066 
 4588000    0.5184653   -7.9625192    723.50748  0.013141301  0.011500748         1006 
 4589000   0.51157466   -7.9386305     722.4754  0.013119696  0.011496714         1025 
 4590000   0.51459161   -7.9659022    722.16442  0.013111191  0.011492687         1082 
 4591000   0.49623015   -7.9701171    723.70592  0.013136316  0.011488662         1116 
 4592000   0.52765179   -7.9570669    723.51974  0.013130077  0.011484635         1040 
 4593000   0.51525839   -7.9657243    721.93601  0.013098483  0.011480619         1098 
 4594000   0.51937659   -7.9507961    723.69324  0.013127508  0.011476603         1110 
 4595000    0.5221179   -7.9573961    723.52419  0.013121585  0.011472583         1093 
 4596000   0.52391474   -7.9370451      724.344  0.013133594  0.011468564         1086 
 4597000    0.5134289   -7.9726162    723.21625  0.013110294  0.011464549         1136 
 4598000   0.50925556   -7.9623679    721.91341   0.01308383  0.011460536          991 
 4599000   0.50287945   -7.9663943    722.14609  0.013085201  0.011456522         1145 
 4600000    0.5054449   -7.9602588    724.18377  0.013119271  0.011452512         1105 
 4601000    0.5099033   -7.9534856    722.28372  0.013082006  0.011448501         1113 
 4602000   0.50549404   -7.9723474    722.49343  0.013082961  0.011444491         1098 
 4603000   0.52304736   -7.9586176    723.86713  0.013104988  0.011440482         1082 
 4604000   0.50608328   -7.9641336    723.63784  0.013097992  0.011436477         1092 
 4605000   0.53023134   -7.9548036    723.20199   0.01308726  0.011432475         1106 
 4606000   0.51855978   -7.9608574    722.29296  0.013067972  0.011428472         1057 
 4607000   0.51625336   -7.9620074    722.50376  0.013068949  0.011424475         1096 
 4608000   0.50787377   -7.9618133    722.17381  0.013060146  0.011420477         1146 
 4609000   0.52120248   -7.9550582    723.41651  0.013079781  0.011416486         1143 
 4610000   0.50944394   -7.9748563    722.33638  0.013057418  0.011412495         1103 
 4611000   0.51268163   -7.9484667    722.36001  0.013055014  0.011408507         1121 
 4612000   0.51886453   -7.9583275    721.71379  0.013040506  0.011404519         1069 
 4613000   0.50512111   -7.9637904    723.19326  0.013064406   0.01140053         1139 
 4614000   0.52258491   -7.9576845    723.44631  0.013066145  0.011396545         1132 
 4615000   0.51763663   -7.9501453    723.96689  0.013072714  0.011392563         1122 
 4616000   0.51794359   -7.9587841     721.6685  0.013028389  0.011388579         1163 
 4617000    0.5042943   -7.9501571    722.31381  0.013037214    0.0113846         1097 
 4618000    0.5138724   -7.9765215    721.56154  0.013020816  0.011380618         1180 
 4619000   0.51172582   -7.9818015    722.74494  0.013039347  0.011376639         1075 
 4620000   0.51366782   -7.9534674     723.0428  0.013041897  0.011372665         1161 
 4621000   0.52077108   -7.9651025    723.56625  0.013048515  0.011368691         1104 
 4622000   0.52523511   -7.9781838    723.58763  0.013046077  0.011364718         1100 
 4623000   0.51335043   -7.9730717    722.95153  0.013031789  0.011360742         1121 
 4624000   0.50562348   -7.9726328    722.46825  0.013020261  0.011356767         1125 
 4625000    0.5104038   -7.9805803    722.34244  0.013015179  0.011352797         1105 
 4626000   0.50907175   -7.9715544    721.62733  0.012999484  0.011348828         1190 
 4627000   0.52057321   -7.9865911    721.83436  0.013000403   0.01134486         1088 
 4628000   0.51545968   -7.9679303    722.28502  0.013005708  0.011340896         1178 
 4629000     0.498475   -7.9695122    722.48798  0.013006552  0.011336935         1085 
 4630000    0.5170382   -7.9589813    722.98847  0.013012752  0.011332977         1074 
 4631000   0.52513155   -7.9622477    721.97329  0.012991674  0.011329018         1087 
 4632000   0.50517669   -7.9708237    722.28455  0.012994469  0.011325062         1132 
 4633000   0.51123553   -7.9591975    721.94011  0.012985469  0.011321108         1143 
 4634000   0.49716716   -7.9729468      721.943  0.012982718  0.011317151         1070 
 4635000   0.51077729   -7.9728157    722.68399   0.01299324  0.011313196         1104 
 4636000   0.50051156   -7.9824351    722.90451  0.012994401  0.011309243         1105 
 4637000   0.51939531   -7.9663527    722.67859  0.012987538  0.011305291         1119 
 4638000   0.50471144   -7.9836905    722.86128  0.012988021  0.011301339         1125 
 4639000   0.50981185   -7.9852133    721.92496  0.012968401  0.011297391         1097 
 4640000   0.50318876   -7.9667683    722.49384  0.012975823  0.011293446         1096 
 4641000   0.50352435   -7.9664696     722.8556  0.012979523    0.0112895         1110 
 4642000   0.51683856   -7.9785102    722.31602   0.01296704  0.011285555         1106 
 4643000   0.51165512   -7.9824872    721.47964  0.012949236  0.011281616         1124 
 4644000   0.50888494   -7.9903596    722.83009  0.012970681  0.011277677         1113 
 4645000   0.51203607   -7.9748436    723.46893  0.012979349  0.011273736         1085 
 4646000   0.51277758   -7.9780453    722.82793  0.012965058  0.011269798         1086 
 4647000   0.50175324   -7.9773379    721.25118  0.012933993  0.011265863         1101 
 4648000   0.50364475   -7.9813886    721.24423  0.012931086  0.011261932         1104 
 4649000    0.5148371   -7.9808507    722.83965  0.012956902  0.011258002         1085 
 4650000   0.50542933     -7.99214     721.9763  0.012938643  0.011254075         1039 
 4651000   0.50426248   -7.9712141    722.12545  0.012938534  0.011250143         1094 
 4652000   0.50960806   -7.9874794    720.85003  0.012912905  0.011246221         1116 
 4653000   0.50711647   -7.9821279    721.85515  0.012928131  0.011242296         1115 
 4654000   0.50262014   -7.9907553    722.92206  0.012944457  0.011238381         1057 
 4655000   0.51174022    -7.982301    721.24699   0.01291169  0.011234461         1156 
 4656000   0.50619247   -7.9854128    722.54809  0.012932204  0.011230544         1130 
 4657000   0.51027454   -7.9921714    722.16825   0.01292263  0.011226629         1174 
 4658000   0.49590356   -7.9892066    722.01206  0.012917061  0.011222716         1037 
 4659000   0.49220781       -7.984    722.38736  0.012921002  0.011218804         1063 
 4660000   0.50325071   -7.9829374    721.77007   0.01290719  0.011214896         1121 
 4661000   0.49945381   -7.9782835     722.5113  0.012917673  0.011210988         1120 
 4662000   0.51029133   -7.9777173    722.07604  0.012907122  0.011207086         1083 
 4663000   0.50882482   -7.9891702    722.65691  0.012914735  0.011203178         1144 
 4664000   0.50448602    -7.977801    721.53946     0.012892  0.011199272         1063 
 4665000   0.50470584   -7.9651137     723.0384  0.012916013  0.011195372         1075 
 4666000   0.50701754   -7.9701011    723.70541  0.012925157  0.011191471         1130 
 4667000   0.50170396   -7.9675933    721.54639  0.012883837  0.011187574         1095 
 4668000   0.51335992   -7.9814868    723.52741  0.012916442  0.011183673         1146 
 4669000   0.51240462   -7.9874518    722.46678  0.012894745  0.011179778         1131 
 4670000    0.5069966   -7.9760634    722.86474  0.012899085  0.011175883         1064 
 4671000   0.49673623   -7.9667573     722.4861  0.012889569  0.011171986         1073 
 4672000   0.50861954   -7.9770838    721.41731  0.012867746  0.011168094         1090 
 4673000   0.51378641   -7.9802396    722.23086    0.0128795  0.011164203         1144 
 4674000   0.50925678   -7.9931038    721.82477  0.012869504  0.011160316         1125 
 4675000   0.50284846   -7.9996785    722.22921  0.012873961  0.011156426         1067 
 4676000   0.51164968   -7.9780662    721.23836  0.012853549  0.011152543         1105 
 4677000   0.50332974   -7.9887062    722.27149  0.012869209  0.011148658         1109 
 4678000   0.49365964   -7.9856061    721.65682  0.012855508  0.011144778         1172 
 4679000   0.50340915   -7.9871475    723.37617  0.012883383  0.011140901         1164 
 4680000   0.50136117   -7.9790072    721.85664  0.012853573  0.011137019         1131 
 4681000   0.51011075   -8.0051694    721.48992  0.012844298  0.011133139         1146 
 4682000   0.50474988   -7.9815002    721.52485  0.012842177  0.011129267         1220 
 4683000   0.50891735   -8.0066979    721.89043   0.01284594  0.011125393         1173 
 4684000   0.50649496   -8.0045893    721.49043  0.012836081  0.011121523         1151 
 4685000   0.49649857    -7.991624    720.23659  0.012811039  0.011117651         1135 
 4686000   0.49820588   -7.9988774    721.32143  0.012827597  0.011113786         1055 
 4687000   0.50202034   -7.9893958    721.83229  0.012833943   0.01110992         1171 
 4688000   0.48402549   -7.9995488    721.99399   0.01283408  0.011106053         1066 
 4689000   0.48876833   -7.9910274    720.64995  0.012807456  0.011102186         1079 
 4690000   0.49443405   -7.9778721    722.32768  0.012834536  0.011098325         1131 
 4691000   0.50275758   -7.9960427     720.9103  0.012806621  0.011094464         1167 
 4692000   0.49729684    -7.988572    721.83766  0.012820362  0.011090609         1099 
 4693000   0.50224287   -7.9781228    721.31983  0.012808435  0.011086757         1134 
 4694000   0.49802128   -7.9844514    723.28533    0.0128406  0.011082906         1125 
 4695000   0.48675325   -7.9955651    721.51601  0.012806461  0.011079056         1123 
 4696000   0.49117642   -7.9797638    722.00701  0.012812447  0.011075207         1154 
 4697000   0.49293466   -7.9922065    721.78368  0.012805757  0.011071358         1164 
 4698000   0.50342133   -7.9793517    720.38002  0.012778133  0.011067511         1199 
 4699000   0.48739269   -7.9705563    722.68563  0.012816302  0.011063665         1122 
 4700000   0.50527568   -7.9921747     720.6242  0.012777025   0.01105982         1171 
 4701000   0.50360623   -8.0022169    721.47898  0.012789459  0.011055976         1142 
 4702000   0.50526891   -7.9983636    720.73973  0.012773638  0.011052139         1092 
 4703000   0.50260058   -8.0032396    721.25448  0.012780043  0.011048303         1173 
 4704000   0.49693872   -8.0026307    721.43676  0.012780555  0.011044465         1176 
 4705000   0.49919667   -7.9873432    721.61832  0.012781054  0.011040628         1146 
 4706000   0.49402616   -7.9980595    720.99036  0.012767218  0.011036794         1132 
 4707000   0.50732586   -8.0180933    721.79054  0.012778673   0.01103296         1149 
 4708000   0.50358043   -7.9979617    721.74509  0.012775154  0.011029135         1091 
 4709000   0.49701723   -7.9818297    721.79781  0.012773374  0.011025305         1177 
 4710000   0.50148134   -7.9985877    721.74433  0.012769716  0.011021479         1127 
 4711000   0.49419428   -7.9931835    721.17865  0.012756999  0.011017655         1149 
 4712000   0.49194684   -7.9932803    721.73476  0.012764126  0.011013829         1151 
 4713000   0.49750716   -7.9778608    720.80123  0.012744912  0.011010007         1112 
 4714000   0.49360646   -7.9943589    721.62632  0.012756794  0.011006186         1116 
 4715000   0.50417448    -7.986812    721.36639  0.012749494  0.011002365         1086 
 4716000   0.50404741   -8.0156898    722.15191  0.012760671   0.01099855         1124 
 4717000   0.49775974   -7.9814439    720.98837   0.01273741  0.010994736         1142 
 4718000   0.49945266   -8.0020956    720.71017  0.012729797  0.010990921         1159 
 4719000   0.49816458   -7.9984972    721.03895  0.012732905  0.010987112         1149 
 4720000    0.4876648   -7.9882293    721.03183  0.012730082  0.010983301         1166 
 4721000   0.49381211   -8.0208694    721.24735   0.01273119  0.010979491         1145 
 4722000   0.48265691   -7.9945535    721.20864   0.01272781  0.010975682         1149 
 4723000   0.50469293   -7.9926387    721.84096  0.012736272  0.010971875         1165 
 4724000   0.50022824   -8.0013604    721.57974  0.012728968  0.010968071         1166 
 4725000   0.48929035   -8.0058802    720.53241  0.012707803  0.010964268         1098 
 4726000   0.50254257    -8.005369    721.01872  0.012713689  0.010960466         1123 
 4727000   0.50136767   -7.9893481    720.40968  0.012700262  0.010956669         1069 
 4728000   0.49541152   -8.0090187    723.00482  0.012743317  0.010952874         1106 
 4729000   0.50251553   -7.9992041    722.35333  0.012729142  0.010949084         1184 
 4730000   0.50525438   -7.9993408    721.32796  0.012708385  0.010945293         1124 
 4731000   0.48932377   -8.0068336    722.25629  0.012722051  0.010941503         1102 
 4732000   0.49161299   -7.9840014     722.3649  0.012721275  0.010937712         1125 
 4733000   0.50565356   -7.9922466    721.56273  0.012704464  0.010933926         1124 
 4734000   0.51598946   -8.0121226    721.20587  0.012695498  0.010930141         1178 
 4735000   0.49697058   -8.0010376    720.97446  0.012688744  0.010926354         1135 
 4736000   0.49308234    -7.985955    721.43058  0.012694091  0.010922567         1213 
 4737000   0.49870005   -7.9745841    722.31477  0.012706966  0.010918787         1130 
 4738000   0.49807463   -7.9941535    721.13183  0.012683478  0.010915006         1163 
 4739000    0.4895669   -7.9890969     721.5166  0.012687568  0.010911227         1113 
 4740000   0.48457235   -8.0024332     719.7525  0.012653877  0.010907445         1043 
 4741000   0.49846446    -8.017137    721.29463  0.012678314  0.010903668         1136 
 4742000   0.49680971   -8.0043529    721.50384  0.012679317  0.010899898         1082 
 4743000   0.51257548   -7.9934589    721.35149  0.012673967  0.010896125         1074 
 4744000   0.48027624   -8.0023447    721.19798  0.012668599  0.010892356         1110 
 4745000   0.48606939   -8.0001662    720.90237  0.012660737  0.010888585         1104 
 4746000   0.49285372   -8.0015192    721.32252  0.012665447  0.010884814         1118 
 4747000   0.50027653   -7.9930639    721.21181  0.012660835  0.010881048         1034 
 4748000   0.48943794   -7.9993098     721.5461  0.012664036  0.010877287         1054 
 4749000   0.49732806   -8.0183298    721.72854   0.01266457  0.010873524         1091 
 4750000   0.48627488   -7.9950007    722.19496  0.012670087  0.010869765         1082 
 4751000   0.48575755   -7.9946628    721.66199  0.012658072  0.010866006         1106 
 4752000    0.5061515     -8.01527    721.06458  0.012644932  0.010862247         1050 
 4753000   0.49294308   -7.9984296    721.05083   0.01264203   0.01085849         1114 
 4754000    0.5016973   -7.9752017    720.90348  0.012636788  0.010854737         1049 
 4755000   0.48465509    -8.014213    720.26685  0.012622973  0.010850988          977 
 4756000   0.49440866   -7.9824023    721.45068  0.012641062  0.010847237         1115 
 4757000   0.48033598   -7.9994843    720.64376  0.012624269   0.01084349         1063 
 4758000   0.48430027   -8.0067332    722.88406  0.012660853  0.010839743         1150 
 4759000   0.49458284   -8.0108209    720.35085  0.012613834  0.010835997         1125 
 4760000   0.48676717   -8.0036821    719.85335  0.012602475  0.010832251         1070 
 4761000    0.4986239   -7.9907985    720.91639  0.012618434  0.010828513         1146 
 4762000   0.49228858   -8.0136833    721.12767  0.012619482  0.010824772         1089 
 4763000   0.49123375   -7.9910967    722.74462  0.012645122  0.010821034         1177 
 4764000   0.49600245   -8.0033875    722.07048  0.012630676  0.010817299         1090 
 4765000   0.49383647   -8.0062881    720.75068  0.012604944  0.010813564         1131 
 4766000   0.50279433   -8.0096497    721.72674  0.012619365  0.010809833         1144 
 4767000   0.48987121   -8.0013555    720.84611  0.012601324  0.010806103         1174 
 4768000   0.49559831   -7.9976285    720.63834  0.012595049  0.010802371         1112 
 4769000   0.49086006   -7.9931092    721.65014  0.012610088  0.010798643         1103 
 4770000    0.4740841   -8.0063559    721.68092  0.012607983  0.010794918         1184 
 4771000   0.47957286      -8.0246    720.78767  0.012589738  0.010791191         1142 
 4772000   0.49123248   -8.0078711    721.13535  0.012593171   0.01078747         1169 
 4773000   0.48768336   -7.9983114    721.06529  0.012589309  0.010783752         1121 
 4774000   0.48125059   -8.0136932    721.29963  0.012590763  0.010780034         1105 
 4775000   0.47890148   -8.0072519    720.98037  0.012582554  0.010776318         1146 
 4776000   0.48983986   -7.9958623    720.39802  0.012569759  0.010772604         1075 
 4777000   0.47896721   -7.9996624    720.71404   0.01257264  0.010768888         1042 
 4778000   0.49400211   -7.9895991    720.55174  0.012567178  0.010765172         1116 
 4779000   0.48315161   -8.0037485    719.54888  0.012547061  0.010761461         1108 
 4780000    0.4773914   -8.0185235    721.04705  0.012570555  0.010757749         1151 
 4781000   0.48247415    -8.010066    720.95424  0.012566308  0.010754039         1098 
 4782000    0.4826905   -7.9957478    721.29084  0.012569546  0.010750334         1111 
 4783000   0.48999063   -8.0140809    720.60759  0.012555014  0.010746627         1188 
 4784000   0.48795455   -7.9963529    719.51582  0.012533372  0.010742923         1085 
 4785000   0.47774987   -8.0109547    719.62001  0.012532567  0.010739219         1091 
 4786000   0.47518421   -7.9896002    720.51039  0.012545452  0.010735519         1118 
 4787000   0.48961855   -8.0069365     720.2858  0.012538921  0.010731817         1194 
 4788000   0.47331441   -8.0186918    720.03879  0.012532003   0.01072812         1174 
 4789000   0.48331535   -8.0097964     720.2826  0.012533629  0.010724422         1116 
 4790000     0.498071   -8.0086717    720.18357   0.01252929  0.010720723         1022 
 4791000   0.48733749   -8.0061209    719.45656  0.012514029  0.010717029         1084 
 4792000   0.48939085   -8.0018758    720.68474  0.012532776  0.010713341         1127 
 4793000   0.48430392   -7.9976253    721.94848  0.012552133  0.010709652         1144 
 4794000   0.48843325    -8.010248    721.29362  0.012538131  0.010705962         1061 
 4795000   0.48174274   -8.0130453    720.17263  0.012516035   0.01070228         1057 
 4796000   0.49462031   -8.0086521    720.30398  0.012515707  0.010698596         1056 
 4797000   0.48131039   -8.0241596    720.46779  0.012515944  0.010694911         1163 
 4798000   0.48714888     -8.00706    720.42519  0.012512595  0.010691229         1126 
 4799000   0.47656997   -8.0202958    721.29337  0.012525064  0.010687546         1134 
 4800000   0.47605094   -8.0194458     720.9532  0.012516549  0.010683869         1005 
 4801000    0.4883205   -8.0190094    719.20644  0.012483622   0.01068019         1128 
 4802000   0.47848549   -8.0118753    720.19513   0.01249818  0.010676513         1170 
 4803000   0.48554035   -7.9962852    721.16492  0.012512404  0.010672842         1135 
 4804000   0.47805254   -8.0261503    719.36566  0.012478588  0.010669168         1075 
 4805000   0.49406061   -8.0111392    720.68854  0.012498934  0.010665499         1111 
 4806000   0.48611732   -8.0090789    721.40733  0.012508797   0.01066183         1063 
 4807000   0.47839504     -8.00393    721.23911  0.012503278  0.010658162         1039 
 4808000   0.48190536   -8.0240187    720.73313  0.012491908    0.0106545         1137 
 4809000   0.48423614   -8.0200911    720.29507   0.01248172  0.010650833         1062 
 4810000   0.49240204   -8.0145462    720.36245  0.012480292  0.010647171         1124 
 4811000   0.48493965   -8.0079221    721.15955  0.012491505  0.010643511         1072 
 4812000   0.48008845   -7.9977458    721.77983  0.012499651  0.010639851         1052 
 4813000   0.47810094    -8.016623    720.32362  0.012471841  0.010636194         1166 
 4814000   0.49093951   -8.0280836    720.27717  0.012468446  0.010632539         1118 
 4815000   0.47847051   -8.0098955    721.08236  0.012479792  0.010628889         1058 
 4816000   0.48560985   -7.9977445    720.94627  0.012474845  0.010625241         1065 
 4817000    0.4740358   -8.0125574    721.04549  0.012473972  0.010621591         1103 
 4818000   0.48335282   -8.0146668    720.84452  0.012467907  0.010617941         1103 
 4819000   0.48212867   -7.9936745    720.63071  0.012461623  0.010614298         1048 
 4820000    0.4778942   -8.0108725     720.6243  0.012458926  0.010610654         1063 
 4821000   0.46735239   -8.0055535    721.00745  0.012462965  0.010607009         1136 
 4822000   0.48521705   -8.0352278    719.77386  0.012439062  0.010603366         1127 
 4823000   0.47603333   -8.0063092    720.57403  0.012450308  0.010599724         1082 
 4824000   0.48011637   -8.0065729    720.77029  0.012451117  0.010596082         1139 
 4825000   0.47083245   -8.0323723    719.91767  0.012433811  0.010592444         1111 
 4826000   0.47866284   -8.0276631    719.50532  0.012424114  0.010588805         1066 
 4827000   0.47615984   -7.9987016       720.92  0.012445964  0.010585172         1062 
 4828000   0.47304669   -8.0197494    721.33011  0.012450464  0.010581543         1063 
 4829000   0.48441115   -8.0078925    721.30113  0.012447386  0.010577912         1137 
 4830000   0.47494235   -8.0017869    719.66649  0.012416606  0.010574284         1116 
 4831000   0.47316468   -8.0294696    720.05575  0.012420751  0.010570658         1142 
 4832000   0.47722217   -8.0282354    721.41797  0.012441673  0.010567033         1083 
 4833000   0.48031421   -8.0032491    721.12683  0.012434079  0.010563408         1127 
 4834000   0.48071933   -8.0075485    721.48681  0.012437712  0.010559784         1099 
 4835000   0.46508647    -8.009371      719.922   0.01240817  0.010556163         1119 
 4836000   0.47187683   -8.0356356    719.30797  0.012395023  0.010552543         1197 
 4837000   0.46493705   -8.0145558    720.49785   0.01241296  0.010548924         1145 
 4838000   0.47863214   -8.0096206     719.6879  0.012396443  0.010545305         1169 
 4839000   0.48249953   -8.0119537    719.11076  0.012383942  0.010541691         1123 
 4840000   0.47609099   -8.0195518    719.55968  0.012389113  0.010538078         1080 
 4841000   0.47186751   -8.0367255    719.98917  0.012393947  0.010534464         1071 
 4842000   0.46991923   -8.0263999    719.65873    0.0123857  0.010530852         1145 
 4843000   0.47637164   -8.0264368    720.45465  0.012396838  0.010527244         1051 
 4844000   0.48296161   -8.0278507    720.46964  0.012394537  0.010523636         1155 
 4845000    0.4872412   -8.0437167    719.59915  0.012377006   0.01052003         1120 
 4846000   0.47279837   -8.0233781    719.74408  0.012376945  0.010516426         1072 
 4847000   0.47172069   -8.0236086    721.07597   0.01239729  0.010512822         1171 
 4848000   0.48315834   -8.0180962    719.41677  0.012366212   0.01050922         1202 
 4849000   0.48304861   -8.0161696    720.06741  0.012374844   0.01050562         1048 
 4850000   0.47859632   -8.0324931    720.11813  0.012373164  0.010502023         1197 
 4851000   0.46830704   -8.0282251    720.03053  0.012369108  0.010498426         1136 
 4852000   0.47843841   -8.0338675    720.38388  0.012372628  0.010494834         1123 
 4853000   0.47222943   -8.0182211    720.31256  0.012368854  0.010491238         1128 
 4854000   0.47244624   -8.0251541    720.36616  0.012367226  0.010487645         1141 
 4855000   0.47672862   -8.0090748    720.74109  0.012371114  0.010484057         1121 
 4856000   0.48182179   -8.0205711    720.21401  0.012359521  0.010480469         1092 
 4857000   0.47098441   -8.0207139    718.85786  0.012333708  0.010476883         1128 
 4858000   0.47476235   -8.0233139    719.71891   0.01234594  0.010473297         1173 
 4859000   0.46675017   -8.0104555    719.95886  0.012347514  0.010469711         1158 
 4860000   0.47769382   -8.0350777    720.69584   0.01235761  0.010466128         1133 
 4861000   0.47235173   -8.0190707    718.47254  0.012316954  0.010462547         1056 
 4862000   0.47404267   -8.0090479    720.95356  0.012356944  0.010458968         1098 
 4863000   0.48159607   -8.0220136    720.94212  0.012354207  0.010455393         1062 
 4864000   0.46986141   -8.0255066    719.90137  0.012333836  0.010451816         1203 
 4865000   0.47774029   -8.0266865    720.92037  0.012348756  0.010448242         1093 
 4866000   0.46782475   -8.0256695    720.31648  0.012335876  0.010444672         1146 
 4867000   0.47083898   -8.0266065    720.37196  0.012334291    0.0104411         1104 
 4868000   0.46432831   -8.0329422    719.05414  0.012309199  0.010437527         1190 
 4869000   0.46702596   -8.0379516    720.36283  0.012329069  0.010433958         1094 
 4870000   0.47630062    -8.034842    719.45548  0.012311011  0.010430391         1188 
 4871000   0.47226046   -8.0216234    721.19955  0.012338321  0.010426826         1184 
 4872000   0.47662493   -8.0298604     720.9986  0.012332351  0.010423261         1090 
 4873000   0.47349262   -8.0244738    719.72808  0.012308094  0.010419698         1131 
 4874000   0.47556653   -8.0214325    720.50235  0.012318806  0.010416138         1095 
 4875000   0.47156244   -8.0399595     719.3316  0.012296267  0.010412576         1117 
 4876000   0.46350076   -8.0218839    719.02721  0.012288543  0.010409018         1176 
 4877000   0.47385841   -8.0231891     721.2293   0.01232365  0.010405462         1248 
 4878000   0.47642874   -8.0253645    720.16599  0.012302959  0.010401909         1113 
 4879000   0.47411487   -8.0277319    720.55532  0.012307087  0.010398356         1151 
 4880000   0.47128953   -8.0242964    720.52289  0.012304011  0.010394805         1186 
 4881000   0.47042528   -8.0377099    720.28806  0.012297481  0.010391256         1196 
 4882000   0.46985369   -8.0199963    719.77472    0.0122862  0.010387708         1091 
 4883000   0.46937573   -8.0143872    721.18747  0.012307794  0.010384166         1055 
 4884000   0.47051831   -8.0427697    719.70219  0.012279931  0.010380621         1117 
 4885000   0.47391882   -8.0205431    720.31375   0.01228785  0.010377079         1130 
 4886000   0.47782203   -8.0192082    719.40615  0.012269855  0.010373538         1069 
 4887000   0.46652453    -8.026947    720.67173  0.012288925  0.010369996         1136 
 4888000    0.4694903   -8.0288169    719.93826  0.012273906  0.010366458         1058 
 4889000   0.47948649   -8.0204509    719.72947  0.012267837   0.01036292         1169 
 4890000   0.47422928   -8.0348892    719.74474  0.012265589  0.010359385         1163 
 4891000   0.46144718   -8.0308462    720.02128  0.012267792  0.010355851         1208 
 4892000   0.46535996   -8.0344474    719.66398  0.012259198  0.010352319         1158 
 4893000   0.46610418   -8.0277128    719.57747  0.012255219  0.010348784         1113 
 4894000   0.47157182   -8.0380165    719.32926  0.012248489  0.010345254         1200 
 4895000   0.47040453   -8.0219762    720.01267  0.012257621  0.010341723         1094 
 4896000   0.47120829    -8.037101    719.61307  0.012248316  0.010338199         1117 
 4897000   0.46648317   -8.0315772    720.37666  0.012258809  0.010334673         1112 
 4898000   0.47488477   -8.0208466    720.11043  0.012251777  0.010331147         1148 
 4899000   0.46742179   -8.0244246    720.89319  0.012262591  0.010327627         1218 
 4900000   0.46524695   -8.0306368    719.87584  0.012242786  0.010324108         1172 
 4901000   0.46056599   -8.0269049    718.27623   0.01221309  0.010320589         1168 
 4902000   0.46838436   -8.0319277    719.26134  0.012227345   0.01031707         1148 
 4903000   0.46673418   -8.0371444    721.09018  0.012255935  0.010313554         1121 
 4904000   0.46655728    -8.048027    719.70977  0.012229978  0.010310038         1164 
 4905000   0.46468047   -8.0384027    720.09027   0.01223395  0.010306525         1159 
 4906000   0.46214998   -8.0363624    720.29726  0.012234972  0.010303011         1157 
 4907000   0.46574555   -8.0415144    719.71217  0.012222542    0.0102995         1122 
 4908000   0.47485759   -8.0519521    719.96388  0.012224326   0.01029599         1165 
 4909000   0.47246173   -8.0366361     720.8041  0.012236099  0.010292483         1107 
 4910000   0.46295799    -8.039172    719.70659  0.012214979  0.010288977         1162 
 4911000   0.45741116   -8.0391866    719.87477  0.012215346  0.010285472         1198 
 4912000   0.45956906   -8.0283849    720.61701  0.012225451  0.010281966         1142 
 4913000   0.46941687   -8.0289479    720.35601  0.012218536  0.010278465         1165 
 4914000   0.45657687   -8.0451797     718.6886  0.012187773  0.010274966         1228 
 4915000   0.45487244   -8.0395521    719.49361  0.012198942  0.010271468         1122 
 4916000   0.46876023    -8.032876    718.22353  0.012174931   0.01026797         1237 
 4917000   0.46485014   -8.0370521    720.05066  0.012203421  0.010264472         1147 
 4918000    0.4548682   -8.0480485    719.33293  0.012188778  0.010260978         1160 
 4919000   0.45433069   -8.0442384    718.38167  0.012170185  0.010257484         1174 
 4920000   0.46969729   -8.0481841    719.66946  0.012189523  0.010253991         1179 
 4921000   0.46419047   -8.0433348    719.12493  0.012177825  0.010250501         1095 
 4922000   0.47232654    -8.041264    720.69889  0.012201999  0.010247015         1224 
 4923000   0.46188992   -8.0508849    719.88858  0.012185804  0.010243529         1160 
 4924000   0.46823189   -8.0491485    720.09963  0.012186901  0.010240044         1188 
 4925000   0.46445693   -8.0281528     718.7673  0.012161883  0.010236559         1171 
 4926000   0.46686873   -8.0487288    719.73472   0.01217578  0.010233077         1176 
 4927000   0.45799404   -8.0446437    720.63961  0.012188614  0.010229593         1184 
 4928000   0.46821541   -8.0333567     719.1061  0.012160209  0.010226116         1181 
 4929000   0.46054685     -8.03279    720.15702  0.012175509  0.010222639         1155 
 4930000   0.47717639   -8.0483656    719.33618  0.012159165  0.010219159         1247 
 4931000   0.46164574   -8.0343644    719.68092  0.012162525  0.010215684         1149 
 4932000   0.46797903   -8.0440663    718.21846  0.012135348  0.010212206         1207 
 4933000   0.46100892   -8.0502501    719.19587    0.0121494  0.010208735         1170 
 4934000   0.46103627   -8.0537098    719.34536  0.012149462  0.010205264         1178 
 4935000   0.47131643   -8.0341953    718.59865  0.012134391  0.010201795         1167 
 4936000   0.46073303   -8.0483204    720.40563   0.01216244  0.010198332         1177 
 4937000    0.4537614   -8.0525397    719.13022  0.012138448  0.010194864         1123 
 4938000    0.4601669   -8.0411953    720.22465  0.012154459  0.010191399         1169 
 4939000   0.46566895   -8.0366833    718.98135  0.012131021  0.010187934         1148 
 4940000   0.46832383    -8.038323    718.84999  0.012126349  0.010184474         1183 
 4941000   0.45589746   -8.0466289     720.1698  0.012146155  0.010181014         1144 
 4942000   0.45509067   -8.0548422    719.13365  0.012126225  0.010177554         1118 
 4943000   0.45297396   -8.0458229    719.65806  0.012132613  0.010174096         1180 
 4944000    0.4627749   -8.0352648    718.62464   0.01211274  0.010170641         1165 
 4945000   0.47307067   -8.0445996    719.63271  0.012127279  0.010167188         1194 
 4946000    0.4612959   -8.0297065     719.5245  0.012123003  0.010163734         1194 
 4947000   0.45716265   -8.0615106    718.30533  0.012100016   0.01016028         1216 
 4948000   0.45374896   -8.0412982    719.02882  0.012109755  0.010156827         1179 
 4949000   0.45986611   -8.0525775    718.57617  0.012099686  0.010153378         1159 
 4950000   0.46299442   -8.0256369    718.63992  0.012098315  0.010149932         1147 
 4951000   0.46815377   -8.0389206     719.3935  0.012108556  0.010146486         1154 
 4952000   0.46279743   -8.0553873    718.75559  0.012095375  0.010143042         1212 
 4953000   0.45544554   -8.0477656    719.76718  0.012109953  0.010139597         1239 
 4954000   0.46441318   -8.0412375     719.5539  0.012103921  0.010136155         1132 
 4955000    0.4550915   -8.0495583    718.54278  0.012084473  0.010132713         1147 
 4956000   0.46020316   -8.0535966    719.06893  0.012090882   0.01012927         1193 
 4957000   0.46242247   -8.0662123    719.02335  0.012087677  0.010125831         1153 
 4958000   0.45473735   -8.0469455    719.20351  0.012088267  0.010122394         1097 
 4959000   0.45025753    -8.043447    719.31634  0.012087725   0.01011896         1230 
 4960000   0.46175411   -8.0406103    719.15775  0.012082624  0.010115525         1127 
 4961000   0.46146306   -8.0437029     718.1292  0.012062911  0.010112092         1128 
 4962000   0.45456074    -8.043785     718.5665  0.012067824  0.010108658         1107 
 4963000   0.45564218   -8.0539061    717.82704  0.012052976  0.010105228         1112 
 4964000   0.45694276   -8.0481917    718.27963  0.012058146    0.0101018         1165 
 4965000   0.45245943   -8.0370432     718.5907  0.012060938  0.010098375         1134 
 4966000   0.45950381   -8.0506538    719.47581  0.012073362   0.01009495         1174 
 4967000   0.44991414   -8.0535914    719.94091  0.012078735  0.010091526         1189 
 4968000   0.46178191   -8.0546543    718.57953  0.012053468  0.010088103         1216 
 4969000   0.45026286   -8.0484785    719.18069  0.012061124  0.010084684         1165 
 4970000   0.45166378    -8.045337    719.43483  0.012062958  0.010081266         1150 
 4971000   0.46218712   -8.0602393    718.81291  0.012050106  0.010077847         1121 
 4972000    0.4507549   -8.0612206    718.40991  0.012040928  0.010074431         1162 
 4973000   0.45974751   -8.0647576     719.2345  0.012052324  0.010071017         1164 
 4974000   0.45604203   -8.0320074    719.14784  0.012048449  0.010067609         1154 
 4975000   0.45850242   -8.0622932    719.04904  0.012044373  0.010064197         1113 
 4976000   0.45962286   -8.0561891    719.01223  0.012041336  0.010060791         1122 
 4977000   0.45061856   -8.0303689    718.60819  0.012032151  0.010057386         1196 
 4978000   0.46823457   -8.0458172    718.73543  0.012031864  0.010053979         1161 
 4979000   0.45414855   -8.0492709    718.20788  0.012020618  0.010050576         1252 
 4980000    0.4565311   -8.0538407    719.08348  0.012032856  0.010047175         1169 
 4981000   0.45029605   -8.0659973    718.17828  0.012015296  0.010043773         1131 
 4982000   0.44824376   -8.0421032    718.76276  0.012022661  0.010040371         1128 
 4983000   0.46349975   -8.0407406     718.7246   0.01201961  0.010036973         1095 
 4984000   0.45327647   -8.0613052    718.88538  0.012019887  0.010033577         1163 
 4985000   0.46209878   -8.0630895    719.45476  0.012026994  0.010030181         1008 
 4986000   0.46142602   -8.0511964    719.04208  0.012017684  0.010026787         1217 
 4987000   0.44752247   -8.0566272    719.25354  0.012018808  0.010023395         1144 
 4988000    0.4621903   -8.0479404    718.87691  0.012010106  0.010020001         1132 
 4989000   0.45645739   -8.0539721    718.08485  0.011994469  0.010016613         1192 
 4990000   0.45229982   -8.0694917    718.69882  0.012002318  0.010013225         1128 
 4991000   0.45276536   -8.0540053    719.73815  0.012017267  0.010009841         1078 
 4992000   0.45262356   -8.0501223    719.46309  0.012010268  0.010006455         1116 
 4993000   0.45060991   -8.0666517    719.54407  0.012009214  0.010003073         1208 
 4994000   0.45847337   -8.0560185    718.32307  0.011986435 0.0099996928         1130 
 4995000   0.44949244   -8.0511748    718.94837  0.011994467 0.0099963157         1152 
 4996000   0.45760963   -8.0490663    719.98175  0.012009303 0.0099929403         1135 
 4997000   0.45692422   -8.0531142    718.40172   0.01198055 0.0099895646         1162 
 4998000    0.4526069   -8.0592436    718.62115  0.011981812 0.0099861891         1116 
 4999000   0.44442647   -8.0590473    719.15604  0.011988332  0.009982817         1112 
 5000000   0.45026668   -8.0539587    718.59813  0.011976635 0.0099794465         1118 
 5001000    0.4542274   -8.0512997    718.29574  0.011969202 0.0099760743         1180 
 5002000   0.44790348   -8.0659947    719.72008  0.011990539 0.0099727038         1193 
 5003000   0.45158809   -8.0532634    718.93452  0.011975057 0.0099693389         1157 
 5004000   0.43819329   -8.0670012    720.01426  0.011990645 0.0099659718         1179 
 5005000   0.45858434   -8.0632853    719.02216  0.011971731 0.0099626039         1120 
 5006000   0.44872416   -8.0569229    718.20181  0.011955683 0.0099592403         1174 
 5007000    0.4539555   -8.0648025    719.58485  0.011976314 0.0099558772         1158 
 5008000   0.45709757   -8.0623674    719.10789  0.011965986 0.0099525183         1155 
 5009000   0.45789029   -8.0596354    720.04141  0.011979128  0.009949159         1140 
 5010000   0.44035825   -8.0584081    718.87978  0.011957415 0.0099457986         1197 
 5011000   0.44967741   -8.0673877     718.2689   0.01194487 0.0099424402         1122 
 5012000   0.45270028   -8.0627339    718.68405  0.011949389 0.0099390867         1072 
Loop time of 13231 on 48 procs for 5000000 steps with 4000 atoms

Performance: 65301.205 tau/day, 377.900 timesteps/s
99.4% CPU use with 48 MPI tasks x no OpenMP threads

MPI task timing breakdown:
Section |  min time  |  avg time  |  max time  |%varavg| %total
---------------------------------------------------------------
Pair    | 970.48     | 1065       | 1148.8     | 136.2 |  8.05
Neigh   | 92.468     | 95.761     | 99.248     |  17.9 |  0.72
Comm    | 842.29     | 920.99     | 1002.3     | 144.9 |  6.96
Output  | 16.606     | 16.61      | 16.715     |   0.4 |  0.13
Modify  | 10980      | 11012      | 11041      |  13.7 | 83.23
Other   |            | 120.1      |            |       |  0.91

Nlocal:        83.3333 ave          90 max          76 min
Histogram: 2 2 4 5 10 8 3 7 4 3
Nghost:        2421.35 ave        2444 max        2400 min
Histogram: 4 2 4 7 8 9 4 5 1 4
Neighs:        16857.6 ave       19787 max       14647 min
Histogram: 4 6 3 10 7 4 8 3 1 2
FullNghs:      33715.0 ave       36400 max       30643 min
Histogram: 1 3 4 7 10 5 4 6 3 5

Total # of neighbors = 1618319
Ave neighs/atom = 404.57975
Neighbor list builds = 266845
Dangerous builds = 0

#clear
#
#next RN
#
#jump SELF
Total wall time: 3:40:34
