
units lj                  # Use reduced LJ style units
atom_style atomic         # Uncharged point particles
atom_modify map hash      # Needed for indexing of clusters etc
                          # Used to be able to find where atoms are in relation to each other.

lattice fcc 1.0 spacing 1 1 1
Lattice spacing in x,y,z = 1.5874011 1.5874011 1.5874011
region box block 0 10 0 10 0 10 units lattice
create_box 2 box
Created orthogonal box = (0.0000000 0.0000000 0.0000000) to (15.874011 15.874011 15.874011)
  3 by 4 by 4 MPI processor grid
create_atoms 1 box
Created 4000 atoms
  using lattice units in orthogonal box = (0.0000000 0.0000000 0.0000000) to (15.874011 15.874011 15.874011)
  create_atoms CPU = 0.003 seconds
set type 1 type/fraction 2 0.81 78393
Setting atom values ...
  3229 settings made for type/fraction
mass 1 1.0
mass 2 1.0
pair_style lj/cut  3.5
pair_modify tail  yes
pair_coeff 1  1  1.0  1.0   # Intearaction between 1 and 1 set with epsilon = 1 and sigma = 1
pair_coeff 1  2  1.5  0.8
pair_coeff 2  2  0.5  0.88

write_data data.0
System init for write_data ...
Neighbor list info ...
  update every 1 steps, delay 10 steps, check yes
  max neighbors/atom: 2000, page size: 100000
  master list distance cutoff = 3.8
  ghost atom cutoff = 3.8
  binsize = 1.9, bins = 9 9 9
  1 neighbor lists, perpetual/occasional/extra = 1 0 0
  (1) pair lj/cut, perpetual
      attributes: half, newton on
      pair build: half/bin/atomonly/newton
      stencil: half/bin/3d
      bin: standard
WARNING: Not all mixed pair coeffs generated from mixing. Use write_data with 'pair ij' option to store all pair coeffs. (../write_data.cpp:312)


#############################
#   M E L T   S Y S T E M   #
#############################

velocity all create 2.4 3143649 mom yes dist gaussian # Assign velocities
                                                    # Temperature 2.4, random number seed, zero linear momentum
                                                                                # Gaussian distribution

timestep 0.002   # simulation timestep
thermo 1000       # output thermodynamic data every 1000 steps bf 100

# Define a fix  in this case with index 1 applied to all
# particles in the simulation. This fix is for simulations
# in the anisotropic NPT ensemble. Note that we use the MTK
# correction.
fix 1 all npt temp 2.4 2.4 0.1 iso 5.68 5.68 0.5 mtk yes tchain 5 pchain 5 # Use NPT ensemble
                                                                         # Set temperature and pressure and damping
                                                                         # Numbers of thermostats in chain and in barostat
run 10000          # run for 10000 steps
Per MPI rank memory allocation (min/avg/max) = 3.642 | 3.644 | 3.648 Mbytes
Step Temp E_pair E_mol TotEng Press Volume 
       0          2.4   -3.6458899            0 -0.046789881   -3.2123361         4000 
    1000    2.4243593   -2.9921369            0   0.64349287    5.8356511    3776.9215 
    2000    2.4230265   -2.9802082            0   0.65342298    5.9417135    3780.1588 
    3000    2.3752415   -2.9686581            0   0.59331351    5.6755256    3806.9694 
    4000    2.4443857   -2.9964618            0   0.66920008    5.5659235    3812.4939 
    5000    2.3919803   -2.9975239            0   0.58954948    5.5375305    3811.2483 
    6000    2.3907141   -3.0124674            0   0.57270721    5.6266273    3810.5477 
    7000    2.3533051   -2.9409506            0   0.58812459     5.711304    3805.8982 
    8000    2.4158527   -2.9795045            0   0.64336866    5.9260739    3778.8505 
    9000    2.4084125   -2.9974524            0   0.61426321    5.4445172    3816.7793 
   10000    2.3615679   -2.9955969            0   0.54586936    5.7121027    3792.3046 
Loop time of 2.75807 on 48 procs for 10000 steps with 4000 atoms

Performance: 626524.514 tau/day, 3625.721 timesteps/s
99.5% CPU use with 48 MPI tasks x no OpenMP threads

MPI task timing breakdown:
Section |  min time  |  avg time  |  max time  |%varavg| %total
---------------------------------------------------------------
Pair    | 1.1302     | 1.2012     | 1.3876     |   4.1 | 43.55
Neigh   | 0.2106     | 0.21796    | 0.24124    |   1.2 |  7.90
Comm    | 0.74153    | 0.91427    | 1.032      |   6.5 | 33.15
Output  | 0.00024574 | 0.00025143 | 0.00032181 |   0.0 |  0.01
Modify  | 0.32143    | 0.40888    | 0.48531    |   6.2 | 14.82
Other   |            | 0.01547    |            |       |  0.56

Nlocal:        83.3333 ave          91 max          71 min
Histogram: 1 2 0 3 4 10 7 8 10 3
Nghost:        1698.58 ave        1735 max        1654 min
Histogram: 1 0 3 6 6 13 9 6 3 1
Neighs:        10063.7 ave       11348 max        8556 min
Histogram: 1 4 1 2 12 10 9 3 5 1

Total # of neighbors = 483059
Ave neighs/atom = 120.76475
Neighbor list builds = 902
Dangerous builds = 175

# Equilibrate just above the melting temperature to avoid step fn in T

fix 1 all npt temp 1.25 1.25 0.1 iso 5.68 5.68 0.5 mtk yes tchain 5 pchain 5
run 2000
Per MPI rank memory allocation (min/avg/max) = 3.644 | 3.645 | 3.649 Mbytes
Step Temp E_pair E_mol TotEng Press Volume 
   10000    2.3615679   -2.9955969            0   0.54586936    5.7121027    3792.3046 
   11000    1.2510055   -4.4173358            0   -2.5412968    5.6532287    2923.1314 
   12000    1.2399016   -4.3807196            0   -2.5213322    5.7799572     2927.877 
Loop time of 0.641313 on 48 procs for 2000 steps with 4000 atoms

Performance: 538894.321 tau/day, 3118.601 timesteps/s
99.6% CPU use with 48 MPI tasks x no OpenMP threads

MPI task timing breakdown:
Section |  min time  |  avg time  |  max time  |%varavg| %total
---------------------------------------------------------------
Pair    | 0.27529    | 0.30548    | 0.36028    |   2.8 | 47.63
Neigh   | 0.038501   | 0.042046   | 0.049247   |   0.8 |  6.56
Comm    | 0.18388    | 0.2448     | 0.28059    |   3.7 | 38.17
Output  | 5.0193e-05 | 5.3094e-05 | 7.2773e-05 |   0.0 |  0.01
Modify  | 0.040297   | 0.044072   | 0.04815    |   1.1 |  6.87
Other   |            | 0.004862   |            |       |  0.76

Nlocal:        83.3333 ave          92 max          76 min
Histogram: 3 3 3 10 7 9 9 1 2 1
Nghost:        2021.81 ave        2055 max        1999 min
Histogram: 5 4 7 6 9 9 4 2 1 1
Neighs:        13021.0 ave       14647 max       11775 min
Histogram: 6 3 7 7 7 6 4 3 3 2

Total # of neighbors = 625009
Ave neighs/atom = 156.25225
Neighbor list builds = 141
Dangerous builds = 7

#############################
# L I N E A R  Q U E N C H  #
#############################

# Define solid atoms. This closely follows ten Wolde  Ruiz-Montero and Frenkel  Faraday Discuss  1996  104  93-110
# Compute components of the per-atom q6 vector
compute q6 all orientorder/atom degrees 1 6 components 6 nnn NULL cutoff 1.3 # compute the Q6 parameter.
                                                                             # Use all neighbours within 1.3 unit cell.

# get number of connections
compute coord_number all coord/atom orientorder q6 0.5

# An atom is solid if it has 8 or more connections (of a possible 14)
variable is_solid atom c_coord_number>=8
group solid dynamic all var is_solid    # Must be dynamic to update
dynamic group solid defined

# do clustering
compute cluster solid cluster/atom 1.3 # Create a cluster where all atoms within are solid and max 1.3 units from another member

# define chunks one chunk per cluster
compute clus_chunks solid chunk/atom c_cluster nchunk every compress yes  # Says which atoms are in which chunk

# count the size of each chunk
compute size_chunks solid property/chunk clus_chunks count


# Find the maximum entry in the vector of chunk sizes
variable max_n equal max(c_size_chunks)


# Thermo style which includes this variable
# thermo_style custom step temp pe vol v_max_n

thermo ${N}  # Print the thermo information every 100 steps
thermo 1000  

# Reset the npt fix at a lower temperature (below freezing)
fix 1  all npt temp  ${temp} ${temp}  0.1  iso  5.68  5.68  0.5  mtk yes tchain  5  pchain  5
fix 1  all npt temp  0.45 ${temp}  0.1  iso  5.68  5.68  0.5  mtk yes tchain  5  pchain  5
fix 1  all npt temp  0.45 0.45  0.1  iso  5.68  5.68  0.5  mtk yes tchain  5  pchain  5

dump dmp2 all dcd ${N} traj.dcd
dump dmp2 all dcd 1000 traj.dcd


compute msd all msd com yes
variable twopoint equal c_msd[4]/6/(step*dt+1.0e-6)
fix 9 all vector 10 c_msd[4]
variable fit equal slope(f_9)/6/(10*dt)
thermo_style custom step temp pe c_msd[4] v_twopoint v_fit v_max_n

fix 1 all npt temp 1.25 ${temp} 0.1 iso 5.68 5.68 0.5 mtk yes tchain 5 pchain 5
fix 1 all npt temp 1.25 0.45 0.1 iso 5.68 5.68 0.5 mtk yes tchain 5 pchain 5
run 5000000 # 5000000  # Run for this many steps
Neighbor list info ...
  update every 1 steps, delay 10 steps, check yes
  max neighbors/atom: 2000, page size: 100000
  master list distance cutoff = 3.8
  ghost atom cutoff = 3.8
  binsize = 1.9, bins = 8 8 8
  4 neighbor lists, perpetual/occasional/extra = 1 3 0
  (1) pair lj/cut, perpetual
      attributes: half, newton on
      pair build: half/bin/atomonly/newton
      stencil: half/bin/3d
      bin: standard
  (2) compute orientorder/atom, occasional
      attributes: full, newton on
      pair build: full/bin/atomonly
      stencil: full/bin/3d
      bin: standard
  (3) compute coord/atom, occasional
      attributes: full, newton on
      pair build: full/bin/atomonly
      stencil: full/bin/3d
      bin: standard
  (4) compute cluster/atom, occasional
      attributes: full, newton on
      pair build: full/bin/atomonly
      stencil: full/bin/3d
      bin: standard
Per MPI rank memory allocation (min/avg/max) = 9.835 | 9.839 | 9.845 Mbytes
Step Temp PotEng c_msd[4] v_twopoint v_fit v_max_n 
   12000    1.2399016   -4.3807196 4.281937e-30 2.9735672e-32 8.3333333e+20            2 
   13000    1.2433896   -4.3790496    0.8259782 0.0052947319  0.068749384            2 
   14000    1.2478872   -4.3949596    1.6669792 0.0099224948  0.070835131            3 
   15000    1.2508123   -4.4027629    2.5195276  0.013997375  0.070386345            1 
   16000    1.2564121   -4.3956249    3.3479913  0.017437454  0.070331576            2 
   17000     1.265722   -4.4206272    4.1974784  0.020575874  0.070083782            2 
   18000    1.2517081   -4.4595181    4.9817247   0.02306354  0.069982031            2 
   19000    1.2225762   -4.4111377    5.9752279  0.026207139  0.070331013            3 
   20000    1.2378362   -4.3480089    6.8703614  0.028626505  0.071027719            1 
   21000    1.2649091   -4.4226608    7.7114951   0.03060117  0.071438496            3 
   22000    1.2495312   -4.4511744    8.5296346  0.032309221  0.071516027            5 
   23000    1.2592872   -4.4254398    9.3926798  0.034031448  0.071531593            2 
   24000    1.2726657   -4.4043893    10.243394  0.035567339  0.071520178            5 
   25000    1.2290836   -4.3661019    10.982255  0.036607516  0.071287432            3 
   26000    1.2400902    -4.380757    11.876392  0.038065359  0.071046839            3 
   27000     1.261846   -4.4153504     12.72072  0.039261481  0.070893621            3 
   28000    1.2590682   -4.4333383    13.456578  0.040049338  0.070858767            3 
   29000    1.2229392   -4.4053636    14.499303  0.041664663  0.070765644            1 
   30000    1.2227144   -4.3892487    15.513674  0.043093538  0.070978856            1 
   31000    1.2682193   -4.4036337    16.393199  0.044067738  0.071197724            1 
   32000    1.2315823   -4.4495177    17.198342  0.044787347  0.071405261            4 
   33000    1.2307831   -4.4034644    18.208284  0.045980514  0.071626801            2 
   34000    1.2516348   -4.4668288    19.025023  0.046629957  0.071814914            2 
   35000    1.2461284   -4.4071521    20.062759  0.047768474  0.072050752            2 
   36000     1.244517   -4.4323801     20.69768  0.047911297  0.072171703            1 
   37000    1.2485636   -4.3699367    21.512568  0.048451728  0.072202144            2 
   38000    1.2146924    -4.429419    22.307565  0.048920099  0.072167559            3 
   39000    1.2435224   -4.4129954    23.273383   0.04972945  0.072158943            1 
   40000     1.252223   -4.4378386    24.113781  0.050237042  0.072130778            2 
   41000     1.261924   -4.4015315     25.16131  0.051140874  0.072213634            2 
   42000    1.2340031   -4.4548682    25.983155  0.051553879  0.072282357            3 
   43000    1.2292529   -4.4541356    26.770758  0.051881313  0.072355331            2 
   44000    1.2074296   -4.4694884    27.494863  0.052073603  0.072344733            2 
   45000    1.2229888   -4.3848524    28.290482  0.052389781  0.072278194            3 
   46000    1.2454412   -4.4054747    28.840246  0.052246821  0.072102477            3 
   47000    1.2472979   -4.4617176    29.627238  0.052530563  0.071918196            2 
   48000    1.2484044   -4.4027569    30.569535  0.053072109  0.071788906            2 
   49000    1.2758863   -4.4358445    31.459886  0.053503207  0.071685706            4 
   50000     1.246632   -4.3888182    32.625605  0.054376007  0.071655644            2 
   51000    1.2492721   -4.4124014    33.235859  0.054306959  0.071626716            2 
   52000    1.2356624   -4.4077336    33.907706  0.054339272  0.071523315            1 
   53000    1.2512199   -4.4411461    34.723868  0.054597276  0.071399572            2 
   54000    1.2334764   -4.4266204    35.633726  0.054990317  0.071318563            3 
   55000    1.2622657   -4.4163935    36.400231  0.055151864  0.071226399            2 
   56000    1.2336014   -4.4434333    37.056404  0.055143458  0.071139736            3 
   57000    1.2256197   -4.3970125    37.954367   0.05548884  0.071012964            1 
   58000    1.2239263   -4.4019132    38.697361  0.055599657  0.070895602            3 
   59000    1.2478177   -4.4263289    39.697272  0.056069593   0.07081785            2 
   60000    1.2675149   -4.4322871    40.827726  0.056705174  0.070763623            2 
   61000    1.2451671   -4.4477391    41.560472    0.0567766  0.070750693            3 
   62000    1.2561554   -4.3904087    42.564133  0.057209856  0.070742939            2 
   63000    1.2392986   -4.4158661    43.179083  0.057115188  0.070716191            4 
   64000    1.2272198   -4.4108545    43.830425  0.057070866  0.070637868            2 
   65000    1.2755869   -4.4203676    44.237811  0.056715142  0.070509969            2 
   66000    1.2295537   -4.4330374    44.977769  0.056790112  0.070366569            1 
   67000    1.2424359   -4.3983882    45.758029   0.05691297  0.070218032            2 
   68000    1.2270041   -4.4083293    46.513485   0.05700182  0.070094446            3 
   69000    1.2605972   -4.4341877    47.449217  0.057305817  0.069973301            3 
   70000    1.2340707   -4.4632676    48.349438  0.057558854  0.069881809            3 
   71000    1.2342062   -4.4528055    49.350621  0.057923264  0.069798948            1 
   72000    1.2305129   -4.4393224     49.97726   0.05784405  0.069729887            6 
   73000    1.2325788   -4.4226422    51.091206  0.058323294  0.069672029            3 
   74000    1.2391147   -4.4105405    51.885042  0.058429101  0.069611231            3 
   75000    1.2652919   -4.4500579    52.516095  0.058351216  0.069556904            3 
   76000    1.2270603   -4.4608141    53.184586  0.058316431  0.069512773            2 
   77000    1.2620938    -4.422489    53.949014  0.058386378  0.069439017            2 
   78000    1.2416864   -4.4457734     54.47795  0.058202938   0.06935072            2 
   79000    1.2405693   -4.3933726    55.196356  0.058224004  0.069276432            1 
   80000    1.2160975   -4.4520039    56.465679  0.058818415   0.06920668            2 
   81000    1.2515982   -4.4253822    57.346228  0.058998177  0.069164285            3 
   82000     1.243551   -4.4503222    58.052062  0.058995998  0.069117721            3 
   83000    1.2462794   -4.4213578    59.091234  0.059328547  0.069082998            4 
   84000     1.187699   -4.4313313    60.276495  0.059798109  0.069067464            1 
   85000    1.2126014   -4.4303806    60.922093  0.059727542  0.069051344            2 
   86000    1.2295889    -4.432711    61.425027  0.059520375  0.069032907            1 
   87000     1.236023    -4.396546    62.358235   0.05973011  0.069005576            2 
   88000    1.2110507   -4.4492828    63.054471  0.059710673  0.068975436            2 
   89000    1.2459918   -4.4470198    64.355119  0.060257601  0.068964863            2 
   90000    1.2142097   -4.4416674     65.17709  0.060349157  0.068986082            2 
   91000    1.2381684    -4.408795    66.076334  0.060509463  0.069000421            1 
   92000    1.2576153   -4.4256943    66.958482  0.060650798  0.069014694            2 
   93000    1.2121557   -4.4545821    67.646317  0.060614979  0.069025928            2 
   94000    1.2375551   -4.4701178    68.083366  0.060357593   0.06902126            3 
   95000    1.2606227   -4.4507389    68.796123  0.060347476  0.069005236            2 
   96000    1.2405378    -4.394623    70.314099  0.061036544  0.068992464            1 
   97000    1.2235865   -4.4300855    70.947032  0.060951058  0.068990497            4 
   98000    1.2568362   -4.4307883    72.175662  0.061373862  0.069012328            2 
   99000    1.2349027   -4.4549564    72.834183  0.061308234  0.069056254            1 
  100000    1.2152555   -4.4458003    73.604379  0.061336982  0.069086358            2 
  101000    1.2341947   -4.3961839    74.810842  0.061725117  0.069117797            1 
  102000    1.2455368   -4.4377341    75.805965  0.061932978  0.069152558            2 
  103000    1.2381043   -4.4097427    76.666201  0.062027671   0.06919031            4 
  104000    1.2526811   -4.3916801    78.158999  0.062627403  0.069238087            3 
  105000    1.2430003   -4.4657388    78.831297  0.062564521  0.069299351            2 
  106000    1.2170146    -4.465288     79.66741  0.062631611  0.069357029            4 
  107000    1.2228593   -4.4307763    80.202367  0.062462902  0.069398616            1 
  108000    1.2519095   -4.4244808    81.172443  0.062633058  0.069450039            2 
  109000    1.2349029   -4.4150045    82.315333  0.062932211   0.06950665            2 
  110000    1.2011387   -4.4288975    83.140943  0.062985562  0.069560794            1 
  111000      1.22563   -4.4279784    83.960521  0.063033424  0.069606933            3 
  112000    1.2127175   -4.4286871     84.78672  0.063085357   0.06966005            2 
  113000    1.2136469    -4.428269    85.650442  0.063164043  0.069712209            3 
  114000    1.2630683   -4.4549561    86.388901  0.063149781  0.069749312            2 
  115000    1.2188505   -4.4730587    87.064926  0.063090526  0.069786106            2 
  116000    1.2246763   -4.4268462     87.77388  0.063055948  0.069811928            1 
  117000    1.2470389   -4.4748836    88.804663  0.063251184  0.069841572            2 
  118000    1.2275363   -4.4688933    89.681751   0.06333457  0.069872157            4 
  119000    1.2073757   -4.4231923     90.92705  0.063674404  0.069898256            2 
  120000    1.2718914   -4.4684833    91.343039  0.063432665  0.069929283            3 
  121000     1.242617   -4.4335933    92.733292  0.063865903  0.069966924            2 
  122000     1.244039   -4.4143337    93.342338  0.063758428  0.070011882            3 
  123000    1.2125785   -4.4351126    94.634318  0.064115391  0.070058291            2 
  124000    1.2375434   -4.4369095    95.177241  0.063963199  0.070093896            2 
  125000     1.236368   -4.4618276    95.431144  0.063620762  0.070111004            4 
  126000     1.221294   -4.4273604    96.581871  0.063876899  0.070131047            2 
  127000    1.2274407   -4.4748095    97.582937  0.064030799  0.070163265            3 
  128000    1.2415221   -4.4124116    98.494886  0.064124274  0.070186043            4 
  129000    1.2391203   -4.4284108    99.344131  0.064175795  0.070206254            2 
  130000    1.2239502   -4.4658094    99.472003  0.063764104  0.070220399            3 
  131000    1.2420107   -4.4747445    100.37027  0.063848771  0.070233078            3 
  132000    1.2540097   -4.4504421    101.76345  0.064244601  0.070249103            2 
  133000    1.2504369   -4.4171023    102.76541  0.064389356  0.070266343            2 
  134000    1.2243511   -4.4552174    103.22055  0.064191887  0.070286749            2 
  135000    1.2362228   -4.4417788    104.25915  0.064357502  0.070299871            3 
  136000    1.1932325   -4.4484937     104.5238  0.064046449  0.070301716            4 
  137000    1.2339377   -4.4530903    104.68773  0.063678669  0.070291645            4 
  138000    1.2151475   -4.3774116    106.27255  0.064174244  0.070280472            1 
  139000    1.2349454   -4.4423383    107.24009  0.064292621  0.070277413            2 
  140000    1.2767882   -4.4504508    107.72209  0.064120292  0.070276453            2 
  141000    1.2470021   -4.4696654    108.60917  0.064189817  0.070272316            3 
  142000    1.2201889   -4.4688526    109.05669  0.064000403  0.070260595            4 
  143000    1.2261704   -4.4422875    110.42102  0.064347914  0.070249325            2 
  144000    1.2270784   -4.4316424    111.12079  0.064306011  0.070234919            1 
  145000    1.2334834   -4.4498339     111.6865  0.064187644  0.070219774            3 
  146000    1.2251638   -4.4597398    112.27041  0.064081281  0.070215033            2 
  147000    1.2259642   -4.4852116    113.50178  0.064343413  0.070203636            3 
  148000    1.2338378   -4.4228801    114.65421  0.064557552  0.070204604            4 
  149000    1.2428849   -4.4685403    115.23509  0.064449157  0.070203787            4 
  150000    1.2404776   -4.3971033    116.95708  0.064976154  0.070211609            2 
  151000    1.2120808   -4.4644408    117.69762  0.064954535  0.070220155            1 
  152000    1.2069803   -4.4717746    118.79304   0.06512776  0.070232459            1 
  153000    1.2210914   -4.4322663    119.63509  0.065160722   0.07025076            2 
  154000    1.2476506   -4.4814583     120.2144   0.06505108   0.07027292            2 
  155000     1.214702   -4.4555931    121.63768  0.065396604  0.070295469            3 
  156000    1.2277689   -4.4525856    122.52555  0.065451682  0.070324227            3 
  157000    1.2091465   -4.4626691     123.6968  0.065656477  0.070357819            1 
  158000    1.2344626   -4.4445922    125.06337  0.065961691  0.070402324            1 
  159000    1.2105896   -4.4603818    125.91429  0.065992815  0.070442404            3 
  160000    1.2138059    -4.424434    127.07467  0.066184722  0.070489101            2 
  161000    1.2333728   -4.4486319    127.86022   0.06618024  0.070539156            5 
  162000    1.2196367   -4.4522196    128.74594  0.066227336   0.07058568            2 
  163000    1.2574217   -4.4465435    129.32129  0.066115177  0.070628766            1 
  164000    1.2200462   -4.4862357    129.26283  0.065682331  0.070657906            3 
  165000    1.2161303   -4.4477797    130.94322  0.066132938  0.070681406            3 
  166000    1.2253558   -4.4557102    131.52925  0.066028742  0.070697852            4 
  167000    1.2656601   -4.4213584    131.79658  0.065766755  0.070713872            2 
  168000    1.2148496   -4.4553589    132.28688  0.065618491   0.07072805            2 
  169000    1.2228419   -4.4172645    134.19432  0.066170771   0.07074631            3 
  170000    1.2302207   -4.4536289    134.26082  0.065814126  0.070762709            2 
  171000     1.216977   -4.4852453      135.433  0.066000488  0.070778806            2 
  172000    1.2156914   -4.4516032    136.03396  0.065907927  0.070790622            1 
  173000    1.2173951   -4.4593216    137.28564  0.066129886  0.070806361            2 
  174000    1.2301877   -4.4494294    138.17357  0.066175082  0.070821494            1 
  175000    1.1931938   -4.4534831    138.87675  0.066131783  0.070838582            2 
  176000    1.2079736   -4.4399736    140.37625   0.06646603  0.070852865            5 
  177000    1.2053124   -4.4845768    140.36073  0.066083205  0.070869978            1 
  178000    1.1993751   -4.4085048    141.65788  0.066319234   0.07088717            2 
  179000    1.2232623   -4.4438006    143.01389  0.066580023  0.070909714            2 
  180000    1.2442123    -4.492374    143.69219  0.066524163  0.070931133            2 
  181000    1.2122004   -4.4657132    144.31038  0.066441242  0.070949655            4 
  182000    1.1959986   -4.4634431      145.378  0.066565017  0.070970595            3 
  183000     1.202577   -4.4760391    146.22054  0.066584945  0.070983728            1 
  184000    1.2027841   -4.4208237    147.25971   0.06669371  0.071005176            2 
  185000    1.2118068   -4.4935554    147.89157  0.066617824  0.071020246            3 
  186000    1.2005783   -4.4438815    148.98045  0.066747514  0.071037537            2 
  187000     1.240027   -4.4353929    149.58668  0.066660732  0.071053709            3 
  188000    1.2275157   -4.4834408    149.84663  0.066421378  0.071060492            2 
  189000    1.2231858   -4.4429063    150.51695  0.066365497  0.071068562            3 
  190000    1.2119501   -4.4608304     151.6981  0.066534254  0.071073476            3 
  191000    1.2162146   -4.4757353    151.43579  0.066071463  0.071073595            3 
  192000    1.2186027   -4.4532694     152.4916  0.066185592  0.071070176            5 
  193000    1.2257113   -4.4751803    153.73454  0.066379336   0.07106578            1 
  194000    1.2335585   -4.4474842    153.89288   0.06610519   0.07105694            6 
  195000    1.2569184   -4.4667043    154.56502  0.066053427   0.07104476            3 
  196000    1.2224363   -4.4519162     154.8325  0.065830145  0.071032362            3 
  197000    1.2516816   -4.4422704    157.05047  0.066434209  0.071021083            4 
  198000    1.2340339   -4.4668127    156.75913  0.065976066  0.071011776            1 
  199000    1.2175886   -4.4398589    158.06064  0.066189546  0.070995803            2 
  200000    1.2134707   -4.5043632    158.32194  0.065967476  0.070981639            2 
  201000    1.2329688   -4.4318822    159.64315  0.066187043  0.070970752            1 
  202000    1.2125935    -4.476361    161.47797  0.066616324  0.070961094            1 
  203000    1.2193005   -4.4674179     161.6322  0.066351478  0.070948361            3 
  204000    1.2168038   -4.4908678    161.51768  0.065979446  0.070930024            3 
  205000    1.2189887   -4.4599475    162.94931  0.066239555  0.070916189            2 
  206000    1.2403199   -4.4352384    163.76431  0.066247697  0.070905008            2 
  207000    1.2277787   -4.4552271    164.04298  0.066039848  0.070887641            5 
  208000    1.1889569    -4.507716    164.51631  0.065911983  0.070868612            1 
  209000    1.2373431   -4.5123976    165.55624  0.066011262  0.070848668            1 
  210000     1.219857   -4.4423725    166.29509  0.065990116  0.070823702            3 
  211000    1.2297393   -4.4407554     167.5039   0.06615478  0.070801699            2 
  212000    1.2262941   -4.4674831    167.61898  0.065887962  0.070779097            2 
  213000    1.2099471   -4.4516802    168.69041  0.065997813  0.070754673            1 
  214000    1.2118575   -4.4833268    167.70553  0.065305892  0.070725996            4 
  215000     1.227576    -4.444387    169.39999   0.06565891  0.070694036            3 
  216000    1.2297047   -4.4360042    170.23583  0.065677403  0.070661298            2 
  217000    1.2325898    -4.488078    170.11925  0.065329973  0.070623012            2 
  218000    1.2283887   -4.4908728     172.0944  0.065785321  0.070588211            2 
  219000    1.2422184   -4.4423499    172.45822  0.065623369  0.070553306            2 
  220000    1.2413965   -4.4145505    172.52706  0.065351158  0.070517735            2 
  221000    1.2422955   -4.4753829    173.16876   0.06529742  0.070480196            3 
  222000    1.2375728   -4.4671467    174.08328  0.065346575    0.0704378            3 
  223000    1.2111626   -4.5065853    174.37974  0.065164326  0.070393939            2 
  224000    1.2030296   -4.4499742     175.8022  0.065402606  0.070352514            2 
  225000    1.2101599    -4.454008    176.53549  0.065383514  0.070314005            2 
  226000    1.2361094   -4.4707052    177.14488  0.065318909  0.070275582            2 
  227000    1.2055178   -4.5051767    177.32518  0.065097348  0.070237071            2 
  228000    1.2309409   -4.4189578    179.69346  0.065677435  0.070202063            2 
  229000    1.2076595   -4.4273086    180.60172  0.065721151  0.070172318            2 
  230000    1.2423553   -4.4861237    180.40969  0.065365828  0.070136423            2 
  231000    1.2283129   -4.4863098    181.36892  0.065428904  0.070101331            3 
  232000    1.1979467   -4.4776872    182.73267  0.065636736  0.070067923            5 
  233000    1.2066556   -4.4745811    182.88497  0.065409504  0.070031315            2 
  234000    1.2317599    -4.444805    182.91234   0.06513972  0.069997967            2 
  235000    1.2191735   -4.4546277    184.35794  0.065375157  0.069961889            3 
  236000    1.2276318   -4.5018704    184.12141  0.065014621  0.069926276            1 
  237000    1.2297815   -4.4976225    185.55018  0.065242681  0.069887592            3 
  238000    1.2180257   -4.4805875    186.57943  0.065328931  0.069849499            2 
  239000    1.1979703   -4.4717957    187.71432  0.065451296  0.069817227            3 
  240000     1.227537    -4.454346    188.55918  0.065471937  0.069787372            1 
  241000     1.233001   -4.4470319    190.23228  0.065778797  0.069759852            2 
  242000    1.1999645   -4.5110338    189.77324  0.065348912  0.069731766            3 
  243000    1.1811518   -4.4733932    190.95696  0.065485925  0.069704787            2 
  244000    1.2082975   -4.4237369    193.23333  0.065994988  0.069683424            1 
  245000    1.1964264   -4.4810951    192.24758  0.065390334  0.069659941            1 
  246000    1.2074159   -4.4586042    194.21556  0.065791177  0.069638004            2 
  247000    1.2276832   -4.4955083    194.71099  0.065691966  0.069618051            1 
  248000    1.2117475   -4.4998503    195.15963  0.065577832  0.069592881            2 
  249000    1.2176852   -4.4958534    195.83405  0.065540177  0.069567365            1 
  250000    1.2075658   -4.5096546    196.74947  0.065583158   0.06954461            2 
  251000    1.2194613   -4.4443692    197.57511  0.065595986  0.069521019            1 
  252000    1.2138582   -4.4652829    198.41718  0.065614147  0.069496547            1 
  253000    1.2130865    -4.435243     198.4001  0.065349175  0.069473779            4 
  254000    1.2076237   -4.4990847    198.50001  0.065124675  0.069450552            2 
  255000    1.1992148   -4.4803066    199.70312  0.065262458  0.069425093            2 
  256000    1.2129013    -4.558088    200.26077  0.065189051  0.069399649            3 
  257000    1.2195721   -4.4705964    203.24713  0.065903739  0.069375115            2 
  258000    1.2080349   -4.4812881    203.07959  0.065594183  0.069351593            1 
  259000    1.2139294   -4.4574847    203.94383  0.065618992  0.069328816            2 
  260000    1.2078981   -4.4885662    204.05509  0.065402272  0.069306664            3 
  261000    1.1988977   -4.4528403    204.65762  0.065344067  0.069280333            2 
  262000    1.2076235   -4.4528379    205.07254  0.065226635  0.069250932            1 
  263000     1.177708   -4.4348172    206.82695  0.065534523  0.069223419            3 
  264000    1.2074317    -4.479958     206.4391  0.065163856  0.069198263            4 
  265000    1.2130753   -4.4163014    208.05847  0.065427191   0.06917091            3 
  266000    1.2127594   -4.4853688    207.86846  0.065121699  0.069143651            1 
  267000     1.184563   -4.4593853    210.14136  0.065587192  0.069116542            3 
  268000    1.2050081   -4.4700056    208.80525  0.064927005  0.069086907            2 
  269000    1.2374846   -4.4641248      210.531  0.065220261  0.069056365            3 
  270000    1.1789959   -4.4934342    211.42679  0.065255181  0.069028224            3 
  271000    1.2149172   -4.4860477    212.24753  0.065266767   0.06900283            1 
  272000    1.1970834   -4.4927985    212.98824  0.065253749   0.06897938            2 
  273000     1.210492   -4.4583415    213.91489  0.065297585  0.068956335            2 
  274000    1.2184961    -4.459054    215.38206  0.065505493  0.068933475            2 
  275000    1.2238151    -4.475804    215.73908  0.065375479  0.068913206            5 
  276000    1.1918321   -4.4564974    216.74403  0.065442038  0.068892714            2 
  277000    1.1904081   -4.4436839    217.41442  0.065407467  0.068870295            2 
  278000    1.2089947   -4.4675535    218.37163  0.065459122  0.068850433            3 
  279000    1.2151783   -4.4822288      218.244  0.065186381  0.068825771            2 
  280000    1.2047437    -4.468859    219.50803   0.06532977  0.068802385            3 
  281000    1.1980329   -4.4838313    220.41501  0.065366255  0.068780278            3 
  282000    1.2144454   -4.4790483    221.47359  0.065447279   0.06875761            3 
  283000     1.198856   -4.4835995    222.22318  0.065436743  0.068738535            3 
  284000    1.2236727   -4.4581141    223.95398  0.065714196  0.068718988            2 
  285000    1.1907768   -4.5128905      223.383  0.065316668  0.068701337            2 
  286000    1.2027363   -4.4800097    225.92945  0.065830258   0.06868585            2 
  287000    1.1924677   -4.4824956    225.85725   0.06557992  0.068671182            4 
  288000    1.2085747   -4.4844117    226.25038  0.065465965  0.068651868            3 
  289000    1.2123524   -4.4321755    227.28493  0.065537753  0.068631609            1 
  290000    1.2142139   -4.4879244    227.27253  0.065308197  0.068612686            1 
  291000    1.2140102   -4.4983888    227.45977  0.065137391  0.068590671            3 
  292000    1.2100147   -4.4853132    228.21358  0.065129445  0.068568157            2 
  293000    1.1968651   -4.4877453    228.30258  0.064932473  0.068542521            3 
  294000    1.2006935   -4.4914089    230.75371   0.06540638  0.068521337            3 
  295000    1.1868102   -4.4989248    230.05312  0.064986757  0.068500412            3 
  296000    1.2179576   -4.4894798    231.15726  0.065078057  0.068477756            1 
  297000    1.2124184   -4.4986621    232.55684  0.065251637  0.068454258            2 
  298000    1.1892385   -4.4797671    233.04657  0.065169623  0.068431853            2 
  299000     1.219385   -4.5049178    233.14242  0.064978377  0.068410387            5 
  300000    1.2261176   -4.4794667    235.52589  0.065423859   0.06838894            2 
  301000    1.1998982   -4.5075616    235.21259  0.065119764  0.068367104            4 
  302000    1.1961035   -4.5064185    235.33852  0.064938886  0.068343887            3 
  303000      1.22886   -4.4688359    236.72214  0.065105098  0.068322532            8 
  304000    1.2032088   -4.5309537    237.23853  0.065032493  0.068300716            6 
  305000    1.2056131   -4.4803925    238.57714   0.06518501  0.068274949            2 
  306000    1.1982341   -4.4884637    238.27357  0.064889317  0.068248041            1 
  307000    1.1900334   -4.4882604    239.81515  0.065096403  0.068224347            1 
  308000    1.2441403   -4.5080901    239.98689  0.064931517  0.068200668            6 
  309000     1.195903    -4.505494    241.54471  0.065141508  0.068177613            1 
  310000    1.2202987   -4.4601557    242.19002  0.065104843  0.068156899            2 
  311000    1.1920748   -4.4957229    242.41468  0.064955701  0.068133533            2 
  312000    1.2221108   -4.4384202    243.38551  0.065006814  0.068110865            2 
  313000    1.1817553   -4.4939872    244.40572  0.065070745  0.068089773            2 
  314000    1.1765363   -4.5213371    244.24253  0.064820205  0.068067561            5 
  315000    1.1934762   -4.5030942    245.96708  0.065070656  0.068045077            2 
  316000     1.214726   -4.4954322    246.55837  0.065020668  0.068024674            2 
  317000    1.1911554   -4.5182178    246.47458  0.064793528  0.068002367            1 
  318000    1.1839169   -4.5040161    249.80376  0.065462201   0.06798165            2 
  319000    1.1793765   -4.4730887    249.86318  0.065272513  0.067962327            2 
  320000    1.1963484    -4.482109    250.01657   0.06510848  0.067944673            5 
  321000    1.2101457   -4.5278335    250.71334  0.065086538  0.067926163            2 
  322000    1.1911126   -4.4771971    253.07311  0.065495112  0.067906631            2 
  323000    1.1845567   -4.4934594    252.60676  0.065172022  0.067887862            1 
  324000     1.185175   -4.5085302    253.14852  0.065110216  0.067867331            2 
  325000    1.2277881   -4.4635955    254.96886   0.06537663  0.067848841            2 
  326000    1.1772692   -4.4685521    254.34545   0.06501673  0.067831668            4 
  327000    1.2025885   -4.5125596     254.7192   0.06491315  0.067812728            3 
  328000    1.1993939   -4.5004549    256.23019  0.065099133  0.067794393            4 
  329000    1.2143305   -4.5179936    257.34122  0.065182681  0.067775528            3 
  330000    1.2041819   -4.4901348    258.72753  0.065335235  0.067757292            4 
  331000    1.2132771   -4.5038404     258.3656  0.065046728   0.06774026            4 
  332000    1.1891671   -4.4925828    260.17603  0.065305229   0.06772644            3 
  333000    1.1926382   -4.4818774    260.82011  0.065270297   0.06771099            2 
  334000    1.2038177   -4.4927123    262.24967  0.065431555  0.067694834            2 
  335000    1.1919889     -4.50293    262.38517  0.065269942  0.067682043            2 
  336000    1.2124914     -4.47485    263.26804  0.065294653  0.067668584            3 
  337000    1.1970413   -4.5042216    264.12587  0.065313024  0.067655614            3 
  338000    1.2083031   -4.5511958    264.02681  0.065095368  0.067642565            2 
  339000    1.1837363   -4.4954175    265.83471  0.065347766  0.067630441            3 
  340000    1.2043639   -4.5008337    266.32028  0.065274579  0.067618668            1 
  341000    1.1936663   -4.5122703    267.26731  0.065314591  0.067608449            2 
  342000    1.1925024   -4.5037643    266.86994  0.065026789  0.067598175            3 
  343000    1.2039771   -4.5062778     267.8912  0.065085326  0.067586008            3 
  344000    1.1897454    -4.503427     269.4607  0.065276333  0.067574843            2 
  345000    1.1950947   -4.4917025    271.24299   0.06551763  0.067565101            2 
  346000    1.2103405   -4.5101351    271.34715   0.06535336  0.067553739            1 
  347000    1.1899078   -4.5160354    273.85348  0.065766925   0.06754575            1 
  348000    1.1846259   -4.5016512    273.32257  0.065450808  0.067538543            1 
  349000    1.2141598   -4.5135313     274.4029  0.065521227  0.067530069            1 
  350000    1.1749903   -4.4808375    275.13006  0.065507157  0.067521238            4 
  351000    1.1990278   -4.5429606    274.67252    0.0652119  0.067514689            3 
  352000     1.208752   -4.4807716    277.03005  0.065584765  0.067506582            2 
  353000     1.204571   -4.5318405    277.85648  0.065594069  0.067501312            2 
  354000    1.2014846   -4.4993661    278.39624  0.065535838  0.067494183            2 
  355000    1.2134475   -4.5054552    280.01353  0.065730876  0.067488694            1 
  356000     1.192072   -4.5060991    279.59014  0.065447129  0.067481851            2 
  357000    1.1732308    -4.502918    282.03097   0.06583356  0.067476697            6 
  358000    1.2203285   -4.4895823     282.7596  0.065819275  0.067473566            2 
  359000    1.1990788   -4.4850624    282.54605  0.065586362  0.067468808            3 
  360000    1.2067469   -4.5055029    284.15382  0.065776347  0.067461637            2 
  361000    1.1945575   -4.5121453    282.93872  0.065313646  0.067454481            3 
  362000     1.181417   -4.4630174      285.107  0.065632366  0.067446339            3 
  363000     1.167626   -4.5056729    284.68233   0.06535407  0.067437088            2 
  364000    1.1879223   -4.5295683    285.92671  0.065459411  0.067427602            4 
  365000    1.1783404   -4.5088475    285.42038  0.065164471  0.067417564            4 
  366000    1.1940615   -4.5112929    287.52156  0.065464835  0.067407181            2 
  367000    1.2133009   -4.4791252     289.5977  0.065757879  0.067398189            5 
  368000    1.2125065   -4.5030826    289.39032  0.065532228  0.067387234            2 
  369000    1.2001157   -4.4956038    287.84673  0.065006037  0.067372935            1 
  370000     1.206299   -4.5431977    288.55706  0.064990328  0.067356013            2 
  371000    1.1868284   -4.5160227     289.1737   0.06495366  0.067337671            2 
  372000    1.1944789   -4.5017511    290.49127  0.065074209  0.067321201            2 
  373000    1.1880268   -4.5265376    289.82648  0.064751225  0.067305253            3 
  374000    1.2077343   -4.4810773      292.101  0.065084892  0.067291136            2 
  375000    1.1950333   -4.5140364    292.04061  0.064897914  0.067277181            2 
  376000    1.2017301   -4.4784422    293.76241  0.065106917  0.067264624            3 
  377000    1.2087482   -4.5286237    293.74485  0.064930337  0.067249794            2 
  378000    1.1885204   -4.4920924    295.28032  0.065097071  0.067235208            2 
  379000    1.2047622    -4.486986    295.99348  0.065082119  0.067219669            2 
  380000    1.1978795   -4.5103201    296.37976  0.064995562  0.067203844            2 
  381000     1.202131   -4.5606661    296.15763  0.064776385  0.067188851            2 
  382000    1.1872472   -4.5238517    298.49945  0.065117682  0.067174382            5 
  383000    1.2149868   -4.5033633    298.15326  0.064872338  0.067161175            3 
  384000    1.1525704   -4.4989371    299.14029  0.064917598  0.067147472            1 
  385000    1.1734162   -4.4984589    299.73933  0.064878642  0.067135296            1 
  386000    1.1953175   -4.4961992    301.15268   0.06501569  0.067123433            3 
  387000    1.2127753   -4.4700915    302.53944  0.065146304  0.067111568            2 
  388000    1.2206995   -4.4910739    303.53619  0.065192481  0.067101443            2 
  389000    1.2084952     -4.48322    303.60098   0.06503877  0.067089476            3 
  390000    1.2024947   -4.5188127    305.98939  0.065382348  0.067077551            1 
  391000    1.2097138   -4.4729483    306.28196  0.065277484  0.067067392            1 
  392000    1.1861543     -4.52084    306.34773  0.065124942  0.067056732            2 
  393000    1.1860632   -4.4980681     307.9055  0.065289546     0.067047            2 
  394000    1.1808516   -4.5262757    308.27741  0.065202499  0.067035306            1 
  395000    1.2053821   -4.5029518    307.00712  0.064769434  0.067023347            4 
  396000    1.1895147   -4.5117198    308.63259  0.064947936  0.067010781            2 
  397000    1.2069472    -4.488609    309.82847  0.065035364  0.066999705            2 
  398000    1.2177697   -4.5103339    311.10808  0.065139883  0.066988066            2 
  399000    1.1916797   -4.5002447    311.46929  0.065052065  0.066978637            1 
  400000    1.1747517   -4.4808354     313.1394  0.065237375  0.066966204            2 
  401000    1.1485178   -4.5037864    312.26819  0.064893638  0.066955069            3 
  402000    1.2146931   -4.5143602    313.28062  0.064942085  0.066942613            2 
  403000    1.1994999   -4.5418609    312.63341  0.064647107  0.066929835            2 
  404000    1.2059167   -4.5456369    314.33571  0.064838223  0.066915611            4 
  405000    1.2066785   -4.5052417    316.17992  0.065057597  0.066903962            2 
  406000    1.1939448   -4.5056155    317.34034  0.065135537  0.066893833            1 
  407000    1.1713028   -4.5383302    317.15708  0.064937977  0.066882053            3 
  408000     1.180698   -4.5425606    317.21189   0.06479001  0.066870388            3 
  409000     1.161837   -4.5084227    319.49223  0.065096215  0.066859517            3 
  410000    1.1871117   -4.5391764     319.1964  0.064877318  0.066846033            3 
  411000    1.1916098   -4.4993392    320.25322  0.064933742  0.066832565            1 
  412000    1.1862039   -4.5323986    320.09656  0.064744449  0.066820996            4 
  413000    1.2000224   -4.5213996    319.59658  0.064486801  0.066808264            1 
  414000    1.1677658   -4.5395235    322.58595   0.06493276  0.066795769            1 
  415000    1.1760084   -4.4646056     323.4102  0.064941808  0.066784513            2 
  416000    1.1850087   -4.5095012    323.45803  0.064795279  0.066771254            3 
  417000     1.165724   -4.5159758    324.85135  0.064918336     0.066759            2 
  418000     1.157351   -4.5033938    325.94342  0.064980745  0.066746621            1 
  419000    1.1962447   -4.5170116    326.19221  0.064875142  0.066736364            2 
  420000    1.1621403   -4.5107621    326.13873  0.064710065  0.066724672            1 
  421000    1.1525588   -4.5023689    328.21972  0.064968274  0.066713341            2 
  422000    1.1656731   -4.5211513    327.63689  0.064699228  0.066701446            3 
  423000    1.2041629   -4.5236001    328.39291  0.064695215   0.06668824            4 
  424000    1.1863094   -4.5014649    329.50371  0.064760949  0.066675254            1 
  425000    1.1691166   -4.5057734    330.20951  0.064746963  0.066661597            2 
  426000    1.1770115   -4.5119646    330.44717  0.064641466   0.06664747            1 
  427000    1.1964777   -4.5032611     330.8074  0.064560382  0.066632562            3 
  428000    1.1897267   -4.5005472    333.58281  0.064949925  0.066618498            4 
  429000    1.1719228   -4.5016377    332.04344  0.064499503  0.066606592            9 
  430000    1.1731606   -4.5314504    334.68082  0.064860623  0.066593396            4 
  431000     1.184943   -4.5223867    334.14315  0.064606178   0.06657812            4 
  432000    1.1692536   -4.4976493    334.83427  0.064589943  0.066564415            3 
  433000    1.1993586   -4.5162058    335.50308  0.064569492  0.066551178            2 
  434000    1.1797527   -4.4722667    337.66422   0.06483568  0.066536789            1 
  435000    1.1575061    -4.535258     337.3764  0.064631495  0.066524412            2 
  436000    1.1318402   -4.5292145    339.74323  0.064935633  0.066512214            5 
  437000    1.1715409    -4.521167    339.98896  0.064833898  0.066499712            3 
  438000    1.1833742   -4.5207561    342.09178  0.065085954  0.066489392            5 
  439000    1.1926825   -4.5383772    341.66677  0.064857018  0.066477777            3 
  440000    1.1641332   -4.5312157    341.32668  0.064645205  0.066467869            2 
  441000    1.1761378    -4.543254    343.11143  0.064835872  0.066457803            2 
  442000    1.1771955     -4.51245    344.10124  0.064875799  0.066448874            2 
  443000      1.17102   -4.5175611    345.21781  0.064939392  0.066441356            2 
  444000    1.1889966   -4.5126669    346.74498  0.065079763  0.066433511            2 
  445000    1.1522004   -4.5002479    348.68018  0.065295914  0.066427227            5 
  446000    1.1701042   -4.5707193    346.34763  0.064713683  0.066419244            1 
  447000    1.1652953   -4.5387772    349.05633  0.065073887  0.066412015            2 
  448000    1.1564706   -4.5201743    349.35284  0.064983786  0.066405277            3 
  449000    1.1544638   -4.5195689    349.31404  0.064831856  0.066396354            3 
  450000    1.1651191   -4.5022355    350.31538  0.064873218  0.066386881            1 
  451000    1.1808317   -4.5026623    351.32467  0.064915866  0.066377283            1 
  452000    1.1721717   -4.5575029    350.50722  0.064621537  0.066367416            1 
  453000    1.1805648   -4.5456382    352.01315  0.064755914  0.066356709            3 
  454000    1.1741561   -4.5137031    352.46347  0.064695937  0.066347117            2 
  455000    1.1340906   -4.4881388    353.74426  0.064788327  0.066338011            2 
  456000    1.1876464   -4.5352375    355.52642  0.064971934  0.066329509            2 
  457000    1.1588251   -4.5589569    356.14765  0.064943043  0.066321015            2 
  458000    1.1788938   -4.5479056    354.15964  0.064439526  0.066312411            4 
  459000     1.177564   -4.5180913    357.89364  0.064977059  0.066302926            2 
  460000     1.187333   -4.4951967    357.23497   0.06471648   0.06629374            2 
  461000    1.1753242   -4.5715592    357.49149  0.064622468  0.066283476            3 
  462000    1.1914419   -4.5305946    359.01934  0.064758179  0.066272429            4 
  463000    1.1856765   -4.5477563    359.15308  0.064642383  0.066261528            1 
  464000    1.1644845   -4.5476375    359.01479   0.06447823  0.066249004            2 
  465000    1.1494627   -4.5182319    359.64142  0.064451867  0.066237704            2 
  466000    1.1894996   -4.5021646    362.56711  0.064836752  0.066225807            4 
  467000    1.1745212   -4.5305232    362.43302  0.064673987  0.066217207            2 
  468000    1.1637142   -4.5614951    364.00511  0.064815724  0.066206989            2 
  469000    1.1665501   -4.5251676     364.5812  0.064779887  0.066198526            1 
  470000     1.183917   -4.5282653    366.02244  0.064897596  0.066189647            1 
  471000    1.1701805   -4.5221911    367.28281  0.064982805  0.066181265            2 
  472000    1.2073148   -4.5177418    366.19497  0.064653068  0.066172375            2 
  473000    1.1766389   -4.5267422    366.00344  0.064482635    0.0661629            1 
  474000    1.1743375    -4.514307    367.34467  0.064582396  0.066152456            2 
  475000    1.1968293   -4.5151484    369.95849  0.064904999  0.066141541            2 
  476000    1.1653341   -4.5385261    368.80596  0.064566869  0.066131034            3 
  477000    1.1824754   -4.5591384    369.90608  0.064623704  0.066120276            2 
  478000    1.1836624   -4.5232232    371.14664  0.064704784  0.066109953            2 
  479000    1.1762521   -4.5059523     370.2551  0.064414596  0.066098615            1 
  480000    1.1645961   -4.5421199    370.48425  0.064320183  0.066086498            2 
  481000    1.1717892   -4.5259344    372.46198  0.064529103  0.066074318            1 
  482000    1.1504853   -4.5646862    371.42543  0.064216015  0.066062311            3 
  483000     1.177854   -4.5542094    374.59205  0.064629407  0.066050456            4 
  484000    1.1980653   -4.5185678    374.46847  0.064474599  0.066040729            2 
  485000    1.1795974    -4.520738     375.7085  0.064554725   0.06602989            3 
  486000    1.1449916   -4.5607677       375.07  0.064312414  0.066017698            2 
  487000    1.1807975   -4.5148153     377.1932  0.064543668  0.066006677            3 
  488000    1.1670672    -4.525539    376.21341  0.064244093  0.065996326            1 
  489000    1.1367795   -4.5171147    379.11516  0.064607219   0.06598649            2 
  490000    1.1723177   -4.5335889    378.28891  0.064334849  0.065974944            4 
  491000    1.1667303   -4.5087204    380.48257  0.064576132  0.065963571            4 
  492000    1.1793882   -4.5078169    380.01673  0.064365977  0.065951431            1 
  493000    1.1859057    -4.535233     380.8558  0.064377247  0.065939557            2 
  494000    1.1660612   -4.5058986    381.84798  0.064414302  0.065926621            3 
  495000    1.1722213   -4.5589303    382.55548  0.064403279  0.065914323            1 
  496000    1.1712133   -4.5433903    382.89849  0.064331064   0.06590216            4 
  497000    1.1901638   -4.5338274    383.05674  0.064228158  0.065889427            2 
  498000    1.1687172   -4.5416517        383.5   0.06417336  0.065875692            1 
  499000    1.1894124   -4.5678199    384.26765  0.064172955  0.065862392            2 
  500000    1.1825101   -4.5131098    386.01754  0.064336257  0.065849482            1 
  501000    1.1449318   -4.5538727    385.04813  0.064046595  0.065835269            3 
  502000    1.1917372   -4.5402911    387.41921  0.064312619  0.065822627            3 
  503000    1.1486549   -4.5470913    387.07742  0.064128135  0.065809462            2 
  504000    1.1805594   -4.5715975    387.79204  0.064119053  0.065794945            2 
  505000    1.1830233   -4.5274558    389.60697  0.064291579  0.065781439            2 
  506000    1.1782211   -4.5178308    389.10669  0.064082129  0.065767502            2 
  507000    1.1784258   -4.5206357    388.95907  0.063931472  0.065753952            2 
  508000    1.1892912   -4.5175608    392.75481  0.064428282  0.065741448            1 
  509000    1.1595696   -4.5687863    391.04426  0.064021654  0.065728818            3 
  510000    1.1701787   -4.5542224    391.35604  0.063947065  0.065716191            1 
  511000     1.179313    -4.539954    392.18928  0.063957808  0.065701858            4 
  512000    1.1517607   -4.5156842    392.68337  0.063913309  0.065687996            3 
  513000    1.1975991   -4.5866361     392.7887  0.063805832  0.065674126            2 
  514000    1.1457623   -4.5066974    394.43289  0.063948263  0.065658918            7 
  515000    1.1509912    -4.572355    393.83787  0.063727811   0.06564346            1 
  516000    1.1791582    -4.540204    394.99999  0.063791989   0.06562704            4 
  517000    1.1583986   -4.5443346    395.61048  0.063767002  0.065612359            3 
  518000    1.1798773   -4.5386013    396.55338  0.063795588  0.065597023            3 
  519000    1.1460932   -4.5250796    398.26887  0.063948116  0.065581963            2 
  520000    1.1762854   -4.5358674    398.24479   0.06382128  0.065566447            1 
  521000    1.1407968   -4.5343531    397.25933  0.063541159  0.065550521            2 
  522000    1.1716708   -4.5279664     400.4349  0.063926388  0.065535304            2 
  523000    1.1601984   -4.5888854    399.96981  0.063730053   0.06551839            4 
  524000     1.140528   -4.5272896    401.75851  0.063892893  0.065500842            2 
  525000    1.1536877   -4.5680885    400.47841  0.063568001  0.065484568            4 
  526000    1.1581397   -4.5391292    402.79101  0.063813532  0.065467185            3 
  527000     1.168299   -4.5421738    402.54869  0.063654125  0.065450338            2 
  528000    1.1924898   -4.5312674    403.57592  0.063695695  0.065433185            3 
  529000    1.1539483   -4.5436222    404.91398  0.063786071  0.065417815            2 
  530000    1.1649175    -4.545026     403.0401  0.063371086  0.065402305            2 
  531000    1.1917723   -4.5129953    405.19061  0.063589236   0.06538538            2 
  532000    1.1800781   -4.5725877    405.90809  0.063582094   0.06536944            2 
  533000    1.1621396   -4.5448537    407.10973  0.063650676  0.065353183            2 
  534000    1.1848582   -4.5171468    407.56683  0.063602814  0.065335733            1 
  535000    1.1723931   -4.5479525    408.44474  0.063620676  0.065321016            2 
  536000    1.1509319    -4.604004    406.19209  0.063151754  0.065305773            5 
  537000    1.1715672   -4.5300031    410.32188  0.063675028  0.065289374            6 
  538000     1.182693   -4.5860365    408.81301  0.063322956  0.065273868            1 
  539000    1.1484498   -4.5139431    413.06828   0.06386337  0.065258443            2 
  540000    1.1784752   -4.5472236    411.42048  0.063490815  0.065243382            1 
  541000    1.1601201   -4.5413121    414.02323  0.063774373  0.065228611            2 
  542000    1.1711957   -4.5446394    412.47236   0.06341826  0.065214048            2 
  543000    1.1628911   -4.5822545     413.8446  0.063512063  0.065197636            2 
  544000    1.1709484   -4.5507447    415.61624  0.063666704  0.065182341            3 
  545000    1.1684749   -4.6003364    413.31773   0.06319843  0.065166619            3 
  546000    1.1546938   -4.5770387    414.52719  0.063267275  0.065150298            2 
  547000    1.1638367   -4.5866303    416.47885  0.063448941  0.065134686            4 
  548000    1.1613196   -4.5432342    418.04031  0.063570606  0.065119153            3 
  549000    1.1680091   -4.5349957    418.21256   0.06348096   0.06510288            2 
  550000    1.1539064   -4.5814968    417.28547  0.063225071  0.065086533            3 
  551000    1.1672356   -4.5946684    417.36807  0.063122817  0.065069329            3 
  552000    1.1584304   -4.5490823    420.45868  0.063475042  0.065052501            4 
  553000     1.167811    -4.537628    420.04019  0.063297196  0.065036536            2 
  554000    1.1662889   -4.5606048    421.70816  0.063433838   0.06502003            2 
  555000    1.1564613   -4.5432617    424.41705  0.063726284   0.06500518            2 
  556000    1.1690821   -4.5681025     422.9327  0.063389194  0.064990521            1 
  557000     1.161418   -4.5209491    423.62134  0.063378418  0.064976075            2 
  558000    1.1596931   -4.5497661    423.81259  0.063293398  0.064961342            2 
  559000    1.1743457   -4.5606511    426.88078  0.063637563  0.064945645            1 
  560000    1.1507391   -4.5703848    426.32435  0.063441123  0.064931194            2 
  561000    1.1355117   -4.6011666    425.46767  0.063200783   0.06491653            5 
  562000     1.189838   -4.5643748    426.65817  0.063264853  0.064901413            3 
  563000    1.1855845   -4.5363533    427.92132  0.063339449  0.064886348            1 
  564000    1.1607915   -4.5575624     428.3145   0.06328524  0.064871892            2 
  565000    1.1653653   -4.5444922    429.88396  0.063404714  0.064856291            1 
  566000    1.1657067     -4.59514    428.38208  0.063071567  0.064840371            3 
  567000    1.1747857   -4.5656349    427.87346  0.062885577  0.064822767            4 
  568000    1.1659079   -4.5065167    432.59208  0.063467149  0.064805429            2 
  569000    1.1760465   -4.5664663    430.84444  0.063099655  0.064788519            2 
  570000    1.1339984   -4.5505441    429.18108  0.062745771  0.064769822            5 
  571000    1.1525126   -4.5463574    431.22484  0.062934157  0.064751731            4 
  572000    1.1518608   -4.5369167    433.89021  0.063212443  0.064734996            2 
  573000    1.1472593   -4.5832129    433.21519  0.063003954  0.064719303            2 
  574000    1.1645764   -4.5564987    434.20603  0.063038042   0.06470251            3 
  575000    1.1678589   -4.5512125    435.13118   0.06306249  0.064685118            3 
  576000    1.1695992   -4.5504499    435.22806  0.062967023  0.064668808            2 
  577000    1.1618118   -4.5848907    435.02859  0.062829086   0.06465365            1 
  578000    1.1803941   -4.5593077    438.70644  0.063250641  0.064637891            2 
  579000    1.1697212   -4.5727368    438.66036  0.063134767   0.06462214            4 
  580000    1.1650951   -4.5680662    438.21737  0.062962266  0.064607407            2 
  581000    1.1521621   -4.6010972     439.1292  0.062984682  0.064593019            2 
  582000    1.1510629   -4.5651082    440.14584  0.063022027  0.064579301            2 
  583000    1.1510048   -4.5667888    442.93745  0.063312958  0.064565301            2 
  584000    1.1510617   -4.5678589    442.82218  0.063188096  0.064551257            1 
  585000    1.1532438   -4.5819784    443.28109  0.063145455   0.06453651            3 
  586000    1.1435788   -4.5541614     443.6638  0.063092122  0.064521919            2 
  587000    1.1554861    -4.560793    444.02852  0.063036417  0.064506657            1 
  588000    1.1553602   -4.5463227    446.26816  0.063246621  0.064490871            3 
  589000    1.1310072   -4.5759098    446.09499  0.063114741  0.064476056            2 
  590000    1.1436919   -4.5637164    446.13861  0.063013928  0.064461943            6 
  591000     1.180285   -4.5829538    446.60754  0.062973427  0.064446458            5 
  592000    1.1645353   -4.5493476     446.9917  0.062921129  0.064430803            4 
  593000    1.1272342   -4.5559498    447.01003  0.062817599  0.064415095            1 
  594000    1.1429919    -4.583046    446.70948   0.06266968  0.064397399            3 
  595000    1.1652662   -4.5916314    448.81942  0.062859863  0.064379701            3 
  596000    1.1395838   -4.5632691    449.06664   0.06278896   0.06436357            1 
  597000    1.1432135   -4.5829747    448.74607  0.062639039  0.064347289            4 
  598000    1.1511721   -4.5560175    450.91064   0.06283593  0.064330912            3 
  599000    1.1560316   -4.5778439    452.45845  0.062946362   0.06431522            1 
  600000    1.1592371   -4.5549869    452.03439  0.062782554  0.064298906            1 
  601000    1.1502319   -4.5472858    454.21378   0.06298028   0.06428224            4 
  602000    1.1243166   -4.6004883    450.78066  0.062400424  0.064265563            2 
  603000    1.1338536   -4.5779758     453.1264  0.062621116  0.064249005            2 
  604000    1.1678711   -4.5751978    453.80048  0.062610442  0.064232239            2 
  605000    1.1814988   -4.5698603    456.41742  0.062867413  0.064215479            3 
  606000    1.1519058   -4.5995523    454.46409  0.062495062   0.06419828            3 
  607000     1.138357   -4.5372935    454.65671  0.062418549  0.064180555            2 
  608000    1.1601839   -4.5768565    456.18583  0.062525471  0.064163352            1 
  609000    1.1476427   -4.5589883     457.7218  0.062632977  0.064145156            1 
  610000    1.1437052   -4.5712658    457.67539  0.062523961  0.064127439            2 
  611000     1.139506   -4.6030958    456.31335  0.062235863  0.064109772            3 
  612000    1.1382457   -4.5849541    458.33568  0.062409542  0.064091887            2 
  613000    1.1597119   -4.5605053     459.0978  0.062411337  0.064073918            2 
  614000    1.1505183   -4.6213374    458.30661  0.062202308  0.064054487            2 
  615000    1.1391776   -4.5768496    460.97835  0.062463191  0.064034721            2 
  616000    1.1580225   -4.5578855    460.52274  0.062300154  0.064015428            2 
  617000    1.1587691   -4.5641208    458.84447  0.061972511  0.063995849            1 
  618000    1.1357433   -4.5580378    460.48692  0.062093705  0.063976422            2 
  619000    1.1745187   -4.5965462    459.94792  0.061920829  0.063955901            3 
  620000    1.1793514   -4.5824845    461.46822  0.062025298  0.063935798            2 
  621000    1.1434699   -4.5522431    463.96006  0.062259803  0.063915426            2 
  622000    1.1283083   -4.5656483     463.2585  0.062065716  0.063895545            2 
  623000    1.1405195   -4.5727184    461.51786  0.061733262   0.06387476            3 
  624000    1.1583401   -4.5860346    465.14923  0.062119288  0.063854693            4 
  625000    1.1631567   -4.5618729    465.81755  0.062109007  0.063834171            2 
  626000    1.1726833   -4.6162705     464.7397  0.061866307  0.063812722            1 
  627000    1.1457724   -4.6190837    464.49213  0.061734733  0.063791307            3 
  628000    1.1503808   -4.5953358    465.07453  0.061713711  0.063769391            1 
  629000    1.1540947   -4.6074729    465.66442  0.061693749  0.063748186            1 
  630000    1.1485515   -4.5639353    468.62555  0.061987506  0.063726871            4 
  631000    1.1590377   -4.5686225    467.85929  0.061788073  0.063706809            2 
  632000    1.1282383   -4.5607432    466.89919  0.061563712  0.063686717            1 
  633000     1.153267   -4.5834161    468.93648   0.06173466  0.063666641            2 
  634000    1.1393319   -4.5581386    469.58279  0.061722238  0.063645825            1 
  635000    1.1495381   -4.5718707    469.22726  0.061578381  0.063625123            3 
  636000    1.1608695   -4.5708837    470.28273  0.061619854  0.063604022            3 
  637000    1.1552177   -4.5542543    471.48357  0.061680216  0.063583828            1 
  638000    1.1256196   -4.5682239     472.0526  0.061657863  0.063563932            2 
  639000    1.1355444   -4.5787983    475.42908  0.062001706  0.063544698            2 
  640000    1.1752865   -4.5856178    474.44883  0.061777191  0.063524601            1 
  641000    1.1778689   -4.5717853    473.42963  0.061548314  0.063504749            3 
  642000    1.1469886   -4.5901892    475.10593  0.061670032  0.063484605            3 
  643000    1.1695008   -4.5856162    476.69377  0.061779908  0.063465214            1 
  644000     1.144154   -4.5848101      475.927  0.061584757  0.063446516            2 
  645000    1.1491184   -4.5525274    479.28589  0.061923241  0.063427202            1 
  646000    1.1537878   -4.5591049    480.38101  0.061968655  0.063409919            2 
  647000     1.143992   -4.5697369    481.27903  0.061988541  0.063392577            2 
  648000    1.1584859   -4.5583349    480.88746  0.061842523  0.063376021            2 
  649000    1.1525354   -4.5828921    480.62765  0.061713874  0.063358656            2 
  650000    1.1521256   -4.5640994    482.51602  0.061861029  0.063340453            4 
  651000    1.1412779   -4.5673651    482.65382  0.061783643  0.063324247            4 
  652000    1.1565749   -4.5668064    485.14524  0.062007316  0.063307337            3 
  653000    1.1295119   -4.5486521    488.13229  0.062293554  0.063291189            3 
  654000    1.1220954   -4.5768559    485.15852  0.061819383  0.063274801            2 
  655000    1.1336855   -4.6064817    484.82949  0.061683141  0.063257513            4 
  656000    1.1582955   -4.5691477    487.12806  0.061881105  0.063240962            3 
  657000    1.1637469   -4.6219382    485.77786  0.061615659  0.063223676            3 
  658000    1.1505801   -4.6061175     487.9992  0.061803343  0.063207314            3 
  659000    1.1483551    -4.590185    488.42085  0.061762879  0.063190751            3 
  660000    1.1794414   -4.6203564     487.8185  0.061593245  0.063173797            5 
  661000     1.114477   -4.5825973     490.5234  0.061841075  0.063156453            4 
  662000    1.1335193    -4.576738    489.65934   0.06163889  0.063139579            5 
  663000    1.1443831   -4.6154177    489.97507  0.061585605  0.063123358            5 
  664000    1.1333513    -4.598357    492.95346  0.061866649  0.063106843            2 
  665000    1.1368413   -4.5897678    492.96384  0.061774917  0.063092003            2 
  666000    1.1287417   -4.5705416    494.31513  0.061851243  0.063077953            2 
  667000    1.1466407   -4.6229427    495.05743  0.061851254  0.063063405            3 
  668000    1.1525066   -4.6015337    495.64606  0.061832094  0.063048419            3 
  669000    1.1657646   -4.5562515    496.91959  0.061898304  0.063033496            5 
  670000    1.1544715   -4.6040473    496.10716   0.06170487  0.063018822            2 
  671000    1.1219806   -4.5933007    497.85034  0.061829401  0.063004393            1 
  672000    1.1757244   -4.5986581    496.60462  0.061582914  0.062990903            3 
  673000    1.1179432   -4.5788649      499.252  0.061819218  0.062976612            2 
  674000    1.1393709   -4.6002892    500.21493  0.061846554  0.062962599            2 
  675000    1.1763135   -4.5838774    502.15592  0.061994558  0.062947693            2 
  676000    1.1700221   -4.5470774    503.87264  0.062114477  0.062934129            2 
  677000    1.1455188   -4.5645841    502.31159  0.061830575  0.062920476            2 
  678000    1.1326319   -4.5925278     501.1689  0.061598931   0.06290628            6 
  679000    1.1412538   -4.6111446    501.15533  0.061506545  0.062892554            2 
  680000    1.1301676   -4.5652794    504.37754  0.061810973  0.062878438            2 
  681000    1.1466958   -4.5880521    504.95138  0.061790429  0.062864511            4 
  682000    1.1275035   -4.5904336    507.56545  0.062019238  0.062851121            4 
  683000    1.1617954   -4.5455704    506.14653  0.061755312  0.062837703            4 
  684000     1.121826   -4.5938427     507.6662   0.06185017  0.062824275            3 
  685000    1.1353325   -4.5969563    507.30199  0.061715571  0.062810771            2 
  686000    1.1643192   -4.5873967    509.28414  0.061866392  0.062797414            1 
  687000    1.1491522   -4.5765373    511.31709  0.062022937   0.06278537            3 
  688000    1.1427538   -4.5922229    510.02489   0.06177627  0.062772693            3 
  689000    1.1355164   -4.5715395    509.97417  0.061680475  0.062759489            3 
  690000    1.1426442   -4.5659985    513.18089  0.061978368  0.062745998            3 
  691000    1.1344556   -4.5606958    514.40883  0.062036762  0.062733578            3 
  692000    1.1542265    -4.602588      511.829  0.061636441  0.062720919            3 
  693000    1.1417367   -4.5844739    514.27673  0.061841839  0.062708416            3 
  694000    1.1405933   -4.5807405    515.94079  0.061952544  0.062694964            3 
  695000    1.1561727   -4.5822345    513.97462  0.061627652   0.06268249            2 
  696000    1.1654428   -4.6005209    514.67967  0.061623523  0.062668842            3 
  697000    1.1457996   -4.5949433    516.17739  0.061714179  0.062655777            3 
  698000    1.1308629   -4.6100816    517.58922  0.061794319  0.062643378            3 
  699000    1.1509695   -4.6065962    516.64971  0.061593909  0.062630054            5 
  700000    1.1061439   -4.5923927    518.76221  0.061757406  0.062617397            2 
  701000    1.1316245   -4.5808756    520.03848  0.061821027  0.062605419            4 
  702000    1.1392775   -4.5963025    521.21841   0.06187303  0.062594317            3 
  703000    1.1064959   -4.5863289    520.61693  0.061713719  0.062582545            3 
  704000     1.150137   -4.6370817    521.38841  0.061717379   0.06257105            2 
  705000    1.1353869   -4.6300559    522.79256  0.061795811  0.062560293            1 
  706000    1.1633752    -4.591182      524.794  0.061944523  0.062549154            4 
  707000    1.1340977    -4.602772    521.75155  0.061498296    0.0625386            2 
  708000    1.1631957   -4.5935606    526.05546  0.061918015  0.062527557            2 
  709000    1.1379612   -4.5774811    525.13113  0.061722041  0.062516776            2 
  710000    1.1146267   -4.5667817    530.04665  0.062212048  0.062506274            3 
  711000    1.1336052   -4.5885228    525.48501  0.061589898  0.062495147            3 
  712000    1.1511463   -4.6185894    526.12566  0.061578378  0.062483649            3 
  713000    1.1300184    -4.628105    525.95121  0.061471624  0.062471292            2 
  714000    1.1468455   -4.6073327    529.24476   0.06176993  0.062459609            2 
  715000    1.1408623   -4.5725413    531.53433  0.061950388  0.062447791            4 
  716000    1.1120876    -4.612668    527.47499  0.061391409  0.062435915            2 
  717000    1.1223886   -4.6448728    526.67186  0.061212443   0.06242231            2 
  718000    1.1439048   -4.6166057    528.23659  0.061308796  0.062409595            2 
  719000    1.1452594   -4.6025843    530.20455  0.061451617  0.062396265            3 
  720000    1.1413658   -4.5767019    531.61768  0.061529824  0.062383338            4 
  721000    1.1272351   -4.6048845    532.81654  0.061583049  0.062370126            4 
  722000    1.1591752   -4.6023753    534.76734  0.061722916  0.062356968            2 
  723000    1.1298749   -4.5780086     534.3405  0.061588347  0.062344461            2 
  724000    1.1519011   -4.5910136    533.66366  0.061425375  0.062330763            3 
  725000    1.1391945   -4.6176528    532.04533  0.061154636  0.062317298            3 
  726000    1.1478852   -4.6003205    533.22499  0.061205807  0.062303783            1 
  727000    1.1400886   -4.6255944    536.46917  0.061493485  0.062291176            8 
  728000    1.1593301   -4.5986885    537.76886  0.061557791  0.062278315            2 
  729000    1.1257718   -4.5666947    540.04695  0.061733762  0.062266093            2 
  730000    1.1134736   -4.5806893    539.37725  0.061572745  0.062254906            2 
  731000    1.1324755   -4.5700828    541.81791  0.061766748   0.06224381            1 
  732000    1.1197262   -4.5824554    541.96526  0.061699141  0.062232805            1 
  733000    1.1124554   -4.6270752    541.30554  0.061539966   0.06222219            2 
  734000    1.1504255   -4.6393168    540.80638  0.061399452  0.062210894            1 
  735000    1.1614723   -4.6129958    544.33643  0.061716148  0.062199813            5 
  736000    1.1482529   -4.5789461     544.1918  0.061615919  0.062189258            1 
  737000    1.1233908   -4.6044854    547.59378  0.061916981  0.062179377            2 
  738000    1.1543487   -4.6357254    545.34791  0.061579483  0.062169212            2 
  739000    1.1365525   -4.6209202    546.32588  0.061606437  0.062159111            4 
  740000    1.1257147    -4.643649    547.62079  0.061669008  0.062148648            2 
  741000    1.1432222   -4.5929897    550.37057  0.061895026   0.06213885            3 
  742000     1.139269   -4.6512317    548.05059  0.061551055  0.062128938            3 
  743000     1.158245   -4.6453193    549.58476  0.061640283  0.062118876            3 
  744000    1.1261367   -4.5634629    550.73702  0.061686494  0.062108988            1 
  745000    1.1373121   -4.6020452    549.42479  0.061456912  0.062098716            5 
  746000    1.1549728   -4.5849937    554.65136  0.061958374  0.062089366            3 
  747000    1.1417956   -4.6182517    551.69888   0.06154606  0.062079598            3 
  748000    1.1236582   -4.5921899    553.61802  0.061677587  0.062069765            3 
  749000    1.1472519   -4.6180063    550.07148  0.061200654  0.062059798            4 
  750000    1.1301755   -4.5916705    553.92454  0.061547171  0.062049208            6 
  751000    1.1471042   -4.6210778    552.19192   0.06127296  0.062037557            2 
  752000    1.1393196   -4.6569199    553.23797  0.061307399   0.06202653            4 
  753000    1.1093697     -4.61037    554.37793  0.061352139  0.062015698            1 
  754000    1.1275852   -4.6381931    555.35158   0.06137838  0.062004331            4 
  755000    1.1259521   -4.5765609    554.92985  0.061250536  0.061992431            2 
  756000     1.139996    -4.609373    554.81739  0.061157119  0.061980444            4 
  757000    1.1273566    -4.623194    555.78862  0.061183248   0.06196765            3 
  758000    1.1253055   -4.6350125    555.95816  0.061121169  0.061955341            2 
  759000    1.1511025   -4.6195482    555.98703   0.06104381  0.061942836            2 
  760000    1.1447302   -4.6351322    556.86454  0.061059708  0.061930487            8 
  761000     1.118242   -4.6474302    558.04939   0.06110922  0.061917395            3 
  762000    1.1380767   -4.6030289    557.31848   0.06094909  0.061903286            4 
  763000    1.1500066   -4.5931951    557.91753  0.060934636  0.061890378            2 
  764000    1.1352255   -4.6588871      556.726  0.060724912  0.061877294            7 
  765000     1.147503   -4.6100707    559.64819  0.060963855  0.061863667            3 
  766000    1.1361029   -4.6087497    559.20168  0.060835692  0.061850486            3 
  767000    1.0916483   -4.6354939    560.23917  0.060869097  0.061836498            2 
  768000    1.1142432   -4.5933987    561.27506  0.060902242   0.06182307            6 
  769000    1.1240667    -4.608809    561.82985  0.060883166  0.061808933            2 
  770000    1.0999808   -4.6080783    560.45571   0.06065538  0.061794645            2 
  771000    1.1268831   -4.6322832    562.89024  0.060839844  0.061780994            5 
  772000    1.1296073   -4.5838511    563.78976  0.060858134  0.061767172            2 
  773000    1.1307066   -4.5995749    562.84207  0.060677239  0.061752822            1 
  774000    1.1156298   -4.5978689    565.00106  0.060831294    0.0617393            3 
  775000    1.1246138   -4.5817484    566.20229  0.060881966  0.061725675            3 
  776000    1.0996354   -4.6378876    564.62455   0.06063408  0.061711628            2 
  777000    1.1047286   -4.6058517    566.77106  0.060786257  0.061697152            1 
  778000    1.1470894   -4.6325208    566.42415  0.060670967  0.061683934            2 
  779000    1.1138616   -4.6180187    568.78417  0.060845547  0.061670002            1 
  780000    1.1237785   -4.5882127    570.67241  0.060969274  0.061656892            4 
  781000    1.1164894   -4.6258143    570.07258  0.060827207  0.061643504            3 
  782000    1.1339939   -4.5983406    568.64952  0.060597775  0.061630567            4 
  783000    1.1279152   -4.6022002     569.2321  0.060582386  0.061617296            3 
  784000    1.1378451   -4.6238104    568.99661  0.060480082  0.061603667            2 
  785000    1.1496634   -4.6131513    572.84827  0.060811919  0.061590209            2 
  786000    1.1267257   -4.6324135    571.73406  0.060616419  0.061576368            2 
  787000    1.1210618   -4.6111226    574.47564  0.060829695  0.061563659            4 
  788000    1.1340265    -4.632728    572.93459  0.060589529  0.061550309            1 
  789000     1.127958     -4.64072    571.78811  0.060391647   0.06153629            2 
  790000    1.1392729   -4.6260136    574.58278  0.060609998  0.061522436            3 
  791000    1.0954669   -4.6317071    575.49132   0.06062909  0.061508859            2 
  792000    1.1438776   -4.6221236    576.53845  0.060662715  0.061495549            2 
  793000    1.1234054   -4.6445844    576.67258  0.060600313  0.061483166            2 
  794000    1.1406566   -4.6435398    576.46789  0.060502507  0.061469946            1 
  795000    1.1171218   -4.6600655    577.83764  0.060569984  0.061456823            1 
  796000    1.1420416   -4.6498588    576.75819  0.060380883   0.06144348            3 
  797000    1.1150258   -4.6361255    578.69738  0.060507882  0.061430165            6 
  798000    1.1262139   -4.6245956    581.52626  0.060727471  0.061416796            3 
  799000    1.1085149   -4.6258852    579.94121   0.06048615  0.061402773            3 
  800000    1.1383504   -4.5873393    582.97537  0.060726601  0.061389216            4 
  801000    1.1353123   -4.6252433    581.01088  0.060446409  0.061375724            3 
  802000    1.1066953   -4.6393721    580.26608  0.060293649  0.061361821            6 
  803000    1.1087288   -4.6488287    582.64397  0.060465336   0.06134775            4 
  804000    1.1373752   -4.6230608    580.67568   0.06018612  0.061333561            4 
  805000    1.1326638   -4.6455535    582.91276  0.060342936  0.061318764            2 
  806000    1.1290874    -4.630933    584.24496  0.060405806  0.061303745            3 
  807000    1.1470066   -4.6282601    585.97357  0.060509456  0.061289391            2 
  808000    1.1177536   -4.6224433     583.8342  0.060213924  0.061275118            2 
  809000    1.1122812   -4.6226376    585.09688   0.06026956  0.061261603            2 
  810000     1.116544   -4.6072441    587.06868  0.060398013  0.061247542            3 
  811000    1.1544829   -4.6211127    586.57814  0.060273134  0.061233388            2 
  812000    1.1166012   -4.6719977    584.60622  0.059996534  0.061219271            4 
  813000    1.1363641   -4.6427626    587.55214  0.060224696  0.061204379            2 
  814000    1.1214219   -4.6242254    585.04454  0.059893995  0.061189765            2 
  815000    1.1274533   -4.6406128    587.73179  0.060095275  0.061174659            2 
  816000    1.1207175   -4.6324654    589.55894  0.060208225  0.061159326            5 
  817000    1.0766091   -4.6659256    589.27066  0.060105127  0.061144887            5 
  818000    1.1065178   -4.6283281    588.87251  0.059991087  0.061129457            9 
  819000    1.0953882   -4.6716036    588.38953  0.059868694  0.061114039            4 
  820000    1.1241091   -4.6646259     591.5612  0.060118008   0.06109872            2 
  821000    1.1256193     -4.64379    589.69512  0.059855372  0.061083183            5 
  822000    1.1087862   -4.6624488    591.11461  0.059926461  0.061067837            2 
  823000    1.1230971   -4.5945757    594.67016  0.060213666  0.061052472            4 
  824000    1.1065457   -4.6635427    594.11764  0.060084712  0.061038163            2 
  825000    1.1368578   -4.6258881    592.88603  0.059887477  0.061022971            3 
  826000     1.099165   -4.6105599    596.89926  0.060219861  0.061008447            2 
  827000    1.1293717    -4.622256    595.39423  0.059995388   0.06099407            2 
  828000    1.1167488   -4.6315508    595.21422  0.059904813  0.060979405            4 
  829000    1.1205503   -4.6329462    598.87413  0.060200456  0.060965232            2 
  830000     1.119437   -4.6322952    597.07864  0.059947654  0.060951696            2 
  831000    1.1101811   -4.6221704    596.92927  0.059860537  0.060936468            5 
  832000    1.1068036   -4.6172444    598.54765  0.059950686  0.060921208            5 
  833000    1.1208858   -4.6665505    599.14066  0.059938041  0.060906002            2 
  834000    1.1347212   -4.5629204    599.50498  0.059902576  0.060890766            1 
  835000    1.1474159   -4.6444151    600.03438   0.05988367  0.060876662            2 
  836000    1.1045593   -4.6178581    598.84797  0.059693777  0.060862333            2 
  837000    1.1326274    -4.639582    601.08603  0.059845283  0.060848013            3 
  838000    1.1367468   -4.6754713    600.35854  0.059701526  0.060832789            1 
  839000    1.1317347   -4.6386207    599.78698  0.059573597  0.060817614            3 
  840000    1.1127497   -4.6275324    602.30565  0.059752545   0.06080296            2 
  841000    1.1337508   -4.6154195     603.6024  0.059809988  0.060787738            3 
  842000    1.0997607   -4.6487322    603.21821  0.059700931  0.060771881            2 
  843000    1.1269905   -4.6177465    603.55471  0.059663375  0.060756043            3 
  844000    1.1295659   -4.6395836    602.28055  0.059466879  0.060740743            2 
  845000    1.1032133   -4.6716163    603.79871  0.059546224  0.060725477            2 
  846000    1.1161689   -4.6122869    607.19951  0.059810827  0.060710318            3 
  847000    1.1108224   -4.6472994    608.37844  0.059856203  0.060695596            3 
  848000    1.1321873   -4.6238794    606.41202  0.059592376  0.060681582            1 
  849000    1.1180204   -4.6368512    609.83433    0.0598581  0.060666928            2 
  850000    1.1338216   -4.6216544     610.6437  0.059867029  0.060651824            3 
  851000    1.1277747   -4.5987892    608.59811  0.059596368  0.060637489            1 
  852000    1.1138062   -4.6356241    610.46383  0.059708904  0.060623306            7 
  853000    1.1173454   -4.6591203    610.28104  0.059621047  0.060608789            1 
  854000    1.1104358   -4.6306313    610.75388  0.059597373  0.060594244            2 
  855000      1.11756   -4.6504817     613.8981  0.059834123  0.060579795            1 
  856000    1.1209824   -4.6445041    612.38215  0.059616643  0.060565259            5 
  857000    1.1075219    -4.637673    612.94964   0.05960226  0.060550847            2 
  858000    1.0986314   -4.6242585    614.64563  0.059697516  0.060536002            2 
  859000    1.1173636   -4.6422975    614.84665  0.059647521  0.060521103            2 
  860000    1.1058149   -4.6113909    613.89674  0.059486118  0.060505922            4 
  861000    1.1148281   -4.6348033    617.78248  0.059793116  0.060491613            1 
  862000    1.0994693   -4.6309651     618.2182  0.059765874   0.06047762            2 
  863000    1.1190605   -4.6567627    614.58706  0.059345989  0.060462568            2 
  864000    1.1109109   -4.6552685    617.86592   0.05959355  0.060448113            2 
  865000    1.1077048   -4.6335076     618.2435  0.059561031  0.060434218            3 
  866000    1.1063416   -4.6547777    618.74187  0.059540211  0.060419549            1 
  867000     1.098858   -4.7022023    619.16641  0.059512342  0.060405462            1 
  868000    1.0918038   -4.6355717    619.91894  0.059516028  0.060391132            2 
  869000    1.1168597   -4.6190366    620.73669  0.059525958  0.060376693            2 
  870000    1.1110207   -4.6464536    621.27082  0.059508699   0.06036275            3 
  871000     1.113033   -4.6341553    620.27968  0.059345549  0.060347725            2 
  872000    1.1027891   -4.6378108     623.5285  0.059587968  0.060333114            5 
  873000    1.0999001   -4.6553468    622.25897  0.059398527  0.060318977            2 
  874000    1.1521814   -4.6459866    622.68911  0.059371578  0.060304751            5 
  875000    1.1154616   -4.6672469    624.02974  0.059431404  0.060290386            4 
  876000    1.1146881   -4.6704721    624.40117  0.059398894  0.060275432            4 
  877000    1.1311451   -4.6722699    624.46488  0.059337218  0.060260417            4 
  878000    1.1067761   -4.6571454    623.27893  0.059157074  0.060246808            5 
  879000    1.1150176   -4.6455345    624.45734  0.059201492  0.060232563            5 
  880000    1.1033563   -4.6455649    626.18763  0.059298071  0.060217895            3 
  881000    1.1390279   -4.6911988    627.84325  0.059387368  0.060203532            4 
  882000    1.1383137   -4.6373159    629.25954  0.059453849  0.060189514            2 
  883000    1.0899023    -4.645507    628.71372  0.059335005  0.060174961            2 
  884000    1.1013784   -4.6649713    628.22618  0.059221925  0.060159884            2 
  885000    1.1294886   -4.6435277    628.84039  0.059212843  0.060145039            2 
  886000    1.1214403   -4.6501532    629.51732   0.05920968  0.060130965            4 
  887000    1.1233274   -4.6318268    631.79863  0.059357256  0.060116913            2 
  888000    1.1084457   -4.6436144    633.51533  0.059451513  0.060102419            4 
  889000    1.1171125   -4.6387258    633.67715  0.059399808  0.060088064            2 
  890000    1.1056523   -4.6460233    633.02232  0.059271752  0.060072864            3 
  891000     1.106963   -4.6642838    631.29625  0.059043794  0.060057836            1 
  892000    1.1107614   -4.6489288    631.81109    0.0590257  0.060042684            2 
  893000    1.1193339    -4.654218    632.05009  0.058981905  0.060027784            4 
  894000    1.0823325   -4.6582357    633.76374  0.059075666  0.060012562            3 
  895000    1.0981202   -4.6392852    633.06056  0.058944186  0.059996875            3 
  896000    1.1063009   -4.6591957    632.26341  0.058804261  0.059981749            3 
  897000    1.1089815   -4.6230917    634.22121  0.058920588  0.059965611            1 
  898000    1.1181834   -4.6693028    631.75236  0.058625869  0.059949486            4 
  899000     1.111653   -4.6382987    635.33049  0.058892333  0.059933837            2 
  900000    1.1140944   -4.6762397    633.38121  0.058646408  0.059917373            4 
  901000     1.106469   -4.6338899    637.47204  0.058959678  0.059901916            2 
  902000    1.1356086   -4.6221816    636.68394  0.058821503  0.059886201            2 
  903000    1.1050792   -4.6589114     639.5565  0.059021456   0.05987054            3 
  904000    1.1024255   -4.6540983    639.36745   0.05893874   0.05985529            3 
  905000    1.1196646   -4.6675573    641.03803  0.059027443  0.059840365            1 
  906000    1.0873691   -4.6477601    642.87528   0.05913128  0.059825288            4 
  907000    1.1236387   -4.6692945    640.64122  0.058860825  0.059810338            6 
  908000    1.1035483   -4.6593553    640.74785  0.058805786  0.059795005            2 
  909000    1.1189739   -4.6315668    641.28346  0.058790196  0.059779053            4 
  910000    1.0972273   -4.6689665     642.7269  0.058857775  0.059763749            1 
  911000    1.0990517   -4.6906699    641.39452  0.058671288  0.059748153            4 
  912000    1.1349162   -4.6767678    641.90014  0.058653156  0.059731868            2 
  913000     1.123772   -4.6721478    643.41191  0.058726899  0.059716792            3 
  914000    1.1346448   -4.6724619    643.03626  0.058628397  0.059701009            3 
  915000    1.0898321   -4.6548582    644.24484  0.058674394   0.05968522            2 
  916000    1.0868829   -4.6606371    644.54173  0.058637348  0.059669987            2 
  917000    1.1080701   -4.6577654    646.54975  0.058755884  0.059654704            2 
  918000    1.1226924   -4.7066819    644.54408  0.058509812  0.059638812            2 
  919000    1.0870056   -4.6507027    646.77166  0.058648137  0.059622997            5 
  920000     1.120879   -4.6933937    644.72676  0.058399163  0.059607343            3 
  921000    1.0993942   -4.6731714      646.665  0.058511129  0.059591702            4 
  922000    1.0768872    -4.665128    649.19701  0.058676519   0.05957629            3 
  923000    1.1024422   -4.6581179    647.75957  0.058483168  0.059560475            2 
  924000    1.1188951   -4.6642134    648.40194  0.058477808  0.059544722            3 
  925000    1.1021167   -4.6472709    649.76584  0.058537463  0.059529755            2 
  926000     1.109901   -4.6612213    650.44954  0.058535776  0.059514005            3 
  927000    1.1180686   -4.6810274    651.59235  0.058575364  0.059499222            1 
  928000    1.1237506   -4.6633806    654.42786  0.058766869   0.05948419            3 
  929000    1.1305027   -4.6196743    653.83679  0.058650591  0.059469713            2 
  930000    1.1029086    -4.615236    655.30792  0.058719348  0.059455291            3 
  931000     1.112775   -4.6402247    654.73306  0.058604821  0.059440467            1 
  932000    1.1233941   -4.6723454    652.02551  0.058299849  0.059425014            3 
  933000    1.1111323   -4.6928351    653.61578  0.058379402  0.059409241            2 
  934000    1.1042796   -4.6739745    654.16438  0.058365844  0.059393203            3 
  935000    1.1036679   -4.6821517    656.73485  0.058532518  0.059377536            3 
  936000    1.0833783   -4.6643638    651.74838  0.058026031  0.059361521            3 
  937000    1.0935204   -4.6594323    658.68517  0.058581036  0.059346161            2 
  938000    1.0841515   -4.6675233    660.07468  0.058642029  0.059331092            2 
  939000    1.0838384    -4.649678    655.89874  0.058208976  0.059315089            1 
  940000    1.1082285   -4.6758055    655.28469  0.058092614  0.059299372            8 
  941000    1.1119682   -4.6540087    659.05542  0.058364809  0.059284019            5 
  942000    1.1191781   -4.6784586    657.86108  0.058197194  0.059269048            3 
  943000    1.1206432   -4.6283487    661.07438   0.05841944  0.059254269            4 
  944000    1.1048113    -4.676893     660.8991  0.058342082  0.059239551            5 
  945000    1.0976225   -4.6595027    663.17981  0.058481465   0.05922538            3 
  946000    1.1081718   -4.6522723    664.87914   0.05856934  0.059210934            3 
  947000    1.1136426   -4.6554905    663.50473  0.058386548  0.059196796            6 
  948000    1.0979512   -4.7030883    662.51269  0.058237754  0.059182747            3 
  949000    1.1107527   -4.6689359    665.74074  0.058459847  0.059168193            2 
  950000    1.1118205   -4.6271187    667.94819  0.058591946   0.05915394            3 
  951000    1.1034941   -4.6301255    665.78954  0.058341179  0.059140102            2 
  952000    1.1003022   -4.6493575    666.42399  0.058335433  0.059125429            1 
  953000    1.0950168   -4.6681193    666.25974  0.058259858  0.059111191            2 
  954000    1.0900415   -4.6621053    667.89136  0.058341314  0.059097223            2 
  955000    1.0732122   -4.6584548    670.22542  0.058483894  0.059083204            2 
  956000    1.0809109    -4.677638    668.90684  0.058307778  0.059069708            3 
  957000    1.1098376   -4.6670681     670.9888  0.058428143  0.059055529            4 
  958000     1.098537   -4.6659805    669.40288    0.0582292  0.059041368            3 
  959000    1.1117618   -4.7070216    669.98444  0.058219016  0.059027386            1 
  960000    1.1144681   -4.6660413    671.30926  0.058273374  0.059013927            4 
  961000    1.0853517   -4.6278641    677.12741  0.058717257  0.059001001            3 
  962000    1.0909249   -4.6630267    673.19972  0.058315984  0.058988047            3 
  963000    1.0725881   -4.6752582    674.74663   0.05838929  0.058974883            4 
  964000    1.0982792   -4.6792771    673.92291  0.058257513  0.058961521            1 
  965000    1.0888157   -4.6627316    675.94356  0.058371637  0.058948055            1 
  966000    1.1065346   -4.6601051    678.16516  0.058502861  0.058934581            3 
  967000    1.0977826   -4.6217552    678.74313  0.058492169  0.058921786            4 
  968000    1.0842479    -4.645573    679.46603  0.058493977  0.058908617            1 
  969000    1.1049754   -4.6582283    679.01617  0.058394924  0.058895409            2 
  970000    1.1123537   -4.6587442    680.95269   0.05850109  0.058882637            4 
  971000     1.110034   -4.6549168    678.64903  0.058243137  0.058869897            3 
  972000     1.102737   -4.6609291    682.94291  0.058551347  0.058856969            5 
  973000    1.0987191   -4.6752577    679.63638  0.058207981  0.058844264            2 
  974000    1.0770065   -4.6863034    682.96537   0.05843304  0.058831718            4 
  975000    1.0938412   -4.6921376    681.51179  0.058248871  0.058819719            2 
  976000     1.105033   -4.6486918    682.72396  0.058292688  0.058807064            4 
  977000     1.098001   -4.6714908    684.07534  0.058348289    0.0587941            4 
  978000    1.0916256   -4.6463044    685.58015  0.058416849  0.058781613            3 
  979000    1.0905495   -4.6859805    685.27668  0.058331348  0.058769029            2 
  980000    1.0964619   -4.6669483    687.71572  0.058479228  0.058756207            2 
  981000     1.097188   -4.7271092    682.56572  0.057982137  0.058743386            1 
  982000    1.1067319   -4.6674235    687.47734  0.058339896  0.058730672            1 
  983000    1.0736475   -4.6865872    686.24957  0.058176464  0.058718444            5 
  984000    1.0945105   -4.7107136    685.53381  0.058056725   0.05870545            3 
  985000    1.1079527   -4.6674797    688.04022  0.058209832  0.058692643            2 
  986000    1.0876358   -4.6771703    687.40788  0.058097353  0.058680079            2 
  987000    1.1226519   -4.7038167    690.00882   0.05825809  0.058667185            4 
  988000    1.1097358   -4.6781226    689.42477  0.058149862  0.058653801            4 
  989000    1.1062512   -4.6642155    690.90478  0.058215772  0.058640832            3 
  990000    1.0953061   -4.6693587    689.96932  0.058078226  0.058628076            4 
  991000    1.0728868   -4.6915085    692.10164  0.058198927  0.058614965            4 
  992000     1.092113   -4.6742704    690.37114  0.057994887  0.058602689            2 
  993000    1.0905236   -4.6838738    694.25722  0.058262606  0.058590244            3 
  994000    1.0833826    -4.692447     693.0279  0.058100931  0.058577713            2 
  995000    1.0787302   -4.6706207    695.70775   0.05826698  0.058565725            3 
  996000    1.0836462   -4.7137972    692.34101  0.057926791  0.058553762            2 
  997000     1.098079   -4.6751407    695.51091  0.058133643  0.058541938            2 
  998000    1.0953146   -4.6798922    696.32895    0.0581437   0.05852987            3 
  999000    1.0905014    -4.680066    698.85931  0.058296572  0.058517925            1 
 1000000    1.1073643    -4.682841    700.11264   0.05834272  0.058506382            3 
 1001000    1.1129423   -4.6999353    697.00661  0.058025858  0.058494469            4 
 1002000     1.076085   -4.6769572    700.15974  0.058230184  0.058482691            2 
 1003000    1.1084996   -4.6932676    698.72241  0.058052709  0.058470663            2 
 1004000    1.0905348   -4.6838487    698.19693  0.057951273  0.058459047            2 
 1005000    1.1005455   -4.6927977    701.28225   0.05814944  0.058446988            3 
 1006000    1.0830175    -4.647048    704.20914  0.058334091  0.058435618            3 
 1007000    1.0655755   -4.6637074    702.36996  0.058123962  0.058424263            2 
 1008000    1.0863678   -4.6700301    702.61704  0.058086726  0.058412775            2 
 1009000    1.0865268   -4.6600196    701.50086  0.057936972  0.058400937            3 
 1010000    1.0894078   -4.6427883    702.21517  0.057938545  0.058389154            1 
 1011000    1.1033872   -4.6728696    705.17693  0.058125365  0.058377652            3 
 1012000     1.094329   -4.7001075    705.34407  0.058081692  0.058366818            2 
 1013000    1.0877791   -4.6686747    706.97894  0.058158847  0.058355777            4 
 1014000    1.1186003    -4.683655    704.97125  0.057936493  0.058344852            2 
 1015000    1.0897854   -4.7039244    706.52371  0.058006873  0.058334334            1 
 1016000    1.1099802    -4.681669    708.38103  0.058102118  0.058324042            4 
 1017000    1.1034053   -4.7206219    709.09642  0.058103607  0.058313482            3 
 1018000    1.1154104   -4.7039689    713.55047  0.058411139  0.058302968            2 
 1019000    1.1260029   -4.6629179    711.46659  0.058183398  0.058293153            6 
 1020000    1.1081711   -4.7154084    712.33652  0.058197428  0.058283583            1 
 1021000    1.1024683   -4.7216198    713.15199  0.058206986  0.058273497            2 
 1022000    1.0818479   -4.6845913    713.63096  0.058189087  0.058262874            2 
 1023000    1.0800987   -4.6924186    716.80698  0.058390923  0.058252366            2 
 1024000    1.0927089   -4.7087826    714.09839  0.058113476  0.058242172            2 
 1025000    1.0956756   -4.7136568    709.70547  0.057699632  0.058231542            2 
 1026000    1.0710558   -4.6810673    713.55992  0.057956459  0.058220772            2 
 1027000    1.1010027   -4.6947468    711.83732   0.05776025   0.05821024            3 
 1028000    1.1006615    -4.712277     716.5976  0.058089948  0.058198872            2 
 1029000    1.0715595    -4.714754    715.28904  0.057927522  0.058187338            5 
 1030000    1.0900368   -4.7092558    715.21746   0.05786549  0.058175913            3 
 1031000     1.104125   -4.6924286       717.34  0.057980925  0.058164757            2 
 1032000    1.0820056   -4.6846081    714.60481  0.057703877  0.058153316            2 
 1033000    1.0958422   -4.7132046    716.28291   0.05778339  0.058141371            4 
 1034000    1.0974472   -4.6823271    715.15403  0.057636528  0.058129478            3 
 1035000    1.0681864   -4.6866143    717.04294  0.057732926  0.058118015            1 
 1036000    1.0800825   -4.6716856    721.47546   0.05803374  0.058106511            2 
 1037000    1.1051456    -4.721253    718.88451  0.057769568  0.058095291            4 
 1038000    1.0699064   -4.7183659    718.57471  0.057689042  0.058083616            6 
 1039000    1.0816366   -4.7099474    721.43759  0.057863137  0.058072733            5 
 1040000     1.085027   -4.6556522    723.79308   0.05799624  0.058061814            2 
 1041000    1.0962862   -4.6900967    723.54918  0.057921004  0.058050598            9 
 1042000    1.0864679   -4.6920548    723.74858  0.057881364  0.058039755            4 
 1043000    1.0968145   -4.6987078    725.91363  0.057998852  0.058029496            2 
 1044000    1.0908235   -4.6790767    727.46873  0.058067427   0.05801961            3 
 1045000    1.1036776   -4.6604508    728.10767  0.058062813  0.058009813            5 
 1046000    1.0822718   -4.7071469    727.99389  0.057998238  0.057999706            4 
 1047000    1.1000263    -4.667714    729.54124  0.058066002    0.0579897            2 
 1048000    1.1064072   -4.6512032    730.45636  0.058083362  0.057980202            3 
 1049000    1.0909898   -4.6894879    728.59754  0.057880326  0.057970499            2 
 1050000     1.066216   -4.7064524    731.21637  0.058033045  0.057960486            2 
 1051000    1.0777279   -4.6942938    733.06666  0.058124537  0.057950087            3 
 1052000    1.0778956   -4.6605608    731.37281  0.057935109  0.057940114            2 
 1053000    1.0803065   -4.6975872    732.43426  0.057964092  0.057930226            3 
 1054000    1.0806398   -4.6957623    732.21016  0.057891378   0.05792072            3 
 1055000    1.0786889   -4.6956808    732.94452  0.057894512  0.057910887            2 
 1056000    1.0906279   -4.6689168    737.14308  0.058171014  0.057901242            5 
 1057000     1.071329   -4.6644179     734.2387  0.057886999  0.057891735            3 
 1058000    1.0849039   -4.6499303    736.30841  0.057995307  0.057882287            2 
 1059000    1.0885875   -4.6950343    736.89461   0.05798667  0.057872489           11 
 1060000    1.0982173    -4.721452    736.76104  0.057921465  0.057862741            5 
 1061000    1.0649526   -4.7284678    732.42819  0.057526562  0.057852255            2 
 1062000    1.1135948   -4.6952221    738.95311  0.057984394  0.057842473            3 
 1063000    1.1039773   -4.7021451      739.319  0.057958529   0.05783286            1 
 1064000    1.0587894   -4.6988478    738.64276  0.057851094  0.057823359            3 
 1065000    1.0868933   -4.6993733     742.2503  0.058079054  0.057813695            2 
 1066000    1.0748557    -4.677637      741.633  0.057976313  0.057804619            2 
 1067000    1.0813511   -4.7163509    740.34304  0.057821231  0.057795713            1 
 1068000     1.082681   -4.7175833    739.79701  0.057724486  0.057786237            3 
 1069000    1.0860834   -4.6890773    744.98478  0.058074897  0.057776969            3 
 1070000    1.0782664   -4.6554092    743.79026  0.057927591   0.05776751            2 
 1071000    1.0826585   -4.6959866    744.97048  0.057965335  0.057758121            2 
 1072000    1.0658406   -4.7119906    741.60498  0.057649641  0.057748279            1 
 1073000    1.0519817   -4.6855153    744.56843  0.057826066  0.057738827            1 
 1074000    1.0802122   -4.7078025    745.71645  0.057861301  0.057729012            3 
 1075000    1.0895314   -4.7118496      743.097  0.057604419  0.057719772            4 
 1076000    1.0873029   -4.7172372    744.83409  0.057685416  0.057709686            3 
 1077000    1.0812099   -4.7017525    746.87956  0.057790124  0.057700058            1 
 1078000    1.0868233   -4.6547974    747.55502   0.05778873  0.057690164            3 
 1079000    1.0872931   -4.6716939    748.89005   0.05783828  0.057680917            2 
 1080000    1.0605437   -4.7194292    747.60729  0.057685748  0.057671654            4 
 1081000     1.061661   -4.6843334    748.52352  0.057703016  0.057661976            2 
 1082000     1.098674    -4.688672    746.58958  0.057500738  0.057652723            1 
 1083000     1.074659   -4.6946837    750.97067  0.057784754  0.057643423            4 
 1084000     1.065694   -4.7278451     748.9538  0.057576399  0.057634034            2 
 1085000     1.069118   -4.6979332    752.05386  0.057761433   0.05762467            6 
 1086000    1.0562292   -4.7184615    751.89852  0.057696326  0.057614822            2 
 1087000    1.0851154   -4.6922873    754.36831   0.05783259  0.057605198            1 
 1088000      1.07965   -4.7049452    753.48227  0.057711571  0.057595603            1 
 1089000    1.0730761   -4.7026013    752.31054  0.057568912  0.057586331            2 
 1090000    1.0941801   -4.7015061    753.73348  0.057624884  0.057577166            4 
 1091000    1.0625151   -4.7321581    753.54047  0.057557323    0.0575673            3 
 1092000    1.0922343   -4.6670545    757.23114  0.057786259  0.057557634            2 
 1093000      1.09497   -4.7134028    754.72961  0.057542666  0.057547979            3 
 1094000    1.0883696   -4.7054594    754.48258  0.057471251  0.057538567            2 
 1095000    1.0649726   -4.6841328    758.72656  0.057741747  0.057529174            3 
 1096000    1.0724845   -4.7066081    756.14913  0.057493091  0.057519597            2 
 1097000    1.0740442   -4.7411214     754.7419  0.057333781  0.057509178            3 
 1098000    1.0772142   -4.7048464    757.21081  0.057468944  0.057498742            1 
 1099000    1.0483913   -4.6866088     758.6212  0.057523597  0.057488618            3 
 1100000    1.0777076   -4.7459484    752.36461  0.056997319  0.057478499            4 
 1101000    1.0729959   -4.7057905    759.55715  0.057489945   0.05746878            8 
 1102000    1.0741014   -4.7226875    760.35002  0.057497733  0.057458851            3 
 1103000    1.0759012   -4.7216096    758.77554   0.05732665  0.057449088            3 
 1104000    1.0770203   -4.7040735    761.79708  0.057502799  0.057438954            2 
 1105000    1.0712405   -4.7119373    762.01731  0.057467369  0.057429099            2 
 1106000    1.0662992   -4.7212659    762.45327  0.057448257  0.057419048            5 
 1107000    1.0600342   -4.7175299     763.7448  0.057493587  0.057409432            3 
 1108000    1.1009237   -4.7215602    763.08452  0.057392037  0.057399841            2 
 1109000    1.0800425   -4.7042809    764.04169   0.05741221    0.0573903            8 
 1110000    1.0892909   -4.7251689    764.67704  0.057408186  0.057380879            7 
 1111000    1.0705177   -4.6804229     766.8878  0.057522337  0.057371505            2 
 1112000    1.0652921   -4.7578661    761.64952  0.057078051  0.057361695            4 
 1113000    1.0841337   -4.7152261    764.14737  0.057213789  0.057352218            5 
 1114000    1.0595173   -4.7256055    765.19026  0.057240444  0.057342955            3 
 1115000    1.0878221   -4.7487921      765.643  0.057222945  0.057333461            3 
 1116000    1.0714944   -4.7073012    771.22445  0.057588445  0.057324112            2 
 1117000    1.0499842   -4.7108759    769.51474  0.057409336  0.057314728            3 
 1118000     1.042961   -4.6878904    771.41996  0.057499997   0.05730519            1 
 1119000      1.07993   -4.7203311    769.37299  0.057296171  0.057295845            1 
 1120000     1.050756   -4.7252669     769.1371  0.057227463  0.057287017            1 
 1121000     1.071166   -4.7213235     771.7736  0.057372406  0.057277628            2 
 1122000    1.0744831   -4.7343867    772.81954  0.057398956  0.057268559            4 
 1123000    1.0604496   -4.7009248    772.21475  0.057302965  0.057258739            3 
 1124000    1.0653371   -4.7010199    773.88115   0.05737553  0.057248909            3 
 1125000    1.1091419   -4.7452705    769.78233  0.057020913  0.057238835            2 
 1126000    1.0614497   -4.7358402    772.45484  0.057168061  0.057228799            1 
 1127000    1.0742998   -4.7342174    774.50565  0.057268977   0.05721864            3 
 1128000    1.0811685   -4.7027716    774.57721  0.057223494  0.057208774            2 
 1129000    1.0748072   -4.7346715    774.16083  0.057142075  0.057198856            1 
 1130000     1.068152   -4.7245053    778.43537  0.057406738  0.057189627            3 
 1131000    1.0737283    -4.726649    778.94035  0.057393188  0.057180402            2 
 1132000    1.0778858   -4.7492738    776.55233  0.057166691  0.057170572            4 
 1133000    1.0719581   -4.7294317    777.90134  0.057215456  0.057160687            1 
 1134000    1.0649466   -4.7315195     779.3733   0.05727317  0.057151101            3 
 1135000    1.0571809   -4.7125361    779.63145  0.057241663  0.057142136            5 
 1136000    1.0778631   -4.7488793    778.29116  0.057092955  0.057133318            4 
 1137000    1.0775053   -4.7542946    777.90554  0.057014478   0.05712401            2 
 1138000    1.0927523   -4.7270542    776.34858  0.056850365  0.057114698            4 
 1139000    1.0630984   -4.6902702    780.23455  0.057084764  0.057105157            2 
 1140000    1.0498016   -4.6983271    780.25739  0.057036359  0.057095249            3 
 1141000    1.0856712   -4.7229815    781.32956  0.057064677   0.05708519            5 
 1142000    1.0991454   -4.7208351    782.98969   0.05713585  0.057075486            2 
 1143000    1.0686929   -4.7313247     782.5571  0.057054323  0.057065568            4 
 1144000    1.0705767   -4.7149535    782.05635  0.056967974  0.057055569            3 
 1145000    1.0594459   -4.7342147    780.75636  0.056823607  0.057045431            9 
 1146000    1.0580008   -4.7502918        779.6  0.056689936  0.057034915            3 
 1147000    1.0797655   -4.6998681    782.90764  0.056880822  0.057024369            2 
 1148000    1.0696679   -4.7139111    786.76149  0.057111025  0.057014567            3 
 1149000    1.0764517   -4.7224793    784.47844  0.056895738  0.057004546            3 
 1150000    1.0894151   -4.6939007    788.30389   0.05712347  0.056994601            2 
 1151000    1.0773101   -4.6845556    784.69676  0.056812682  0.056984746            2 
 1152000     1.076634   -4.6835089    790.21566  0.057162591  0.056974975            5 
 1153000    1.0744326   -4.7207851    786.07887  0.056814026  0.056964647            3 
 1154000    1.0823349   -4.7691079    787.49752  0.056867238  0.056954412            3 
 1155000    1.0597343   -4.7329042    787.86386  0.056844434  0.056944198            3 
 1156000    1.0614893   -4.7071561    788.13154  0.056814558  0.056933611            5 
 1157000    1.0560487   -4.7386143    788.03346  0.056758388  0.056923495            2 
 1158000    1.0597585   -4.7255701    788.95797  0.056775905   0.05691341            3 
 1159000    1.0689623   -4.7298982     790.1874  0.056815315  0.056903097            3 
 1160000    1.0518835   -4.7064479    791.18263  0.056837832  0.056893159            3 
 1161000    1.0602268   -4.7521085    789.79966  0.056689611  0.056882765            4 
 1162000    1.0502512   -4.7375244    792.51332  0.056835436  0.056872309            1 
 1163000     1.076626   -4.7506847    790.85008  0.056667389  0.056861921            4 
 1164000    1.0829422   -4.7362974    791.51357  0.056666207  0.056851262            3 
 1165000    1.0768776   -4.7653843    791.30998  0.056603003  0.056840763            3 
 1166000    1.0844531   -4.7446804     789.9172  0.056454917   0.05683053            2 
 1167000    1.0628419   -4.7320962    794.05616  0.056702096  0.056820107            2 
 1168000    1.0558372   -4.6811128    798.65635   0.05698176  0.056809666            1 
 1169000    1.0624996    -4.754888    794.50599  0.056637153  0.056799249            1 
 1170000    1.0487494   -4.7282954    797.91395  0.056831478  0.056788614            3 
 1171000     1.081139     -4.72758     797.6579  0.056764724  0.056778015            2 
 1172000     1.039286   -4.7315369     797.6761  0.056717584  0.056767397            4 
 1173000    1.0641813   -4.7472111    798.68572  0.056740957  0.056756972            8 
 1174000    1.0688731   -4.7310556    799.50659  0.056750894  0.056746519            2 
 1175000    1.0363271    -4.690393    798.51884  0.056632542   0.05673595            3 
 1176000    1.0724445   -4.6832831    804.75122  0.057026022  0.056725537            2 
 1177000     1.066387   -4.7220895    800.63454  0.056686104  0.056714864            5 
 1178000    1.0546284   -4.7125274    800.24502  0.056610429  0.056704405            3 
 1179000    1.0639614   -4.7383662    802.21908  0.056701942   0.05669405            3 
 1180000    1.0763796   -4.7252812    798.47495  0.056389474  0.056683355            2 
 1181000    1.0531112    -4.720371    800.82836  0.056507787  0.056672466            4 
 1182000    1.0609433   -4.7835096    796.33482  0.056143177  0.056661984            3 
 1183000    1.0466649   -4.7445323    801.21229  0.056439299  0.056651483            2 
 1184000    1.0794269   -4.6989105    806.79361   0.05678446  0.056641133            3 
 1185000    1.0657653   -4.7087371    805.17808  0.056622931  0.056630923            3 
 1186000    1.0410409   -4.7405805    805.81465  0.056619916  0.056620451            6 
 1187000    1.0604034   -4.7495662    804.06503  0.056449384  0.056610052            2 
 1188000    1.0445138   -4.7418436    806.16082  0.056548879  0.056599627            2 
 1189000    1.0540083   -4.7572827    804.70303  0.056399147  0.056588959            3 
 1190000    1.0408836   -4.7064766    806.19177  0.056456006  0.056578156            2 
 1191000     1.068774   -4.7300401    806.99939  0.056465113  0.056567777            2 
 1192000    1.0641913   -4.7239825     807.5131  0.056453656  0.056557009            2 
 1193000    1.0681559    -4.737398    809.21647  0.056525319   0.05654645            6 
 1194000    1.0681313   -4.7391861    808.56551  0.056432545  0.056536061            1 
 1195000    1.0798464   -4.7806662    804.87264  0.056127799  0.056525983            4 
 1196000    1.0224246   -4.6919975    811.31142  0.056529502  0.056515331            1 
 1197000    1.0623844    -4.720868     811.5982  0.056502241  0.056505098            4 
 1198000    1.0462245    -4.764872    810.81911  0.056400884  0.056494135            3 
 1199000    1.0490174   -4.7711896    806.53837  0.056056322  0.056483014            5 
 1200000    1.0643238   -4.7576856    813.76381  0.056511375  0.056472833            4 
 1201000     1.046302   -4.7540928    812.86297  0.056401816  0.056462837            3 
 1202000    1.0651837   -4.7452377    815.35689  0.056527793  0.056452612            3 
 1203000    1.0527671   -4.7682615    811.53523  0.056216073  0.056442528            1 
 1204000    1.0665516   -4.7284364    814.56576  0.056379136  0.056431983            2 
 1205000    1.0722014    -4.735335    816.20687  0.056445841   0.05642162            3 
 1206000    1.0558565   -4.7619642    815.66919  0.056361884  0.056411097            3 
 1207000    1.0720003   -4.7212315    816.92622  0.056401976  0.056400462            4 
 1208000    1.0529197   -4.7815507    816.24424  0.056308239  0.056390184            2 
 1209000    1.0620365   -4.7619931    816.92949  0.056308898  0.056379602            2 
 1210000    1.0530947   -4.7716535     814.2133  0.056075296  0.056369418            2 
 1211000    1.0549483   -4.7566271    814.01626  0.056015432  0.056358921            5 
 1212000    1.0765455   -4.7738204    819.90202  0.056373901   0.05634821            6 
 1213000    1.0664516   -4.7158442    816.54846  0.056097036  0.056337797            2 
 1214000    1.0715011   -4.7433203    818.09784  0.056157183  0.056327087            4 
 1215000    1.0429983    -4.749252    817.78273   0.05608935  0.056316216            3 
 1216000    1.0602806   -4.7389117    819.55436  0.056164635  0.056305256            3 
 1217000    1.0487449   -4.7597361    819.16545  0.056091855  0.056294504            3 
 1218000    1.0560252   -4.7603918    818.51086  0.056001017  0.056283655            9 
 1219000    1.0704686   -4.7185062    822.93233  0.056257337  0.056273119            3 
 1220000    1.0545089   -4.7693887    821.05452  0.056082959  0.056262716            3 
 1221000    1.0842804   -4.7266185    824.56019  0.056276289  0.056252364            4 
 1222000    1.0533897   -4.7570419    823.31895  0.056145591  0.056242355            5 
 1223000     1.072681   -4.7128433    827.74552  0.056401303  0.056232363            2 
 1224000    1.0306969   -4.7330462    828.88321   0.05643268  0.056222074            1 
 1225000    1.0488423   -4.7612051    824.31485   0.05607584   0.05621254            5 
 1226000    1.0526225   -4.7535499    830.34741  0.056440145  0.056202268            2 
 1227000    1.0455132   -4.7242802    826.91901  0.056161302  0.056191878            2 
 1228000    1.0631352   -4.7456007     825.9597  0.056050468  0.056181657            2 
 1229000    1.0388663    -4.741989    828.35048   0.05616697  0.056171797            3 
 1230000    1.0437882   -4.7161592    830.32749   0.05625525  0.056161481            3 
 1231000    1.0396033   -4.7366037    829.98989  0.056186697  0.056151495            2 
 1232000    1.0687016   -4.7651665    827.26376  0.055956694  0.056141491            4 
 1233000    1.0538335   -4.7746202    825.28221  0.055777386  0.056130695            2 
 1234000    1.0658258   -4.7357429    832.98188  0.056252153  0.056120383            3 
 1235000    1.0399652   -4.7495606    829.77845  0.055990449  0.056110072            2 
 1236000    1.0458557   -4.7450394    831.98163  0.056093691  0.056099892            2 
 1237000    1.0467895   -4.7804071    833.21945  0.056131733  0.056089783            2 
 1238000    1.0618853    -4.738535    832.25288   0.05602133  0.056079321            4 
 1239000    1.0517696   -4.7910211    835.37789  0.056186298  0.056068998            2 
 1240000    1.0355513   -4.7358003    834.25096  0.056065253  0.056058751            5 
 1241000    1.0762193   -4.7493691    833.94599  0.055999596  0.056048532            2 
 1242000    1.0363094   -4.7621859     833.9089  0.055952019  0.056037969            2 
 1243000    1.0492213   -4.7969299    830.59155  0.055684604  0.056027455            7 
 1244000    1.0418927   -4.7501799    835.09104  0.055941254  0.056016896            4 
 1245000    1.0660776   -4.7858501    831.36802  0.055647123  0.056006036            3 
 1246000    1.0735202    -4.751101    833.52209  0.055746528  0.055995251            4 
 1247000     1.040174   -4.7724025     833.8308  0.055722454  0.055984726            2 
 1248000    1.0490145   -4.7626426    835.74288  0.055805481  0.055973354            2 
 1249000    1.0328411   -4.7635961    836.18415  0.055790242  0.055962137            3 
 1250000    1.0569014   -4.7623494    837.23665  0.055815777  0.055950918            3 
 1251000    1.0543109   -4.7659299    834.11825  0.055563433    0.0559399            2 
 1252000    1.0387115   -4.7386706    842.21866  0.056058217  0.055928979            2 
 1253000    1.0557746    -4.747513    836.65711  0.055643596   0.05591814            3 
 1254000    1.0650986    -4.755333    837.50463  0.055655544  0.055907168            4 
 1255000    1.0691972   -4.7625033    839.28809  0.055729621  0.055896415            2 
 1256000    1.0294451    -4.713382    840.93301  0.055794388  0.055885954            3 
 1257000    1.0336776   -4.7664116    839.15048  0.055631827  0.055875064            4 
 1258000    1.0753862   -4.7576684    841.08727  0.055715903  0.055863865            3 
 1259000    1.0368618    -4.739871    841.67032  0.055710241  0.055852378            1 
 1260000    1.0633123   -4.7801071    843.16277  0.055764733   0.05584189            9 
 1261000    1.0349606   -4.7408555     842.5617  0.055680789  0.055831326            5 
 1262000    1.0278316   -4.7782336    842.66771  0.055643668  0.055820376            4 
 1263000    1.0343586   -4.7495096    845.24656  0.055769765  0.055809408            4 
 1264000    1.0375704   -4.7388957    845.78586  0.055761199  0.055798516            3 
 1265000    1.0561362   -4.7302951    845.60452  0.055705173  0.055787844            4 
 1266000    1.0700336    -4.732841    845.35184  0.055644539  0.055776974            3 
 1267000     1.043943   -4.7565521    844.24058  0.055527531  0.055766026            1 
 1268000    1.0421334   -4.7871234    845.34908  0.055556591  0.055755157            3 
 1269000    1.0725548   -4.7982224    845.50575  0.055523099  0.055744564            3 
 1270000    1.0448193    -4.761206    845.61263  0.055486393  0.055733372            2 
 1271000    1.0636715   -4.7842611    848.09248  0.055605329   0.05572209            4 
 1272000    1.0300822   -4.8035432    845.48348  0.055390689  0.055710588            3 
 1273000    1.0750051   -4.7546083    843.68936   0.05522973  0.055699044            1 
 1274000    1.0615814   -4.7720967    845.80746  0.055324925  0.055687855            3 
 1275000      1.03683   -4.7496148    850.59787  0.055594632  0.055676656            3 
 1276000    1.0683047   -4.7661756    848.49002  0.055413403  0.055665796            2 
 1277000     1.062173   -4.7710657    848.76235  0.055387781  0.055654638            5 
 1278000    1.0555885   -4.7735675     845.7784  0.055149869  0.055643047            3 
 1279000    1.0430873   -4.7529883    849.33318  0.055338362  0.055631738            4 
 1280000    1.0609962   -4.7767545    849.81253  0.055326337  0.055620607            4 
 1281000     1.054564   -4.7416194    852.12669   0.05543369  0.055609372            3 
 1282000    1.0467059   -4.7788068    848.50392  0.055154961  0.055597947            2 
 1283000     1.057502   -4.7761013    848.57457  0.055116561  0.055586541            2 
 1284000    1.0481274   -4.7002198    856.21032  0.055569205  0.055575312            2 
 1285000    1.0485504   -4.7822081    853.84468  0.055372547  0.055564266            3 
 1286000    1.0344435   -4.8152736    849.96659  0.055078188  0.055552917            5 
 1287000    1.0647982    -4.763427    854.88069   0.05535358  0.055541971            2 
 1288000     1.071377   -4.7359187     859.1097   0.05558422  0.055531235            2 
 1289000    1.0686443   -4.7685667    857.31218  0.055424889  0.055520601            2 
 1290000    1.0400218   -4.7925121    857.93466  0.055422136  0.055509853            2 
 1291000    1.0660763   -4.7661845    857.10541  0.055325678  0.055499232            3 
 1292000    1.0421848   -4.7925461    855.59313  0.055185316  0.055488223            3 
 1293000    1.0399748   -4.7619916    858.22209  0.055312071   0.05547751            3 
 1294000    1.0529737   -4.7759547    859.90936  0.055377985    0.0554669            3 
 1295000    1.0525278   -4.7581219     860.6801   0.05538482  0.055456605            4 
 1296000    1.0366248   -4.7578116    859.66661  0.055276917  0.055446038            3 
 1297000    1.0557517   -4.7895047    857.71658  0.055109007  0.055435488            4 
 1298000     1.023903   -4.7691604    861.94468  0.055337999  0.055425297            3 
 1299000    1.0220756   -4.7153684     864.7917  0.055478041  0.055414958            1 
 1300000    1.0266267   -4.7770807    863.41386  0.055347042  0.055404852            3 
 1301000    1.0150402    -4.747478    867.28412  0.055552403   0.05539494            2 
 1302000    1.0449241   -4.7993816    864.62696  0.055339667  0.055385385            4 
 1303000    1.0478322   -4.7665537    866.43103  0.055412575  0.055375672            4 
 1304000    1.0543313    -4.785439    866.11399   0.05534982  0.055366208            4 
 1305000    1.0578784   -4.7740352    867.38167  0.055388357  0.055356857            3 
 1306000    1.0270842   -4.7611582    869.60948  0.055488098   0.05534713            3 
 1307000    1.0562248    -4.751456    869.14948  0.055416315  0.055337321            2 
 1308000    1.0621304   -4.7616434    871.66123  0.055533972  0.055327538            5 
 1309000    1.0468122   -4.7330827    871.64317  0.055490398  0.055317763            2 
 1310000    1.0370825   -4.7856466    872.45241  0.055499517  0.055308179            5 
 1311000    1.0294305   -4.8123881    870.43523  0.055328962  0.055298345            2 
 1312000    1.0404198   -4.7944002    870.37592  0.055283023  0.055288599            2 
 1313000    1.0320128   -4.7631965    872.03448  0.055346184  0.055278604            3 
 1314000    1.0447768   -4.7729846    872.83759  0.055354997  0.055268764            3 
 1315000    1.0550292   -4.7738139    871.40497  0.055222115  0.055258638            4 
 1316000    1.0680723   -4.7567293    869.36156  0.055050758  0.055248603            3 
 1317000    1.0403415   -4.7374242     875.2903  0.055384099  0.055238662            5 
 1318000     1.025907   -4.7523704    874.04137  0.055263112  0.055228542            3 
 1319000    1.0616174   -4.7782451     872.6419  0.055132796  0.055218559            8 
 1320000    1.0505658   -4.7543826    874.50063  0.055208373  0.055208596            5 
 1321000    1.0330838   -4.7642191    873.42668  0.055098832  0.055198696            1 
 1322000    1.0486931   -4.7597386     874.5895  0.055130452  0.055188824            3 
 1323000    1.0193512   -4.8152383    877.70774  0.055285194  0.055179089            4 
 1324000    1.0500579   -4.7958611      878.943  0.055321186  0.055169337            3 
 1325000    1.0526003   -4.8126139    878.40316  0.055245482  0.055159369            2 
 1326000    1.0429239   -4.7996842    877.42522  0.055142359  0.055149577            3 
 1327000    1.0283059   -4.7586054    876.77605  0.055060038  0.055139519            1 
 1328000    1.0376258    -4.782888    878.40234  0.055120629    0.0551296            3 
 1329000    1.0252439   -4.7920708    876.08668  0.054933953  0.055119147            2 
 1330000    1.0384962   -4.8047413     875.3364  0.054845639  0.055108349            7 
 1331000     1.017919   -4.7590054    878.03736  0.054973539  0.055097393            1 
 1332000    1.0482835   -4.7772354    877.88385  0.054922663  0.055086513            5 
 1333000    1.0543249   -4.8206719    876.71841  0.054808603  0.055075674            6 
 1334000    1.0304203   -4.7957422    879.40567  0.054935386  0.055064715            3 
 1335000    1.0332267   -4.8108006    877.40045  0.054769067  0.055054191            3 
 1336000    1.0341599   -4.7738728    878.90275  0.054821779  0.055043158            7 
 1337000    1.0403183   -4.8149211    880.63529  0.054888761  0.055032259            3 
 1338000    1.0451036    -4.780613     882.3179  0.054952535  0.055021579            4 
 1339000    1.0446361   -4.7953821    882.87627  0.054946245   0.05501044            4 
 1340000    1.0519004   -4.8008674     882.3715  0.054873849  0.054999678            2 
 1341000    1.0463489   -4.7777903    882.55314  0.054844217  0.054988907            3 
 1342000    1.0357424   -4.7905327    882.38103  0.054792662  0.054978208            5 
 1343000     1.052481   -4.7750406    883.99808  0.054852201  0.054967621            4 
 1344000    1.0561919   -4.8098915     881.2521  0.054641127   0.05495695            3 
 1345000    1.0261533   -4.8184444    883.11385  0.054715852  0.054946266            6 
 1346000    1.0167382   -4.7837864    884.57134  0.054765437  0.054935565            2 
 1347000    1.0388368   -4.8046755    883.07959  0.054632491  0.054924391            2 
 1348000    1.0401265   -4.7550735    883.79618  0.054636262  0.054913316            2 
 1349000    1.0432039   -4.8144247    884.89981  0.054663937  0.054902545            5 
 1350000    1.0461668   -4.8146259    884.13399  0.054576172  0.054891361            4 
 1351000    1.0354854   -4.8174567    884.08166  0.054532547  0.054880506            3 
 1352000    1.0419357   -4.7949029     885.7536  0.054595266   0.05486941            4 
 1353000    1.0335528   -4.7656726    886.74591  0.054616033  0.054858374            7 
 1354000    1.0230587   -4.8257344    887.53594  0.054624319  0.054847367            3 
 1355000    1.0627115    -4.813063    889.40788  0.054699132  0.054835857            3 
 1356000    1.0343168   -4.7752437    890.44977  0.054722823  0.054825016            3 
 1357000    1.0422063    -4.810367     887.2769  0.054487651  0.054813958            5 
 1358000    1.0306921   -4.8085693    888.89246  0.054546665  0.054802923            2 
 1359000    1.0426576    -4.802102    890.96072  0.054633353   0.05479199            4 
 1360000    1.0241761   -4.7784709    892.55822  0.054691068  0.054781303            2 
 1361000    1.0511309   -4.7825761    891.56292  0.054589941  0.054770168            5 
 1362000    1.0291289   -4.8063513    890.39379  0.054478328  0.054759102            3 
 1363000    1.0356303   -4.7653348    894.75487  0.054704993  0.054747886            3 
 1364000    1.0502534   -4.7741301    891.09963   0.05444157  0.054736865            4 
 1365000    1.0416279   -4.8244817    888.24627  0.054227489  0.054725287            4 
 1366000    1.0366195   -4.8081735    890.73665  0.054339717   0.05471356            2 
 1367000    1.0456907   -4.7991888     893.8989   0.05449274  0.054702021            4 
 1368000    1.0241972   -4.7786823    895.68566  0.054561748  0.054690759            5 
 1369000     1.043181   -4.7682266    894.62293  0.054457203  0.054679423            4 
 1370000    1.0345236   -4.7953105    897.39717  0.054586203  0.054668204            8 
 1371000    1.0191395   -4.8225222    893.42416  0.054304896  0.054656594            6 
 1372000    1.0334785   -4.8023004    894.19985   0.05431243  0.054645624            4 
 1373000    1.0357116   -4.8168122    898.12265  0.054510964  0.054634543            2 
 1374000     1.019507   -4.7528766     900.5068  0.054615891  0.054623292            2 
 1375000    1.0166495   -4.7708798    896.82498  0.054353029  0.054612276            6 
 1376000    1.0411888    -4.815638    896.73963  0.054308359  0.054600686            2 
 1377000    1.0254446   -4.7960268    897.62063  0.054322236  0.054588883            3 
 1378000    1.0387332   -4.8000002    897.29845  0.054263332  0.054577141            3 
 1379000     1.035599   -4.8059516    898.95174   0.05432389  0.054565426            2 
 1380000    1.0265709   -4.7711018    897.35615  0.054188173  0.054553358            3 
 1381000     1.024334    -4.790274    899.55187  0.054281431  0.054541618            3 
 1382000    1.0345359   -4.8038606    898.64568  0.054187511  0.054529674            3 
 1383000    1.0190719   -4.8169308    894.13016  0.053876245  0.054517829            5 
 1384000    1.0161854   -4.7622132     899.8824  0.054183671   0.05450618            3 
 1385000    1.0342032    -4.785773    896.59496  0.053946748  0.054493893            3 
 1386000    1.0210464   -4.7842892    898.51304   0.05402315  0.054481737            4 
 1387000    1.0313035   -4.8065952    897.81397    0.0539422  0.054469745            4 
 1388000    1.0397597   -4.8477888    900.55177  0.054067709   0.05445736            4 
 1389000    1.0364373   -4.7996803    901.50414  0.054085921  0.054445043            4 
 1390000    1.0399839   -4.7951076    902.93466  0.054132773  0.054433219            7 
 1391000    1.0259122   -4.8121966    900.23206  0.053931947  0.054421029            3 
 1392000    1.0213972   -4.7591972    902.80096  0.054046992  0.054409057            5 
 1393000    1.0199634   -4.7816499    903.28151  0.054036941  0.054397048            3 
 1394000    1.0368385   -4.7832531    900.00922   0.05380256  0.054384794            3 
 1395000    1.0303277   -4.8460658    897.41157  0.053608815  0.054372286            2 
 1396000    1.0386153   -4.8233764    900.57934  0.053759512  0.054359331            2 
 1397000     1.038156   -4.8211565    901.08426  0.053751149   0.05434644            3 
 1398000    1.0359971   -4.8125333    900.05135   0.05365113  0.054334018            6 
 1399000    1.0330012   -4.7942803    898.54527  0.053523068  0.054321231            6 
 1400000    1.0168385   -4.8238108     900.7969  0.053618863  0.054308291            5 
 1401000    1.0390689   -4.7600151     907.0029  0.053949732  0.054295868            2 
 1402000    1.0295785   -4.8310261    902.82122  0.053662697  0.054283477            3 
 1403000    1.0083318   -4.7977765    908.33967  0.053952226  0.054271041            3 
 1404000    1.0462943   -4.8069206    904.79001  0.053703111  0.054258639            4 
 1405000    1.0260635   -4.8427002    905.45329  0.053704228  0.054245944            2 
 1406000    1.0157263   -4.8007528    906.72961  0.053741679  0.054233481            3 
 1407000    1.0210417   -4.7664447      908.895  0.053831734  0.054220951            2 
 1408000    1.0573469   -4.7986298    907.15218  0.053690352  0.054208628            3 
 1409000    1.0109666   -4.8062484    902.52566  0.053378617  0.054195791            2 
 1410000    1.0194559    -4.823696     907.0991  0.053611058   0.05418293            5 
 1411000    1.0221534   -4.7951785    906.67334  0.053547918  0.054170349            4 
 1412000    1.0422492   -4.8016951    907.55062   0.05356177  0.054157808            2 
 1413000    1.0266239   -4.7941054    909.74159  0.053653078  0.054145033            7 
 1414000    1.0407873   -4.8005051    909.86952  0.053622673  0.054132139            4 
 1415000    1.0421063   -4.8296811    909.79924  0.053580638  0.054119293            4 
 1416000    1.0160232   -4.8048658    908.64055  0.053474608  0.054106785            1 
 1417000    1.0148081   -4.8024626    912.52668  0.053665413  0.054094403            4 
 1418000    1.0344585   -4.8259241    908.33327  0.053381128  0.054081378            3 
 1419000    1.0178738   -4.7820104    911.70502  0.053541521  0.054068508            4 
 1420000    1.0535634   -4.8063358    914.18506  0.053649358  0.054055876            3 
 1421000    1.0414861   -4.7756256    914.86992  0.053651766  0.054043551            2 
 1422000     1.009991   -4.8033738    911.83663  0.053436277  0.054031263            4 
 1423000    1.0171792   -4.8124297     915.2465  0.053598413  0.054018693            6 
 1424000    1.0440722   -4.7888844     915.4383  0.053571998  0.054006467            2 
 1425000    1.0302674   -4.7730687    913.54422  0.053423639  0.053993803            5 
 1426000    1.0306274   -4.8483776    912.92796  0.053350161  0.053981202            4 
 1427000    1.0056746   -4.8234379    916.27869   0.05350845  0.053968757            6 
 1428000    1.0088462   -4.8078975    916.90585  0.053507578   0.05395641            3 
 1429000     1.037069    -4.810947    916.03544  0.053419375  0.053944112            3 
 1430000    1.0197645    -4.809213    920.68727  0.053653104  0.053931887            6 
 1431000    1.0361705   -4.8080169    920.34459  0.053595655   0.05391959            4 
 1432000    1.0067824    -4.819037    918.42827   0.05344671  0.053907562            3 
 1433000    1.0196177   -4.8679907    918.66568  0.053423219    0.0538954            5 
 1434000    1.0251605   -4.8547467    922.22095   0.05359257  0.053883352            4 
 1435000    1.0191809   -4.7929329    921.63833  0.053521389   0.05387124            5 
 1436000    1.0289844    -4.798243    923.39724  0.053586191  0.053859242            2 
 1437000    1.0160363    -4.802448    921.00219  0.053410009   0.05384702            5 
 1438000    1.0264514   -4.7906332    918.98607  0.053256031  0.053834851            2 
 1439000    1.0264994   -4.8248629    920.46862  0.053304877  0.053822598            3 
 1440000     1.020424   -4.8052926    920.49895  0.053269615  0.053810471            5 
 1441000      1.02223   -4.8120876    921.78717  0.053307146  0.053798613            2 
 1442000    1.0417926   -4.7857412    923.62922  0.053376631  0.053786667            3 
 1443000    1.0479975   -4.8095909    926.12768  0.053483927  0.053774777            3 
 1444000    1.0300189   -4.8134674    926.70607  0.053480267  0.053762784            3 
 1445000   0.99958741   -4.7890748    926.78719  0.053447935  0.053750765            2 
 1446000    1.0365271   -4.7966991    926.25911  0.053380539  0.053738844            2 
 1447000    1.0227097   -4.8228952     927.5348  0.053417116  0.053726845            4 
 1448000    1.0133418   -4.8205947    923.63523  0.053155803   0.05371452            3 
 1449000    1.0432052   -4.7968117    927.94901  0.053367208  0.053702563            3 
 1450000    1.0189437   -4.8054035     928.0649  0.053337063   0.05369015            2 
 1451000    1.0218424     -4.85357    923.06117  0.053012932  0.053677841            2 
 1452000    1.0181077   -4.8185324    927.79017  0.053247829  0.053665508            2 
 1453000    1.0270431   -4.8202926    926.71729   0.05314965   0.05365287            2 
 1454000     1.006385     -4.82232    927.95091  0.053183798   0.05364043            3 
 1455000    1.0496262   -4.8189934    927.29116  0.053109459  0.053627948            3 
 1456000    1.0116649   -4.8515276    924.96394  0.052939786  0.053615199            5 
 1457000    1.0066936    -4.823686     928.5501  0.053108562  0.053602808            5 
 1458000   0.99973333   -4.8311815    930.29457  0.053171843  0.053590452            7 
 1459000     1.001123   -4.8153379    933.72946  0.053331589  0.053578635            2 
 1460000    1.0270445   -4.7998284    930.91007  0.053134136    0.0535668            2 
 1461000    1.0357922   -4.8259364    933.15138  0.053225609  0.053554892            4 
 1462000    1.0097651   -4.8033426    933.98313  0.053236612  0.053543073            2 
 1463000    1.0161225   -4.7733726    934.08499  0.053206026  0.053530983            1 
 1464000    1.0227334   -4.7873709    937.58818   0.05336909    0.0535191            3 
 1465000    1.0165145   -4.8526722    933.80446  0.053117432   0.05350693            3 
 1466000   0.99827914   -4.8231113    934.27597  0.053108002  0.053494309            3 
 1467000   0.99043995    -4.808471    932.12531  0.052949631  0.053481798            5 
 1468000    1.0252525   -4.8464243    933.77578  0.053007253  0.053469213            4 
 1469000     1.029996   -4.8322743     929.3443  0.052719781   0.05345685            5 
 1470000    1.0125931   -4.8193163    933.47965  0.052918348  0.053443851            5 
 1471000     1.019993   -4.8034736    936.32503  0.053043566  0.053431435            3 
 1472000    1.0143248   -4.8105285    934.44278  0.052900973   0.05341889            4 
 1473000   0.99497257    -4.837541    934.47175  0.052866698  0.053406403            3 
 1474000    1.0217444   -4.8190725    939.31897  0.053104872   0.05339378            2 
 1475000   0.99875216   -4.8218253     932.7798  0.052699424  0.053381294            2 
 1476000    1.0066057   -4.8218306     935.9555  0.052843016  0.053368647            3 
 1477000    1.0385792   -4.8383798    937.46182  0.052892226  0.053355996            3 
 1478000     1.027738   -4.8046109    937.51797  0.052859606  0.053343743            4 
 1479000    1.0189156   -4.8281805     938.4486  0.052876302  0.053331499            6 
 1480000      1.00897   -4.8410263    935.97151  0.052701099  0.053319039            4 
 1481000    1.0149156   -4.8392766    941.37977  0.052969827  0.053306491            3 
 1482000    1.0321588   -4.8481286    938.12768  0.052751219  0.053293997            4 
 1483000    1.0158452    -4.820243    941.49229  0.052904714  0.053282092            5 
 1484000    1.0045784   -4.8150025    943.70085  0.052993085  0.053269787            2 
 1485000    1.0178802   -4.8535862    942.12014  0.052868695  0.053257541            6 
 1486000   0.99425383   -4.8730415    939.67045  0.052695741  0.053245196            5 
 1487000    1.0181178    -4.803589    944.98298  0.052958024   0.05323301            3 
 1488000    1.0024989   -4.8437569    943.05393    0.0528144  0.053220939            4 
 1489000    1.0028137   -4.8434665    944.23074  0.052844792  0.053208916            3 
 1490000     1.003545   -4.8179639    947.25501  0.052978468  0.053196982            3 
 1491000   0.99040989   -4.8367137    943.17213   0.05271474  0.053184919            3 
 1492000     1.004955    -4.843961    947.03241  0.052895019  0.053173234            3 
 1493000     1.012677   -4.8160932    951.04502  0.053083558  0.053161673            4 
 1494000    1.0256731   -4.8013764    946.39829  0.052788838  0.053150071            3 
 1495000    1.0050453     -4.80535    948.56078  0.052874068  0.053138405            4 
 1496000   0.99640538   -4.8333894    950.69568  0.052957647  0.053126783            3 
 1497000   0.99935509   -4.8112851    948.01531  0.052773063  0.053115178            4 
 1498000    1.0231996   -4.8351633    951.01004  0.052904431  0.053103535            2 
 1499000     1.009957   -4.7940198    952.15584  0.052932835  0.053092174            2 
 1500000    1.0300463   -4.8224006    951.13997  0.052841109   0.05308076            6 
 1501000    1.0247034   -4.8391395    949.73481  0.052727893  0.053069094            5 
 1502000   0.99372586   -4.8706179    949.14358  0.052659986  0.053057513            1 
 1503000    1.0167796   -4.8268108    952.56085  0.052814418  0.053046077            3 
 1504000    1.0003071   -4.8201869    951.38044  0.052713899  0.053034755            4 
 1505000    1.0151347   -4.8632802    952.99901  0.052768495  0.053023508            4 
 1506000    1.0147121   -4.8151802    955.52438  0.052873195  0.053012433            5 
 1507000    1.0373715    -4.862296    951.02146   0.05258911   0.05300097            3 
 1508000    1.0067221   -4.8502509    956.52749  0.052858504   0.05298928            5 
 1509000    1.0203896   -4.8273361    957.30031  0.052866153  0.052978146            2 
 1510000    1.0257534   -4.8609904    954.52617  0.052678045  0.052966752            2 
 1511000     1.024142   -4.7958282    960.10323  0.052950763  0.052955405           10 
 1512000     1.020781   -4.8223873      959.025  0.052856316  0.052944317            3 
 1513000   0.99769832   -4.8189239    960.35491   0.05289463  0.052933089            3 
 1514000    1.0131275   -4.8321156    958.43305  0.052753911  0.052921891            4 
 1515000    1.0217326   -4.8264318    958.99139  0.052749801  0.052910808            4 
 1516000   0.99207493   -4.8517493    960.23826  0.052783545  0.052899778            3 
 1517000    1.0238759   -4.8130976     962.0292  0.052847132  0.052888562            4 
 1518000    1.0021902   -4.8351644    961.56026  0.052786575   0.05287725            2 
 1519000   0.98754056    -4.839985    962.91984  0.052826412  0.052866318            2 
 1520000    1.0093379    -4.833698    961.51206  0.052714477  0.052855473            3 
 1521000    1.0031475   -4.8507506     960.4601  0.052622184  0.052844466            2 
 1522000    1.0071847   -4.8150148    962.60643  0.052705127  0.052833254            2 
 1523000    1.0020328   -4.8288651    957.99016  0.052417934  0.052822355            2 
 1524000   0.99273099   -4.8402157    961.85536  0.052594891  0.052811229            4 
 1525000      1.02981   -4.8406107    961.01136  0.052514282  0.052800149            3 
 1526000    1.0121417   -4.7974851    968.15671  0.052870069  0.052789147            2 
 1527000    1.0037581    -4.852483    961.61046  0.052478196  0.052778471            7 
 1528000    1.0240316   -4.8711183    965.94658  0.052680333  0.052767457            5 
 1529000    1.0111645    -4.845033    969.25689  0.052826297   0.05275668            2 
 1530000   0.99863433   -4.8515049    970.24219  0.052845435  0.052746018            2 
 1531000    1.0097815    -4.844779    967.24652  0.052647862  0.052734982            2 
 1532000     1.012425   -4.8187134    968.31448  0.052671588  0.052724204            1 
 1533000    1.0323532   -4.8454814    970.18383  0.052738847  0.052713189            3 
 1534000     1.003548   -4.7978667    969.83964  0.052685769  0.052702536            3 
 1535000   0.99567715   -4.8531251    968.22472  0.052563774   0.05269173            1 
 1536000    1.0081722   -4.8443415    967.84728  0.052509076  0.052680935            2 
 1537000   0.99637477   -4.8378891    972.62514  0.052733959  0.052669955            4 
 1538000   0.99409053   -4.8443781    973.19825  0.052730725  0.052659021            3 
 1539000    1.0098886   -4.8578081    973.24698    0.0526991  0.052648107            4 
 1540000    1.0127115   -4.8382307    971.43828  0.052567006  0.052637247            3 
 1541000   0.99812184   -4.8388461    971.62335  0.052542902  0.052626304            5 
 1542000     1.008478   -4.8384106    970.46238  0.052446086  0.052615234            4 
 1543000    1.0087238   -4.8453787    972.30603  0.052511667  0.052604144            5 
 1544000   0.99001006   -4.8191991     972.9345  0.052511577  0.052593106            4 
 1545000   0.99416247   -4.8529894    973.47566  0.052506778   0.05258213            4 
 1546000    1.0360618   -4.8435309    972.54887  0.052422859  0.052571103            6 
 1547000   0.98204752   -4.8403877    973.97068  0.052465561  0.052560217            7 
 1548000   0.98232076   -4.8247357    977.56727  0.052625284  0.052549027            3 
 1549000   0.97742057   -4.8380085    972.66548  0.052327603  0.052538028            4 
 1550000    0.9985952   -4.8404407    976.12681  0.052479936   0.05252658            3 
 1551000     1.014707   -4.8348621    973.45067  0.052302314  0.052515624            4 
 1552000    1.0106729   -4.8850798    973.10242  0.052249915  0.052504413            7 
 1553000   0.99312039   -4.7950766    977.60244   0.05245774  0.052493159            3 
 1554000   0.99438243   -4.8340534    974.32344  0.052248146  0.052482056            2 
 1555000    1.0104049    -4.853446    976.89135  0.052352162  0.052471072            3 
 1556000    1.0088552   -4.8600143    978.23995  0.052390743  0.052460177            3 
 1557000   0.99595629   -4.8594043    974.00699  0.052130539  0.052449257            4 
 1558000    1.0048849   -4.8488117    977.87417  0.052303924  0.052438194            2 
 1559000    1.0120103   -4.8667036    977.06682  0.052227219  0.052427268            5 
 1560000    1.0117713   -4.8421416    982.19921  0.052467906  0.052416135            5 
 1561000   0.99253015   -4.8093753    979.90909  0.052312037  0.052405296            3 
 1562000    1.0068955   -4.8839831    980.59498   0.05231514  0.052394358            5 
 1563000    1.0176385   -4.8491774    979.63893  0.052230696  0.052383377            2 
 1564000    1.0224475   -4.8326522    979.94627  0.052213676  0.052372507            2 
 1565000   0.97793758   -4.8270167    986.52595  0.052530668  0.052361734            1 
 1566000    1.0018583   -4.8103985      984.375  0.052382663  0.052350966            3 
 1567000   0.99788079   -4.8381982    983.66563   0.05231151  0.052340324            3 
 1568000   0.98827388   -4.8672035    983.67096  0.052278431  0.052329532            3 
 1569000    1.0001866   -4.8699262     981.7841  0.052144896  0.052318839            6 
 1570000   0.97857334   -4.8605967    985.18654  0.052292279  0.052307989            3 
 1571000   0.99783021   -4.8294186    987.34906  0.052373703  0.052297371            1 
 1572000    1.0057948    -4.825532    987.73466  0.052360828   0.05228696            6 
 1573000    1.0153991   -4.8575422    989.67227   0.05243019  0.052276466            6 
 1574000    1.0142165   -4.8576837    989.03219  0.052362992  0.052266047            3 
 1575000    1.0062379   -4.8323358    987.54409   0.05225101  0.052255668            3 
 1576000   0.99113338   -4.8611704    987.97191  0.052240477  0.052245274            2 
 1577000    1.0154466   -4.8644049    989.06907  0.052265328  0.052234743            9 
 1578000    1.0152076   -4.8593494    991.26735  0.052348297  0.052224279            3 
 1579000   0.99530564   -4.8445868     992.6747  0.052389418  0.052214077            4 
 1580000    1.0029587   -4.8641532    994.60815  0.052458236  0.052203752            3 
 1581000   0.98743926   -4.8516088     997.5231    0.0525787  0.052193762            2 
 1582000   0.98933115   -4.8721502    994.29443  0.052375392   0.05218355            3 
 1583000    1.0037397   -4.8389345    993.51553  0.052301302  0.052173689            4 
 1584000   0.99462899   -4.8737854    996.91997  0.052447389  0.052163431            2 
 1585000    0.9965848   -4.8757432    993.14533  0.052215843  0.052153422            2 
 1586000   0.99544092   -4.8547991    996.64572  0.052366841  0.052143637            4 
 1587000    1.0239537   -4.8451929    993.26121  0.052156123  0.052133364            4 
 1588000     1.000491   -4.8483458    995.37153  0.052234022   0.05212305            4 
 1589000    1.0060446   -4.8213738    997.78059   0.05232749  0.052112927            3 
 1590000    1.0082371   -4.8764524    997.25674  0.052267125  0.052102545            3 
 1591000    1.0027445   -4.8454127     1000.105   0.05238346  0.052092146            5 
 1592000    1.0154905   -4.8251972    996.53214  0.052163533  0.052081604            2 
 1593000   0.98646019   -4.8361852    996.88705  0.052149354  0.052071474            7 
 1594000   0.96189077   -4.8765055    998.38087  0.052194734   0.05206118            3 
 1595000    1.0041783    -4.862066    1000.8824  0.052292707  0.052050965            6 
 1596000     1.013398   -4.8670667       999.54   0.05218985  0.052040943            4 
 1597000   0.99539574   -4.8201773    1003.9789  0.052388799     0.052031            5 
 1598000   0.99041083   -4.8216916    999.83913   0.05214013  0.052021075            4 
 1599000   0.99232261   -4.8514556    1004.1424  0.052331788  0.052011252            4 
 1600000    1.0134321   -4.8595534    1002.9314  0.052236011  0.052001382            4 
 1601000     1.003393   -4.8857512    1003.7542  0.052246212  0.051991418            5 
 1602000   0.99101149   -4.8636726    1002.8313  0.052165589  0.051981619            3 
 1603000    1.0033856   -4.8913544    1002.7243  0.052127487  0.051971653            2 
 1604000    1.0158886   -4.8643974    1002.3348  0.052074751  0.051961682            7 
 1605000    1.0094513   -4.8798672    1002.6806  0.052060259   0.05195149            3 
 1606000    1.0066506   -4.9071346    999.99504  0.051888493  0.051941156            2 
 1607000    1.0027294   -4.8745938    1003.8982  0.052058608  0.051930972            5 
 1608000    1.0086578   -4.8510826    1008.2004  0.052249191  0.051921033            4 
 1609000   0.99160706    -4.865165    1003.4498  0.051970674   0.05191096            3 
 1610000    1.0167849   -4.8644439    1006.0807  0.052074571  0.051901171            2 
 1611000   0.97819739   -4.8624685    1007.6178  0.052121756  0.051891226            3 
 1612000   0.99636501   -4.8704926    1007.3938  0.052077844  0.051881187            7 
 1613000     1.000821   -4.8628487     1005.681  0.051957067  0.051871305            4 
 1614000   0.98507429   -4.8491754    1009.3942  0.052116596  0.051861013            3 
 1615000    0.9936896   -4.8711561    1007.1154  0.051966739  0.051850815            4 
 1616000    1.0037514   -4.8932305    1005.3571  0.051843909   0.05184067            4 
 1617000   0.99025736   -4.8800288    1006.6907  0.051880578  0.051830234            9 
 1618000   0.97877835    -4.869242    1010.7142  0.052055737  0.051820168            4 
 1619000   0.99141274   -4.8431213    1010.0015    0.0519869   0.05181002            2 
 1620000    1.0235323   -4.8749271    1007.9151  0.051847484  0.051800128            5 
 1621000   0.99256616   -4.8790123    1009.3154  0.051887488  0.051789899            5 
 1622000    1.0029751   -4.8375832    1012.3579   0.05201181  0.051779803            2 
 1623000    1.0003691    -4.878949    1010.5493  0.051886902   0.05176947            2 
 1624000    1.0079345   -4.8707332    1009.6995  0.051811344  0.051759293            6 
 1625000   0.99123854   -4.9066086    1007.2918  0.051655987  0.051748827            4 
 1626000   0.99208154   -4.8691692    1010.7656  0.051802255  0.051738487            6 
 1627000   0.99924747   -4.8780882    1011.2921  0.051797385  0.051728181            8 
 1628000   0.98550196   -4.8603333    1012.8681  0.051846238  0.051717661            5 
 1629000    1.0007015   -4.8857334    1011.3266  0.051735551  0.051707216           10 
 1630000   0.96599174   -4.8565218    1014.1242  0.051846839  0.051696889            2 
 1631000   0.99386602   -4.8626157    1018.2665  0.052026695  0.051686606            4 
 1632000   0.99839792   -4.8782139    1015.2501  0.051840796   0.05167623            3 
 1633000   0.99868862   -4.8603717    1012.5097  0.051669204  0.051665816            8 
 1634000   0.99496144   -4.8591842    1017.3729  0.051885602  0.051655706            3 
 1635000    1.0009375   -4.8420454    1016.7547  0.051822358  0.051645568            6 
 1636000   0.99277257   -4.8564398    1017.6244  0.051834982  0.051635239            3 
 1637000   0.99763821   -4.8844828    1013.6641  0.051601715  0.051624872            8 
 1638000   0.98077931     -4.86247    1017.0072  0.051740293  0.051614451            4 
 1639000    1.0031162   -4.8821323    1017.2274   0.05171992  0.051604278            6 
 1640000   0.99862646   -4.8608793      1017.34  0.051694104  0.051594002            3 
 1641000   0.97419035   -4.8765135    1014.4252  0.051514582  0.051583904            3 
 1642000   0.95698291    -4.902735    1017.8197  0.051655485  0.051573955            4 
 1643000    1.0043777   -4.8673454    1018.1951  0.051643087  0.051563681            5 
 1644000   0.98444656   -4.8767281    1021.0348  0.051755614   0.05155363            2 
 1645000   0.96927482    -4.852497    1021.0805   0.05172647  0.051543194            3 
 1646000    1.0108092   -4.8920101    1017.3436  0.051505851  0.051533019            8 
 1647000   0.98020589   -4.8835575    1020.0674  0.051612394  0.051522774            3 
 1648000   0.97341962   -4.8685798    1021.4369   0.05165033  0.051512711            3 
 1649000    1.0026993   -4.8927871     1021.494   0.05162189  0.051503008            1 
 1650000    0.9954574   -4.8364942    1024.6391   0.05174945  0.051493231            3 
 1651000   0.96992282   -4.8955657    1022.4774  0.051608993  0.051483458            3 
 1652000   0.98164923   -4.8717122    1025.1812  0.051714144  0.051473378            3 
 1653000   0.98915769    -4.854726    1027.8481  0.051817305  0.051463496            3 
 1654000   0.98780975   -4.9047976    1023.7659  0.051580306   0.05145391            6 
 1655000   0.97871337      -4.8693    1030.4109  0.051883733  0.051444078            6 
 1656000   0.96921436   -4.8964474    1025.8175   0.05162125  0.051434443            4 
 1657000   0.98538563   -4.9154595    1025.0035   0.05154916   0.05142452            8 
 1658000    1.0101663   -4.8922899    1025.2477  0.051530341  0.051414563            7 
 1659000   0.99810752   -4.8537496     1027.101  0.051592375   0.05140474            5 
 1660000   0.99484319   -4.8868634    1030.3645  0.051725123  0.051394963            3 
 1661000   0.99414356   -4.8812186      1034.53  0.051902972  0.051385277            3 
 1662000   0.99987013    -4.889907    1026.9351  0.051490929  0.051375494            6 
 1663000   0.98628149   -4.8825549    1028.2439  0.051525551   0.05136566            2 
 1664000   0.98594958   -4.8505842    1034.2073  0.051793233    0.0513561            2 
 1665000   0.97970684   -4.8938116    1032.4746  0.051675405  0.051346579            2 
 1666000   0.97795894    -4.862445    1032.5889  0.051650103  0.051337274            2 
 1667000    0.9865198   -4.8673131    1032.0513  0.051592245   0.05132781            2 
 1668000   0.97648671   -4.8531089    1034.8121  0.051699245  0.051318316            2 
 1669000   0.97477147   -4.8643586    1035.3658  0.051695916   0.05130873            7 
 1670000    0.9748629   -4.8876192    1034.1144  0.051602514  0.051299376            2 
 1671000    0.9926316   -4.8881679    1033.2513  0.051528589  0.051289916            6 
 1672000   0.98750444   -4.8995726    1032.6915  0.051469872  0.051280516            3 
 1673000   0.98777924   -4.8899821    1035.0044  0.051554312  0.051271134            3 
 1674000   0.99735338   -4.8949992    1034.8397  0.051515318   0.05126192            8 
 1675000      1.00269   -4.8767754    1040.0219  0.051742386  0.051252811            2 
 1676000    1.0026452   -4.8843846    1036.9964  0.051561079  0.051243724            3 
 1677000   0.97400472   -4.9153125     1039.014  0.051630589  0.051234493            6 
 1678000    0.9709571   -4.8602249    1039.3689  0.051617446  0.051225304            5 
 1679000    1.0013153   -4.8830716     1038.759  0.051556432  0.051215738            4 
 1680000   0.98912169   -4.8850847    1039.7358  0.051574195  0.051206598            6 
 1681000   0.96643201   -4.9072611    1041.5688  0.051634385  0.051197315            3 
 1682000   0.98290246   -4.8668148    1041.2977  0.051590257  0.051188042            5 
 1683000   0.96747641   -4.8737557    1040.8876  0.051539296  0.051178684            3 
 1684000   0.99634125   -4.8934985    1041.8206  0.051554858  0.051169234            2 
 1685000   0.97843515   -4.8712007    1040.5171  0.051459798   0.05115976            5 
 1686000    0.9913545   -4.8832335    1039.4513  0.051376595  0.051150349            6 
 1687000    1.0109477   -4.8906793    1041.4325   0.05144401  0.051141026            3 
 1688000   0.97927149   -4.9293889    1038.4906  0.051268298  0.051131441            4 
 1689000   0.98376528   -4.8837308    1044.2672  0.051522952  0.051121938            2 
 1690000    0.9871165   -4.8837827    1043.8123  0.051470033  0.051112518            6 
 1691000    1.0050931   -4.8761442    1042.6444  0.051382041  0.051103101            9 
 1692000   0.96677405   -4.8715177     1043.038  0.051371059  0.051093617            2 
 1693000   0.99455085   -4.8967463    1041.5266  0.051266321  0.051083959            3 
 1694000   0.98234569   -4.8799188    1044.7605  0.051395146  0.051074372            3 
 1695000    1.0012701   -4.8828126    1044.7072  0.051362204  0.051064759            4 
 1696000    0.9779807   -4.8416613    1047.5689  0.051472526  0.051055233            2 
 1697000   0.98714752   -4.8823613    1044.5159  0.051292277  0.051045898            6 
 1698000   0.98031122   -4.9000262    1044.9335  0.051282562  0.051036431            9 
 1699000   0.99509463   -4.8776534    1050.0565  0.051503656  0.051026807            3 
 1700000   0.98147591    -4.910878      1047.59  0.051352451  0.051017358            5 
 1701000   0.97894555   -4.9025765    1044.4957  0.051170669  0.051007868            2 
 1702000    0.9723305    -4.881896    1048.5272  0.051337995  0.050998491            6 
 1703000   0.96067953   -4.8575289     1047.263  0.051245987  0.050988819            3 
 1704000   0.97321571   -4.8876434    1049.8979  0.051344772  0.050979391            3 
 1705000    0.9747541    -4.880377    1047.8162  0.051212912  0.050969622            2 
 1706000   0.96280104   -4.8926687    1050.6632  0.051321963  0.050960124            3 
 1707000   0.98184681   -4.9349227    1050.1892  0.051268756  0.050950627            3 
 1708000    0.9894873   -4.8725127    1049.3093  0.051195808  0.050941026            4 
 1709000    0.9759857   -4.8994533    1048.4902  0.051125912  0.050931645            7 
 1710000   0.96820069   -4.9013661    1050.7987  0.051208513  0.050921826            6 
 1711000   0.97853964   -4.8670211    1049.3519  0.051108121  0.050912131            3 
 1712000    0.9816203   -4.8870221    1051.0868  0.051162713  0.050902498            9 
 1713000   0.97232896   -4.8952389    1052.2091  0.051187444  0.050892541            4 
 1714000   0.95637685   -4.8858527    1051.6589  0.051130831   0.05088292            5 
 1715000    0.9836279    -4.868523    1055.0254  0.051264596  0.050873429            7 
 1716000   0.97514434   -4.8990032    1054.3214  0.051200535  0.050863695            3 
 1717000   0.95867792   -4.8845299    1053.2367  0.051118068  0.050854004            4 
 1718000   0.97960094   -4.8757636    1053.8657  0.051118824   0.05084431            6 
 1719000   0.98772911    -4.920968    1053.0603  0.051050043  0.050834581            3 
 1720000   0.98252045   -4.9242254    1055.7051  0.051148503  0.050824567            4 
 1721000   0.97456712   -4.8947832    1056.7601  0.051169869  0.050814925            5 
 1722000   0.97422876   -4.8836141     1056.535  0.051129259  0.050805258            4 
 1723000   0.97440867   -4.9063013     1057.436  0.051143162  0.050795534            2 
 1724000   0.99045915   -4.8776028    1058.8132  0.051180065  0.050785725            5 
 1725000   0.98015432   -4.8855278    1056.9699  0.051061346  0.050776119            4 
 1726000   0.98310678   -4.9051246    1055.2654   0.05094947  0.050766279            5 
 1727000   0.99274677   -4.8993169    1054.9794  0.050906169  0.050756429            3 
 1728000   0.98042204   -4.9104743    1055.7272  0.050912771  0.050746659           14 
 1729000   0.96799591   -4.9380533    1052.3668  0.050721363  0.050736742            6 
 1730000   0.96795956   -4.8933665    1054.0561  0.050773417  0.050726708            5 
 1731000   0.97025494   -4.9024515    1058.8119  0.050973037  0.050716494            4 
 1732000   0.96923223   -4.8962087    1058.9485  0.050950177  0.050706333            4 
 1733000   0.96986238    -4.888257    1057.7624  0.050863742  0.050696293            2 
 1734000      0.97794   -4.8960453    1061.0474  0.050992281  0.050686273            5 
 1735000   0.96831866   -4.8920938    1060.3185   0.05092788  0.050676233            3 
 1736000   0.96515884   -4.8771343     1059.879  0.050877448  0.050666053            3 
 1737000   0.99460736   -4.9259898    1053.7093  0.050552165  0.050656007            3 
 1738000    0.9931415   -4.9070588     1059.443  0.050797998  0.050646006            5 
 1739000   0.99015983   -4.9148508    1056.4858  0.050627076  0.050635615            4 
 1740000   0.99368313   -4.9079499    1062.4852  0.050885307  0.050625363            4 
 1741000   0.99166775   -4.8879007    1059.6219  0.050719027  0.050614992            4 
 1742000    0.9857465   -4.9126932    1056.5391  0.050542437  0.050604709            3 
 1743000   0.96290733   -4.9486193    1057.4531  0.050557137  0.050594101            3 
 1744000   0.97764671   -4.8805214    1061.9413  0.050742608  0.050583701            6 
 1745000   0.97751083   -4.9409166    1061.3189  0.050683808  0.050573318            3 
 1746000   0.96854667   -4.9137402    1058.3885  0.050514917   0.05056279            3 
 1747000   0.94630127   -4.9299794    1058.6914   0.05050045   0.05055227            7 
 1748000   0.97379196   -4.9103242    1061.8974  0.050624399  0.050541722            4 
 1749000   0.94507918   -4.8882669    1062.9808  0.050647076  0.050531272            6 
 1750000   0.96851431   -4.9126504    1058.2504  0.050392874  0.050520602            7 
 1751000   0.96313621   -4.9368143    1060.2199  0.050457829  0.050510069           10 
 1752000   0.97318658   -4.9097886    1062.2863  0.050527316  0.050499349            3 
 1753000   0.97806491   -4.9006434    1062.8687  0.050526177  0.050488676            2 
 1754000   0.95791631   -4.9067069    1066.2715  0.050659042   0.05047811            9 
 1755000    0.9804823   -4.9225628    1062.8066   0.05046565  0.050467556            4 
 1756000   0.96338765   -4.9154403    1067.3527  0.050652653  0.050456932            4 
 1757000   0.96634368   -4.9207075    1064.2895  0.050478536   0.05044636            3 
 1758000   0.97343752   -4.9394508    1060.8951  0.050288922  0.050435629            5 
 1759000   0.96296572   -4.9021167    1067.6585  0.050580752  0.050424954            3 
 1760000   0.98364535   -4.8933708    1066.4148  0.050493124  0.050414574            4 
 1761000   0.97336618    -4.926823     1064.393  0.050368775  0.050403963            4 
 1762000   0.98602229   -4.9061433    1066.4417  0.050437085  0.050393365            4 
 1763000   0.97228213   -4.8945235    1067.4297  0.050455174  0.050382894            3 
 1764000   0.96271652   -4.9142417    1070.0881   0.05055216  0.050372391            5 
 1765000   0.97221021    -4.927352    1067.4779   0.05040028  0.050361823            4 
 1766000   0.96401014   -4.8985777    1071.0434  0.050539985  0.050351573            3 
 1767000   0.94918688   -4.9002732    1070.5815  0.050489603  0.050341258            2 
 1768000    0.9734595   -4.9216418    1069.8174   0.05042503  0.050330877            7 
 1769000   0.97682161   -4.9284421    1069.8304  0.050397135  0.050320441            2 
 1770000   0.95728436   -4.8908851    1070.8412  0.050416252  0.050310061            5 
 1771000   0.95879646   -4.9157702    1075.3258  0.050598807   0.05029979            2 
 1772000   0.98290394   -4.9273391    1070.8781  0.050361085  0.050289602            4 
 1773000   0.95182064   -4.9638414    1065.8736  0.050097463  0.050278931            2 
 1774000   0.97942042   -4.9250054     1066.249  0.050086858  0.050268299            3 
 1775000   0.97797235   -4.9111152    1072.2724  0.050341425  0.050257841            2 
 1776000   0.95865616   -4.9096083    1069.7948  0.050196827   0.05024742            4 
 1777000   0.97741751   -4.9104167    1071.5036  0.050248717  0.050236946            6 
 1778000   0.97232675   -4.9160946    1067.4421  0.050030094  0.050226383            2 
 1779000    0.9684656   -4.9165964    1072.0711  0.050218808  0.050215905            5 
 1780000   0.96670288   -4.9033677    1071.2531  0.050152298  0.050205516            5 
 1781000   0.96515475    -4.909631    1075.0401  0.050301332  0.050194948            4 
 1782000   0.96114764   -4.9239245    1074.1185   0.05023001   0.05018441            3 
 1783000   0.98522875   -4.9048445    1072.1653  0.050110547  0.050173905            4 
 1784000   0.95768296   -4.9214701    1076.8332  0.050300503  0.050163511            4 
 1785000    0.9698735   -4.9375031     1072.566  0.050073111  0.050153048            4 
 1786000   0.96536016   -4.8929455    1076.6334  0.050234854  0.050142606            2 
 1787000    0.9708332   -4.9067507    1074.8611  0.050124093  0.050132104            2 
 1788000   0.97426438   -4.8826745    1075.9465  0.050146651  0.050122021            4 
 1789000   0.95827204   -4.9185755    1078.8771  0.050255129  0.050111945            4 
 1790000   0.96295737   -4.8885112    1082.0782  0.050376078  0.050101608            4 
 1791000   0.94911528   -4.8979988    1079.0311  0.050206175  0.050091482            3 
 1792000   0.94633763   -4.9252445    1081.8484   0.05030917  0.050081175            2 
 1793000   0.96190036    -4.922366    1079.1476  0.050155584  0.050070749            3 
 1794000   0.98046069   -4.9065303    1079.3607  0.050137528  0.050060525            3 
 1795000   0.96915597   -4.9254241    1079.1772  0.050101076   0.05005023            4 
 1796000   0.97704353    -4.917883    1082.2247  0.050214585  0.050039934            3 
 1797000   0.95303278   -4.9137621    1081.4484  0.050150638  0.050029668            4 
 1798000   0.96764476   -4.9541928    1078.1453  0.049969658  0.050019302            5 
 1799000    0.9563645   -4.9206256    1081.5241  0.050098392  0.050008799            6 
 1800000   0.96399741   -4.9552354    1079.8915  0.049994977  0.049998665            3 
 1801000   0.95347705   -4.9197769    1083.5522  0.050136598  0.049988463            5 
 1802000   0.97928261   -4.9079101     1087.548  0.050293563  0.049978686            7 
 1803000   0.95419025   -4.9011826    1083.1744  0.050063522  0.049968552            3 
 1804000   0.94346914   -4.9688412    1084.9668  0.050118572  0.049958528            4 
 1805000    0.9707396   -4.9135917    1086.3126  0.050152938  0.049948573            4 
 1806000   0.94800526   -4.9535611    1082.5764  0.049952769  0.049938278            3 
 1807000    1.0027556   -4.9325408    1085.3977  0.050055233  0.049928102            6 
 1808000   0.92643115   -4.9228413    1086.1238  0.050061015    0.0499181            2 
 1809000   0.95354143   -4.9192952    1087.2225  0.050083955  0.049908127            3 
 1810000   0.96089893   -4.9030719    1089.4519  0.050158929  0.049898081            5 
 1811000   0.94317378   -4.9224139    1087.3332  0.050033739  0.049888023            2 
 1812000   0.94336273    -4.932503    1085.3292  0.049913964  0.049878148            5 
 1813000   0.96767137   -4.9242511    1085.8574   0.04991071  0.049867928            3 
 1814000    0.9594647   -4.9319377    1086.7269  0.049923138  0.049857768            3 
 1815000   0.93694506   -4.9131976    1086.4525  0.049883034  0.049847736            8 
 1816000   0.96604391   -4.9379883    1087.8363  0.049919065  0.049837703            6 
 1817000   0.97333985    -4.922137    1091.3792  0.050054082   0.04982783            5 
 1818000    0.9877921   -4.9340694    1089.6946  0.049949329  0.049817926            6 
 1819000   0.95863241   -4.9458913    1089.7749  0.049925551  0.049807934           10 
 1820000   0.93272989   -4.9320392    1093.0468  0.050047929  0.049798198            2 
 1821000   0.94288616   -4.9059579    1091.2574  0.049938559  0.049788238            6 
 1822000   0.93202011   -4.9406688    1087.0883  0.049720466  0.049778041            3 
 1823000   0.94807549   -4.9454041     1091.374  0.049889103  0.049767779            3 
 1824000    0.9516316   -4.9506228    1089.4127  0.049772145  0.049757527            3 
 1825000   0.96903918   -4.9204598    1092.7555   0.04989751  0.049747475            4 
 1826000   0.95276643   -4.9210054    1095.7449  0.050006614  0.049737442            5 
 1827000   0.97441388    -4.935521    1093.4054   0.04987253  0.049727568            4 
 1828000   0.97163588   -4.9293567    1097.4104  0.050027825   0.04971776            2 
 1829000   0.95837305   -4.9137367     1092.675  0.049784717    0.0497077            4 
 1830000   0.96382323   -4.9675496    1092.8093  0.049763631  0.049697478            3 
 1831000   0.95230974   -4.9616564     1094.017  0.049791415  0.049687518            3 
 1832000   0.97068853   -4.9307459    1098.9266  0.049987562  0.049677415            4 
 1833000   0.98435928   -4.9426444    1093.8519  0.049729582  0.049667405            4 
 1834000   0.96344907   -4.9229837    1097.4638  0.049866585  0.049657474            4 
 1835000   0.95924409   -4.9133307    1093.6072  0.049664268  0.049647771            4 
 1836000   0.95424892   -4.9123301    1100.9984  0.049972696  0.049638069            4 
 1837000   0.95300904   -4.8996298    1100.6041  0.049927602  0.049628053            5 
 1838000   0.95403783   -4.9314992    1099.3364  0.049842963  0.049618029            2 
 1839000   0.96053063    -4.946118    1098.8073  0.049791883  0.049608136            6 
 1840000   0.94361149   -4.9538606    1102.0913  0.049913556  0.049598339            5 
 1841000   0.96446726   -4.9199036    1101.1196  0.049842459  0.049588799            4 
 1842000   0.97612023   -4.9537508    1101.6128  0.049837713  0.049579197            5 
 1843000   0.96295615    -4.907682    1104.1475  0.049925282  0.049569512            4 
 1844000   0.98217541   -4.9287386    1100.2454  0.049721863  0.049559692            5 
 1845000   0.97653664   -4.9496186    1103.7364  0.049852591  0.049550151            2 
 1846000   0.96745616   -4.9600238    1103.2429  0.049803309  0.049540327            2 
 1847000   0.94675324   -4.9209027    1102.4387  0.049740059  0.049530396            3 
 1848000   0.95440149   -4.9356503    1105.5963  0.049855535  0.049520647            1 
 1849000   0.96363912   -4.9550056    1101.0432  0.049623364  0.049510809            3 
 1850000   0.98831594   -4.9389429    1105.5786   0.04980084  0.049501005            4 
 1851000   0.94601217   -4.9560309    1103.2315  0.049668265  0.049491136            3 
 1852000    0.9532427   -4.9686509    1100.0114  0.049496555  0.049481234            3 
 1853000   0.96102212   -4.9722472     1100.529  0.049493121  0.049471257            4 
 1854000   0.96608317   -4.9487426    1104.1076  0.049627274  0.049461173            6 
 1855000   0.95358401   -4.9176789     1107.019   0.04973131  0.049451381            2 
 1856000   0.94543686    -4.926063    1111.3714  0.049899936  0.049441749            3 
 1857000   0.96876356    -4.926863    1104.5172   0.04956548  0.049432005            2 
 1858000   0.96398626   -4.9398126    1106.1019   0.04960988  0.049422128            3 
 1859000   0.96362885   -4.9257184    1109.9911  0.049757536  0.049412275            7 
 1860000   0.92989342   -4.9502223    1107.2284  0.049607007  0.049402484            2 
 1861000   0.92408341   -4.9423085    1104.2387  0.049446477  0.049392516            4 
 1862000   0.94217304    -4.932407    1108.2741  0.049600521  0.049382673            7 
 1863000   0.94828379   -4.9263054    1105.7967  0.049463086  0.049372783            4 
 1864000   0.95905393   -4.9370252    1110.1308  0.049630312  0.049363116            2 
 1865000   0.95023421   -4.9116023    1110.6102  0.049625121  0.049353314            3 
 1866000   0.95928058   -4.8882192    1114.6698  0.049779822  0.049343636            5 
 1867000   0.97090972   -4.9419702    1111.7184  0.049621426  0.049333854            2 
 1868000   0.93847551   -4.9475095     1111.068  0.049565848  0.049323976            3 
 1869000   0.98447367   -4.9606256    1105.8474  0.049306555  0.049314053            6 
 1870000   0.94449418   -4.9406615    1108.8772  0.049415204  0.049304164            2 
 1871000    0.9686612     -4.93742    1115.2148  0.049671068  0.049294521            5 
 1872000   0.95132072   -4.9465252    1116.2165  0.049689123  0.049284977            3 
 1873000    0.9715189   -4.9373726     1116.884  0.049692294  0.049275289            3 
 1874000   0.94169458   -4.9357445    1111.1033  0.049408721  0.049265686            2 
 1875000   0.94960331   -4.9530859    1107.9798  0.049243549  0.049255844            3 
 1876000   0.96691139   -4.9523484    1113.7151  0.049472063  0.049246036            6 
 1877000   0.95055418   -4.9660694    1112.7231  0.049401665  0.049236269            3 
 1878000   0.95740971   -4.9453533    1116.6226  0.049548393  0.049226581            4 
 1879000   0.94874394   -4.9329984    1113.8454  0.049398856  0.049216946            4 
 1880000   0.94970265   -4.9236113    1117.2546  0.049523697  0.049207357            4 
 1881000   0.95571114   -4.9550509    1113.8693   0.04934739  0.049197756            4 
 1882000   0.95136825   -4.9339286    1113.9251  0.049323639  0.049187998            7 
 1883000   0.96898353   -4.9547227    1114.4707  0.049321594  0.049178466            5 
 1884000   0.93623519    -4.958467    1115.2981  0.049332012  0.049168751            1 
 1885000   0.95287408   -4.9873602     1116.767  0.049370779  0.049158944            6 
 1886000   0.92329761   -4.9415114    1121.5288  0.049555003  0.049149267            4 
 1887000   0.95415537   -4.9663917    1118.6559  0.049401867  0.049139694            2 
 1888000    0.9605622   -4.9613051    1118.4548  0.049366824  0.049129933            3 
 1889000    0.9450594    -4.924522    1119.3214  0.049378922  0.049120229            5 
 1890000   0.95436725   -4.9386957    1124.8766  0.049597733  0.049110665            5 
 1891000   0.94911928   -4.9458291    1121.6485  0.049429248  0.049101377            3 
 1892000   0.94972999   -4.9431145    1123.4271   0.04948146   0.04909199            5 
 1893000   0.97445819   -4.9568941    1122.4617  0.049412823  0.049082482            4 
 1894000   0.94951482   -4.9796088    1121.5587  0.049347003   0.04907297            3 
 1895000   0.95079288   -4.9903396    1123.1226  0.049389734  0.049063584            5 
 1896000   0.93997065   -4.9798959    1122.4866  0.049335734  0.049054133            3 
 1897000   0.93430639     -4.93575    1128.0593   0.04955453  0.049044808            4 
 1898000   0.97253341   -4.9897325    1121.4643   0.04923886  0.049035445            3 
 1899000   0.94753627   -4.9519595    1124.6992  0.049354887  0.049026149            3 
 1900000   0.93791627   -4.9508049    1126.6338  0.049413763  0.049016718            3 
 1901000   0.93770672   -4.9452252    1130.1157  0.049540402  0.049007674            3 
 1902000   0.94093208   -4.9618973    1124.0351  0.049247945  0.048998686            4 
 1903000   0.95149076   -4.9524623    1126.4792  0.049329095  0.048989594            4 
 1904000   0.94306841   -4.9767928    1127.7945  0.049360755  0.048980422            5 
 1905000   0.94329835   -4.9554705    1126.5705  0.049281301  0.048971269            3 
 1906000   0.94945113   -4.9431797    1128.9591  0.049359875  0.048961943            5 
 1907000   0.92504829    -4.955461    1129.6421  0.049363838  0.048952646            5 
 1908000    0.9527551   -4.9277684    1134.0638  0.049531089  0.048943276            3 
 1909000   0.93277801   -4.9404843    1125.0324  0.049110896  0.048933945            2 
 1910000   0.94668907   -4.9328166    1131.9164  0.049385534  0.048924704            4 
 1911000   0.97011213    -4.969613    1133.8989   0.04944614  0.048915501            4 
 1912000   0.96087482   -4.9538551    1132.9354  0.049378287  0.048906383            3 
 1913000   0.94359943   -4.9511098    1132.1637  0.049318859  0.048897237            4 
 1914000   0.92695978   -4.9753124    1129.9294   0.04919581  0.048888198            7 
 1915000   0.96188826   -4.9710293    1130.1239  0.049178585  0.048878909            3 
 1916000   0.94316914   -4.9375278    1133.7536  0.049310786  0.048869777            3 
 1917000   0.92083575   -4.9605481    1130.3273   0.04913612  0.048860411            3 
 1918000   0.93802844   -4.9445397    1133.4231  0.049245008  0.048851088            3 
 1919000   0.92801607   -4.9973826     1129.879  0.049065442  0.048841604            6 
 1920000   0.94749629   -4.9586901    1135.6798  0.049291656  0.048832244            3 
 1921000   0.95185417   -4.9636873    1133.0688  0.049152733  0.048823215            7 
 1922000   0.92383338   -4.9528297    1132.8185  0.049116309  0.048814335            3 
 1923000   0.93180797   -4.9735803    1136.8588  0.049265852  0.048805483            3 
 1924000   0.93497185   -4.9838525    1138.2855  0.049302038  0.048796435            5 
 1925000   0.94509304   -4.9702846    1136.2681  0.049189094   0.04878763            2 
 1926000   0.94797962   -4.9814381    1137.0304  0.049196537   0.04877868            4 
 1927000   0.94592432   -4.9615885    1137.6237  0.049196665  0.048769776            3 
 1928000   0.95076265   -4.9518915     1139.817  0.049265948  0.048760733            4 
 1929000   0.95164596   -4.9433324    1141.3436  0.049306359  0.048751925            5 
 1930000    0.9553601   -4.9656604    1137.3884  0.049110034  0.048742932            2 
 1931000   0.92988816   -4.9341033    1139.1287  0.049159705  0.048733887            3 
 1932000   0.94901536   -4.9967124    1136.2157  0.049008613  0.048724903            8 
 1933000    0.9247087   -4.9850256    1139.0926  0.049107287  0.048715569            4 
 1934000   0.93075657   -4.9819929    1138.6601  0.049063258  0.048706509            2 
 1935000   0.94723759   -4.9972223    1139.0504  0.049054713  0.048697359            7 
 1936000   0.94152624   -5.0153868    1138.9233    0.0490239  0.048688096            7 
 1937000   0.91584703    -4.957281    1139.5119  0.049023916   0.04867875            3 
 1938000    0.9297522   -4.9937828    1140.6982  0.049049631  0.048669325            4 
 1939000   0.93976149   -4.9534128    1138.9792  0.048950455  0.048659834            4 
 1940000   0.93311819   -4.9582887    1143.6121  0.049124229  0.048650677            2 
 1941000   0.93483031   -4.9674773    1138.7742  0.048891217  0.048641482            3 
 1942000   0.94274948   -4.9568724    1142.7558  0.049036893  0.048632384            3 
 1943000    0.9436629   -4.9567059    1148.1732  0.049244006  0.048623447            4 
 1944000   0.94110729   -4.9804043    1141.2582  0.048922248  0.048614058            3 
 1945000   0.93963782   -4.9693409    1140.2331  0.048853175  0.048604717            2 
 1946000   0.95802013   -4.9366922     1142.424  0.048921892  0.048595431            9 
 1947000   0.92824443   -4.9634756    1140.6418  0.048820486  0.048586102            4 
 1948000   0.94237785   -4.9569916    1144.2633  0.048950347   0.04857675            9 
 1949000   0.95406055   -4.9521924    1143.3087  0.048884417  0.048567542            8 
 1950000   0.94489297   -4.9501905    1144.3599   0.04890427  0.048558296            3 
 1951000   0.93460062   -4.9785515    1143.2496  0.048831778  0.048548923            3 
 1952000   0.94399027   -4.9428865    1143.8741  0.048833423  0.048539578            3 
 1953000   0.94509615   -4.9360944    1147.5625  0.048965801  0.048530628            4 
 1954000   0.95266299   -4.9647098    1146.7793  0.048907338   0.04852141            3 
 1955000   0.95470726   -4.9437306    1153.4085  0.049164898  0.048512074            4 
 1956000   0.91645248   -4.9505734    1147.2366  0.048876813  0.048503008            3 
 1957000   0.92927569   -4.9700254     1144.701  0.048743869  0.048493832            2 
 1958000   0.93917095   -4.9919102    1147.7499  0.048848737  0.048484462            2 
 1959000   0.93442239   -4.9568426    1150.1255  0.048924853   0.04847528            9 
 1960000   0.94627085   -5.0095472    1143.2078  0.048605772  0.048465858            5 
 1961000   0.94810367    -4.979801    1146.9668  0.048740728  0.048456476           13 
 1962000   0.93476133   -4.9901195    1150.9319  0.048884297  0.048447143            4 
 1963000   0.93831363    -4.971913    1149.5544  0.048800919  0.048437732            4 
 1964000   0.94115033   -4.9907083    1149.1969  0.048760899  0.048428662            8 
 1965000     0.939893   -5.0031331    1148.6169  0.048711489  0.048419317            3 
 1966000    0.9162318   -4.9761286    1152.1442  0.048836224  0.048410075            7 
 1967000   0.92409349   -4.9916556    1152.1329  0.048810917  0.048400866            4 
 1968000   0.92602252   -4.9775796    1152.5762  0.048804887   0.04839172            4 
 1969000   0.91855181   -4.9803988    1152.8131  0.048790126  0.048382649            3 
 1970000   0.92659727   -4.9696175    1154.5112   0.04883719  0.048373577            5 
 1971000   0.92877831    -4.981524    1153.9912  0.048790426  0.048364482            4 
 1972000     0.930374   -5.0070453    1154.1453    0.0487722   0.04835508            2 
 1973000   0.93671456   -4.9617195    1154.4679  0.048761105  0.048345895            4 
 1974000   0.92686621   -4.9860485    1152.8553  0.048668327  0.048336674            6 
 1975000   0.90912049   -4.9709709    1157.9188  0.048857332  0.048327535            3 
 1976000   0.91941593   -4.9991036     1152.685  0.048611886  0.048318579            5 
 1977000   0.94754096   -4.9553712    1159.8096  0.048887606  0.048309681            2 
 1978000   0.93955659   -4.9692631    1156.0655  0.048705154  0.048300836            4 
 1979000   0.94310679   -4.9634452    1157.0333  0.048721296  0.048291637            2 
 1980000   0.93241511   -4.9818231    1154.3424  0.048583432   0.04828253            4 
 1981000   0.93438184   -4.9624712    1157.8148  0.048704979  0.048273495            4 
 1982000   0.92764771   -4.9987583    1156.4645  0.048623632  0.048264096            3 
 1983000   0.93087958   -4.9630466    1160.6985  0.048777041  0.048254891            3 
 1984000   0.93615245   -4.9522244    1161.8775  0.048801978  0.048246025            9 
 1985000   0.94652163   -4.9678408    1158.8752  0.048651353  0.048236892            3 
 1986000   0.93501272   -4.9896648    1160.1004  0.048678262  0.048227537            8 
 1987000   0.92511115   -4.9759449    1158.6781  0.048594117   0.04821839            3 
 1988000   0.91768645   -4.9870018    1158.0432  0.048543056  0.048209081            2 
 1989000   0.92409821    -4.974057    1159.3094  0.048571701  0.048199704            3 
 1990000   0.93839368    -4.984693    1159.7794  0.048566975  0.048190479            4 
 1991000   0.94328945   -4.9832026    1160.9126  0.048590012  0.048181129            3 
 1992000   0.92615821   -4.9677318    1158.7974  0.048477134  0.048171894            3 
 1993000   0.93808142   -4.9650094    1161.8376  0.048579928  0.048162557            5 
 1994000   0.93789895   -4.9728825    1158.9772  0.048436024  0.048153171            3 
 1995000   0.94032126   -4.9974043    1158.2344   0.04838072  0.048143699            3 
 1996000   0.94696875   -4.9422247    1162.1781  0.048521129  0.048134205            2 
 1997000   0.93760009   -4.9755868    1162.4825  0.048509533  0.048124656            5 
 1998000   0.92931327   -4.9830728    1160.7223  0.048411841  0.048115041            9 
 1999000   0.95215045   -5.0160619     1157.235  0.048242248  0.048105576            6 
 2000000   0.91991314   -4.9873007    1161.5917  0.048399652  0.048095967            8 
 2001000   0.92352688   -5.0068847     1162.493  0.048413002  0.048086458            3 
 2002000   0.92226933   -5.0142947    1158.8285  0.048236284   0.04807692            2 
 2003000   0.91980889   -4.9810332    1161.5769  0.048326546  0.048067237            2 
 2004000   0.92317283   -4.9846931     1165.856  0.048480373  0.048057832            4 
 2005000   0.92949995   -5.0100154    1160.4642  0.048232095  0.048048557            2 
 2006000   0.90850625   -5.0298503    1160.1061  0.048193173  0.048039127           14 
 2007000   0.90748845   -4.9963206    1165.4555  0.048391275  0.048029804            4 
 2008000   0.93855247    -5.013401    1163.1614  0.048271971  0.048020331            8 
 2009000   0.91820863   -5.0072316    1162.3106   0.04821265  0.048010986            4 
 2010000    0.9103657   -5.0116492    1160.4725  0.048112458  0.048001477            6 
 2011000   0.93022673   -5.0200903    1165.0917  0.048279949  0.047992086            2 
 2012000   0.93620997   -4.9858783    1167.0729  0.048338011   0.04798262            3 
 2013000   0.93537344   -5.0063112    1168.0651   0.04835507  0.047973182            6 
 2014000   0.94223073   -5.0170179    1170.1466  0.048417187  0.047963926            6 
 2015000    0.9278034   -4.9620363    1174.9548  0.048592011  0.047954696            3 
 2016000   0.93613957   -5.0193555    1170.6866  0.048391478  0.047945703            4 
 2017000   0.94420836   -5.0089249    1169.4312  0.048315616  0.047936436            3 
 2018000    0.9207491   -5.0176145    1169.4505  0.048292471  0.047927347            3 
 2019000   0.91819521   -4.9818061    1172.1704  0.048380815  0.047918102            8 
 2020000   0.91705392   -4.9981637     1170.156  0.048273762  0.047908971            9 
 2021000    0.9301767   -4.9805483    1172.7087  0.048355135    0.0478996            5 
 2022000   0.92092723   -4.9608994    1171.0496  0.048262842  0.047890209            4 
 2023000   0.94965629   -4.9878777     1172.786  0.048310514  0.047880719            5 
 2024000   0.93589123   -4.9934851    1173.3977   0.04831183  0.047871399            6 
 2025000   0.91176145   -4.9927341    1168.0357  0.048067311  0.047862061            5 
 2026000   0.95107972   -4.9928726    1172.2906  0.048218599  0.047852623            6 
 2027000   0.92584732   -5.0211754    1171.4116  0.048158675  0.047843427            4 
 2028000   0.93826626   -4.9803378    1170.4272  0.048094477  0.047833975            3 
 2029000   0.92188644   -4.9707904    1170.1862  0.048060876  0.047824449            5 
 2030000   0.91474677    -5.007698    1169.0661  0.047991218  0.047814899            6 
 2031000    0.9178874   -4.9759184      1176.29  0.048263991  0.047805562            4 
 2032000   0.93069934    -4.995295    1171.1488  0.048029395   0.04779641            2 
 2033000   0.90823691   -5.0052804    1172.5435  0.048062939  0.047787048            8 
 2034000   0.92644836   -5.0091319    1177.9527  0.048260926  0.047777804            6 
 2035000   0.90995199   -5.0315675    1176.2082  0.048165774  0.047768248            4 
 2036000   0.92371369   -5.0228486    1174.0655  0.048054416  0.047758849            4 
 2037000   0.94530721   -5.0454232    1174.8139  0.048061444  0.047749409            4 
 2038000   0.90676867   -5.0003353    1176.9645  0.048125799  0.047739967            6 
 2039000   0.92330698   -5.0008208    1177.3067   0.04811618  0.047730705            2 
 2040000    0.9237924   -4.9849489    1174.4051  0.047974063  0.047721434            4 
 2041000   0.92548136   -4.9827446    1178.7453  0.048127768  0.047712369            7 
 2042000   0.91171107   -5.0063193    1175.7235   0.04798088  0.047703223            7 
 2043000   0.93753286   -5.0116019    1174.4894  0.047907056  0.047693924            3 
 2044000   0.92789606   -5.0035606    1176.9076   0.04798221   0.04768455            4 
 2045000   0.93407143   -5.0213977    1178.8052  0.048036072  0.047675166            4 
 2046000   0.94119985   -5.0035769    1177.2337  0.047948586  0.047665711            2 
 2047000   0.94276653   -5.0360441    1174.0578  0.047795873  0.047656204            5 
 2048000   0.95049839   -4.9751772    1183.6129  0.048161333  0.047646741            2 
 2049000   0.91380098   -4.9986355    1178.7711  0.047940909   0.04763749            6 
 2050000   0.91975128   -5.0265598    1179.9164  0.047964082  0.047628246            5 
 2051000   0.93096767   -5.0294281    1180.3883  0.047959869  0.047618798            5 
 2052000   0.93266735   -4.9597581    1183.0394  0.048044161  0.047609403            2 
 2053000   0.91781734   -5.0003687    1178.3943   0.04783221   0.04760005            4 
 2054000   0.91056174   -5.0129314    1179.9809   0.04787329  0.047590567            3 
 2055000   0.93784541   -4.9909668    1179.6346  0.047835952  0.047581093            2 
 2056000   0.90374198   -4.9638441    1187.8377  0.048145172  0.047571739            4 
 2057000   0.91231091   -5.0101101    1178.1752   0.04773032   0.04756226            9 
 2058000   0.90408009   -5.0051659     1182.435  0.047879615  0.047552794            6 
 2059000   0.91960219   -4.9745711    1183.7593  0.047909959  0.047543359            6 
 2060000   0.93727852   -5.0113535    1184.0218  0.047897321  0.047533941            5 
 2061000   0.89633583   -5.0172136    1181.5982  0.047776087  0.047524335            5 
 2062000   0.92856286   -5.0350331    1183.5256   0.04783081  0.047514892            6 
 2063000   0.92120705   -4.9805617    1183.7927  0.047818416  0.047505519            5 
 2064000   0.92667033   -5.0214379     1183.714   0.04779207  0.047496173            3 
 2065000    0.9285544   -4.9822216    1189.2412  0.047991977  0.047486888            6 
 2066000   0.91830798   -5.0163106     1184.887  0.047793119   0.04747749            8 
 2067000   0.91847451   -5.0267397    1185.5746  0.047797717  0.047468039            6 
 2068000   0.93626648   -5.0586295    1179.3137   0.04752231  0.047458375            7 
 2069000   0.92262575   -5.0182805    1185.5118  0.047748984  0.047448867            4 
 2070000   0.91836185   -5.0119652    1185.4612  0.047723882  0.047439435            1 
 2071000   0.92220821   -5.0054129    1185.6682  0.047709167  0.047430111            4 
 2072000   0.91871419   -5.0175131     1184.041  0.047620695  0.047420714            6 
 2073000   0.90104733   -4.9682663    1188.9919  0.047796749  0.047411295            3 
 2074000   0.90298899   -4.9978246    1186.5486   0.04767553  0.047401892            6 
 2075000   0.92920843   -5.0069765    1190.7733  0.047822223  0.047392589            6 
 2076000    0.9153455   -5.0159366    1185.6508  0.047593563   0.04738336            4 
 2077000   0.91118434   -4.9974914    1191.0567  0.047787543  0.047373993            6 
 2078000   0.92883723   -4.9814911    1188.3814  0.047657258  0.047364733            6 
 2079000    0.8906251   -4.9959053    1193.2353  0.047828897   0.04735531            6 
 2080000   0.91789759   -5.0032344    1188.1917  0.047603836  0.047345779            4 
 2081000   0.91995811   -4.9835179    1191.8495  0.047727435  0.047336398            3 
 2082000   0.92208475   -4.9957059    1191.8395  0.047704111  0.047327087            6 
 2083000   0.94904979   -5.0020457    1193.1074  0.047731935  0.047317864            3 
 2084000   0.93935045   -4.9948427    1190.1252  0.047589777  0.047308788            3 
 2085000   0.92962591    -5.019356    1191.1021  0.047606001  0.047299564            6 
 2086000   0.90466171    -5.022345    1189.0994  0.047503174  0.047290309            3 
 2087000    0.9325017   -5.0340409    1188.3366  0.047449953  0.047280752            2 
 2088000   0.92658599   -5.0048761    1196.6888  0.047760569  0.047271296            2 
 2089000   0.90835596   -4.9844276    1198.6394  0.047815518  0.047262043            8 
 2090000   0.92588267   -4.9949678    1192.8496  0.047561788  0.047252785            3 
 2091000   0.92154568   -5.0186747    1191.8293  0.047498378  0.047243487            6 
 2092000    0.9207454   -4.9978445    1189.9026  0.047398924  0.047234005            5 
 2093000   0.92574934   -5.0352331     1191.185  0.047427339  0.047224492            3 
 2094000   0.90642514    -5.005852    1194.4329  0.047533941  0.047215303            2 
 2095000   0.91076078   -4.9935291    1197.0304  0.047614573  0.047205707            5 
 2096000   0.92098641   -5.0484457    1191.2123  0.047360542  0.047196239            5 
 2097000   0.92169282   -5.0205437    1191.2173  0.047338152  0.047186734            3 
 2098000   0.89382539   -5.0052244    1195.6996   0.04749363  0.047177233            5 
 2099000   0.91435193   -5.0158723    1196.6519  0.047508811   0.04716768            8 
 2100000   0.92763186     -5.00052    1196.9582  0.047498341  0.047158101            9 
 2101000   0.91903882     -5.00643    1196.6979   0.04746541  0.047148582            8 
 2102000   0.90275682   -5.0016266     1197.237  0.047464202  0.047139122            3 
 2103000   0.91908469   -4.9777543    1198.8761  0.047506581  0.047129707            3 
 2104000   0.93543061   -5.0290668    1195.6003  0.047354259  0.047120116            2 
 2105000   0.92858198    -5.006992    1196.8708  0.047382058  0.047110562            2 
 2106000   0.91338821   -5.0269676    1198.2199  0.047412943  0.047100977            3 
 2107000   0.90221302   -5.0266116     1194.701  0.047251267  0.047091448            5 
 2108000   0.94772602   -5.0456227    1196.1689   0.04728688  0.047081829            3 
 2109000   0.91922996   -5.0018283    1199.3805  0.047391359  0.047072186            5 
 2110000   0.90052978   -5.0161751     1196.543  0.047256834  0.047062566           12 
 2111000   0.92018101   -5.0502601    1195.0751  0.047176501  0.047052888            3 
 2112000   0.92890839   -5.0422339    1195.4066  0.047167243  0.047043227            3 
 2113000    0.9335203   -5.0258731     1197.904  0.047243413  0.047033578            2 
 2114000   0.91987701    -5.035546    1195.4609  0.047124761    0.0470238            7 
 2115000   0.90238117   -4.9945829    1205.2138  0.047486755  0.047014298            8 
 2116000   0.90676606   -5.0296551    1200.7096  0.047286925  0.047004783            3 
 2117000   0.91736666   -5.0226963    1199.6035  0.047221046  0.046995331            8 
 2118000   0.91188821   -5.0313034    1199.4907  0.047194316  0.046985747            7 
 2119000   0.91475319   -5.0326809    1200.9586   0.04722977  0.046976163            3 
 2120000   0.90881397   -5.0245067    1204.1552  0.047333144  0.046966726            7 
 2121000   0.90475308   -5.0143674    1204.7919  0.047335844  0.046957127            3 
 2122000   0.89479239    -4.998104    1206.5858  0.047383984  0.046947585            3 
 2123000   0.90280807   -5.0298636    1199.8299  0.047096478  0.046937989            9 
 2124000   0.90661598   -5.0333342    1202.0893   0.04716295  0.046928362            7 
 2125000   0.90722766   -5.0435141    1201.2183    0.0471066  0.046918604            9 
 2126000   0.91643456   -5.0053011    1203.2361  0.047163535  0.046908812            5 
 2127000   0.88757064   -4.9894205     1202.983  0.047131446  0.046899103            6 
 2128000   0.88970413   -5.0708849     1198.092  0.046917763  0.046889313            4 
 2129000   0.91843231   -5.0467278     1203.547  0.047109247  0.046879505            8 
 2130000   0.93341016   -5.0129913    1203.9085   0.04710127   0.04686967            4 
 2131000   0.91444644   -5.0267801    1207.0144  0.047200625  0.046860032            5 
 2132000   0.91171013   -5.0278472    1201.3791  0.046958219  0.046850227            3 
 2133000   0.88977398   -5.0330553    1206.7252  0.047145068  0.046840514            2 
 2134000   0.89725665   -5.0495011    1204.3459  0.047030066  0.046831112            4 
 2135000   0.89640252   -5.0368555    1203.4275   0.04697219  0.046821599            4 
 2136000   0.92875782   -5.0463889    1206.8027  0.047081878  0.046811984            7 
 2137000   0.91275847   -5.0402751    1207.4071  0.047083415  0.046802406            7 
 2138000    0.9154202   -5.0234922    1205.8396  0.047000295  0.046792708            4 
 2139000   0.91961013   -5.0122613    1211.2081  0.047187476  0.046783053            2 
 2140000     0.923478    -5.040776    1209.1449  0.047085083  0.046773513            3 
 2141000   0.92339381   -4.9991173    1212.8563  0.047207545  0.046763958            3 
 2142000   0.90245035    -5.034531    1204.2332  0.046850031  0.046754462            4 
 2143000   0.90992745   -5.0290367    1210.6538  0.047077841  0.046744794            4 
 2144000   0.91272454   -5.0082325    1212.9484  0.047145071  0.046735358            6 
 2145000   0.91078621   -5.0378378    1210.9759  0.047046459  0.046725954            5 
 2146000   0.90902304   -5.0166388    1212.2106  0.047072483  0.046716497            1 
 2147000   0.90665973   -5.0429665    1212.7536  0.047071634  0.046706944            3 
 2148000   0.90227452   -5.0179259    1214.3836  0.047112958  0.046697509            4 
 2149000    0.9039496   -5.0391446    1212.2492  0.047008268  0.046687988            8 
 2150000   0.90940046   -5.0338722    1214.9607  0.047091498  0.046678635            2 
 2151000   0.92101863   -5.0509655    1210.4127  0.046893409  0.046669086            7 
 2152000   0.90012145    -5.050466    1209.3402   0.04683009  0.046659593            4 
 2153000   0.90759444   -5.0394943     1214.181  0.046995702  0.046650256            4 
 2154000   0.90147545   -5.0305726    1209.2293  0.046782315  0.046640739            6 
 2155000   0.90015685    -5.026628    1214.0411  0.046946677  0.046631177            5 
 2156000   0.89596779   -5.0331222    1211.8907  0.046841785  0.046621613            2 
 2157000   0.93068862   -5.0107218    1215.1023  0.046944145  0.046612174           11 
 2158000   0.90815075   -5.0182828    1217.0709  0.046998413  0.046602684            4 
 2159000   0.89005876   -5.0464636    1215.1009  0.046900607  0.046593122            4 
 2160000   0.92950811   -5.0236293    1217.4759  0.046970519  0.046583716            6 
 2161000   0.91161346   -5.0241817    1215.2693  0.046863695   0.04657434            5 
 2162000   0.90819721   -5.0486731    1213.2699  0.046764952  0.046564742            6 
 2163000   0.90828656   -5.0332394    1213.0491  0.046734823  0.046555194            6 
 2164000   0.91137464   -5.0439014    1216.3382  0.046839889  0.046545759            6 
 2165000    0.9144368   -5.0385193    1217.4908  0.046862619  0.046536203            6 
 2166000   0.90424241   -5.0626659     1214.318  0.046718915  0.046526698            4 
 2167000   0.90752303   -5.0537074    1214.6445   0.04670991  0.046517242            9 
 2168000   0.89689477   -5.0608199    1221.2776  0.046943325    0.0465076            3 
 2169000    0.9199606   -5.0287612     1219.628  0.046858308  0.046498224            2 
 2170000   0.91848896   -5.0349341    1216.7252   0.04672524  0.046488757            9 
 2171000   0.91281806   -5.0478673    1215.1061  0.046641568  0.046479324            7 
 2172000   0.91893204   -5.0566754    1217.3278  0.046705334   0.04646993            4 
 2173000   0.91490031   -5.0248641    1218.8348  0.046741632  0.046460463            5 
 2174000   0.88742771     -5.06377         1219  0.046726464  0.046451116            2 
 2175000   0.91552624    -5.041389    1218.3349  0.046679499   0.04644171            5 
 2176000   0.89219322   -5.0347829    1218.6237  0.046669107  0.046432367            7 
 2177000   0.91263136   -5.0336239    1215.9706  0.046546112  0.046422909            7 
 2178000   0.89280423   -5.0450734    1219.3404  0.046653673  0.046413442            4 
 2179000   0.88269195   -5.0308351    1224.0892  0.046813875  0.046403998            3 
 2180000   0.91636733   -5.0480407    1220.8753  0.046669543  0.046394518            4 
 2181000   0.89458562   -5.0195637    1223.2858  0.046740248  0.046384965            4 
 2182000   0.91146466   -5.0277575    1222.1627  0.046675934  0.046375498           10 
 2183000   0.89877603   -5.0221891    1220.1279  0.046576877  0.046365971            4 
 2184000   0.88495788   -5.0762711    1217.8878  0.046470077  0.046356208            4 
 2185000   0.89764243   -5.0374979    1219.0629  0.046493626  0.046346468            3 
 2186000   0.87515809    -5.016757     1224.767  0.046689805  0.046336758            6 
 2187000   0.90265933   -5.0404475    1220.7274  0.046514534  0.046327161            6 
 2188000   0.89180121   -5.0424295    1222.4745  0.046559816  0.046317712            3 
 2189000   0.89918547   -5.0302567    1225.8734   0.04666794  0.046308098            6 
 2190000   0.89094095   -5.0586098    1222.6041  0.046522225  0.046298531            5 
 2191000   0.91606667   -5.0455122    1220.0409  0.046403504  0.046288941            3 
 2192000   0.88569422   -5.0691369    1219.5706  0.046364453   0.04627916            5 
 2193000   0.89315151   -5.0420163    1221.3853  0.046412271  0.046269285            4 
 2194000    0.8968802   -5.0574464    1222.1235  0.046419156  0.046259399            3 
 2195000   0.89713219   -5.0143989    1221.9167  0.046390157  0.046249618            5 
 2196000   0.90632849   -5.0299347    1222.2137  0.046380299  0.046239793            3 
 2197000   0.90004113    -5.055941    1220.4814  0.046293483  0.046229877            3 
 2198000   0.87020075    -5.047583    1220.9356  0.046289643  0.046220046            4 
 2199000   0.91279819    -5.068195    1220.1046  0.046237102  0.046210107            9 
 2200000   0.90520295   -5.0517002    1224.6004  0.046386379  0.046200309            3 
 2201000   0.89167578   -5.0413431      1226.54  0.046438739    0.0461904            5 
 2202000   0.89833918   -5.0588804    1223.4783  0.046301783  0.046180498            3 
 2203000   0.91750719   -5.0805214    1222.5341  0.046245047  0.046170442            3 
 2204000    0.9181799   -5.0739321    1224.4812  0.046297687  0.046160523            6 
 2205000    0.8809495    -5.063765    1222.9835  0.046220085  0.046150589            7 
 2206000   0.89558351   -5.0392391    1227.1106  0.046355041  0.046140665            5 
 2207000   0.88521762   -5.0625743    1224.9251  0.046251515   0.04613089            5 
 2208000   0.86738028   -5.0479785    1224.5023  0.046214612  0.046120847            5 
 2209000   0.89706245   -5.0678861     1222.431  0.046115549  0.046110853            3 
 2210000   0.90031408   -5.0797137    1223.4622  0.046133567  0.046100966            7 
 2211000   0.89776467   -5.0521591    1226.1089  0.046212456  0.046090791            9 
 2212000   0.91745161   -5.0250065     1227.539   0.04624544  0.046080848            6 
 2213000   0.89081637   -5.0203325    1231.0103  0.046355262  0.046070926            2 
 2214000   0.88179395   -5.0460335    1229.8037  0.046288906  0.046061116            3 
 2215000   0.88576962   -5.0484262    1224.4045  0.046064879  0.046051246            3 
 2216000   0.89692037   -5.0511436    1225.2155  0.046074591  0.046041391            8 
 2217000   0.90886885   -5.0728685    1228.1526  0.046164209  0.046031452            3 
 2218000   0.88937794   -5.0951325    1225.0468  0.046026704  0.046021539            5 
 2219000   0.88581039   -5.0321895    1228.9146  0.046151218   0.04601158            3 
 2220000   0.91019619   -5.0178976    1231.8374  0.046240141   0.04600171            5 
 2221000   0.91093509   -5.0746489    1225.2161   0.04597089  0.045991839            8 
 2222000    0.9022665   -5.0572203    1227.1437  0.046022491  0.045981872            3 
 2223000   0.88787388   -5.0464276    1230.5131  0.046128096  0.045971847            7 
 2224000   0.88296576   -5.0683908    1229.2751  0.046060968  0.045961859           10 
 2225000   0.90104815   -5.0569206    1226.9204  0.045952074  0.045951788            4 
 2226000    0.8775931   -5.0909679    1229.1777  0.046015938  0.045941681            4 
 2227000   0.89054779   -5.0595421    1228.0562  0.045953308  0.045931517            5 
 2228000   0.90789513   -5.0683295    1229.6251  0.045991363  0.045921449           10 
 2229000   0.90292664   -5.0689297    1223.5977  0.045745391  0.045911292            8 
 2230000   0.88945073   -5.0310981    1232.7456  0.046066728   0.04590131            3 
 2231000    0.8828624   -5.0425885    1229.8421  0.045937627  0.045891254            7 
 2232000   0.90461769   -5.0683303    1229.6871  0.045911256  0.045881255            4 
 2233000   0.90064073   -5.0640803    1227.7576  0.045818689  0.045871181            5 
 2234000   0.90778984   -5.0649439    1230.5131  0.045900967   0.04586105            8 
 2235000    0.8968067   -5.0606628    1229.7339  0.045851377  0.045850723            7 
 2236000   0.88664695   -5.0673515    1229.0615   0.04580581  0.045840755            9 
 2237000   0.91059089   -5.0668194    1228.4859  0.045763892  0.045830745            6 
 2238000    0.8942931    -5.061284    1232.3494  0.045887303  0.045820688            7 
 2239000   0.91406701   -5.0595724    1231.6212  0.045839704  0.045810695            4 
 2240000   0.89994709   -5.0812708    1231.9131  0.045830101  0.045800551            8 
 2241000   0.89571169   -5.0774614    1233.9417  0.045885086  0.045790359            4 
 2242000   0.88327003   -5.0773027    1234.0536  0.045868779   0.04578032            4 
 2243000    0.9126516   -5.0725929    1233.6048  0.045831655  0.045770286            4 
 2244000   0.89741672   -5.0527133    1232.6175  0.045774567  0.045760237            3 
 2245000   0.89586364    -5.051748    1237.3207  0.045928756  0.045750331            6 
 2246000   0.86190729   -5.0473228    1234.9115  0.045818918  0.045740528            7 
 2247000   0.91544109   -5.0686309    1235.0873  0.045805047  0.045730637            3 
 2248000   0.89495991   -5.0629935    1238.4109  0.045907876  0.045720693            6 
 2249000   0.87923522   -5.0693265    1234.6125  0.045746722  0.045710751            3 
 2250000   0.90759134   -5.0939861    1234.7227   0.04573047  0.045700693            2 
 2251000   0.90025678    -5.065102    1237.1894  0.045801472   0.04569059            5 
 2252000   0.92385852   -5.0548502    1237.5932  0.045796079  0.045680622            5 
 2253000    0.8864904   -5.0865595    1235.4253  0.045695566  0.045670665            5 
 2254000   0.89430201   -5.0922791    1234.5688  0.045643626  0.045660573            7 
 2255000   0.91347711   -5.0685841    1240.6422  0.045847829  0.045650664            6 
 2256000   0.89999845   -5.0791206    1240.5129  0.045822729  0.045640699            4 
 2257000   0.88382282   -5.0787262     1241.005  0.045820596   0.04563069            7 
 2258000   0.89512352    -5.059514     1239.136  0.045731326  0.045620815            5 
 2259000   0.88812483    -5.065146    1241.8519   0.04581127  0.045611145            8 
 2260000   0.89499232   -5.0976989    1241.5886  0.045781292  0.045601404           12 
 2261000   0.85686178   -5.0538201    1244.8495   0.04588123  0.045591762            3 
 2262000   0.88289138   -5.0511978    1243.1639  0.045798847   0.04558209            2 
 2263000    0.8903013   -5.1004651    1242.0621  0.045738037  0.045572197            5 
 2264000   0.86784276   -5.0525659    1244.1894  0.045796136  0.045562343            4 
 2265000   0.89848542   -5.0838998    1241.4342  0.045674547  0.045552483            4 
 2266000   0.88150331   -5.0503101    1242.3003  0.045686241  0.045542632            3 
 2267000   0.89428612   -5.0764032    1242.0522   0.04565697  0.045532683            3 
 2268000   0.89992157   -5.0744445    1242.0341  0.045636175  0.045522859            3 
 2269000   0.86744573   -5.0752999    1243.5862  0.045673066  0.045513061            3 
 2270000    0.8892879   -5.0419311    1243.6531  0.045655401  0.045503297            7 
 2271000   0.87399346   -5.0602692    1245.9607  0.045719973  0.045493364            8 
 2272000   0.91164125    -5.067922    1241.5951  0.045539728  0.045483493            5 
 2273000   0.86720165   -5.0644566    1247.4755  0.045735279  0.045473822            6 
 2274000   0.87318099   -5.0281944    1253.0175  0.045918261  0.045464234            4 
 2275000   0.91626873   -5.0948544    1245.5717  0.045625336  0.045454653            3 
 2276000   0.87865911    -5.074547    1244.7427  0.045574938  0.045445088            8 
 2277000   0.89034626   -5.0779662    1249.1396   0.04571584  0.045435401            4 
 2278000   0.89554832   -5.0391031    1247.9285  0.045651466  0.045425827            5 
 2279000   0.88856761   -5.0646019    1246.1911  0.045567907  0.045416168            2 
 2280000   0.88168946   -5.0683452    1246.2052  0.045548435  0.045406256            4 
 2281000   0.87987586   -5.0638987    1246.2459  0.045529954  0.045396551            7 
 2282000   0.87625746   -5.0639083    1251.9687  0.045718986  0.045386854            4 
 2283000   0.89375913   -5.0644492    1250.4412  0.045643203  0.045377156            4 
 2284000    0.9132145   -5.0900781     1250.447  0.045623432  0.045367603            8 
 2285000   0.88585612   -5.0431326     1253.234  0.045705107  0.045358203            5 
 2286000   0.86815592   -5.0620008    1251.1398  0.045608772  0.045348628            3 
 2287000   0.90305009   -5.0718181    1252.8881  0.045652534   0.04533904            5 
 2288000   0.88983364   -5.0648333    1248.7304  0.045481148  0.045329307            2 
 2289000   0.88202179   -5.0711156    1254.5085  0.045671634  0.045319609            8 
 2290000   0.87486381   -5.0747412    1249.8217  0.045481139  0.045309831            6 
 2291000   0.89136866     -5.05731    1251.4245  0.045519589  0.045300065            7 
 2292000   0.89654967   -5.0660548    1247.5919  0.045360379  0.045290293            6 
 2293000   0.88804385   -5.0949545     1251.494  0.045482409  0.045280641            3 
 2294000   0.88505333   -5.1118684    1250.1548  0.045413934  0.045270968            5 
 2295000   0.88307529   -5.0761381    1253.9107  0.045530526  0.045261312            4 
 2296000   0.86204604    -5.069967     1257.941  0.045656977  0.045251792           10 
 2297000   0.87417403   -5.0989804    1255.4607  0.045547116  0.045242259            3 
 2298000   0.89589765   -5.0804048    1252.2705  0.045411608  0.045232703            5 
 2299000   0.88615591   -5.0625966    1254.9994  0.045490773  0.045223184            2 
 2300000    0.9113402   -5.0813323     1255.794  0.045499782  0.045213729            3 
 2301000   0.89949048   -5.0782775    1255.4236  0.045466596  0.045204094            5 
 2302000   0.88120194   -5.0756464    1253.8251  0.045388975  0.045194476            4 
 2303000   0.90770222   -5.0937978    1253.0116  0.045339831  0.045184793            6 
 2304000   0.88894165   -5.0781187    1256.6814  0.045452886  0.045175217            4 
 2305000   0.87979096   -5.1033631    1253.3929  0.045314275  0.045165603            4 
 2306000   0.89430348   -5.0875887    1257.1655   0.04543096  0.045156039            6 
 2307000    0.8674634   -5.0908838    1255.5594  0.045353249  0.045146392            3 
 2308000   0.88176545   -5.0514877    1260.7089  0.045519529  0.045136882            3 
 2309000   0.90005601   -5.0693959    1257.4493  0.045382176  0.045127336            3 
 2310000   0.87532511   -5.0801135    1257.4895  0.045363977  0.045117929            2 
 2311000   0.88285264   -5.0607746    1259.3059  0.045409847  0.045108631            8 
 2312000   0.90116767   -5.0928299    1259.8729  0.045410642  0.045099334            4 
 2313000   0.88251419    -5.101067    1255.5562  0.045235486  0.045089952            4 
 2314000   0.87868179   -5.0878793    1255.1409  0.045200985  0.045080384            6 
 2315000    0.8831007   -5.0987606    1263.9713  0.045499325  0.045070873            2 
 2316000   0.86562405   -5.0797077    1261.5595    0.0453929  0.045061255            2 
 2317000    0.8983429   -5.0842073    1257.5222  0.045228104  0.045051822            6 
 2318000    0.8704089   -5.0570794    1267.0905  0.045552576  0.045042375            3 
 2319000   0.87605833   -5.1225051    1260.7943  0.045306679  0.045032903           10 
 2320000   0.88761372    -5.100966    1257.5501   0.04517062  0.045023305            6 
 2321000   0.86666019   -5.0767228    1264.1555   0.04538832   0.04501372            3 
 2322000   0.89004693   -5.1029795    1258.3559  0.045160633   0.04500415            4 
 2323000    0.8945476   -5.0711641    1263.4017  0.045322201  0.044994496            5 
 2324000    0.8803444    -5.071042     1262.472  0.045269362  0.044985144            5 
 2325000   0.87401454   -5.0923952    1261.8722  0.045228394  0.044975587            6 
 2326000   0.86293087   -5.0788942    1263.1644  0.045255244  0.044966077            4 
 2327000   0.88150716   -5.0958421    1262.6531  0.045217486  0.044956574            4 
 2328000   0.89446666   -5.0766834    1267.4467  0.045369655   0.04494703            6 
 2329000   0.90529474   -5.0877353    1262.9531   0.04518939  0.044937572            6 
 2330000   0.89591679   -5.1269473    1261.1583  0.045105803   0.04492798            4 
 2331000   0.87271165   -5.0900296    1266.6748   0.04528367  0.044918348            3 
 2332000   0.87112804   -5.0866644    1263.5557  0.045152792  0.044908677            7 
 2333000   0.88089531   -5.0700494     1264.265  0.045158774  0.044899027            5 
 2334000   0.88735647   -5.1053511    1263.1281  0.045098833  0.044889505            5 
 2335000   0.88383703   -5.1233994    1264.7895   0.04513881  0.044879937            7 
 2336000   0.87361624   -5.1034314    1264.6731  0.045115336   0.04487044            8 
 2337000   0.90132848   -5.0809798     1267.019   0.04517968  0.044861047            6 
 2338000   0.87762409   -5.0755273    1268.5073  0.045213406  0.044851533           10 
 2339000    0.8861935   -5.1047816    1270.5528  0.045266952  0.044842101            5 
 2340000   0.87718889    -5.104097    1266.0206  0.045086203  0.044832659            5 
 2341000   0.89883639   -5.0433235    1270.6765  0.045232682  0.044823252            3 
 2342000   0.87441075   -5.0657543    1270.2094  0.045196746  0.044813981            7 
 2343000   0.87360607   -5.0969723    1266.5674  0.045047923  0.044804453            5 
 2344000   0.85708623   -5.0983612    1264.4743  0.044954293  0.044795003            3 
 2345000   0.87682141   -5.0889701    1270.0087  0.045131793  0.044785539            6 
 2346000   0.86766856   -5.0969349    1268.9024  0.045073261  0.044776221           10 
 2347000   0.89155575   -5.0793254    1271.8145  0.045157452  0.044766743            6 
 2348000   0.89508549   -5.0825079     1273.604  0.045201733  0.044757401            8 
 2349000   0.87824528   -5.0871279    1275.1284  0.045236569  0.044747979            6 
 2350000   0.87640556   -5.0962304    1277.4579  0.045299927  0.044738651            3 
 2351000   0.88564165   -5.1051243    1274.5237  0.045176653  0.044729395            3 
 2352000    0.8503228   -5.1159765    1268.4532  0.044942361  0.044720041            6 
 2353000   0.87412487   -5.0855273     1271.788  0.045041367  0.044710719            5 
 2354000    0.8740217   -5.0972265    1270.0586  0.044961009  0.044701444            5 
 2355000   0.86033419   -5.1097791    1268.8023  0.044897462  0.044692089            4 
 2356000   0.87810427   -5.0980975    1274.3376  0.045074192  0.044682707            5 
 2357000   0.87904781    -5.087247    1271.2715  0.044946668  0.044673352            5 
 2358000   0.87703266   -5.0811556    1275.4233  0.045074332  0.044663919            5 
 2359000   0.85924471   -5.1026167    1268.8104   0.04482162   0.04465442            4 
 2360000   0.89280914   -5.0745615    1273.6127  0.044972199  0.044645025            3 
 2361000   0.87508142   -5.0848754    1278.7113  0.045133111  0.044635797            2 
 2362000   0.87781286   -5.1073493    1267.7565   0.04472751  0.044626351            6 
 2363000   0.87043704   -5.0939876    1275.1694  0.044970002  0.044616934            7 
 2364000   0.85551488   -5.0831977    1274.9638  0.044943734  0.044607455            5 
 2365000   0.87736176   -5.0856182    1272.6718  0.044843967  0.044598156            5 
 2366000   0.86844478   -5.1269789    1273.6497  0.044859456  0.044588862            5 
 2367000   0.86864022   -5.1184686    1276.1595  0.044928864  0.044579482            7 
 2368000   0.87792432   -5.1068821    1274.2376  0.044842259  0.044570176            4 
 2369000   0.87176699   -5.1368269    1273.6034  0.044801021  0.044560928            5 
 2370000   0.87189099   -5.0911973    1273.1859  0.044767437  0.044551524            7 
 2371000   0.87009059   -5.1133267    1275.4767  0.044829069   0.04454217            4 
 2372000    0.8814448    -5.120966     1280.158  0.044974634  0.044532791            5 
 2373000   0.89800326   -5.1075087    1275.5493  0.044793836  0.044523543            5 
 2374000   0.85376133   -5.0788199     1278.775  0.044888198  0.044514238            3 
 2375000   0.86541778   -5.1206721    1273.9348  0.044699468  0.044504865            6 
 2376000   0.86057457     -5.11784    1280.2731  0.044902957  0.044495532            4 
 2377000   0.89731708   -5.1320082    1279.6468  0.044862108  0.044486141            7 
 2378000   0.86140157   -5.1355718    1277.5001  0.044768015  0.044476777            4 
 2379000   0.86187397    -5.102082    1278.0809  0.044769544  0.044467449            3 
 2380000   0.86577456   -5.0732788    1283.6113  0.044944373  0.044458056           11 
 2381000    0.8721112   -5.0864818    1284.1931   0.04494586  0.044448819            3 
 2382000   0.86863593   -5.1409739    1279.4229  0.044760108  0.044439421            9 
 2383000   0.86342737   -5.0833092    1279.7984  0.044754454   0.04443009            4 
 2384000   0.88012042   -5.1078293    1282.5563  0.044832084  0.044420547            8 
 2385000    0.8601932   -5.0963476    1281.6816  0.044782726  0.044411071            4 
 2386000   0.87237896   -5.0915007    1277.3518  0.044612733  0.044401689            4 
 2387000   0.89719029   -5.0929063    1281.9798  0.044755613  0.044392246            4 
 2388000   0.88121697   -5.1172141    1280.5773   0.04468793  0.044382803            3 
 2389000   0.86530183   -5.1259124    1279.0962   0.04461756   0.04437319            5 
 2390000    0.8750912   -5.1125729      1280.94   0.04466318  0.044363721            2 
 2391000   0.86602862   -5.1132821    1279.3973  0.044590732   0.04435416            2 
 2392000    0.8850061   -5.1026165    1277.3926   0.04450225  0.044344633            5 
 2393000   0.87519169   -5.0985247    1280.6993  0.044598807  0.044335065            3 
 2394000    0.8940403   -5.1055459    1278.1442  0.044491234  0.044325436            5 
 2395000   0.85438278   -5.1073128    1280.3551  0.044549587  0.044315757            5 
 2396000   0.88184625   -5.0806212    1279.5589    0.0445033  0.044306212            5 
 2397000   0.87855463    -5.119127    1281.1427  0.044539797  0.044296749            7 
 2398000     0.850952   -5.0889335    1278.7426  0.044437815  0.044287143            6 
 2399000   0.86847919   -5.1246668    1279.4759  0.044444764  0.044277538            6 
 2400000    0.8544558   -5.1105554    1280.6201  0.044465976  0.044267925            5 
 2401000   0.85812386   -5.1103114    1280.5256  0.044444177  0.044258328            4 
 2402000   0.86563085   -5.1029448     1286.109  0.044619378  0.044248763            4 
 2403000   0.84556791   -5.1150839    1281.4671  0.044439836  0.044239268            3 
 2404000   0.85819912   -5.1079271    1282.3496   0.04445194  0.044229606            6 
 2405000   0.84463151   -5.1282723     1280.407  0.044366148  0.044220092            5 
 2406000   0.88051532   -5.1144146    1281.9871  0.044402435  0.044210438            4 
 2407000   0.87610176   -5.1152163    1284.0093  0.044453997  0.044200851            4 
 2408000   0.87072208   -5.1106079    1284.9229  0.044467155  0.044191441            7 
 2409000   0.87120284   -5.0831641    1283.9873   0.04441633   0.04418182           10 
 2410000   0.86317068   -5.1300475    1283.8098  0.044391764  0.044172345            4 
 2411000   0.84507248   -5.1171684    1289.1538   0.04455806  0.044162665            6 
 2412000   0.86184292   -5.1382182    1284.5223  0.044379572  0.044153214            7 
 2413000   0.87682781    -5.099874    1286.8183   0.04444047  0.044143715            5 
 2414000   0.84274363   -5.1399503    1282.9784  0.044289504  0.044134206            5 
 2415000   0.86856927   -5.1066434    1289.6748  0.044502236  0.044124665            3 
 2416000   0.88038647   -5.1004339    1288.4876  0.044442869  0.044115197            4 
 2417000   0.84711274   -5.1178464    1287.4652   0.04438923  0.044105729            4 
 2418000   0.85486393   -5.1426009    1283.1117  0.044220832  0.044096151            7 
 2419000   0.86301769   -5.1435334    1285.4514  0.044283153  0.044086523            5 
 2420000    0.8664109     -5.14113    1289.2219  0.044394692  0.044077006            4 
 2421000   0.86268107   -5.1348764    1286.8243   0.04429383  0.044067425            5 
 2422000   0.86178594    -5.124692    1287.9518  0.044314332   0.04405781            6 
 2423000   0.84273392   -5.1263768    1291.5488  0.044419754  0.044048329            6 
 2424000   0.86042008    -5.121821    1290.8667   0.04437798  0.044038758            5 
 2425000   0.88113499   -5.1169096    1292.3873  0.044411935  0.044029231            2 
 2426000   0.85892586   -5.1392732    1291.2483  0.044354502  0.044019866            7 
 2427000   0.86251888   -5.1148816    1291.1764  0.044333759  0.044010375            2 
 2428000    0.8567118   -5.0825823    1293.2022   0.04438503   0.04400088            6 
 2429000   0.86168373    -5.109736    1287.3498  0.044165973  0.043991384            3 
 2430000   0.87096589   -5.1449409    1290.9702  0.044271956  0.043981935           10 
 2431000   0.88194697   -5.1241713    1291.4903  0.044271573  0.043972459            5 
 2432000   0.85208712   -5.1296329    1288.4861  0.044150428   0.04396303            8 
 2433000   0.84272947   -5.1344322    1290.7982  0.044211475   0.04395348            3 
 2434000   0.88089754   -5.1562561    1293.3321  0.044280064  0.043943932            4 
 2435000   0.86868954   -5.1345709    1290.2257  0.044155569  0.043934358            5 
 2436000   0.86029157   -5.0969149    1292.7637  0.044224265  0.043924885            9 
 2437000   0.87173356     -5.12281    1289.5351  0.044095715  0.043915348            8 
 2438000   0.84818857   -5.1431171    1292.7889  0.044188846  0.043905829            6 
 2439000   0.87549837   -5.1509283    1291.0376  0.044110893  0.043896218            3 
 2440000   0.84675607   -5.1538964    1292.2481  0.044134157  0.043886729            6 
 2441000    0.8644709   -5.1424185    1290.0965  0.044042621  0.043877221            5 
 2442000   0.86272269   -5.1283282      1291.38  0.044068385  0.043867662            3 
 2443000   0.87163956   -5.1210701     1293.369  0.044118196  0.043858295            4 
 2444000   0.84885661   -5.1393053    1294.2975  0.044131802  0.043848793            4 
 2445000   0.87329661   -5.1354122    1296.8265  0.044199948  0.043839314            6 
 2446000   0.85543219   -5.1347489    1292.6595  0.044039912  0.043829839            5 
 2447000   0.84849127   -5.1139585    1295.1879   0.04410802  0.043820379            6 
 2448000   0.85347987   -5.1143064    1295.4192  0.044097875  0.043810845            7 
 2449000   0.85070743   -5.1417334    1296.6112   0.04412043  0.043801286            8 
 2450000   0.84361654   -5.1435353    1294.7421  0.044038846  0.043791788            7 
 2451000   0.86016393   -5.1451665    1294.6251    0.0440169  0.043782263            4 
 2452000   0.87711887    -5.128193    1297.8926  0.044109999   0.04377275            3 
 2453000   0.84290023   -5.1407817    1296.8389   0.04405622  0.043763343            5 
 2454000   0.85994062   -5.1278025    1298.6209  0.044098782  0.043753691            4 
 2455000   0.85838927   -5.1142596    1293.4493  0.043905271  0.043744111            4 
 2456000   0.85378764   -5.1352223    1296.9491  0.044006143  0.043734605            6 
 2457000   0.85461347   -5.1371809    1295.0771  0.043924742  0.043725021           10 
 2458000   0.84994941   -5.1621969    1292.2644  0.043811513  0.043715335            7 
 2459000   0.85021329   -5.1413881    1295.5542  0.043905186  0.043705714            3 
 2460000   0.84016722   -5.1304537    1297.9064   0.04396702  0.043696098            4 
 2461000   0.85055318   -5.1047173    1296.3238  0.043895563  0.043686494            7 
 2462000   0.84932591   -5.1494112    1297.1265  0.043904905  0.043676947            4 
 2463000   0.88510956   -5.1291404    1298.0028  0.043916729  0.043667377            9 
 2464000   0.85896061   -5.1334642    1294.7524  0.043788974  0.043657859            3 
 2465000    0.8639569   -5.1400506    1295.2105  0.043786696  0.043648295            5 
 2466000   0.85689367   -5.1289524    1295.8334  0.043789992   0.04363884            4 
 2467000   0.84896334   -5.1508349    1295.7792  0.043770409  0.043629231            2 
 2468000   0.87745353   -5.1540259    1297.6915  0.043817243  0.043619662            4 
 2469000   0.85101311   -5.1241895    1301.4063  0.043924878  0.043610007            3 
 2470000     0.858366    -5.158941    1300.7759  0.043885828  0.043600403            3 
 2471000   0.84439035   -5.1144827    1302.3789  0.043922127  0.043590845            6 
 2472000   0.85393328   -5.1194316    1301.1117  0.043861639  0.043581427            5 
 2473000    0.8446214   -5.1435409    1300.8441  0.043834888  0.043571912            4 
 2474000   0.84711847   -5.1133073    1300.2181  0.043796083  0.043562355            6 
 2475000   0.86260335   -5.1484079    1297.4168  0.043684066  0.043552802            7 
 2476000   0.85141708   -5.1197222    1299.9021  0.043750071  0.043543059            3 
 2477000   0.85959805   -5.1095778    1301.9414  0.043801014  0.043533511            6 
 2478000    0.8551809   -5.1323529    1300.0342  0.043719202  0.043523837            5 
 2479000   0.84433995   -5.1406799     1302.481  0.043783818  0.043514301            8 
 2480000   0.86298071   -5.1463167    1299.9231  0.043680212  0.043504559           10 
 2481000   0.85004313   -5.1559838    1303.7088  0.043789764  0.043494975            4 
 2482000   0.86814772   -5.1284447    1301.7652  0.043706864  0.043485366            5 
 2483000   0.84450973   -5.1446052    1300.7411  0.043654889  0.043475835            4 
 2484000    0.8550634   -5.1681471    1301.4686  0.043661723  0.043466188            9 
 2485000   0.86041872   -5.1725335    1299.8129  0.043588627  0.043456508            5 
 2486000   0.85386061   -5.1744573     1299.669  0.043566272  0.043446655            4 
 2487000   0.85100339   -5.1570658    1301.5809  0.043612817  0.043436998           12 
 2488000   0.84078263   -5.1633627    1299.8914  0.043538699  0.043427277            5 
 2489000   0.85633825   -5.1572851    1302.8775  0.043621184  0.043417564            6 
 2490000   0.83423911   -5.1427094    1304.0461  0.043642774  0.043407924            5 
 2491000   0.86997648   -5.1304187    1304.6511  0.043645493  0.043398264            3 
 2492000   0.86908409   -5.1636133    1301.6654  0.043528138  0.043388584            7 
 2493000   0.84453389   -5.1496106    1300.4804  0.043471066  0.043378799           39 
 2494000   0.84418325   -5.1183143    1306.2145  0.043645233   0.04336905            6 
 2495000   0.84344429   -5.1418004    1301.4035  0.043467051  0.043359317            3 
 2496000    0.8409783   -5.1509664    1305.0522  0.043571454  0.043349491            9 
 2497000    0.8675794   -5.1173305    1304.1334   0.04352334  0.043339762            6 
 2498000   0.84332904   -5.1363403    1304.1052  0.043504978  0.043330173            5 
 2499000   0.85125201   -5.1420965    1302.7916  0.043443764  0.043320525            4 
 2500000   0.84963721   -5.1580635    1309.5363   0.04365121  0.043310961            4 
 2501000   0.85100539   -5.1637175    1304.2228  0.043456709  0.043301274            5 
 2502000   0.85589571   -5.1319855     1303.137  0.043403177  0.043291654            7 
 2503000   0.84259344    -5.144903    1303.9828  0.043413995  0.043282123            4 
 2504000   0.85840631   -5.1451169    1310.2837  0.043606352  0.043272542           10 
 2505000   0.84450608   -5.1589639    1307.5708  0.043498695  0.043263008            5 
 2506000    0.8563827   -5.1334935    1308.7802  0.043521556  0.043253614            4 
 2507000   0.83904368   -5.1359114    1309.3743  0.043523942  0.043243973            9 
 2508000   0.85468774   -5.1586279    1303.6055  0.043314908  0.043234288            4 
 2509000   0.84866458   -5.1801118    1304.2764  0.043319927  0.043224624            5 
 2510000   0.84564532   -5.1382672    1310.8874  0.043522159  0.043215124            4 
 2511000   0.83888744   -5.1382015    1304.9937  0.043309228  0.043205571            3 
 2512000   0.83608038   -5.1697851    1306.0788  0.043327984  0.043195908           10 
 2513000    0.8531388   -5.1179286    1309.6927  0.043430584  0.043186229            5 
 2514000   0.85299194   -5.1588344    1309.2361  0.043398174  0.043176612            4 
 2515000   0.85898771   -5.1666531    1307.4658   0.04332226  0.043167014            3 
 2516000   0.83349944   -5.1461544    1308.4405  0.043337324  0.043157407            6 
 2517000   0.85994803   -5.1356506    1310.1522  0.043376776  0.043147785            8 
 2518000   0.85202759   -5.1673149    1307.7165   0.04327894  0.043138221            5 
 2519000   0.85622906   -5.1674265    1312.1373   0.04340801  0.043128596            2 
 2520000   0.85665097   -5.1777624    1306.6068  0.043207897  0.043118907            7 
 2521000   0.84977838   -5.1410669    1311.7263  0.043359986  0.043109245           12 
 2522000   0.85434854   -5.1423548    1312.2482  0.043360037  0.043099666            8 
 2523000   0.83396639   -5.1462081    1313.4818  0.043383598  0.043090116            7 
 2524000   0.85420393   -5.1601142    1306.4607  0.043134598   0.04308049            7 
 2525000   0.82708997    -5.163556    1315.9832  0.043431789  0.043070825            7 
 2526000   0.85044528   -5.1737663    1310.0511  0.043218892  0.043061239           13 
 2527000   0.85054546   -5.1804571    1310.6775  0.043222446  0.043051513            4 
 2528000   0.84042549   -5.1270822    1312.9751  0.043281087   0.04304183            7 
 2529000   0.85704063   -5.1375986    1313.3516   0.04327638  0.043032179            6 
 2530000   0.85431571    -5.140149    1314.0253  0.043281465  0.043022491            4 
 2531000   0.85547622   -5.1773743    1309.7528  0.043123694  0.043012792            6 
 2532000   0.85471561   -5.1748037    1305.5721  0.042969066  0.043002897            7 
 2533000   0.83869548   -5.1496122    1312.1909  0.043169854  0.042993118            6 
 2534000   0.85248189   -5.1624633    1312.1032  0.043149933  0.042983376            6 
 2535000   0.85104813   -5.1785835    1309.8686  0.043059455  0.042973583            2 
 2536000   0.85591532    -5.148809         1317  0.043276813  0.042963896            3 
 2537000    0.8374646   -5.1594058     1313.255  0.043136744  0.042954298            5 
 2538000    0.8420704    -5.166547    1315.1061  0.043180527   0.04294456            6 
 2539000   0.85391133     -5.13084    1309.9459  0.042994153  0.042934923            5 
 2540000   0.83517911   -5.1697467     1312.475  0.043060205  0.042925258            5 
 2541000     0.838439   -5.1718542     1309.475  0.042944872  0.042915514            7 
 2542000    0.8594161   -5.1419427    1313.9562  0.043074881  0.042905745            6 
 2543000   0.83795273   -5.1612112    1313.7674  0.043051757  0.042896033           11 
 2544000   0.84391953   -5.1572929    1312.6709  0.042998915   0.04288625            7 
 2545000   0.84893126   -5.1838143    1313.2376  0.043000576  0.042876518            3 
 2546000   0.85367781   -5.1696787    1315.1939  0.043047719   0.04286688            3 
 2547000   0.83720618   -5.1700749    1317.0364    0.0430911  0.042857247            7 
 2548000   0.83265942   -5.1703817    1318.5406  0.043123384  0.042847691            5 
 2549000   0.85425675   -5.1761465    1314.0121  0.042958418    0.0428381            2 
 2550000   0.84843118   -5.1711935    1317.0372  0.043040431  0.042828488            7 
 2551000   0.84541378   -5.1806681    1319.6203  0.043107942   0.04281893            5 
 2552000   0.85564499   -5.1621275    1317.9398  0.043036173  0.042809323            4 
 2553000   0.85570552   -5.1855874    1320.3131  0.043096785  0.042799805            6 
 2554000   0.85538567   -5.1896128    1317.2649  0.042980453  0.042790241            6 
 2555000   0.83862502   -5.1829202    1322.8535  0.043145908  0.042780768            5 
 2556000   0.85295772   -5.1568223    1321.1469  0.043073386   0.04277126            8 
 2557000   0.82587231   -5.1547316    1323.4072  0.043130204  0.042761777           10 
 2558000   0.81853278    -5.174209    1316.3041  0.042881944  0.042752234            5 
 2559000   0.85064155   -5.1561489     1324.013  0.043116225  0.042742643            2 
 2560000   0.83936635   -5.1550559    1317.8066   0.04289735  0.042733266            4 
 2561000   0.84000472   -5.1929021    1317.0411  0.042855692  0.042723754            4 
 2562000   0.85014717   -5.1533075    1322.0125  0.043000666  0.042714164            3 
 2563000   0.84226962   -5.1444716     1323.171  0.043021558  0.042704649            6 
 2564000   0.84496108   -5.1900758    1319.2595   0.04287765  0.042695119            5 
 2565000    0.8504719   -5.1343394    1321.5374   0.04293494  0.042685563            6 
 2566000   0.83895252   -5.1787146    1321.2523  0.042908947  0.042676051            6 
 2567000    0.8713768   -5.1725588    1322.4891  0.042932382  0.042666549            4 
 2568000   0.81786154   -5.1629141    1322.4437  0.042914189  0.042657041            4 
 2569000   0.83601021   -5.1662674    1325.6743   0.04300228  0.042647679            7 
 2570000   0.83417001    -5.175101    1326.7496  0.043020416  0.042638388            3 
 2571000   0.84978344   -5.2000008    1321.7368  0.042841202  0.042629044            6 
 2572000   0.84149194   -5.1673326    1326.5413  0.042980214  0.042619659            4 
 2573000   0.84333835   -5.1929208    1328.2981  0.043020408  0.042610233            5 
 2574000   0.83008315   -5.1785403    1326.1623  0.042934546  0.042600752            7 
 2575000   0.84069086   -5.2012254     1326.012   0.04291301  0.042591272            7 
 2576000   0.85386616   -5.1003524    1326.4833  0.042911597  0.042581983            7 
 2577000   0.84010246   -5.1644137     1326.744  0.042903377  0.042572769            5 
 2578000   0.83435363   -5.1577023    1328.4654  0.042942378  0.042563454            2 
 2579000   0.85911292    -5.199276    1326.2335  0.042853609  0.042554133            5 
 2580000   0.83091411   -5.1468751    1333.1323  0.043059827  0.042544949            7 
 2581000   0.86119023   -5.1817254    1327.8225  0.042871705  0.042535621            9 
 2582000   0.83971274   -5.1724604    1331.1489  0.042962461  0.042526272            3 
 2583000   0.82392076    -5.177584    1327.4466  0.042826383  0.042516948            3 
 2584000   0.85040312   -5.1747094    1326.7952  0.042788804  0.042507491            9 
 2585000   0.83795703   -5.1651633    1329.4825  0.042858882  0.042498195            5 
 2586000   0.85747993   -5.2212957    1325.9636  0.042728911  0.042488724            9 
 2587000   0.84059369   -5.2120225    1324.6177  0.042669041  0.042479266            7 
 2588000    0.8612696   -5.1583724    1332.4897  0.042906031  0.042469909            5 
 2589000   0.83915654   -5.1803246    1329.8242  0.042803664  0.042460545            4 
 2590000   0.82750967   -5.1494457    1329.8542  0.042788101   0.04245115            6 
 2591000   0.82647448    -5.179872    1326.8844  0.042676072  0.042441676            6 
 2592000   0.82354096   -5.1625539    1329.9721  0.042758876  0.042432235            2 
 2593000   0.82887017   -5.1791142    1326.6618  0.042636002  0.042422836            3 
 2594000   0.83666397   -5.1953883    1330.3873  0.042739246  0.042413376           11 
 2595000    0.8493595   -5.1561359    1329.5241  0.042695058  0.042403962            4 
 2596000    0.8187766   -5.1873852    1330.4737  0.042709093  0.042394613            4 
 2597000   0.83464495   -5.1704744    1330.6609  0.042698657  0.042385305            6 
 2598000   0.84681361   -5.1743266    1329.8755  0.042657029  0.042375937            5 
 2599000   0.83672487   -5.1648006    1328.0115  0.042580848  0.042366634            5 
 2600000   0.82607583    -5.186321    1336.3027  0.042830213   0.04235723            5 
 2601000   0.83256419   -5.1783852    1332.4451  0.042690155  0.042347871            4 
 2602000   0.83570811   -5.1818772    1332.6826  0.042681353  0.042338428            5 
 2603000   0.81889669   -5.1876115    1331.1382  0.042615514  0.042329092            6 
 2604000   0.82578495   -5.1573515     1335.046  0.042724206  0.042319786            4 
 2605000   0.83851383   -5.1785159     1334.257  0.042682565  0.042310378            7 
 2606000   0.82913018   -5.1714249    1334.6088  0.042677437  0.042301026           10 
 2607000   0.83794097   -5.2033232    1332.1749  0.042583267   0.04229164            4 
 2608000   0.84151612   -5.2101761    1332.9917  0.042593039  0.042282158            7 
 2609000   0.83487492   -5.1635832    1336.1224   0.04267671  0.042272871            9 
 2610000   0.82943707   -5.1890655    1338.6673  0.042741612  0.042263557            6 
 2611000   0.87761242   -5.1779924    1334.7065  0.042598829  0.042254395            5 
 2612000   0.85061962   -5.1973571     1336.354  0.042635083  0.042245199            5 
 2613000   0.83409498   -5.2024962    1334.0869  0.042546463  0.042235913            4 
 2614000    0.8414507   -5.1944052    1336.9266  0.042620717  0.042226672            5 
 2615000   0.82230576   -5.2033195    1333.9921  0.042510902  0.042217374            4 
 2616000   0.81809446   -5.2031168    1335.6902  0.042548744  0.042208062            5 
 2617000   0.83329508   -5.1927854    1335.0214  0.042511188  0.042198849            4 
 2618000     0.823159    -5.183978    1340.1097  0.042656915  0.042189718            5 
 2619000   0.82160937   -5.1583521    1340.4741  0.042652226  0.042180539            5 
 2620000   0.81867624   -5.2010039     1337.218   0.04253238    0.0421713            5 
 2621000   0.80879504   -5.1702196    1338.1484  0.042545734  0.042161915            8 
 2622000   0.84755915   -5.1692894    1335.5565  0.042447129  0.042152575            6 
 2623000   0.83700472   -5.1957623    1336.7384  0.042468495  0.042143245            9 
 2624000   0.81556912   -5.1830537    1335.9044  0.042425826  0.042133892            7 
 2625000   0.84913484   -5.2162944    1333.8797  0.042345389   0.04212459            7 
 2626000   0.83155278   -5.2035511    1337.7999  0.042453664  0.042115173            4 
 2627000   0.83601289   -5.1800555     1343.599  0.042621462  0.042105957            3 
 2628000   0.82869001   -5.1778564     1339.916  0.042488456  0.042096777            5 
 2629000    0.8218892   -5.2002614    1339.5773  0.042461561  0.042087523            5 
 2630000   0.84297445   -5.2062261    1336.2393  0.042339649  0.042078336            3 
 2631000   0.82774461   -5.1949962    1341.5983  0.042493294  0.042069201            5 
 2632000   0.82720444   -5.2305017    1337.8617  0.042358842  0.042060042            3 
 2633000   0.81389846   -5.1627644    1341.7465  0.042465708   0.04205089            9 
 2634000   0.86009709   -5.1830794    1343.9895  0.042520547  0.042041809            3 
 2635000   0.81036093   -5.2185731    1336.9447  0.042281616  0.042032654            7 
 2636000   0.82110662   -5.2062045    1339.6328  0.042350555  0.042023462            6 
 2637000   0.84822685   -5.2076078    1340.9578  0.042376368  0.042014248           12 
 2638000   0.81376528   -5.2155939    1340.3316  0.042340524  0.042004964            7 
 2639000   0.83855867   -5.1836615    1338.5705  0.042268869  0.041995688            7 
 2640000   0.81624803   -5.1903823    1342.1637  0.042366278    0.0419865            5 
 2641000    0.8126658   -5.1951015    1343.1365  0.042380934  0.041977385            6 
 2642000   0.81898097   -5.1808847    1348.3538  0.042529453  0.041968338            3 
 2643000   0.81438229   -5.2081539    1337.7518  0.042179082  0.041959104            3 
 2644000   0.82802741   -5.2152936    1340.7711  0.042258292   0.04194979            5 
 2645000   0.80741108   -5.1856104    1344.1605  0.042349102   0.04194057            5 
 2646000   0.82274252   -5.2500831     1340.779    0.0422266  0.041931174            9 
 2647000   0.84925769   -5.2038209    1341.5537  0.042235037   0.04192181            7 
 2648000   0.82814976   -5.1775748    1343.3938  0.042276996  0.041912658            4 
 2649000   0.82447084   -5.1719386    1343.6322  0.042268536  0.041903462            5 
 2650000   0.83310467   -5.1574085    1344.5648  0.042281912  0.041894163            7 
 2651000    0.8313644   -5.2173334    1341.5875  0.042172371  0.041884807            7 
 2652000   0.81758699   -5.2274126    1339.5946  0.042093849  0.041875543            7 
 2653000   0.82943818   -5.2059236    1348.4107  0.042354904  0.041866266            9 
 2654000   0.81564882    -5.222557    1340.0844  0.042077507  0.041856991            7 
 2655000   0.83607828   -5.1876056    1342.8961  0.042149909  0.041847648            8 
 2656000   0.82660023   -5.2001002    1344.5747  0.042186705  0.041838275            3 
 2657000   0.80921916   -5.2161593    1342.6741   0.04211122  0.041829071            4 
 2658000   0.80677023   -5.1992011    1344.3893  0.042149151   0.04181971           13 
 2659000   0.83427452   -5.1793433     1346.864  0.042210857  0.041810446            5 
 2660000   0.81477818   -5.2166882     1343.949  0.042103665  0.041801163           12 
 2661000   0.84546088   -5.2236723    1340.7561  0.041987853  0.041791792            8 
 2662000   0.83873736   -5.2116054    1349.2414   0.04223771  0.041782493            5 
 2663000   0.82456032   -5.1829661    1349.5157  0.042230433  0.041773265            8 
 2664000   0.81437908   -5.2122504    1340.6188  0.041936273  0.041763952            4 
 2665000   0.80984647   -5.1899036    1347.4573  0.042134374  0.041754692            3 
 2666000   0.82848363   -5.1764633    1346.1481  0.042077649  0.041745433            7 
 2667000   0.84652823   -5.2120816    1345.3147  0.042035829  0.041736242            8 
 2668000   0.82238101   -5.2034058    1349.5795  0.042153283  0.041726947            5 
 2669000    0.8420386    -5.227244    1343.9618   0.04196209  0.041717645            9 
 2670000   0.83493094   -5.2213751    1347.4287   0.04205458  0.041708294           18 
 2671000   0.81434284   -5.2013787    1350.0452  0.042120465  0.041699115            7 
 2672000   0.83308459   -5.2041347    1348.7595  0.042064605  0.041689896            6 
 2673000   0.81395634   -5.2056624    1346.4575  0.041977102  0.041680617            4 
 2674000   0.81779706      -5.2082    1347.8659  0.042005294  0.041671289            5 
 2675000   0.82845744    -5.222772    1344.1905  0.041875095  0.041661951           10 
 2676000    0.8116801   -5.1894042     1346.279  0.041924483  0.041652565            6 
 2677000   0.80849834   -5.1980818    1345.7335   0.04189184   0.04164318            4 
 2678000   0.81629474   -5.2367626     1346.727  0.041907113  0.041633812            3 
 2679000   0.82827956    -5.180167    1350.0634  0.041995252  0.041624519           10 
 2680000   0.81807221   -5.2129119     1343.574    0.0417778  0.041615087            5 
 2681000   0.82311351   -5.2142084     1346.636  0.041857391  0.041605602            4 
 2682000   0.80945582   -5.2049922    1350.2134  0.041952939  0.041596157            5 
 2683000   0.82364904   -5.2133433    1350.6137  0.041949735  0.041586756            4 
 2684000   0.82858236   -5.2318888    1347.7974  0.041846665  0.041577176            4 
 2685000   0.82238706   -5.2157299    1348.6588  0.041857815  0.041567762            5 
 2686000   0.80627644   -5.2278331     1348.421  0.041834853  0.041558368            4 
 2687000   0.81927612   -5.2276539    1345.9876  0.041743815  0.041548871            5 
 2688000   0.84622466   -5.2385685     1350.677  0.041873668  0.041539457            9 
 2689000   0.82984689   -5.2149335    1349.9872  0.041836717  0.041530095            6 
 2690000   0.81434472   -5.1809564    1353.1066  0.041917801  0.041520739            4 
 2691000   0.81351794     -5.18891    1351.2409  0.041844447  0.041511394            5 
 2692000    0.8234008   -5.2063101    1346.7529  0.041689974  0.041501989            5 
 2693000    0.8224203   -5.2378088    1346.0814  0.041653712  0.041492557           10 
 2694000   0.82460749     -5.21425    1349.7335  0.041751221  0.041483056            5 
 2695000    0.8390409    -5.201575    1347.7476  0.041674322  0.041473563            4 
 2696000   0.81742471    -5.218751    1351.4754  0.041774093  0.041464113            4 
 2697000   0.80902372    -5.239106    1349.7012  0.041703782   0.04145457            3 
 2698000   0.82545801   -5.2221542    1350.7222   0.04171986  0.041445173            5 
 2699000   0.81827337   -5.2207856    1349.4914    0.0416664  0.041435659            5 
 2700000   0.82565831   -5.2078463    1353.0897  0.041762028  0.041426127            5 
 2701000   0.82820976   -5.2074407    1349.7957  0.041644938  0.041416573            4 
 2702000   0.80870549   -5.2423058    1347.4212  0.041556291  0.041407071            4 
 2703000   0.83792755   -5.2321765    1348.7451  0.041581734  0.041397596            6 
 2704000   0.82400102   -5.2391004    1349.1507  0.041578856  0.041388035            9 
 2705000   0.82455866   -5.1931172    1348.7998  0.041552674  0.041378498            8 
 2706000   0.80893659   -5.2004907    1349.0215  0.041544146  0.041368991            5 
 2707000   0.80508816   -5.1991384    1353.9452  0.041680371   0.04135957            8 
 2708000   0.81767038   -5.1949857    1356.1148  0.041731744  0.041350113            7 
 2709000   0.80283537   -5.2195053    1353.2892  0.041629421  0.041340702            8 
 2710000   0.82440486   -5.2167336    1355.5819   0.04168456  0.041331285           11 
 2711000   0.83154228    -5.228827    1352.2004   0.04156524  0.041321788           10 
 2712000   0.81661128   -5.2331734    1354.2485  0.041612846  0.041312439            4 
 2713000   0.82999115   -5.2063616    1353.8293  0.041584633  0.041303001            8 
 2714000   0.80197662   -5.2176919    1350.7059  0.041473407  0.041293555            5 
 2715000   0.83086794   -5.2369507    1354.2885  0.041568093  0.041284073            4 
 2716000   0.80468621   -5.2263011    1356.2226  0.041612132  0.041274583            8 
 2717000   0.80345678   -5.2189866    1357.1011  0.041623761  0.041265161            5 
 2718000   0.82316506    -5.217786    1355.1487  0.041548587  0.041255827            5 
 2719000   0.82808682   -5.2177771     1352.784  0.041460832  0.041246421            2 
 2720000   0.81970078   -5.1981037    1357.8932  0.041602119  0.041237089            3 
 2721000   0.81141047   -5.2123136    1356.7481   0.04155176  0.041227655            6 
 2722000   0.82387651   -5.2322168    1354.3129  0.041461943  0.041218329            4 
 2723000   0.80330372   -5.2459798    1355.8789   0.04149464  0.041208904           10 
 2724000   0.81209869    -5.211135    1357.4418  0.041527221  0.041199504            4 
 2725000   0.81918414   -5.2377741    1356.1078  0.041471186  0.041190007            6 
 2726000   0.83069384   -5.2256935    1351.4249  0.041312818  0.041180624            4 
 2727000   0.80667066    -5.219198    1357.3439  0.041478544  0.041171157            2 
 2728000   0.82757982   -5.2317052     1361.233  0.041582143  0.041161687            4 
 2729000   0.81827223    -5.214168    1360.9858  0.041559355  0.041152251            7 
 2730000   0.79626091   -5.2190322    1360.5522  0.041530898  0.041142896            6 
 2731000    0.8072836   -5.1806777    1359.3263  0.041478284  0.041133577            3 
 2732000   0.80132358    -5.186914    1363.0248  0.041575916  0.041124195            6 
 2733000     0.792289   -5.1944474    1357.8694  0.041403507  0.041114926            4 
 2734000   0.80954482   -5.2222448    1357.8884  0.041388943  0.041105488            4 
 2735000   0.80718604   -5.2290607    1359.1633  0.041412652  0.041095998            4 
 2736000   0.80631887    -5.220208    1357.5015  0.041346903  0.041086542            5 
 2737000   0.80224543   -5.2184844    1360.3663   0.04141902   0.04107708            5 
 2738000   0.79520487   -5.2480826    1361.5496  0.041439908  0.041067589            6 
 2739000   0.81409813   -5.2364842    1354.9959  0.041225383  0.041058214            6 
 2740000   0.81417998   -5.2461648    1356.9012  0.041268284   0.04104887           12 
 2741000   0.80914582   -5.2245579    1359.1546  0.041321737   0.04103942            7 
 2742000    0.8166059   -5.2023873    1362.8067   0.04141766  0.041030029           10 
 2743000   0.80951724   -5.2378279    1358.1703  0.041261707  0.041020712            8 
 2744000   0.81627604   -5.2229842    1360.8027  0.041326614  0.041011329            4 
 2745000   0.80467045    -5.227241    1362.6579  0.041367877  0.041002035            7 
 2746000   0.82554428   -5.2265703    1362.5625  0.041349919  0.040992825            5 
 2747000   0.81526111   -5.2080205    1361.4292  0.041300486  0.040983523            8 
 2748000   0.81327471   -5.2263026    1365.2061   0.04139999  0.040974259            5 
 2749000   0.79541358   -5.2309493    1361.4584  0.041271324  0.040964976            3 
 2750000    0.8198402   -5.1992207    1367.5989  0.041442391  0.040955777            9 
 2751000   0.79687698   -5.2323164    1364.8601  0.041344362  0.040946555            5 
 2752000    0.8069088   -5.2181166    1361.5892  0.041230293  0.040937258            5 
 2753000    0.8064472   -5.2353046    1363.5249  0.041273911   0.04092797            7 
 2754000    0.8204062   -5.2297517    1361.4866  0.041197246  0.040918684            6 
 2755000   0.79243384   -5.2568816    1362.0131  0.041198219  0.040909338            9 
 2756000   0.80123586   -5.2286236    1366.4159  0.041316396  0.040899999            4 
 2757000   0.80390855   -5.2261354      1361.45  0.041151313  0.040890734            4 
 2758000   0.82467751   -5.2383942    1363.9706   0.04121255  0.040881484            5 
 2759000   0.81774955   -5.2360243    1366.8945  0.041285928  0.040872224            5 
 2760000   0.82800359   -5.2395822     1364.543   0.04119997  0.040863028            4 
 2761000   0.83979943   -5.2437338    1361.0079  0.041078351  0.040853737            7 
 2762000   0.80954289   -5.2269667    1364.6796  0.041174258  0.040844459            8 
 2763000    0.8043262    -5.275159    1362.2516  0.041086126  0.040835165            7 
 2764000   0.82621799   -5.2095403    1368.6148  0.041263108  0.040825834            6 
 2765000   0.81224616   -5.2681962    1365.7769  0.041162655   0.04081658            6 
 2766000   0.81726832    -5.271344    1361.1366  0.041007972  0.040807229            5 
 2767000    0.7966216   -5.2366799    1363.6312  0.041068281  0.040797834            6 
 2768000    0.7996763   -5.2382471    1360.5144  0.040959611  0.040788464            6 
 2769000   0.80810352   -5.2306854    1363.9996  0.041049706  0.040779108            5 
 2770000   0.80835151   -5.2291249    1367.9464  0.041153621  0.040769753            6 
 2771000   0.79926647   -5.2057111    1368.3409  0.041150634  0.040760367            5 
 2772000   0.79969305   -5.2238784    1369.9153   0.04118312   0.04075112            4 
 2773000   0.80992648   -5.2495838    1365.9187  0.041048163  0.040741838            6 
 2774000   0.82692196   -5.2217625    1366.1602  0.041040622  0.040732494           14 
 2775000   0.82135833   -5.1941495    1363.4159  0.040943421   0.04072328            3 
 2776000   0.80509874   -5.2488709    1366.0498  0.041007738  0.040714033           15 
 2777000   0.81680888   -5.2462126    1366.4991  0.041006454  0.040704683            8 
 2778000   0.81354861    -5.246033    1367.9605  0.041035533  0.040695333           10 
 2779000   0.81629545   -5.2203919    1364.8783  0.040928341  0.040685932            7 
 2780000   0.79567666    -5.240628     1365.919  0.040944814  0.040676599            6 
 2781000   0.79094461   -5.2401472    1369.2313  0.041029344  0.040667253            9 
 2782000   0.80505623   -5.2592707    1368.6559  0.040997362  0.040657953            5 
 2783000   0.79446176   -5.2499256    1367.3338  0.040943041  0.040648634            2 
 2784000   0.81065708   -5.2478058     1370.088  0.041010776  0.040639391            5 
 2785000   0.78984651   -5.2280725    1371.7207  0.041044904  0.040630193            6 
 2786000   0.81232195   -5.2477568    1370.8331  0.041003622  0.040620955            4 
 2787000   0.81045544   -5.2384687    1373.3709  0.041064792  0.040611684            7 
 2788000   0.81879194    -5.222782    1372.1946  0.041014905  0.040602571           13 
 2789000   0.81331184    -5.237205    1372.8303  0.041019191  0.040593298            4 
 2790000   0.79563932   -5.2227852    1372.5261  0.040995402  0.040584026            7 
 2791000   0.80022404   -5.2366674    1369.3551  0.040886036  0.040574758            5 
 2792000   0.80055346   -5.2600532    1369.0289  0.040861654  0.040565469            5 
 2793000   0.79805978   -5.2582547    1370.5338  0.040891927  0.040556102            6 
 2794000   0.80693027   -5.2677292    1374.2242   0.04098736  0.040546938           10 
 2795000   0.80830892   -5.2766863    1371.4416  0.040889733   0.04053776            7 
 2796000   0.80776362   -5.2282173    1372.2669  0.040899706  0.040528513            8 
 2797000   0.78629641      -5.2347     1377.019  0.041026665  0.040519321            4 
 2798000   0.80994066   -5.2204083    1372.0036  0.040862629  0.040510158            5 
 2799000   0.81277123   -5.2536141    1372.4463   0.04086121  0.040501023            8 
 2800000   0.80892852   -5.2522618    1373.9046  0.040890018  0.040491794            5 
 2801000   0.81031788    -5.239126    1372.5975   0.04083653  0.040482597            6 
 2802000   0.78817515   -5.2310466    1376.2471  0.040930498  0.040473499           11 
 2803000   0.80914338   -5.2268784    1373.9496  0.040847591  0.040464387            3 
 2804000   0.80452573   -5.2505107    1374.0502  0.040836013  0.040455272            4 
 2805000   0.80321804   -5.2193245    1374.2082  0.040826151  0.040446086            6 
 2806000   0.80110163   -5.2238147     1375.638  0.040854062    0.0404368            9 
 2807000   0.80600364   -5.2597758    1370.9655  0.040700793   0.04042758            5 
 2808000   0.78814548   -5.2238809    1378.4283  0.040907773  0.040418328            6 
 2809000   0.80811936   -5.2300553     1376.771  0.040844043   0.04040912           10 
 2810000   0.78331367   -5.2498394    1372.7416  0.040710012  0.040399799            7 
 2811000   0.80187165   -5.2583452    1373.5128  0.040718392  0.040390494            9 
 2812000   0.80788402   -5.2630514    1374.6181  0.040736668   0.04038121           10 
 2813000   0.80483343   -5.2408535    1371.8699  0.040640772  0.040371886            6 
 2814000   0.81503164   -5.2421771    1373.5532  0.040676179  0.040362515            8 
 2815000   0.78813888   -5.2614117    1374.8411  0.040699856  0.040353147            5 
 2816000   0.79707074   -5.2593361    1374.2422  0.040667679   0.04034388            5 
 2817000    0.7879251   -5.2624215    1375.8294  0.040700195  0.040334447           12 
 2818000   0.80108857   -5.2749084    1373.6375  0.040620935  0.040325175            6 
 2819000   0.80171449   -5.2427458    1376.5847  0.040693646  0.040315887            3 
 2820000   0.80467353   -5.2482266    1376.9889  0.040691162  0.040306658            7 
 2821000   0.79869797   -5.2247255    1377.3741  0.040688117  0.040297464           14 
 2822000   0.78967526   -5.2355593    1380.3822  0.040762527  0.040288277           18 
 2823000   0.79036433   -5.2699362    1374.7632  0.040582218  0.040279081            8 
 2824000   0.79206636   -5.2576743    1371.8159  0.040480875  0.040269721            6 
 2825000   0.80186923   -5.2441049    1374.7882  0.040554225  0.040260384            6 
 2826000    0.7999864   -5.2513506    1377.0215   0.04060573  0.040251038            4 
 2827000   0.81174528   -5.2127724    1377.3119  0.040599927  0.040241859            4 
 2828000   0.81302506   -5.2338163    1376.8425  0.040571737  0.040232639            6 
 2829000   0.79413836   -5.2777609    1372.6823  0.040434849  0.040223474            9 
 2830000    0.8000655   -5.2305683    1378.7369  0.040598849  0.040214238           11 
 2831000   0.78772151   -5.2417144    1377.9421  0.040561111  0.040204992            4 
 2832000   0.80751262   -5.2474032      1380.54  0.040623234  0.040195688            6 
 2833000   0.77991196   -5.2432124    1380.4579   0.04060648  0.040186435            7 
 2834000   0.78348926    -5.267953    1376.4023  0.040472898  0.040177139            9 
 2835000    0.7894175   -5.2484612    1379.2069  0.040541061  0.040167831            7 
 2836000    0.8145582    -5.248419    1377.4014  0.040473713  0.040158545            8 
 2837000   0.76999615   -5.2654994    1380.9856  0.040564729  0.040149283            3 
 2838000   0.77886627   -5.2654547    1380.6941  0.040541874  0.040139983            6 
 2839000   0.81055024   -5.2518641    1378.5471  0.040464574  0.040130789            3 
 2840000   0.79607937   -5.2583782    1382.3271  0.040561241  0.040121551            6 
 2841000   0.79572923   -5.2384268    1381.9038  0.040534548  0.040112292            5 
 2842000   0.80283805   -5.2657555    1381.2658  0.040501578  0.040103018            4 
 2843000   0.80563368   -5.2317193    1379.9703  0.040449357  0.040093793            7 
 2844000   0.80594028   -5.2602695    1376.4318  0.040331453  0.040084532           11 
 2845000   0.78419266   -5.2700007    1383.9421  0.040537261  0.040075373            9 
 2846000   0.79694761   -5.2726125    1377.5259  0.040335147  0.040066163           10 
 2847000   0.79360434   -5.2640267    1378.6014  0.040352459  0.040056893           14 
 2848000   0.80488957   -5.2847952    1380.3563  0.040389639  0.040047635           11 
 2849000   0.79638742   -5.2820111    1379.9011  0.040362148  0.040038417            6 
 2850000   0.80463306   -5.2810173    1380.3564  0.040361298  0.040029149            4 
 2851000   0.79676905   -5.2709533    1381.1471  0.040370253  0.040019776            6 
 2852000   0.80454197   -5.2791926    1383.0822   0.04041264  0.040010554            8 
 2853000   0.81345138   -5.2652962    1378.2961  0.040258677  0.040001258            5 
 2854000   0.79647588   -5.2605281    1378.7329  0.040257327  0.039991925            5 
 2855000   0.78620996   -5.2769936    1381.7227  0.040330493  0.039982637            7 
 2856000   0.80170912   -5.2629789    1382.9017  0.040350772  0.039973342            8 
 2857000   0.79262088     -5.26131    1382.9431  0.040337857   0.03996411            5 
 2858000   0.80320187   -5.2668148    1381.3778  0.040278102  0.039954856            6 
 2859000   0.79004303   -5.2727328     1381.157  0.040257579  0.039945627           13 
 2860000    0.7954424   -5.2442287    1377.8773   0.04014794  0.039936349            7 
 2861000   0.79320453   -5.2905523    1376.9478  0.040106834   0.03992705            5 
 2862000     0.812356   -5.2633663    1382.3328  0.040249616   0.03991777            5 
 2863000   0.77503277   -5.2880351     1381.276  0.040204796  0.039908479            6 
 2864000   0.80073201   -5.2992997     1379.454  0.040137744  0.039899137            5 
 2865000   0.79169648   -5.2820386    1379.1232  0.040114113  0.039889708            9 
 2866000   0.79066667   -5.2807775    1382.2655  0.040191483  0.039880323            6 
 2867000   0.80008945   -5.2509236    1382.1444  0.040173945  0.039870991            5 
 2868000   0.79698474   -5.2735519    1382.8624    0.0401808  0.039861651            4 
 2869000   0.79342003   -5.2797611    1380.8273  0.040107682  0.039852252            3 
 2870000   0.77985528   -5.2983632    1379.2741  0.040048608   0.03984284            6 
 2871000    0.7899832   -5.2632926    1383.0552   0.04014441  0.039833394            7 
 2872000   0.79301152   -5.2721742    1381.5382  0.040086414  0.039824022            6 
 2873000   0.78655099   -5.2567048     1383.866   0.04013998  0.039814647           11 
 2874000   0.80872166   -5.2761972    1380.0844  0.040016365  0.039805171            4 
 2875000   0.79611586   -5.2806048    1377.6647   0.03993231  0.039795689            4 
 2876000   0.78146128   -5.2687135    1380.7972  0.040009191  0.039786198            7 
 2877000   0.78831671   -5.2877786     1382.896  0.040056077  0.039776745            8 
 2878000   0.78471758   -5.2823436    1382.3206  0.040025497  0.039767273            5 
 2879000   0.79386847   -5.2683098    1382.9224  0.040029014  0.039757782            8 
 2880000   0.78687129   -5.2914329    1382.8518  0.040013073  0.039748244            6 
 2881000   0.80464452   -5.3045135    1380.1893  0.039922172   0.03973875            7 
 2882000   0.80326958   -5.2574833    1382.7656  0.039982813  0.039729235            6 
 2883000   0.78357871   -5.2625924     1381.972  0.039946004  0.039719786            4 
 2884000   0.76917935   -5.2625658    1382.4809  0.039946859  0.039710347            4 
 2885000   0.79647822   -5.2367021    1386.0018  0.040034715  0.039700855            6 
 2886000   0.79399614   -5.2923405    1382.4363  0.039917888  0.039691333            4 
 2887000    0.8014986   -5.3172012     1378.558  0.039792114  0.039681762            8 
 2888000    0.8030872   -5.2422886    1384.5097  0.039950073  0.039672242            9 
 2889000   0.78951319   -5.2758783    1385.2844  0.039958589  0.039662752            5 
 2890000   0.79510243   -5.3080679    1381.0054  0.039821378  0.039653199            9 
 2891000   0.79289785   -5.2969332    1380.6003  0.039795928  0.039643616            4 
 2892000   0.78403433   -5.2758287    1379.8675  0.039761051  0.039634101            4 
 2893000   0.79023035   -5.2502703    1386.3728  0.039934692  0.039624691            4 
 2894000   0.78772672   -5.2967751    1382.2258  0.039801481   0.03961524            5 
 2895000   0.78419679   -5.2845396    1384.0696  0.039840805  0.039605645           14 
 2896000   0.77597207   -5.2709021    1384.7647  0.039847052  0.039596142            4 
 2897000   0.77012087   -5.2805109    1384.7891  0.039833997  0.039586714            5 
 2898000   0.79383669   -5.2972807    1386.8415  0.039879271  0.039577296            5 
 2899000   0.78370662   -5.3002072    1384.5877  0.039800728  0.039567871            6 
 2900000   0.78117669   -5.2809995     1389.124  0.039917357  0.039558581           12 
 2901000   0.80046597   -5.3088168    1387.5673  0.039858878  0.039549208            5 
 2902000    0.7818792   -5.2923362    1387.6361   0.03984712  0.039539751            5 
 2903000   0.76884725   -5.3204008    1386.0327  0.039787367  0.039530316            9 
 2904000    0.7930709   -5.2758573    1389.1639  0.039863518  0.039520936           10 
 2905000   0.79992625     -5.27203     1388.691  0.039836229  0.039511691            2 
 2906000   0.77680409   -5.3015407    1383.8278  0.039683063  0.039502358            5 
 2907000   0.80137277   -5.2496799    1391.6626   0.03989401  0.039492993           12 
 2908000   0.79391626   -5.2775314    1388.7154  0.039795834  0.039483685           10 
 2909000   0.79900443   -5.2926201    1391.2831  0.039855708  0.039474399            6 
 2910000   0.79070873   -5.2737315    1388.0746  0.039750132  0.039465054            8 
 2911000   0.80038559   -5.2551162    1392.8114  0.039872076  0.039455812           12 
 2912000   0.80027256   -5.2990411    1387.3092  0.039700927  0.039446368            6 
 2913000   0.80046652   -5.3173736    1387.6655  0.039697492  0.039436962            6 
 2914000   0.78792291   -5.2537587     1392.733  0.039828786  0.039427564            8 
 2915000   0.78446494    -5.296613    1392.5931  0.039811124  0.039418259            5 
 2916000   0.79315026   -5.2900695    1387.1872  0.039642982  0.039408958            6 
 2917000   0.79191383   -5.2832218    1392.6529  0.039785537  0.039399606            4 
 2918000    0.7949575   -5.2697309     1385.255   0.03956063  0.039390239            8 
 2919000   0.77576632   -5.2681997    1393.4732  0.039781694  0.039380928            5 
 2920000   0.77544263   -5.2778048    1392.4595  0.039739141  0.039371637            9 
 2921000   0.79311725   -5.2698096      1393.53  0.039756077  0.039362286            4 
 2922000   0.79951643   -5.3064753    1388.9501  0.039611856  0.039352889            4 
 2923000   0.76940078   -5.2939509    1390.9242  0.039654585  0.039343473            4 
 2924000   0.76696662   -5.3065497    1391.1123  0.039646384  0.039334027            5 
 2925000   0.77363716   -5.2988786    1389.4498  0.039585464  0.039324542            9 
 2926000   0.78973521   -5.2975434    1389.8644  0.039583744   0.03931507           10 
 2927000   0.79424617   -5.2492983    1397.2337  0.039780028  0.039305767            5 
 2928000     0.788548   -5.2759656    1391.7614  0.039610695  0.039296442            5 
 2929000   0.78637948   -5.2859627    1391.1583  0.039580013  0.039287161            5 
 2930000   0.80863184   -5.3124718     1390.323  0.039542748  0.039277833            3 
 2931000     0.783125   -5.3166156     1391.968  0.039576025  0.039268465            8 
 2932000   0.78452305   -5.2909614    1390.0063  0.039506772  0.039259025            4 
 2933000   0.79938196   -5.2920374    1391.0159  0.039521987  0.039249611           11 
 2934000   0.78421409   -5.2928827    1392.4938  0.039550495  0.039240189            6 
 2935000   0.79768226   -5.2990866    1391.8538  0.039518847  0.039230693           11 
 2936000   0.76661524   -5.3138084    1390.9381  0.039479398  0.039221251            4 
 2937000    0.7975847   -5.3145709    1388.2668  0.039390159   0.03921182            7 
 2938000   0.78308437   -5.3289038    1390.0859   0.03942835  0.039202296            5 
 2939000   0.78871509   -5.2952575    1392.1897  0.039474587  0.039192861            7 
 2940000   0.80317348   -5.3235229    1389.4562  0.039383678   0.03918339           10 
 2941000   0.78422454   -5.2912478    1390.6878  0.039405184  0.039174019            4 
 2942000   0.78965274   -5.2965417     1394.606  0.039502776  0.039164634            5 
 2943000    0.7808936   -5.2984803    1395.0016  0.039500555  0.039155225           14 
 2944000   0.78087672   -5.3066154    1392.9589  0.039429318  0.039145725            7 
 2945000   0.77474218   -5.2847718    1392.1878  0.039394108  0.039136269            7 
 2946000    0.7986134   -5.2914823    1391.7678  0.039368856  0.039126878            7 
 2947000   0.79189637   -5.3022984    1392.6545  0.039380572   0.03911746            5 
 2948000   0.79578827   -5.2990794    1392.1381  0.039352614  0.039108033            4 
 2949000   0.77324084   -5.3158288    1391.2218  0.039313376  0.039098709            5 
 2950000    0.7947914   -5.3076263    1390.1194  0.039268909  0.039089326            5 
 2951000   0.78305992   -5.2814214    1394.9648  0.039392433  0.039079917            8 
 2952000   0.76832182   -5.2930418    1393.6723    0.0393426  0.039070582            6 
 2953000   0.78933052   -5.2691379     1392.719  0.039302377   0.03906123            6 
 2954000   0.77436928    -5.310849    1394.4156  0.039336934  0.039051894            6 
 2955000   0.79249716   -5.2978931    1398.3297  0.039434001  0.039042457            8 
 2956000   0.77010641   -5.2910831    1397.3209  0.039392221  0.039033117           15 
 2957000   0.77465574    -5.298728    1393.9173   0.03928298  0.039023767            6 
 2958000   0.77915555   -5.2829554    1392.8807  0.039240497  0.039014355           10 
 2959000   0.76145408   -5.3015852    1392.6948     0.039222  0.039004987            5 
 2960000   0.77800982   -5.2781892    1396.5359   0.03931689  0.038995522           11 
 2961000   0.76086797   -5.2795337    1397.5273  0.039331511  0.038986186           10 
 2962000   0.75764003   -5.3241989    1391.6389  0.039152569  0.038976863            5 
 2963000    0.7811804   -5.3126188    1394.1988   0.03921135  0.038967559           12 
 2964000   0.78738899   -5.2945998    1394.8242  0.039215704  0.038958245            8 
 2965000   0.78534269   -5.3154477    1395.1947  0.039212893  0.038948956            5 
 2966000   0.78989813   -5.2933734    1397.2209    0.0392566  0.038939552            5 
 2967000    0.7779762   -5.3161027     1392.151  0.039100971  0.038930107            3 
 2968000   0.77736784   -5.2974189    1397.4589   0.03923683  0.038920691            5 
 2969000   0.77833746   -5.2927113    1400.4916  0.039308736  0.038911399            5 
 2970000   0.79219685   -5.3081283    1395.3925  0.039152426  0.038902069            5 
 2971000   0.79578997   -5.3337707    1397.6355  0.039202164  0.038892699           15 
 2972000   0.77362792   -5.3068108    1395.6759  0.039134025  0.038883332            3 
 2973000   0.78015288   -5.2891401    1396.9947  0.039157829  0.038874027            7 
 2974000    0.7646506    -5.302494    1398.4705  0.039186015  0.038864666            8 
 2975000   0.78513346   -5.2935708    1400.7494  0.039236678  0.038855412            6 
 2976000   0.76520338   -5.2952218    1399.8071  0.039197107  0.038846205            3 
 2977000   0.78020538   -5.2762749    1399.3076  0.039169959  0.038837023            7 
 2978000   0.75811308   -5.2939458    1399.4674  0.039161278  0.038827709           10 
 2979000   0.77819219   -5.3016788     1395.934   0.03904929  0.038818374           14 
 2980000   0.79128803   -5.3194754     1401.487  0.039191471  0.038809127            3 
 2981000   0.77735352   -5.3302203    1397.3567  0.039062863  0.038799868            7 
 2982000   0.77540702   -5.3169746     1398.635  0.039085484    0.0387906            6 
 2983000   0.76909515   -5.3057434     1404.075  0.039224353   0.03878144            5 
 2984000   0.78132431   -5.3651256    1398.8578  0.039065512  0.038772142           11 
 2985000   0.78880762   -5.3170846    1398.7572  0.039049615  0.038762921            8 
 2986000   0.77600795   -5.3046229    1399.2842  0.039051244  0.038753634            3 
 2987000   0.77717213   -5.3024102    1398.8943  0.039027295  0.038744319            5 
 2988000   0.75928205   -5.3397637    1399.5934  0.039033729   0.03873497            9 
 2989000   0.78086172   -5.3163659    1401.2857  0.039067851  0.038725622           11 
 2990000   0.77121089   -5.3205154    1399.0961   0.03899376  0.038716262            5 
 2991000     0.781476   -5.2874563    1406.8829  0.039197674  0.038707025            6 
 2992000    0.7802317    -5.297727    1405.9488  0.039158556  0.038697856            4 
 2993000   0.74265002    -5.272551    1403.0525  0.039064833  0.038688626            4 
 2994000   0.78278338   -5.3217217     1402.771  0.039043948  0.038679331            6 
 2995000   0.77779527   -5.3302613    1403.5366  0.039052214  0.038670099           10 
 2996000   0.75460172    -5.332371    1404.9221  0.039077718  0.038660876            4 
 2997000   0.78507187   -5.2956388    1401.1015  0.038958445  0.038651676            4 
 2998000   0.78335067   -5.3347536    1405.4774  0.039067084  0.038642437            6 
 2999000   0.76786262   -5.3043577    1404.4389  0.039025201  0.038633335            6 
 3000000   0.77660095   -5.3502384    1402.2615  0.038951708  0.038624176            6 
 3001000   0.75964633   -5.3069911    1404.1085  0.038990018  0.038614911            9 
 3002000   0.78123383   -5.3135208    1401.1957  0.038896172  0.038605719           11 
 3003000    0.7654379   -5.3207742    1402.4274  0.038917399  0.038596483           15 
 3004000   0.76427992   -5.2939453    1404.5563  0.038963502  0.038587358            7 
 3005000   0.78198993   -5.3248095    1405.3129  0.038971517  0.038578233            6 
 3006000   0.78952914   -5.3311478    1403.3695  0.038904676  0.038569135           15 
 3007000   0.77414829   -5.2916789    1408.5937  0.039036519  0.038559997            7 
 3008000    0.7666368   -5.3028381    1404.9722   0.03892321  0.038550805            5 
 3009000   0.76066509   -5.3385928    1403.6901  0.038874766  0.038541629            7 
 3010000   0.75731498   -5.3292024    1407.0016  0.038953531  0.038532488           16 
 3011000   0.76875026   -5.3176903    1403.0539  0.038831337  0.038523376            8 
 3012000   0.77251212   -5.3433478    1402.7922  0.038811206   0.03851418            6 
 3013000   0.76983497   -5.3275186    1401.0276  0.038749519  0.038504949            6 
 3014000    0.7699505   -5.3056127    1405.1386  0.038850325  0.038495658            4 
 3015000    0.7703877   -5.3234475    1405.1729  0.038838388  0.038486385            8 
 3016000   0.75379347    -5.305693    1412.1177  0.039017398  0.038477155            9 
 3017000   0.76541964   -5.3321165    1408.9105  0.038915879  0.038468002            5 
 3018000   0.77217998    -5.299204    1406.8155  0.038845137  0.038458837            6 
 3019000   0.76839285   -5.3616605    1403.5242  0.038741421  0.038449603            8 
 3020000    0.7587483   -5.3269629     1406.554  0.038812198    0.0384404            9 
 3021000    0.7678877   -5.3566377    1406.7382  0.038804429  0.038431173            7 
 3022000    0.7684185   -5.2769073    1407.4868  0.038812232  0.038421939            6 
 3023000   0.78447446   -5.2920315    1409.8491  0.038864513  0.038412745           10 
 3024000   0.75373135   -5.3183466    1406.0528  0.038747046  0.038403523            8 
 3025000   0.76590376   -5.3274902    1402.5757  0.038638449  0.038394293           14 
 3026000   0.78945373   -5.3274936    1406.8783  0.038744169  0.038385016            9 
 3027000   0.74980817   -5.3207125    1407.5609  0.038750161  0.038375773            9 
 3028000   0.76648872   -5.3130898    1408.2641  0.038756717   0.03836659            8 
 3029000    0.7714766   -5.3471196    1404.8193  0.038649151  0.038357327            5 
 3030000   0.76813099   -5.3134463     1407.326  0.038705335  0.038348112           15 
 3031000   0.77242142   -5.3232085    1405.2236  0.038634762   0.03833886           10 
 3032000   0.76731051      -5.3225     1403.343  0.038570334  0.038329606            8 
 3033000   0.77516625    -5.328284    1406.4698  0.038643526  0.038320302            6 
 3034000   0.76857797   -5.3293562    1404.3079   0.03857141  0.038311087           10 
 3035000   0.77587613   -5.3303028     1407.819  0.038655107  0.038301852            8 
 3036000   0.77509103   -5.3374949    1406.5428  0.038607345   0.03829256           12 
 3037000   0.76438725   -5.3679768    1406.9434  0.038605626  0.038283247            6 
 3038000   0.79237547   -5.3269697    1408.2325  0.038628279  0.038273908            9 
 3039000   0.77114769   -5.3270214    1407.8035  0.038603803  0.038264683            4 
 3040000   0.76005581   -5.3452343     1407.836  0.038591996  0.038255339            4 
 3041000   0.76197494   -5.3228462     1410.775  0.038659843   0.03824613            7 
 3042000    0.7486914    -5.316649    1407.9726  0.038570366  0.038236876            4 
 3043000   0.76145286   -5.3396205    1406.0484  0.038504995  0.038227575            7 
 3044000   0.76552975   -5.3386366     1410.765  0.038621467  0.038218235            3 
 3045000   0.76500422   -5.3176857    1410.3845  0.038598371  0.038209034            8 
 3046000   0.78183642   -5.3550577    1406.7085  0.038485131  0.038199752           17 
 3047000   0.76662894   -5.3440154    1407.3741  0.038490704  0.038190381            8 
 3048000   0.75997035   -5.3166589    1404.2637  0.038393036  0.038181074            5 
 3049000   0.76584871   -5.3162936    1409.7453  0.038530263  0.038171761            6 
 3050000   0.75530739   -5.3107252     1413.308  0.038614972  0.038162561            8 
 3051000   0.76290133   -5.3277858    1412.7944  0.038588289   0.03815336           11 
 3052000   0.76683973     -5.35355    1407.5542  0.038432565  0.038144154            6 
 3053000   0.75937792   -5.3552867    1407.3695  0.038414932  0.038134927           12 
 3054000   0.76956836   -5.3349643    1412.0044  0.038528826  0.038125727            5 
 3055000   0.78167923   -5.3609107     1408.784  0.038428369   0.03811643           11 
 3056000   0.75195278   -5.3379075    1410.1926  0.038454205  0.038107224            7 
 3057000   0.75343827   -5.3403783    1411.7125  0.038483057  0.038097988           11 
 3058000    0.7489371   -5.3372624    1409.3362  0.038405717  0.038088759            5 
 3059000   0.76352962   -5.3349419     1412.689  0.038484499  0.038079528           10 
 3060000   0.77661362   -5.3091992    1415.3233  0.038543662  0.038070338           10 
 3061000   0.75780508   -5.3036917    1409.1315  0.038362503  0.038061179            6 
 3062000   0.77240585   -5.3201189    1411.7466  0.038421147  0.038051965            8 
 3063000    0.7607828   -5.3054468    1411.6719  0.038406569  0.038042823            8 
 3064000   0.76433449   -5.3584784    1411.4968  0.038389273  0.038033643           10 
 3065000   0.76582823   -5.3077312    1416.4112  0.038510364  0.038024573            7 
 3066000   0.77519553   -5.3388793    1411.4909  0.038364071  0.038015462            6 
 3067000   0.77475784   -5.3718373    1409.4634  0.038296473  0.038006328            5 
 3068000   0.75896506   -5.3282069    1414.9293  0.038432457   0.03799714            7 
 3069000   0.76484727   -5.3566049    1412.6837  0.038358958  0.037988009            7 
 3070000   0.76556434   -5.3831765    1409.4802  0.038259505  0.037978703           12 
 3071000   0.76730908   -5.3175781    1415.1883  0.038401941  0.037969575            8 
 3072000   0.76379183   -5.3653469     1412.482  0.038316026  0.037960486            5 
 3073000   0.74806179   -5.3439388    1411.4873  0.038276583  0.037951316            5 
 3074000   0.77892813    -5.344778    1416.1771  0.038391268  0.037942162            4 
 3075000   0.75800917   -5.3433317    1412.9669  0.038291787  0.037933081            4 
 3076000   0.76738756   -5.3227618    1417.6888  0.038407259  0.037923948            5 
 3077000   0.75624434   -5.3598072    1415.5039  0.038335605  0.037914827            6 
 3078000   0.75318804   -5.3683802      1415.86  0.038332792  0.037905681            3 
 3079000   0.76538381   -5.3709831    1416.8291   0.03834657  0.037896625            5 
 3080000        0.764   -5.3317389    1417.7204  0.038358235  0.037887529            5 
 3081000   0.76426942   -5.3261597    1417.9318  0.038351504  0.037878498            5 
 3082000     0.752425   -5.3339208     1419.276  0.038375405  0.037869503            7 
 3083000   0.77292593   -5.3636391    1414.1789  0.038225185  0.037860534            5 
 3084000   0.76454494   -5.3435743    1415.9798  0.038261451  0.037851458            8 
 3085000   0.75582961   -5.3572496    1420.6195  0.038374378  0.037842453            5 
 3086000   0.75983314   -5.3445877    1419.2374  0.038324621  0.037833409            9 
 3087000   0.75082343   -5.3491669    1417.4958  0.038265193  0.037824333            7 
 3088000    0.7412143   -5.3393931    1417.2472  0.038246092  0.037815341            6 
 3089000   0.74837844   -5.3545122    1417.8068  0.038248807  0.037806387            5 
 3090000   0.74908192    -5.324665    1420.4802  0.038308526  0.037797402           10 
 3091000   0.76880839   -5.3561807    1420.4178  0.038294452  0.037788419            6 
 3092000   0.75823775   -5.3246462    1419.0004  0.038243867  0.037779406            4 
 3093000   0.74952071    -5.340253    1417.8004   0.03819917  0.037770404            4 
 3094000   0.74841702   -5.3484203    1418.5637  0.038207384  0.037761428            9 
 3095000   0.76965965   -5.3447175    1418.1052  0.038182692  0.037752476            3 
 3096000   0.76526654   -5.3887403    1418.0832  0.038169769  0.037743474            8 
 3097000   0.75097203   -5.3764118    1419.7461  0.038202187  0.037734455            7 
 3098000   0.74844441   -5.3686286    1417.0944  0.038118528  0.037725469            6 
 3099000   0.74561058   -5.3331091     1422.742  0.038258093  0.037716428            7 
 3100000   0.76529664   -5.3711374    1419.0378  0.038146178  0.037707347            8 
 3101000   0.75052568   -5.3398223    1421.2679  0.038193806  0.037698267            7 
 3102000   0.75301914   -5.3530751    1421.1564  0.038178497  0.037689266           10 
 3103000   0.75947971   -5.3973528    1417.6916  0.038073145  0.037680165            8 
 3104000   0.77254941   -5.3623789    1419.3304  0.038104875  0.037671168            8 
 3105000   0.75275082   -5.3697783    1418.1236  0.038060215  0.037662102            6 
 3106000   0.76978596    -5.354321    1418.4708  0.038057276  0.037653005            4 
 3107000   0.75486528   -5.3729888    1417.4181  0.038016792  0.037643936            3 
 3108000   0.75505245   -5.3613741    1417.6121  0.038009762  0.037634854           14 
 3109000   0.75511858    -5.366178    1418.7443  0.038027884   0.03762584           10 
 3110000   0.75138743    -5.386944    1420.1514  0.038053361  0.037616817           10 
 3111000   0.74113706   -5.3634589    1419.8217  0.038032297  0.037607785            5 
 3112000   0.76672587   -5.3456402    1425.9815  0.038185024  0.037598795            6 
 3113000   0.73387031   -5.3649113    1423.2484  0.038099593  0.037589827            5 
 3114000   0.76082808   -5.3570811    1422.9067  0.038078214  0.037580765            8 
 3115000   0.73672567   -5.3602496    1421.6173  0.038031495   0.03757172            5 
 3116000   0.74246146    -5.380659    1426.8578  0.038159441  0.037562762           11 
 3117000   0.76723764    -5.373263    1421.8226  0.038012582  0.037553703            5 
 3118000   0.75598381   -5.3851448    1421.2521  0.037985142  0.037544632            3 
 3119000   0.75810547   -5.3486137    1425.7618  0.038093455  0.037535608            6 
 3120000   0.76270865   -5.3960379    1418.7219  0.037893213   0.03752658            3 
 3121000    0.7666348   -5.3517113    1422.2962  0.037976508  0.037517628           10 
 3122000   0.73500369   -5.3591459    1422.4461  0.037968344   0.03750868            8 
 3123000   0.75728389   -5.3835802    1422.5137  0.037957991  0.037499698            8 
 3124000   0.75237195   -5.3656315    1423.9587  0.037984386  0.037490692           15 
 3125000   0.76028376   -5.3620979    1418.5345  0.037827587  0.037481713            3 
 3126000   0.73639163   -5.3512109    1423.0472  0.037935786  0.037472735            5 
 3127000   0.75061237   -5.3288333    1426.1897    0.0380074  0.037463806           11 
 3128000   0.77094998   -5.3510616    1422.1337  0.037887194  0.037454826           10 
 3129000   0.73259851   -5.3573333      1421.01  0.037845158  0.037445822            9 
 3130000   0.76402055   -5.3466684    1424.6955  0.037931189  0.037436882            8 
 3131000   0.73329477   -5.3783427    1424.0661  0.037902322  0.037427864            8 
 3132000   0.77972782   -5.3511908    1422.5689  0.037850387  0.037418916            4 
 3133000   0.73898884   -5.3432679     1425.952   0.03792829  0.037409976            9 
 3134000    0.7607964   -5.3495757    1425.1169  0.037893984  0.037400957           15 
 3135000   0.74932285   -5.3592364    1426.8865  0.037928933  0.037392016            5 
 3136000    0.7418929   -5.3660206    1420.0248  0.037734502  0.037383068           10 
 3137000   0.73564242   -5.3846769    1426.2435  0.037887672  0.037374009           15 
 3138000   0.75839167   -5.3661738    1427.3127  0.037903991  0.037365031            4 
 3139000   0.75038425   -5.3733917    1419.0574  0.037672756  0.037356076           14 
 3140000   0.74067576   -5.3323447    1425.8454  0.037840909  0.037347127           10 
 3141000   0.74719288   -5.3681272    1422.9848  0.037752967  0.037338152           12 
 3142000    0.7456325   -5.3847721    1424.8218  0.037789673  0.037329078            4 
 3143000   0.74199547   -5.3763748    1426.3783  0.037818917  0.037320042           16 
 3144000   0.76217327   -5.3597233    1425.3649  0.037780029  0.037310983            7 
 3145000    0.7541505   -5.3360181    1423.5763  0.037720621  0.037302091            9 
 3146000    0.7582049   -5.3851293    1425.2464  0.037752872  0.037293078            8 
 3147000   0.74296224   -5.3899338     1422.768  0.037675247   0.03728397            6 
 3148000   0.74570437   -5.3858841    1425.5211  0.037736157  0.037274878            7 
 3149000   0.73798188     -5.34966    1425.7435   0.03773006  0.037265785            9 
 3150000   0.74552152   -5.3727303    1423.9408   0.03767039  0.037256762           10 
 3151000   0.74775868   -5.3694873    1420.8259  0.037576057  0.037247613           10 
 3152000   0.75035319   -5.3499224    1424.4032  0.037658715  0.037238512            6 
 3153000   0.75005105   -5.3817248    1425.4809  0.037675253  0.037229425            4 
 3154000   0.74383955   -5.3698051    1423.0103  0.037598033  0.037220261            5 
 3155000   0.73156741   -5.3691714    1421.8712  0.037556028  0.037211096            7 
 3156000   0.75533757   -5.3696971    1424.1311    0.0376038  0.037201958            4 
 3157000   0.73333824   -5.3908199    1425.3052  0.037622881  0.037192797            8 
 3158000   0.73976652   -5.3818895    1422.4389  0.037535332  0.037183621            7 
 3159000   0.74691568   -5.3843201    1426.7749  0.037637832  0.037174448            8 
 3160000   0.73437199   -5.3907773    1420.3538  0.037456588  0.037165254            5 
 3161000   0.76215437   -5.3702418    1428.6663  0.037663881  0.037156149            5 
 3162000   0.77077618   -5.3962407    1418.7951  0.037391816  0.037146999            9 
 3163000   0.75540683   -5.3726012    1421.8305  0.037459966  0.037137762            5 
 3164000   0.75048446   -5.3922812    1420.0127  0.037400251   0.03712853            9 
 3165000   0.75718717    -5.365032    1422.8917  0.037464236   0.03711935            6 
 3166000   0.74952952   -5.3687054    1428.7336  0.037606169   0.03711021            5 
 3167000   0.74020271    -5.365639    1425.3708   0.03750581  0.037101075           12 
 3168000   0.75369008   -5.3625021    1425.6241  0.037500633  0.037091934            7 
 3169000   0.73302298   -5.3513431    1428.2912  0.037558934  0.037082826            6 
 3170000   0.75850947   -5.3486253    1427.3931  0.037523478   0.03707374           10 
 3171000   0.76395953   -5.3647294    1425.5902  0.037464263   0.03706467            7 
 3172000   0.75165853   -5.3971499    1425.7319  0.037456176  0.037055585            8 
 3173000   0.72609671   -5.3913788    1426.7684  0.037471593  0.037046429            6 
 3174000   0.72636322   -5.3858425    1429.5551  0.037532953  0.037037342            9 
 3175000   0.74908376   -5.3578881    1425.8713  0.037424442  0.037028295            8 
 3176000   0.73322316   -5.3640263    1427.2933  0.037449972  0.037019242           16 
 3177000   0.74179659   -5.3689671     1430.272  0.037516314  0.037010216            8 
 3178000    0.7464517   -5.3993029    1424.9407  0.037364712  0.037001128           13 
 3179000   0.74482414   -5.4118567    1426.5106  0.037394114  0.036992023           10 
 3180000   0.73779332   -5.3919392    1428.8058  0.037442501  0.036982997            8 
 3181000   0.75010653   -5.3805732    1427.4254  0.037394566  0.036973988           14 
 3182000   0.74893259    -5.355367    1426.2269  0.037351428  0.036964952            5 
 3183000    0.7541947   -5.3489043    1435.1891  0.037574329  0.036956034           11 
 3184000   0.74190279   -5.3833829    1427.9948  0.037374235  0.036947131           13 
 3185000    0.7327951   -5.3933005    1425.3483  0.037293257  0.036938217           11 
 3186000   0.74041899    -5.390648    1431.8973  0.037452848   0.03692923            9 
 3187000   0.73073006   -5.3960485    1427.8247  0.037334606  0.036920234           15 
 3188000   0.73750529   -5.3838997    1431.7932  0.037426632  0.036911248           14 
 3189000   0.73149957   -5.3825889    1432.2614  0.037427129  0.036902289           20 
 3190000   0.73487773   -5.3791711    1428.1593  0.037308237  0.036893219           10 
 3191000   0.72005901   -5.3794273    1429.4088  0.037329175  0.036884214            5 
 3192000   0.74487571   -5.3946867    1425.6579  0.037219556  0.036875177           11 
 3193000    0.7357898   -5.4029021    1429.6589  0.037312322  0.036866134           10 
 3194000    0.7427615    -5.401481    1427.5697  0.037246132  0.036857061            5 
 3195000   0.74628246   -5.3767714    1431.4833  0.037336549  0.036847986           10 
 3196000   0.74308426   -5.3869424    1429.0576  0.037261619  0.036838986            7 
 3197000   0.72087153   -5.3726838    1428.7256   0.03724131  0.036829966            7 
 3198000   0.75150701   -5.3786624    1430.3984  0.037273253  0.036820999            7 
 3199000   0.73585186   -5.3833878    1427.6409  0.037189771  0.036811986            8 
 3200000   0.73351001   -5.3722704    1433.2474  0.037324152  0.036802929            8 
 3201000   0.72935327    -5.384892    1428.2862  0.037183333  0.036793919            6 
 3202000   0.72137868   -5.3857748    1427.6556  0.037155309  0.036784904            5 
 3203000   0.73055202   -5.4017517    1428.4549  0.037164505  0.036775824           11 
 3204000   0.73529518   -5.3928643    1431.3696  0.037228715  0.036766755            7 
 3205000   0.74429416   -5.4010539    1430.3008  0.037189309  0.036757736           11 
 3206000   0.74542089   -5.3923302    1431.4785   0.03720832  0.036748697            7 
 3207000   0.71481296   -5.3925324    1428.6341  0.037122808  0.036739665           10 
 3208000   0.74401554   -5.3873913    1434.2321  0.037256654  0.036730645            6 
 3209000   0.73889028   -5.3912862    1429.0182  0.037109645  0.036721646            9 
 3210000    0.7423454   -5.3697145    1431.1072  0.037152317  0.036712664            9 
 3211000   0.74124856    -5.401046      1432.89  0.037187014  0.036703662            8 
 3212000   0.74591407   -5.3805189    1430.6763  0.037118003   0.03669464            7 
 3213000   0.73749244   -5.3929122     1434.388  0.037202718  0.036685669            4 
 3214000   0.74864502   -5.3942744    1433.6703  0.037172534  0.036676695            7 
 3215000   0.75230169   -5.3911941    1429.1382    0.0370435  0.036667685            8 
 3216000   0.72655273   -5.4035973    1432.0752  0.037108084   0.03665872            9 
 3217000   0.74554467   -5.4135834    1430.7669   0.03706266  0.036649685            6 
 3218000   0.73057757   -5.3999222    1432.0694  0.037084871   0.03664068            9 
 3219000   0.74378942   -5.3978525    1431.8098   0.03706663  0.036631662            7 
 3220000   0.74049842   -5.3766338    1435.8623  0.037159996   0.03662271           11 
 3221000   0.74154966   -5.4093154    1433.4979  0.037087289  0.036613729            8 
 3222000   0.73176685    -5.396677    1433.0162   0.03706332  0.036604709           14 
 3223000   0.73182329   -5.3966462    1432.0412  0.037026611  0.036595744            9 
 3224000   0.72490138   -5.3972928    1433.1642  0.037044154  0.036586767            3 
 3225000   0.74592907   -5.4007375    1436.4694  0.037118073  0.036577775            9 
 3226000   0.73681166   -5.3605116    1431.6626  0.036982399  0.036568799            4 
 3227000   0.72722371   -5.3924921    1433.5072  0.037018572  0.036559782           11 
 3228000   0.73190323   -5.4020663     1432.058  0.036969693  0.036550722            5 
 3229000   0.74052197    -5.411347    1431.0667   0.03693266  0.036541678            7 
 3230000   0.72809558   -5.3826305    1432.8645  0.036967608  0.036532581           20 
 3231000   0.72601937    -5.385066    1433.2028  0.036964892   0.03652358           15 
 3232000   0.73386466   -5.3736782    1438.6696   0.03709441   0.03651467            6 
 3233000   0.73111363   -5.4015829    1434.4961  0.036975361  0.036505716            7 
 3234000    0.7420334   -5.4339826    1436.5567  0.037017024  0.036496736           18 
 3235000   0.73354626   -5.3935449    1437.2245  0.037022784  0.036487788            9 
 3236000    0.7286484   -5.3791559    1435.5291  0.036967685  0.036478875           13 
 3237000   0.71917434   -5.3728413    1437.6959  0.037012044  0.036469971            7 
 3238000   0.73989696   -5.3972009    1439.4612  0.037046047  0.036461044            9 
 3239000   0.73829103   -5.3809767    1437.0459  0.036972469  0.036452148            6 
 3240000   0.73296805   -5.3819082    1439.1263  0.037014565  0.036443218            6 
 3241000   0.74398136    -5.392141    1434.0905  0.036873664  0.036434356            8 
 3242000   0.73497821   -5.3993474    1435.0749  0.036887594  0.036425472            8 
 3243000   0.74398177   -5.4088997     1436.308  0.036907904   0.03641656           15 
 3244000   0.73090912   -5.4076039    1438.0561  0.036941434  0.036407679            5 
 3245000   0.72892555   -5.4093185    1436.6308  0.036893446  0.036398769           11 
 3246000   0.72289387   -5.4089938    1436.1617  0.036870038  0.036389942            7 
 3247000   0.73900749   -5.3931427    1438.5587  0.036920202  0.036381053            9 
 3248000   0.72626038   -5.4318154     1436.849  0.036864967  0.036372095            4 
 3249000   0.73606953   -5.4026573    1433.5927  0.036770102  0.036363106            7 
 3250000   0.74079859   -5.3978589    1435.2476   0.03680122  0.036354107            8 
 3251000   0.72097982   -5.4306477    1432.0419  0.036707729  0.036345114           15 
 3252000   0.72551099   -5.3977393    1435.2295  0.036778123  0.036336138            7 
 3253000   0.74063701   -5.4079096    1435.9171  0.036784432  0.036327178            8 
 3254000   0.73902441   -5.4220245    1432.2582  0.036679426  0.036318228           11 
 3255000   0.73784777   -5.4041172    1437.0849  0.036791728  0.036309251            8 
 3256000   0.74160636     -5.39308    1433.9964  0.036701382  0.036300223            8 
 3257000   0.70541287   -5.4101992     1432.064  0.036640672  0.036291229            5 
 3258000   0.71658914   -5.4219945    1434.4126  0.036689498  0.036282206            5 
 3259000    0.7345053   -5.4039141    1434.1101  0.036670505  0.036273188           11 
 3260000   0.74626699   -5.3797634    1438.0504  0.036759981  0.036264161            6 
 3261000   0.74308976   -5.4194161    1435.2009  0.036675889   0.03625513           31 
 3262000   0.72265921   -5.4442328    1430.6202  0.036547625  0.036246022           17 
 3263000   0.73878131   -5.3994192    1432.1978  0.036576715   0.03623696           14 
 3264000   0.74088648   -5.3992354    1441.0885  0.036792496     0.036228            5 
 3265000   0.73268499   -5.3837813    1436.0401  0.036652375  0.036219012            8 
 3266000   0.72636196   -5.4106065    1437.5435  0.036679514  0.036209996           14 
 3267000   0.72257981   -5.4120779    1439.3144  0.036713458  0.036201034            8 
 3268000   0.71804458   -5.4173139     1439.489  0.036706677  0.036192143           17 
 3269000   0.72095901   -5.4090384     1438.013  0.036657821  0.036183236            7 
 3270000   0.73536848   -5.4047754    1435.5106  0.036582838  0.036174286            5 
 3271000    0.7271293   -5.4077053    1436.6989  0.036601929  0.036165273            6 
 3272000   0.71563088   -5.4115854    1435.8463  0.036569027    0.0361563            7 
 3273000     0.727836   -5.4105904    1437.5938  0.036602348  0.036147319            5 
 3274000    0.7353068   -5.4134994    1438.3031  0.036609222  0.036138363            5 
 3275000   0.72753468   -5.4194242    1437.8036  0.036585334   0.03612944            9 
 3276000   0.71789591    -5.407095    1437.0924  0.036556076  0.036120456           12 
 3277000   0.72846624   -5.4257448     1436.565  0.036531507  0.036111475            4 
 3278000   0.72330021   -5.4241551    1438.1488  0.036560626  0.036102473           11 
 3279000   0.73139336   -5.3894985    1440.6469  0.036612964  0.036093544           10 
 3280000   0.72162135    -5.412745    1438.2403  0.036540657  0.036084594            7 
 3281000   0.73887688   -5.3812384    1440.7839  0.036594125  0.036075635            6 
 3282000   0.72342827   -5.4071462     1438.125  0.036515464   0.03606667            7 
 3283000   0.72870294   -5.4150564    1439.4649  0.036538352  0.036057715            7 
 3284000   0.72439872    -5.428407    1435.8598  0.036435744  0.036048746           13 
 3285000   0.72985201   -5.4105386    1434.7418  0.036396291  0.036039729           10 
 3286000   0.72167756   -5.4362994    1439.9613  0.036517581  0.036030727            5 
 3287000   0.73406095   -5.4285202    1438.1463  0.036460457  0.036021684           17 
 3288000   0.73448115   -5.4159039    1437.7137  0.036438405  0.036012746            6 
 3289000   0.72256223   -5.4397209    1439.5027  0.036472654  0.036003791            8 
 3290000   0.72405678    -5.404174    1441.5594  0.036513664   0.03599486            7 
 3291000   0.73123095   -5.4024128     1441.241  0.036494504  0.035985919           16 
 3292000   0.72364614   -5.4169625    1441.2658  0.036484047  0.035976922            5 
 3293000   0.72467147   -5.4171799    1435.7309  0.036332901  0.035967964            4 
 3294000   0.72351495   -5.4088588    1438.0066  0.036379441   0.03595892            6 
 3295000   0.69841008    -5.467465    1438.1763  0.036372693  0.035949923            8 
 3296000    0.7321861   -5.4301319    1440.9032  0.036430604  0.035940968            3 
 3297000   0.72334956   -5.4198367    1443.0999  0.036475075  0.035932041            7 
 3298000   0.73000666   -5.4299978    1439.2404  0.036366494  0.035923038           11 
 3299000   0.71968043   -5.4344688    1440.8007  0.036394884  0.035914007            8 
 3300000   0.73893212   -5.3992684    1439.8274  0.036359278  0.035905026           16 
 3301000   0.72463483   -5.4324579    1434.2081  0.036206405  0.035896072            3 
 3302000    0.7353901   -5.4183483    1441.4741  0.036378813  0.035887086            9 
 3303000   0.73950605    -5.417483    1437.7935   0.03627494  0.035878101           11 
 3304000   0.72057012   -5.4199573    1440.8094  0.036340028   0.03586916           11 
 3305000   0.72179433   -5.3974378     1441.376  0.036343319  0.035860204            7 
 3306000   0.72899729   -5.4212786     1440.709  0.036315512  0.035851273            7 
 3307000   0.72155368   -5.4588006    1439.5027  0.036274134   0.03584227           10 
 3308000   0.74316786   -5.4116323    1443.8953  0.036373823  0.035833294            9 
 3309000   0.72061442   -5.4222585    1437.4469  0.036200435   0.03582431           12 
 3310000   0.73581704     -5.42151      1441.33  0.036287262  0.035815321            9 
 3311000   0.71520458   -5.4040833     1438.735  0.036210989  0.035806315            6 
 3312000   0.72691659   -5.4070798      1443.12  0.036310386  0.035797305            7 
 3313000   0.73099237   -5.4320926    1440.1487  0.036224689  0.035788327            7 
 3314000    0.7227245   -5.4576802     1440.939  0.036233631  0.035779346            8 
 3315000    0.7243454   -5.4503364    1440.1139  0.036201959  0.035770403           15 
 3316000   0.71535433   -5.4041185    1442.0409  0.036239467  0.035761415           13 
 3317000   0.70679393   -5.4484258    1441.2043  0.036207524  0.035752428            8 
 3318000    0.7023818   -5.4279739    1438.5252  0.036129324  0.035743412            7 
 3319000   0.71446729   -5.4420177    1440.8661  0.036177215  0.035734376            8 
 3320000   0.71275303   -5.4538637    1437.4877  0.036081517  0.035725304            6 
 3321000   0.73070773   -5.4359689    1441.0877  0.036160987  0.035716287            6 
 3322000   0.71180755    -5.426604    1440.1516  0.036126621  0.035707294            9 
 3323000   0.70424103   -5.4574687    1439.4298  0.036097647  0.035698312           12 
 3324000   0.72160541   -5.4106482    1446.9612  0.036275601  0.035689312            8 
 3325000   0.73848896    -5.436469    1445.0503  0.036216799  0.035680347           14 
 3326000   0.72643824   -5.4259671    1442.7701   0.03614878  0.035671426           10 
 3327000   0.71156564   -5.4195783    1445.9374  0.036217247  0.035662518            7 
 3328000   0.72697433   -5.4170153    1442.6312  0.036123577  0.035653561            8 
 3329000   0.73886359   -5.4359393    1440.8945  0.036069252  0.035644523            6 
 3330000   0.73100657   -5.4323017    1441.4251  0.036071699  0.035635539            9 
 3331000   0.71632437   -5.4436811    1444.3471   0.03613397  0.035626566            8 
 3332000   0.72293637   -5.4102955    1440.6945  0.036031775  0.035617593           11 
 3333000   0.72883137   -5.4350743    1442.3255  0.036061745  0.035608613            7 
 3334000   0.73378268   -5.4353493    1446.3417  0.036151312  0.035599633            6 
 3335000   0.71547346   -5.4307234    1440.7736  0.036001338  0.035590663            9 
 3336000   0.72634211   -5.4404557    1443.2389   0.03605213  0.035581682           13 
 3337000   0.71933923   -5.4386865    1442.3603  0.036019386  0.035572695            8 
 3338000   0.71653343   -5.4006173    1444.5028  0.036062084  0.035563693            4 
 3339000   0.73037003   -5.4602479    1441.1573  0.035967788    0.0355547            8 
 3340000   0.71114187   -5.4429341    1441.9364  0.035976458  0.035545715            5 
 3341000   0.71587121   -5.4302888    1442.0014  0.035967311  0.035536725            5 
 3342000   0.71994026   -5.4409269    1443.0054  0.035981583  0.035527791           11 
 3343000   0.71936509   -5.4060192    1444.6703  0.036012322  0.035518802            4 
 3344000   0.71534775   -5.4067165    1445.3921  0.036019541   0.03550986           10 
 3345000    0.7224634    -5.428267    1445.7562  0.036017843  0.035500923           15 
 3346000   0.72098607   -5.4495585    1447.2775  0.036044967  0.035491947            6 
 3347000    0.7120527   -5.4381685    1443.6157  0.035943025  0.035482944           10 
 3348000   0.72322257   -5.4401407     1443.159  0.035920924  0.035473923            9 
 3349000   0.71745007   -5.4359246    1444.5711  0.035945334   0.03546489            5 
 3350000   0.72159657   -5.4468952    1442.6663  0.035887221  0.035455891            6 
 3351000   0.71579627   -5.4562925    1441.9356   0.03585834  0.035446841           15 
 3352000   0.72380668   -5.4609773    1443.0025  0.035874166  0.035437851            7 
 3353000   0.72266958   -5.4477272    1444.0526  0.035889566  0.035428869            8 
 3354000   0.70581373   -5.4383713    1446.2843  0.035934316  0.035419898            7 
 3355000   0.71786276   -5.4753771    1441.0984  0.035794795  0.035410916           12 
 3356000   0.72991067   -5.4608391    1439.3954  0.035741842  0.035401865           16 
 3357000   0.72184563   -5.4454207    1444.3352  0.035853818  0.035392815           23 
 3358000   0.71275748   -5.4671796     1441.987  0.035784867  0.035383803            6 
 3359000   0.70346605   -5.4596166    1443.9873  0.035823838  0.035374827           15 
 3360000   0.70881862   -5.4438491    1444.8101  0.035833583  0.035365872            7 
 3361000   0.71947778   -5.4123853    1446.7455  0.035870908  0.035356921            9 
 3362000   0.72535296   -5.4316392    1442.2966  0.035749966  0.035348031            4 
 3363000   0.71499032   -5.4544884     1445.414  0.035816582  0.035339114            9 
 3364000   0.72232803   -5.4478534    1446.4481  0.035831553  0.035330185            6 
 3365000   0.70876593   -5.4272176    1447.4497  0.035845708   0.03532124           11 
 3366000   0.71150679   -5.4432045    1443.5895  0.035739489  0.035312334            5 
 3367000   0.71669722   -5.4356823    1446.3915  0.035798225  0.035303395           11 
 3368000   0.71932381   -5.4384166    1446.3518  0.035786614  0.035294503           12 
 3369000   0.71103683   -5.4289408    1446.6862  0.035784264    0.0352856            9 
 3370000   0.70330468   -5.4428304    1446.2865  0.035763762  0.035276735           10 
 3371000   0.71611178   -5.4373821    1450.9871  0.035869353  0.035267911            6 
 3372000   0.71888426   -5.4485955    1447.0253  0.035760806  0.035259058           10 
 3373000   0.71907077   -5.4266089    1450.5248  0.035836663  0.035250214           10 
 3374000   0.71654815   -5.4832014    1445.7006   0.03570689  0.035241384            7 
 3375000   0.70580545    -5.421252    1449.5019  0.035790171   0.03523246            7 
 3376000   0.73023711   -5.4430096    1445.0988  0.035670882  0.035223617            8 
 3377000   0.69761497   -5.4480028    1447.2208  0.035712685  0.035214668            9 
 3378000   0.73090957   -5.4736328    1445.7208  0.035665107  0.035205742            8 
 3379000   0.70819229   -5.4445879    1445.2389  0.035642667  0.035196884            6 
 3380000   0.70724135   -5.4369793    1451.4098  0.035784264  0.035187985            9 
 3381000   0.72948753   -5.4605784    1448.5995  0.035704414   0.03517905            9 
 3382000   0.72060721   -5.4585121    1448.1813  0.035683552  0.035170134           15 
 3383000   0.71557648   -5.4586457    1443.6375  0.035561079  0.035161218           21 
 3384000   0.71969659   -5.4618709    1448.3767  0.035667274   0.03515229           10 
 3385000   0.71788493   -5.4523613    1450.7873  0.035716084  0.035143404            7 
 3386000   0.70044155   -5.4212635    1450.4107  0.035696265  0.035134559            6 
 3387000   0.69346499   -5.4171493    1444.9441  0.035551227  0.035125681            6 
 3388000   0.70018156   -5.4570178     1448.078  0.035617818  0.035116774            7 
 3389000   0.71227597   -5.4362226    1447.8507  0.035601719   0.03510787            5 
 3390000   0.71473059     -5.43073    1446.5561  0.035559393  0.035098991            8 
 3391000   0.70039579   -5.4543039    1443.5131  0.035474125  0.035090075            8 
 3392000   0.71176868   -5.4809839    1447.1056  0.035551926  0.035081152            6 
 3393000    0.7181874   -5.4315488     1451.819  0.035657212  0.035072282            5 
 3394000   0.70036292   -5.4560751    1442.6076  0.035420536  0.035063387            9 
 3395000   0.69186756   -5.4600429    1448.7423  0.035560686  0.035054443            6 
 3396000   0.70653697   -5.4576344    1449.3293  0.035564617  0.035045444            9 
 3397000   0.69620499   -5.4692397    1445.0301  0.035448684  0.035036509            8 
 3398000   0.71688378   -5.4789289    1446.7235   0.03547978  0.035027488           12 
 3399000   0.71323034   -5.4555921    1446.8925  0.035473484  0.035018538            8 
 3400000    0.7146147    -5.449665    1444.8196  0.035412246  0.035009643           15 
 3401000   0.70817864   -5.4493326    1449.4677  0.035515723  0.035000797           10 
 3402000   0.69916791   -5.4682818    1451.0599  0.035544284  0.034991866            7 
 3403000   0.70477682   -5.4632082    1446.5196  0.035422657  0.034982923            9 
 3404000   0.70192546   -5.4673081    1443.0731  0.035327876  0.034974005           14 
 3405000   0.69420656   -5.4858715    1448.0508  0.035439325  0.034965052           16 
 3406000   0.68878338   -5.4659099    1445.2869  0.035361296  0.034956098           10 
 3407000   0.71588219   -5.4635348    1452.2278  0.035520688  0.034947153            5 
 3408000    0.6923663   -5.4340559    1447.2807  0.035389297  0.034938229           10 
 3409000   0.70175728   -5.4590865    1449.4816  0.035432717  0.034929288           14 
 3410000   0.70908968   -5.4617064    1446.7848  0.035356423  0.034920369           13 
 3411000   0.68802231   -5.4545598    1450.4031  0.035434455  0.034911441            8 
 3412000   0.70391323   -5.4528994    1444.2437  0.035273636   0.03490258            9 
 3413000   0.67975991   -5.4813037    1444.1672  0.035261432  0.034893627            6 
 3414000   0.70249198   -5.4686799     1449.968  0.035392697  0.034884636           11 
 3415000   0.70644103   -5.4581584    1449.7939  0.035378083  0.034875673            7 
 3416000   0.69468709   -5.4919603    1445.8515  0.035271553  0.034866733           11 
 3417000   0.70037383   -5.4402827    1451.2606  0.035393148   0.03485788           12 
 3418000   0.70408931   -5.4546686    1446.7492  0.035272801  0.034848997           23 
 3419000   0.70214508   -5.4610605      1445.07  0.035221556  0.034840094            6 
 3420000   0.69664438   -5.4599838    1447.0383  0.035259217  0.034831126           19 
 3421000   0.70489955   -5.4867983     1448.267  0.035278841  0.034822109            5 
 3422000   0.70776652   -5.4505806    1453.3935  0.035393373  0.034813216            8 
 3423000   0.70936605   -5.4917099    1448.6944  0.035268634  0.034804278            6 
 3424000   0.70193493   -5.4656926    1448.3027    0.0352488  0.034795347           15 
 3425000   0.71423872   -5.4629008    1452.7126  0.035345806  0.034786458           10 
 3426000   0.70480794    -5.461932    1452.3201  0.035325941  0.034777625            7 
 3427000   0.70348957     -5.47679    1447.2499  0.035192342  0.034768739            6 
 3428000   0.69979249   -5.4279939    1454.6075  0.035360936  0.034759862            9 
 3429000   0.70971374   -5.4438478    1449.3742  0.035223441  0.034751031            8 
 3430000   0.70273994   -5.4843775    1452.0037  0.035277057   0.03474218            9 
 3431000   0.68806911     -5.43878     1453.252  0.035297095  0.034733305            5 
 3432000   0.71894264   -5.4897697    1447.4073  0.035144894   0.03472443           12 
 3433000   0.69617288   -5.4995612    1448.4837  0.035160784  0.034715468            9 
 3434000   0.70223529   -5.4637737    1450.5342  0.035200306  0.034706513            6 
 3435000   0.69308469   -5.4747261    1449.6991  0.035169799  0.034697566            5 
 3436000   0.70525474   -5.4617472     1450.724   0.03518442   0.03468873           10 
 3437000   0.69306586   -5.4825545    1447.3114  0.035091441  0.034679866           12 
 3438000   0.69520615   -5.4458275    1447.0214  0.035074206  0.034670948            6 
 3439000   0.70156758   -5.4735986     1449.847  0.035132476  0.034662132            5 
 3440000    0.7150197   -5.4779813    1452.6649  0.035190526   0.03465331           22 
 3441000   0.69091284      -5.4538    1453.8019  0.035207833  0.034644488            4 
 3442000   0.70338945   -5.4676282    1451.4058  0.035139594  0.034635633           11 
 3443000   0.69670967   -5.4674485    1457.5353  0.035277745  0.034626821           10 
 3444000   0.71935722   -5.4625554    1450.7587  0.035103529  0.034617966           14 
 3445000   0.70698798   -5.4508858    1456.4567  0.035231174  0.034609134           11 
 3446000   0.70032639   -5.4533197    1454.7085  0.035178674  0.034600267           10 
 3447000   0.70035442   -5.5022604    1449.5518  0.035043801  0.034591409            5 
 3448000   0.69867065    -5.469911     1452.363  0.035101582  0.034582519            6 
 3449000     0.711493   -5.4678535    1451.1843  0.035062924  0.034573704           13 
 3450000   0.70417796   -5.4760804    1448.2969  0.034983016  0.034564864           26 
 3451000   0.70911879   -5.4525328    1452.7433   0.03508025  0.034556001            8 
 3452000   0.69121387   -5.4792945    1453.9396  0.035098967  0.034547123           18 
 3453000   0.71031759   -5.4812343    1451.9733  0.035041348  0.034538223            7 
 3454000   0.70822136   -5.4823838    1453.4033  0.035065704  0.034529362           23 
 3455000   0.71286041   -5.4871936    1444.6596  0.034844659  0.034520517           34 
 3456000   0.67247144   -5.5006977    1449.5476  0.034952441  0.034511646            7 
 3457000   0.69529567   -5.4997547    1452.0871  0.035003547  0.034502773           15 
 3458000   0.70121827   -5.4659502    1450.6071  0.034957758  0.034493928            7 
 3459000   0.69271675   -5.4686656    1454.3577   0.03503801  0.034485097           13 
 3460000   0.69783767   -5.4846795     1451.339  0.034955178  0.034476269           13 
 3461000   0.69647857   -5.4843814    1453.6407  0.035000499  0.034467398           10 
 3462000   0.70461764   -5.5059388    1451.2957  0.034933942  0.034458527            6 
 3463000   0.69892811   -5.4876522    1450.2684  0.034899134  0.034449671            9 
 3464000   0.70133069   -5.4773182    1455.6468  0.035018447  0.034440808           13 
 3465000   0.67652555   -5.4808722    1452.6099  0.034935303  0.034431973           12 
 3466000   0.70157424   -5.4699675    1450.6493  0.034878085  0.034423204            9 
 3467000   0.69918917   -5.4743101    1455.7817  0.034991387  0.034414466            5 
 3468000   0.69794098   -5.4701731    1453.1966   0.03491918  0.034405693           10 
 3469000   0.70027598   -5.4705551    1455.5364  0.034965321  0.034396871            5 
 3470000   0.69680211   -5.4926297    1452.5906    0.0348845  0.034388045            6 
 3471000   0.69998247   -5.4815892    1456.6565  0.034972066  0.034379275           14 
 3472000   0.68972653   -5.4637019    1454.4378  0.034908741  0.034370543            4 
 3473000   0.71675417   -5.4863973    1456.4437   0.03494682  0.034361826            7 
 3474000   0.70521684   -5.4733596    1455.8736  0.034923085  0.034353077            5 
 3475000   0.68537063   -5.5003065    1450.7233  0.034789529  0.034344283           12 
 3476000   0.69293769   -5.4785033    1456.0515  0.034907256  0.034335496           12 
 3477000   0.67996192    -5.481466    1458.9659  0.034967066  0.034326722           20 
 3478000   0.69647362   -5.5062062    1455.6067  0.034876527  0.034317947            7 
 3479000   0.69291798    -5.486695    1452.8383   0.03480019  0.034309144           20 
 3480000   0.70168635   -5.4813578    1455.2325  0.034847522  0.034300378           12 
 3481000    0.7082462   -5.4882113    1457.4314  0.034890151  0.034291628            7 
 3482000   0.69894754    -5.483085    1454.8368  0.034818036  0.034282881           13 
 3483000   0.69319659   -5.4854712    1452.7587  0.034758319  0.034274116           14 
 3484000   0.70552359   -5.5029426    1455.9255  0.034824088  0.034265339           12 
 3485000   0.69855297   -5.5193953     1454.508    0.0347802  0.034256582           14 
 3486000   0.70263984   -5.4993105    1453.5886  0.034748246  0.034247821           16 
 3487000   0.69946668    -5.492411    1457.0803  0.034821725  0.034239022            6 
 3488000   0.69590964   -5.4924673    1458.9963  0.034857518  0.034230281           13 
 3489000   0.70348481     -5.50065    1456.4114   0.03478579  0.034221557           16 
 3490000   0.70162671   -5.5062315    1454.1974  0.034722956   0.03421282            6 
 3491000   0.69385986    -5.483755    1452.3929  0.034669935  0.034204031           13 
 3492000   0.69915117   -5.4735016    1458.4584  0.034804753  0.034195315            6 
 3493000    0.6950956   -5.4842532    1463.2167   0.03490831  0.034186584            4 
 3494000   0.70306234   -5.4916688    1458.2131  0.034778981  0.034177862           19 
 3495000   0.69402436   -5.4964452    1459.8844   0.03480888  0.034169141            6 
 3496000   0.68462905   -5.5095809    1456.9626  0.034729276  0.034160425           21 
 3497000   0.69121667    -5.501929    1455.2072  0.034677514  0.034151643            7 
 3498000   0.69919676   -5.5031365    1453.4168  0.034624949  0.034142908           15 
 3499000   0.68153529   -5.4910034    1459.4725  0.034759276   0.03413414           21 
 3500000   0.67912184   -5.4973261    1458.2505  0.034720251  0.034125395           13 
 3501000   0.69475306   -5.5023387     1456.137  0.034660026  0.034116659           12 
 3502000   0.68518085   -5.5024644    1457.2612   0.03467688  0.034107945            7 
 3503000   0.70878441   -5.4915163    1458.7218  0.034701726  0.034099256            9 
 3504000   0.68515967   -5.4875703    1460.5069  0.034734278  0.034090589           12 
 3505000   0.68938903   -5.4774739    1457.4651  0.034652047  0.034081896            5 
 3506000   0.69197075   -5.5116696    1456.9092   0.03462895  0.034073179            6 
 3507000   0.69236449   -5.4633662    1461.5078  0.034728347   0.03406449            9 
 3508000   0.68189069   -5.4754918    1461.9082  0.034727959  0.034055834            9 
 3509000   0.68697252   -5.4876557    1456.9987  0.034601471  0.034047139            7 
 3510000   0.69014878    -5.473379    1457.6739  0.034607643  0.034038412           11 
 3511000   0.68615463   -5.4879937    1455.4544  0.034545105  0.034029662           10 
 3512000    0.6960916   -5.4918537     1457.429  0.034582124  0.034020932            8 
 3513000   0.70001693   -5.5137245    1456.0423  0.034539384  0.034012212            7 
 3514000   0.68759201   -5.5062431    1455.0245  0.034505418  0.034003428            8 
 3515000   0.69002012   -5.4809611    1457.2618  0.034548645  0.033994619            4 
 3516000   0.69798282   -5.4942731    1456.2033  0.034513731  0.033985837            7 
 3517000   0.68975502   -5.5025688    1460.8106  0.034613083  0.033977074           15 
 3518000   0.68489585   -5.5249566    1454.3096  0.034449253  0.033968277           14 
 3519000   0.68840382   -5.5034943    1454.5143  0.034444309  0.033959491            9 
 3520000   0.69315927   -5.5166943    1458.3674  0.034525744  0.033950689           15 
 3521000   0.69352903   -5.5162671    1457.3249  0.034491263  0.033941903           13 
 3522000    0.6864675   -5.5003643    1456.3856  0.034459247  0.033933145           11 
 3523000   0.66908232   -5.5256828    1457.2671  0.034470315    0.0339244            5 
 3524000   0.68311558   -5.5188252    1459.0166  0.034501907  0.033915678           14 
 3525000   0.68262327   -5.5145834    1458.0344  0.034468898  0.033906878            7 
 3526000   0.69141343   -5.4999089    1453.6003  0.034354327  0.033898121            7 
 3527000    0.6861568   -5.4923615    1458.3388  0.034456546  0.033889354            7 
 3528000   0.70175944   -5.4940826    1459.3544  0.034470768  0.033880594            8 
 3529000   0.67418206   -5.5083386    1458.8983  0.034450229  0.033871882           10 
 3530000    0.6731713   -5.5062086    1457.2745  0.034402137  0.033863131           17 
 3531000   0.69760364   -5.4974018    1459.2134  0.034438152  0.033854403            6 
 3532000   0.68622568   -5.4941647    1459.2839  0.034430066  0.033845672            8 
 3533000   0.67912064   -5.5236041    1456.5716  0.034356345  0.033836924            6 
 3534000   0.67249498   -5.4985904    1458.5248   0.03439268  0.033828119           10 
 3535000    0.6920335   -5.4933734    1458.7734  0.034388811  0.033819339           11 
 3536000   0.68466092   -5.5185411     1456.325  0.034321385  0.033810575            6 
 3537000   0.68387897   -5.4944108    1456.8243  0.034323444  0.033801785           18 
 3538000    0.6849559   -5.5157573    1458.5192  0.034353666  0.033793032            8 
 3539000   0.68763536   -5.5410994    1457.0984  0.034310501  0.033784256           13 
 3540000   0.68680465   -5.5121269    1460.3006  0.034376192  0.033775513            4 
 3541000   0.66758095   -5.5146945    1460.4857   0.03437084  0.033766814           15 
 3542000   0.68669929    -5.513679    1461.1274  0.034376232  0.033758164           11 
 3543000   0.69409286   -5.5018183    1458.9602  0.034315557  0.033749487           13 
 3544000   0.70631255   -5.4801179    1463.0876  0.034402926  0.033740854           11 
 3545000   0.69108203   -5.4972081    1461.8369   0.03436382  0.033732198           10 
 3546000   0.69705267   -5.5162927    1461.4838  0.034345831  0.033723483           12 
 3547000   0.69546857    -5.526231    1458.2152  0.034259355  0.033714696            7 
 3548000    0.6784471   -5.4911753    1465.2223  0.034414277  0.033706041           10 
 3549000   0.69560618   -5.4965343    1459.4198  0.034268333  0.033697409            9 
 3550000   0.69914178   -5.4994224    1463.6195  0.034357265  0.033688805            6 
 3551000   0.69398759   -5.4912996    1462.1682  0.034313531  0.033680201            4 
 3552000    0.6822901   -5.5229268    1457.0237  0.034183175   0.03367157            5 
 3553000   0.67516371   -5.5237186    1458.3522  0.034204713  0.033662863           17 
 3554000   0.68723107   -5.5386184    1458.1113  0.034189441  0.033654156           10 
 3555000    0.6904748   -5.5262389    1457.2074  0.034158635  0.033645454           13 
 3556000   0.69042836     -5.51561    1459.6489  0.034206245  0.033636744           10 
 3557000   0.69015243   -5.5246106    1462.1998  0.034256391  0.033628042            8 
 3558000   0.68484772   -5.5223549    1460.7907   0.03421376  0.033619332           10 
 3559000   0.67826243   -5.5426081    1457.8585  0.034135489  0.033610638            8 
 3560000   0.70088371   -5.5005843    1456.8426  0.034102122  0.033601939            8 
 3561000   0.69186206   -5.4923551    1466.0556  0.034308143  0.033593306            8 
 3562000   0.67277099   -5.5107028    1457.9044  0.034107814  0.033584732            7 
 3563000   0.68532802   -5.5144905    1461.7675  0.034188594  0.033576081           15 
 3564000    0.6762398    -5.501332    1461.0577  0.034162403  0.033567466           12 
 3565000   0.68541829   -5.5408081    1462.3139  0.034182186  0.033558838           11 
 3566000   0.69053955    -5.544249    1461.7994  0.034160576  0.033550202            7 
 3567000   0.68039998   -5.5176731    1461.7219  0.034149188  0.033541578            8 
 3568000   0.69682094   -5.4921297    1461.7965  0.034141361  0.033532975            9 
 3569000   0.67761593    -5.502046    1465.1264  0.034209546   0.03352438           15 
 3570000   0.67336851   -5.5077174    1462.3613  0.034135418   0.03351578           22 
 3571000   0.68641166   -5.5541983    1460.0157  0.034071121  0.033507115           11 
 3572000   0.68131437   -5.5420254    1462.1606  0.034111623  0.033498405            7 
 3573000    0.6873739   -5.5336041    1462.7382  0.034115548  0.033489772           12 
 3574000   0.66518181   -5.5003755    1463.1521  0.034115653  0.033481202            4 
 3575000   0.69400442   -5.5184983    1467.4996  0.034207451  0.033472652            5 
 3576000   0.68228417   -5.5377596    1462.7806  0.034087914  0.033464065            5 
 3577000   0.66309395   -5.5395143    1458.6792  0.033982834  0.033455446            8 
 3578000   0.69073436   -5.5393534    1462.6436  0.034065669  0.033446758           33 
 3579000   0.67610314   -5.5459893    1464.1161  0.034090437  0.033438096            5 
 3580000   0.68515583   -5.5120048    1463.8302  0.034074259  0.033429442           23 
 3581000   0.67606394   -5.5206822    1464.2429  0.034074348  0.033420818            9 
 3582000   0.68157352   -5.5315957    1467.4396  0.034139204  0.033412204            9 
 3583000   0.67108496   -5.5304729    1461.9262  0.034001446  0.033403597           12 
 3584000   0.66987373    -5.504744    1464.8278  0.034059426  0.033394948            9 
 3585000   0.67742017   -5.5201737    1462.9954  0.034007331  0.033386277           10 
 3586000   0.67490002   -5.5083119    1461.8564  0.033971379  0.033377645           11 
 3587000   0.67139293   -5.5396653    1461.6404  0.033956891  0.033368963            9 
 3588000    0.7004746   -5.5145775    1461.0286  0.033933217  0.033360303            3 
 3589000   0.66065399   -5.5392285    1462.4117  0.033955877  0.033351682           12 
 3590000   0.68452124    -5.524632    1462.9214  0.033958251  0.033343058           22 
 3591000   0.68234387   -5.5283589    1464.7399  0.033990993  0.033334439           12 
 3592000   0.66646888   -5.5381161    1461.5758  0.033908126  0.033325785           19 
 3593000   0.67937414   -5.5408836     1461.932  0.033906949  0.033317093           12 
 3594000      0.66938   -5.5267132    1464.2117  0.033950374  0.033308429           12 
 3595000   0.67356016   -5.5199489    1460.6909  0.033859317  0.033299802           14 
 3596000   0.68005384   -5.5136351    1463.6222   0.03391783  0.033291173           11 
 3597000   0.68362076   -5.5244449    1461.4706  0.033858554  0.033282562           24 
 3598000   0.67632935   -5.5417196    1463.5367  0.033896995  0.033273858           12 
 3599000   0.66303991   -5.5309576    1466.6349  0.033959316  0.033265245           19 
 3600000   0.67124545   -5.5262731    1466.9967  0.033958258    0.0332566           12 
 3601000   0.67839238   -5.5451125      1462.87  0.033853329  0.033247966           12 
 3602000   0.67166388   -5.5769108     1459.281  0.033760896  0.033239315           11 
 3603000   0.66848247   -5.5372352    1458.9644  0.033744204   0.03323062            8 
 3604000   0.67637535   -5.5431345     1463.394  0.033837263  0.033221942           11 
 3605000    0.6764952   -5.5352357    1464.8111  0.033860637  0.033213264           27 
 3606000   0.67200586   -5.5399269    1464.0906  0.033834594  0.033204587           10 
 3607000    0.6570556   -5.4979669    1461.0782  0.033755618  0.033195941           22 
 3608000   0.68578839    -5.519468    1461.6106  0.033758559  0.033187328           11 
 3609000   0.68774395    -5.540906    1462.5506  0.033770911  0.033178688           17 
 3610000   0.68130369   -5.5462641    1465.0007  0.033818115  0.033170106            7 
 3611000   0.68982984   -5.5544783    1462.7532  0.033756882  0.033161468            9 
 3612000   0.67006317   -5.5437989    1464.4029  0.033785597  0.033152809            7 
 3613000   0.70072342   -5.5302024    1466.0964  0.033815307  0.033144187            5 
 3614000   0.67280901   -5.5377777    1462.4941  0.033722884  0.033135539            5 
 3615000   0.67632299    -5.530281    1466.8341  0.033813602  0.033126967            8 
 3616000   0.68685232   -5.5466395    1462.5696  0.033705973   0.03311836           10 
 3617000   0.66514156   -5.5413498    1466.8925  0.033796251  0.033109779            7 
 3618000   0.67598309    -5.547066     1467.634  0.033803989  0.033101173           17 
 3619000   0.67218603   -5.5435736    1462.2587  0.033670874   0.03309258           18 
 3620000   0.67120336   -5.5466785    1463.1344  0.033681731  0.033083971           15 
 3621000   0.67697964   -5.5593067    1463.6925  0.033685273  0.033075377            7 
 3622000   0.65107585   -5.5414888    1465.7424  0.033723137  0.033066799           10 
 3623000    0.6891155   -5.5504967     1462.582  0.033641135  0.033058164            8 
 3624000   0.68015272    -5.550075    1468.2757  0.033762779  0.033049578            4 
 3625000    0.6727912    -5.537471    1462.9608  0.033631282  0.033041023            7 
 3626000   0.65920003   -5.5448523    1467.2514  0.033720614  0.033032437           11 
 3627000    0.6601806   -5.5387744    1467.7746   0.03372334  0.033023845            9 
 3628000   0.67794709   -5.5250752    1464.9804  0.033649862  0.033015232           21 
 3629000   0.66827785   -5.5313191    1466.3712  0.033672527  0.033006649           11 
 3630000   0.66413706   -5.5130022    1468.3606  0.033708922  0.032998081           16 
 3631000   0.67797755   -5.5469297    1464.3201  0.033606906  0.032989536           12 
 3632000   0.66035439   -5.5541691    1467.8683  0.033679063  0.032980922           16 
 3633000   0.67230061   -5.5365464    1465.0396  0.033604908  0.032972307            9 
 3634000   0.66994138   -5.5628415     1462.078  0.033527747  0.032963696           12 
 3635000   0.66681735   -5.5317548    1467.0826  0.033633257  0.032955122           20 
 3636000   0.67688715   -5.5333096    1465.2688  0.033582435  0.032946547            4 
 3637000    0.6696746   -5.5407762    1467.4253  0.033622612  0.032937925            8 
 3638000   0.67425422   -5.5138858    1465.2208  0.033562872  0.032929332           21 
 3639000   0.66031446   -5.5515825    1464.8004  0.033544024  0.032920742           11 
 3640000   0.66626755   -5.5382911    1462.7604  0.033488104  0.032912192            8 
 3641000   0.66894378   -5.5480146    1466.0549   0.03355431  0.032903561            8 
 3642000   0.67388857   -5.5259799    1466.4226   0.03355351  0.032894969            7 
 3643000    0.6688484   -5.5641197    1462.8285  0.033462085  0.032886327           13 
 3644000   0.67769447   -5.5701052    1462.3359  0.033441638  0.032877676            7 
 3645000   0.66977425   -5.5711355    1463.8062  0.033466076  0.032869081           13 
 3646000   0.65325177   -5.5383431    1464.3013  0.033468214  0.032860456           12 
 3647000    0.6650019   -5.5421051    1462.1814  0.033410597  0.032851814           10 
 3648000   0.66032055   -5.5473807    1462.4587  0.033407773  0.032843175           16 
 3649000   0.67699629   -5.5199086    1471.2055  0.033598371  0.032834559            7 
 3650000   0.64985541   -5.5643846    1464.4687   0.03343536  0.032825971           21 
 3651000   0.65198246   -5.5716219    1463.0219  0.033393178  0.032817284            9 
 3652000   0.65448926    -5.536906    1460.8614  0.033334734  0.032808625           11 
 3653000   0.66445836   -5.5494072    1466.3607  0.033451061  0.032799923           16 
 3654000   0.66714806   -5.5333158    1464.8692  0.033407891  0.032791242            8 
 3655000   0.67201837   -5.5365915     1465.812  0.033420246  0.032782629            8 
 3656000   0.68151093   -5.5537482    1464.0125  0.033370088  0.032773977           10 
 3657000   0.66344988   -5.5533993    1461.9266  0.033313431  0.032765303           18 
 3658000   0.66762788   -5.5547713    1465.7732  0.033391954  0.032756642            9 
 3659000   0.66016489   -5.5492535    1465.1426  0.033368466   0.03274798            5 
 3660000   0.66424524   -5.5717946    1466.5712  0.033391876  0.032739374            8 
 3661000   0.66699765   -5.5650451    1467.6599  0.033407538  0.032730778            6 
 3662000   0.65841166   -5.5663623    1464.2813  0.033321529  0.032722147           12 
 3663000   0.66547896   -5.5476655    1466.2542  0.033357316  0.032713552           10 
 3664000   0.66760719   -5.5321674    1466.4647     0.033353  0.032704957           10 
 3665000   0.67336105   -5.5497702    1464.9333  0.033309078  0.032696403            6 
 3666000   0.65310415   -5.5080238    1466.9102  0.033344931  0.032687783           19 
 3667000   0.66884954   -5.5264179    1469.4801   0.03339424  0.032679222            8 
 3668000   0.65929828   -5.5557558    1464.8165  0.033279183  0.032670665           10 
 3669000   0.66628877   -5.5545744    1468.1967  0.033346887  0.032662082           16 
 3670000   0.68134655   -5.5786985    1465.4671   0.03327582  0.032653479           13 
 3671000   0.65628704   -5.5590268    1467.4301  0.033311316  0.032644886           11 
 3672000   0.66611541   -5.5708289    1467.3073  0.033299459  0.032636289           19 
 3673000   0.68058821   -5.5795142    1464.2995   0.03322215   0.03262771           11 
 3674000   0.65812901   -5.5450685    1466.3311  0.033259189  0.032619152           12 
 3675000   0.66869451   -5.5611521    1464.4319  0.033207072  0.032610591           11 
 3676000   0.66092508   -5.5460816    1469.1647   0.03330533  0.032601992           17 
 3677000   0.66233774   -5.5591251    1466.7972  0.033242616  0.032593444           11 
 3678000   0.67599822   -5.5549378    1468.8131  0.033279254  0.032584866           17 
 3679000   0.64762048   -5.5491926    1466.3085  0.033213475  0.032576293            8 
 3680000   0.67428373   -5.5659044    1464.3694  0.033160538  0.032567701           13 
 3681000   0.65683981   -5.5633131    1466.6209  0.033202502  0.032559135           12 
 3682000   0.68159112   -5.5496489    1467.0506  0.033203208  0.032550579            9 
 3683000   0.66924418   -5.5543893     1466.146  0.033173726  0.032542008           42 
 3684000   0.65235854    -5.570528     1466.738  0.033178112  0.032533379            7 
 3685000   0.65299722   -5.6054069    1465.8427  0.033148862  0.032524752           12 
 3686000    0.6505332   -5.5591029    1464.3869  0.033106956  0.032516177           19 
 3687000   0.65755837   -5.5683397    1467.5677  0.033169869  0.032507632            9 
 3688000   0.65418895   -5.5678049    1462.2918  0.033041663  0.032499061            9 
 3689000   0.65811822   -5.5590986      1468.74  0.033178368  0.032490531            8 
 3690000    0.6522655   -5.5686411    1469.4702  0.033185868     0.032482            7 
 3691000   0.66691161   -5.5592669    1466.4763  0.033109282  0.032473477            9 
 3692000    0.6450377   -5.5666822    1469.8145  0.033175661  0.032464967           10 
 3693000   0.65772417   -5.5547205    1469.4864  0.033159274  0.032456425           27 
 3694000   0.66188656   -5.5793262    1470.9124  0.033182468  0.032447873           24 
 3695000   0.66613271   -5.5730691    1469.2264  0.033135463  0.032439384           10 
 3696000   0.64980138   -5.5602162    1468.4134  0.033108167  0.032430843           11 
 3697000   0.65864659   -5.5553738    1465.8485  0.033041397   0.03242236           14 
 3698000   0.66618466   -5.5539505    1471.6389  0.033162947   0.03241391           12 
 3699000   0.64868417    -5.578228     1467.901  0.033069771  0.032405431            9 
 3700000   0.65642161   -5.5690509    1469.6844     0.033101  0.032396933           13 
 3701000   0.65089239   -5.5505093    1469.5352  0.033088697  0.032388481            8 
 3702000   0.65594824   -5.5585786    1472.5615  0.033147881  0.032380016           13 
 3703000   0.66636985   -5.5610092     1464.811  0.032964511  0.032371513           10 
 3704000   0.66997928   -5.5954424    1469.8995  0.033070094  0.032362969           10 
 3705000   0.66200786   -5.5923899    1471.4433  0.033095891  0.032354423           12 
 3706000   0.65208227   -5.5621781    1465.5231  0.032953838  0.032345933           10 
 3707000   0.66071172   -5.5675115    1467.8273  0.032996747  0.032337477            9 
 3708000   0.66935118   -5.5692897    1468.4076  0.033000889  0.032329008           13 
 3709000   0.66111983   -5.5558152    1469.1663  0.033009038  0.032320521            5 
 3710000   0.66581074   -5.5776233    1466.4366  0.032938828  0.032312058            8 
 3711000   0.65997569   -5.5703096    1472.5507  0.033067249  0.032303566            6 
 3712000   0.66589404   -5.5781034      1469.72  0.032994792  0.032295071           24 
 3713000   0.66002602   -5.5766475    1470.8694  0.033011703  0.032286595           21 
 3714000   0.66912616    -5.578421    1467.7788  0.032933469  0.032278131           10 
 3715000   0.65291982   -5.5862629    1469.2518  0.032957644  0.032269644           10 
 3716000   0.67232592   -5.5619641     1470.101   0.03296782  0.032261163            5 
 3717000     0.636607   -5.5720585    1472.7787  0.033018984   0.03225275            6 
 3718000    0.6747371   -5.5704789    1468.5404  0.032915107   0.03224433            8 
 3719000   0.65518851    -5.569182    1475.0944  0.033053115  0.032235924           11 
 3720000    0.6590702   -5.5963752    1470.1904  0.032934374  0.032227505            9 
 3721000   0.66227299   -5.5990417    1472.2886  0.032972513  0.032219101           11 
 3722000   0.66143328   -5.5884081    1464.5861  0.032791199  0.032210674           16 
 3723000   0.65184641   -5.5807626    1470.7517  0.032920398  0.032202211           13 
 3724000   0.67312033   -5.5898878    1471.9595  0.032938585  0.032193783           13 
 3725000   0.63694494   -5.5743467    1472.0902  0.032932667  0.032185352           15 
 3726000   0.64420162   -5.5776146    1469.4042  0.032863755  0.032176951           11 
 3727000   0.65688336   -5.5803076    1470.2001  0.032872733  0.032168515           21 
 3728000   0.65108348   -5.5871502    1469.6936  0.032852593   0.03216009           10 
 3729000   0.66988801   -5.5834566     1474.499  0.032951172  0.032151659            8 
 3730000   0.66545699   -5.6061676    1470.5837  0.032854864   0.03214322            8 
 3731000   0.65232956   -5.6171342    1471.9965  0.032877614  0.032134823            9 
 3732000   0.64538619   -5.5924353    1472.9457  0.032889998  0.032126391           20 
 3733000   0.64992259   -5.5578298    1472.6241   0.03287401  0.032117979           14 
 3734000   0.66460353    -5.570484    1474.7034  0.032911611  0.032109642            9 
 3735000   0.64699735   -5.5851657    1471.7439  0.032836768   0.03210132           10 
 3736000   0.64766428   -5.5838115     1469.575    0.0327796  0.032092994            9 
 3737000   0.63963102   -5.5920101    1470.7605  0.032797264   0.03208464           13 
 3738000   0.66326368   -5.5958016    1475.4729  0.032893545  0.032076269            9 
 3739000   0.64768474   -5.5462187    1473.9983  0.032851884  0.032067904           10 
 3740000   0.64869669   -5.5964993    1473.7706  0.032838026  0.032059563            5 
 3741000   0.66171678   -5.5886479    1473.5311  0.032823912  0.032051168           14 
 3742000   0.66558979   -5.5929173    1469.6745  0.032729256  0.032042754           14 
 3743000   0.65726572    -5.557168    1476.7629  0.032878326  0.032034406            8 
 3744000   0.65648159    -5.573195    1471.3761  0.032749646  0.032026047           10 
 3745000   0.65620659    -5.554715    1473.4807  0.032787733  0.032017688           15 
 3746000   0.65479095   -5.5766058    1474.5939  0.032803743  0.032009355           15 
 3747000    0.6489624   -5.5968707     1475.884   0.03282368  0.032001012            8 
 3748000   0.66340557   -5.5688198    1474.2697   0.03277903  0.031992651            7 
 3749000   0.65473447   -5.5988995     1475.239  0.032791834  0.031984267           10 
 3750000   0.65284417   -5.5864655    1472.2704  0.032717121  0.031975856           13 
 3751000   0.65725836   -5.5683764     1475.967  0.032790524  0.031967495           12 
 3752000   0.65807225   -5.5908425     1472.957   0.03271493  0.031959175           12 
 3753000   0.64743265    -5.597608    1476.1691  0.032777536  0.031950822            6 
 3754000    0.6452306   -5.5800328    1478.7211  0.032825455  0.031942483            8 
 3755000   0.64457208      -5.5926    1475.2162   0.03273893  0.031934158            9 
 3756000   0.64901026   -5.5915666    1470.6747  0.032629454   0.03192585            9 
 3757000   0.65194925   -5.6161215    1473.1884  0.032676524  0.031917562           11 
 3758000   0.63805077   -5.5692316    1478.1789  0.032778493  0.031909263           11 
 3759000   0.64961908   -5.5755879    1473.8031  0.032672766  0.031900979           20 
 3760000   0.64776721   -5.5663799     1478.276  0.032763209  0.031892732           11 
 3761000   0.67259114    -5.573498    1480.0257  0.032793266  0.031884506           13 
 3762000    0.6529484    -5.606722    1472.5244  0.032618386  0.031876225           14 
 3763000   0.65018209   -5.5996229    1476.5445  0.032698744  0.031867939           11 
 3764000    0.6457296   -5.5917017     1474.677  0.032648712  0.031859636           18 
 3765000   0.64671255   -5.6147607    1476.8335  0.032687771  0.031851333           13 
 3766000   0.64224669   -5.5916484    1474.4041  0.032625334  0.031843061            4 
 3767000   0.64394093   -5.6000463    1474.2646  0.032613588  0.031834761           11 
 3768000   0.62738242   -5.5814142      1475.15  0.032624513  0.031826443            6 
 3769000   0.64243756   -5.5838482    1475.2993   0.03261916  0.031818151           10 
 3770000   0.65628518   -5.6081394    1475.4671  0.032614215   0.03180987           12 
 3771000   0.64051755   -5.5904218    1477.0612  0.032640795  0.031801581            5 
 3772000   0.64910834   -5.5667297    1477.6418  0.032644967  0.031793278           10 
 3773000   0.63893411   -5.5881319    1478.0559   0.03264546  0.031784985           20 
 3774000     0.655222   -5.6111208    1474.2936  0.032553736  0.031776676           25 
 3775000   0.65409874   -5.6049144    1473.7141  0.032532321  0.031768354           12 
 3776000   0.65266783   -5.6020796    1472.4988  0.032496884  0.031760043           15 
 3777000   0.65013249   -5.5871554    1472.5093  0.032488511  0.031751782           14 
 3778000   0.65028303   -5.6016173     1473.233  0.032495876  0.031743502           13 
 3779000   0.64638744   -5.5959772    1478.3761   0.03260069  0.031735238           25 
 3780000   0.65285311   -5.6152268    1472.8627  0.032470518  0.031726964           12 
 3781000   0.65045654   -5.5855584    1474.8525  0.032505785  0.031718674           18 
 3782000    0.6456056   -5.6135574    1476.3166  0.032529452    0.0317104           12 
 3783000   0.65136412   -5.6072943    1474.8392  0.032488308  0.031702157            6 
 3784000   0.63543623   -5.5883186    1476.0021  0.032505332  0.031693925           12 
 3785000   0.63950997   -5.6059447    1476.5278  0.032508318  0.031685681            9 
 3786000   0.65118887   -5.6171545    1475.2386  0.032471356  0.031677461            5 
 3787000   0.65224231   -5.5989566    1477.9916   0.03252336  0.031669231           12 
 3788000   0.63450404    -5.580348    1479.0368  0.032537769  0.031661014           19 
 3789000   0.62726093    -5.613773    1475.3918  0.032449014  0.031652798           18 
 3790000   0.64958522   -5.6234463    1474.6402  0.032423927  0.031644537            8 
 3791000   0.63977908   -5.5688062    1478.9735  0.032510628  0.031636248            7 
 3792000   0.64396716   -5.6176101    1474.8127  0.032410616  0.031628006           20 
 3793000   0.64287845   -5.5981851    1477.2326  0.032455237  0.031619729            9 
 3794000   0.64534723   -5.6181714    1480.3038  0.032514141  0.031611444           10 
 3795000   0.65363825   -5.6144074    1476.1636  0.032414661  0.031603142            6 
 3796000   0.63550265   -5.5855337    1474.2983  0.032365172  0.031594863           14 
 3797000   0.64177292   -5.6020633    1475.5512  0.032384146  0.031586591            7 
 3798000   0.64730889   -5.6260133    1475.1254  0.032366277  0.031578326           17 
 3799000    0.6438987   -5.5949456    1473.9746  0.032332513  0.031570098           15 
 3800000   0.64660456   -5.6199286    1475.4709  0.032356818  0.031561838           12 
 3801000   0.64317257   -5.6078785    1475.1964  0.032342287  0.031553589           12 
 3802000   0.64402715   -5.6208497     1475.374  0.032337672  0.031545324           26 
 3803000   0.63421148   -5.5849279    1480.5778  0.032443198  0.031537105            7 
 3804000   0.65277237   -5.5791079    1476.9733  0.032355707  0.031528914            7 
 3805000   0.63857849    -5.601957    1476.3476  0.032333499  0.031520754           13 
 3806000   0.64679182    -5.602017    1477.3315  0.032346547  0.031512569           17 
 3807000   0.64809057   -5.5945309    1476.8215  0.032326887  0.031504385           11 
 3808000    0.6394043   -5.6320682    1477.6394  0.032336296  0.031496198           34 
 3809000   0.64046699   -5.5976237    1478.3912  0.032344255  0.031488012           15 
 3810000   0.64623536    -5.606818    1480.8548  0.032389649  0.031479846           15 
 3811000    0.6324708   -5.5925857    1480.5209  0.032373851  0.031471644           34 
 3812000   0.63689713   -5.6052654    1480.4363  0.032363507  0.031463458           10 
 3813000   0.65882517   -5.5864502    1479.1039  0.032325901  0.031455274           13 
 3814000   0.63302994   -5.6015505    1480.2647  0.032342787  0.031447105           14 
 3815000    0.6577177   -5.6020414    1476.8859  0.032260505  0.031438892           13 
 3816000   0.64681874   -5.6177368    1477.8593  0.032273307  0.031430683            7 
 3817000   0.63395486   -5.6199684    1478.5685  0.032280336  0.031422449           12 
 3818000   0.63330979   -5.6117441    1480.4311  0.032312535  0.031414262           23 
 3819000   0.63630155   -5.5935267    1479.0861  0.032274726  0.031406064           25 
 3820000   0.62533958   -5.6013584    1475.6776   0.03219192  0.031397869           12 
 3821000    0.6371002    -5.617988    1479.3029  0.032262559  0.031389683           21 
 3822000   0.63134507   -5.5997074    1480.0837  0.032271142  0.031381534           20 
 3823000    0.6329488    -5.624183    1481.4252  0.032291944  0.031373352           11 
 3824000   0.63448228   -5.6169554    1476.0574  0.032166524  0.031365132            9 
 3825000   0.64719068   -5.6268334    1475.3372  0.032142423  0.031356924           22 
 3826000   0.64348201   -5.6390197    1478.3921  0.032200559  0.031348734           17 
 3827000   0.63540438   -5.6044019    1482.6288  0.032284401  0.031340615           13 
 3828000   0.64367873   -5.5818945    1479.7999  0.032214384  0.031332494           13 
 3829000   0.64659733    -5.615142     1480.294  0.032216722  0.031324366            7 
 3830000   0.62506508   -5.6135117    1476.6124  0.032128207  0.031316216           11 
 3831000   0.63758066   -5.6021957    1480.6938  0.032208602  0.031308059           10 
 3832000   0.63426435   -5.6175378    1476.5101  0.032109213  0.031299901           22 
 3833000   0.62746528   -5.6463078    1477.4474  0.032121215  0.031291692            9 
 3834000    0.6434615   -5.6088002    1476.2438  0.032086675  0.031283478           14 
 3835000   0.63403744      -5.6183    1477.7715  0.032111506  0.031275269           12 
 3836000   0.63735401   -5.5847471    1479.3535  0.032137502  0.031267101            8 
 3837000   0.63044218   -5.6290011     1479.276  0.032127444  0.031258929           13 
 3838000   0.63844307   -5.6387975    1478.6764  0.032106052  0.031250751           23 
 3839000   0.62873515   -5.6279362    1473.7356  0.031990441  0.031242518           21 
 3840000   0.64222888   -5.5959389    1481.1328  0.032142639  0.031234306           18 
 3841000   0.64542138   -5.6411583    1475.4313  0.032010572  0.031226141           10 
 3842000   0.64941584   -5.6242067    1481.3517  0.032130654  0.031217959           13 
 3843000   0.63642479   -5.6088422    1481.3812  0.032122933  0.031209809            5 
 3844000   0.64307331   -5.6215804    1480.2938  0.032091004  0.031201644           12 
 3845000   0.64918563   -5.6220445    1479.6852  0.032069466  0.031193506            7 
 3846000   0.62814262   -5.6004131    1478.9021   0.03204416  0.031185349           14 
 3847000   0.63941608   -5.6105856      1478.46  0.032026254  0.031177208           16 
 3848000   0.63279432   -5.6390349    1475.1542   0.03194634  0.031169064           14 
 3849000   0.62561236   -5.6265888    1475.8852  0.031953868  0.031160875           12 
 3850000    0.6535301   -5.6299801    1479.3977  0.032021595  0.031152683           17 
 3851000   0.63513647   -5.6230177     1480.556  0.032038345   0.03114454            6 
 3852000   0.64634166   -5.6282955    1479.7481  0.032012551  0.031136359           14 
 3853000   0.64102567   -5.6129024    1479.4108  0.031996946  0.031128224           24 
 3854000   0.63707348   -5.6067993    1480.7563  0.032017736  0.031120076           25 
 3855000   0.63821594   -5.6180988    1479.1043  0.031973721  0.031111931           17 
 3856000   0.64526715   -5.6363213    1477.8167  0.031937601  0.031103753           19 
 3857000   0.63675273   -5.6093374    1481.8926  0.032017385  0.031095595            8 
 3858000    0.6226038   -5.6395233    1480.0566  0.031969428  0.031087531            9 
 3859000   0.64026943   -5.6295564    1478.5019  0.031927571  0.031079429           17 
 3860000   0.63942621   -5.5955072    1482.0693  0.031996316  0.031071326           13 
 3861000   0.64264208   -5.6252448    1478.0796  0.031901917  0.031063238           11 
 3862000   0.64847219   -5.6190301    1483.5687  0.032012099  0.031055151           19 
 3863000   0.61911853   -5.6212053    1480.2393   0.03193199  0.031047083            7 
 3864000   0.62333892    -5.618299    1481.9889  0.031961458  0.031039033           10 
 3865000   0.62833656   -5.6219706    1481.5258  0.031943205  0.031030992           11 
 3866000   0.63199703   -5.6234144    1481.8517  0.031941966  0.031022925            8 
 3867000   0.63587442   -5.6214123    1482.4444  0.031946478   0.03101484           12 
 3868000   0.62753141    -5.616912      1477.93   0.03184096  0.031006743           13 
 3869000   0.62320247   -5.6080013    1481.0688  0.031900337  0.030998629            9 
 3870000    0.6498299   -5.6463116    1479.0716  0.031849087  0.030990503            8 
 3871000   0.63940278   -5.6409607    1480.6654   0.03187517  0.030982368           16 
 3872000   0.64075115   -5.6254987    1482.2445  0.031900924  0.030974209           11 
 3873000   0.64440387   -5.6425182    1478.3405  0.031808685  0.030966068            9 
 3874000   0.63190624   -5.6386073    1477.6643  0.031785929  0.030957917           11 
 3875000   0.63429815    -5.686061     1477.396  0.031771957  0.030949734            8 
 3876000   0.63180649   -5.6285412    1478.9062   0.03179623  0.030941567           15 
 3877000   0.61034284   -5.6463432    1477.0088  0.031747245  0.030933373            6 
 3878000   0.62741387   -5.6602402    1478.7636  0.031776767   0.03092519           14 
 3879000   0.63666124   -5.6573488    1479.5512  0.031785494  0.030917023           15 
 3880000   0.64184364   -5.6502032    1477.3634  0.031730313  0.030908876           16 
 3881000   0.64844778   -5.6411401    1479.2965  0.031763646  0.030900722           11 
 3882000   0.62589095   -5.6300551    1480.6681  0.031784907  0.030892549           13 
 3883000   0.62906429   -5.6371337    1483.5973  0.031839586  0.030884424           16 
 3884000   0.63788213   -5.6469928     1478.811  0.031728694  0.030876292           28 
 3885000   0.63546644   -5.6277901    1479.5841  0.031737112  0.030868168           11 
 3886000   0.63000013   -5.6346559    1477.5087  0.031684439  0.030860019           15 
 3887000   0.62142971   -5.6495153    1476.7808   0.03166068  0.030851874           12 
 3888000   0.63714267   -5.6577817    1480.5187  0.031732654  0.030843766           13 
 3889000   0.64416576   -5.6440038    1480.1178  0.031715905  0.030835631            8 
 3890000   0.62388115   -5.6378146    1478.2474  0.031667683   0.03082753            9 
 3891000   0.63115172   -5.6408676    1480.5396  0.031708636  0.030819435           23 
 3892000   0.62511558    -5.633801    1482.9215  0.031751487  0.030811346            9 
 3893000   0.63915383   -5.6329341     1480.054   0.03168195  0.030803257           13 
 3894000   0.61766262   -5.6395665    1480.8454  0.031690751  0.030795157           17 
 3895000   0.62925697   -5.6313745     1480.635  0.031678113  0.030787086           14 
 3896000   0.64645792   -5.6540316    1482.6231  0.031712506  0.030779015           17 
 3897000   0.61559299   -5.6392201    1482.8358  0.031708918  0.030770945           10 
 3898000   0.61835941   -5.6285707    1480.1718   0.03164383  0.030762845           14 
 3899000   0.62907119    -5.646628    1479.1507  0.031613889  0.030754802           11 
 3900000   0.62450407   -5.6656167    1477.7292  0.031575409  0.030746668           13 
 3901000   0.63300466   -5.6373871    1480.9215   0.03163551   0.03073858           15 
 3902000   0.63557578    -5.658141    1480.4899  0.031618185  0.030730526           20 
 3903000   0.63676924   -5.6586018    1484.5638  0.031697066  0.030722464           19 
 3904000   0.62130483   -5.6344448    1482.6121  0.031647287  0.030714381           12 
 3905000   0.63159916   -5.6382016    1481.2562  0.031610248  0.030706294            7 
 3906000   0.62416268   -5.6510725    1480.5525  0.031587142  0.030698221            8 
 3907000   0.61474193   -5.6263594    1483.2357  0.031636287  0.030690193            8 
 3908000   0.62939171   -5.6174646    1482.4771  0.031612015  0.030682142           16 
 3909000   0.62381989   -5.6364753    1481.2941  0.031578709  0.030674102           22 
 3910000   0.61136021    -5.632644    1479.8316  0.031539464  0.030666045           12 
 3911000   0.62316542   -5.6537936    1481.2495   0.03156161  0.030657942            8 
 3912000   0.63292836   -5.6436976     1482.745    0.0315854  0.030649866           13 
 3913000   0.63098246   -5.6414793    1482.4246  0.031570505  0.030641814           48 
 3914000   0.63765777   -5.6489364    1478.0882  0.031470112  0.030633773            9 
 3915000   0.61156623   -5.6516867    1479.5388  0.031492949  0.030625727            8 
 3916000   0.61764338   -5.6688821     1480.879  0.031513428  0.030617615           24 
 3917000   0.63716662   -5.6562065    1482.7872   0.03154598  0.030609543           19 
 3918000    0.6285681   -5.6546173    1481.3799  0.031507996  0.030601446            9 
 3919000   0.64447288   -5.6614778    1480.0896  0.031472519  0.030593387           10 
 3920000   0.62248734   -5.6299189    1482.7544  0.031521139   0.03058533           14 
 3921000   0.62361349   -5.6584384    1484.6612  0.031553627  0.030577245           13 
 3922000   0.62503757    -5.633263    1483.7653  0.031526545  0.030569212            7 
 3923000   0.63628293   -5.6496044    1478.7645   0.03141228  0.030561211           15 
 3924000   0.63385329   -5.6441048     1484.058  0.031516691  0.030553192           13 
 3925000   0.62054133   -5.6365915    1487.3834  0.031579266  0.030545195           17 
 3926000   0.61854933   -5.6236795    1485.7947    0.0315375  0.030537171            7 
 3927000    0.6215917   -5.6558139    1483.5621  0.031482091  0.030529153           32 
 3928000   0.62032537   -5.6609949    1481.6904  0.031434369  0.030521117           30 
 3929000    0.6219085   -5.6512977    1484.7463  0.031491182  0.030513051           19 
 3930000   0.63219306    -5.667006    1482.9363   0.03144479  0.030504982           41 
 3931000   0.62928818   -5.6187017    1485.8132  0.031497778  0.030496942           35 
 3932000   0.62510495   -5.6642506    1481.8682   0.03140616  0.030488898           48 
 3933000   0.62625691   -5.6439005    1482.9234   0.03142053  0.030480836           10 
 3934000    0.6214027   -5.6641094    1479.9296  0.031349128  0.030472776           17 
 3935000   0.61277005   -5.6534417     1478.554  0.031312028  0.030464732           14 
 3936000   0.63032728   -5.6773031    1482.9337  0.031396802  0.030456667           14 
 3937000   0.62264542   -5.6890399    1481.8841  0.031366611  0.030448585            7 
 3938000   0.62505259   -5.6703639    1482.4458  0.031370531  0.030440518           10 
 3939000   0.61429829     -5.68852    1481.3369  0.031339106  0.030432463           19 
 3940000    0.6173453   -5.6555065    1481.5893  0.031336492  0.030424427           10 
 3941000   0.62922892    -5.645358    1480.2931  0.031301132  0.030416369            8 
 3942000   0.61818593   -5.6583683    1484.4049  0.031380114  0.030408325           20 
 3943000   0.61619726   -5.6712058    1481.8776  0.031318742  0.030400271           22 
 3944000   0.62202381   -5.6771144     1481.747  0.031308041  0.030392219           14 
 3945000   0.61256037   -5.6688595    1479.9335  0.031261797  0.030384157           35 
 3946000     0.623647    -5.677637    1478.6031   0.03122578  0.030376097           26 
 3947000    0.6194014   -5.6748629    1479.1023  0.031228408  0.030368009           17 
 3948000   0.62335814   -5.6703044    1482.1693  0.031285234  0.030359952           13 
 3949000   0.61384529   -5.6641199    1484.2551  0.031321328  0.030351937           15 
 3950000   0.62766027   -5.6536201    1481.9127  0.031263981  0.030343905            9 
 3951000   0.63622019    -5.645857     1483.829  0.031296486  0.030335922            5 
 3952000   0.60934636   -5.6386113    1484.5838  0.031304482  0.030327958           11 
 3953000   0.61440848   -5.6358865    1484.1263   0.03128692  0.030320001           18 
 3954000   0.61508607   -5.6696724    1481.2386  0.031218145  0.030312007           12 
 3955000     0.621071   -5.6543831     1483.252  0.031252676  0.030304021           14 
 3956000   0.61852565   -5.6544734    1482.6071  0.031231191  0.030296043           11 
 3957000    0.6184314   -5.6675927    1486.7239  0.031309998   0.03028806           11 
 3958000   0.61875971   -5.6908683    1480.5535  0.031172172  0.030280061           13 
 3959000    0.6187272   -5.6626688    1485.1096    0.0312602  0.030272079           12 
 3960000   0.63135691   -5.6986597    1480.6232  0.031157896  0.030264039           28 
 3961000    0.6286959   -5.6643505    1482.3204  0.031185737  0.030255988           67 
 3962000   0.62059863   -5.6715142    1484.8044  0.031230111  0.030247982           45 
 3963000   0.61912415   -5.6807767    1479.8344  0.031117723  0.030239977           50 
 3964000   0.61676636   -5.6836186    1480.5599  0.031125124  0.030231971           42 
 3965000   0.62343206   -5.6620012     1486.622  0.031244683  0.030224014           34 
 3966000   0.61521287   -5.6617726    1484.4065  0.031190254  0.030216051           44 
 3967000   0.62192649   -5.6725183    1482.0708  0.031133325  0.030208057           16 
 3968000   0.61060427   -5.6822246    1480.1012  0.031084114  0.030200092            5 
 3969000   0.60853092   -5.6557185    1483.6223  0.031150211  0.030192115           12 
 3970000   0.61607376   -5.6748659    1484.6418  0.031163765  0.030184144           15 
 3971000   0.61865829   -5.6802861    1482.5229  0.031111451  0.030176177           11 
 3972000   0.62184668   -5.6775864    1478.9102  0.031027824  0.030168176            9 
 3973000   0.62167672    -5.674018    1484.5402  0.031138102    0.0301602           10 
 3974000   0.61621305   -5.6615547    1487.5805  0.031194021  0.030152234           15 
 3975000   0.62877676   -5.6762957    1483.6417    0.0311036  0.030144216           11 
 3976000   0.61793298   -5.6824122    1485.5351  0.031135461  0.030136226            8 
 3977000   0.59881154   -5.6691075    1482.3029  0.031059905   0.03012824           20 
 3978000   0.60958222   -5.6700512    1487.0078  0.031150658  0.030120258           15 
 3979000   0.61132898   -5.6679467    1484.4135  0.031088497  0.030112284           12 
 3980000   0.61610612   -5.6617989    1485.7717  0.031109122  0.030104371           16 
 3981000   0.60824461   -5.6259743    1482.9549  0.031042344  0.030096447            5 
 3982000   0.61430672    -5.657942     1486.335  0.031105286  0.030088508           16 
 3983000   0.60401575   -5.6634855    1487.3405  0.031118514  0.030080607           20 
 3984000   0.60023887    -5.667989    1484.9471  0.031060641  0.030072679           11 
 3985000    0.6036386   -5.6657246    1484.7564  0.031048858  0.030064738           26 
 3986000   0.61492798   -5.6725903    1488.6248  0.031121944  0.030056824            8 
 3987000   0.61399019   -5.6443404    1487.2736  0.031085896  0.030048932           11 
 3988000   0.61915468   -5.6629664     1489.828  0.031131478  0.030041075           21 
 3989000   0.60185809   -5.6594113    1488.3973  0.031093786  0.030033177           16 
 3990000    0.6031146   -5.7003764    1485.0084  0.031015212  0.030025261           10 
 3991000   0.62487621   -5.6868488    1484.2934  0.030992513  0.030017376           13 
 3992000   0.61746687   -5.6747702    1486.4134  0.031029004  0.030009448           15 
 3993000   0.60855115   -5.6745111    1482.7109  0.030943962  0.030001504           15 
 3994000   0.61220297   -5.6841852     1483.173  0.030945855  0.029993556           16 
 3995000   0.59634139   -5.6901682    1484.7673  0.030971367  0.029985583           10 
 3996000   0.61657663   -5.6706045    1485.4062  0.030976939  0.029977643           19 
 3997000   0.61020007   -5.6740734    1485.1634  0.030964127   0.02996971           16 
 3998000   0.60743888   -5.6659513    1488.7261  0.031030642  0.029961803           12 
 3999000   0.60465334   -5.6926864    1483.8468  0.030921204  0.029953895            9 
 4000000    0.6112525   -5.6918429    1486.4795  0.030968324  0.029945972           17 
 4001000   0.61819649   -5.6807918    1482.3051  0.030873638  0.029938021           17 
 4002000   0.60740986   -5.6816646    1485.9615  0.030942061  0.029930105           10 
 4003000   0.60618383   -5.6810367    1485.1224  0.030916862  0.029922199           16 
 4004000   0.62170467   -5.6828089    1481.8734   0.03084152  0.029914273           28 
 4005000   0.62250622   -5.6881025    1485.3782  0.030906746  0.029906303           16 
 4006000   0.60926042   -5.6681921    1482.6671  0.030842634  0.029898384           20 
 4007000   0.62210424   -5.6797972    1483.6698  0.030855791  0.029890468           98 
 4008000   0.60515742   -5.6896582    1484.8302  0.030872218  0.029882547           25 
 4009000   0.61713142   -5.6837906    1484.0729  0.030848776  0.029874616           11 
 4010000   0.61331233   -5.6973278    1480.2064  0.030760731  0.029866643           21 
 4011000   0.61431824   -5.7055522    1483.0872  0.030812914  0.029858635           39 
 4012000   0.60596435    -5.674417    1482.0976  0.030784679  0.029850689            9 
 4013000   0.60662019   -5.6849323    1483.9212  0.030814876  0.029842726           37 
 4014000   0.61644674   -5.6868781    1483.3625  0.030795601  0.029834767           20 
 4015000   0.60347616   -5.7100158    1478.5845   0.03068876  0.029826808           11 
 4016000    0.6194335   -5.6892487    1483.9398  0.030792243  0.029818862           39 
 4017000   0.60741201   -5.6791942    1483.4083  0.030773553  0.029810948           34 
 4018000    0.6044883    -5.700113    1484.6807  0.030792284  0.029803043           14 
 4019000   0.60940737   -5.6910392    1481.6649  0.030722089  0.029795117           13 
 4020000   0.60464895   -5.6868145    1484.6174  0.030775651   0.02978721           13 
 4021000   0.60311187   -5.6792171    1485.8988  0.030794554  0.029779289           14 
 4022000   0.60362824   -5.6765991    1485.2147  0.030772722  0.029771401           20 
 4023000   0.62213254   -5.6899599    1486.0803  0.030783004   0.02976348           12 
 4024000   0.60297053   -5.6999596     1482.728  0.030705932  0.029755564           38 
 4025000   0.60721706   -5.6952275    1483.9125  0.030722826  0.029747648           23 
 4026000   0.60847252   -5.6889723    1482.9088  0.030694419  0.029739771           19 
 4027000   0.60680159   -5.6986897    1484.9247  0.030728515  0.029731911            5 
 4028000    0.6092451   -5.6867519    1484.6042  0.030714254  0.029724039           14 
 4029000   0.61873665    -5.690528    1486.8052  0.030752156  0.029716164            9 
 4030000   0.61563026   -5.6792791     1486.162  0.030731225  0.029708312            7 
 4031000   0.60155799   -5.6771113    1485.1728  0.030703151  0.029700473            8 
 4032000   0.60912118   -5.6785859    1488.1791   0.03075767   0.02969261           11 
 4033000   0.60175468   -5.6672518    1490.8593  0.030805425   0.02968475           24 
 4034000   0.60618794   -5.7049518    1483.8673  0.030653349  0.029676863            9 
 4035000   0.60917046   -5.6913906    1488.5537  0.030742537  0.029668952            9 
 4036000   0.60727163    -5.694952    1485.7074  0.030676151  0.029661056           18 
 4037000   0.60854526   -5.6831087    1486.2788  0.030680349   0.02965321           16 
 4038000   0.59823391   -5.6782666    1488.3313  0.030715108  0.029645336           17 
 4039000   0.60757764   -5.6938972    1487.5481  0.030691345  0.029637475           14 
 4040000   0.61261631    -5.691135    1480.7807  0.030544155  0.029629649           16 
 4041000   0.60033445   -5.6875368    1489.1092  0.030708348  0.029621792           13 
 4042000   0.61452642   -5.7148968    1485.4386  0.030625075  0.029613914           29 
 4043000   0.61224756   -5.6877918     1481.165  0.030529414  0.029606058            7 
 4044000    0.6071196   -5.7021538    1487.6588  0.030655679  0.029598191           10 
 4045000   0.59899944   -5.6954649    1484.5707  0.030584481  0.029590298           12 
 4046000   0.60409156   -5.7068785     1484.215  0.030569596  0.029582366           15 
 4047000   0.60004368   -5.7084489    1485.2419  0.030583186  0.029574498           34 
 4048000   0.61002467   -5.7002536     1488.084   0.03063414  0.029566676            4 
 4049000   0.59931131   -5.7008757    1484.5533  0.030553909  0.029558848           23 
 4050000   0.59026926   -5.6946043    1484.5664  0.030546634  0.029550997           41 
 4051000   0.60066283   -5.7126446    1488.0693  0.030611151  0.029543125           51 
 4052000   0.60699197    -5.705531    1486.4765  0.030570839  0.029535284           41 
 4053000   0.61018659   -5.6989931    1483.5325  0.030502765  0.029527411           23 
 4054000   0.61803834   -5.7408127    1486.3946  0.030554075  0.029519542            6 
 4055000   0.59865098   -5.7117909    1488.5035  0.030589879  0.029511684           12 
 4056000   0.60208008   -5.6969543    1482.8793  0.030466784  0.029503896           13 
 4057000   0.60524275    -5.692327    1485.2591  0.030508157  0.029496089           26 
 4058000   0.60461046   -5.6934229    1485.4202  0.030503946  0.029488279           24 
 4059000   0.59347265   -5.7004523    1486.7021  0.030522749  0.029480444           24 
 4060000   0.60114526     -5.67746    1483.7686  0.030455021  0.029472599           16 
 4061000   0.61616756   -5.7080258     1484.981    0.0304724  0.029464763           19 
 4062000   0.59940186    -5.717942    1485.9806  0.030485406  0.029456929           13 
 4063000   0.58963629   -5.6845743    1484.3957  0.030445396  0.029449079           16 
 4064000   0.58922312   -5.6926927    1486.5431  0.030481937  0.029441248           19 
 4065000   0.60086494   -5.6901946     1484.163  0.030425646  0.029433411           18 
 4066000   0.59568065   -5.7126785    1490.6267  0.030550638  0.029425589           11 
 4067000   0.60419569   -5.7061077    1487.8335  0.030485892  0.029417709           20 
 4068000   0.59678238   -5.7055874    1488.2493  0.030486915  0.029409828           24 
 4069000   0.61057122   -5.6956954    1487.9542   0.03047338  0.029402007           11 
 4070000   0.60670941   -5.7041843    1486.2673  0.030431354  0.029394176           15 
 4071000   0.59153163   -5.7139878    1484.5038   0.03038778  0.029386338           12 
 4072000   0.60237039     -5.69577    1489.7636  0.030487958  0.029378482           18 
 4073000    0.6033803   -5.6993945    1493.6366  0.030559714  0.029370639           17 
 4074000   0.59689097   -5.7220324    1488.7639  0.030452543  0.029362815           38 
 4075000   0.60721689   -5.7303214    1484.8985  0.030366023  0.029354963           41 
 4076000   0.58929388   -5.7256054     1482.934  0.030318408  0.029347093           29 
 4077000   0.59684254   -5.7046382    1485.8691  0.030370966  0.029339244           16 
 4078000   0.60525315    -5.705854    1486.4033  0.030374435  0.029331411           17 
 4079000   0.60947293    -5.695828    1482.9256  0.030295939  0.029323585           14 
 4080000   0.59560652   -5.7033373    1485.9366  0.030350013  0.029315759           12 
 4081000   0.60159072   -5.7108515     1486.918  0.030362615  0.029307943           13 
 4082000   0.58636511   -5.7193544    1485.9815   0.03033606   0.02930013           15 
 4083000   0.59455685    -5.704799     1487.209  0.030353683  0.029292333           17 
 4084000   0.60684486   -5.7125398    1487.9982  0.030362353  0.029284539           13 
 4085000   0.59570656   -5.7194196    1490.1552  0.030398924  0.029276728           16 
 4086000   0.59293879   -5.7234785    1485.5364  0.030297284  0.029268911           22 
 4087000   0.58340821   -5.7154721    1483.1649  0.030241516   0.02926109           12 
 4088000   0.60492577   -5.7325637    1483.3523  0.030237938  0.029253262            9 
 4089000   0.59092138   -5.7134312    1487.9016  0.030323258  0.029245444           10 
 4090000   0.59506515   -5.7085454    1484.9183  0.030255059  0.029237628           34 
 4091000   0.59366849   -5.6952706    1487.2876  0.030295926  0.029229832           15 
 4092000   0.57998287   -5.6766139    1487.9572  0.030302159  0.029222036           12 
 4093000   0.59986912   -5.7061248    1489.6357  0.030328929  0.029214269           11 
 4094000   0.59170519   -5.7272336    1488.2769  0.030293863  0.029206479           13 
 4095000   0.59543739   -5.7078628    1489.3525  0.030308353  0.029198668           12 
 4096000   0.60016625   -5.7135317    1487.2277  0.030257725  0.029190912           23 
 4097000   0.60145762   -5.7024002     1486.747  0.030240563  0.029183122           10 
 4098000   0.58733946     -5.69157    1487.7894  0.030254381  0.029175335           20 
 4099000   0.59913801   -5.7315253     1487.083  0.030232638  0.029167515           17 
 4100000    0.5992014   -5.7116383     1486.738  0.030218251  0.029159731           20 
 4101000   0.58936049    -5.712745    1488.9856  0.030256555  0.029151993           34 
 4102000   0.60342468   -5.7260381    1485.5406  0.030179194  0.029144238           14 
 4103000    0.5896412   -5.7164749    1486.5182  0.030191693  0.029136423           16 
 4104000    0.5955138   -5.6928752    1486.0338  0.030174501  0.029128641           10 
 4105000   0.59183675   -5.7125962    1484.4773  0.030135552  0.029120884           16 
 4106000   0.59021447   -5.7115017    1489.2689  0.030225461  0.029113141           16 
 4107000   0.60687536   -5.7014613    1487.4755  0.030181712  0.029105399            9 
 4108000   0.59069651   -5.6955656    1489.1345  0.030208019  0.029097655           10 
 4109000   0.60892322   -5.7361285    1489.0773  0.030199507  0.029089903           10 
 4110000   0.60156824   -5.7259605    1485.1296  0.030112116  0.029082125           20 
 4111000   0.59052769   -5.7317234    1487.7667  0.030158248  0.029074369           19 
 4112000   0.59738433   -5.7203235    1488.0296  0.030156242  0.029066618           22 
 4113000   0.59813402   -5.7247343    1482.2496  0.030031801  0.029058846           15 
 4114000   0.59308616   -5.7131672    1490.2374  0.030186302  0.029051074            9 
 4115000   0.58170918    -5.736812    1489.0086  0.030154082  0.029043367           17 
 4116000   0.58251515    -5.719065    1488.6773  0.030140048  0.029035636           11 
 4117000   0.59637084   -5.7351802    1489.1364  0.030142022  0.029027923           22 
 4118000   0.59321583   -5.7426793    1485.8377  0.030067947  0.029020198           29 
 4119000   0.59406594   -5.7293605    1485.6831   0.03005752  0.029012437           14 
 4120000    0.5859315    -5.737029    1484.6371  0.030029067   0.02900468           12 
 4121000   0.59773944   -5.7385902    1483.4603  0.029997984  0.028996914           12 
 4122000   0.61323426   -5.7302409     1488.146  0.030085435  0.028989154           20 
 4123000   0.61264584   -5.7173914    1489.3033  0.030101529  0.028981427           10 
 4124000   0.58380004   -5.7207962    1487.3756  0.030055278  0.028973723           13 
 4125000   0.59927594   -5.7343167    1485.7074  0.030014291  0.028965992           18 
 4126000   0.59236601   -5.7283911    1488.2883  0.030059143  0.028958247            6 
 4127000   0.59090419   -5.7359866    1489.3274  0.030072841  0.028950542           15 
 4128000    0.5955311   -5.7302612    1487.4034  0.030026716  0.028942793           11 
 4129000   0.58916262    -5.716349    1486.0613  0.029992357   0.02893506           16 
 4130000   0.59787604   -5.7282817    1486.8335  0.030000675  0.028927345           14 
 4131000   0.60942702   -5.7243359    1490.2477  0.030062287  0.028919655           12 
 4132000   0.58809675   -5.7163243    1488.8914  0.030027658  0.028911975           13 
 4133000   0.58930388   -5.7074722    1491.5888   0.03007478  0.028904313            9 
 4134000   0.59900088   -5.7227427    1490.7618  0.030050834   0.02889665           13 
 4135000   0.59477264   -5.7389118     1485.818  0.029943933  0.028888963           24 
 4136000   0.59110983   -5.7372602    1489.8162  0.030017252  0.028881283           13 
 4137000   0.58538034   -5.7395841    1490.1438  0.030016595  0.028873592           11 
 4138000   0.57429202    -5.724964    1485.6414  0.029918669  0.028865905           13 
 4139000   0.59586264   -5.7505683    1488.1407   0.02996176  0.028858242            8 
 4140000   0.60412987   -5.7434938    1490.4776  0.030001561  0.028850588           22 
 4141000   0.58204685   -5.7468696    1489.3533  0.029971692  0.028842942           12 
 4142000   0.58410338   -5.7358657    1491.8972  0.030015636  0.028835293           14 
 4143000   0.58122063   -5.7159439     1490.983  0.029990004  0.028827667           30 
 4144000   0.57934648   -5.7180714    1490.4725    0.0299725  0.028820071           17 
 4145000   0.59420712   -5.7649217    1488.4403  0.029924413   0.02881244           13 
 4146000   0.57842376   -5.7454314    1491.5433  0.029979564  0.028804813           18 
 4147000   0.59354172   -5.7232089    1489.8256  0.029937819  0.028797174           14 
 4148000   0.59168236   -5.7439968    1489.0249  0.029914516  0.028789541           42 
 4149000   0.58403562   -5.7244422    1487.5464  0.029877609  0.028781929           12 
 4150000   0.59155055   -5.7156005    1488.8337  0.029896258  0.028774324           24 
 4151000     0.589211    -5.736776    1492.0898  0.029954425  0.028766727           11 
 4152000   0.58476555   -5.7348593     1493.838  0.029982298  0.028759123           25 
 4153000   0.59155272   -5.7451034    1489.3537  0.029885097  0.028751466           18 
 4154000   0.58913678     -5.75362    1489.3011  0.029876847  0.028743824           22 
 4155000   0.59446443   -5.7460088     1488.048  0.029844525  0.028736161           14 
 4156000    0.5920506   -5.7582255    1491.1231  0.029899004  0.028728523           17 
 4157000   0.58840928   -5.7302902    1489.6082  0.029861443  0.028720899           15 
 4158000   0.58658907   -5.7382811    1491.8549  0.029899288  0.028713268           10 
 4159000   0.58769491   -5.7494999    1492.2679  0.029900374  0.028705639           20 
 4160000   0.58220305   -5.7405352    1489.3833  0.029835402   0.02869801           13 
 4161000   0.59576968   -5.7386303    1490.7924  0.029856453  0.028690411           15 
 4162000   0.57909475   -5.7359037    1492.0933  0.029875327  0.028682793           18 
 4163000   0.59958014   -5.7528725    1490.5405  0.029837066  0.028675176           20 
 4164000   0.58601781   -5.7478585    1490.7005  0.029833103  0.028667574           43 
 4165000   0.58879898   -5.7493123     1490.964  0.029831212  0.028659987           32 
 4166000   0.58939332   -5.7223639    1493.0747  0.029866272  0.028652411           15 
 4167000   0.59552347   -5.7606972    1486.5362  0.029728345  0.028644842           31 
 4168000   0.58123621   -5.7389557    1491.5014  0.029820486  0.028637248           30 
 4169000   0.57837141   -5.7478584     1488.807  0.029759474  0.028629615           13 
 4170000   0.58489893   -5.7342228    1490.7151   0.02979047     0.028622            9 
 4171000   0.58227244   -5.7437285    1491.3474   0.02979596  0.028614419           27 
 4172000   0.58587722   -5.7467107      1494.04  0.029842601  0.028606875           14 
 4173000   0.57532135   -5.7376706    1492.8218  0.029811123  0.028599333           40 
 4174000   0.57135899   -5.7375063    1495.0422  0.029848311  0.028591783            9 
 4175000   0.58562155   -5.7478755      1492.39  0.029788224  0.028584233           18 
 4176000   0.58942327   -5.7411826     1491.677  0.029766861  0.028576678            8 
 4177000   0.57984676   -5.7473089    1490.0563  0.029727401  0.028569134           25 
 4178000   0.58710599   -5.7519492    1489.6558  0.029712299  0.028561554            9 
 4179000   0.59166732   -5.7352302    1494.4598  0.029800986  0.028553994            8 
 4180000   0.58369544   -5.7651518    1487.3341  0.029651796  0.028546399           20 
 4181000   0.58494435    -5.738098     1491.314   0.02972403  0.028538798           21 
 4182000    0.5789684   -5.7444714    1489.8762  0.029688272  0.028531191           28 
 4183000   0.58230871   -5.7466761    1488.8601  0.029660932  0.028523594           22 
 4184000    0.5783282   -5.7418858    1491.1257  0.029698967  0.028515987           13 
 4185000   0.59008503   -5.7483394    1489.8414  0.029666296  0.028508414           68 
 4186000   0.58629403   -5.7436508    1488.4407  0.029631325  0.028500836           52 
 4187000   0.57020689   -5.7503867    1489.8955  0.029653202  0.028493224           36 
 4188000   0.57949807   -5.7687905    1489.0274  0.029628848  0.028485599           56 
 4189000   0.60432843   -5.7610308    1487.3923  0.029589248  0.028477982           30 
 4190000   0.57999847     -5.78823    1489.7728  0.029629531  0.028470382           31 
 4191000    0.5905969   -5.7649906    1486.5527  0.029558433  0.028462765           26 
 4192000    0.5751277   -5.7490312    1490.0601  0.029621105  0.028455144           32 
 4193000   0.57919889   -5.7604558     1486.813  0.029549508  0.028447514           16 
 4194000   0.57545332   -5.7454863    1491.5796  0.029637172  0.028439891           31 
 4195000   0.57392186   -5.7684908    1488.7007  0.029572919  0.028432265           54 
 4196000   0.57645864   -5.7877003    1489.2812  0.029577399  0.028424631           87 
 4197000   0.56984333   -5.7876424    1488.0272  0.029545453  0.028416999           19 
 4198000   0.58102524   -5.7682733    1491.0008  0.029597443  0.028409375           18 
 4199000   0.58361416    -5.762439    1490.6091  0.029582621  0.028401769           18 
 4200000   0.58033037   -5.7684679    1490.3025  0.029569494  0.028394169           22 
 4201000   0.57714562   -5.7837087    1486.6342  0.029489689  0.028386547           19 
 4202000   0.58497138   -5.7741168    1492.9087  0.029607106  0.028378925           37 
 4203000   0.58050664   -5.7792811    1489.8402  0.029539221  0.028371306           35 
 4204000    0.5793182   -5.7564921    1490.7453  0.029550137  0.028363703           24 
 4205000   0.58172308   -5.7708221    1490.0178  0.029528692  0.028356077           21 
 4206000   0.57935571   -5.7921953    1487.0324  0.029462521  0.028348472           13 
 4207000    0.5836193   -5.7771111    1491.3581  0.029541202  0.028340881           32 
 4208000   0.58826929   -5.7750213    1486.7319  0.029442568  0.028333299           14 
 4209000   0.57422681    -5.756318    1488.9958  0.029480395  0.028325711           24 
 4210000   0.57300535    -5.736806    1489.6274  0.029485895  0.028318161           32 
 4211000   0.58392305    -5.751468    1489.5293  0.029476951  0.028310606           25 
 4212000   0.57916348   -5.7622533    1489.7449  0.029474219  0.028303051           22 
 4213000   0.57487283    -5.760776    1489.7964  0.029468241  0.028295497           14 
 4214000    0.5744061   -5.7626415    1489.8844  0.029462989  0.028287934           19 
 4215000    0.5843089   -5.7613561    1488.1191  0.029421096  0.028280351           50 
 4216000    0.5806264   -5.7400072    1492.5242   0.02950119  0.028272815           22 
 4217000   0.59265579   -5.7582726     1492.539  0.029494486  0.028265286           14 
 4218000    0.5634571   -5.7397979    1491.1286   0.02945963  0.028257751            7 
 4219000    0.5845213   -5.7707784    1491.9693  0.029469252  0.028250222           20 
 4220000   0.57518009   -5.7708579     1488.658  0.029396881  0.028242624           13 
 4221000   0.57261959   -5.7550515    1492.6865  0.029469448  0.028235029           17 
 4222000   0.59854255   -5.7611088    1492.0359  0.029449626  0.028227464           33 
 4223000   0.58466091   -5.7754361    1488.9071  0.029380913  0.028219885           32 
 4224000   0.57441653   -5.7518931    1487.9722  0.029355512  0.028212292           20 
 4225000   0.56948512   -5.7817692    1488.2088  0.029353231  0.028204703           16 
 4226000   0.57290804   -5.7662851    1488.7281  0.029356524  0.028197105           30 
 4227000   0.56946399   -5.7650728    1489.6741  0.029368229  0.028189541           24 
 4228000   0.57146245   -5.7604966     1490.215  0.029371944  0.028181973            9 
 4229000   0.56557072   -5.7403586    1491.5556  0.029391417   0.02817443           11 
 4230000   0.56066959   -5.7670688    1491.1938  0.029377341  0.028166913           14 
 4231000   0.58315189   -5.7681039    1489.9024  0.029344961  0.028159378           11 
 4232000   0.58076963   -5.7613955    1487.1063  0.029282968  0.028151821           15 
 4233000   0.57006369   -5.7796973    1494.3329  0.029418318  0.028144269            9 
 4234000   0.57779325   -5.7727445    1488.5625  0.029297797  0.028136709           11 
 4235000   0.56833936   -5.7628011    1491.2073  0.029342923  0.028129143           23 
 4236000   0.57242329   -5.7522276    1490.5231  0.029322535  0.028121603           21 
 4237000   0.58132625   -5.7850535    1490.2119  0.029309493  0.028114063           42 
 4238000   0.58030325   -5.7784537    1491.0769  0.029319586  0.028106529           19 
 4239000   0.58161274   -5.7779794    1487.3401  0.029239209  0.028098962           34 
 4240000   0.58514434   -5.7859715    1489.2467  0.029269786  0.028091409           12 
 4241000    0.5805621   -5.7897666    1487.4265  0.029227117   0.02808385           31 
 4242000   0.57936927   -5.7588695    1487.8404  0.029228359  0.028076302           21 
 4243000   0.57383823   -5.7823663    1490.3065  0.029269906  0.028068777           18 
 4244000   0.57183551   -5.7920236     1493.241   0.02932063  0.028061243           19 
 4245000   0.57461198   -5.7819549    1490.8126   0.02926605  0.028053703           28 
 4246000   0.58278672    -5.785625    1493.0235  0.029302549  0.028046176           13 
 4247000   0.57747745     -5.77757      1490.48  0.029245743  0.028038635           30 
 4248000   0.57328181   -5.7781885    1492.0576  0.029269806   0.02803109           23 
 4249000   0.57697624   -5.7851701    1492.2642  0.029266969  0.028023564           22 
 4250000   0.56729634   -5.7770472    1486.6486  0.029149972  0.028016048           21 
 4251000   0.56065837   -5.7827086    1487.5814  0.029161402  0.028008514           12 
 4252000   0.57216614   -5.7709936    1490.5888  0.029213484  0.028001002           14 
 4253000   0.57419136    -5.778285    1490.9259   0.02921322  0.027993474           34 
 4254000   0.57022144   -5.7835305    1488.9296  0.029167247   0.02798594           23 
 4255000   0.56537226   -5.7673365    1494.8689  0.029276712  0.027978409           28 
 4256000   0.56672263    -5.783888    1488.1365  0.029138011  0.027970863           28 
 4257000   0.57222075   -5.7799708    1489.8563  0.029164832  0.027963301           76 
 4258000   0.57244493   -5.7897699     1488.124  0.029124079  0.027955759           27 
 4259000   0.57690555   -5.7665988    1487.7454  0.029109834  0.027948218           38 
 4260000   0.56852758   -5.7892546    1488.3798  0.029115412  0.027940704           34 
 4261000   0.57123729   -5.8086715     1489.151  0.029123659  0.027933178           41 
 4262000   0.57198799   -5.8075902    1487.1948  0.029078578  0.027925651           44 
 4263000   0.55751828   -5.7910271    1488.9267  0.029105612  0.027918103           32 
 4264000   0.57291183   -5.8013319    1486.2104    0.0290457   0.02791055           10 
 4265000   0.57645367   -5.8000864    1486.7952  0.029050317  0.027903027           21 
 4266000   0.56472801   -5.7822744    1488.8113  0.029082889  0.027895515           26 
 4267000   0.57404143   -5.7664332    1488.2037  0.029064208  0.027888018           28 
 4268000   0.56071118   -5.7736436    1490.8957  0.029109959  0.027880511           12 
 4269000   0.54630933   -5.7712446    1489.2069  0.029070174  0.027872993           16 
 4270000   0.56664026   -5.7720735    1489.5004  0.029069095  0.027865496           18 
 4271000   0.57307031   -5.7903516    1487.5655  0.029024535  0.027857981           33 
 4272000   0.57918318   -5.7682058    1487.7417  0.029021179  0.027850478           15 
 4273000   0.56201122   -5.7676391    1491.8664  0.029094828  0.027842978           12 
 4274000   0.57552899   -5.7890767     1485.866  0.028971027  0.027835459           13 
 4275000   0.57228006   -5.7970389    1491.4162  0.029072441  0.027827932           28 
 4276000   0.57117459   -5.7794989    1490.6401  0.029050516  0.027820433           47 
 4277000   0.56562491   -5.7886884    1484.6018  0.028926074  0.027812928           23 
 4278000   0.56762958   -5.7916027    1487.8631   0.02898284  0.027805412           25 
 4279000   0.56145615   -5.7750278    1487.8086  0.028975007   0.02779788           35 
 4280000   0.56604513   -5.7749752    1491.5598  0.029041274  0.027790394           22 
 4281000   0.56723386   -5.7720033    1490.4802  0.029013474  0.027782908           44 
 4282000    0.5762954   -5.7926248    1486.6478  0.028932115  0.027775389           43 
 4283000   0.57118532    -5.790669    1489.9803  0.028990201  0.027767842           20 
 4284000   0.56823433    -5.796468    1492.7675   0.02903765  0.027760331           72 
 4285000   0.56740613   -5.7850669    1489.0084  0.028957767  0.027752838           53 
 4286000   0.57672474   -5.7803636    1486.8592  0.028909223  0.027745327           22 
 4287000   0.58315372   -5.7957912    1486.4342   0.02889422  0.027737815           41 
 4288000   0.56499201   -5.7920168     1491.514  0.028986201  0.027730302           14 
 4289000   0.56052479   -5.7737396    1489.6619  0.028943457   0.02772279           17 
 4290000   0.56481399   -5.7959952    1488.7123  0.028918265  0.027715305           22 
 4291000    0.5744915   -5.8057445    1484.1383  0.028822696  0.027707774           20 
 4292000   0.57505775   -5.7954973    1488.8609  0.028907676  0.027700249           16 
 4293000   0.56417511   -5.7962733     1488.457  0.028893101  0.027692728           41 
 4294000   0.56781029   -5.7994692    1488.8017  0.028893063  0.027685223           18 
 4295000   0.57408119    -5.803891    1488.8546   0.02888736  0.027677748           17 
 4296000   0.56435647   -5.7933248     1488.675  0.028877154  0.027670255           16 
 4297000   0.56766707   -5.7919222    1489.5236  0.028886889  0.027662776           21 
 4298000   0.55058127   -5.7861955     1490.638  0.028901776  0.027655302           15 
 4299000   0.58304167   -5.8026858    1486.5284  0.028815392  0.027647812           14 
 4300000   0.56273349   -5.8031483     1492.311  0.028920757  0.027640331           20 
 4301000   0.57271089    -5.785912    1490.4224  0.028877439  0.027632848           25 
 4302000   0.57654121   -5.7810495    1491.9751  0.028900804  0.027625374           27 
 4303000   0.57435079   -5.7808762    1489.5923  0.028847942    0.0276179           14 
 4304000    0.5585193   -5.8010948    1489.7187  0.028843686  0.027610428            6 
 4305000   0.56104107   -5.8089164    1490.6058  0.028854159  0.027602942           11 
 4306000   0.56101332   -5.8119307    1489.4677  0.028825431  0.027595472           21 
 4307000   0.57338845   -5.7738322    1491.2502  0.028853227  0.027588004           19 
 4308000   0.56177031   -5.7999198    1490.2708  0.028827585  0.027580553           11 
 4309000   0.55368241    -5.788725    1488.1545  0.028779966  0.027573094           15 
 4310000   0.56111178   -5.7838133    1489.0733  0.028791053  0.027565619           17 
 4311000   0.55881758   -5.7903677    1485.6514  0.028718229  0.027558143           20 
 4312000   0.56191527   -5.8061867    1488.1423  0.028759708  0.027550677           46 
 4313000   0.56956929   -5.8179286    1490.9296  0.028806895  0.027543204           29 
 4314000    0.5492326   -5.8012153     1490.772  0.028797173  0.027535745           10 
 4315000   0.57050363   -5.7751607    1490.8707  0.028792405  0.027528275           34 
 4316000   0.55418532   -5.8047631    1487.4001  0.028718724  0.027520824           29 
 4317000   0.55714593   -5.7843458    1489.5941  0.028754422  0.027513343           21 
 4318000   0.55181607   -5.8135464    1486.7537  0.028692947  0.027505885           21 
 4319000   0.56240715   -5.7923719    1490.3228  0.028755168  0.027498425           33 
 4320000   0.55974139   -5.7949297    1490.2157  0.028746444  0.027490964           42 
 4321000   0.56848956   -5.7985005    1487.5584  0.028688545  0.027483489           17 
 4322000   0.56149172   -5.7956188    1489.1947  0.028713457  0.027476033           27 
 4323000   0.55568313    -5.798923    1486.8375  0.028661375  0.027468574           22 
 4324000    0.5596413   -5.8197817    1487.8202  0.028673686  0.027461113           28 
 4325000   0.55787853   -5.8082983    1489.2896  0.028695368  0.027453661           27 
 4326000   0.56446987   -5.7986723    1489.4582  0.028691983  0.027446242           30 
 4327000   0.56003632   -5.8112857    1491.4093  0.028722927  0.027438835           25 
 4328000     0.557523    -5.813172    1491.3072  0.028714326  0.027431418           27 
 4329000   0.55356168   -5.8062307    1485.7479  0.028600677  0.027423992           15 
 4330000   0.55884894   -5.8130263    1488.1688  0.028640662  0.027416565           34 
 4331000    0.5711373    -5.790955    1486.5635  0.028603162  0.027409152           31 
 4332000   0.55575169   -5.8044436    1490.5286  0.028672834  0.027401743           27 
 4333000   0.56165042   -5.8146107    1487.8435  0.028614576  0.027394299           32 
 4334000   0.56239267   -5.8000105    1489.8222   0.02864602  0.027386876           18 
 4335000    0.5493012   -5.8138611    1487.3321  0.028591544  0.027379438           32 
 4336000   0.53392688   -5.7887281    1490.4937  0.028645712  0.027372025           36 
 4337000   0.55472784   -5.8161215    1490.5712  0.028640596   0.02736462           15 
 4338000   0.56882518   -5.8001936    1490.0923  0.028624794  0.027357233           38 
 4339000   0.55965846   -5.8092664    1487.2898  0.028564373  0.027349817           41 
 4340000   0.55562173   -5.8026906    1489.2156   0.02859477  0.027342398           37 
 4341000   0.55802326   -5.7793499    1489.1286  0.028586512  0.027334992           54 
 4342000   0.54904257   -5.7690327    1490.3251  0.028602893  0.027327584           22 
 4343000     0.556156   -5.8014595    1487.8827  0.028549442  0.027320167           26 
 4344000    0.5493783   -5.8244559    1487.9863  0.028544857  0.027312726           43 
 4345000   0.56007944    -5.805199    1490.3796  0.028584188  0.027305296           35 
 4346000   0.56153811   -5.8125276    1491.3235  0.028595711  0.027297881           60 
 4347000    0.5436529   -5.8109942    1485.5947  0.028479309  0.027290464           37 
 4348000   0.55561378    -5.798637    1490.5699  0.028568114   0.02728305           67 
 4349000    0.5614816   -5.8376505    1487.4636  0.028502023  0.027275636           40 
 4350000   0.55559503    -5.809548    1489.9938  0.028543943  0.027268202           57 
 4351000   0.56006698   -5.8289199    1490.1091   0.02853959  0.027260761           88 
 4352000   0.55088352   -5.8037973    1491.5972  0.028561528  0.027253323           33 
 4353000   0.54888261   -5.8227011    1485.4335  0.028436969  0.027245901           99 
 4354000   0.54946628   -5.8073583    1484.5107  0.028412776   0.02723847           38 
 4355000   0.55476735   -5.8177394    1487.8148  0.028469476  0.027231051           60 
 4356000   0.55502501   -5.8344117    1486.4441  0.028436717  0.027223654           44 
 4357000   0.54965967   -5.8094305     1487.112  0.028442965  0.027216249           79 
 4358000   0.57364872   -5.8032925    1487.5369  0.028444564  0.027208853           63 
 4359000   0.55097938   -5.8110616    1485.4259  0.028397681  0.027201448           88 
 4360000   0.55733913   -5.7990256    1488.5175  0.028450259  0.027194046           30 
 4361000   0.55030179   -5.8000124    1491.1296  0.028493648  0.027186672           39 
 4362000   0.54635798   -5.8084245    1493.9098  0.028540231  0.027179294           38 
 4363000   0.54797082   -5.8007872    1491.6818  0.028491133  0.027171929           22 
 4364000   0.53689365   -5.7935223    1488.3582  0.028421139  0.027164576           15 
 4365000    0.5531706   -5.8029973    1488.2546  0.028412649   0.02715721           20 
 4366000   0.54573461   -5.8171796    1489.0892  0.028422072  0.027149817           64 
 4367000    0.5499709   -5.8160557    1487.6754  0.028388584  0.027142452           57 
 4368000   0.54758406   -5.7979607    1487.3561  0.028375994  0.027135091           37 
 4369000    0.5420526   -5.8253493    1487.5287  0.028372791  0.027127723           54 
 4370000   0.56307434   -5.8092259    1490.4155  0.028421348  0.027120351           41 
 4371000   0.54661029   -5.8169165    1489.5742  0.028398806  0.027112994           83 
 4372000   0.55418712   -5.8353189     1492.538  0.028448803  0.027105597           59 
 4373000    0.5496625   -5.8220096    1487.4261  0.028344884  0.027098218           31 
 4374000   0.55264433    -5.831264    1490.3541  0.028394188  0.027090848           28 
 4375000   0.54505053   -5.8148791    1489.0616  0.028363079  0.027083477           47 
 4376000   0.55494945   -5.8080241    1491.2597  0.028398455  0.027076116           68 
 4377000   0.54891744   -5.8247374    1489.4486  0.028357485  0.027068762           25 
 4378000   0.55066402   -5.8067946    1489.1567  0.028345452  0.027061416           36 
 4379000   0.55892694   -5.8143111    1489.6939  0.028349203   0.02705405           43 
 4380000   0.54394113   -5.8337436    1489.6514  0.028341922  0.027046675           83 
 4381000   0.52757665   -5.8350905    1490.5154  0.028351886  0.027039284           78 
 4382000   0.55730454   -5.8358452    1486.9503  0.028277619  0.027031897           83 
 4383000   0.55511792   -5.8399973    1485.3784   0.02824128  0.027024527          136 
 4384000   0.54529554   -5.8120231    1490.5566  0.028333269   0.02701714           94 
 4385000   0.53565067   -5.8341886     1490.203  0.028320087  0.027009764           93 
 4386000    0.5486773   -5.8238029    1489.3205  0.028296864  0.027002393           81 
 4387000   0.55911003    -5.812005    1485.6431  0.028220558  0.026995021          150 
 4388000    0.5530028   -5.8362211    1484.4128  0.028190763  0.026987637          126 
 4389000    0.5552682   -5.8347908    1489.4708  0.028280375  0.026980243          133 
 4390000     0.557704   -5.8459992     1489.782   0.02827984  0.026972842          129 
 4391000   0.55770217   -5.8380742    1485.1874  0.028186202  0.026965436          144 
 4392000   0.54563765   -5.8342748    1485.7891  0.028191202  0.026958027          152 
 4393000   0.54634765   -5.8719927    1487.2469  0.028212438  0.026950592          132 
 4394000   0.54571974   -5.8482964    1486.6519  0.028194734  0.026943161          133 
 4395000   0.53145806   -5.8485561    1486.5107   0.02818564  0.026935755          111 
 4396000   0.54127842   -5.8427372    1488.1863  0.028210992   0.02692835          109 
 4397000   0.55133913   -5.8296042    1485.6771  0.028157021  0.026920951          137 
 4398000   0.55579211   -5.8453057    1483.3162  0.028105886  0.026913533          194 
 4399000    0.5381263   -5.8393497     1485.081  0.028132929  0.026906125          153 
 4400000   0.55529009   -5.8557293    1485.3986  0.028132549  0.026898716          149 
 4401000    0.5533618   -5.8487777    1485.4772  0.028127645  0.026891301          155 
 4402000    0.5397831    -5.860851    1480.8008  0.028032727   0.02688389          131 
 4403000   0.56133714   -5.8422573    1484.1586  0.028089912  0.026876494          170 
 4404000    0.5492072   -5.8432898    1483.4597  0.028070308  0.026869094          158 
 4405000   0.53777384    -5.853928    1486.4646  0.028120784  0.026861711          131 
 4406000   0.54633771   -5.8476624    1489.4092  0.028170094  0.026854321          198 
 4407000   0.54711329   -5.8529234    1486.9226  0.028116682  0.026846932          160 
 4408000   0.53029826   -5.8473766    1486.3173  0.028098859   0.02683954          143 
 4409000   0.55132473   -5.8515815    1487.2856  0.028110788  0.026832133          199 
 4410000   0.54115269   -5.8571772    1485.4164  0.028069092  0.026824711          287 
 4411000   0.55708097   -5.8605762    1483.8586    0.0280333   0.02681731          255 
 4412000   0.54909678   -5.8613191    1483.3421   0.02801719  0.026809894          249 
 4413000   0.53750953   -5.8579084    1484.2628  0.028028227  0.026802473          293 
 4414000   0.54794076   -5.8700575    1485.3913  0.028043182   0.02679508          277 
 4415000   0.55121865   -5.8496146    1485.8407  0.028045314  0.026787674          280 
 4416000   0.54273961   -5.8681462    1487.3077  0.028066646  0.026780273          285 
 4417000   0.54309707   -5.8509298    1485.5606   0.02802733  0.026772872          228 
 4418000     0.550031   -5.8544425     1485.404  0.028018032   0.02676549          307 
 4419000   0.55638069   -5.8604875    1482.6652  0.027960044  0.026758119          248 
 4420000    0.5415296   -5.8560951    1489.4397  0.028081442  0.026750744          242 
 4421000   0.53853746   -5.8625571    1486.8074  0.028025473  0.026743389          286 
 4422000   0.55086358   -5.8575884    1486.1149  0.028006085  0.026736023          223 
 4423000   0.54543908   -5.8554743    1487.8758  0.028032929  0.026728645          328 
 4424000   0.54145177   -5.8539052    1485.8737   0.02798888   0.02672127          324 
 4425000   0.52739691   -5.8626433    1486.1912  0.027988535  0.026713891          319 
 4426000   0.53846308   -5.8732705    1486.1204  0.027980879  0.026706494          268 
 4427000   0.54936794   -5.8569317    1485.3797  0.027960615  0.026699119          316 
 4428000   0.53681065   -5.8541402    1483.0106  0.027909715  0.026691733          254 
 4429000   0.54202785   -5.8684909    1485.9643  0.027958988  0.026684375          268 
 4430000   0.54940985   -5.8554703    1486.2558  0.027958161  0.026677005          323 
 4431000   0.54518223   -5.8531993    1486.6771  0.027959774  0.026669641          323 
 4432000     0.551885   -5.8567056    1487.8117  0.027974798  0.026662285          307 
 4433000   0.55209615   -5.8541568    1484.8945   0.02791365  0.026654924          273 
 4434000   0.55126416   -5.8705454    1485.1574  0.027912296  0.026647563          345 
 4435000    0.5379508   -5.8618823    1481.0875  0.027829528  0.026640176          317 
 4436000   0.53161534   -5.8671169    1485.1243  0.027899088  0.026632788          425 
 4437000     0.546399   -5.8699566    1487.5978  0.027939257  0.026625429          411 
 4438000   0.55300603   -5.8839523    1485.8732  0.027900579   0.02661807          332 
 4439000   0.54229141   -5.8633703    1488.3384  0.027940573  0.026610731          315 
 4440000   0.55764151   -5.8651077    1486.7341  0.027904169  0.026603408          353 
 4441000   0.55041495   -5.8560036    1488.1917  0.027925237  0.026596094          306 
 4442000   0.53938638   -5.8601725    1487.6226  0.027908274  0.026588777          375 
 4443000   0.55073907   -5.8459482    1487.1352  0.027892851  0.026581446          332 
 4444000   0.53162029   -5.8644413    1484.8461  0.027843649   0.02657411          299 
 4445000   0.53800957   -5.8501078    1486.4692  0.027867814  0.026566778          268 
 4446000   0.54779792   -5.8571239    1488.4836  0.027899303  0.026559459          368 
 4447000   0.54975324   -5.8698811    1489.0435  0.027903522  0.026552158          342 
 4448000   0.53972705   -5.8498075    1485.3706  0.027828436  0.026544865          342 
 4449000   0.53619541   -5.8504736    1484.6312  0.027808331  0.026537552          337 
 4450000   0.54887306   -5.8638674    1486.4547   0.02783623  0.026530246          374 
 4451000    0.5472327   -5.8699853    1484.8211  0.027799391  0.026522937          386 
 4452000   0.54056918   -5.8718629    1484.2369  0.027782211  0.026515621          364 
 4453000   0.53726849   -5.8779825    1482.1544  0.027737002  0.026508287          387 
 4454000   0.53609954   -5.8699427    1484.6568  0.027777594  0.026500959          371 
 4455000   0.54206549   -5.8480209    1487.4902  0.027824358  0.026493632          388 
 4456000   0.54424777   -5.9014953    1486.3414  0.027796629  0.026486316          411 
 4457000   0.54656811   -5.8800261    1487.2477  0.027807338  0.026478989          391 
 4458000   0.55491526   -5.8753494    1487.0416  0.027797248  0.026471686          402 
 4459000   0.54469251   -5.8800746    1487.2138  0.027794233  0.026464362          328 
 4460000   0.54421035   -5.8860977     1485.582  0.027757511  0.026457054          372 
 4461000   0.53219267   -5.8870943    1481.0375  0.027666395  0.026449732          328 
 4462000   0.52516369   -5.8869353    1484.8022  0.027730506  0.026442401          400 
 4463000   0.52764763   -5.8910402    1484.9136  0.027726372  0.026435102          378 
 4464000   0.52963626   -5.8731872    1486.1908  0.027744004  0.026427801          427 
 4465000   0.53023859   -5.8761068    1486.5147  0.027743835  0.026420515          388 
 4466000   0.54230884   -5.8802329    1486.8283  0.027743475  0.026413232          348 
 4467000   0.53416875   -5.8683933    1483.6993  0.027678892  0.026405943          387 
 4468000   0.52741981   -5.8866974    1485.1801  0.027700315  0.026398649          413 
 4469000   0.53222529   -5.8954956    1486.0894  0.027711072  0.026391352          441 
 4470000   0.54074957   -5.8991805    1481.4544  0.027618463  0.026384032          488 
 4471000   0.55071112   -5.8768431    1487.4006  0.027723117  0.026376712          473 
 4472000   0.52734531   -5.8798018    1483.2691  0.027639929    0.0263694          519 
 4473000   0.54606745   -5.8829356    1480.9754  0.027591017  0.026362073          543 
 4474000   0.54268154   -5.8913172    1481.0889  0.027586963  0.026354738          584 
 4475000   0.53058962    -5.907487    1483.9563  0.027634195  0.026347398          541 
 4476000   0.52488413   -5.9050455     1485.669  0.027659908  0.026340085          617 
 4477000   0.53422261    -5.889673    1486.3523  0.027666449   0.02633278          611 
 4478000   0.54124807   -5.8838317    1485.1619  0.027638118  0.026325455          572 
 4479000   0.53591241   -5.8901192    1489.4401  0.027711544   0.02631815          585 
 4480000    0.5312876    -5.878713    1481.6565  0.027560575  0.026310845          667 
 4481000   0.52122427   -5.8947084    1482.7334  0.027574451  0.026303522          618 
 4482000   0.53270323   -5.8970082    1482.1432  0.027557325  0.026296193          652 
 4483000   0.53006492   -5.8980818    1482.4209   0.02755634  0.026288882          639 
 4484000   0.53929165   -5.9032001    1484.1562  0.027582445  0.026281563          626 
 4485000   0.53495857   -5.9002035    1483.6312  0.027566541  0.026274238          604 
 4486000   0.54225862   -5.9047213    1478.6578  0.027468009  0.026266923          584 
 4487000   0.53853639    -5.906987    1481.2778  0.027510545  0.026259621          548 
 4488000    0.5382866   -5.8936592     1483.537  0.027546364  0.026252311          544 
 4489000   0.53027478   -5.8825177    1480.3198  0.027480504  0.026245015          632 
 4490000    0.5408249     -5.89022    1481.2831  0.027492263  0.026237719          662 
 4491000   0.53024544    -5.888485    1480.8759  0.027478586  0.026230436          649 
 4492000   0.54734537   -5.8912057    1484.1356   0.02753294  0.026223152          696 
 4493000   0.52829179    -5.897783    1485.4494  0.027551179  0.026215863          651 
 4494000   0.53030972   -5.8971855    1482.8173  0.027496241  0.026208552          688 
 4495000   0.53871319    -5.905826     1483.417  0.027501241  0.026201277          691 
 4496000   0.53969442   -5.8931588    1486.9663  0.027560911  0.026193988          692 
 4497000   0.53411144   -5.9005796    1483.0312  0.027481862  0.026186692          656 
 4498000   0.52978855   -5.9134279     1481.252  0.027442789  0.026179419          691 
 4499000    0.5370016   -5.9071095    1486.6502  0.027536679  0.026172126          586 
 4500000   0.52569316   -5.9056924     1483.728  0.027476445   0.02616484          673 
 4501000   0.53062516   -5.8979284    1483.8505  0.027472608  0.026157545          733 
 4502000   0.53063665   -5.9154555    1484.9626  0.027487091  0.026150229          781 
 4503000   0.53408684   -5.9106101    1482.4702  0.027434862  0.026142913          831 
 4504000   0.53548157   -5.9108771    1481.2551  0.027406289  0.026135589          750 
 4505000    0.5320982   -5.9243272    1483.8857  0.027448865  0.026128265          820 
 4506000   0.53784178   -5.9171162    1482.0253  0.027408368  0.026120943          807 
 4507000   0.54110819   -5.9207373    1478.6952  0.027340714  0.026113608          838 
 4508000    0.5325521   -5.8989619    1480.7768   0.02737313  0.026106286          872 
 4509000   0.53387694    -5.919222    1480.4659  0.027361313  0.026098948          845 
 4510000   0.52816261   -5.9102098    1481.9662  0.027382968  0.026091613          885 
 4511000    0.5181769   -5.9129235    1482.6543  0.027389609  0.026084276          912 
 4512000   0.54168968    -5.932334    1480.0933  0.027336238  0.026076941          923 
 4513000    0.5319049   -5.9472766    1476.7281  0.027268043  0.026069603          976 
 4514000   0.51575393   -5.9211061    1478.1379  0.027288029  0.026062258          999 
 4515000   0.53436611   -5.9104586    1482.7442  0.027367003  0.026054917          964 
 4516000   0.52308449   -5.9308549    1480.1312  0.027312725  0.026047591         1069 
 4517000   0.52785288   -5.9423228    1481.0371  0.027323392  0.026040272         1098 
 4518000   0.52566281   -5.9326187    1479.9584  0.027297448  0.026032943         1110 
 4519000   0.53058519   -5.9320725    1479.0152  0.027274013  0.026025602         1107 
 4520000   0.53233683   -5.9409727    1474.3395  0.027181775  0.026018262         1211 
 4521000   0.53193614   -5.9448298    1479.8401  0.027277153  0.026010912         1089 
 4522000   0.53239042   -5.9530737    1481.2083  0.027296334  0.026003585         1170 
 4523000   0.52347867   -5.9260177    1481.6768  0.027298931  0.025996256         1110 
 4524000   0.53030055   -5.9428574    1480.3166  0.027267843  0.025988949         1040 
 4525000   0.52101901   -5.9291501    1481.0286  0.027274928  0.025981645         1114 
 4526000   0.52781943   -5.9246186    1477.6346   0.02720641  0.025974333         1146 
 4527000   0.52546023   -5.9334332    1476.6321  0.027181947  0.025967021         1241 
 4528000   0.52515445   -5.9270848    1480.6002  0.027248973  0.025959699         1256 
 4529000    0.5347473   -5.9290961    1480.8286  0.027247159  0.025952376         1315 
 4530000   0.53899743   -5.9250849    1478.5941  0.027200039  0.025945067         1331 
 4531000   0.51813994   -5.9574592    1478.7462  0.027196833  0.025937744         1365 
 4532000   0.52252575   -5.9401672     1479.966  0.027213262  0.025930422         1318 
 4533000   0.53190285   -5.9323128    1480.4773  0.027216657  0.025923106         1359 
 4534000   0.52868037   -5.9202766    1480.3665  0.027208617  0.025915789         1364 
 4535000   0.52323993   -5.9461707    1474.8558  0.027101356  0.025908469         1376 
 4536000   0.53699224   -5.9441001    1478.5763  0.027163732   0.02590113         1465 
 4537000    0.5287148   -5.9460281    1478.0196  0.027147521  0.025893803         1453 
 4538000   0.52050688    -5.957483    1477.1149  0.027124925  0.025886478         1458 
 4539000    0.5309687    -5.950193    1483.6506   0.02723894  0.025879151         1464 
 4540000   0.51919666   -5.9336506     1479.541  0.027157507  0.025871809         1472 
 4541000   0.51944883   -5.9481303    1480.3789  0.027166904   0.02586448         1428 
 4542000   0.52104294   -5.9524736    1476.1124  0.027082644  0.025857158         1490 
 4543000    0.5194658   -5.9673252    1477.5537  0.027103121  0.025849814         1463 
 4544000   0.53341061   -5.9580985    1476.6634  0.027080827  0.025842467         1510 
 4545000   0.52090849   -5.9642097    1476.4306  0.027070602  0.025835123         1495 
 4546000   0.51340328   -5.9676678    1478.6896  0.027106056  0.025827768         1520 
 4547000   0.52714013   -5.9521461    1479.2785  0.027110889  0.025820426         1456 
 4548000   0.52066845   -5.9443743    1476.2639  0.027049691   0.02581309         1442 
 4549000   0.52367253   -5.9529269    1476.4726  0.027047568  0.025805765         1555 
 4550000   0.52667295   -5.9613612    1478.2849  0.027074815  0.025798441         1500 
 4551000   0.52333284   -5.9595538    1477.5492  0.027055395  0.025791118         1597 
 4552000   0.53032436     -5.96803    1477.0535  0.027040375  0.025783777         1587 
 4553000   0.52583179   -5.9528814    1476.1694  0.027018256  0.025776434         1755 
 4554000   0.51146981    -5.945521    1474.3893  0.026979749  0.025769105         1771 
 4555000   0.51993181   -5.9674522    1476.6083  0.027014422  0.025761762         1743 
 4556000   0.53382495   -5.9855192    1473.9199  0.026959319  0.025754408         1836 
 4557000   0.51997123   -5.9746388     1475.171  0.026976281  0.025747044         1796 
 4558000   0.52572277   -5.9790653    1473.3789  0.026937598  0.025739683         1867 
 4559000   0.52432215   -5.9859786    1473.6157  0.026936019   0.02573233         1896 
 4560000   0.52809844    -5.967451     1475.569  0.026965807   0.02572498         1887 
 4561000   0.52342374   -5.9672562    1476.1006  0.026969608  0.025717608         1740 
 4562000   0.52151239   -5.9862312    1475.4856  0.026952462   0.02571024         1824 
 4563000   0.52018231   -5.9910453    1479.7007  0.027023536  0.025702876         1827 
 4564000   0.51038471   -5.9920409    1475.0745  0.026933145  0.025695496         1887 
 4565000   0.51824844   -5.9950212    1472.9932  0.026889252  0.025688117         1944 
 4566000   0.50286194   -5.9935142    1475.1219  0.026922213  0.025680718         1998 
 4567000   0.52578058   -5.9878198     1475.288  0.026919349  0.025673311         2144 
 4568000   0.52562885   -5.9991803    1470.5932   0.02682781  0.025665912         2067 
 4569000   0.52997006   -6.0033165    1476.2629  0.026925346  0.025658509         2102 
 4570000   0.52000787   -5.9999861    1471.3579  0.026830012  0.025651101         2274 
 4571000   0.52430953   -5.9909289    1473.8049  0.026868754  0.025643703         2326 
 4572000   0.52067404   -6.0024526    1472.9629   0.02684753  0.025636289         2276 
 4573000   0.52067874   -6.0224583    1470.8277   0.02680275  0.025628876         2274 
 4574000   0.51259857   -5.9919671     1475.027  0.026873396  0.025621473         2205 
 4575000   0.51844731   -6.0019282     1472.015  0.026812659  0.025614062         2351 
 4576000   0.51283118   -5.9974428    1471.9041  0.026804781  0.025606663         2297 
 4577000   0.51961761   -6.0146226    1471.4583  0.026790808  0.025599257         2242 
 4578000   0.52690479   -6.0020963    1472.9151  0.026811474  0.025591861         2351 
 4579000   0.51747393   -5.9937959    1472.1908  0.026792437  0.025584456         2385 
 4580000   0.51656868   -6.0085338     1472.253  0.026787718  0.025577061         2465 
 4581000    0.5216213   -6.0172265    1471.6024  0.026770036  0.025569658         2414 
 4582000   0.51638483   -6.0051743    1470.2337  0.026739301  0.025562252         2462 
 4583000   0.51534628   -6.0186716    1473.2636   0.02678856  0.025554842         2455 
 4584000   0.51944643   -6.0133667    1472.1866  0.026763137  0.025547433         2500 
 4585000   0.51733366   -6.0214043    1466.6753   0.02665713  0.025540006         2692 
 4586000   0.51813934   -6.0190003    1472.0739  0.026749417  0.025532576         2601 
 4587000   0.52378599   -6.0197176    1469.0632  0.026688888  0.025525153         2695 
 4588000   0.51358102   -6.0362056    1468.3402   0.02666994  0.025517729         2680 
 4589000   0.51455353   -6.0170426    1469.2622   0.02668087  0.025510295         2777 
 4590000   0.51216244   -6.0312203    1466.8876  0.026631947  0.025502843         2786 
 4591000   0.51841832   -6.0348355    1467.7771   0.02664229  0.025495393         2855 
 4592000   0.52512758   -6.0364794    1464.5933   0.02657871  0.025487946         2861 
 4593000   0.50922467   -6.0472036     1465.343  0.026586526  0.025480492         2892 
 4594000   0.51098717   -6.0598844    1468.1453  0.026631571  0.025473031         2873 
 4595000   0.52036754    -6.043144    1468.4795  0.026631837  0.025465568         2941 
 4596000   0.52410842   -6.0381868    1466.5423  0.026590919  0.025458099         2850 
 4597000   0.53096611   -6.0558183    1464.2047  0.026542757  0.025450623         2968 
 4598000   0.50848633   -6.0468695    1463.7371   0.02652851   0.02544316         2963 
 4599000   0.52454223   -6.0484017    1463.6986  0.026522045  0.025435678         2993 
 4600000   0.51703496   -6.0304715    1465.8443   0.02655515  0.025428196         2948 
 4601000   0.53233223   -6.0321149    1465.9055  0.026550487  0.025420727         2968 
 4602000   0.52151447   -6.0590305    1468.2374  0.026586944   0.02541325         3105 
 4603000   0.51762476   -6.0590872    1466.7818  0.026554816  0.025405759         3044 
 4604000    0.5159468   -6.0593359    1466.4768  0.026543527  0.025398286         2945 
 4605000   0.52987594   -6.0523586    1464.8163  0.026507715  0.025390807         3068 
 4606000   0.51328701   -6.0682318    1460.8128  0.026429526  0.025383323         3102 
 4607000   0.51744531   -6.0458507    1466.2907  0.026522877   0.02537584         3103 
 4608000   0.51916981   -6.0493636    1463.3802  0.026464486  0.025368368         3137 
 4609000   0.50924561   -6.0617725    1466.7785  0.026520186  0.025360875         3126 
 4610000   0.52398923   -6.0550107    1467.7113  0.026531296  0.025353396         3115 
 4611000   0.52936252   -6.0685291    1460.4978  0.026395174  0.025345908         3177 
 4612000   0.51588289   -6.0856479    1464.6281  0.026464081  0.025338417         3175 
 4613000   0.51745821    -6.060031    1463.9231  0.026445608  0.025330927         3212 
 4614000   0.52388872   -6.0640101    1465.4651  0.026467726  0.025323426         3139 
 4615000   0.50451122   -6.0663177    1463.5529  0.026427463  0.025315942         3222 
 4616000   0.50861371    -6.066728    1465.6699  0.026459956  0.025308451         3260 
 4617000   0.50894754   -6.0755954    1464.0629   0.02642522  0.025300957         3247 
 4618000   0.51081028   -6.0692658    1463.1372  0.026402793  0.025293465         3289 
 4619000   0.49955786   -6.0551692     1463.371  0.026401296  0.025285982         3343 
 4620000    0.5031014   -6.0637363    1466.5014  0.026452045  0.025278488         3251 
 4621000   0.51463767   -6.0702964    1463.9142  0.026399665  0.025270991         3298 
 4622000   0.50124827   -6.0791459    1462.1317  0.026361815  0.025263504         3303 
 4623000   0.50640889    -6.075635     1460.524  0.026327133  0.025256009         3351 
 4624000   0.50674587    -6.074661    1465.2061   0.02640582  0.025248513         3389 
 4625000   0.51999289   -6.0643916    1462.5712  0.026352635  0.025241026         3402 
 4626000   0.52302848     -6.06793     1465.298  0.026396058  0.025233536         3360 
 4627000   0.51052028   -6.0659868    1463.3313  0.026354934   0.02522605         3428 
 4628000    0.5119543   -6.0645636     1465.025  0.026379737  0.025218568         3402 
 4629000   0.52619906   -6.0661115    1461.6448  0.026313185  0.025211074         3450 
 4630000   0.51333661    -6.093805    1463.5814  0.026342357  0.025203573         3445 
 4631000   0.51457705   -6.0776738    1461.7594  0.026303883  0.025196087         3441 
 4632000   0.51039537     -6.08254     1463.049  0.026321405  0.025188589         3479 
 4633000   0.51575386   -6.0786849    1463.9751  0.026332382  0.025181101         3452 
 4634000   0.51899116   -6.0722604    1460.3195  0.026260961   0.02517361         3441 
 4635000   0.49895023    -6.073506    1460.8587  0.026264989  0.025166128         3400 
 4636000   0.51206473   -6.0816114    1461.2255  0.026265917   0.02515864         3444 
 4637000   0.51187416   -6.0876383     1461.132  0.026258572  0.025151159         3413 
 4638000   0.50147956    -6.080466    1462.6266  0.026279765  0.025143687         3489 
 4639000   0.51648806   -6.0822951    1461.0693  0.026246125  0.025136191         3468 
 4640000   0.51317779   -6.0598931    1459.6835   0.02621558  0.025128703         3464 
 4641000   0.49451221   -6.0863987    1461.4482  0.026241619  0.025121212         3476 
 4642000   0.50336467   -6.0901823    1460.9892  0.026227725  0.025113721         3529 
 4643000   0.51218062   -6.0814066    1459.8555  0.026201728  0.025106238         3498 
 4644000   0.50920246   -6.0988396    1460.8612  0.026214133  0.025098763         3628 
 4645000   0.51151582   -6.0887133    1462.0305  0.026229467  0.025091279         3537 
 4646000   0.50592633   -6.0828257     1459.147  0.026172101  0.025083788         3638 
 4647000   0.50242359   -6.1007252    1460.2789  0.026186768  0.025076301         3650 
 4648000   0.49533931   -6.0902384    1459.7995  0.026172538  0.025068797         3595 
 4649000   0.51366336   -6.0977817    1456.8174  0.026113455  0.025061299         3664 
 4650000   0.51863602   -6.0802167     1459.202  0.026150573  0.025053798         3612 
 4651000   0.51146297   -6.1007487    1457.5961  0.026116178  0.025046315         3635 
 4652000   0.50298155   -6.0930943    1459.6451  0.026147268  0.025038829         3553 
 4653000   0.50706526   -6.1101179    1460.7586  0.026161592  0.025031352         3566 
 4654000   0.49894717   -6.0964941    1460.8254  0.026157165  0.025023867         3636 
 4655000   0.50864873   -6.0878702    1461.8829  0.026170478  0.025016381         3569 
 4656000   0.51538374   -6.1061984    1459.2323  0.026117417  0.025008901         3613 
 4657000   0.49754171   -6.1010009    1460.0605  0.026126628  0.025001429         3572 
 4658000   0.50167799   -6.1056962    1456.8836  0.026064183  0.024993953         3649 
 4659000   0.50900682   -6.0974566    1455.9695  0.026042239  0.024986469         3670 
 4660000    0.5052594   -6.1094326    1460.9878  0.026126392  0.024978994         3631 
 4661000   0.50822747   -6.1139831    1458.3196  0.026073081  0.024971509         3645 
 4662000   0.50453128   -6.1124048    1456.3227  0.026031794  0.024964033         3706 
 4663000   0.49870038   -6.1086822    1459.1134  0.026076085  0.024956556         3725 
 4664000   0.49555873   -6.1057022    1457.8353  0.026047658  0.024949082         3648 
 4665000   0.50387195   -6.0942618    1462.0226  0.026116874  0.024941614         3674 
 4666000   0.50455533   -6.0979445    1459.7306  0.026070343  0.024934149         3627 
 4667000   0.50697425   -6.1160014    1459.1265  0.026053969   0.02492669         3621 
 4668000   0.50190196   -6.0912777    1458.8984  0.026044315  0.024919229         3592 
 4669000   0.49817185   -6.1079194    1456.6078  0.025997855  0.024911768         3645 
 4670000   0.51266129   -6.1293388    1457.2138    0.0260031  0.024904293         3661 
 4671000   0.50862959   -6.0897004    1459.2467  0.026033802  0.024896837         3669 
 4672000   0.51272511   -6.1018018    1458.7825   0.02601995  0.024889389         3610 
 4673000   0.49743552   -6.1122969    1457.6022  0.025993334  0.024881938         3646 
 4674000   0.51795418   -6.1012625    1459.6161  0.026023679  0.024874483         3595 
 4675000   0.50391224   -6.0854286     1460.698  0.026037397  0.024867019         3617 
 4676000   0.50366798   -6.1100131    1459.4055  0.026008795  0.024859574         3619 
 4677000   0.50971963   -6.1028848    1456.7367  0.025955682  0.024852122         3631 
 4678000    0.5108436   -6.0976751    1458.1162  0.025974707  0.024844666         3657 
 4679000   0.51395682   -6.1088957    1459.7869  0.025998911  0.024837223         3629 
 4680000   0.51008792   -6.1202958    1459.1402   0.02598184  0.024829759         3685 
 4681000   0.50224723   -6.1127085    1457.4464  0.025946137  0.024822298         3707 
 4682000   0.49993174   -6.1035558    1457.1551  0.025935411   0.02481483         3659 
 4683000   0.50943058   -6.1166622    1456.3484  0.025915518  0.024807378         3750 
 4684000   0.49893975   -6.1097551    1456.6644  0.025915606  0.024799921         3700 
 4685000   0.51086345   -6.1209156    1456.1869  0.025901581  0.024792455         3784 
 4686000    0.5029864    -6.130678    1459.6216  0.025957134  0.024784987         3757 
 4687000   0.49825177   -6.1230377    1459.7326   0.02595357  0.024777517         3751 
 4688000   0.50300947   -6.1063814    1457.9311  0.025916011  0.024770065         3710 
 4689000   0.50488986   -6.1179342     1459.779  0.025943325  0.024762608         3747 
 4690000   0.49435771   -6.1356487    1455.0024  0.025852921  0.024755147         3743 
 4691000   0.50101477   -6.1062963    1458.3984  0.025907739  0.024747683         3760 
 4692000   0.50296363   -6.1138431    1456.0645  0.025860764  0.024740228         3731 
 4693000   0.51204549    -6.136672    1457.7381  0.025884973  0.024732771         3772 
 4694000   0.50258787   -6.1359416    1457.2259  0.025870365  0.024725323         3763 
 4695000   0.50226359   -6.1366744    1454.6667   0.02581943  0.024717872         3800 
 4696000   0.49049149   -6.1307545    1455.7848  0.025833774  0.024710423         3741 
 4697000   0.49714499   -6.1344268    1459.7041  0.025897809  0.024702972         3770 
 4698000   0.49750693   -6.1201052    1455.6804  0.025820924  0.024695526         3770 
 4699000   0.50260818   -6.1335483    1458.1908  0.025859949  0.024688075         3796 
 4700000   0.50113357    -6.115448    1457.1713   0.02583637  0.024680625         3797 
 4701000   0.49922369   -6.1223317    1456.3047  0.025815513  0.024673177         3760 
 4702000   0.49163787   -6.1293071     1457.098  0.025824083  0.024665736         3796 
 4703000   0.50237831   -6.1315007    1457.5433  0.025826482  0.024658298         3797 
 4704000   0.49541106   -6.1365914    1456.3874  0.025800514  0.024650863         3795 
 4705000   0.49478577   -6.1414622    1453.9085  0.025751125  0.024643427         3799 
 4706000   0.49060438   -6.1408461    1454.1635  0.025750168  0.024635989         3793 
 4707000   0.48420933   -6.1458376    1456.3359  0.025783159  0.024628552         3817 
 4708000   0.50549141    -6.146603    1452.6788   0.02571295  0.024621109         3779 
 4709000   0.49923502   -6.1413884      1454.49  0.025739541   0.02461367         3820 
 4710000   0.50043946   -6.1512769    1456.0216  0.025761176  0.024606223         3794 
 4711000   0.50357958   -6.1509717    1456.6476  0.025766779  0.024598782         3785 
 4712000   0.49476897   -6.1488664    1457.4852  0.025776126  0.024591337         3850 
 4713000   0.50182973   -6.1435191    1453.0149  0.025691613   0.02458389         3827 
 4714000   0.50360024   -6.1495616    1453.9915  0.025703429   0.02457643         3823 
 4715000   0.51624697   -6.1473872    1453.7807   0.02569425  0.024568986         3844 
 4716000     0.506627   -6.1473593    1453.0661  0.025676175  0.024561536         3872 
 4717000   0.50222904   -6.1537071    1456.6193  0.025733504  0.024554086         3824 
 4718000   0.49836017   -6.1464118    1455.3401  0.025705456  0.024546642         3845 
 4719000   0.49063411   -6.1559877    1455.7153  0.025706634  0.024539216         3833 
 4720000   0.49517603   -6.1380082    1455.4679   0.02569682  0.024531776         3859 
 4721000   0.51153418   -6.1528052    1452.9149  0.025646313  0.024524352         3837 
 4722000   0.49567085   -6.1379599     1457.038  0.025713646  0.024516925         3864 
 4723000   0.49367399   -6.1645854    1452.6071  0.025630022  0.024509493         3864 
 4724000    0.4976758   -6.1649504    1456.0912  0.025686058  0.024502066         3843 
 4725000   0.50068907   -6.1436907    1457.4057  0.025703804   0.02449465         3845 
 4726000   0.49596077    -6.144674    1457.2229  0.025695142  0.024487229         3815 
 4727000   0.48522481   -6.1539642    1455.2227  0.025654445  0.024479812         3818 
 4728000   0.48530139   -6.1477277    1454.3072  0.025632883  0.024472402         3842 
 4729000   0.49956649   -6.1529552    1455.3611  0.025646034  0.024464998         3851 
 4730000   0.50122886    -6.151625    1453.5076  0.025607956  0.024457595         3880 
 4731000   0.49961313   -6.1562262    1455.1119  0.025630803  0.024450185         3824 
 4732000   0.49642568   -6.1681842     1453.916  0.025604325  0.024442777         3860 
 4733000   0.49235765   -6.1523604    1454.4533  0.025608376  0.024435367         3870 
 4734000   0.49440958   -6.1450874    1456.6852  0.025642254  0.024427955         3876 
 4735000   0.49186932   -6.1774799    1451.7482  0.025549951  0.024420542         3828 
 4736000   0.49177423   -6.1543708    1454.6956  0.025596417  0.024413126         3866 
 4737000   0.49685194   -6.1672473    1451.5497  0.025535671   0.02440572         3873 
 4738000   0.50305265   -6.1508742    1452.2908  0.025543316  0.024398318         3846 
 4739000    0.4826695   -6.1561696    1454.2266  0.025571967  0.024390919         3842 
 4740000   0.49274326   -6.1720142    1452.0163  0.025527712  0.024383519         3874 
 4741000   0.50934334     -6.16714    1452.9701  0.025539093  0.024376129         3848 
 4742000   0.49316561   -6.1693173    1454.7736  0.025565402  0.024368747         3854 
 4743000   0.50231146   -6.1647665    1454.5256  0.025555654  0.024361351         3873 
 4744000   0.49498155   -6.1660959    1453.7953  0.025537438  0.024353963         3873 
 4745000   0.48837812   -6.1526188    1448.9762  0.025447423   0.02434657         3884 
 4746000   0.49594181   -6.1564126    1451.7529  0.025490816  0.024339193         3855 
 4747000   0.49769268   -6.1535317    1452.7269  0.025502544  0.024331818         3881 
 4748000   0.50332927   -6.1586445    1452.0471   0.02548524  0.024324437         3854 
 4749000   0.49108558   -6.1635388    1453.7459  0.025509684  0.024317061         3877 
 4750000   0.50034087   -6.1619214    1452.5111  0.025482651  0.024309681         3843 
 4751000   0.49167479   -6.1672156    1455.4977  0.025529672  0.024302304         3888 
 4752000   0.48556832   -6.1680868    1452.1465  0.025465531  0.024294926         3903 
 4753000   0.48721388   -6.1434301      1453.31  0.025480573   0.02428755         3869 
 4754000   0.48658302   -6.1575659    1453.7352  0.025482666   0.02428018         3855 
 4755000   0.48904458   -6.1706707    1452.3205  0.025452514  0.024272814         3893 
 4756000   0.49747099   -6.1594495    1454.5545  0.025486307  0.024265448         3881 
 4757000   0.49335149   -6.1814439    1451.9043  0.025434523  0.024258087         3879 
 4758000   0.49863485     -6.16731    1451.5869  0.025423618  0.024250724         3867 
 4759000   0.48869361   -6.1504448    1454.8862  0.025476049  0.024243368         3891 
 4760000   0.48128075    -6.162372    1452.2358  0.025424297  0.024236004         3900 
 4761000   0.49262284   -6.1654783    1455.4945  0.025475995  0.024228647         3881 
 4762000     0.495332   -6.1614302    1452.1225  0.025411635  0.024221294         3828 
 4763000   0.48692473   -6.1747702    1451.1727  0.025389682  0.024213948         3870 
 4764000   0.48415806   -6.1618673    1451.4655  0.025389474  0.024206591         3885 
 4765000   0.48585315    -6.171841    1451.8074  0.025390126  0.024199239         3881 
 4766000   0.49020762   -6.1722996    1452.8906  0.025403738  0.024191899         3881 
 4767000   0.48253282   -6.1707206    1452.0736  0.025384127  0.024184551         3879 
 4768000    0.4705142   -6.1664516    1452.1663  0.025380423  0.024177204         3875 
 4769000   0.48591555   -6.1706292    1450.0825   0.02533869  0.024169864         3877 
 4770000   0.49830974   -6.1693891    1452.4728  0.025375136  0.024162533         3848 
 4771000   0.48614472   -6.1767437    1449.2501  0.025313529  0.024155201         3877 
 4772000   0.49025707   -6.1748368    1450.2098  0.025324983  0.024147871         3885 
 4773000   0.49380309   -6.1522212    1453.4912  0.025376968  0.024140539         3850 
 4774000   0.48985134   -6.1694528    1451.1109  0.025330103  0.024133214         3841 
 4775000   0.48084953   -6.1698026    1451.1851  0.025326092  0.024125891         3868 
 4776000   0.47643087   -6.1677189    1453.3631  0.025358793  0.024118567         3871 
 4777000   0.49570275   -6.1596311    1450.7422  0.025307762  0.024111255         3861 
 4778000   0.49305039   -6.1618887    1452.9843  0.025341572  0.024103947         3902 
 4779000   0.47471371   -6.1567376    1452.5599  0.025328868  0.024096635         3890 
 4780000   0.48941955   -6.1596679    1452.8672  0.025328925  0.024089324         3889 
 4781000   0.49263794   -6.1591026     1453.682   0.02533783  0.024082018         3892 
 4782000   0.47857589   -6.1783304    1451.2538  0.025290217   0.02407472         3873 
 4783000   0.49359961    -6.172922    1452.6155  0.025308654  0.024067422         3876 
 4784000   0.49158995   -6.1766195     1449.968  0.025257246  0.024060116         3907 
 4785000   0.48605536   -6.1648139    1451.9397  0.025286307  0.024052809         3892 
 4786000   0.48814858   -6.1690334    1452.4748  0.025290339  0.024045502         3886 
 4787000    0.4909913   -6.1666481    1450.8698  0.025257116  0.024038198         3920 
 4788000    0.4862981    -6.160858    1450.8345  0.025251227  0.024030904         3906 
 4789000   0.48150535   -6.1681894    1453.4462    0.0252914  0.024023605         3875 
 4790000   0.49284019   -6.1713351    1450.3347  0.025231988  0.024016306         3885 
 4791000   0.48031699   -6.1562117    1450.6212  0.025231706  0.024009003         3919 
 4792000   0.48427318   -6.1815208    1449.6235  0.025209089  0.024001714         3910 
 4793000    0.4881099   -6.1843301    1453.8718  0.025277693  0.023994427         3886 
 4794000   0.47963561   -6.1641205    1449.8117  0.025201845  0.023987147         3912 
 4795000   0.48249679   -6.1731264    1452.9314  0.025250807  0.023979863         3904 
 4796000   0.47579182    -6.163553    1448.9804  0.025176891  0.023972582         3907 
 4797000   0.47516474    -6.157715    1451.3021  0.025211974  0.023965309         3890 
 4798000   0.49690127   -6.1614298    1449.0588  0.025167758  0.023958038         3923 
 4799000   0.48603375   -6.1762367    1450.6158  0.025189549  0.023950765         3873 
 4800000   0.47248575   -6.1808173    1447.9681  0.025138335  0.023943488         3918 
 4801000   0.48634476   -6.1882827    1449.5091  0.025159847  0.023936215         3898 
 4802000   0.49459778   -6.1848602    1449.0034  0.025145831  0.023928952         3912 
 4803000   0.47566921   -6.1794714    1452.3821  0.025199217  0.023921682         3887 
 4804000     0.494373   -6.1776366    1451.9044  0.025185685  0.023914419         3889 
 4805000   0.47596631   -6.1818323    1450.9903   0.02516459  0.023907157         3910 
 4806000   0.48419349   -6.1874786    1447.9427  0.025106511  0.023899886         3936 
 4807000   0.48185534   -6.1766548    1451.4134  0.025161455  0.023892632         3881 
 4808000   0.50756489    -6.187041    1449.2566  0.025118841  0.023885371         3884 
 4809000   0.46845338   -6.1663788    1448.1645  0.025094692  0.023878115         3903 
 4810000   0.48837846   -6.1812838    1449.3852  0.025110623  0.023870864         3890 
 4811000   0.48182705   -6.1677763    1452.6265  0.025161547  0.023863618         3871 
 4812000   0.48362754   -6.1838835    1451.6021  0.025138578  0.023856369         3903 
 4813000   0.48198424   -6.1860357    1450.2327  0.025109646   0.02384912         3882 
 4814000   0.48341071   -6.1732681    1451.4098  0.025124806  0.023841877         3856 
 4815000   0.47509712   -6.1817569    1450.9476  0.025111589  0.023834641         3878 
 4816000   0.48605267     -6.19368    1449.3103  0.025078043  0.023827403         3907 
 4817000   0.48098297   -6.1680001    1451.8299  0.025116426  0.023820168         3879 
 4818000   0.48182083   -6.1929443     1449.662  0.025073717  0.023812938         3937 
 4819000   0.47654923   -6.1846149    1451.9095  0.025107378  0.023805699         3938 
 4820000   0.49384108    -6.187057    1451.4182  0.025093676  0.023798461         3894 
 4821000   0.47436467   -6.1925736    1448.4279  0.025036782  0.023791234         3915 
 4822000   0.47918087   -6.1796996    1450.1976  0.025062174  0.023783993         3905 
 4823000   0.47524603    -6.189305    1449.3091  0.025041625  0.023776766         3924 
 4824000    0.4750427   -6.1837026    1448.0877  0.025015335  0.023769536         3916 
 4825000   0.48479014   -6.1747526    1450.3112  0.025048552  0.023762315         3885 
 4826000   0.48889741   -6.2077257    1448.2858  0.025008388  0.023755089         3905 
 4827000   0.47552591   -6.1972357    1446.4925  0.024972248  0.023747862         3898 
 4828000   0.47473438   -6.1860987    1451.4316  0.025052326  0.023740636         3899 
 4829000   0.47989054   -6.2062047    1450.3907  0.025029176  0.023733421         3884 
 4830000   0.47425608   -6.1884364    1451.4021  0.025041444  0.023726203         3914 
 4831000    0.4758217   -6.2097736    1448.2995  0.024982742  0.023718983         3917 
 4832000   0.47871357   -6.1935415    1449.4712  0.024997778  0.023711767         3921 
 4833000   0.48308535   -6.1917493    1452.6296  0.025047065  0.023704561         3898 
 4834000   0.48012717   -6.2021335    1450.2854  0.025001472  0.023697354         3873 
 4835000   0.48201566   -6.1775093    1451.0368  0.025009251  0.023690157         3914 
 4836000   0.48095098   -6.2045925    1449.8099  0.024982939   0.02368295         3916 
 4837000    0.4795608   -6.1920286    1451.7804  0.025011722  0.023675744         3895 
 4838000    0.4793291   -6.1977215    1449.6043  0.024969069  0.023668545         3902 
 4839000   0.48598848     -6.18114    1450.4794   0.02497898  0.023661346         3908 
 4840000   0.47598565   -6.1867099    1447.2253  0.024917791  0.023654164         3905 
 4841000   0.47808376    -6.186832    1450.3358  0.024966189  0.023646975         3888 
 4842000    0.4709985   -6.2083004    1450.7359  0.024967919  0.023639791         3912 
 4843000    0.4723208   -6.1993908    1452.2357   0.02498857  0.023632613         3873 
 4844000   0.47025801   -6.1975342    1450.8528   0.02495962  0.023625438         3891 
 4845000   0.47550051   -6.1958113    1446.6876  0.024882827   0.02361826         3895 
 4846000   0.48163729   -6.2017196    1449.6284  0.024928263   0.02361108         3906 
 4847000   0.47739567   -6.2049052    1449.1492  0.024914882  0.023603911         3910 
 4848000   0.48368664   -6.2061496    1446.9081  0.024871221  0.023596733         3929 
 4849000   0.47767335   -6.1935237    1447.9898  0.024884681  0.023589559         3896 
 4850000   0.47888567     -6.18987    1448.5011  0.024888335  0.023582396         3904 
 4851000   0.47921792   -6.1887655    1448.9863   0.02489154   0.02357523         3888 
 4852000   0.47498718   -6.2064993    1449.2517  0.024890968  0.023568057         3893 
 4853000   0.47332645   -6.2028435    1449.3988  0.024888365  0.023560898         3903 
 4854000   0.47587875   -6.1995465    1449.3386  0.024882203  0.023553736         3915 
 4855000   0.47620664   -6.1856838    1446.6359  0.024830688  0.023546571         3900 
 4856000   0.47161443   -6.1991064    1449.0662  0.024867281  0.023539418         3884 
 4857000   0.48454405   -6.2031406    1450.7076  0.024890324   0.02353227         3861 
 4858000    0.4805888   -6.1927341    1448.8413  0.024853185  0.023525119         3918 
 4859000   0.47710909   -6.2071748    1453.1299  0.024921622  0.023517963         3910 
 4860000   0.47205373   -6.1992961     1449.445  0.024853309  0.023510813         3905 
 4861000   0.47560525   -6.1961104    1447.3453  0.024812201  0.023503662         3907 
 4862000   0.48083392   -6.1905779    1448.9111  0.024833935  0.023496516         3915 
 4863000   0.47046413   -6.1797541    1450.5216  0.024856426  0.023489374         3916 
 4864000   0.46653099   -6.2009426    1448.8615  0.024822874  0.023482231         3914 
 4865000    0.4742676   -6.1922322    1447.0246  0.024786306  0.023475092         3896 
 4866000   0.47992692    -6.201755    1448.5093   0.02480664  0.023467951         3914 
 4867000   0.47191109   -6.1977864    1449.6915  0.024821784  0.023460816         3885 
 4868000   0.47704968   -6.1999537    1449.6687  0.024816296  0.023453688         3904 
 4869000   0.47646703   -6.1966026    1448.6631  0.024793988  0.023446559         3908 
 4870000   0.47343089   -6.2097658    1449.5084   0.02480336  0.023439433         3923 
 4871000   0.47218841   -6.1976653    1450.1384  0.024809047  0.023432311         3917 
 4872000   0.47647986   -6.2148329    1448.1519  0.024769976  0.023425182         3866 
 4873000   0.47337748   -6.2058235     1449.269  0.024783996  0.023418062         3894 
 4874000    0.4797683   -6.2163496    1450.3756  0.024797831  0.023410937         3931 
 4875000   0.46450665   -6.1998966    1449.5413  0.024778483  0.023403815         3898 
 4876000    0.4719069   -6.2052281    1447.7474  0.024742743  0.023396701         3915 
 4877000   0.47060558   -6.2010387    1446.3061  0.024713042  0.023389584         3916 
 4878000    0.4690412   -6.1939947    1447.7363  0.024732409  0.023382473         3930 
 4879000   0.46853365   -6.2161741     1447.079  0.024716113   0.02337537         3909 
 4880000   0.48557224    -6.203616    1447.9623  0.024726133  0.023368256         3917 
 4881000   0.47897561   -6.2002684    1446.0325   0.02468812  0.023361152         3908 
 4882000   0.48388008   -6.1900645    1448.8862  0.024731773  0.023354063         3946 
 4883000    0.4834562   -6.2022215    1447.5843   0.02470449  0.023346967         3885 
 4884000    0.4721482   -6.1930433    1447.3964  0.024696226  0.023339876         3922 
 4885000   0.47300718   -6.1975864    1446.2753  0.024672045  0.023332785         3921 
 4886000   0.47125338   -6.2005071    1451.3744  0.024753963  0.023325698         3896 
 4887000   0.47301649   -6.2065637    1449.1083  0.024710257  0.023318614         3906 
 4888000   0.47404467     -6.20836    1449.2826  0.024708172  0.023311523         3913 
 4889000   0.47396852   -6.2007843    1449.9726   0.02471488  0.023304436         3921 
 4890000   0.47546804   -6.2103483    1447.8985  0.024674481  0.023297353         3901 
 4891000   0.46189239   -6.1947774    1448.8133  0.024685021  0.023290281         3904 
 4892000   0.46393232   -6.1926502    1446.9211  0.024647744  0.023283198         3921 
 4893000    0.4685962   -6.2079857    1450.0984  0.024696818  0.023276122         3896 
 4894000   0.46625712   -6.2235333    1447.8812  0.024654018   0.02326904         3917 
 4895000   0.47041509   -6.2156056    1446.1023  0.024618697   0.02326197         3909 
 4896000   0.47069778   -6.2086923    1447.8459  0.024643346  0.023254903         3891 
 4897000   0.47194667   -6.2227388     1447.906  0.024639338  0.023247834         3890 
 4898000   0.47156853   -6.2063281    1448.5258  0.024644852  0.023240774         3906 
 4899000   0.46464353   -6.2085317    1447.4287  0.024621159   0.02323371         3926 
 4900000   0.47353726   -6.2121415    1444.6597  0.024569042  0.023226649         3908 
 4901000   0.47307589   -6.2056188    1448.0629  0.024621895  0.023219584         3940 
 4902000   0.47585945   -6.2126519    1449.7926  0.024646278  0.023212531         3936 
 4903000   0.45738111   -6.2131562    1448.5449  0.024620044  0.023205477         3922 
 4904000   0.46430772   -6.2198788    1445.7393  0.024567348  0.023198418         3915 
 4905000   0.46766544   -6.2207035     1450.326  0.024640264  0.023191364         3909 
 4906000   0.46748755   -6.2230017    1447.7337  0.024591209  0.023184311         3917 
 4907000   0.47223379   -6.2065173    1444.3319  0.024528427  0.023177266         3918 
 4908000   0.45594646   -6.2296437    1445.5624  0.024544322   0.02317021         3926 
 4909000   0.47271736   -6.2212605    1447.8121  0.024577513  0.023163156         3923 
 4910000   0.45565369   -6.2089816    1448.2867  0.024580562  0.023156113         3921 
 4911000   0.45839984   -6.2254171    1446.1879  0.024539942  0.023149066         3919 
 4912000   0.46039807    -6.213812    1450.0124   0.02459983  0.023142022         3922 
 4913000   0.46297179   -6.2104572    1448.8346  0.024574846  0.023134989         3919 
 4914000   0.46488522   -6.2140489    1447.2366  0.024542746  0.023127958         3906 
 4915000   0.46158679   -6.2115095    1447.0777  0.024535057  0.023120927         3901 
 4916000   0.45132553   -6.2258112    1447.7504  0.024541469    0.0231139         3944 
 4917000   0.46562253   -6.2234994    1446.8704  0.024521565  0.023106875         3930 
 4918000   0.46193319   -6.2095291    1446.4857   0.02451006  0.023099849         3910 
 4919000   0.46741826    -6.203895    1447.1943  0.024517082  0.023092828         3951 
 4920000   0.45682587   -6.2080773    1442.6008  0.024434295  0.023085812         3914 
 4921000   0.46140202   -6.2184452     1445.255  0.024474276  0.023078797         3934 
 4922000   0.47080417   -6.2160955    1447.4225  0.024506003  0.023071783         3898 
 4923000   0.47192777   -6.2173316    1449.5032  0.024536246   0.02306477         3912 
 4924000   0.46859839   -6.2177816    1449.2013  0.024526153   0.02305776         3931 
 4925000   0.45825381   -6.2315462    1447.5458   0.02449316   0.02305075         3913 
 4926000   0.46098431   -6.2264444    1447.6633  0.024490176   0.02304375         3897 
 4927000   0.45756985   -6.2094186    1445.4524  0.024447811  0.023036752         3932 
 4928000   0.47119869   -6.2310413    1448.2505  0.024490166  0.023029751         3920 
 4929000   0.46013769    -6.223232    1444.2176  0.024417016  0.023022746         3946 
 4930000   0.46263454   -6.2247871    1445.5517  0.024434613  0.023015753         3935 
 4931000   0.46053128   -6.2232748    1448.5508  0.024480342  0.023008756         3921 
 4932000   0.45149871   -6.2245775    1445.4572  0.024423108  0.023001756         3925 
 4933000   0.46823937   -6.2143388    1447.3387  0.024449941  0.022994759         3933 
 4934000   0.47266836   -6.2479901    1448.3482  0.024462036  0.022987767         3931 
 4935000   0.46659179   -6.2238704    1448.6534  0.024462232  0.022980785         3925 
 4936000   0.46071254   -6.2278847    1446.5208  0.024421273  0.022973804         3922 
 4937000   0.46612582   -6.2221881    1445.3532  0.024396617  0.022966821         3934 
 4938000   0.46028457      -6.2208    1445.5181   0.02439446  0.022959833         3926 
 4939000   0.45165736   -6.2135485    1447.9204  0.024430053  0.022952856         3909 
 4940000   0.45952572   -6.2115321    1448.2467  0.024430612   0.02294588         3925 
 4941000   0.46342992   -6.2353941    1447.8814  0.024419508  0.022938905         3932 
 4942000    0.4637361   -6.2273146     1447.443  0.024407172  0.022931925         3906 
 4943000   0.46078387   -6.2100113    1445.5371  0.024370105  0.022924953         3916 
 4944000   0.45913718   -6.2182487      1444.29  0.024344154  0.022917981         3918 
 4945000   0.46060216   -6.2326393    1447.1679   0.02438773   0.02291102         3939 
 4946000   0.45806567   -6.2073019     1446.877  0.024377897  0.022904054         3929 
 4947000   0.46423535   -6.2296319    1447.4497  0.024382618  0.022897096         3924 
 4948000   0.45986583   -6.2365353    1449.0204  0.024404143  0.022890135         3920 
 4949000   0.45165448   -6.2336334    1447.1543  0.024367789  0.022883181         3891 
 4950000   0.46171339   -6.2162727    1445.6096  0.024336863  0.022876234         3939 
 4951000   0.45441658    -6.234396    1445.5831  0.024331501   0.02286928         3920 
 4952000   0.45104865   -6.2300499    1445.2772  0.024321439  0.022862328         3924 
 4953000   0.45959246   -6.2317542    1445.5911   0.02432181  0.022855374         3945 
 4954000   0.46149045   -6.2304862    1444.9096  0.024305437  0.022848431         3924 
 4955000   0.46189075   -6.2103111    1444.9104  0.024300546  0.022841491         3905 
 4956000    0.4525034   -6.2347752     1444.482  0.024288438  0.022834551         3916 
 4957000     0.461595   -6.2366094    1444.2882  0.024280281  0.022827606         3918 
 4958000   0.45636478    -6.227247    1444.5135   0.02427917  0.022820668         3923 
 4959000   0.45230783   -6.2161656    1446.1393  0.024301594  0.022813733         3918 
 4960000   0.45625219   -6.2253945    1445.6321  0.024288174    0.0228068         3941 
 4961000   0.45667504   -6.2306095    1446.4066  0.024296288   0.02279988         3927 
 4962000   0.45761511    -6.223204    1444.0098  0.024251139  0.022792951         3924 
 4963000   0.45530076   -6.2324765    1444.0035  0.024246147  0.022786025         3934 
 4964000   0.46381579   -6.2379319    1447.4991  0.024299945  0.022779101         3937 
 4965000   0.45877404   -6.2228045    1444.2808  0.024241033  0.022772185         3940 
 4966000   0.45659708    -6.220541    1446.6117  0.024275266  0.022765263         3894 
 4967000   0.46292094   -6.2244264    1445.1109    0.0242452  0.022758342         3934 
 4968000   0.45650795   -6.2217968    1445.6464  0.024249303  0.022751427         3914 
 4969000   0.45590375   -6.2426354    1444.8177  0.024230524  0.022744517         3930 
 4970000   0.44717729    -6.226296    1446.1756  0.024248417  0.022737606         3919 
 4971000   0.46120038   -6.2251649    1447.5164  0.024266015  0.022730687         3926 
 4972000   0.46043863   -6.2448829    1447.3294  0.024258002  0.022723779         3931 
 4973000   0.46313699   -6.2461526    1444.9654   0.02421351   0.02271687         3944 
 4974000   0.44428047   -6.2307091    1444.1363   0.02419475  0.022709964         3943 
 4975000   0.46178168   -6.2288889    1446.3669  0.024227251  0.022703061         3949 
 4976000   0.46190146   -6.2379454    1444.7363  0.024195075  0.022696164         3940 
 4977000    0.4514329   -6.2464184      1444.12  0.024179894  0.022689273         3943 
 4978000   0.45292312   -6.2454933    1444.3053  0.024178139  0.022682377         3944 
 4979000   0.46078886   -6.2251804    1444.2934  0.024173084  0.022675485         3947 
 4980000   0.46621358   -6.2346194     1445.071  0.024181242  0.022668599         3911 
 4981000   0.45130924   -6.2183631    1445.5166  0.024183842  0.022661714         3919 
 4982000   0.44699662   -6.2293412    1442.9095  0.024135379  0.022654835         3925 
 4983000   0.45440003   -6.2431089    1445.5859  0.024175295  0.022647949         3941 
 4984000   0.44905729   -6.2331399    1447.1103  0.024195933  0.022641077         3926 
 4985000   0.45700453   -6.2246546    1447.1246  0.024191318  0.022634205         3918 
 4986000    0.4707329   -6.2414624    1445.3675  0.024157098  0.022627328         3948 
 4987000   0.44118416   -6.2415252    1446.8335  0.024176751  0.022620459         3934 
 4988000   0.45559646   -6.2458998    1443.5542  0.024117118  0.022613591         3946 
 4989000   0.45433928   -6.2438101    1446.3091    0.0241583  0.022606724         3938 
 4990000   0.44408261   -6.2505755    1445.9641  0.024147697  0.022599854         3934 
 4991000    0.4450562   -6.2409685    1447.3458  0.024165929  0.022592993         3933 
 4992000   0.45342506   -6.2521288     1448.339  0.024177667  0.022586136         3925 
 4993000   0.45299877   -6.2292716    1444.2262  0.024104182  0.022579276         3933 
 4994000   0.45247094    -6.235503    1444.7086  0.024107406  0.022572418         3916 
 4995000   0.44921908   -6.2461699    1443.0443  0.024074814  0.022565564         3940 
 4996000   0.44867511   -6.2487551    1443.0015   0.02406928  0.022558718         3935 
 4997000   0.45952534   -6.2310992    1444.7505  0.024093631   0.02255187         3939 
 4998000   0.45767784   -6.2246175    1444.3555  0.024082225  0.022545025         3950 
 4999000   0.44518765   -6.2223843    1445.3625  0.024094193  0.022538178         3898 
 5000000   0.44393034   -6.2220788    1444.6615  0.024077691  0.022531335         3932 
 5001000    0.4575842   -6.2439064    1446.0761  0.024096449  0.022524499         3948 
 5002000   0.44766337   -6.2337479    1446.7874  0.024103483   0.02251766         3938 
 5003000    0.4560032   -6.2335868    1443.5229  0.024044288  0.022510827         3943 
 5004000   0.45249255   -6.2415375    1442.8213    0.0240278  0.022503996         3933 
 5005000   0.45151556   -6.2533074    1444.8312  0.024056464  0.022497169         3918 
 5006000   0.44956736   -6.2460692    1446.7082  0.024082904  0.022490344         3943 
 5007000   0.45098721   -6.2361857     1445.778  0.024062613  0.022483514         3936 
 5008000   0.44964187   -6.2379676    1444.7795  0.024041193  0.022476685         3945 
 5009000   0.45839662   -6.2500166    1444.6972  0.024035024   0.02246986         3948 
 5010000   0.44798986    -6.234937    1442.7588  0.023997984  0.022463039         3955 
 5011000   0.44459398   -6.2336096    1444.5224  0.024022524  0.022456223         3928 
 5012000   0.45522022   -6.2366393    1443.6401  0.024003061   0.02244941         3934 
Loop time of 12707.3 on 48 procs for 5000000 steps with 4000 atoms

Performance: 67992.597 tau/day, 393.476 timesteps/s
99.4% CPU use with 48 MPI tasks x no OpenMP threads

MPI task timing breakdown:
Section |  min time  |  avg time  |  max time  |%varavg| %total
---------------------------------------------------------------
Pair    | 894.81     | 961.91     | 1036.2     | 110.1 |  7.57
Neigh   | 87.135     | 90.354     | 94.624     |  19.9 |  0.71
Comm    | 804.95     | 884.21     | 962.48     | 121.0 |  6.96
Output  | 15.349     | 15.353     | 15.44      |   0.3 |  0.12
Modify  | 10618      | 10641      | 10666      |  11.3 | 83.74
Other   |            | 114.7      |            |       |  0.90

Nlocal:        83.3333 ave          88 max          79 min
Histogram: 3 6 4 7 5 6 4 7 4 2
Nghost:        2390.54 ave        2408 max        2377 min
Histogram: 4 6 8 4 7 5 6 4 3 1
Neighs:        16453.9 ave       18903 max       14719 min
Histogram: 9 4 6 3 5 10 2 5 1 3
FullNghs:      32906.1 ave       35479 max       30893 min
Histogram: 6 4 4 10 4 4 6 7 2 1

Total # of neighbors = 1579495
Ave neighs/atom = 394.87375
Neighbor list builds = 268861
Dangerous builds = 0

#clear
#
#next RN
#
#jump SELF
Total wall time: 3:31:51
