
units lj                  # Use reduced LJ style units
atom_style atomic         # Uncharged point particles
atom_modify map hash      # Needed for indexing of clusters etc
                          # Used to be able to find where atoms are in relation to each other.

lattice fcc 1.0 spacing 1 1 1
Lattice spacing in x,y,z = 1.5874011 1.5874011 1.5874011
region box block 0 10 0 10 0 10 units lattice
create_box 2 box
Created orthogonal box = (0.0000000 0.0000000 0.0000000) to (15.874011 15.874011 15.874011)
  3 by 4 by 4 MPI processor grid
create_atoms 1 box
Created 4000 atoms
  using lattice units in orthogonal box = (0.0000000 0.0000000 0.0000000) to (15.874011 15.874011 15.874011)
  create_atoms CPU = 0.002 seconds
set type 1 type/fraction 2 0.93 78393
Setting atom values ...
  3709 settings made for type/fraction
mass 1 1.0
mass 2 1.0
pair_style lj/cut  3.5
pair_modify tail  yes
pair_coeff 1  1  1.0  1.0   # Intearaction between 1 and 1 set with epsilon = 1 and sigma = 1
pair_coeff 1  2  1.5  0.8
pair_coeff 2  2  0.5  0.88

write_data data.0
System init for write_data ...
Neighbor list info ...
  update every 1 steps, delay 10 steps, check yes
  max neighbors/atom: 2000, page size: 100000
  master list distance cutoff = 3.8
  ghost atom cutoff = 3.8
  binsize = 1.9, bins = 9 9 9
  1 neighbor lists, perpetual/occasional/extra = 1 0 0
  (1) pair lj/cut, perpetual
      attributes: half, newton on
      pair build: half/bin/atomonly/newton
      stencil: half/bin/3d
      bin: standard
WARNING: Not all mixed pair coeffs generated from mixing. Use write_data with 'pair ij' option to store all pair coeffs. (../write_data.cpp:312)


#############################
#   M E L T   S Y S T E M   #
#############################

velocity all create 2.4 2750902 mom yes dist gaussian # Assign velocities
                                                    # Temperature 2.4, random number seed, zero linear momentum
                                                                                # Gaussian distribution

timestep 0.002   # simulation timestep
thermo 1000       # output thermodynamic data every 1000 steps bf 100

# Define a fix  in this case with index 1 applied to all
# particles in the simulation. This fix is for simulations
# in the anisotropic NPT ensemble. Note that we use the MTK
# correction.
fix 1 all npt temp 2.4 2.4 0.1 iso 5.68 5.68 0.5 mtk yes tchain 5 pchain 5 # Use NPT ensemble
                                                                         # Set temperature and pressure and damping
                                                                         # Numbers of thermostats in chain and in barostat
run 10000          # run for 10000 steps
Per MPI rank memory allocation (min/avg/max) = 3.642 | 3.644 | 3.648 Mbytes
Step Temp E_pair E_mol TotEng Press Volume 
       0          2.4   -3.0493222            0   0.54977785   -2.3496824         4000 
    1000    2.3993479   -1.9874876            0    1.6106346    5.6429798    4091.7919 
    2000    2.4030692   -2.0023631            0    1.6013396    5.6589168      4075.32 
    3000    2.4002051   -1.9585214            0    1.6408861     5.802646    4090.8738 
    4000    2.3839603   -1.9769401            0    1.5981063    5.8367097    4065.8471 
    5000    2.3822259   -2.0429918            0    1.5294537    5.5219035    4060.0145 
    6000    2.4110167    -1.985571            0      1.63005    5.7748279    4085.5776 
    7000    2.4125374    -1.973495            0    1.6444064    5.6696029     4099.578 
    8000    2.3945264   -1.9749664            0    1.6159252    5.8759947    4064.4267 
    9000    2.3940056   -1.9818759            0    1.6082347    5.7482599    4073.9725 
   10000    2.4271894   -2.0082082            0    1.6316657    5.8026901    4061.2412 
Loop time of 2.43185 on 48 procs for 10000 steps with 4000 atoms

Performance: 710569.156 tau/day, 4112.090 timesteps/s
99.7% CPU use with 48 MPI tasks x no OpenMP threads

MPI task timing breakdown:
Section |  min time  |  avg time  |  max time  |%varavg| %total
---------------------------------------------------------------
Pair    | 1.0478     | 1.1256     | 1.2314     |   3.0 | 46.29
Neigh   | 0.2048     | 0.21268    | 0.23228    |   1.0 |  8.75
Comm    | 0.72535    | 0.8374     | 0.92081    |   4.5 | 34.43
Output  | 0.00023859 | 0.00024265 | 0.00030496 |   0.0 |  0.01
Modify  | 0.21036    | 0.24048    | 0.28145    |   3.8 |  9.89
Other   |            | 0.0154     |            |       |  0.63

Nlocal:        83.3333 ave          94 max          72 min
Histogram: 2 3 3 5 8 13 5 4 0 5
Nghost:        1621.69 ave        1650 max        1597 min
Histogram: 1 4 6 10 8 6 6 3 1 3
Neighs:        9396.17 ave       10764 max        7952 min
Histogram: 2 3 5 4 9 9 4 6 1 5

Total # of neighbors = 451016
Ave neighs/atom = 112.75400
Neighbor list builds = 905
Dangerous builds = 194

# Equilibrate just above the melting temperature to avoid step fn in T

fix 1 all npt temp 1.25 1.25 0.1 iso 5.68 5.68 0.5 mtk yes tchain 5 pchain 5
run 2000
Per MPI rank memory allocation (min/avg/max) = 3.643 | 3.645 | 3.649 Mbytes
Step Temp E_pair E_mol TotEng Press Volume 
   10000    2.4271894   -2.0082082            0    1.6316657    5.8026901    4061.2412 
   11000    1.2515426   -2.9889112            0   -1.1120666     5.774918    3171.9058 
   12000    1.2760938   -2.9904005            0   -1.0767384    5.8319217    3171.9592 
Loop time of 0.589506 on 48 procs for 2000 steps with 4000 atoms

Performance: 586253.748 tau/day, 3392.672 timesteps/s
99.7% CPU use with 48 MPI tasks x no OpenMP threads

MPI task timing breakdown:
Section |  min time  |  avg time  |  max time  |%varavg| %total
---------------------------------------------------------------
Pair    | 0.26123    | 0.28302    | 0.32552    |   2.8 | 48.01
Neigh   | 0.038327   | 0.040554   | 0.046767   |   0.8 |  6.88
Comm    | 0.17063    | 0.21934    | 0.24564    |   3.5 | 37.21
Output  | 4.9211e-05 | 5.0581e-05 | 6.597e-05  |   0.0 |  0.01
Modify  | 0.039364   | 0.041861   | 0.044903   |   0.7 |  7.10
Other   |            | 0.004682   |            |       |  0.79

Nlocal:        83.3333 ave          91 max          76 min
Histogram: 2 1 4 2 16 9 8 3 1 2
Nghost:        1917.79 ave        1946 max        1893 min
Histogram: 4 4 5 7 8 4 6 6 2 2
Neighs:        12036.2 ave       13486 max       10682 min
Histogram: 3 3 3 6 9 14 4 2 2 2

Total # of neighbors = 577738
Ave neighs/atom = 144.43450
Neighbor list builds = 142
Dangerous builds = 12

#############################
# L I N E A R  Q U E N C H  #
#############################

# Define solid atoms. This closely follows ten Wolde  Ruiz-Montero and Frenkel  Faraday Discuss  1996  104  93-110
# Compute components of the per-atom q6 vector
compute q6 all orientorder/atom degrees 1 6 components 6 nnn NULL cutoff 1.3 # compute the Q6 parameter.
                                                                             # Use all neighbours within 1.3 unit cell.

# get number of connections
compute coord_number all coord/atom orientorder q6 0.5

# An atom is solid if it has 8 or more connections (of a possible 14)
variable is_solid atom c_coord_number>=8
group solid dynamic all var is_solid    # Must be dynamic to update
dynamic group solid defined

# do clustering
compute cluster solid cluster/atom 1.3 # Create a cluster where all atoms within are solid and max 1.3 units from another member

# define chunks one chunk per cluster
compute clus_chunks solid chunk/atom c_cluster nchunk every compress yes  # Says which atoms are in which chunk

# count the size of each chunk
compute size_chunks solid property/chunk clus_chunks count


# Find the maximum entry in the vector of chunk sizes
variable max_n equal max(c_size_chunks)


# Thermo style which includes this variable
# thermo_style custom step temp pe vol v_max_n

thermo ${N}  # Print the thermo information every 100 steps
thermo 1000  

# Reset the npt fix at a lower temperature (below freezing)
fix 1  all npt temp  ${temp} ${temp}  0.1  iso  5.68  5.68  0.5  mtk yes tchain  5  pchain  5
fix 1  all npt temp  0.45 ${temp}  0.1  iso  5.68  5.68  0.5  mtk yes tchain  5  pchain  5
fix 1  all npt temp  0.45 0.45  0.1  iso  5.68  5.68  0.5  mtk yes tchain  5  pchain  5

dump dmp2 all dcd ${N} traj.dcd
dump dmp2 all dcd 1000 traj.dcd


compute msd all msd com yes
variable twopoint equal c_msd[4]/6/(step*dt+1.0e-6)
fix 9 all vector 10 c_msd[4]
variable fit equal slope(f_9)/6/(10*dt)
thermo_style custom step temp pe c_msd[4] v_twopoint v_fit v_max_n

fix 1 all npt temp 1.25 ${temp} 0.1 iso 5.68 5.68 0.5 mtk yes tchain 5 pchain 5
fix 1 all npt temp 1.25 0.45 0.1 iso 5.68 5.68 0.5 mtk yes tchain 5 pchain 5
run 2000000 # 5000000  # Run for this many steps
Neighbor list info ...
  update every 1 steps, delay 10 steps, check yes
  max neighbors/atom: 2000, page size: 100000
  master list distance cutoff = 3.8
  ghost atom cutoff = 3.8
  binsize = 1.9, bins = 8 8 8
  4 neighbor lists, perpetual/occasional/extra = 1 3 0
  (1) pair lj/cut, perpetual
      attributes: half, newton on
      pair build: half/bin/atomonly/newton
      stencil: half/bin/3d
      bin: standard
  (2) compute orientorder/atom, occasional
      attributes: full, newton on
      pair build: full/bin/atomonly
      stencil: full/bin/3d
      bin: standard
  (3) compute coord/atom, occasional
      attributes: full, newton on
      pair build: full/bin/atomonly
      stencil: full/bin/3d
      bin: standard
  (4) compute cluster/atom, occasional
      attributes: full, newton on
      pair build: full/bin/atomonly
      stencil: full/bin/3d
      bin: standard
Per MPI rank memory allocation (min/avg/max) = 9.818 | 9.824 | 9.828 Mbytes
Step Temp PotEng c_msd[4] v_twopoint v_fit v_max_n 
   12000    1.2760938   -2.9904005 2.3151095e-30 1.6077149e-32 8.3333333e+20            4 
   13000    1.2705694   -3.0125964    1.0564169 0.0067719029   0.09024467            1 
   14000    1.2501959   -3.0143722    2.1777504  0.012962799   0.09204857            3 
   15000     1.278805   -3.0125102    3.3802991  0.018779439  0.093688765            1 
   16000    1.2458911   -3.0191398    4.5556766  0.023727482  0.095709408            1 
   17000    1.2645137   -2.9824101    5.7266215  0.028071673   0.09647862            3 
   18000    1.2588666   -3.0420679    6.7503853  0.031251783  0.096050899            2 
   19000    1.2454002   -3.0226059    8.0737747  0.035411292  0.096282195            1 
   20000    1.2671972   -3.0225992    9.3085186  0.038785493  0.096851059            3 
   21000    1.2367161   -2.9841686     10.49567  0.041649485  0.097403338            2 
   22000    1.2619147    -3.017954    11.677808   0.04423412  0.097936518            1 
   23000     1.233077    -3.016317    12.775527  0.046288142  0.098103724            1 
   24000    1.2578292   -3.0464203    13.915247  0.048316829  0.098088953            3 
   25000    1.2404251   -3.0161241     14.98617  0.049953897  0.097771534            1 
   26000    1.2327263   -3.0078066    15.876018  0.050884671  0.097072498            1 
   27000    1.2564901   -3.0339033    17.017294  0.052522511  0.096438434            2 
   28000    1.2532365   -3.0032322    18.362707  0.054650912  0.096062743            3 
   29000    1.2073858   -2.9783168    19.602176  0.056328092  0.096126998            1 
   30000    1.2323051   -3.0287963    20.822976  0.057841599   0.09635774            2 
   31000      1.22449   -3.0587614    21.946877  0.058996981  0.096446425            3 
   32000     1.248823   -3.0154748    22.993423  0.059878706  0.096387811            1 
   33000    1.2423467   -2.9991003    24.260246  0.061263247  0.096377158            1 
   34000     1.258392   -3.0062098    25.501948  0.062504773  0.096396838            1 
   35000    1.2442507    -3.034676    26.357791  0.062756643  0.096295948            2 
   36000    1.2316264   -3.0053829    27.726724  0.064182231  0.096255413            1 
   37000    1.2624445   -3.0207876    28.853813  0.064986065  0.096288919            1 
   38000    1.2833178   -3.0060877    29.983538  0.065753372  0.096256019            1 
   39000    1.2591275   -3.0584191    31.017096  0.066275846  0.096121599            2 
   40000    1.2505793   -3.0142094    32.206904  0.067097715  0.096052263            1 
   41000    1.2293804   -3.0135009    33.376774  0.067838971  0.096026235            1 
   42000    1.2212979   -3.0203789    34.607282  0.068665241  0.096034343            2 
   43000    1.2483893   -3.0307173    35.569225  0.068932607  0.096042181            2 
   44000    1.2361507   -3.0095948      36.7508  0.069603787  0.095962599            2 
   45000    1.2363506   -3.0164571      37.9532  0.070283703   0.09591614            3 
   46000    1.2129315   -3.0326379    39.009558  0.070669488  0.095890778            2 
   47000    1.2353744   -3.0287613    40.257598  0.071378719  0.095824516            1 
   48000    1.2364118    -3.018928    41.165296  0.071467528  0.095769954            2 
   49000     1.264766   -3.0200714    42.158065  0.071697389  0.095703487            2 
   50000    1.2063149   -3.0512817    43.738925  0.072898208  0.095663286            2 
   51000    1.2463665    -3.034796    44.570916  0.072828294  0.095675409            2 
   52000    1.2430493   -3.0297698    45.991645  0.073704558  0.095695813            1 
   53000    1.2124326   -3.0137377    46.955462  0.073829342  0.095684153            3 
   54000    1.2181942   -3.0226302    47.903064  0.073924481  0.095616182            2 
   55000    1.2361337   -3.0212577    49.002053  0.074245535  0.095547889            1 
   56000    1.2058162   -3.0606403    50.125966  0.074592211  0.095483863            2 
   57000    1.2476826   -3.0216858     51.50098   0.07529383  0.095442395            5 
   58000    1.1967826   -3.0409482    52.679218   0.07568853   0.09539673            2 
   59000     1.254495   -3.0188819    53.694015  0.075839004  0.095365467            1 
   60000    1.2208011   -3.0451182    54.501238  0.075696163   0.09527284            1 
   61000    1.2426814   -3.0314917    55.517893  0.075844115  0.095146975            2 
   62000    1.2410184   -3.0457081    56.297231   0.07566832   0.09502564            1 
   63000    1.2273049   -3.0557262    57.601591   0.07619258  0.094896945            3 
   64000    1.2168639   -3.0471334    59.116078  0.076974059  0.094822688            2 
   65000    1.2563265   -3.0102557    60.349641  0.077371333   0.09475331            1 
   66000    1.2336076   -3.0400309    61.168574  0.077233047  0.094707289            1 
   67000    1.2573315   -3.0339588    62.156935   0.07730962  0.094631764            1 
   68000    1.2325803   -3.0388961    63.526716  0.077851367  0.094573131            1 
   69000    1.2073961   -3.0266364      64.1598  0.077487681  0.094491397            1 
   70000    1.2031125   -3.0189423    65.412645  0.077872196  0.094398648            1 
   71000    1.2079968   -3.0666744    66.107929  0.077591465  0.094303566            3 
   72000    1.2227665   -3.0622758    67.513128  0.078140193  0.094198993            2 
   73000    1.2419171   -3.0356675     68.38092  0.078060411  0.094077598            1 
   74000    1.2211872   -3.0132245    69.187623  0.077913989  0.093938038            1 
   75000    1.2354116   -3.0324918    70.854342  0.078727046  0.093835228            2 
   76000    1.2203223   -3.0527216    71.738412  0.078660539  0.093740985            2 
   77000    1.2170485   -3.0400331    72.956351  0.078957089  0.093664421            1 
   78000    1.1913674   -3.0501233    73.788492  0.078833859  0.093572638            1 
   79000    1.2052313   -3.0283586    74.944507  0.079055387  0.093506364            2 
   80000     1.241785   -3.0540907    76.247608  0.079424591  0.093446007            1 
   81000    1.2159801   -3.0105694    77.079104   0.07929949  0.093373098            1 
   82000    1.2174047   -3.0500971    78.083984  0.079353642  0.093286754            2 
   83000    1.2318202   -3.0558978    78.453026  0.078768098  0.093178132            4 
   84000    1.2272881   -3.0569433    79.803712  0.079170349  0.093063001            2 
   85000    1.2260116   -3.0289081    80.792657  0.079208487  0.092957973            1 
   86000    1.2102028   -3.0217493    82.052791  0.079508518   0.09282827            2 
   87000    1.2037994   -3.0215094    83.046384  0.079546345  0.092713741            1 
   88000    1.2292237   -3.0500247     84.33581  0.079863456   0.09261639            1 
   89000    1.2121259    -3.046992    85.445258  0.080004923  0.092544641            1 
   90000    1.2057504    -3.054677     86.51559  0.080107027  0.092479286            1 
   91000    1.2040412   -3.0406177    87.793327  0.080396819  0.092427624            1 
   92000    1.1968309   -3.0683735    88.864084   0.08049283  0.092367408            2 
   93000    1.2224029   -3.0339133    90.006974   0.08065141  0.092324088            4 
   94000    1.2207002   -3.0479895    90.859298  0.080549023  0.092286048            3 
   95000    1.1809166   -3.0594632     91.82132  0.080545017  0.092239037            4 
   96000    1.2224477   -3.0432887    93.310321  0.080998542  0.092175332            7 
   97000    1.2126986   -3.0781318    93.748944  0.080540329  0.092128936            3 
   98000    1.2154321   -3.0706395    94.962121  0.080750102  0.092079762            2 
   99000    1.2121105   -3.0573207    96.575029  0.081292111  0.092034566            3 
  100000    1.2261686   -3.0406802    98.100628  0.081750523  0.092006489            1 
  101000    1.2384608   -3.0424046    98.721237  0.081453165   0.09198659            1 
  102000    1.2073225   -3.0231048    100.44784  0.082065226  0.091950955            2 
  103000    1.2270717   -3.0513281    101.57406  0.082179659  0.091938181            2 
  104000    1.2207938   -3.0464814    102.40213  0.082052988  0.091936951            3 
  105000    1.2302942   -3.0418781    102.73821  0.081538265  0.091910466            2 
  106000     1.198466   -3.0786216    104.27456  0.081976853    0.0918924            5 
  107000    1.2012545   -3.0636765    106.17904  0.082693954  0.091896642            1 
  108000    1.2221169   -3.0499958    106.90941  0.082491828   0.09190205            2 
  109000    1.2329599   -3.0396167     107.6211   0.08227913  0.091901488            1 
  110000     1.212628   -3.0879187    108.69529  0.082344917  0.091887854            1 
  111000    1.2081445   -3.0430118    109.94603  0.082542064  0.091878774            3 
  112000     1.186115   -3.0540801    110.97683  0.082572044  0.091876263            2 
  113000      1.23377   -3.0285821    112.18715  0.082733888  0.091885516            1 
  114000    1.2040065   -3.0520661    113.25524  0.082788921  0.091892344            1 
  115000    1.2003228   -3.0518017    114.71516  0.083126925  0.091891303            2 
  116000    1.2249899   -3.0608854    115.86162  0.083233919  0.091891455            1 
  117000    1.2018338   -3.0522809    116.42465  0.082923537  0.091885718            1 
  118000      1.20552   -3.0358169    117.73601  0.083146898  0.091872247            1 
  119000    1.2092107   -3.0580867    118.11501  0.082713593  0.091848264            6 
  120000    1.1899542    -3.043295     118.7353  0.082455069  0.091802658            2 
  121000     1.206971   -3.0343555     119.6405  0.082397038  0.091740113            4 
  122000    1.2094136    -3.065547    120.53906   0.08233542  0.091676377            2 
  123000    1.2310448   -3.0557974    121.54739  0.082349179  0.091606833            2 
  124000    1.2052109   -3.0698892     121.7321  0.081809207  0.091522107            1 
  125000    1.2179873   -3.0568476    122.99358  0.081995722  0.091428464            2 
  126000    1.2204816   -3.0761035    123.83351  0.081900466  0.091342729            1 
  127000    1.2079121   -3.0612806    124.67902  0.081810378  0.091259429            7 
  128000     1.231046   -3.0751957    125.75267  0.081870228   0.09117944            2 
  129000     1.180226    -3.040403    127.45208  0.082333383  0.091102083            3 
  130000    1.2004936   -3.0397073    128.73537  0.082522671  0.091033637            2 
  131000     1.197807   -3.0800616     129.7526  0.082539823  0.090976015            2 
  132000    1.1979502   -3.0785107    131.03265  0.082722635  0.090916832            1 
  133000    1.2024835   -3.0587222    131.89797  0.082642841  0.090857285            1 
  134000    1.2021595   -3.0481629    132.88439  0.082639545  0.090791537            1 
  135000     1.202567   -3.0958768    132.99652  0.082096618  0.090721023            3 
  136000    1.2208706   -3.0589538    134.51197  0.082421548  0.090657203            2 
  137000    1.1902232   -3.0923741    135.33422  0.082320082  0.090593815            2 
  138000    1.1928776   -3.0849769    136.13168  0.082205123  0.090530446            3 
  139000    1.1812617    -3.089358     137.9158  0.082683331   0.09047042            6 
  140000    1.2062273   -3.0744124    139.81363  0.083222396   0.09041989            1 
  141000    1.1948334   -3.0555474    139.94986  0.082712681  0.090377116            1 
  142000     1.201485   -3.0737413    141.16378  0.082842595  0.090335132            1 
  143000    1.1667576   -3.0873381     142.2642  0.082904542  0.090300685            3 
  144000    1.1987653   -3.0744107    143.35218  0.082958436   0.09026513            1 
  145000    1.1819976    -3.075164    145.06661  0.083371616  0.090232553            1 
  146000    1.1832982   -3.0357693    145.77058  0.083202388  0.090200724            2 
  147000    1.1748826   -3.0751666    146.87411  0.083261966  0.090168553            2 
  148000    1.1883784   -3.0764736     147.7047  0.083167061  0.090133715            1 
  149000    1.2047927   -3.0862907    148.32549  0.082956089  0.090105663            2 
  150000    1.1935459   -3.0441379    149.79466  0.083219257  0.090065562            4 
  151000    1.2019043   -3.0896529    151.54031  0.083631518   0.09003581            3 
  152000    1.1881511   -3.0894724    152.05321  0.083362506  0.090005248            1 
  153000    1.1854672   -3.0900447    151.88744  0.082727365  0.089970083            2 
  154000    1.2006866   -3.1003369    153.47512  0.083049305  0.089933581            2 
  155000    1.2025876   -3.0412036    155.19994  0.083440826  0.089901527            1 
  156000    1.1835755   -3.0903711    155.07071  0.082836915  0.089860705            1 
  157000    1.1752426   -3.0626484    156.90736  0.083284159   0.08981832            1 
  158000    1.1849686   -3.0801417     157.7172  0.083184179   0.08977808            3 
  159000    1.1879936   -3.0532674    158.83785   0.08324835  0.089746234            2 
  160000    1.2113718   -3.0893286    160.11449  0.083392966  0.089712572            2 
  161000    1.2035554   -3.0658618    161.24018  0.083457651  0.089687681            2 
  162000    1.1858705   -3.0759153    161.92588  0.083295207   0.08966187            1 
  163000    1.1968108   -3.0873162    163.13511  0.083402405  0.089632082            2 
  164000    1.2309955   -3.0862883    163.88942  0.083277146  0.089600499            1 
  165000    1.1817165   -3.0795946    165.62245  0.083647702  0.089567642            3 
  166000    1.1855204   -3.0792123    166.79263  0.083731241  0.089545415            1 
  167000    1.2025114   -3.0880259    166.90912  0.083287982  0.089523131            1 
  168000    1.1929867   -3.0679334    168.55856  0.083610396  0.089497018            2 
  169000    1.1866967   -3.0802456    169.09038    0.0833779  0.089465402            1 
  170000     1.179488   -3.0729032    170.72308  0.083687784  0.089429904            1 
  171000     1.192853   -3.0854685    171.58018  0.083616072  0.089403654            1 
  172000    1.2058765   -3.0994348    171.83347   0.08325265  0.089384953            3 
  173000    1.1613969   -3.0895918    172.30609  0.082999081  0.089354671            2 
  174000    1.2292588   -3.0736533    174.98748  0.083806263  0.089325455            2 
  175000    1.1883999   -3.0935551    174.84248  0.083258325  0.089298875            1 
  176000    1.1995293   -3.0675683    176.81361  0.083718564  0.089272589            2 
  177000    1.2084217   -3.1122251    177.12129  0.083390437  0.089232465            1 
  178000     1.174493   -3.0796058    178.43179  0.083535482  0.089198233            1 
  179000    1.2013512   -3.0703322    179.65045  0.083636151  0.089166363            2 
  180000    1.1837624   -3.0825466    180.96331  0.083779311  0.089139926            1 
  181000    1.1625258   -3.1049123     181.3922  0.083513902  0.089112883            2 
  182000    1.1995079   -3.0740911    182.23263  0.083439849  0.089083572            3 
  183000    1.2038399   -3.0928683    182.90691  0.083290941  0.089054617            1 
  184000    1.1675606   -3.0917274     184.3056  0.083471737  0.089022591            2 
  185000    1.1749753   -3.0602935    185.52067   0.08356787  0.088989081            2 
  186000    1.1554546   -3.1167065    185.62182  0.083163897  0.088953424            1 
  187000    1.1450595    -3.119456    187.04985  0.083355549  0.088915857            1 
  188000     1.152496   -3.0693862    189.04103  0.083794782  0.088885389            4 
  189000    1.1867529   -3.0699045    189.28596  0.083459418  0.088862178            4 
  190000      1.16383   -3.0798402    190.07963  0.083368259   0.08883074            1 
  191000    1.1774498   -3.1414359    190.37707  0.083061547  0.088804385            2 
  192000    1.1652786    -3.077371     192.3862  0.083500954  0.088772102            2 
  193000    1.1675632   -3.1175214    193.17868  0.083410484  0.088741089            1 
  194000    1.1837419   -3.0823527     195.6393  0.084037499  0.088717046            2 
  195000    1.1751571   -3.0920034     195.5468  0.083567007  0.088692103            2 
  196000     1.188299   -3.0879514    197.37169  0.083916536  0.088672733            1 
  197000    1.1788198   -3.0969966    197.73649  0.083644875  0.088649508            2 
  198000    1.1586655   -3.0878914    199.15904  0.083821145  0.088627277            6 
  199000    1.1846194   -3.1180618    199.66676  0.083612545  0.088601188            1 
  200000    1.1805432   -3.1161985    199.61917  0.083174655  0.088572474            2 
  201000    1.1858187   -3.1125041    201.22313   0.08342584  0.088536903            3 
  202000    1.1863417   -3.1121813    202.44478  0.083516823  0.088507827            1 
  203000    1.1933747   -3.1037389    204.00903  0.083747547  0.088476632            2 
  204000    1.1825748   -3.0994989    205.16954  0.083811088  0.088448335            2 
  205000    1.1951045   -3.1175744    205.22796  0.083425998  0.088414117            1 
  206000    1.1775399   -3.1084473    206.66198  0.083601123  0.088386695            1 
  207000    1.2000516   -3.0993625    207.30548  0.083456312  0.088353553            3 
  208000    1.1575977   -3.1372284    208.53433  0.083547407  0.088327521            2 
  209000    1.1784701   -3.1386774    209.29602  0.083451365  0.088302641            2 
  210000     1.186589   -3.1298248    210.68603  0.083605568  0.088284132            1 
  211000    1.1418336   -3.0797595    212.39051  0.083882508   0.08826392            1 
  212000    1.1860257    -3.113599    212.81839  0.083655025  0.088243859            2 
  213000    1.1527343   -3.1164012    213.68328  0.083600657  0.088226229            2 
  214000    1.1953187   -3.0892464    215.06921  0.083749691  0.088209191            2 
  215000    1.1826892    -3.094773    215.95185  0.083702269  0.088190146            1 
  216000    1.1879716   -3.1023434    217.88605  0.084060977  0.088174286            1 
  217000    1.1735273   -3.1292942    218.45974  0.083893909  0.088155527            2 
  218000     1.169249   -3.0826703     219.8847  0.084053786  0.088133393            3 
  219000     1.151148   -3.0963836    220.25903  0.083812417  0.088108831            2 
  220000    1.1613487   -3.0767835    222.50042   0.08428046  0.088091758            2 
  221000    1.1525924   -3.1299244    222.02128  0.083718433  0.088071432            2 
  222000     1.174921   -3.1165777    223.04055  0.083723929  0.088041798            4 
  223000    1.1646077    -3.100826    224.25506  0.083802341  0.088016781            2 
  224000    1.1721248   -3.1098122    225.59073  0.083925124  0.087991996            1 
  225000    1.1661187   -3.1204207    226.08877   0.08373658  0.087974735            3 
  226000    1.1877683   -3.0987469    228.32702   0.08419138  0.087957082            2 
  227000    1.1567748   -3.1016022    228.56779  0.083908882  0.087935702            2 
  228000    1.1566585    -3.129435    229.57249  0.083908074  0.087917503            2 
  229000    1.1680144   -3.0762341    230.84245  0.084003804   0.08790015            1 
  230000    1.1874694   -3.1483401    231.81416  0.083990637  0.087875713            2 
  231000    1.1593799   -3.0983924    233.25532  0.084146942  0.087854921            4 
  232000    1.1693255   -3.1085944    233.18349  0.083758439  0.087832121            3 
  233000    1.1516279   -3.0987041    235.39269  0.084189086  0.087815955            2 
  234000    1.1607242   -3.1151257    236.31408  0.084157434  0.087801243            2 
  235000    1.1397682   -3.1043077    237.05912  0.084063519  0.087786898            1 
  236000    1.1652294   -3.1246191    238.54743   0.08423285  0.087778982            3 
  237000    1.1707083   -3.1486325    238.91122  0.084005353  0.087766864            1 
  238000    1.1637198   -3.1187396    241.60506   0.08459561  0.087757784            2 
  239000    1.1606732   -3.0950486    241.49459  0.084203135  0.087749073            3 
  240000    1.1588742   -3.1452492    242.82132   0.08431296   0.08773996            4 
  241000    1.1757141   -3.1124415    244.54739  0.084559954  0.087728503            2 
  242000    1.1538728   -3.1421877    243.59714  0.083883312  0.087718305            1 
  243000    1.2010212   -3.1469626    244.94697  0.084001018  0.087701735            1 
  244000    1.1495569    -3.146988    246.26517  0.084106958  0.087688351            2 
  245000    1.1687449   -3.1277482    247.86374  0.084307395  0.087675724            2 
  246000    1.1615917   -3.1493371    248.83339  0.084293153   0.08766902            3 
  247000    1.1451834   -3.1077141     249.8791  0.084304688  0.087660628            1 
  248000    1.1335022   -3.1085615     251.2122  0.084412702  0.087654272            2 
  249000    1.1662408   -3.1373717    251.38894  0.084132843  0.087649034            2 
  250000    1.1539073   -3.1235792    253.63914  0.084546381    0.0876414            2 
  251000    1.1606627   -3.1172773    254.95783  0.084647354  0.087633826            2 
  252000    1.1493179   -3.1266674    254.43404  0.084138241  0.087629255            2 
  253000    1.1536803   -3.0846486    256.56574  0.084507818  0.087628644            3 
  254000    1.1445678   -3.1438435    256.63828  0.084198911  0.087626286            1 
  255000    1.1374763    -3.140937    258.07104  0.084336943    0.0876263            3 
  256000     1.142996   -3.1327302     259.9528  0.084620051  0.087621741            1 
  257000    1.1453002   -3.1099296    258.91057  0.083952843  0.087614896            2 
  258000    1.1818108   -3.0882676    262.02888  0.084634651  0.087607558            2 
  259000    1.1640662   -3.1092824    262.32826  0.084404201  0.087600005            2 
  260000    1.1249652   -3.1367835     262.8039  0.084232019  0.087587195            3 
  261000    1.1593218   -3.1340751    263.05264   0.08398871  0.087573452            2 
  262000    1.1488802   -3.1010037    264.50964  0.084131566  0.087559323            2 
  263000    1.1481425   -3.1475483    263.54338  0.083505507   0.08754021            3 
  264000    1.1548186   -3.1371668    265.25011  0.083727939  0.087519363            2 
  265000    1.1330235   -3.1301702     265.0784  0.083357988  0.087497211            2 
  266000     1.128719   -3.1286005    266.82481  0.083591733  0.087472637            3 
  267000    1.1335478   -3.1229027    267.78874  0.083579508  0.087448055            4 
  268000    1.1390373   -3.1591377    268.88603  0.083608841  0.087422783            2 
  269000    1.1462156   -3.1108635    270.36284  0.083755527  0.087398755            2 
  270000    1.1414411   -3.1312187    272.21322  0.084016426  0.087377795            2 
  271000    1.1296935   -3.1484025    273.05437  0.083965059  0.087356827            2 
  272000    1.1654882   -3.1445107    273.38734  0.083758376  0.087336545            2 
  273000    1.1771345   -3.1436344    274.37523  0.083753122  0.087313215            2 
  274000    1.1404673   -3.1162814     275.0595  0.083655564  0.087285932            1 
  275000    1.1418196   -3.1162942    276.20202  0.083697583  0.087256889            1 
  276000    1.1644992   -3.1333783    276.33641  0.083434907  0.087226828            1 
  277000    1.1281894   -3.1298841    277.68943  0.083540743  0.087200095            7 
  278000    1.1436834   -3.1326093    278.30163   0.08342375  0.087172025            2 
  279000    1.1421718   -3.1515408    278.76447  0.083262982  0.087145737            1 
  280000    1.1519772   -3.1549274    280.56798  0.083502376  0.087118582            2 
  281000    1.1360132   -3.1627181    279.59188  0.082915741  0.087089138            1 
  282000     1.127075   -3.1417342    282.27266  0.083413906  0.087056861            1 
  283000    1.1331646   -3.1193904    284.14696  0.083671072  0.087026748            2 
  284000    1.1382772   -3.1643169     283.1419  0.083081544  0.086992816            2 
  285000    1.1543166    -3.165569    283.98438  0.083036369  0.086955734            1 
  286000    1.1200956   -3.1567873    283.75188  0.082678286  0.086917895            2 
  287000    1.1637208    -3.123653    284.51223  0.082610986  0.086874792            2 
  288000    1.1352476   -3.1244425    286.51305  0.082903081  0.086832844            3 
  289000    1.1166355   -3.1237571    286.92515  0.082735049   0.08678848            3 
  290000    1.1557222   -3.1636374    287.35688  0.082573815  0.086742607            3 
  291000    1.1432484   -3.1145942    289.87305  0.083010611   0.08669893            1 
  292000    1.1408391    -3.148902    288.61425  0.082367079   0.08665562            3 
  293000    1.1351349   -3.1446039    289.38144  0.082304164  0.086608186            1 
  294000    1.1512044   -3.1519683    289.89454  0.082169653  0.086559848            1 
  295000    1.1346149   -3.1372623    290.39801  0.082033335  0.086506922            3 
  296000    1.1292659   -3.1525499     290.2114  0.081703658  0.086456917            2 
  297000    1.1166808   -3.1543432     291.9804  0.081924916  0.086406009            2 
  298000    1.1552137   -3.1729093    293.39214  0.082044781  0.086352368            2 
  299000    1.1364934    -3.113008    295.23226  0.082283239  0.086303314            2 
  300000    1.1460597    -3.168119    294.92188  0.081922743  0.086256303            5 
  301000     1.120959   -3.1610468    296.17302  0.081996961  0.086208777            2 
  302000    1.1464746   -3.1581403    297.02382  0.081960214  0.086160282            2 
  303000    1.1266511   -3.1569258    296.55894  0.081561863  0.086111061            1 
  304000    1.1293002   -3.1189633    298.91501  0.081939421  0.086061538            1 
  305000    1.1470051     -3.14805    300.46402  0.082093995   0.08601407            1 
  306000    1.1224604   -3.1706955     300.2822  0.081776199  0.085966035            4 
  307000    1.1588809   -3.1385673    301.05488  0.081719566  0.085918471            2 
  308000    1.1546104   -3.1544225    303.09823  0.082007098  0.085872024            2 
  309000    1.1293572   -3.1853708     303.1517  0.081756122  0.085824811            1 
  310000    1.1437349   -3.1749086    304.62892  0.081889496  0.085781467            2 
  311000    1.1322959   -3.1298801    304.76232  0.081661929  0.085736328            1 
  312000    1.1282462   -3.1263227    306.78036  0.081939199  0.085693973            3 
  313000    1.1194522   -3.1550154    307.75537     0.081937  0.085652371            2 
  314000    1.1658268   -3.1719137    308.31379  0.081824255  0.085612306            2 
  315000    1.1345783   -3.1667333     309.0711   0.08176484  0.085570667            3 
  316000    1.1282076   -3.1368341    310.80299  0.081962814  0.085527505            2 
  317000    1.1247985   -3.1664171    309.87168  0.081459433    0.0854847            1 
  318000    1.1484858   -3.1992405    312.20068  0.081813596  0.085442172            3 
  319000     1.120267   -3.1391969    313.44388  0.081881892  0.085401036            2 
  320000    1.1173518   -3.1598671    313.50036  0.081640718  0.085360352            1 
  321000    1.1327992   -3.1732042     315.6688  0.081949325  0.085320256            2 
  322000    1.1103215   -3.1661916    315.68802  0.081699797  0.085280727            2 
  323000    1.1325045   -3.1693551    316.16686  0.081570398  0.085239614            2 
  324000    1.1259582   -3.1555858    319.18487  0.082094873  0.085202121            3 
  325000    1.1102697    -3.192414    317.30759  0.081360919  0.085162478            3 
  326000    1.1252419   -3.1739153    318.35931  0.081380192  0.085121337            2 
  327000    1.0896257   -3.1430842    321.10244  0.081830387  0.085078226            2 
  328000    1.1093308   -3.1588252    321.44923  0.081669011  0.085035469            2 
  329000    1.1204146   -3.1671288    320.39531  0.081153827  0.084994467            3 
  330000    1.1207836   -3.1727284    322.28466  0.081385015  0.084950892            3 
  331000    1.1179267   -3.1545483    323.54067  0.081455356  0.084908773            2 
  332000     1.124788   -3.1399393    322.98814   0.08107132  0.084869507            4 
  333000    1.1161555    -3.171545    326.49049  0.081704327  0.084832951            2 
  334000    1.1431814   -3.1711772    325.75321  0.081275751  0.084794544            3 
  335000    1.1302912   -3.1779963    327.59912  0.081492318  0.084757313            3 
  336000    1.1055606   -3.2033431    327.95412  0.081337826  0.084721275            1 
  337000    1.1237137   -3.1617179    330.01293  0.081605572  0.084688758            3 
  338000    1.1238231    -3.168166    330.38829  0.081456678   0.08465478            1 
  339000    1.1045971   -3.1726885    330.84552  0.081328791  0.084616666            2 
  340000    1.1387071   -3.1567187    333.20685  0.081668344  0.084579976            1 
  341000    1.1298039   -3.1933139    331.37825  0.080981977  0.084541077            2 
  342000      1.12131   -3.1467207    335.20089   0.08167663  0.084503332            3 
  343000    1.1279265   -3.1811466    334.08968  0.081168532  0.084465031            3 
  344000    1.1263151   -3.1565365    335.42241  0.081255429  0.084425558            2 
  345000    1.1006626   -3.1998122    335.04623  0.080929042  0.084385107            2 
  346000    1.1156589   -3.1536676    335.21351   0.08073543  0.084345325            3 
  347000    1.1131842   -3.1584245    337.21337  0.080983039    0.0843029            2 
  348000    1.0832026   -3.1783715    337.49129  0.080816879  0.084262061            2 
  349000    1.1028926    -3.178746    336.90447  0.080445194  0.084220413            3 
  350000    1.1128705   -3.1817665    340.92138  0.081171758  0.084178517            1 
  351000    1.1114035   -3.1673773    339.74487  0.080661174  0.084136492            3 
  352000    1.0947184   -3.1869815    340.85395   0.08069459  0.084093449            1 
  353000    1.1207281   -3.1852465    340.98468  0.080496855   0.08404948            2 
  354000    1.1212311   -3.1753125    342.79821  0.080696378  0.084007601            3 
  355000    1.1399701   -3.1687548    343.94614  0.080738531   0.08396342            1 
  356000    1.0990643   -3.1975086    342.28038  0.080121812  0.083918483            2 
  357000    1.1129745   -3.1666268    346.44553  0.080869638  0.083875195            1 
  358000    1.1176634   -3.1963507     346.9287  0.080756215  0.083835781            2 
  359000    1.0897904   -3.1637032    346.86992  0.080517622  0.083795121            2 
  360000    1.0878231   -3.2052025    347.74673  0.080496929  0.083754945            2 
  361000    1.1323537   -3.1937492    350.28625  0.080860169  0.083715454            1 
  362000    1.1392043   -3.1707972    349.45314  0.080445013  0.083676779            2 
  363000    1.1036436   -3.1739199    352.29627  0.080876095  0.083638099            3 
  364000    1.1104094   -3.1542838    352.34276  0.080664551  0.083600097            1 
  365000    1.1075704   -3.1904059     351.6136  0.080277078  0.083559637            2 
  366000    1.0943449   -3.1876393    352.35642  0.080226871   0.08351747            6 
  367000    1.0793403   -3.1336831    354.56853  0.080510565  0.083476993            2 
  368000    1.1301137   -3.1704159    354.25833  0.080221543  0.083436487            3 
  369000    1.1191158   -3.2190633    356.45979  0.080501307   0.08339531            2 
  370000    1.1230671   -3.1741308    357.26786  0.080465733  0.083355202            3 
  371000    1.1395172    -3.201785    356.35807  0.080044489  0.083314652            2 
  372000     1.092198   -3.1843841    357.72493  0.080135513  0.083274438            1 
  373000    1.1095465   -3.1995691    359.67132  0.080355524  0.083232061            2 
  374000    1.1032795   -3.1987869    358.93792  0.079977254  0.083190022            3 
  375000    1.0782036    -3.165526    360.20455  0.080045455  0.083146563            1 
  376000     1.100467   -3.2025287    361.83613  0.080194178  0.083104015            4 
  377000    1.1019266   -3.1994835    360.74998  0.079741374  0.083060747            3 
  378000    1.1183263   -3.2072887     361.0242  0.079590872  0.083016157            1 
  379000    1.1200946   -3.2127209     362.9713  0.079808993  0.082974973            2 
  380000    1.1220698   -3.2036983    364.64474  0.079965952  0.082931112            3 
  381000    1.1006543   -3.2306829     364.9371  0.079820014  0.082892841            2 
  382000    1.1239428   -3.1846951    366.50634   0.07995339  0.082850519            4 
  383000    1.1050648   -3.1972655    368.03142  0.080076463  0.082807377            2 
  384000    1.0942422   -3.2033429    367.33246  0.079716246  0.082766782            5 
  385000    1.0922873    -3.168363     370.1559  0.080120325   0.08272594            1 
  386000    1.0802529   -3.2051758    369.23218  0.079713338  0.082684826            3 
  387000    1.1040483   -3.1935657    370.67292  0.079817597  0.082643936            2 
  388000    1.0989038   -3.1782736    373.02136  0.080116272  0.082605337            3 
  389000    1.1010738   -3.1967923    373.77376  0.080071499  0.082566136            6 
  390000    1.1253596   -3.1878805    373.98053   0.07991037  0.082529259            1 
  391000    1.0990428   -3.1794184     374.2548   0.07976445   0.08249381            4 
  392000    1.0915044   -3.1997621    376.67813  0.080076133  0.082460654            4 
  393000    1.1058641   -3.1970072    377.73775  0.080097063  0.082427415            2 
  394000     1.076895   -3.1869086    378.73165  0.080103987  0.082395044            4 
  395000    1.1069391   -3.1700673    381.40645  0.080465495  0.082361879            1 
  396000    1.1283372   -3.2098939    380.62676  0.080098224  0.082331707            4 
  397000    1.1056534   -3.2010292    380.65128  0.079901612  0.082298637            2 
  398000    1.1236179   -3.1965744    381.95329   0.07997347  0.082266175            2 
  399000    1.1104758   -3.2172271       381.94  0.079770259  0.082232844            3 
  400000    1.1095771   -3.2211767    381.60967  0.079502015  0.082199147            3 
  401000    1.0689347   -3.2185427    383.27897   0.07965066  0.082165886            3 
  402000    1.1058574    -3.208529    384.89889  0.079788328  0.082132575            4 
  403000    1.0897376   -3.1914597    386.08671  0.079835962  0.082100634            2 
  404000    1.1169358   -3.2139431    386.40018  0.079703008  0.082068363            2 
  405000    1.0861339   -3.1919176    386.71109  0.079570183  0.082036487            1 
  406000    1.0771359   -3.2196134    388.04269  0.079647515  0.082003597            6 
  407000    1.0937401   -3.2042965    389.77313  0.079806127  0.081971328            2 
  408000    1.0993079   -3.2253559    389.65452  0.079586298  0.081936802            2 
  409000    1.0873002   -3.2157402    391.27306  0.079721487  0.081903902            3 
  410000    1.1039879   -3.2214592    392.12647  0.079700503  0.081871503            1 
  411000    1.0889997     -3.24907    391.85488  0.079451517  0.081838389            2 
  412000     1.090225   -3.2029693    393.66409  0.079624614  0.081807332            2 
  413000    1.1020517   -3.1852548    393.33436  0.079365286  0.081774898            2 
  414000    1.1068055   -3.1997258    395.01399  0.079511672  0.081741426            2 
  415000    1.0945855   -3.1821289     395.6063  0.079439017  0.081706667            1 
  416000    1.0818515   -3.2158926    394.76281  0.079079089  0.081671284            2 
  417000    1.0662435   -3.1976951    395.10409  0.078957651  0.081635883            4 
  418000    1.0930567   -3.2174042    396.49046  0.079045148  0.081599014            2 
  419000    1.0925312   -3.2018031    398.22912  0.079202291  0.081561127            2 
  420000    1.1062992   -3.2404611    399.14316  0.079195071  0.081525272            3 
  421000    1.0851003   -3.2158298    399.39376  0.079056564  0.081489213            2 
  422000    1.0847272   -3.1823951    399.61291  0.078912502  0.081452674            2 
  423000    1.1095076   -3.2134722    401.06775   0.07901256  0.081415752            2 
  424000    1.0789478    -3.217237    402.30161  0.079068713  0.081378159            8 
  425000    1.0818472   -3.2084036    404.15802   0.07924667  0.081342169            3 
  426000     1.072056   -3.2234597     403.0366  0.078841275  0.081306173            1 
  427000    1.1031133   -3.2257895    404.14962  0.078873852    0.0812702            2 
  428000    1.0850596    -3.209667    402.88172  0.078442701  0.081233185            3 
  429000     1.095907   -3.1984021    407.83532  0.079222091  0.081196095            2 
  430000    1.0822842   -3.2210023    407.76792  0.079024791  0.081161292            1 
  431000    1.0826482   -3.2012634    408.37921  0.078959631  0.081127521            4 
  432000    1.0990043   -3.2224425    408.45987  0.078792413  0.081093945            1 
  433000    1.0938531   -3.2196011     411.6643  0.079227155  0.081060403            2 
  434000    1.0664837   -3.2171258    410.85324  0.078888872  0.081028371            3 
  435000    1.0690317   -3.2404868     410.9787  0.078731552  0.080993579            4 
  436000    1.0724647    -3.234157    410.60838  0.078480194  0.080958191            3 
  437000    1.0862269   -3.2070532    413.35604  0.078824569  0.080923451            1 
  438000    1.0771925   -3.1907127    415.89908   0.07912844   0.08089113            1 
  439000    1.0717225    -3.238185     412.8521  0.078369798  0.080857756            1 
  440000    1.0618489   -3.2270814    415.51493  0.078696009  0.080823386            2 
  441000    1.0611151   -3.1810845    416.27619  0.078661412   0.08078927            3 
  442000    1.0762558   -3.2035065    417.50207  0.078714568  0.080754248            3 
  443000    1.0886709   -3.2255077    416.78074  0.078401193  0.080721996            3 
  444000    1.0682118   -3.2284962    418.91542  0.078625267  0.080689041            2 
  445000    1.0731896   -3.2013684    422.03886  0.079033494  0.080655851            1 
  446000     1.069138   -3.2294184    420.12993  0.078499612  0.080624931            3 
  447000    1.0753429   -3.2614885    420.04231  0.078307664  0.080591045            2 
  448000    1.0613081   -3.2378322     423.2966  0.078738206  0.080558265            1 
  449000    1.0840818   -3.2332661    423.31684  0.078566601   0.08052649            2 
  450000    1.0893782   -3.2119087     423.5924  0.078443037  0.080495376            2 
  451000    1.0582791   -3.2311269     426.0134  0.078716444  0.080463545            3 
  452000    1.1000809   -3.1947656    425.34094  0.078418315  0.080430977            3 
  453000    1.0838211   -3.2322283    425.97263  0.078361412  0.080397635            4 
  454000    1.0546442   -3.2169567    425.91272  0.078177811  0.080365381            4 
  455000    1.0661404    -3.233411    428.49337  0.078478639  0.080333769            2 
  456000    1.0790235   -3.2281622    431.12008  0.078786565  0.080301073            2 
  457000    1.0630885   -3.2497283    427.85518  0.078018815  0.080267718            2 
  458000     1.080471   -3.2386686    431.35478  0.078485222  0.080236226            2 
  459000    1.0680751   -3.2493912    430.84816   0.07822225  0.080204794            3 
  460000     1.080722   -3.2523089    431.92061  0.078246487  0.080173049            3 
  461000    1.0532708   -3.2460352    432.27482  0.078140785  0.080140873            3 
  462000    1.0689374    -3.237297    433.42136  0.078178456  0.080109026            3 
  463000    1.0765459     -3.21898    434.51377  0.078206221  0.080075265            2 
  464000    1.0725991   -3.2247567    435.81331  0.078271069  0.080042433            2 
  465000    1.0503216     -3.22807    436.70014  0.078261674  0.080010295            2 
  466000    1.0645375   -3.2456336     436.9011  0.078129668  0.079978739            1 
  467000    1.0760549   -3.2411315    438.58554  0.078262944  0.079948733            2 
  468000    1.0702367   -3.2465656    439.76362  0.078305487  0.079920715            1 
  469000    1.0869761   -3.2544923    440.31992   0.07823737  0.079888709            2 
  470000    1.0933453   -3.2379588    438.08672  0.077674951  0.079859393            2 
  471000     1.042304   -3.2525036    441.03725  0.078032068  0.079827735            1 
  472000     1.046725   -3.2312012    441.86102  0.078012185  0.079797483            2 
  473000    1.0581627   -3.2361174    443.51128  0.078137999  0.079766906            3 
  474000    1.0617204   -3.2509935     442.2348  0.077748734  0.079737166            3 
  475000    1.0653076   -3.2400054    443.89846  0.077876924   0.07970688            4 
  476000    1.0631842   -3.2555906    443.73278  0.077684311  0.079675764            4 
  477000    1.0586261   -3.2328745    446.60392  0.078023046  0.079644271            2 
  478000    1.0765137   -3.2791196    446.48386  0.077838888  0.079613415            3 
  479000    1.0617237   -3.2713012    447.98726  0.077937937  0.079582952            2 
  480000    1.0810182   -3.2503896    447.78958  0.077741246  0.079551883            1 
  481000    1.0627242   -3.2516995    449.88354  0.077942402  0.079521888            2 
  482000    1.0370046   -3.2293594    450.33948  0.077859523  0.079492248            2 
  483000    1.0663254   -3.2411061    450.88738  0.077792854   0.07946089            3 
  484000    1.0428229   -3.2296441    452.75942  0.077954446   0.07943012            1 
  485000    1.0438731   -3.2423544    453.00424  0.077835779  0.079398644            2 
  486000    1.0630287   -3.2654698    452.24071  0.077544703  0.079368614            1 
  487000    1.0638752   -3.2617283    453.48651  0.077598649  0.079338447            5 
  488000    1.0672309   -3.2266545    454.63276  0.077635376  0.079309417            2 
  489000    1.0599807   -3.2631693    454.56314  0.077464747  0.079280163            2 
  490000    1.0577541   -3.2454982    457.50627  0.077807189   0.07925025            4 
  491000    1.0622169   -3.2692204     456.4528  0.077469925  0.079220776            3 
  492000    1.0627413   -3.2665511    456.79444  0.077370331  0.079191149            2 
  493000    1.0584965   -3.2611284    459.00651  0.077587308  0.079160482            2 
  494000    1.0695781   -3.2814674    458.08473  0.077274752  0.079130192            2 
  495000    1.0712223   -3.2954457     458.1145  0.077123653  0.079099075            2 
  496000    1.0736744   -3.2666355    462.16822  0.077649231  0.079066512            2 
  497000    1.0419754   -3.2457601    460.01397  0.077131785  0.079036036            3 
  498000    1.0144293   -3.2289118    464.11186  0.077662627  0.079003716            1 
  499000    1.0664547   -3.2621659    462.62046  0.077257926  0.078972841            2 
  500000    1.0411687   -3.2521898     462.0718  0.077011966  0.078940525            2 
  501000    1.0499217   -3.2323762    465.13719  0.077368128  0.078908282            3 
  502000    1.0385944   -3.2103101    467.61031  0.077624553  0.078878195            1 
  503000    1.0511796    -3.249045    465.05356  0.077046646  0.078847618            1 
  504000    1.0668203   -3.2460226    466.86101  0.077192627  0.078815953            2 
  505000    1.0580407   -3.2688473     466.0654  0.076908481  0.078784343            1 
  506000    1.0778688   -3.2578476    468.38622  0.077138706  0.078752716            4 
  507000     1.034225   -3.2641374    471.37558  0.077477906  0.078721858            3 
  508000    1.0576697   -3.2450506    470.57993   0.07719487  0.078691034            2 
  509000    1.0517506   -3.2479976    472.90726   0.07742424  0.078661114            2 
  510000    1.0445009   -3.2516403    473.13646  0.077309878   0.07863203            2 
  511000    1.0538524   -3.2595954    472.91077  0.077121783  0.078603294            2 
  512000    1.0635021   -3.2814054    473.69663   0.07709906  0.078572887            2 
  513000    1.0480329   -3.2269439    476.91377  0.077471373   0.07854207            2 
  514000    1.0578125   -3.2699703    474.90342  0.076994718  0.078512516            2 
  515000     1.082787   -3.2536605    476.25604  0.077064083  0.078484417            2 
  516000    1.0612131   -3.2671654    476.56411  0.076964487  0.078455334            3 
  517000    1.0521106   -3.2597343    477.65889  0.076992084  0.078425472            3 
  518000    1.0274331   -3.2558624    479.34269  0.077114332   0.07839577            2 
  519000    1.0634119   -3.2560983    479.68839  0.077021258  0.078366557            3 
  520000    1.0485805   -3.2612267    481.18503  0.077112985  0.078337154            4 
  521000    1.0401846   -3.2435825    480.75134  0.076895607  0.078307369            2 
  522000    1.0376062   -3.2479718    479.63731  0.076570452  0.078276531            1 
  523000    1.0622868   -3.2521831    483.78643  0.077085155  0.078246673            2 
  524000     1.053572   -3.2648982    480.87584  0.076475166  0.078215662            3 
  525000    1.0505829     -3.26976    482.22835  0.076544183  0.078185512            3 
  526000    1.0528176   -3.2729525    483.07969  0.076533538  0.078157665            3 
  527000    1.0640345   -3.2960157    483.75412  0.076494958  0.078127914            4 
  528000    1.0088812   -3.2632541    486.27221  0.076747508  0.078097379            1 
  529000    1.0410498   -3.2564168    485.80771  0.076529254  0.078067676            2 
  530000    1.0556207   -3.2509066    487.26964  0.076614723  0.078037992            5 
  531000    1.0431148   -3.2676263    486.12637  0.076291018  0.078007966            2 
  532000    1.0317404   -3.2679404    489.37336  0.076656228  0.077978243            5 
  533000    1.0380894   -3.2641731     486.2043  0.076016933  0.077948399            2 
  534000    1.0325893   -3.2823161     489.4311  0.076378136  0.077917874            3 
  535000    1.0315358   -3.2691963    492.09466  0.076650258  0.077887617            2 
  536000     1.037726   -3.2985555    489.52495  0.076107735  0.077857822            3 
  537000     1.066418   -3.2646036    493.11472  0.076523079   0.07782634            3 
  538000     1.012088   -3.2677614    492.54271  0.076292241  0.077794595            3 
  539000    1.0127593   -3.3050536    492.85712  0.076199308  0.077763637            4 
  540000    1.0379222    -3.272062     493.0881  0.076093843  0.077733322            3 
  541000    1.0633656   -3.2934041    494.58798  0.076184223  0.077701989            2 
  542000    1.0360288   -3.2636429    498.01331  0.076570312  0.077672728            3 
  543000    1.0479106   -3.2836413    498.27515  0.076469483  0.077642748            2 
  544000    1.0234627   -3.2722098    497.97351  0.076282707  0.077612651            4 
  545000    1.0325946   -3.2774486    498.72726   0.07625799  0.077581403            2 
  546000    1.0485399   -3.2767551    497.66248  0.075955812  0.077550169            4 
  547000    1.0439064   -3.3127198    498.58407  0.075957354  0.077518569            3 
  548000    0.9987595   -3.2912663    498.10545  0.075745963   0.07748556            3 
  549000    1.0164095   -3.2790307    498.00467  0.075592694  0.077452485            7 
  550000    1.0279748   -3.2546734    501.17845  0.075936129  0.077420515            2 
  551000    1.0323382   -3.2710363    502.49507  0.075997439   0.07738806            2 
  552000    1.0242819   -3.2944789    501.84859  0.075762166  0.077356062            2 
  553000    1.0221592   -3.2729346    504.03113  0.075954059  0.077324983            3 
  554000     1.048627   -3.2704298    505.78058  0.076080111  0.077294317            1 
  555000    1.0463838   -3.2870501    502.60467  0.075466167  0.077263592            3 
  556000    1.0263788   -3.2812894     505.2491  0.075726784  0.077231692            1 
  557000    1.0311883   -3.2770732    507.96756   0.07599754  0.077200103            3 
  558000     1.026891   -3.2870634    508.51162  0.075942596   0.07716945            2 
  559000    1.0243289   -3.2928758    507.37598  0.075637445  0.077138465            3 
  560000     1.023767   -3.2664807    509.00063  0.075744141  0.077107483            1 
  561000    1.0251485      -3.2961     509.5101  0.075684804  0.077076353            5 
  562000    1.0342281   -3.2366426    509.46478  0.075543414   0.07704555            3 
  563000   0.99990068   -3.3003674    509.71775  0.075446678  0.077013573            2 
  564000    1.0295234   -3.2998229    508.95373  0.075200018  0.076982312            3 
  565000    1.0213219   -3.2827179    512.98413  0.075661377  0.076950915            1 
  566000    1.0302083   -3.2928618    512.22988  0.075416649  0.076919565            4 
  567000    1.0232773   -3.3076325    513.76213  0.075508838  0.076888574            7 
  568000    1.0511298   -3.2769979    511.81981  0.075090935  0.076857251            2 
  569000    1.0220405   -3.2799699    513.43998  0.075196248  0.076826059            2 
  570000    1.0123899   -3.3003436    514.20117   0.07517561  0.076793124            3 
  571000    1.0003856   -3.2694354    515.10264  0.075175517  0.076760069            2 
  572000    1.0529159   -3.2815634    515.48211  0.075099374  0.076726312            3 
  573000    1.0268908   -3.3088779    515.22289  0.074930612   0.07669382            6 
  574000    1.0191373   -3.2903052    517.40502  0.075116873  0.076661057            2 
  575000    1.0267347   -3.3001944    517.46018  0.074994229  0.076627851            4 
  576000    1.0161965   -3.2762225    517.89337  0.074926702  0.076593906            2 
  577000    1.0229642   -3.2957956    521.05533  0.075253514  0.076560377            2 
  578000    1.0141516   -3.3044739     518.6627  0.074778359  0.076525386            2 
  579000    1.0003445   -3.2979779    519.20106  0.074726693  0.076492051            1 
  580000    1.0252918   -3.2903714    520.48942  0.074782962  0.076458259            1 
  581000    1.0306948   -3.3058863     522.3433  0.074920152  0.076426268            4 
  582000   0.98970986   -3.3052999    523.58912  0.074969805   0.07639443            2 
  583000    1.0234903   -3.3027976    520.32376  0.074374466  0.076360205            3 
  584000    1.0310571   -3.2930274    524.44321  0.074834932  0.076326803            1 
  585000    1.0213517   -3.2791554     525.5274  0.074861454  0.076292818            4 
  586000    1.0257516   -3.2882085     526.8394  0.074920278  0.076257604            1 
  587000    1.0149218   -3.3007019    523.55682  0.074326635  0.076223329            3 
  588000    1.0361706   -3.3164908    524.29169  0.074304378  0.076188526            5 
  589000    1.0166103   -3.3043387    526.72227  0.074522109  0.076153587            4 
  590000    1.0213183   -3.3567082    526.62241  0.074381696  0.076118625            1 
  591000   0.98704397   -3.3077523    527.91891   0.07443865   0.07608428            2 
  592000    1.0356442   -3.3267294    527.14982  0.074204647  0.076050186            2 
  593000    1.0132111   -3.2946799    532.74429  0.074865696   0.07601645            2 
  594000    1.0270278   -3.3050823    530.04256  0.074360628  0.075982866            3 
  595000    1.0211329   -3.3036946    530.34254  0.074277667  0.075950397            2 
  596000     1.018533   -3.2984596    533.33467  0.074571402  0.075917141            1 
  597000    1.0141954   -3.3447766    528.31254  0.073745468   0.07588323            6 
  598000    1.0077907   -3.2772128    534.64619  0.074504765  0.075848943            4 
  599000    1.0218096   -3.3032786    533.05397  0.074158872  0.075814859            1 
  600000    1.0331474   -3.2983233    534.21297  0.074196246  0.075781276            3 
  601000    1.0064772   -3.2990155    533.04414  0.073910723  0.075746881            2 
  602000    1.0298675    -3.302209    536.25287  0.074232124  0.075712227            1 
  603000    1.0057566   -3.3058841    536.97926  0.074209405  0.075679091            1 
  604000    1.0187236   -3.3327768    538.20412  0.074255535  0.075645506            3 
  605000    1.0271218   -3.3456786     538.3735  0.074156129   0.07561148            2 
  606000    1.0302248   -3.3150952    538.98089  0.074117283  0.075576804            2 
  607000    1.0110523   -3.3190223    538.60751  0.073943919  0.075542825            2 
  608000    1.0228252   -3.3093105    539.65966   0.07396651  0.075509789            4 
  609000    1.0121428   -3.3185059    542.01106  0.074166811  0.075478871            3 
  610000    1.0104621   -3.2919899     544.0253  0.074320397  0.075446238            6 
  611000   0.99644817   -3.3270971    542.36929  0.073972899  0.075414409            1 
  612000    1.0205454   -3.3336764    543.55887  0.074014008  0.075382727            2 
  613000    1.0283917    -3.333524    543.70617  0.073913291  0.075350598            2 
  614000   0.99177727   -3.3209368    544.58921   0.07391276  0.075318867            1 
  615000    1.0101379   -3.3154852    546.59425  0.074064262  0.075288065            5 
  616000   0.98899923   -3.3045415    547.41696  0.074055325  0.075257158            3 
  617000    1.0291325    -3.292556    548.91992  0.074138293  0.075225151            3 
  618000   0.99190064   -3.3059675    549.10539  0.074043337  0.075192832            2 
  619000    1.0144244   -3.2984621    550.45562  0.074105495  0.075162047            3 
  620000     1.016195   -3.3220318    549.46794  0.073853218  0.075131462            1 
  621000    1.0069895    -3.310446    550.80469  0.073913673   0.07509999            3 
  622000    1.0053097   -3.3155401    550.65403  0.073774656  0.075068696            1 
  623000    1.0253484   -3.3301417    548.07569  0.073311355  0.075037803            3 
  624000    1.0062161    -3.316054    550.76293  0.073552742  0.075005811            3 
  625000    1.0227594   -3.3499468    551.86234  0.073581645  0.074974098            2 
  626000    1.0023197   -3.3442528    552.08679  0.073493982   0.07494223            2 
  627000   0.99241804    -3.340553    552.86264  0.073479883  0.074910742            3 
  628000    1.0072699   -3.3210239    555.90352   0.07376639  0.074878521            3 
  629000   0.98270656   -3.3312181    552.22994  0.073162419  0.074846008            6 
  630000    0.9817106   -3.3214784    556.05444  0.073552175  0.074813026            4 
  631000   0.98619762   -3.3081943    556.84768   0.07354037  0.074780135            4 
  632000   0.98717412   -3.3195372    556.94859  0.073437314  0.074748513            2 
  633000    1.0048792   -3.3124633    556.61239  0.073277039  0.074716841            4 
  634000    1.0193124   -3.3052324    555.34784  0.072995246  0.074683378            2 
  635000    1.0130255   -3.2910732    557.46161  0.073157691  0.074651033            2 
  636000   0.99154342   -3.3358829    558.52757  0.073182334  0.074617399            2 
  637000   0.99817389   -3.3391627     558.1006  0.073011591  0.074584127            2 
  638000    1.0006465   -3.3204939    560.34638  0.073190488  0.074550052            1 
  639000   0.99315101   -3.2935337    561.80047  0.073265581  0.074516343            3 
  640000   0.98982792   -3.3437547    559.58877  0.072863121  0.074482023            3 
  641000     1.005335   -3.3198038    562.51636  0.073130052  0.074447881            2 
  642000    0.9842259   -3.3602536    559.59993  0.072637582  0.074413869            3 
  643000    1.0115623   -3.3121284    563.11103  0.072979657  0.074379562            5 
  644000    1.0068289     -3.33113    563.95941  0.072976114  0.074346097            1 
  645000    1.0029478   -3.3530657    563.01598  0.072741083  0.074311178            3 
  646000    0.9844851   -3.3534528    563.87386  0.072739146  0.074278115            5 
  647000   0.98992332   -3.3276649    565.23501  0.072802036  0.074244199            3 
  648000      1.01837   -3.3391773    568.01368  0.073047027  0.074210829            2 
  649000    1.0083927   -3.3217947    566.27261  0.072710915  0.074176765            3 
  650000    0.9778861    -3.331204    567.25485   0.07272498  0.074143451            2 
  651000   0.98530475   -3.3175231    568.02432  0.072711767  0.074109692            2 
  652000   0.99882039   -3.3322288    569.00809  0.072725983  0.074076635            2 
  653000   0.98202827    -3.349402    569.45149  0.072671196  0.074042254            3 
  654000   0.99321027   -3.3206575     570.5637  0.072701797  0.074008177            2 
  655000    1.0077037   -3.3290674    570.32904  0.072560947  0.073975526            4 
  656000    1.0021049   -3.3580175    571.95688  0.072657124  0.073942769            2 
  657000   0.98004321   -3.3575343     573.7155  0.072769597  0.073910111            4 
  658000   0.99384624   -3.3528566      573.215  0.072595617  0.073877137            4 
  659000   0.99414693   -3.3120964    574.19743   0.07260969  0.073844838            4 
  660000   0.98060896   -3.3577199    575.57243  0.072673287  0.073812279            4 
  661000   0.99916155   -3.3362647    576.17187  0.072638915  0.073780125            2 
  662000    0.9698524   -3.3621519    577.89987   0.07274671  0.073748236            3 
  663000   0.98205372   -3.3442794    576.69888  0.072486033   0.07371662            2 
  664000    1.0008263   -3.3376441    579.42678  0.072719224  0.073684959            2 
  665000    1.0050641   -3.3361847     579.1714   0.07257787  0.073653207            1 
  666000   0.98677157   -3.3613118    578.52804  0.072388393  0.073621112            3 
  667000   0.97701658    -3.340202     578.8332  0.072317991  0.073589403            1 
  668000    1.0097404   -3.3388151    580.11247   0.07236932  0.073557209            6 
  669000    0.9621449   -3.3576263    580.48473  0.072307514  0.073525392            3 
  670000    1.0104034   -3.3317747    582.27913  0.072422778  0.073493531            3 
  671000   0.99027806    -3.326909     582.2568  0.072312071  0.073461763            3 
  672000   0.98214976   -3.3671323    583.64396  0.072376483  0.073429675            3 
  673000    1.0005969   -3.3161211    585.72011  0.072526016  0.073398425            4 
  674000   0.99629357   -3.3197331     585.0992  0.072341642  0.073367623            3 
  675000   0.97108262   -3.3380556    586.97582  0.072466151  0.073336848            5 
  676000   0.95952528   -3.3455444    586.01462  0.072240461  0.073305727            2 
  677000   0.98920851   -3.3872063    586.32656  0.072172152  0.073274351            5 
  678000   0.99563262   -3.3671858    586.21032  0.072051415  0.073244506            3 
  679000   0.99013023   -3.3264116    587.34715  0.072084825  0.073213645            2 
  680000   0.96088528   -3.3584429     588.0136   0.07206049  0.073182921            4 
  681000   0.95984262   -3.3619251    590.74188  0.072288532  0.073152074            2 
  682000   0.95156856   -3.3486043    589.17991   0.07199168  0.073120826            4 
  683000    0.9942805   -3.3536088    592.99725  0.072352032  0.073089827            3 
  684000   0.99013268   -3.3790492    587.65544  0.071595448  0.073058143            5 
  685000    0.9901945   -3.3340909    591.40558  0.071947151  0.073027936            1 
  686000   0.98368951   -3.3473561    593.03812  0.072040588  0.072997481            2 
  687000   0.98785921   -3.3562953    593.11378  0.071944902  0.072967983            5 
  688000    0.9834492   -3.3604558    593.92907  0.071939083  0.072938689            2 
  689000   0.96166049   -3.3930755      596.672  0.072166425  0.072909477            2 
  690000   0.98170018   -3.3318282    597.54232  0.072166946  0.072879854            4 
  691000   0.97992263   -3.3731849    599.43478  0.072290735  0.072850952            3 
  692000   0.98546711   -3.3410103    598.16229  0.072033031  0.072821869            3 
  693000   0.99058283    -3.362341    599.68662  0.072112388  0.072792235            6 
  694000   0.98762461    -3.344268    599.28834  0.071960655  0.072763488            2 
  695000   0.95946381   -3.3800506    599.92877  0.071933906  0.072734372            2 
  696000   0.98028587   -3.3392763    599.95731  0.071833969  0.072706076            3 
  697000   0.97088125   -3.3643997    601.75519  0.071945862  0.072678558            5 
  698000   0.97679887   -3.3579616    602.64649  0.071949199  0.072649777            1 
  699000   0.97418821   -3.3809945    603.55354  0.071954404  0.072621861            2 
  700000    0.9910561   -3.3366326     602.1452  0.071683952  0.072593141            4 
  701000   0.97028356   -3.3816139    603.74872  0.071772316  0.072565082            4 
  702000   0.96166641   -3.3821202    604.06287  0.071707368  0.072536261            2 
  703000   0.96383943   -3.3663009    605.59772  0.071787307  0.072508051            2 
  704000   0.96823722   -3.3517029    609.32176  0.072126155  0.072480032            3 
  705000   0.97520523   -3.3592361    606.64617  0.071707585  0.072452161            4 
  706000   0.96707672    -3.378742    606.29001  0.071563976  0.072424735            3 
  707000   0.98716097   -3.3916468    609.95955   0.07189528  0.072396883            2 
  708000   0.96283752   -3.3606601    611.30853   0.07195251  0.072369488            2 
  709000   0.97433711    -3.369197    609.08617  0.071589818  0.072342595            3 
  710000   0.96134498   -3.3785111    610.88546  0.071700171  0.072315053            4 
  711000   0.97745989   -3.3569968    612.62543  0.071803261  0.072287352            2 
  712000   0.97487453   -3.3641345    611.94014  0.071622208  0.072259951            2 
  713000   0.96131264   -3.3920514    610.44775   0.07134733  0.072232769            1 
  714000   0.96378668   -3.3678972    614.92745  0.071770244  0.072205707            2 
  715000    1.0012149   -3.3938648    614.13955  0.071578036  0.072178911            4 
  716000   0.97605448   -3.3806357    613.80063  0.071438621   0.07215178            6 
  717000   0.93393636   -3.3755954    612.62057  0.071201832  0.072123122            2 
  718000   0.95244741    -3.366894    615.18053  0.071399783  0.072094577            6 
  719000   0.95764979   -3.3856221    614.30518  0.071199024  0.072065896            3 
  720000   0.96574134   -3.4204892    615.11789    0.0711942  0.072037106            4 
  721000    0.9480357   -3.3612982    617.98068  0.071426338  0.072008798            1 
  722000   0.95234316   -3.4128858    619.08466  0.071454832  0.071979905            3 
  723000   0.97927539   -3.3909579    616.50401  0.071058553  0.071950001            3 
  724000   0.97635648    -3.378101     619.1721  0.071267506  0.071921523            4 
  725000   0.95571344   -3.3682389    619.83446   0.07124534  0.071893089            3 
  726000   0.96487509   -3.3944635    617.95292  0.070931235  0.071863363            3 
  727000   0.95022484   -3.3582099    620.10081  0.071079872  0.071835118            4 
  728000   0.95280022   -3.3929369     618.1375  0.070757498  0.071806313            3 
  729000   0.95807389   -3.3607707    623.68022  0.071294036  0.071777265            2 
  730000   0.92136283   -3.3213391    622.47166  0.071058408  0.071747972            1 
  731000   0.97911936   -3.3807231    623.15222  0.071038785  0.071718794            3 
  732000   0.94686447   -3.3932416    625.03842  0.071156469  0.071689193            3 
  733000    0.9547179   -3.4074979    622.60188  0.070782388  0.071660146            2 
  734000   0.93008092   -3.3858889    624.20148  0.070867562  0.071630839            4 
  735000   0.96094137   -3.4135307    621.04733  0.070413529  0.071600531            3 
  736000   0.97268243    -3.373242     624.5774   0.07071755  0.071570272            2 
  737000   0.93739228   -3.4246313    622.93925  0.070436369  0.071540338            2 
  738000   0.96524399   -3.3693987    625.09897  0.070584798  0.071509884            3 
  739000   0.95977396   -3.3929947    626.79214  0.070680214  0.071479799            3 
  740000   0.95707955   -3.3770228    627.47261   0.07066133  0.071450099            9 
  741000   0.93916149   -3.3560802    627.91682  0.070615926  0.071420818            3 
  742000   0.95619326   -3.3923301    626.58162  0.070370802  0.071391223            2 
  743000   0.93982366   -3.3884546    627.67667  0.070398909  0.071360958            2 
  744000   0.95430878   -3.3954966    629.62717  0.070522756    0.0713309            4 
  745000   0.94861485   -3.3624116    630.25254  0.070498046  0.071300801            2 
  746000    0.9741088   -3.4068619    627.61916  0.070109379   0.07126997            5 
  747000   0.94024339   -3.3952346    628.49511  0.070113243  0.071238656            2 
  748000   0.96617016   -3.3894716    631.36217  0.070338923  0.071207054            2 
  749000   0.94717763   -3.4059743    631.41925  0.070251363  0.071176875            3 
  750000   0.95634257   -3.3834771    631.35709  0.070150787  0.071145953            2 
  751000   0.95408546   -3.4143175    630.80467  0.069996079  0.071115667            2 
  752000    0.9383062   -3.3843279    634.70307  0.070335004  0.071085525            1 
  753000   0.96043792    -3.398492    636.45196  0.070435144  0.071055796            3 
  754000   0.95519945   -3.4190688    633.37231   0.07000136  0.071025363            3 
  755000   0.96572915   -3.4127532      634.329  0.070014238  0.070994843            2 
  756000   0.93481779    -3.420097    631.58838   0.06961953  0.070964153            2 
  757000   0.95330711   -3.3871093     634.9048  0.069892646  0.070933025            3 
  758000   0.95671188   -3.3807891    638.23871  0.070166965  0.070903524            4 
  759000   0.93176322   -3.3974732    639.33389  0.070194761  0.070874442            3 
  760000   0.97566816   -3.4156097    639.62056  0.070133834   0.07084548            3 
  761000   0.94703373   -3.4200558    639.61271  0.070040813  0.070817343            2 
  762000   0.94826367   -3.4149534    640.04868  0.069996575  0.070788457            2 
  763000   0.95909166   -3.3845648    640.62237  0.069967494   0.07076006            2 
  764000   0.94558187   -3.4330468    639.92469  0.069799813  0.070731716            4 
  765000   0.93172201   -3.3861908     642.7288  0.070014031  0.070703277            4 
  766000   0.97028739    -3.412125    644.99328  0.070168982  0.070674961            2 
  767000   0.95009397   -3.3696222    647.26812  0.070324654  0.070647025            4 
  768000   0.96332386   -3.3929753    645.79137  0.070072849  0.070619833            2 
  769000   0.95644002    -3.419765    644.84507  0.069879179  0.070591914            5 
  770000   0.93939089   -3.4159467    645.42937  0.069851663  0.070563308            3 
  771000    0.9376632   -3.4100224    646.59993  0.069887584  0.070534707            5 
  772000   0.94845193   -3.4159764    646.28254  0.069762796  0.070506648            3 
  773000   0.93949459   -3.3957058    650.38951  0.070115299  0.070478797            2 
  774000   0.96894872   -3.3985338    650.90322  0.070080019   0.07045089            3 
  775000   0.92490346   -3.4176578    649.50023  0.069838734  0.070422332            2 
  776000   0.95178505   -3.3738714    650.90864  0.069899982  0.070393853            3 
  777000   0.94061415   -3.4044688    646.91061  0.069381232  0.070364436            2 
  778000   0.96904683   -3.4217467    648.01602  0.069410457  0.070335016            2 
  779000   0.95237099   -3.4115102    648.91015  0.069417004  0.070306273            3 
  780000   0.93453156   -3.4186113    652.41464  0.069702419  0.070277957            3 
  781000   0.92711131   -3.4270336    652.43984   0.06961586  0.070249243            7 
  782000   0.92502715   -3.4068783    652.82117  0.069567474   0.07022058            3 
  783000   0.94263963   -3.4053233    651.64666  0.069353625   0.07019205            4 
  784000   0.94486173   -3.4142621    657.32593  0.069868828   0.07016394            3 
  785000   0.93804234   -3.3964074    655.56653   0.06959305  0.070136212            5 
  786000   0.94691339   -3.4096649    654.30004  0.069370233  0.070107953            5 
  787000   0.94707854    -3.406643    657.80516  0.069653235   0.07007967            2 
  788000   0.92459094   -3.4060696    656.80317   0.06945888  0.070050783            3 
  789000   0.93424538   -3.4085977    658.13259  0.069511258  0.070022026            3 
  790000   0.93355083   -3.4220912    657.10774  0.069315163  0.069993338            2 
  791000   0.95850984   -3.4262112     657.8026  0.069300737  0.069963808            2 
  792000   0.94481836    -3.442237     658.4921  0.069285785   0.06993464            6 
  793000   0.92901173    -3.415319    657.41497  0.069085222  0.069905216            4 
  794000   0.95546824   -3.4122349    657.06472  0.068961453  0.069876056            3 
  795000   0.93330502   -3.4419296    657.78544  0.068950255  0.069845788            3 
  796000   0.93681772    -3.392935    659.05252  0.068996285  0.069816406            3 
  797000   0.91166431   -3.4293661    661.67565  0.069183987  0.069787053            3 
  798000   0.92622894   -3.3944558    662.00485  0.069131668  0.069757964            3 
  799000   0.92927978    -3.431045     662.4937   0.06909613   0.06972847            4 
  800000   0.91806079    -3.445041     662.2491  0.068984282  0.069698227            2 
  801000   0.93797706   -3.4183788    662.49345   0.06892358  0.069668221            2 
  802000   0.92868075    -3.437598    660.68683   0.06864992  0.069638429            2 
  803000   0.94124122   -3.4115465    661.83965  0.068684065  0.069608377            7 
  804000   0.94591546   -3.4178405    665.20696  0.068947654  0.069578906            3 
  805000   0.92967105   -3.4404606    665.03215  0.068843908  0.069549406            4 
  806000    0.9254326   -3.4150645    664.24459  0.068677067  0.069519841            3 
  807000   0.93967953   -3.3876273    665.42126  0.068713472  0.069489967            1 
  808000    0.9235509   -3.4171151    667.70518  0.068863983  0.069460906            5 
  809000    0.9288609   -3.4268882    665.18154  0.068518906  0.069430759            2 
  810000   0.92731925   -3.4396792    667.98391  0.068722625  0.069400603            2 
  811000   0.92207915   -3.4149132    669.45713  0.068789266  0.069370726            3 
  812000   0.93255441   -3.4230685    669.52307  0.068711317  0.069340502            2 
  813000   0.93527779   -3.4313034    668.35351   0.06850692  0.069309834            2 
  814000    0.9334058    -3.416285    669.34922  0.068524695  0.069279657            6 
  815000   0.93399968   -3.4231937    668.57912  0.068361873  0.069248903            2 
  816000   0.93507297   -3.4060712    670.00668  0.068423885   0.06921856            3 
  817000   0.92354203   -3.4304698    672.43743  0.068588069   0.06918843            3 
  818000   0.91805004   -3.4251515    669.74066  0.068229489  0.069158097            3 
  819000    0.9368806   -3.4185014    671.45004   0.06832011  0.069127152            2 
  820000   0.90915202   -3.4463076     670.3354  0.068123516  0.069097083            4 
  821000   0.93117708   -3.4380299    672.35429  0.068245462   0.06906689            3 
  822000   0.92779312   -3.4388789    675.12987  0.068443823  0.069036872            3 
  823000   0.92016868   -3.4289618    675.09445  0.068357073  0.069006953            5 
  824000   0.93270009   -3.4605741    674.51852   0.06821587  0.068977162            3 
  825000   0.92684204   -3.4378673    673.59025  0.068039419  0.068947132            3 
  826000   0.94721141   -3.4143694    676.20665   0.06822101  0.068917376            5 
  827000   0.90956107   -3.4517154    674.93797  0.068010678  0.068886688            4 
  828000    0.9327135   -3.4537374    676.67079  0.068102938  0.068856164            3 
  829000    0.9582559   -3.4301292    675.06745  0.067859615  0.068825285            3 
  830000   0.90559638   -3.4367358    674.40259  0.067711104  0.068794245            5 
  831000   0.93465628   -3.4505251    674.93906   0.06768342  0.068762317            5 
  832000   0.92644349   -3.4427954    674.39503  0.067547579  0.068730278            3 
  833000   0.93913883   -3.4451434    679.37328  0.067964514  0.068698562            5 
  834000   0.91934656   -3.4501042    679.69348  0.067915016  0.068666924            2 
  835000     0.911512   -3.4506004     677.8278  0.067647485  0.068634678            2 
  836000   0.90768608   -3.4369862    679.01358  0.067684767  0.068603223            4 
  837000   0.92710612   -3.4265873    677.80606  0.067483678  0.068571316            3 
  838000   0.90859406   -3.4663618    681.49217  0.067769706  0.068539457            2 
  839000   0.91684661   -3.4344564    679.96914  0.067537658  0.068508087            2 
  840000   0.91902033   -3.4548335    680.71736  0.067531484  0.068476534            3 
  841000   0.91988793   -3.4518599    681.14925   0.06749398  0.068444763            3 
  842000   0.92005541   -3.4594267    682.24512   0.06752228  0.068413289            3 
  843000   0.92645775   -3.4633969    681.33989  0.067352697  0.068381884            6 
  844000   0.91060388   -3.4727267     681.4306  0.067281852  0.068350081            3 
  845000   0.93660618   -3.4308396     682.0254  0.067260888  0.068318311            4 
  846000   0.90699099   -3.4552251    683.55372  0.067331926  0.068286702            3 
  847000   0.90351504   -3.3882736    687.49791  0.067640487  0.068254801            2 
  848000    0.9112002   -3.4401247    685.14467  0.067329468  0.068223268            3 
  849000   0.92668065    -3.463639    684.04926  0.067142644  0.068191761            2 
  850000   0.89912313   -3.4311843    686.92511  0.067345599   0.06816042            2 
  851000   0.91426575   -3.4477268    687.32668  0.067305785  0.068129644            5 
  852000   0.88790559   -3.4575828    687.81676  0.067274722  0.068098489            3 
  853000   0.93266809   -3.4596239    685.95064  0.067013544  0.068067242            3 
  854000   0.92255407   -3.4431929    688.68365  0.067201761  0.068036258            4 
  855000   0.91268334   -3.4405323    688.19452  0.067075489  0.068004897            3 
  856000   0.91312254   -3.4580027    686.71577   0.06685317  0.067973485            4 
  857000   0.91606613   -3.4701481    689.27818  0.067024327  0.067941455            4 
  858000   0.90795359   -3.4805009    686.19817  0.066647064  0.067909622            3 
  859000   0.90951368   -3.4709366    692.79838  0.067209777  0.067877533            5 
  860000   0.90233885   -3.4664544    690.22882  0.066882637  0.067845199            4 
  861000    0.9198963   -3.4504554    693.53958  0.067125395  0.067813409            4 
  862000   0.93899024   -3.4804997    690.65226  0.066768394  0.067781804            5 
  863000   0.90748876   -3.4512674    691.25076  0.066748818  0.067750312            2 
  864000   0.91638268   -3.4559448    692.31104  0.066773827  0.067718946            2 
  865000   0.87933063    -3.461505    693.19453  0.066781746  0.067687559            3 
  866000   0.89307266   -3.4611937    695.68335  0.066944125  0.067656569            5 
  867000   0.91603783    -3.487848    694.21201  0.066725491  0.067625566            4 
  868000   0.89382279   -3.4537837    693.85771  0.066614604   0.06759421            3 
  869000   0.90063273   -3.4857446    697.77675  0.066913765  0.067563123            2 
  870000    0.9057015   -3.4366419    698.34541  0.066891323  0.067532436            2 
  871000   0.91449703   -3.4194275    697.16957  0.066702025  0.067501378            3 
  872000   0.90508205   -3.4726387     697.1146  0.066620279  0.067470186            3 
  873000   0.89565266   -3.4371678    698.91162  0.066715504  0.067438786            3 
  874000     0.891844    -3.487555    696.75323  0.066433375  0.067407793            3 
  875000   0.93471385   -3.4693373    698.72229   0.06654498  0.067376991            3 
  876000   0.92465894   -3.4579339    703.66362  0.066939081  0.067345991            3 
  877000   0.89175012   -3.4602927    700.92293   0.06660233  0.067315746            4 
  878000   0.88992856   -3.4641012    700.15035  0.066453146  0.067285864            5 
  879000   0.90271824   -3.4452052    702.76405  0.066625337   0.06725535            6 
  880000   0.90807613   -3.4629034    700.50589  0.066335785  0.067224655            3 
  881000   0.88954789   -3.4456724     703.6285  0.066555855  0.067193737            6 
  882000   0.88889156   -3.4508687    703.92502   0.06650841  0.067163109            7 
  883000   0.90364848   -3.4327449    702.78012  0.066325039  0.067132509            3 
  884000   0.89103569   -3.4362504    703.53064  0.066320762    0.0671018            2 
  885000   0.89286415   -3.4777124    706.45502  0.066521188  0.067071239            3 
  886000   0.90707817   -3.4702225    704.23056  0.066236884  0.067040088            3 
  887000   0.88404816   -3.4807025    705.27689  0.066260512  0.067009295            3 
  888000   0.90655924   -3.4784689    704.82497  0.066143485  0.066978275           10 
  889000    0.8826656   -3.4509987     706.7539  0.066249897  0.066947587            2 
  890000   0.89918479   -3.4815074    706.48602  0.066150376  0.066917096            4 
  891000   0.91376225   -3.4740471    706.17542  0.066047084  0.066886101            3 
  892000   0.90565899   -3.4763591    706.46019  0.065999644  0.066855269            3 
  893000   0.89384995   -3.4448588    708.13045  0.066081602  0.066825531            3 
  894000   0.89162505    -3.474752    710.23213  0.066203591  0.066796159            4 
  895000   0.90534099   -3.4600308    711.08609  0.066209133  0.066767282            4 
  896000   0.88619259   -3.4464793     710.2198  0.066054669  0.066738223            2 
  897000   0.88577894   -3.4786452    714.05943  0.066337739  0.066708965            2 
  898000    0.9332906   -3.4883732    713.66816  0.066227558  0.066679745            5 
  899000   0.90390625   -3.4971004    712.43158  0.066039264  0.066651398            1 
  900000   0.89220784   -3.4619268    716.30741   0.06632476  0.066622957            2 
  901000   0.90015401   -3.4900581    712.75242  0.065922348  0.066593943            6 
  902000    0.8864021   -3.4488794    717.11489  0.066252299  0.066565104            3 
  903000   0.87692191   -3.4673475    715.58783  0.066038006  0.066536216            3 
  904000   0.89361325   -3.5195034    714.48867  0.065863631  0.066506309            4 
  905000    0.8962119   -3.4931631    715.46177  0.065880457  0.066476741            5 
  906000   0.90507382   -3.4841037    719.18272  0.066149993  0.066447641            3 
  907000    0.9090947    -3.466318    717.23079   0.06589772  0.066418294            3 
  908000    0.8900844   -3.4886707    716.50397  0.065758441  0.066388942            3 
  909000   0.87910077   -3.4775337    719.61395  0.065971209  0.066358902            3 
  910000   0.90098673    -3.503838    716.97451  0.065657007  0.066328772            3 
  911000   0.87860679   -3.4640823    719.55147  0.065820662  0.066299127            2 
  912000   0.90161701   -3.4643102    719.25969  0.065721829  0.066268899            3 
  913000   0.90164058   -3.4888697    717.42612  0.065482487  0.066238937            5 
  914000   0.90031301   -3.4894535    720.09813  0.065654461  0.066209125            2 
  915000   0.88403945   -3.4783639    720.64399  0.065632421  0.066178985            2 
  916000   0.88458106   -3.5178814    720.31738  0.065531057  0.066149026            5 
  917000    0.9020561   -3.4854927    719.47949  0.065383451  0.066118797            3 
  918000   0.87059127   -3.4986817    720.52366  0.065407014  0.066089059            3 
  919000   0.89237812   -3.4813753    722.36501  0.065502812  0.066058351            5 
  920000   0.89112344   -3.4884807    724.66078  0.065639564  0.066028305            2 
  921000   0.89957134   -3.5003093    720.88986  0.065227096  0.065998242            6 
  922000   0.89996197   -3.4862277    722.70218  0.065320154  0.065968037            6 
  923000   0.88373686   -3.4755929    722.41576  0.065223525  0.065937854            6 
  924000    0.8929308    -3.470926    722.48317  0.065159016    0.0659077            3 
  925000   0.86786526   -3.5405699    724.22872   0.06524583  0.065877405            2 
  926000   0.88494299   -3.4645852    726.47136  0.065377192  0.065846677            3 
  927000   0.89286592   -3.5068099    723.73302  0.065060502  0.065816533            4 
  928000   0.86090174   -3.5220259    723.59461  0.064977965  0.065785303            2 
  929000   0.88548686    -3.509194     726.5046  0.065169053  0.065754684            4 
  930000   0.88773133    -3.531913    724.70843  0.064938032  0.065724039            5 
  931000   0.89614053   -3.5139323    722.42987  0.064664328  0.065693148            2 
  932000   0.86649194   -3.5126283    728.29026  0.065118943  0.065662041            4 
  933000   0.89182822   -3.4747817    727.50307  0.064978838  0.065631059            6 
  934000   0.87948886   -3.4958393    728.49533  0.064997799  0.065600302            2 
  935000   0.87903737   -3.4764928    730.20496  0.065080656  0.065569732            2 
  936000   0.88843831   -3.4944083    730.83617  0.065067323  0.065539379            5 
  937000   0.89045537   -3.5226576    727.36725  0.064689368  0.065509087            3 
  938000   0.88284914   -3.5112561    728.99097  0.064764656  0.065479016            7 
  939000   0.84617513    -3.491025    731.25914  0.064896977  0.065449205            2 
  940000   0.87359881   -3.4831431    729.80243  0.064698797   0.06541894            4 
  941000   0.87004284    -3.502521    730.53049  0.064694517  0.065389098            4 
  942000   0.85582209   -3.4871522    734.09544   0.06494121  0.065358803            3 
  943000   0.86408624   -3.5019131    732.73863  0.064752442  0.065329061            5 
  944000   0.87159733   -3.4844273    731.32102  0.064558706  0.065299355           10 
  945000   0.88978265   -3.4723869    735.43266  0.064852968  0.065269639            2 
  946000   0.86064341   -3.5033368    734.69105  0.064719085  0.065240228            8 
  947000   0.86488364   -3.4885694    736.32178  0.064794243  0.065210516            2 
  948000   0.88127642   -3.5274114    735.37239   0.06464244  0.065181059            6 
  949000   0.88061536   -3.4938715    734.67948  0.064513478  0.065151252            6 
  950000    0.8627746   -3.5264451    736.90715  0.064640978  0.065121461           10 
  951000   0.85963261   -3.5202648    734.78544  0.064387087  0.065091668            5 
  952000   0.87991958   -3.5241428    737.06986   0.06451942  0.065062008            2 
  953000   0.86385683   -3.5506163    735.17477  0.064286006  0.065032048            5 
  954000   0.87744739   -3.4973131    739.98598  0.064638887  0.065002696            4 
  955000   0.85748572   -3.4927982    738.56419  0.064447137  0.064973456            6 
  956000   0.89454566   -3.5033505    741.29307  0.064617597   0.06494406            2 
  957000   0.88255735   -3.5007973    741.28817  0.064549649   0.06491496            2 
  958000   0.85573126    -3.497492    740.35574   0.06440116  0.064886046            3 
  959000   0.85820589    -3.504673     739.5032  0.064259923  0.064856745            4 
  960000   0.86856835   -3.5126587    740.83779  0.064308836  0.064827406            3 
  961000   0.86989396   -3.5292884    739.93758  0.064163856  0.064798126            1 
  962000    0.8754621   -3.5120207    740.50654  0.064146443  0.064768586            5 
  963000   0.87208878   -3.5370954    741.52339  0.064167825  0.064738889            3 
  964000   0.86538525   -3.5283382    742.57275  0.064191973  0.064709267            3 
  965000   0.87212318   -3.5636806    743.04342  0.064166098   0.06467946            3 
  966000   0.87039927   -3.5162818    743.97698  0.064180209  0.064649621            4 
  967000   0.87203983   -3.5311138     743.7295  0.064092511  0.064620039            1 
  968000   0.89922757   -3.5416338    743.52325  0.064008544  0.064591166            4 
  969000   0.86395399   -3.5330414     743.2669  0.063920442  0.064561262            3 
  970000   0.85759691   -3.5225436    744.41672  0.063953326  0.064531186            4 
  971000   0.86268706   -3.5590384    741.85935  0.063667984  0.064501468            3 
  972000   0.86523036   -3.5215096    745.90821  0.063949607  0.064471674            2 
  973000   0.86443014   -3.5126077    748.71407  0.064124193  0.064441957            5 
  974000   0.86986738   -3.5054956    749.53816  0.064128864  0.064412137            4 
  975000   0.85149946   -3.5272981     750.0587  0.064107581  0.064382734            4 
  976000   0.88435088   -3.5243105    748.76413  0.063931364  0.064353144            4 
  977000   0.85815103   -3.5407491    747.72586  0.063777368  0.064323264            4 
  978000   0.86777693   -3.5289578    748.65335  0.063791185   0.06429318            3 
  979000   0.86642715   -3.5348503    748.86336  0.063743902  0.064262921            5 
  980000   0.87637148   -3.5525692     747.0782  0.063527058  0.064232761            8 
  981000   0.84870435    -3.534551    747.41098  0.063490569  0.064202106            3 
  982000   0.86146338   -3.5487633    747.71401  0.063451631   0.06417147            5 
  983000   0.86597274    -3.533271    749.20314  0.063513322  0.064140813            2 
  984000   0.87365816   -3.5525972    750.74971  0.063579752  0.064110556            4 
  985000   0.87056628    -3.495212    750.86256  0.063524751  0.064080017            3 
  986000   0.84802118   -3.5374976    750.70444  0.063446961   0.06404972            6 
  987000   0.86252768    -3.539575    751.06207  0.063412873  0.064019423            3 
  988000   0.86671764   -3.5339365    749.93132  0.063253316  0.063988942            4 
  989000   0.85819768   -3.4974873    752.29235    0.0633883  0.063957987            4 
  990000   0.86823948    -3.542176    751.93738  0.063294392  0.063927252            4 
  991000   0.86876168   -3.5395799    751.83526  0.063221936  0.063896728            3 
  992000   0.84379564    -3.542746    752.94206  0.063251181  0.063865669            3 
  993000   0.85431978   -3.5432084    754.65114  0.063330911  0.063834912            5 
  994000   0.86310715    -3.535506    756.39072  0.063413038  0.063804459            3 
  995000   0.85879331   -3.5247821    752.26173  0.063003495  0.063773993            5 
  996000   0.84566586   -3.5334806    755.83363  0.063239092  0.063743758            2 
  997000   0.85586664   -3.5557028    750.95328  0.062767743  0.063712697            2 
  998000   0.86817748   -3.5335464    754.89703  0.063034154  0.063681817            1 
  999000   0.86941201   -3.5454621    756.09031  0.063070596  0.063650671            5 
 1000000   0.86155049   -3.5653535    754.90566  0.062908805  0.063619723            4 
 1001000   0.83927908   -3.5274082    755.28742   0.06287774   0.06358893            3 
 1002000   0.85270626   -3.5365263    754.11043  0.062717102  0.063558192            3 
 1003000   0.84890159    -3.524217    758.49696  0.063019023    0.0635276            6 
 1004000   0.86434688   -3.5248341    758.56802  0.062962153  0.063496804            3 
 1005000   0.84607219   -3.5506176    758.43356  0.062888355  0.063466184            5 
 1006000   0.83526944   -3.5742401    756.00472  0.062624645   0.06343513            3 
 1007000   0.87280247   -3.5355654    758.97412  0.062808186  0.063404026            7 
 1008000   0.84645852   -3.5566556    760.21295  0.062848293  0.063373439            2 
 1009000   0.85609676   -3.5628661    760.57166  0.062815631  0.063342788            5 
 1010000   0.85081486   -3.5406234    759.87337  0.062695823  0.063312411            5 
 1011000   0.85914401   -3.5562944     759.2801  0.062584908  0.063281718            4 
 1012000   0.85225088   -3.5421415    760.91916  0.062658034  0.063251422            8 
 1013000   0.84703629   -3.5570458    762.81637  0.062752252  0.063221368            4 
 1014000   0.87222855   -3.5531115    760.65555  0.062512784  0.063191475            3 
 1015000   0.86107111   -3.5443996    760.45948  0.062435097  0.063161328            5 
 1016000   0.84558647   -3.5603507    762.51521  0.062542258  0.063130045            3 
 1017000   0.87953554   -3.5723225    761.43953   0.06239262  0.063099471            3 
 1018000   0.83284969   -3.5583197     762.7011  0.062434602  0.063068553            2 
 1019000   0.86027495   -3.5592837    763.64429  0.062450465  0.063037926            6 
 1020000   0.84586609   -3.5649795    763.78653   0.06240086  0.063007353            3 
 1021000   0.82519358   -3.5427988    764.53269  0.062400644  0.062976922            8 
 1022000   0.85936028   -3.5794695    765.16867  0.062391444  0.062946411            4 
 1023000   0.84443442   -3.5558984    765.57564  0.062363607  0.062915926            1 
 1024000   0.84864253   -3.5661773    764.79245  0.062238969  0.062885687            6 
 1025000   0.83452115   -3.5597751    766.27965  0.062299158  0.062855236            4 
 1026000   0.85455338   -3.5458381    766.53352  0.062259057  0.062825257            4 
 1027000   0.84380716   -3.5492181     767.1853  0.062251323  0.062795186            2 
 1028000   0.85458199   -3.5615385    766.04573   0.06209839  0.062764996            6 
 1029000   0.84898449   -3.5657626    765.05609  0.061957895  0.062734575            3 
 1030000   0.84852737   -3.5385514    770.72607  0.062356478  0.062704733            3 
 1031000   0.85570677   -3.5535601     769.2147  0.062173836  0.062675089            3 
 1032000   0.83272596   -3.5521245    771.81284  0.062323388   0.06264579            3 
 1033000   0.84994348   -3.5718032    770.05281  0.062121072  0.062616703            4 
 1034000   0.84007185   -3.5875107    772.27783  0.062240315  0.062587188            3 
 1035000   0.85868367   -3.5349444     772.3777  0.062188221  0.062557978            3 
 1036000   0.81911914   -3.5418036    773.79959  0.062242567  0.062528889            2 
 1037000   0.85081364   -3.5567115    772.79378  0.062101718  0.062499945            2 
 1038000   0.83906087   -3.5838596    775.28983  0.062242279  0.062471278           10 
 1039000   0.84250531    -3.545891    775.51596   0.06220051  0.062442315            4 
 1040000   0.82765769   -3.5609226    774.48213  0.062057863  0.062413385            4 
 1041000   0.84598665   -3.5590772    776.09969  0.062127737  0.062384424            8 
 1042000   0.86246755   -3.5596397    775.31321  0.062005215  0.062355573            3 
 1043000   0.84734883   -3.5640453    776.74577  0.062060224  0.062326804            4 
 1044000   0.83702729   -3.5865842    775.98115  0.061939747  0.062297875            7 
 1045000   0.82783166   -3.5673238    777.55011  0.062005591  0.062269192            3 
 1046000   0.84265065    -3.569992     777.5855  0.061949132  0.062240278            7 
 1047000   0.83572699   -3.5766626    777.34863   0.06187111  0.062211534            2 
 1048000   0.83727769     -3.55821    775.83568  0.061691768  0.062182571            4 
 1049000   0.82960506   -3.5713032    778.45675  0.061841178  0.062153427            6 
 1050000   0.83824887   -3.5473011    780.68745  0.061959322   0.06212465            4 
 1051000   0.84317233   -3.5807153    779.17871  0.061780742  0.062095935            3 
 1052000    0.8415171   -3.5386849    781.26298  0.061887118  0.062067173            3 
 1053000   0.83102879   -3.5612551     780.0997  0.061736286  0.062038611            3 
 1054000   0.82519495   -3.5739149    780.24986  0.061689584  0.062009877            3 
 1055000   0.83190415   -3.5610018    781.50301  0.061730096   0.06198113            4 
 1056000   0.82233913   -3.5790136     778.5943    0.0614421  0.061951951            3 
 1057000   0.83072638   -3.5720607    780.18097  0.061509064   0.06192251            3 
 1058000   0.84497043   -3.5601125    782.34573  0.061621434  0.061893519            6 
 1059000   0.83106755   -3.5664873    780.79442  0.061441172  0.061864107            4 
 1060000   0.84695283   -3.5855457    781.57615  0.061444666  0.061834559            2 
 1061000   0.81397932   -3.5828026    781.08241  0.061347974  0.061804842            4 
 1062000   0.81831219   -3.5792224    781.41259  0.061316117  0.061774466            5 
 1063000   0.84196337    -3.584911    782.78934  0.061366364  0.061744269            2 
 1064000     0.816366   -3.6077536    780.36476  0.061118794  0.061714178            6 
 1065000   0.83388081   -3.5808965    781.11279  0.061119937  0.061683994            4 
 1066000   0.82955445   -3.5766146    779.86614  0.060965146  0.061653683            4 
 1067000   0.84820354    -3.569244     783.0222  0.061154498  0.061623371            6 
 1068000   0.80612452   -3.5891225    782.93963  0.061090795  0.061593652            2 
 1069000   0.80548174    -3.569897      783.093  0.061045603  0.061563076            4 
 1070000   0.81887486   -3.5638191    782.81945  0.060967247  0.061532702            4 
 1071000   0.83425259   -3.5740306    783.86514  0.060991685  0.061502246            4 
 1072000   0.84041938   -3.5830956    783.92183  0.060939197  0.061471942            6 
 1073000    0.8376374   -3.5834766    784.96821   0.06096367  0.061441301            2 
 1074000   0.82139623   -3.6007792    782.65651  0.060727538  0.061410611            3 
 1075000    0.8107717   -3.5848964    784.69258  0.060828882  0.061380161            3 
 1076000   0.83444387   -3.6191478     783.4786   0.06067833  0.061349383            6 
 1077000   0.83264641   -3.5627545    786.53646  0.060858593  0.061318804            3 
 1078000   0.83812994   -3.5823452    785.57574  0.060727871  0.061288325            5 
 1079000   0.80952273   -3.5962284    785.81836  0.060690327  0.061257692            4 
 1080000   0.80899196   -3.5677119    787.68579  0.060778224  0.061226777            3 
 1081000   0.84674073   -3.5990547     783.3267  0.060385962  0.061195837            4 
 1082000   0.81722507   -3.6151641    785.52025  0.060499095  0.061165079            5 
 1083000   0.84358878   -3.5909565    786.22039  0.060497106  0.061134029            4 
 1084000   0.83171986   -3.5910351    786.50933  0.060463509  0.061102682            3 
 1085000   0.81231347   -3.5874874    785.97442  0.060366699  0.061071522            2 
 1086000   0.80521687   -3.6026326    785.46979  0.060272391  0.061040232            5 
 1087000   0.81486012   -3.5621345    785.35134  0.060207861  0.061009011            8 
 1088000   0.81976051   -3.6117458    788.27491  0.060376448  0.060977775            5 
 1089000   0.81792163    -3.586908    787.50954  0.060262438  0.060946472            4 
 1090000   0.81179289   -3.6095457    786.74874  0.060148986  0.060915041            3 
 1091000   0.81501151   -3.5841401    786.86351  0.060102621  0.060883805            1 
 1092000   0.82021561   -3.6008868    788.90152  0.060203108  0.060852334            4 
 1093000   0.79841079   -3.5833707    789.98772  0.060230842  0.060820967            8 
 1094000   0.82437868   -3.6061196    789.15663   0.06011248  0.060789809            3 
 1095000   0.79491793   -3.5765104    789.41496  0.060077242  0.060758725            6 
 1096000   0.81283799   -3.5803279    792.63586  0.060267325  0.060727978            5 
 1097000   0.80284772    -3.610126    791.33277  0.060113398  0.060697187            3 
 1098000   0.82767428    -3.598892    790.99449  0.060032976  0.060666551            3 
 1099000   0.82638626   -3.6228647    792.00821  0.060055217  0.060635598            3 
 1100000   0.79626073   -3.6028835     791.9092  0.059993121  0.060604969            5 
 1101000   0.81378828   -3.6048793    793.52805   0.06006116  0.060574137            4 
 1102000   0.83676229   -3.6205549    791.83944  0.059878966  0.060542801            2 
 1103000   0.81537749   -3.6126353    790.09687  0.059693024  0.060511408            7 
 1104000   0.80528771   -3.6012204    792.30315  0.059805491  0.060479927            3 
 1105000   0.81516634   -3.6291487    792.86549  0.059793777  0.060448745            6 
 1106000   0.81943867    -3.629014    792.91549  0.059743482  0.060417675            5 
 1107000   0.80696993   -3.6214095     794.9403  0.059841938  0.060386737            6 
 1108000   0.80414002   -3.6226195    793.09308  0.059648998  0.060355602            5 
 1109000   0.80744488   -3.6130041    793.71885  0.059642234  0.060324098            4 
 1110000   0.82719855    -3.590451    796.59488   0.05980442  0.060293314            7 
 1111000   0.82143086   -3.6206128    793.61449  0.059527039  0.060262134            4 
 1112000   0.80048807   -3.6159942    795.72434   0.05963162   0.06023069            4 
 1113000   0.80695684   -3.6164233    794.99151  0.059523174  0.060199806            3 
 1114000   0.81108026   -3.6206211    793.61094  0.059366467  0.060168397            4 
 1115000   0.81296952   -3.5885945     796.1122  0.059500164  0.060137291            6 
 1116000   0.80742261   -3.5919354    795.32494  0.059388063  0.060106012            3 
 1117000   0.80604829   -3.6439811    797.11921  0.059468756  0.060074525            4 
 1118000   0.80606768   -3.6179859    795.00519   0.05925799  0.060043156            7 
 1119000   0.81068656   -3.6041187    797.39626  0.059383099  0.060012317            3 
 1120000   0.81307408   -3.6056782    796.17934  0.059239534  0.059981378            6 
 1121000   0.80680703   -3.6178096     797.9783  0.059320421  0.059950303            5 
 1122000   0.82910311   -3.6321123    798.34864  0.059295056    0.0599194            5 
 1123000    0.7954924   -3.6185613    800.19331  0.059379141  0.059888689            3 
 1124000   0.81903602   -3.6290752    799.69796  0.059289588  0.059857567            3 
 1125000   0.80606645   -3.6169598    799.12164  0.059194196  0.059826183            4 
 1126000   0.80957616   -3.6292083    799.01502  0.059133734  0.059795664            3 
 1127000   0.80485476   -3.6125231    800.99879  0.059227949  0.059765139            3 
 1128000   0.80781759   -3.6157292    799.42659  0.059059293  0.059734875            3 
 1129000   0.79841647   -3.6012105    804.19247  0.059358759  0.059704502            2 
 1130000   0.80985381     -3.60063    804.95306   0.05936232  0.059674102            3 
 1131000   0.79816529   -3.6034719    801.14804  0.059029476  0.059643424            5 
 1132000   0.79592831   -3.6175853    806.05677   0.05933869  0.059612766            3 
 1133000    0.7814809   -3.5958397    802.40548  0.059017761  0.059582191            3 
 1134000   0.80090281   -3.5973724    803.47886  0.059044596  0.059551676            3 
 1135000   0.80664835   -3.6571616    803.66335   0.05900612  0.059521035            2 
 1136000   0.80960657   -3.6391049    804.00006  0.058978878  0.059490312            4 
 1137000   0.79872179    -3.642846    800.46794  0.058668128  0.059459504            3 
 1138000   0.80583796    -3.604879    805.58392  0.058991207  0.059428481            5 
 1139000    0.7901013   -3.6285091    807.42266  0.059073944   0.05939767            3 
 1140000   0.77759286   -3.6258659    805.70466  0.058896539  0.059367006            3 
 1141000   0.79926379   -3.6681855    804.65851  0.058768515  0.059336032            4 
 1142000   0.81292995   -3.6047332    806.44011   0.05884706  0.059305515            5 
 1143000   0.80877919   -3.6552779      802.245   0.05848972  0.059274612            3 
 1144000   0.77936766   -3.6137047    807.05181  0.058788739   0.05924345            3 
 1145000   0.78902492   -3.6304533     806.7364   0.05871444  0.059212575            5 
 1146000   0.77842974   -3.6272967    803.39611   0.05842031  0.059181902            4 
 1147000   0.80503991   -3.6387703    805.40139  0.058515068  0.059150638            4 
 1148000   0.79178977   -3.6502349    805.28112  0.058455366  0.059119691            4 
 1149000   0.79659433   -3.6328115    805.94505  0.058452643  0.059088874            5 
 1150000   0.78494893   -3.6272267    808.17664  0.058563525  0.059057922            5 
 1151000   0.79681139   -3.6527713     808.5375   0.05853877  0.059027146            4 
 1152000   0.80198654   -3.6468036    805.30483  0.058254111  0.058995813            4 
 1153000   0.79204293   -3.6414193    806.56077  0.058294361  0.058964586            7 
 1154000   0.79613161   -3.6312075    808.82916  0.058407651  0.058933477            4 
 1155000   0.77624868   -3.6463845    809.12866  0.058378691  0.058902241            4 
 1156000   0.78275703   -3.6355716    807.00304   0.05817496  0.058871231            9 
 1157000   0.78849338   -3.6412233    807.01989  0.058125892  0.058840292            2 
 1158000   0.80122002   -3.6350588    811.60314  0.058405522  0.058809265            5 
 1159000   0.79384527    -3.676778    807.21513  0.058039627  0.058778139            4 
 1160000   0.78007665   -3.6477983    810.22307   0.05820568  0.058747397            3 
 1161000   0.81105655   -3.6496654    809.95374  0.058136215  0.058716382            4 
 1162000   0.79897402   -3.6426529    810.52719  0.058127309  0.058685802            2 
 1163000    0.7841405   -3.6708426    813.10383  0.058261954  0.058655332            3 
 1164000   0.76517186   -3.6409847    812.97962  0.058203009  0.058624647            3 
 1165000   0.78076931   -3.6237406    816.02173  0.058370653  0.058593953            6 
 1166000   0.77734996   -3.6314803     814.9001   0.05824043  0.058563694            2 
 1167000   0.76612912   -3.6358195    814.70592  0.058176658  0.058533346            4 
 1168000   0.78648605   -3.6602082    815.38087  0.058175005  0.058503574            4 
 1169000   0.79869256   -3.6428577    814.87153  0.058088931  0.058473541            6 
 1170000   0.79482989   -3.6434534    814.75519  0.058030996  0.058443443            4 
 1171000   0.79086459   -3.6778352     814.3062  0.057949488  0.058412786            6 
 1172000   0.78099899   -3.6679069    814.61293  0.057921852  0.058382275            6 
 1173000    0.7840563    -3.637086    813.92379  0.057823515  0.058351801            4 
 1174000   0.78296833   -3.6513589    813.23554  0.057725408  0.058320996            5 
 1175000   0.78218212   -3.6330752    814.59783  0.057772896  0.058290675            4 
 1176000   0.78026105   -3.6604257    815.57883  0.057793284  0.058260526           12 
 1177000   0.78886234   -3.6455654    816.64769  0.057819859  0.058230476            4 
 1178000   0.78574497   -3.6452216    814.84177  0.057643023  0.058200239            6 
 1179000   0.77997305   -3.6580568    816.49962   0.05771131  0.058169905            6 
 1180000   0.78713605   -3.6715777    818.45548  0.057800528  0.058139838            6 
 1181000   0.78244347    -3.689549    818.62771  0.057763739   0.05811013            4 
 1182000   0.79301691    -3.641194    817.69263  0.057648945  0.058080066            5 
 1183000   0.77445492   -3.6805634    818.38443  0.057648946  0.058050022           10 
 1184000   0.78200588   -3.6610348    819.64503   0.05768898  0.058020082            4 
 1185000   0.77529326   -3.6674145    818.95427   0.05759172  0.057989734            6 
 1186000   0.77705776   -3.6506571    818.45074  0.057507781  0.057959146            5 
 1187000   0.77729238   -3.6660974    818.52558  0.057464587  0.057928767            5 
 1188000   0.78113116   -3.6701594    816.57332  0.057279273  0.057898631            4 
 1189000   0.77130787   -3.6680824    818.84442  0.057390274  0.057868435            2 
 1190000   0.76184648    -3.645675    821.90743  0.057556543  0.057838573            6 
 1191000   0.77962239   -3.6522374    821.24102  0.057461589  0.057808418            4 
 1192000   0.77840386   -3.6788288    822.90417  0.057529654  0.057778397            5 
 1193000   0.79100408   -3.6582573    822.26085  0.057436494  0.057748667            4 
 1194000   0.77961641    -3.664935    817.95953  0.057088186  0.057718764           10 
 1195000   0.76794124   -3.6629669    822.44845  0.057353448  0.057688964            7 
 1196000   0.76937025   -3.6765283    823.25494  0.057361688  0.057659121            2 
 1197000   0.76392873   -3.6723743    825.40602  0.057463522  0.057629289            4 
 1198000   0.77854864   -3.6752256    824.46752  0.057350273  0.057599519            5 
 1199000   0.78168818   -3.6480365    822.35601  0.057155686  0.057569605            5 
 1200000   0.78913002   -3.6535912    822.89683  0.057145613  0.057539336            7 
 1201000   0.76432045   -3.6632474    823.48143  0.057138595   0.05750926            4 
 1202000    0.7896274   -3.6641271    822.24462  0.057005312  0.057479252            3 
 1203000   0.77309068   -3.6745392    826.59119  0.057259019  0.057449333            4 
 1204000    0.7697923   -3.6911489    825.10119  0.057108333   0.05741972            5 
 1205000   0.78473182   -3.6694971    823.04985  0.056919077  0.057389639            2 
 1206000   0.79077338    -3.674961    825.58871  0.057047313  0.057359482            6 
 1207000   0.76734263   -3.6752591    823.36819  0.056846741   0.05732935            2 
 1208000   0.78453092   -3.6928011    822.99212  0.056773739  0.057299106            4 
 1209000   0.76180688   -3.6620598    826.43685  0.056964216  0.057269094            5 
 1210000   0.77375736   -3.6801915    824.83203  0.056806614  0.057239167            5 
 1211000   0.76447077   -3.6559123    829.38998  0.057073354  0.057209146            2 
 1212000   0.78250238   -3.6560441    828.34467  0.056954392  0.057179675            4 
 1213000   0.76148278    -3.673752    828.78401  0.056937621  0.057150331            4 
 1214000   0.76341652   -3.6958691    826.94765  0.056764666  0.057120447            4 
 1215000   0.76249755   -3.6827638    828.98269  0.056857523  0.057090617            5 
 1216000   0.74032846   -3.6681644    829.48103  0.056844917  0.057060817            8 
 1217000   0.76996429   -3.6784414    828.86469  0.056756005   0.05703102            5 
 1218000    0.7739026    -3.676051    829.85271  0.056777005  0.057001516            4 
 1219000   0.76369793   -3.6866872    831.08189  0.056814458  0.056972006           10 
 1220000   0.77307446   -3.6567421    831.54975  0.056799846  0.056942619            3 
 1221000   0.76018783   -3.6682718    830.14142  0.056657208  0.056913039            4 
 1222000   0.76221251   -3.6922029    830.80328  0.056655979  0.056883531           13 
 1223000    0.7716806   -3.6830849    830.42874  0.056584133  0.056853981            6 
 1224000   0.76394099   -3.6976833    831.97964  0.056643494  0.056824336            5 
 1225000   0.75755143   -3.6628774    833.72452  0.056715954  0.056794585            5 
 1226000   0.77017762   -3.6858814    832.45837   0.05658363  0.056765271            7 
 1227000    0.7633241   -3.6915558    832.18797   0.05651915   0.05673558            5 
 1228000   0.76454278   -3.6981149    827.85676  0.056179205   0.05670587            4 
 1229000   0.78952863   -3.6903481    835.50167  0.056651863  0.056675974            9 
 1230000   0.75128045   -3.6658566    832.11371  0.056376268   0.05664659           12 
 1231000   0.76930379   -3.6933492    829.42486  0.056148447  0.056617322            4 
 1232000   0.74304687   -3.6868357    834.86254  0.056470681  0.056587656            6 
 1233000    0.7656941   -3.6985846    831.53656  0.056200092  0.056558331            9 
 1234000   0.76291006   -3.6970199    835.60816  0.056429508  0.056529063            7 
 1235000   0.75524524   -3.6892769    832.93552  0.056203477  0.056499691            3 
 1236000    0.7640559   -3.6820215    837.20509  0.056445866   0.05647013            3 
 1237000   0.76045448   -3.6799421     835.2288  0.056267098  0.056440895            5 
 1238000   0.77468849   -3.6854466    832.58797  0.056043886  0.056411213           12 
 1239000   0.76865564   -3.6759222    833.61881  0.056067985  0.056381805            4 
 1240000   0.76283237   -3.6975204    836.59542   0.05622281  0.056352563            2 
 1241000      0.76174   -3.7042102    835.88997  0.056130135  0.056323221            4 
 1242000   0.74368731   -3.6992756    834.83424  0.056014106  0.056293875            4 
 1243000   0.74766869   -3.6934565    836.31525  0.056068333  0.056264603            4 
 1244000   0.76400912   -3.7277232    836.60369  0.056042584  0.056235118            4 
 1245000   0.75878794    -3.721487    835.18914  0.055902888  0.056205933            5 
 1246000   0.75901255   -3.7005249    837.58426  0.056018209  0.056176456            8 
 1247000   0.76174829   -3.6726403    836.00959  0.055868056  0.056147499            7 
 1248000   0.74790838   -3.6953739    837.91546  0.055950552  0.056118309            6 
 1249000   0.77194886   -3.7112488    837.54192  0.055880833  0.056089358            5 
 1250000   0.76094443   -3.6828976    840.64072  0.056042714  0.056060854            4 
 1251000   0.75903558   -3.7144438    839.47815  0.055920474  0.056032467            5 
 1252000    0.7586803   -3.6937838    837.75039  0.055760809  0.056003603            7 
 1253000   0.75030185   -3.6906431    840.07907   0.05587118  0.055974625            5 
 1254000   0.74231688   -3.6862287    840.25861  0.055838557  0.055945539            3 
 1255000   0.74801053   -3.7063206    840.50694  0.055810554  0.055916886            6 
 1256000    0.7537617    -3.695641    841.97998  0.055863852  0.055888162            4 
 1257000   0.75364727   -3.6973733    843.39842  0.055913446  0.055859494            4 
 1258000   0.73961069   -3.7043683    841.44305   0.05573947  0.055830867            8 
 1259000   0.74193082   -3.7114171     840.0932  0.055605851  0.055802255            5 
 1260000   0.74542855   -3.7006738    842.58366  0.055726433  0.055773328            4 
 1261000   0.76319107   -3.6970199    840.96009  0.055574947  0.055744681            5 
 1262000   0.74235015   -3.7139949    840.41045  0.055494615  0.055715482            4 
 1263000   0.74237739   -3.7064436    841.70544  0.055536121   0.05568677            4 
 1264000   0.74427492   -3.7208524    841.23942   0.05546146  0.055657796           10 
 1265000   0.74808175   -3.7028239    844.63012  0.055640983  0.055629146            6 
 1266000   0.74455293   -3.7216308    843.30451  0.055509775  0.055600321            9 
 1267000   0.75664446   -3.7075613    842.41759  0.055407629  0.055571506            5 
 1268000   0.74536436   -3.7074634     846.3592  0.055622976  0.055542938            4 
 1269000   0.74493831   -3.7036714    844.51907  0.055458305  0.055514324            5 
 1270000   0.73223578   -3.6913295    848.30929  0.055663339  0.055485798            4 
 1271000    0.7441526   -3.7323963    844.52345  0.055371325  0.055457344            3 
 1272000   0.74755202   -3.6897781    846.25882  0.055441484  0.055428578            8 
 1273000   0.74628441   -3.7414684    849.05913  0.055581247  0.055400187            6 
 1274000   0.74934443   -3.6976925    844.89985  0.055265558  0.055371447            9 
 1275000   0.74920072   -3.7163784    845.10813  0.055235826  0.055342757            4 
 1276000   0.75240039   -3.7074311    847.57292  0.055353508  0.055314327            7 
 1277000   0.74546172   -3.7337431    847.55762  0.055309164  0.055285745            4 
 1278000   0.74384491   -3.7150644    848.31279  0.055315127  0.055257413            4 
 1279000   0.73305576    -3.715277    848.99916  0.055316599  0.055229085           11 
 1280000   0.74859573   -3.7554244    846.18571  0.055090215  0.055200391            5 
 1281000   0.73152649   -3.7313587     847.5886  0.055138473  0.055171765            4 
 1282000   0.73838917   -3.7392607    849.64975  0.055229443  0.055143369            5 
 1283000   0.74148099   -3.7299354    847.01844  0.055015487  0.055115007            7 
 1284000   0.74454408    -3.719716    850.37553   0.05519052  0.055086721            3 
 1285000   0.73164138   -3.7371726    845.87618  0.054855783   0.05505839            9 
 1286000   0.74460215   -3.7336284     845.5123  0.054789548  0.055029509            7 
 1287000    0.7414204   -3.7260176    848.28878  0.054926754  0.055000828            5 
 1288000   0.73306036   -3.7382358    849.36832  0.054953954  0.054972125            5 
 1289000   0.72672926   -3.7264921    850.26282   0.05496915  0.054943372            7 
 1290000   0.75159207   -3.7181492    849.10895     0.054852  0.054914893            3 
 1291000   0.73361672   -3.7039467    848.56414  0.054774344  0.054886351            6 
 1292000   0.75146304    -3.735249    850.03348  0.054826721  0.054857668            6 
 1293000   0.73860049   -3.7272069    852.74335  0.054958968   0.05482907            6 
 1294000   0.74204654   -3.7333881    852.88533  0.054925639  0.054800687            7 
 1295000   0.74084992   -3.7378119    852.00015  0.054826264   0.05477231            6 
 1296000   0.72145621   -3.7342357    850.59356  0.054693516  0.054743668            6 
 1297000   0.74220274   -3.7398417    850.30223  0.054632629  0.054715105           11 
 1298000   0.74449483   -3.7288118    849.61983  0.054546727  0.054686404            8 
 1299000   0.74211449   -3.7209266    849.91264   0.05452352     0.054658            7 
 1300000   0.73387487   -3.7248144    853.54601  0.054714488  0.054629763            2 
 1301000   0.72321288   -3.7144558    855.27882  0.054783424  0.054601579            3 
 1302000   0.75161021   -3.7455276    852.57239  0.054568125  0.054573351            6 
 1303000   0.73382094   -3.7346745    852.31293  0.054509652  0.054544805            4 
 1304000   0.73716576   -3.7439293    849.98187  0.054318882  0.054516421           11 
 1305000    0.7283863   -3.7483614    853.10124  0.054476452  0.054488017            6 
 1306000   0.74720852     -3.74888    857.44942  0.054712188  0.054459579            8 
 1307000   0.73928791   -3.7569018    854.30379  0.054469765  0.054431378            4 
 1308000   0.73865689   -3.7512944    854.63695  0.054449347  0.054403215            4 
 1309000   0.73729655   -3.7381878    855.64804  0.054472119  0.054375271            5 
 1310000    0.7259703   -3.7230134    855.34055  0.054410976  0.054347203            4 
 1311000   0.73115844   -3.7255672    854.89458  0.054341125  0.054319081            3 
 1312000   0.74624109   -3.7448992    855.77846  0.054355848  0.054291044            6 
 1313000   0.73080531   -3.7262506    853.90181  0.054195342  0.054263087            6 
 1314000   0.72046099   -3.7162786    856.96173  0.054348156  0.054235346            5 
 1315000   0.71402151   -3.7600476    856.63833  0.054286333  0.054207312           10 
 1316000   0.73799704   -3.7469733    857.17094  0.054278808  0.054179361            4 
 1317000   0.72429779   -3.7475462    857.16024  0.054236917   0.05415151            7 
 1318000   0.71686878   -3.7526227      858.585   0.05428585  0.054123722            4 
 1319000   0.73511828   -3.7440362    858.40391  0.054233252  0.054095719            2 
 1320000   0.72652411   -3.7544543    856.32242  0.054060759  0.054067815            4 
 1321000   0.74508262   -3.7326926    858.46403  0.054154935  0.054039903            5 
 1322000   0.72333505   -3.7273921    859.11568  0.054155048  0.054012078            5 
 1323000   0.71348324   -3.7660512    858.25773  0.054060074  0.053984049            4 
 1324000   0.71210466   -3.7375116    859.34249  0.054087518  0.053956039            6 
 1325000   0.72693499   -3.7531293    857.51906  0.053932016  0.053927902            5 
 1326000   0.72131642   -3.7630307    859.53002  0.054017724   0.05389996            6 
 1327000   0.72752542   -3.7598071     855.8296  0.053744637   0.05387182            5 
 1328000   0.72595702   -3.7705657    858.30129  0.053859268  0.053843945            5 
 1329000   0.73098388     -3.75492    858.89107  0.053855723  0.053815985            4 
 1330000   0.72317307   -3.7454093    859.92126  0.053879778  0.053788082            3 
 1331000   0.70988812   -3.7629402    861.31109  0.053926314   0.05376034            2 
 1332000   0.72926451   -3.7634876    862.85238  0.053982256  0.053732326            7 
 1333000   0.72382358     -3.73944    861.13473  0.053834379  0.053704472            3 
 1334000   0.71930133   -3.7842757    858.42818  0.053624949  0.053676687            4 
 1335000   0.71787631   -3.7436383    862.60912  0.053845763  0.053648543            7 
 1336000   0.73271816   -3.7445238    860.13488  0.053651128    0.0536204            6 
 1337000   0.71608159   -3.7755312    859.16974  0.053550844  0.053592553           11 
 1338000   0.72549855    -3.744953    862.43261  0.053714039   0.05356425           11 
 1339000   0.73086931   -3.7427468    860.87444   0.05357695  0.053536486            6 
 1340000   0.71103034   -3.7592654    861.79371  0.053594136  0.053508956            5 
 1341000   0.72243587   -3.7369082    862.80836  0.053617223  0.053481307            4 
 1342000   0.69653533   -3.7688702    863.08119  0.053594212  0.053453453            4 
 1343000   0.72352943   -3.7648932    862.69294  0.053530215  0.053425757            7 
 1344000   0.70652541   -3.7763027    863.39379  0.053533841  0.053397809            5 
 1345000   0.70788685   -3.7658747     863.2017  0.053482138  0.053369851            7 
 1346000   0.71775906   -3.7500796    863.79903  0.053479385  0.053341997            4 
 1347000   0.70944299   -3.7810812    863.44205  0.053417598  0.053314244            6 
 1348000   0.70711411   -3.7826785    864.23883  0.053427227  0.053286188            5 
 1349000      0.71664   -3.7791169    863.61982  0.053349384  0.053258352            4 
 1350000   0.73039945   -3.7450214    866.74405  0.053502719  0.053230473            7 
 1351000    0.7115438    -3.767037     865.1771  0.053366463  0.053202725            5 
 1352000   0.71595395    -3.773316    867.79155  0.053488138   0.05317472            9 
 1353000   0.71124406   -3.7686801    861.76571  0.053077464  0.053146834            9 
 1354000   0.71190942   -3.7841908    864.21334  0.053188906  0.053118715            4 
 1355000   0.71426132   -3.7490575    866.72297  0.053303996  0.053090741            4 
 1356000   0.72038836   -3.7927145    865.43036  0.053185248  0.053062731            8 
 1357000   0.70828705    -3.785151    865.87249  0.053173206  0.053034637            3 
 1358000   0.70652465   -3.7805114    866.98113  0.053202082   0.05300637            6 
 1359000   0.70826856   -3.7901505    863.07666  0.052923514  0.052978156            7 
 1360000   0.73120215    -3.792046    864.64619  0.052980771  0.052949851            4 
 1361000   0.70322887   -3.7881435    864.43156  0.052928702  0.052921527            5 
 1362000   0.69364476   -3.7650622    865.15825  0.052934303  0.052893196            7 
 1363000   0.70703019   -3.7751425    863.37175  0.052786241  0.052864688            6 
 1364000   0.70401288   -3.7522926    864.90641  0.052841301  0.052836209            6 
 1365000   0.70927291   -3.7926516    863.63145  0.052724753  0.052807645            3 
 1366000   0.71503644   -3.7856539    862.96441  0.052645462  0.052779074           13 
 1367000   0.70747088   -3.7477621    865.93671  0.052788144  0.052750663            2 
 1368000   0.70058121   -3.7555962    865.36329  0.052714625  0.052722245            7 
 1369000   0.69391664   -3.7720405    863.63763  0.052571075  0.052693714            8 
 1370000   0.70910863   -3.7695807    865.70276  0.052658318  0.052665264            5 
 1371000   0.70705983   -3.7792505     864.2805  0.052533461  0.052636595            4 
 1372000   0.70665511   -3.7918779     865.7959  0.052587215  0.052607891            8 
 1373000   0.69892354   -3.7694152    865.09604  0.052506436  0.052579458            8 
 1374000   0.71426921   -3.7830538    864.23194  0.052415814  0.052550916            3 
 1375000   0.70240005   -3.7831949     868.6211  0.052643703  0.052522364            7 
 1376000   0.70011755   -3.7750403    870.66946  0.052729497   0.05249386            9 
 1377000   0.69177515   -3.7767887    866.53589  0.052441049  0.052465464            4 
 1378000   0.72237128   -3.7991324    867.87003  0.052483674  0.052436826            8 
 1379000   0.70050492   -3.7897437    867.50173  0.052423358  0.052408301           12 
 1380000   0.72455061   -3.8019748    866.43562  0.052320991  0.052379722            4 
 1381000    0.7106127   -3.7780484    870.37321   0.05252071  0.052351542            4 
 1382000   0.70053995   -3.7661685    870.95323  0.052517681  0.052323644            4 
 1383000   0.69905377   -3.8003065    869.53781  0.052394421  0.052295689            5 
 1384000   0.70182288   -3.7783507    870.77813  0.052431246  0.052267665            8 
 1385000   0.68998321   -3.7955492    871.17505  0.052417271  0.052239522           10 
 1386000   0.68689605   -3.7919759    870.79616  0.052356672  0.052211806            4 
 1387000   0.71264774   -3.7738112    872.34247  0.052411828     0.052184            5 
 1388000   0.70106097   -3.7861288    869.71734  0.052216459  0.052156363           11 
 1389000   0.69459567   -3.7763092    874.09628  0.052441582  0.052129039            5 
 1390000   0.68438394    -3.790828    872.16462  0.052288047  0.052101271            5 
 1391000   0.71643989   -3.7948453    870.71817  0.052163801  0.052073431            6 
 1392000   0.71970717   -3.7711252    874.01851  0.052323905  0.052045451            5 
 1393000   0.69331489   -3.7931616    873.11098  0.052232052    0.0520177           11 
 1394000   0.69384106   -3.7934323    871.95925  0.052125732  0.051989872            3 
 1395000   0.69564001   -3.8010503    873.09021  0.052155926  0.051961617           12 
 1396000   0.67416617   -3.7786218    872.67086  0.052093533  0.051933629            4 
 1397000   0.69386263   -3.8040297    872.31301  0.052034897  0.051905865            3 
 1398000   0.67957452   -3.8095334    872.92188   0.05203397   0.05187795            9 
 1399000   0.70320158   -3.8120637    870.09258  0.051828245  0.051850089            5 
 1400000   0.68475463   -3.8119705    870.02773  0.051787365  0.051821921            6 
 1401000   0.69282187   -3.7892374    874.34557  0.052007231  0.051793925            4 
 1402000   0.69601281   -3.8143547    873.73012  0.051933554  0.051766139            3 
 1403000   0.67902268   -3.7833478     872.9539  0.051850434  0.051738059            5 
 1404000   0.69635782   -3.7978141    874.74857  0.051920024  0.051710237            3 
 1405000   0.70098394   -3.7942184    875.29925  0.051915733  0.051682535            5 
 1406000   0.68750241    -3.781984    874.43936  0.051827843  0.051654693            6 
 1407000   0.70259102   -3.8198733    872.61004   0.05168266  0.051626713            9 
 1408000   0.69373402   -3.7850988    872.10739  0.051616204  0.051598748           13 
 1409000   0.69384629    -3.818445    873.62879  0.051669552  0.051570597            7 
 1410000   0.70100199   -3.7851789    875.04173  0.051716414  0.051542669            3 
 1411000   0.69489416   -3.8238016    875.77385  0.051723001  0.051514745            6 
 1412000   0.69686169   -3.8319049    876.61995  0.051736305  0.051486669            7 
 1413000   0.69003694   -3.8098228     875.3345  0.051623879  0.051458686            6 
 1414000   0.70537823   -3.8425298    875.64229   0.05160551  0.051430973            5 
 1415000   0.69108945   -3.8003089    876.82667  0.051638791  0.051403251            7 
 1416000   0.68692118   -3.7962007    873.54648  0.051409279  0.051375491            5 
 1417000    0.6777114   -3.8146584      875.968  0.051515408  0.051347479            4 
 1418000   0.68319791   -3.8106374    876.27987  0.051497406  0.051319414            6 
 1419000   0.69754756   -3.8258639    876.25676  0.051459758  0.051291397            7 
 1420000   0.68060691   -3.7877503    878.64067   0.05156342  0.051263559            6 
 1421000   0.69163587   -3.7881451     878.1127   0.05149617   0.05123595            7 
 1422000   0.69526242   -3.8269861    876.54495  0.051368082  0.051208174            4 
 1423000   0.68858516   -3.8419923    877.86201  0.051409113  0.051180376            6 
 1424000   0.68380362   -3.8167653     879.2296  0.051453043  0.051152628            7 
 1425000    0.6759442   -3.8234383    875.91391  0.051223036  0.051124815            9 
 1426000   0.68974351   -3.8222545    879.56854  0.051400686  0.051096891           10 
 1427000   0.69251945    -3.813417    881.99544  0.051506391  0.051069365            8 
 1428000    0.6918116   -3.8218933    879.16247  0.051304999  0.051041945            6 
 1429000   0.68315387   -3.8230878    879.27458  0.051275634  0.051014263            7 
 1430000   0.68479955   -3.8043618    877.62618  0.051143717  0.050986558            4 
 1431000   0.68353347   -3.8040949    880.25924  0.051261312  0.050958859            7 
 1432000   0.67535786   -3.8310725    877.79396  0.051082051  0.050931359           10 
 1433000   0.69456542   -3.8380787    878.09654     0.051064   0.05090369            6 
 1434000   0.67099555   -3.8207077    880.34607  0.051159116  0.050876253            6 
 1435000    0.6769633   -3.8220299     878.1168  0.050994007  0.050848722           12 
 1436000   0.67403016   -3.8332993    877.79008  0.050939536  0.050821131            6 
 1437000   0.68060666   -3.8312638    879.62606  0.051010558   0.05079339            7 
 1438000   0.67095774   -3.8228389    880.75522  0.051040521  0.050765615            4 
 1439000   0.68457071   -3.8380931    879.28018   0.05091963  0.050737904            9 
 1440000   0.68807055   -3.8262587    879.19667  0.050879437  0.050710024            7 
 1441000   0.68199642   -3.8295559    878.04306  0.050777415  0.050682335            6 
 1442000    0.6825069   -3.8541616    877.63337  0.050718526    0.0506546            7 
 1443000   0.67000431   -3.8327701    879.56737  0.050795066   0.05062668            5 
 1444000   0.67431082   -3.8241643    875.39321  0.050518999  0.050598882            8 
 1445000   0.67589114   -3.8283073     878.9216   0.05068752   0.05057097            6 
 1446000   0.67085926   -3.8241834     878.0031  0.050599533  0.050542964           10 
 1447000   0.68117852    -3.841888     878.0066  0.050564766  0.050514998            7 
 1448000   0.67831041   -3.8299988    881.05535  0.050705303  0.050487158           12 
 1449000   0.66803037   -3.8298816    880.73919  0.050652127  0.050459429            5 
 1450000   0.68151313   -3.8451239    878.97867  0.050516015  0.050431246            9 
 1451000   0.66918084   -3.8298505    880.19509  0.050551062   0.05040339            8 
 1452000   0.68566964   -3.8447497    882.31921  0.050638155  0.050375369            8 
 1453000    0.6842166   -3.8616064    877.74958  0.050341224  0.050347104            4 
 1454000   0.68332995   -3.8484559    877.75979  0.050307186   0.05031889            3 
 1455000   0.67540213    -3.860594    879.32864  0.050362465  0.050290879            3 
 1456000   0.67372037   -3.8499952    879.30237  0.050326372  0.050262838           12 
 1457000   0.67854103   -3.8388143    881.33637  0.050408166  0.050234856           11 
 1458000   0.67042645   -3.8475462    880.31567  0.050315253  0.050206916            6 
 1459000   0.66369051   -3.8221815    882.08317  0.050381721  0.050178812            9 
 1460000   0.67416296   -3.8655393    880.12461  0.050235423  0.050150618            5 
 1461000    0.6669043   -3.8475613    878.00632  0.050080214  0.050122454            6 
 1462000   0.67444604   -3.8424036     880.6216   0.05019503  0.050094177            4 
 1463000    0.6711548   -3.8485938    880.45177  0.050151047  0.050066095            7 
 1464000   0.67557967   -3.8499849    881.43038  0.050172494  0.050038028           11 
 1465000   0.67286696   -3.8445257    882.01035  0.050171237  0.050009997            5 
 1466000   0.66217475    -3.848309    880.21379   0.05003489  0.049982045            7 
 1467000   0.67549587   -3.8579546    882.19887  0.050113546  0.049953995            6 
 1468000   0.66001721   -3.8428822     882.4859  0.050095703  0.049926148           15 
 1469000   0.66902529   -3.8371897    884.88104  0.050197472  0.049898378            8 
 1470000   0.66141036   -3.8710854    884.38709  0.050135322    0.0498707            6 
 1471000   0.66026382   -3.8506732    881.83416  0.049956615  0.049843027            9 
 1472000   0.67049978   -3.8442186    884.16269    0.0500545   0.04981526            9 
 1473000   0.66503873   -3.8499457    882.80265  0.049943576  0.049787527            6 
 1474000   0.66815364   -3.8483183    883.39682  0.049943285  0.049759724            5 
 1475000   0.65449214   -3.8455411    883.21221  0.049898995  0.049732052            5 
 1476000    0.6741944   -3.8463551    883.08654  0.049858093  0.049704407            7 
 1477000   0.66176785   -3.8755145    884.63685  0.049911806  0.049676657            6 
 1478000   0.67930401   -3.8471986    884.16615  0.049851497  0.049649006            8 
 1479000   0.65555562   -3.8547958    882.13097   0.04970312  0.049621256            8 
 1480000   0.66491124   -3.8635585    883.69865  0.049757807   0.04959352            7 
 1481000   0.67345779   -3.8735454     885.7055  0.049837131  0.049565736           14 
 1482000   0.65766798   -3.8842434    881.93571  0.049591526  0.049537834            8 
 1483000   0.65938509   -3.8481928    883.69952  0.049657199  0.049509995           11 
 1484000   0.66177705   -3.8401728    885.05398  0.049699797  0.049482428            6 
 1485000   0.66705346   -3.8742274    885.00884  0.049663796  0.049454827            6 
 1486000    0.6534449   -3.8897092     884.7444  0.049615545  0.049427023            6 
 1487000   0.64364952   -3.8642311    885.61327  0.049630872  0.049399289            5 
 1488000   0.67093842   -3.8557571     886.1903  0.049629833  0.049371511            7 
 1489000   0.66095707   -3.8685616    884.48709   0.04950118  0.049343681            8 
 1490000   0.65526297   -3.8434993    886.86202  0.049600784  0.049316221            7 
 1491000   0.66424576   -3.8645892    886.56931  0.049551158   0.04928864           11 
 1492000   0.65752712   -3.8683622    884.45895  0.049400075  0.049260685            5 
 1493000   0.65701888   -3.8657789    884.88843  0.049390959  0.049232976            7 
 1494000   0.65519865   -3.8471767    889.67957  0.049625143  0.049205501            6 
 1495000   0.65204241   -3.8642584     887.0548  0.049445641  0.049178014            6 
 1496000   0.65717996   -3.8614924     885.3926  0.049319998  0.049150407            8 
 1497000    0.6475536   -3.8748473    884.31518  0.049227075  0.049122947           11 
 1498000   0.65353139   -3.8899875    885.86038  0.049280173  0.049095331            8 
 1499000   0.64425119   -3.8727587    886.00683  0.049255439  0.049067759            8 
 1500000   0.66228475   -3.8788272    886.61476  0.049256376  0.049039942            9 
 1501000   0.65561375   -3.8693811    887.28342  0.049260683  0.049012496            8 
 1502000   0.65575533   -3.8976653    885.63566  0.049136466  0.048984972           17 
 1503000   0.65468958   -3.8982108    887.23551  0.049192477  0.048957195            6 
 1504000   0.65267669   -3.9003253    885.49947  0.049063579  0.048929312           12 
 1505000   0.66131944   -3.8800987    886.19033  0.049069232  0.048901595           11 
 1506000   0.64612565   -3.8928097    888.42075  0.049160068  0.048873915            5 
 1507000   0.64561842   -3.9037691    889.28924  0.049175472  0.048846094           17 
 1508000    0.6549531   -3.8708452     886.6432   0.04899664  0.048818223            8 
 1509000   0.64705685   -3.8680667    887.63635  0.049019017  0.048790594            5 
 1510000   0.65349277   -3.8798852    888.04148  0.049008912  0.048762972            6 
 1511000   0.65293008   -3.8795336    886.35944   0.04888371  0.048735479            2 
 1512000   0.64214548   -3.8773863     887.8395  0.048932953  0.048707723           12 
 1513000   0.65275586   -3.8731049    888.24732  0.048923073  0.048680128            7 
 1514000   0.64205861   -3.8718382    887.61449  0.048855928  0.048652632            7 
 1515000    0.6506184   -3.8923507    887.72786  0.048829916  0.048625061            6 
 1516000   0.65257692   -3.8907926    886.85803  0.048749892  0.048597485            9 
 1517000   0.64980228   -3.9099406    886.70183  0.048709176  0.048569646            8 
 1518000   0.65270856   -3.8650911    889.13776  0.048810812  0.048542018           18 
 1519000   0.64000156     -3.89363    890.03516  0.048827911  0.048514322           12 
 1520000   0.63208504   -3.8984214    887.26654  0.048643999  0.048486636           10 
 1521000   0.65183069   -3.9026089    886.44266  0.048566878  0.048458898            3 
 1522000   0.62703127   -3.9023026    887.25776  0.048579597  0.048431258            7 
 1523000   0.67190615    -3.912307    889.03507  0.048644948  0.048403658           18 
 1524000   0.64211732   -3.9092433    888.29398  0.048572505    0.0483759            6 
 1525000   0.63738632   -3.9156573    886.50112  0.048442684  0.048348206            7 
 1526000   0.64529115   -3.9008787    890.08151  0.048606461  0.048320638            9 
 1527000   0.64869308   -3.8738432    889.05974  0.048518868  0.048293229           11 
 1528000    0.6485514   -3.8959251    890.53231  0.048567425  0.048265792           11 
 1529000   0.65106137   -3.8936995    889.07935  0.048456472  0.048238246            9 
 1530000   0.65653208   -3.8686194    889.95263  0.048472366   0.04821063            8 
 1531000   0.64745093     -3.87269    889.10663  0.048394657  0.048183252            5 
 1532000   0.64683213    -3.931143    887.06384   0.04825195  0.048155701            6 
 1533000   0.64290661   -3.8837688    892.17072  0.048498082  0.048128053           11 
 1534000   0.64627984   -3.9003457    887.20214  0.048196553  0.048100463           11 
 1535000   0.65417587   -3.9043848    890.15389  0.048325401  0.048072699           11 
 1536000   0.64084195   -3.8924767    889.10133  0.048236834  0.048045092            9 
 1537000   0.64777612   -3.8976618     891.0749  0.048312454  0.048017637            6 
 1538000   0.64361837    -3.880089    891.49057  0.048303564  0.047990317            6 
 1539000   0.64224596   -3.8796793    889.75936  0.048178436  0.047962807            4 
 1540000   0.64982647   -3.9152313    889.12495  0.048112822  0.047935265           14 
 1541000    0.6295272   -3.9136874     891.3653  0.048202752  0.047907826            7 
 1542000   0.63193357   -3.8934509    890.88389  0.048145476  0.047880338           11 
 1543000   0.64505003   -3.9023121    892.56918  0.048205292  0.047853015            5 
 1544000   0.64722683   -3.9206565    893.27786   0.04821232  0.047825593           12 
 1545000   0.63830851   -3.9193268    893.73454  0.048205747  0.047798329            8 
 1546000   0.64215947   -3.9024825    894.08345  0.048193373  0.047771135            6 
 1547000   0.65368052   -3.8958254    892.91523  0.048099291  0.047744033            8 
 1548000   0.63607748   -3.9295957    892.45867  0.048043641   0.04771676           25 
 1549000   0.64189445   -3.8820483     893.8951  0.048089902  0.047689463            6 
 1550000   0.62284226   -3.9056782    893.92252   0.04806035  0.047662255            5 
 1551000   0.63151837   -3.9143457    892.38465  0.047946736  0.047635148            6 
 1552000   0.65148899   -3.9315918     893.3277  0.047966479  0.047607744            9 
 1553000   0.63062551   -3.9118014    893.62529  0.047951561  0.047580613            7 
 1554000   0.63778393   -3.9014183    892.53547  0.047862262  0.047553464            6 
 1555000    0.6272843   -3.9115456    892.94381  0.047853366  0.047526375            8 
 1556000   0.62141891   -3.9095747    893.88575  0.047873059  0.047499496            5 
 1557000    0.6283744   -3.9118204    892.11074   0.04774731  0.047472491           10 
 1558000   0.64297464   -3.9039708    892.35766  0.047729871  0.047445361            5 
 1559000    0.6327201   -3.9182827    892.52311  0.047708099  0.047418397            5 
 1560000   0.63438184   -3.9194273    896.90994  0.047911856  0.047391439            7 
 1561000   0.64069133   -3.9229793    893.19139  0.047682649  0.047364465            9 
 1562000   0.62604707   -3.9357268    892.93854  0.047638633  0.047337435           11 
 1563000   0.63228213   -3.9187968    893.38594  0.047632008  0.047310455            5 
 1564000   0.63056223   -3.9191779    894.68561  0.047670802  0.047283457            5 
 1565000   0.64316311   -3.9105518    894.71354  0.047641828  0.047256457           11 
 1566000   0.63283371   -3.9376533    896.72439  0.047718412  0.047229331            9 
 1567000   0.62144631    -3.945104    893.40676  0.047511527   0.04720224            7 
 1568000   0.63327877   -3.9372017    893.89406  0.047507125  0.047174892            7 
 1569000   0.63499865   -3.9217476    895.82022  0.047579149  0.047147766           10 
 1570000   0.63446704    -3.944717    892.87816  0.047392684  0.047120588            6 
 1571000   0.63109134   -3.9026527    895.31281  0.047491662  0.047093585            4 
 1572000   0.63181454   -3.9371711    895.27031  0.047459198   0.04706668           10 
 1573000    0.6172233   -3.9121356    897.59894  0.047552391  0.047039979            4 
 1574000   0.62493165   -3.9114937    896.12519  0.047444154  0.047013088            5 
 1575000   0.62385899   -3.9378206     896.9773  0.047459116  0.046986353            6 
 1576000    0.6235531   -3.9315957    895.90701   0.04737241  0.046959474            8 
 1577000   0.61268218   -3.9590167    895.17372  0.047303621   0.04693256           23 
 1578000   0.62798235   -3.9425669    896.32479  0.047334431  0.046905677            7 
 1579000   0.64224532   -3.9184896     896.2599  0.047301029  0.046878941            4 
 1580000   0.63372397   -3.9286325    896.62841  0.047290528  0.046852198           11 
 1581000   0.63719081   -3.9134768    899.81787   0.04742873  0.046825554            7 
 1582000    0.6177934   -3.9341083    899.73782  0.047394533  0.046798919            8 
 1583000   0.62612383   -3.9316866    898.13672  0.047280308  0.046772063            4 
 1584000   0.62648215   -3.9355568    898.14773  0.047251038  0.046745257            5 
 1585000    0.6062539   -3.9466686    897.46278  0.047185215  0.046718642            8 
 1586000   0.61032322   -3.9338708    894.02709  0.046974942  0.046691964            6 
 1587000   0.62243858   -3.9319639    895.43237  0.047019133  0.046665256            9 
 1588000   0.62322181   -3.9163941    896.55071  0.047048211  0.046638609            8 
 1589000   0.62617087   -3.9339335    895.32851  0.046954505  0.046611802            4 
 1590000   0.62612215   -3.9361004    894.64216  0.046889002  0.046585071           14 
 1591000   0.60528461   -3.9144013    897.57667  0.047013234  0.046558344            8 
 1592000   0.62344522   -3.9357584    896.03686  0.046903102  0.046531442            4 
 1593000   0.61099374   -3.9579446    898.22933  0.046988352  0.046504647           15 
 1594000   0.62922966   -3.9263717     898.9716  0.046997679  0.046477998           17 
 1595000   0.61396064   -3.9226037    895.49518  0.046786582  0.046451403            8 
 1596000    0.6150475   -3.9383953     896.4925  0.046809341  0.046424782            7 
 1597000   0.62171862   -3.9265412    899.46333  0.046935052  0.046398249            6 
 1598000   0.62986684   -3.9334533    901.96585  0.047036183  0.046371452            4 
 1599000   0.62248591   -3.9585442    896.51787  0.046722841  0.046344732           12 
 1600000   0.62096979   -3.9293124    898.74867  0.046809827  0.046317963           17 
 1601000   0.62145349   -3.9461029    895.90327  0.046632484  0.046291123           15 
 1602000   0.60587323   -3.9489274    899.79688  0.046805914  0.046264385            4 
 1603000   0.61740503   -3.9485785    898.58527  0.046713728  0.046237647            7 
 1604000   0.61576603   -3.9508326    897.28352  0.046616974   0.04621111            3 
 1605000   0.61999909   -3.9463354    899.93936  0.046725823  0.046184366            9 
 1606000   0.60839419   -3.9443575    897.95067  0.046593538  0.046157758            7 
 1607000    0.6060121   -3.9383305    897.87293  0.046560513  0.046130939           12 
 1608000   0.60253048   -3.9439325    899.92154  0.046637725  0.046104344           11 
 1609000   0.62005876   -3.9549799    900.01549  0.046613605  0.046077663            6 
 1610000   0.62438696   -3.9564833    899.56428  0.046561298  0.046050935            5 
 1611000   0.61290804   -3.9504675    897.84732  0.046443582  0.046024278            7 
 1612000   0.60132997   -3.9604016    899.39258  0.046494653  0.045997541            6 
 1613000   0.61054475    -3.958605    899.20792  0.046456288  0.045970904            7 
 1614000   0.61737589    -3.968775    898.41378  0.046386502  0.045944353            5 
 1615000   0.60218325   -3.9633647    897.95982  0.046334356  0.045917657            5 
 1616000   0.60043731   -3.9433881    896.93161  0.046252661  0.045891058            8 
 1617000   0.60026315   -3.9375376    899.88715  0.046376373  0.045864522           11 
 1618000    0.6178746   -3.9649942    898.28947  0.046265424  0.045837758            8 
 1619000   0.60252714   -3.9530358    898.87082  0.046266771   0.04581109            6 
 1620000   0.60652549    -3.963711    900.87903  0.046341514  0.045784441           13 
 1621000   0.61394763   -3.9472954    898.58486  0.046194985  0.045757921            7 
 1622000   0.60438642   -3.9587289    897.55996  0.046113849  0.045731335           22 
 1623000   0.59959314   -3.9746623     897.8226  0.046098922  0.045704543           16 
 1624000   0.60713369   -3.9702084    900.07438  0.046186083  0.045677874           26 
 1625000   0.58787195   -3.9410475    902.98262  0.046306801  0.045651242           10 
 1626000   0.58871536   -3.9520024    899.02329  0.046075404  0.045624768           13 
 1627000   0.60267879   -3.9625655    900.95874  0.046146217  0.045598142            5 
 1628000   0.60175061   -3.9585252     900.1713  0.046077565  0.045571611           18 
 1629000   0.60838749   -3.9566355    901.38261  0.046111245  0.045545172            8 
 1630000   0.60207803   -3.9635321    898.65705  0.045943612  0.045518721           11 
 1631000   0.59186632   -3.9759698     897.8483  0.045874121  0.045492303           10 
 1632000   0.60527288   -3.9813677    898.88903  0.045899154  0.045465668            3 
 1633000   0.60186244   -3.9694679    900.43771  0.045950077  0.045439116           13 
 1634000   0.61200507   -3.9712638    902.15124  0.046009345  0.045412894           11 
 1635000   0.59405363   -3.9714594     903.6945  0.046059863   0.04538651           10 
 1636000   0.59984132   -3.9369578      902.838  0.045988081  0.045360171            9 
 1637000   0.61168112   -3.9714125    902.59765  0.045947752  0.045334051           10 
 1638000   0.59815297   -3.9578077     900.3803  0.045806893  0.045307899           11 
 1639000   0.60557711   -3.9650839    901.75147  0.045848661  0.045281757           11 
 1640000     0.596084    -3.979901    900.70351  0.045767455  0.045255602            4 
 1641000   0.59247092   -3.9530876    902.78324  0.045845178  0.045229558           15 
 1642000   0.60022962   -3.9775474    899.52583   0.04565194  0.045203493           13 
 1643000   0.59888787   -3.9671744    901.52855  0.045725733  0.045177407            9 
 1644000   0.60211251   -3.9775319    902.20851  0.045732386   0.04515135           13 
 1645000   0.59652049   -3.9839141    906.06183  0.045899789  0.045125281            9 
 1646000   0.59460671   -3.9636476    903.13836  0.045723894  0.045099277           11 
 1647000   0.59964923   -3.9713714    900.81246  0.045578449  0.045073241           18 
 1648000   0.58490606   -3.9818869    903.15484  0.045669237  0.045047199           12 
 1649000   0.59968026   -3.9807485    902.42298  0.045604557  0.045021166           12 
 1650000   0.60873992   -3.9918177    902.93126  0.045602589  0.044995087           17 
 1651000   0.61294042   -3.9681675     902.4623  0.045551297  0.044969136            9 
 1652000   0.59681952   -3.9860923    905.43271  0.045673563   0.04494309            5 
 1653000    0.5839263   -3.9933586    903.18882   0.04553281  0.044916885            9 
 1654000   0.60058635   -3.9954273    905.78098  0.045635882  0.044890854           15 
 1655000   0.59445078   -3.9647554    900.57795  0.045346322  0.044864759           15 
 1656000   0.60405424   -3.9867274    905.84315  0.045583894  0.044838788            8 
 1657000   0.59489467    -3.977811    905.19427  0.045523751  0.044812941            6 
 1658000   0.60473875   -3.9909419     903.7777  0.045425096  0.044786982           11 
 1659000   0.58863432   -3.9920523    903.45614  0.045381562  0.044761239           11 
 1660000   0.57829446   -3.9836413    905.28337  0.045445952  0.044735304            6 
 1661000   0.58244676   -3.9869595    904.93208  0.045400967  0.044709555           10 
 1662000   0.58538224   -3.9903324     902.7844  0.045265965  0.044683769            7 
 1663000   0.59807981   -3.9789888    903.92396  0.045295849  0.044657942           15 
 1664000   0.58496365   -4.0068441    904.54735  0.045299847  0.044632216           13 
 1665000   0.59141853   -3.9849016    903.29671  0.045210046  0.044606328            4 
 1666000   0.57901593   -3.9950042    902.47488  0.045141801  0.044580382           12 
 1667000   0.58604617   -4.0032796    904.86655  0.045234281  0.044554628           18 
 1668000    0.5728268   -3.9826856    907.98529  0.045362974  0.044528805            6 
 1669000   0.58907079   -3.9767423    904.02238  0.045137926  0.044502989            8 
 1670000   0.58808198   -4.0073905    904.43033  0.045131254  0.044477192           12 
 1671000   0.59001092   -3.9940448    904.16382  0.045090955  0.044451411           11 
 1672000   0.58431334   -3.9887108    905.26219   0.04511873  0.044425715           17 
 1673000   0.57771335   -3.9821004     905.4352  0.045100379  0.044399975           28 
 1674000   0.58201826    -3.992409    905.39805  0.045071588   0.04437418            7 
 1675000    0.5891552   -3.9700203    905.95795  0.045072535  0.044348356           14 
 1676000   0.57793362    -4.025304    904.83228  0.044989672  0.044322413           12 
 1677000    0.5723556   -4.0224073    903.32193  0.044887792  0.044296396            5 
 1678000    0.5869804   -4.0055933    902.97082  0.044843604  0.044270301           11 
 1679000   0.58262321   -4.0108366    903.72027  0.044854093  0.044244181           16 
 1680000   0.58489805   -3.9962293    905.12802  0.044897223  0.044218333            8 
 1681000   0.58825167   -4.0130663    904.50582   0.04483967   0.04419244           13 
 1682000   0.58411677   -4.0059023    906.06759  0.044890388  0.044166528           11 
 1683000   0.58943483   -4.0192068    904.64137  0.044793096  0.044140528           11 
 1684000   0.58551948   -4.0118347    903.96127  0.044732842   0.04411453            9 
 1685000   0.57485415    -4.022095    903.65077  0.044690938  0.044088571            5 
 1686000   0.56851025   -4.0025303    904.91453  0.044726895  0.044062698           10 
 1687000   0.57414467   -4.0037014    905.21209   0.04471508  0.044036809           17 
 1688000    0.5758148   -4.0101649    904.10184   0.04463378  0.044010961            8 
 1689000   0.58096772    -4.014853    905.51708   0.04467718  0.043985106           17 
 1690000   0.56130455   -4.0122102    903.71946  0.044562104   0.04395927           11 
 1691000   0.56624592   -4.0186287    904.59575  0.044578935  0.043933347           15 
 1692000   0.57619211   -4.0235989    904.61775  0.044553672  0.043907487            9 
 1693000   0.57133722   -4.0302329    904.21127  0.044507347  0.043881645           16 
 1694000   0.56531628   -3.9956366    904.91691  0.044515787   0.04385578            9 
 1695000   0.58779052   -4.0320575    903.76797  0.044433037  0.043829936           16 
 1696000   0.58540349    -4.039502    904.69221  0.044452251  0.043804103           16 
 1697000   0.57339307   -4.0281524    904.51557  0.044417382  0.043778392            7 
 1698000   0.56468412   -3.9988133    906.20106  0.044473943  0.043752461            7 
 1699000   0.57038822   -4.0147794    907.26143  0.044499776  0.043726836            6 
 1700000   0.57475273   -4.0046617    908.71719   0.04454496  0.043701274           12 
 1701000   0.57637296   -4.0102887    905.54572    0.0443634  0.043675582            5 
 1702000     0.577272   -3.9940849    906.06314  0.044362668  0.043649856           12 
 1703000   0.55661544   -4.0341665    903.71833   0.04422188  0.043624096           10 
 1704000   0.56579552   -4.0181448    908.17073   0.04441367  0.043598358           11 
 1705000   0.58323949   -4.0246371    904.37759  0.044202228  0.043572627           11 
 1706000   0.56930431   -4.0281883    904.28458  0.044171775  0.043547001            8 
 1707000   0.58011095   -4.0308739    906.49677  0.044253894  0.043521355            6 
 1708000    0.5750641   -4.0258376    905.30364  0.044169772  0.043495406            6 
 1709000   0.56962193   -4.0388665    903.53706  0.044057785  0.043469417            8 
 1710000   0.58104414   -4.0065899    902.74255  0.043993302  0.043443523           10 
 1711000   0.57607081   -4.0249669    904.07565  0.044032517  0.043417636           19 
 1712000   0.56838277   -4.0232446    907.03754  0.044150971  0.043391971           12 
 1713000   0.55249172   -4.0254416    905.54193  0.044052439  0.043366269           13 
 1714000   0.56543863   -4.0320993    904.37378  0.043969943  0.043340621            9 
 1715000   0.57875806   -4.0444185    905.27712  0.043988198  0.043315002            9 
 1716000   0.56645876   -4.0287674    905.11614  0.043954747  0.043289437            9 
 1717000   0.56468281   -4.0186944    905.89663  0.043967027  0.043263898            9 
 1718000    0.5674257    -4.037977    906.80974  0.043985727  0.043238355            4 
 1719000   0.55894931   -4.0436587    903.98298  0.043823103  0.043212736           15 
 1720000   0.56297497   -4.0492294    907.52917  0.043969437  0.043187221           18 
 1721000   0.56451205   -4.0362367    906.68606  0.043903063  0.043161732           23 
 1722000    0.5637536   -4.0421121    905.40767  0.043815702  0.043136231           12 
 1723000   0.56840845   -4.0329342      907.991  0.043915216  0.043110735           12 
 1724000   0.56353945   -4.0329914    906.94062   0.04383897  0.043085129            7 
 1725000   0.56043587   -4.0542315    906.71081  0.043802454  0.043059561           11 
 1726000    0.5601049   -4.0168337    906.37092  0.043760666  0.043034126           17 
 1727000   0.57589985   -4.0439346    906.15719  0.043725014  0.043008505           19 
 1728000    0.5631879   -4.0494399    906.52366  0.043717383  0.042982884           14 
 1729000   0.55628892   -4.0361708    904.12937    0.0435767  0.042957264           12 
 1730000    0.5568875   -4.0372121    905.09548  0.043598048  0.042931595            8 
 1731000   0.56582654   -4.0455433    906.40689  0.043635995  0.042906003           11 
 1732000   0.56228128   -4.0388367     906.1508   0.04359848  0.042880465           11 
 1733000   0.55815309    -4.041209    905.29916   0.04353237  0.042854997           22 
 1734000   0.56116291   -4.0424455    905.52497  0.043518116  0.042829445            8 
 1735000    0.5599626   -4.0544482    906.78413  0.043553513   0.04280392            9 
 1736000   0.55138171   -4.0455233    907.52281  0.043563883  0.042778387           13 
 1737000   0.55198651   -4.0515669    906.25881  0.043478162   0.04275297            9 
 1738000   0.55525736   -4.0466385    908.34361  0.043553107  0.042727505            6 
 1739000   0.55028955   -4.0408886    906.59627  0.043444329  0.042702092           11 
 1740000   0.55818182   -4.0591837    907.68414  0.043471463    0.0426767           15 
 1741000   0.55597276   -4.0610683    906.22822  0.043376805   0.04265128            8 
 1742000   0.55791338   -4.0599561    906.26714  0.043353767  0.042625866           21 
 1743000   0.56064997   -4.0573991    907.08633   0.04336806  0.042600405            7 
 1744000   0.55211959   -4.0442711    906.32929  0.043307019  0.042575041           10 
 1745000   0.56046549     -4.05222    908.70735  0.043395767  0.042549727           10 
 1746000   0.55328976    -4.047264    908.37129  0.043354872  0.042524384           20 
 1747000   0.55611101   -4.0304372    907.89789  0.043307474  0.042499064           24 
 1748000   0.55466046   -4.0489251    907.93413  0.043284426  0.042473904           17 
 1749000   0.55445728   -4.0634821    911.26181   0.04341823  0.042448706           13 
 1750000   0.55078086   -4.0784417    907.43994  0.043211426  0.042423456           11 
 1751000   0.54944062   -4.0685441    906.08756  0.043122385   0.04239814           12 
 1752000   0.54589237   -4.0353412    907.24343  0.043152751  0.042372798           20 
 1753000   0.56213612   -4.0468342    906.34508  0.043085429  0.042347457           28 
 1754000   0.55218084   -4.0720572    908.27755  0.043152677   0.04232207           12 
 1755000   0.54672748   -4.0556484    908.62049  0.043144373  0.042296728           14 
 1756000    0.5526349   -4.0733946    906.68215  0.043027817  0.042271489            6 
 1757000   0.55715604   -4.0635047    906.65455  0.043002018   0.04224614            7 
 1758000   0.55839098   -4.0772694    908.51942  0.043065957  0.042220876           12 
 1759000   0.55721043   -4.0596032    908.28348  0.043030296  0.042195669           16 
 1760000   0.55195853   -4.0504707    907.32694  0.042960556  0.042170475            9 
 1761000   0.54393869   -4.0608506    907.37477  0.042938424  0.042145399           11 
 1762000    0.5524953   -4.0671055    908.91106  0.042986713  0.042120121           23 
 1763000   0.56686621    -4.057348    906.12989   0.04283087  0.042094846           10 
 1764000   0.55595232   -4.0715997    907.15663  0.042855094  0.042069768            7 
 1765000   0.54991046   -4.0649494      908.864  0.042911426  0.042044745           23 
 1766000   0.54950406   -4.0648624    907.91967  0.042842566  0.042019687           10 
 1767000   0.54940673   -4.0613977    908.42455  0.042842131  0.041994549            9 
 1768000   0.55772243   -4.0749973    909.85535  0.042885339  0.041969308           14 
 1769000   0.54778578   -4.0599014    909.93025  0.042864624  0.041944144            6 
 1770000   0.54294557   -4.0689165     909.6444  0.042826949    0.0419191           16 
 1771000      0.54481   -4.0739413    909.02123  0.042773444   0.04189401           10 
 1772000   0.54288037   -4.0586119    909.40089   0.04276716  0.041868977           12 
 1773000   0.56152289   -4.0710083    908.25179  0.042689029  0.041844039            5 
 1774000   0.55788096   -4.0883765    911.77474  0.042830456  0.041818978           10 
 1775000   0.54442318   -4.0675856    909.22369  0.042686558  0.041793985            7 
 1776000   0.54984067   -4.0766178    909.59421  0.042679909   0.04176915           11 
 1777000   0.54924069   -4.0934183    908.28432  0.042594462  0.041744098           18 
 1778000   0.55159238   -4.0816773    909.53687  0.042629212  0.041719061           14 
 1779000   0.53888968   -4.0931975    910.98444  0.042673058  0.041694073           14 
 1780000   0.54931116   -4.0787182    907.44703  0.042483475  0.041669083           11 
 1781000    0.5520338   -4.0783001    907.56333  0.042465063   0.04164405            8 
 1782000   0.53358065   -4.0868308    906.99821  0.042414806  0.041619135           28 
 1783000   0.54530681   -4.0889314    908.30958  0.042452308  0.041594099           11 
 1784000   0.55261293    -4.079963    909.52761  0.042485408   0.04156914           12 
 1785000   0.54077838   -4.0814797    906.27797  0.042309896  0.041544236           21 
 1786000   0.53496463   -4.0800113    910.80695  0.042497525  0.041519393            9 
 1787000   0.54714332   -4.0905217    911.11276  0.042488004  0.041494607           31 
 1788000   0.53518844   -4.0981948    909.67667  0.042397309  0.041469756           17 
 1789000   0.52931492   -4.0862847    909.21353  0.042352037  0.041444807           10 
 1790000   0.52367218   -4.0916527    907.96646  0.042270319  0.041420034            6 
 1791000   0.55005495   -4.1028387    909.98113  0.042340458  0.041395105            7 
 1792000   0.54623976   -4.0823934    908.76181  0.042260129  0.041370194            6 
 1793000   0.54116901   -4.0876226    907.99992  0.042201149   0.04134535           12 
 1794000   0.52860878   -4.0892595    909.42447  0.042243797  0.041320377           13 
 1795000   0.53896084   -4.0960755    910.95293  0.042291223  0.041295524           15 
 1796000   0.54387106   -4.0804953    909.93833  0.042220598  0.041270801           19 
 1797000   0.53436957   -4.0913589    908.08403  0.042111112  0.041246129            8 
 1798000   0.54104796   -4.0881948    909.52558  0.042154504  0.041221373           24 
 1799000   0.53461719   -4.0935923    909.76564  0.042142192   0.04119661           22 
 1800000   0.51578143   -4.0912776     911.7063  0.042208625  0.041171881           13 
 1801000   0.55329024   -4.1167957    910.71189  0.042139177  0.041147132           21 
 1802000   0.53892937    -4.099895    911.01139  0.042129643  0.041122354           15 
 1803000   0.53092957   -4.1058794    908.38635  0.041984948  0.041097623           14 
 1804000   0.53470918   -4.1042363    906.48866  0.041874014  0.041072983            7 
 1805000   0.52315871   -4.0895058    910.85134  0.042052232  0.041048303           12 
 1806000    0.5320678   -4.0886967    909.51472  0.041967272  0.041023588           20 
 1807000   0.54493209   -4.0851185    912.80625  0.042095843  0.040998938           31 
 1808000   0.52469223    -4.081897     909.4492  0.041917828    0.0409743           11 
 1809000   0.52036543   -4.1008431    910.87208  0.041960203  0.040949718           10 
 1810000   0.53287797   -4.0984059    911.39781  0.041961225  0.040925222            5 
 1811000   0.53436708   -4.1212634    910.66403   0.04190429   0.04090065            6 
 1812000   0.54219069   -4.1197809    910.39098  0.041868606  0.040875972            7 
 1813000   0.52802728   -4.1151865    909.99274  0.041827208  0.040851395            8 
 1814000     0.532099    -4.097564    910.66647  0.041835101  0.040826939           24 
 1815000   0.52989066   -4.1094351    910.60403  0.041809184  0.040802343           16 
 1816000   0.53658389   -4.0975548    909.37957  0.041729973  0.040777726           12 
 1817000   0.53827795     -4.09988    912.03721  0.041828894  0.040753289           28 
 1818000   0.53131522   -4.1000696    908.75038  0.041655224  0.040728796           30 
 1819000   0.53359031   -4.1271723    910.78151  0.041725376  0.040704176           21 
 1820000   0.53086264   -4.1015657    909.85275  0.041659925  0.040679577           10 
 1821000   0.53236758   -4.1115128    912.02555  0.041736479  0.040654972           26 
 1822000   0.53231757   -4.1173329    912.72086  0.041745374  0.040630427            5 
 1823000   0.52935188   -4.1098817    910.96512  0.041642216  0.040605959           16 
 1824000   0.52833435   -4.1105159    910.30817  0.041589372  0.040581571           14 
 1825000    0.5145439   -4.1276425    909.68199   0.04153799  0.040557137           16 
 1826000   0.53064745   -4.1234988    913.37748  0.041683894  0.040532671           13 
 1827000   0.52897635   -4.1165321    910.59037  0.041533952  0.040508267            6 
 1828000   0.52605592   -4.1162231    910.75274  0.041518633  0.040483821           10 
 1829000   0.53235067   -4.1149086      911.521  0.041530937  0.040459405           19 
 1830000   0.52717243   -4.1033336    910.31308  0.041453237  0.040435026           10 
 1831000   0.52271084   -4.1146105    910.56265  0.041441955  0.040410652           12 
 1832000   0.52018962   -4.1158666    912.94276    0.0415276  0.040386219           20 
 1833000   0.52249838    -4.124138     910.7269  0.041404205  0.040361874           12 
 1834000    0.5311653   -4.1329861    911.12865  0.041399884  0.040337472           18 
 1835000   0.52536149   -4.1293643    909.52843  0.041304651  0.040313143           13 
 1836000   0.51244361   -4.1218959    910.83686  0.041341542  0.040288742           11 
 1837000   0.51653746   -4.1448205    909.06947  0.041238862  0.040264307           33 
 1838000   0.52008174    -4.131074    909.81599  0.041250271  0.040239842           15 
 1839000   0.51496349   -4.1239864    909.22088  0.041200874  0.040215428            9 
 1840000   0.52235672   -4.1263067    910.36292  0.041230205  0.040191085           31 
 1841000   0.51307142    -4.108331    910.89455  0.041231874  0.040166817           15 
 1842000   0.51567176   -4.1171237    910.36125  0.041185363  0.040142434           55 
 1843000    0.5191338   -4.1393964    911.28825  0.041204931  0.040117929           28 
 1844000   0.52476039   -4.1204257    910.13866  0.041130634   0.04009356           33 
 1845000   0.51363584   -4.1191031    909.26598  0.041068924  0.040069118           13 
 1846000   0.52541285    -4.151735    907.67728  0.040974959  0.040044635           11 
 1847000   0.51873284   -4.1450648    909.23667  0.041023131  0.040020145            7 
 1848000   0.50321915     -4.11587    909.50217  0.041012904  0.039995656            8 
 1849000   0.52367503   -4.1194741    909.98385  0.041012432  0.039971274           13 
 1850000   0.50361646   -4.1204637    909.72525  0.040978615  0.039946825           10 
 1851000   0.52762525   -4.1390653    909.50519  0.040946569  0.039922336           23 
 1852000   0.51482769    -4.138105    907.11694  0.040816997  0.039897948           25 
 1853000   0.51852102    -4.126053    910.37239  0.040941374  0.039873578           22 
 1854000   0.51874399   -4.1388377    909.49565  0.040879884  0.039849195           13 
 1855000   0.51800058   -4.1467016    911.06482  0.040928339  0.039824778           19 
 1856000    0.5084632   -4.1463443    909.23211  0.040823999  0.039800302           17 
 1857000    0.5078435   -4.1330185    908.25163  0.040758016  0.039775797           19 
 1858000   0.52291317   -4.1432717    908.01269  0.040725363   0.03975128           12 
 1859000   0.49748401   -4.1339582     907.9827  0.040702111  0.039726838           39 
 1860000   0.51413824   -4.1242602    909.94257  0.040768036  0.039702462           10 
 1861000    0.5205829   -4.1415128    909.02917  0.040705229  0.039678032           14 
 1862000   0.50090068   -4.1219901    910.29006  0.040739799  0.039653695           27 
 1863000   0.50434994   -4.1527016    910.43346  0.040724345  0.039629376            9 
 1864000   0.50378771   -4.1328995     910.0311  0.040684509  0.039605059           20 
 1865000   0.50109152   -4.1271776    910.64877  0.040690294  0.039580753           10 
 1866000   0.50607857    -4.144293    909.25313   0.04060616  0.039556442           15 
 1867000   0.50720053   -4.1589079    908.52868  0.040552074  0.039531968           19 
 1868000   0.50488278   -4.1456615    908.13605   0.04051285  0.039507506           18 
 1869000   0.49828917   -4.1344562    908.04191  0.040486976  0.039483052           25 
 1870000   0.51315734   -4.1624647    909.67714  0.040538197  0.039458716           13 
 1871000   0.50503354   -4.1325172    908.72014  0.040473906  0.039434494           14 
 1872000   0.50981014   -4.1456168    906.47694  0.040352428  0.039410163           10 
 1873000   0.49805305    -4.158394    908.97894  0.040442202  0.039385803           18 
 1874000   0.50519629   -4.1547654    907.26133  0.040344242  0.039361398           13 
 1875000   0.50397029   -4.1509979    909.07767  0.040403452  0.039337106           13 
 1876000   0.50712611   -4.1472658    909.10462  0.040383112  0.039312834           15 
 1877000   0.50886607   -4.1396487    908.16365  0.040319821  0.039288582           13 
 1878000   0.51063506   -4.1726655    908.60113  0.040317764  0.039264253           27 
 1879000   0.49935701   -4.1458357    908.53757  0.040293488  0.039239961           10 
 1880000   0.49189964   -4.1691645    909.57466  0.040318026  0.039215718           20 
 1881000   0.51384453   -4.1507435    909.14245  0.040277443  0.039191435           17 
 1882000   0.49482911   -4.1643247    907.85846  0.040199188  0.039167141           34 
 1883000   0.50709959   -4.1651768     907.6867  0.040170238  0.039142817           22 
 1884000   0.50260898   -4.1675422    908.34653  0.040178102  0.039118407           18 
 1885000   0.48994033   -4.1550824       907.73  0.040129531  0.039094022           33 
 1886000   0.49562304   -4.1847102    906.75974  0.040065382  0.039069658           34 
 1887000   0.50324258   -4.1656541    908.20453  0.040107955  0.039045359           18 
 1888000   0.49834686   -4.1601559    908.29334  0.040090631  0.039021129           15 
 1889000    0.4927815   -4.1442836    909.43755  0.040119885  0.038996954           37 
 1890000   0.49444002   -4.1695992    907.45123  0.040011077   0.03897284           13 
 1891000   0.50145389   -4.1613996    909.61744   0.04008538  0.038948753           34 
 1892000   0.48810114   -4.1587023    909.64612  0.040065456  0.038924673           21 
 1893000   0.49559609   -4.1646115    908.63207  0.039999651  0.038900577           11 
 1894000   0.50273471   -4.1785499    908.26177  0.039962239  0.038876382           36 
 1895000   0.50806207   -4.1793176    908.42948  0.039948526  0.038852171           15 
 1896000   0.48712018   -4.1809624    908.67389  0.039938198  0.038828054           12 
 1897000   0.49166341   -4.1669007    907.63298  0.039871419  0.038803831           12 
 1898000   0.49472083   -4.1586697    908.45483  0.039886496  0.038779632           13 
 1899000   0.49501706   -4.1740981    908.90926  0.039885434  0.038755434           14 
 1900000   0.49099708   -4.1728623    910.13021  0.039917992   0.03873129            8 
 1901000   0.49515886   -4.1898504    908.59248  0.039829584  0.038707201            6 
 1902000   0.49802194   -4.1712634    908.60663  0.039809263  0.038683013            8 
 1903000   0.49017134   -4.1821751    906.34337  0.039689235  0.038658893           29 
 1904000   0.50292938     -4.17442     905.5436  0.039633386  0.038634829           26 
 1905000   0.48667196   -4.1824855    908.75313   0.03975298  0.038610814           19 
 1906000   0.48142914   -4.1636663     908.7221  0.039730767  0.038586832           20 
 1907000   0.48841383   -4.1865826    907.97637  0.039677345  0.038562847            7 
 1908000   0.49469482    -4.177586    908.16199  0.039664657  0.038538746           14 
 1909000   0.49295574   -4.1781593    908.83785  0.039673383  0.038514623           12 
 1910000   0.48521161   -4.1898354    905.75595  0.039518148  0.038490527           13 
 1911000   0.49158135   -4.1890686    906.64923  0.039536422   0.03846648           10 
 1912000   0.48850466   -4.1870709    908.92322  0.039614855  0.038442424           23 
 1913000   0.48889923   -4.2048919    905.59229  0.039449046  0.038418393           27 
 1914000   0.50047225   -4.1874344    907.60422  0.039516032  0.038394384           28 
 1915000    0.4851388   -4.1994121    908.76345  0.039545842  0.038370403           37 
 1916000    0.4947588   -4.1818737    908.72698  0.039523616  0.038346497           13 
 1917000   0.48338269   -4.1887282    911.03948  0.039603525  0.038322668           24 
 1918000   0.48072651   -4.1832085    907.85602  0.039444561  0.038298786           14 
 1919000    0.4950893   -4.1874776    908.54369  0.039453869  0.038274873           16 
 1920000   0.48502269   -4.1957799    906.70657  0.039353584  0.038251023           30 
 1921000   0.49429364   -4.1712793    906.52205  0.039325093   0.03822718           17 
 1922000   0.49029363   -4.2025537    905.99876  0.039281944  0.038203264           12 
 1923000   0.47668032   -4.2001894    910.19339  0.039443291  0.038179357           14 
 1924000   0.48393847   -4.1852386    907.15102  0.039291018  0.038155586           12 
 1925000   0.48647302   -4.2006472    907.44487  0.039283328  0.038131694           21 
 1926000   0.48354023   -4.1966055    907.16755  0.039250932  0.038107862            8 
 1927000   0.48406969   -4.1815561    907.87543  0.039261176  0.038083952           26 
 1928000   0.49032839   -4.1718648    909.44198  0.039308523  0.038060196           30 
 1929000   0.48835339   -4.1767766    907.68816  0.039212379  0.038036463           23 
 1930000   0.49551067   -4.1923744    907.00992  0.039162777  0.038012708           26 
 1931000   0.49249561   -4.1825513    908.71572  0.039216111  0.037989033           26 
 1932000   0.48658969   -4.1827799    910.16599  0.039258367  0.037965363           22 
 1933000   0.47305539   -4.2106597    907.65222  0.039129687  0.037941693           42 
 1934000   0.47585067   -4.2096556    907.44325   0.03910045   0.03791797           19 
 1935000   0.47785665   -4.2101986    909.10504   0.03915181  0.037894231           24 
 1936000   0.48645669   -4.1859072    907.96352  0.039082452  0.037870489           24 
 1937000   0.48689593   -4.1986974    905.51588  0.038956973  0.037846793           48 
 1938000   0.48130004   -4.1930708    909.01514  0.039087338  0.037823071           13 
 1939000   0.47761382   -4.2101038     906.5846  0.038962721  0.037799367           22 
 1940000   0.48504687   -4.1970233    907.12374  0.038965796  0.037775689           18 
 1941000   0.47302889   -4.2046791    908.04853  0.038985425  0.037752008           25 
 1942000   0.47491773   -4.2129965    910.26967  0.039060662  0.037728415           18 
 1943000   0.48106991   -4.2018135    908.14773  0.038949551  0.037704775           25 
 1944000   0.47992447   -4.2191342    909.85675  0.039002776  0.037681143           19 
 1945000   0.47812332   -4.1994529    909.26216  0.038957247  0.037657543            9 
 1946000   0.47094193   -4.2108603    908.75215  0.038915388  0.037633924           12 
 1947000    0.4785687   -4.2155233    907.28611  0.038832653  0.037610317           33 
 1948000   0.46628153   -4.2087441    907.95461  0.038841316  0.037586773           19 
 1949000   0.48667874   -4.1927713     909.0974   0.03887025  0.037563211           40 
 1950000   0.46776803   -4.2109426    906.24892  0.038728586  0.037539693           19 
 1951000   0.46923116   -4.2176791    907.63763  0.038768052   0.03751615           19 
 1952000     0.463547   -4.2215821    909.41385   0.03882402  0.037492559           39 
 1953000   0.46237415     -4.22043    906.38533  0.038674916  0.037468984           43 
 1954000   0.47603202    -4.200495    907.52652  0.038703792  0.037445473           34 
 1955000   0.47656078    -4.218697    906.34748  0.038633738   0.03742191           30 
 1956000   0.46685621   -4.2132949    908.23849  0.038694551  0.037398416           39 
 1957000   0.47568934   -4.2108573    907.44103   0.03864082  0.037374902           14 
 1958000   0.46976739   -4.2104846    907.77766  0.038635413  0.037351384           14 
 1959000   0.46359321   -4.2298813    903.79321  0.038446197   0.03732778           14 
 1960000   0.47216257   -4.2299339    906.30643  0.038533437  0.037304214           17 
 1961000    0.4773305   -4.2342426    907.94017  0.038583213  0.037280717           10 
 1962000   0.47328807   -4.1963873    906.97709  0.038522642  0.037257315           13 
 1963000   0.46626671   -4.2390673    906.77209  0.038494315   0.03723386           12 
 1964000    0.4724578   -4.1952408    906.92823   0.03848134  0.037210536           15 
 1965000   0.46632507   -4.2245033    908.45651   0.03852657  0.037187174           36 
 1966000   0.46901649   -4.2224933    907.61842  0.038471449   0.03716383           49 
 1967000   0.46428382   -4.2168483    909.80155   0.03854438  0.037140436           23 
 1968000   0.46678806   -4.2106707    910.11733  0.038538166  0.037117144           25 
 1969000   0.46419892   -4.2209783    908.25541  0.038439792  0.037093828           75 
 1970000   0.46765141   -4.2215838    904.64048  0.038267364  0.037070407           37 
 1971000   0.47162639   -4.2332609    907.25437  0.038358463  0.037046938           24 
 1972000   0.47201026   -4.2482597    908.12657  0.038375869  0.037023469           26 
 1973000   0.46850659   -4.2389151    907.02448   0.03830987  0.037000073           71 
 1974000   0.46572613   -4.2342031    905.21738  0.038214175  0.036976735          100 
 1975000   0.46213333   -4.2243123    906.80965   0.03826201  0.036953387           76 
 1976000   0.47656129   -4.2332135    905.72459  0.038196887  0.036930052           27 
 1977000   0.47635094   -4.2210768     909.1353  0.038321333  0.036906717           44 
 1978000   0.46610564    -4.235967    906.99276  0.038211694  0.036883349           68 
 1979000   0.46042951    -4.234565    905.55516  0.038131849  0.036859938           79 
 1980000   0.45904415   -4.2409845     907.9554  0.038213611  0.036836537           52 
 1981000   0.46535704   -4.2571311    906.42618  0.038129992  0.036813188           55 
 1982000   0.46501441   -4.2454048    903.47613  0.037986719   0.03678983           31 
 1983000   0.46628979   -4.2347813     907.2135  0.038124622  0.036766497           19 
 1984000   0.46213319   -4.2364505    906.45371  0.038073492  0.036743166           20 
 1985000    0.4651555   -4.2272521    905.64967  0.038020557  0.036719924           29 
 1986000    0.4487985   -4.2393674    908.82133  0.038134497  0.036696648           17 
 1987000   0.46446179   -4.2539299    905.96968  0.037995709  0.036673411           20 
 1988000   0.45496219   -4.2448863    904.96855  0.037934631  0.036650046           38 
 1989000   0.45252797   -4.2361899    906.06616  0.037961545  0.036626775           11 
 1990000    0.4590383   -4.2365182      906.671  0.037967797   0.03660361           20 
 1991000   0.45715831    -4.247144    906.09459  0.037924602  0.036580366           20 
 1992000   0.45367985    -4.230012    906.32411  0.037915165  0.036557108           30 
 1993000   0.45922105   -4.2455485    906.57904    0.0379068  0.036533913           23 
 1994000   0.45220483   -4.2566312    907.30112  0.037917967  0.036510772           21 
 1995000   0.44976536   -4.2441044    907.04064   0.03788808  0.036487665           16 
 1996000   0.45782327   -4.2325251    905.96324  0.037824117  0.036464529            8 
 1997000   0.44823222   -4.2395677    907.59835  0.037873408  0.036441483           18 
 1998000   0.46002175   -4.2338121    906.26949  0.037799028  0.036418393           44 
 1999000   0.44366316    -4.246989    906.46588  0.037788306  0.036395354           15 
 2000000   0.45108617   -4.2650343    905.58863  0.037732859  0.036372279           33 
 2001000   0.45402165   -4.2586985    905.41444  0.037706748  0.036349219           17 
 2002000   0.44360801    -4.254841    905.85802  0.037706378  0.036326132           21 
 2003000   0.44219703   -4.2551206    906.32911  0.037707152  0.036302975           19 
 2004000   0.45452143   -4.2597087    905.93462  0.037671932   0.03627985           75 
 2005000   0.45603865   -4.2576762    904.26128  0.037583594  0.036256719           16 
 2006000   0.45838067   -4.2642645    904.59264  0.037578624  0.036233579           22 
 2007000   0.44946541   -4.2616006    904.18755   0.03754308   0.03621046           40 
 2008000   0.44988887   -4.2817345    905.86532  0.037594012  0.036187339           30 
 2009000   0.45614387    -4.244309    906.13424  0.037586454  0.036164302           18 
 2010000   0.45565386   -4.2645895    903.95559  0.037477429  0.036141242           33 
 2011000   0.45396696   -4.2542747    904.34864   0.03747508  0.036118138           35 
 2012000   0.44555336   -4.2677733     905.2329  0.037493079  0.036095094           24 
Loop time of 4890.24 on 48 procs for 2000000 steps with 4000 atoms

Performance: 70671.361 tau/day, 408.978 timesteps/s
99.4% CPU use with 48 MPI tasks x no OpenMP threads

MPI task timing breakdown:
Section |  min time  |  avg time  |  max time  |%varavg| %total
---------------------------------------------------------------
Pair    | 316.87     | 352.65     | 374.03     |  61.0 |  7.21
Neigh   | 32.808     | 34.299     | 36.624     |  13.6 |  0.70
Comm    | 320.55     | 339.87     | 378.4      |  65.8 |  6.95
Output  | 4.1954     | 4.1971     | 4.2267     |   0.2 |  0.09
Modify  | 4107.8     | 4115       | 4125.1     |   6.3 | 84.15
Other   |            | 44.21      |            |       |  0.90

Nlocal:        83.3333 ave          90 max          75 min
Histogram: 1 1 8 5 2 6 10 4 9 2
Nghost:        2232.54 ave        2252 max        2213 min
Histogram: 1 2 7 5 4 12 13 2 1 1
Neighs:        14907.4 ave       16851 max       13283 min
Histogram: 2 7 6 5 7 7 4 6 3 1
FullNghs:      29814.9 ave       32557 max       26678 min
Histogram: 1 3 4 8 2 9 7 6 7 1

Total # of neighbors = 1431117
Ave neighs/atom = 357.77925
Neighbor list builds = 108275
Dangerous builds = 0

#clear
#
#next RN
#
#jump SELF
Total wall time: 1:21:33
