
units lj                  # Use reduced LJ style units
atom_style atomic         # Uncharged point particles
atom_modify map hash      # Needed for indexing of clusters etc
                          # Used to be able to find where atoms are in relation to each other.

lattice fcc 1.0 spacing 1 1 1
Lattice spacing in x,y,z = 1.5874011 1.5874011 1.5874011
region box block 0 10 0 10 0 10 units lattice
create_box 2 box
Created orthogonal box = (0.0000000 0.0000000 0.0000000) to (15.874011 15.874011 15.874011)
  3 by 4 by 4 MPI processor grid
create_atoms 1 box
Created 4000 atoms
  using lattice units in orthogonal box = (0.0000000 0.0000000 0.0000000) to (15.874011 15.874011 15.874011)
  create_atoms CPU = 0.002 seconds
set type 1 type/fraction 2 0.74 78393
Setting atom values ...
  2966 settings made for type/fraction
mass 1 1.0
mass 2 1.0
pair_style lj/cut  3.5
pair_modify tail  yes
pair_coeff 1  1  1.0  1.0   # Intearaction between 1 and 1 set with epsilon = 1 and sigma = 1
pair_coeff 1  2  1.5  0.8
pair_coeff 2  2  0.5  0.88

write_data data.0
System init for write_data ...
Neighbor list info ...
  update every 1 steps, delay 10 steps, check yes
  max neighbors/atom: 2000, page size: 100000
  master list distance cutoff = 3.8
  ghost atom cutoff = 3.8
  binsize = 1.9, bins = 9 9 9
  1 neighbor lists, perpetual/occasional/extra = 1 0 0
  (1) pair lj/cut, perpetual
      attributes: half, newton on
      pair build: half/bin/atomonly/newton
      stencil: half/bin/3d
      bin: standard
WARNING: Not all mixed pair coeffs generated from mixing. Use write_data with 'pair ij' option to store all pair coeffs. (../write_data.cpp:312)


#############################
#   M E L T   S Y S T E M   #
#############################

velocity all create 2.4 3143649 mom yes dist gaussian # Assign velocities
                                                    # Temperature 2.4, random number seed, zero linear momentum
                                                                                # Gaussian distribution

timestep 0.002   # simulation timestep
thermo 1000       # output thermodynamic data every 1000 steps bf 100

# Define a fix  in this case with index 1 applied to all
# particles in the simulation. This fix is for simulations
# in the anisotropic NPT ensemble. Note that we use the MTK
# correction.
fix 1 all npt temp 2.4 2.4 0.1 iso 5.68 5.68 0.5 mtk yes tchain 5 pchain 5 # Use NPT ensemble
                                                                         # Set temperature and pressure and damping
                                                                         # Numbers of thermostats in chain and in barostat
run 10000          # run for 10000 steps
Per MPI rank memory allocation (min/avg/max) = 3.642 | 3.644 | 3.648 Mbytes
Step Temp E_pair E_mol TotEng Press Volume 
       0          2.4   -3.9840525            0  -0.38495247   -3.5781436         4000 
    1000    2.3990764   -3.4653676            0   0.13234733    5.7585884    3724.2949 
    2000    2.4032456   -3.4943961            0   0.10957103    5.8340337    3700.4927 
    3000    2.4045616   -3.5431333            0  0.062807447     5.543459    3699.6918 
    4000    2.3665808   -3.5050984            0  0.043885388    5.2882909    3729.1145 
    5000    2.3438531    -3.548631            0 -0.033730354    5.5271904    3686.1018 
    6000    2.3893719   -3.5201207            0  0.063041197     5.687678    3695.5316 
    7000    2.4687342   -3.5091961            0   0.19297944    5.5971493    3715.5659 
    8000    2.3829266   -3.5079872            0  0.065509085    5.3636967    3725.4296 
    9000    2.4426206   -3.5514667            0   0.11154821    5.9991224     3646.711 
   10000    2.4008955   -3.5152517            0  0.085191277    5.8837167    3678.6913 
Loop time of 2.63521 on 48 procs for 10000 steps with 4000 atoms

Performance: 655736.160 tau/day, 3794.769 timesteps/s
99.6% CPU use with 48 MPI tasks x no OpenMP threads

MPI task timing breakdown:
Section |  min time  |  avg time  |  max time  |%varavg| %total
---------------------------------------------------------------
Pair    | 1.179      | 1.2563     | 1.3111     |   3.0 | 47.67
Neigh   | 0.21703    | 0.22461    | 0.23198    |   0.8 |  8.52
Comm    | 0.81598    | 0.88402    | 0.98256    |   3.8 | 33.55
Output  | 0.00025329 | 0.00025887 | 0.00032478 |   0.0 |  0.01
Modify  | 0.23388    | 0.25439    | 0.28106    |   2.3 |  9.65
Other   |            | 0.01566    |            |       |  0.59

Nlocal:        83.3333 ave          91 max          71 min
Histogram: 1 1 2 5 3 7 8 6 10 5
Nghost:        1742.25 ave        1782 max        1714 min
Histogram: 2 4 9 10 10 4 3 3 1 2
Neighs:        10385.1 ave       11700 max        8685 min
Histogram: 1 3 4 3 8 3 12 6 6 2

Total # of neighbors = 498484
Ave neighs/atom = 124.62100
Neighbor list builds = 908
Dangerous builds = 228

# Equilibrate just above the melting temperature to avoid step fn in T

fix 1 all npt temp 1.25 1.25 0.1 iso 5.68 5.68 0.5 mtk yes tchain 5 pchain 5
run 2000
Per MPI rank memory allocation (min/avg/max) = 3.644 | 3.646 | 3.649 Mbytes
Step Temp E_pair E_mol TotEng Press Volume 
   10000    2.4008955   -3.5152517            0  0.085191277    5.8837167    3678.6913 
   11000    1.2368807   -5.1735939            0   -3.3187367    5.5783781    2835.5271 
   12000    1.2427435    -5.200253            0   -3.3366037    5.5851792    2828.4549 
Loop time of 0.75493 on 48 procs for 2000 steps with 4000 atoms

Performance: 457790.792 tau/day, 2649.252 timesteps/s
99.3% CPU use with 48 MPI tasks x no OpenMP threads

MPI task timing breakdown:
Section |  min time  |  avg time  |  max time  |%varavg| %total
---------------------------------------------------------------
Pair    | 0.30242    | 0.32482    | 0.35037    |   2.3 | 43.03
Neigh   | 0.042202   | 0.044344   | 0.046435   |   0.5 |  5.87
Comm    | 0.27075    | 0.29782    | 0.32469    |   2.6 | 39.45
Output  | 5.4412e-05 | 5.9077e-05 | 0.00020981 |   0.0 |  0.01
Modify  | 0.079985   | 0.082933   | 0.086316   |   0.7 | 10.99
Other   |            | 0.004957   |            |       |  0.66

Nlocal:        83.3333 ave          92 max          73 min
Histogram: 1 1 4 5 6 12 10 5 3 1
Nghost:        2083.48 ave        2101 max        2063 min
Histogram: 1 0 4 5 6 12 14 2 2 2
Neighs:        13510.1 ave       15185 max       11747 min
Histogram: 3 2 6 5 4 9 6 8 3 2

Total # of neighbors = 648483
Ave neighs/atom = 162.12075
Neighbor list builds = 143
Dangerous builds = 16

#############################
# L I N E A R  Q U E N C H  #
#############################

# Define solid atoms. This closely follows ten Wolde  Ruiz-Montero and Frenkel  Faraday Discuss  1996  104  93-110
# Compute components of the per-atom q6 vector
compute q6 all orientorder/atom degrees 1 6 components 6 nnn NULL cutoff 1.3 # compute the Q6 parameter.
                                                                             # Use all neighbours within 1.3 unit cell.

# get number of connections
compute coord_number all coord/atom orientorder q6 0.5

# An atom is solid if it has 8 or more connections (of a possible 14)
variable is_solid atom c_coord_number>=8
group solid dynamic all var is_solid    # Must be dynamic to update
dynamic group solid defined

# do clustering
compute cluster solid cluster/atom 1.3 # Create a cluster where all atoms within are solid and max 1.3 units from another member

# define chunks one chunk per cluster
compute clus_chunks solid chunk/atom c_cluster nchunk every compress yes  # Says which atoms are in which chunk

# count the size of each chunk
compute size_chunks solid property/chunk clus_chunks count


# Find the maximum entry in the vector of chunk sizes
variable max_n equal max(c_size_chunks)


# Thermo style which includes this variable
# thermo_style custom step temp pe vol v_max_n

thermo ${N}  # Print the thermo information every 100 steps
thermo 1000  

# Reset the npt fix at a lower temperature (below freezing)
fix 1  all npt temp  ${temp} ${temp}  0.1  iso  5.68  5.68  0.5  mtk yes tchain  5  pchain  5
fix 1  all npt temp  0.45 ${temp}  0.1  iso  5.68  5.68  0.5  mtk yes tchain  5  pchain  5
fix 1  all npt temp  0.45 0.45  0.1  iso  5.68  5.68  0.5  mtk yes tchain  5  pchain  5

dump dmp2 all dcd ${N} traj.dcd
dump dmp2 all dcd 1000 traj.dcd


compute msd all msd com yes
variable twopoint equal c_msd[4]/6/(step*dt+1.0e-6)
fix 9 all vector 10 c_msd[4]
variable fit equal slope(f_9)/6/(10*dt)
thermo_style custom step temp pe c_msd[4] v_twopoint v_fit v_max_n

fix 1 all npt temp 1.25 ${temp} 0.1 iso 5.68 5.68 0.5 mtk yes tchain 5 pchain 5
fix 1 all npt temp 1.25 0.45 0.1 iso 5.68 5.68 0.5 mtk yes tchain 5 pchain 5
run 500000 # 5000000  # Run for this many steps
Neighbor list info ...
  update every 1 steps, delay 10 steps, check yes
  max neighbors/atom: 2000, page size: 100000
  master list distance cutoff = 3.8
  ghost atom cutoff = 3.8
  binsize = 1.9, bins = 8 8 8
  4 neighbor lists, perpetual/occasional/extra = 1 3 0
  (1) pair lj/cut, perpetual
      attributes: half, newton on
      pair build: half/bin/atomonly/newton
      stencil: half/bin/3d
      bin: standard
  (2) compute orientorder/atom, occasional
      attributes: full, newton on
      pair build: full/bin/atomonly
      stencil: full/bin/3d
      bin: standard
  (3) compute coord/atom, occasional
      attributes: full, newton on
      pair build: full/bin/atomonly
      stencil: full/bin/3d
      bin: standard
  (4) compute cluster/atom, occasional
      attributes: full, newton on
      pair build: full/bin/atomonly
      stencil: full/bin/3d
      bin: standard
Per MPI rank memory allocation (min/avg/max) = 9.843 | 9.847 | 9.851 Mbytes
Step Temp PotEng c_msd[4] v_twopoint v_fit v_max_n 
   12000    1.2427435    -5.200253 1.8248325e-30 1.2672447e-32 8.3333333e+20            4 
   13000    1.2816873   -5.1655317   0.66802419 0.0042822062  0.055518929            3 
   14000    1.2800127   -5.2323319    1.3459573 0.0080116505  0.056027421            2 
   15000    1.2428036    -5.198985    2.0346406  0.011303559  0.056555469            3 
   16000    1.2438788   -5.1921664     2.711752  0.014123708  0.056887539            2 
   17000     1.238616   -5.2130623    3.4419904  0.016872501  0.057073611            1 
   18000    1.2432362   -5.2111184    4.1199383  0.019073788  0.057347413            3 
   19000    1.2293847    -5.243012    4.7693599  0.020918245  0.057231205            3 
   20000    1.2132129   -5.2000679    5.3939449   0.02247477  0.056720619            4 
   21000    1.2619828   -5.2691755    6.0686424  0.024081914  0.056253423            5 
   22000    1.2316351   -5.2472016    6.6226317  0.025085726  0.055807107            6 
   23000    1.2400133   -5.2409781    7.3481591  0.026623764   0.05552706            6 
   24000    1.2349481   -5.2635509    8.0701213  0.028021254  0.055583595            1 
   25000    1.2242273    -5.250689    8.7356854  0.029118951  0.055672199            2 
   26000    1.2492425   -5.2675969     9.272768   0.02972041  0.055572261            2 
   27000     1.210297   -5.2079916    9.8804826  0.030495316  0.055226564            3 
   28000    1.2173157   -5.2310292    10.562369   0.03143562  0.054929408            2 
   29000    1.2299973   -5.2551468    11.198532   0.03217969  0.054728288            4 
   30000    1.1998805   -5.2298716    11.929326  0.033137017  0.054645308            2 
   31000    1.2040457   -5.3066283    12.547675  0.033730307  0.054656168            3 
   32000    1.2234864   -5.2768188    13.190622  0.034350577  0.054638808            1 
   33000    1.2109713   -5.2943574    13.819939  0.034898836  0.054591547            1 
   34000    1.2139375   -5.2640023    14.384928  0.035257176  0.054469554            3 
   35000    1.1945615   -5.2536557    14.983601   0.03567524  0.054331963            2 
   36000    1.2054706    -5.281655    15.543682  0.035980744  0.054194594            3 
   37000     1.225138   -5.2377192    16.209336  0.036507512  0.054024788            2 
   38000    1.2217466   -5.3115769    16.761866  0.036758478   0.05390084            5 
   39000     1.213158   -5.2627776    17.405935  0.037192169  0.053768874            3 
   40000    1.1930874   -5.3028738    17.989207  0.037477515  0.053618163            6 
   41000    1.2356464   -5.2994096    18.614878  0.037835118  0.053492957            1 
   42000    1.1960278   -5.3150672    19.203275  0.038101736  0.053381841            3 
   43000    1.1896266    -5.358937    19.949896  0.038662589  0.053312865            1 
   44000    1.1949997   -5.2750869    20.526491   0.03887593  0.053250208            2 
   45000    1.2055687   -5.3679538    20.954662   0.03880493  0.053136067            4 
   46000    1.2039738    -5.301684    21.768095  0.039434955  0.053065423            1 
   47000    1.1861708   -5.3410917    22.463084  0.039828162  0.053017866            2 
   48000    1.1820931   -5.3575967    22.974332  0.039885993  0.052979397            4 
   49000    1.1810981     -5.29834    23.691982  0.040292486  0.052911517            1 
   50000    1.1936832   -5.2688063     24.24738    0.0404123  0.052871157            3 
   51000    1.1987538   -5.3102026    24.760486  0.040458309  0.052804739            3 
   52000    1.1877451   -5.3473712    25.469221   0.04081606  0.052733424            1 
   53000    1.1814483   -5.3562875    25.980993  0.040850618  0.052647141            4 
   54000    1.1967801   -5.3490681    26.419059  0.040770153  0.052523402            4 
   55000    1.1878437    -5.335202    26.802059  0.040609179   0.05237654            3 
   56000    1.1662494   -5.3349147    27.466159   0.04087226  0.052233287            2 
   57000    1.2055378   -5.3798129     27.86095  0.040732382  0.052066624            2 
   58000    1.1994145   -5.3998549    28.449011  0.040875015  0.051898344            1 
   59000    1.1615103   -5.3873475    29.149609  0.041171763  0.051756609            1 
   60000    1.1716573   -5.3317321    29.693416  0.041240855   0.05161301            2 
   61000    1.1592299   -5.3392608     30.51144  0.041682295   0.05150193            2 
   62000    1.1677829   -5.3216689    31.130206  0.041841674   0.05141957            3 
   63000    1.1606198    -5.397845      31.4949   0.04165992   0.05134024            3 
   64000    1.1731748   -5.3540647    32.309841  0.042070106  0.051264603            2 
   65000    1.1639527   -5.3718164     32.57468   0.04176241  0.051187326            2 
   66000    1.1624702   -5.3565843    33.345993  0.042103527  0.051105351            2 
   67000    1.1405853   -5.4230682    33.941498  0.042215793  0.051043938            2 
   68000    1.1706406   -5.3418824    34.699866  0.042524346  0.050991449            1 
   69000    1.1496366   -5.4481864      34.8925    0.0421407  0.050919874            2 
   70000    1.1776817   -5.3605901    35.786501  0.042602978  0.050837869            3 
   71000    1.1423868   -5.4244213    35.980804   0.04223099  0.050756974            4 
   72000    1.1319657   -5.3736901    36.887809  0.042694223  0.050693068            3 
   73000    1.1502723   -5.4051883     37.02972  0.042271369  0.050619835            3 
   74000    1.1559138   -5.4039079    37.334581  0.042043446   0.05050212            3 
   75000    1.1560923   -5.4219126    37.771247  0.041968052  0.050373346            3 
   76000    1.1584725   -5.4029625    38.183274  0.041867624  0.050235409            3 
   77000    1.1337989   -5.4139486    38.782305  0.041972191  0.050110638            2 
   78000    1.1451165   -5.4091647    39.064815  0.041735914  0.049959666            7 
   79000    1.1461951   -5.4345793    39.552511  0.041722058  0.049792787            6 
   80000     1.162895   -5.5055524    39.750286  0.041406548  0.049629494            4 
   81000    1.1418246   -5.4388222    40.279759  0.041440081  0.049460536            2 
   82000    1.0982762   -5.4304358    40.898553   0.04156357  0.049297889            1 
   83000    1.1088786   -5.4076231    41.592942  0.041759982  0.049145198            6 
   84000    1.1515872   -5.4220193    42.102715  0.041768566  0.049007018            2 
   85000    1.1575389    -5.469491    42.622988  0.041787243  0.048881768            3 
   86000    1.1389183   -5.4409071    43.344694  0.042000672  0.048765976            3 
   87000    1.1305512   -5.4571332    43.908372  0.042057827   0.04865843            3 
   88000    1.1412058   -5.4408753    44.494933  0.042135353  0.048571674            5 
   89000     1.106186   -5.4553618    44.985302  0.042121069  0.048487892            3 
   90000    1.1491748   -5.4566402    45.420633  0.042056141  0.048387979            2 
   91000    1.1165712   -5.4696272     45.76109   0.04190576  0.048279383            1 
   92000    1.1134661   -5.4712646    45.945255  0.041617078  0.048162858            5 
   93000    1.1209989   -5.4642746    46.546022  0.041707905   0.04803967            6 
   94000    1.1344735   -5.5105692    46.867154  0.041548895  0.047909996            2 
   95000    1.1445945     -5.48547    47.378421  0.041560018  0.047778935            4 
   96000    1.1132806   -5.4889381    47.837542  0.041525644  0.047658672            2 
   97000     1.106879   -5.4637626    48.513111   0.04167793  0.047547985            2 
   98000    1.1298039   -5.4602271    48.978604  0.041648472   0.04744041            5 
   99000    1.1129444   -5.5200001    49.280888  0.041482229  0.047321973            2 
  100000    1.0968767   -5.4885201    49.755696   0.04146308  0.047203404            2 
  101000    1.1246831   -5.5202613    50.468072  0.041640324  0.047090107            3 
  102000    1.0991029   -5.5075228     50.83716  0.041533627  0.046987714            2 
  103000    1.0969426   -5.4928481    50.949895  0.041221598  0.046879236            6 
  104000    1.0578327   -5.5150804    51.566644  0.041319426  0.046762329            4 
  105000    1.1039018   -5.4991268    52.120818  0.041365729  0.046649207            1 
  106000    1.1087599   -5.4577381    52.719365  0.041446042  0.046541427            2 
  107000    1.1015093   -5.4994944    53.146533  0.041391381  0.046437029            3 
  108000    1.0939083    -5.515771     53.96232  0.041637592  0.046338759            3 
  109000    1.0701996   -5.5186804    53.984781  0.041272768  0.046245746            4 
  110000    1.0745619   -5.5136456    54.735207  0.041466066  0.046148289            3 
  111000    1.0750569   -5.5105892    55.082825  0.041353472  0.046054854            3 
  112000    1.0887094   -5.5714682    55.253806  0.041111463  0.045956225            5 
  113000    1.0724296   -5.5685099    55.553292  0.040968504  0.045854668            2 
  114000    1.0799599   -5.5298906    56.173109  0.041062214  0.045751164            4 
  115000    1.1018963   -5.5474492    56.674496  0.041068475  0.045653208            5 
  116000    1.0812423   -5.5292913    57.134486  0.041044889  0.045558445            3 
  117000    1.0922933   -5.5388584    57.604763  0.041029034  0.045462947            1 
  118000    1.0716385   -5.5624304    58.192225  0.041096204  0.045371762            3 
  119000    1.0708711   -5.5649797    58.391557  0.040890446  0.045276091            3 
  120000    1.0879246   -5.5869675    58.649602   0.04072889  0.045177646            3 
  121000    1.0532067   -5.5631307    59.277639   0.04082482  0.045085898            3 
  122000    1.0632641   -5.5499789    59.749458  0.040812471  0.044996553            5 
  123000    1.0974928   -5.5461376    60.496576   0.04098684  0.044910845            4 
  124000    1.0798645   -5.5664033    60.997926   0.04099323  0.044832983            4 
  125000    1.0739888   -5.5326582    61.794233  0.041196155  0.044761423            1 
  126000    1.0591163   -5.5604303    62.064147  0.041047716  0.044691392            4 
  127000    1.0601376   -5.5684539    62.486437  0.041001599  0.044621149            4 
  128000    1.0844401   -5.5785029     63.05868  0.041053828  0.044551487            6 
  129000    1.0554514   -5.6440035    63.222923  0.040841682  0.044483287            4 
  130000    1.0561932   -5.6059527    63.637049   0.04079298  0.044408361            4 
  131000    1.0655005   -5.6020426    64.039877  0.040737835  0.044332291            2 
  132000    1.0586615   -5.6382037    64.246231  0.040559489   0.04424888            4 
  133000    1.0782015    -5.618252    64.764437  0.040579221   0.04416938            4 
  134000    1.0426029   -5.6395886    65.095007  0.040481969  0.044093374            4 
  135000    1.0405132   -5.6079157    65.417355  0.040381083  0.044012819            5 
  136000    1.0376206   -5.6220646    65.880725  0.040368091  0.043930956            3 
  137000    1.0453876   -5.5947199    66.204244  0.040270221  0.043846052            4 
  138000    1.0305239   -5.6353335    66.529211  0.040174644  0.043764637            5 
  139000     1.034551     -5.61429     66.85245  0.040079406  0.043675725            2 
  140000    1.0277679   -5.6101337    67.251443  0.040030621  0.043587076            2 
  141000    1.0559711   -5.6547062    67.565681  0.039932436  0.043497763            5 
  142000     1.035303   -5.6454056      67.9218  0.039860211  0.043404199            5 
  143000    1.0250505   -5.6188675    68.431747   0.03987864  0.043311641            1 
  144000    1.0430172   -5.6448755    68.965077  0.039910345  0.043220526            3 
  145000    1.0662778   -5.6608836    69.160377  0.039747343  0.043132761            2 
  146000    1.0336113   -5.6188044    69.335955  0.039575317  0.043040942            4 
  147000    1.0309592   -5.6426039    69.824875  0.039583263  0.042950353            4 
  148000    1.0339738   -5.6753649    70.101764  0.039471714  0.042856087            2 
  149000    1.0318255   -5.6763222    70.644353  0.039510264  0.042762714            4 
  150000    1.0416998   -5.6677281     71.02139  0.039456328  0.042672225           10 
  151000    1.0212064   -5.6454823    71.468804  0.039441945  0.042584265            4 
  152000    1.0153049   -5.6736476    71.844986  0.039388698  0.042493199            4 
  153000    1.0352337   -5.6781766    72.000454  0.039215933  0.042398406            1 
  154000    1.0618855   -5.6965602     72.25078  0.039096742  0.042306324            5 
  155000    1.0220686   -5.6594222    72.983763  0.039238582  0.042214184            3 
  156000    1.0311248   -5.6810029    72.795139  0.038886292  0.042119219            3 
  157000    1.0298169   -5.7382184    72.933754  0.038712184  0.042017493            4 
  158000    1.0160018   -5.7238462    73.186572  0.038600513  0.041917537            6 
  159000    1.0323236   -5.6951262    73.727455  0.038641223  0.041819855            5 
  160000   0.99043391   -5.6832653    74.210143  0.038651116  0.041723272            3 
  161000    1.0212716   -5.7026836    74.727182  0.038678666  0.041627977            4 
  162000    1.0300013   -5.6859927     75.10848  0.038636049  0.041534049            8 
  163000    1.0138132   -5.6968138    75.110352  0.038399975  0.041438029            2 
  164000    1.0137291   -5.7213809    75.272709  0.038248328  0.041342096            5 
  165000    1.0271852   -5.7265444    75.759273  0.038262259  0.041244039            3 
  166000    1.0012392   -5.7007166    76.191437  0.038248713  0.041148617            7 
  167000    1.0020897   -5.7264094    76.404804   0.03812615  0.041056085            2 
  168000    1.0163983   -5.7364703    76.752655  0.038071753  0.040962091            2 
  169000   0.98412186   -5.7028944     77.44194  0.038186361  0.040869545            3 
  170000   0.99808447   -5.7362755    77.629818  0.038053832  0.040776283            3 
  171000   0.97899965   -5.7316268    78.008463   0.03801582  0.040680499            4 
  172000   0.98886629   -5.7338838    78.056437  0.037818041  0.040582982            2 
  173000   0.98354602   -5.7457394    78.468338  0.037797851  0.040490219            4 
  174000    0.9861083   -5.7413954    78.982956  0.037827086  0.040397417            3 
  175000   0.97041929   -5.7739809    78.921095  0.037581474  0.040304102            3 
  176000   0.97757081   -5.7334584    79.229896  0.037514155  0.040211531            4 
  177000    1.0046686   -5.7469977    79.912997  0.037623822  0.040116538            3 
  178000   0.98979438   -5.7435566    79.710979  0.037317874  0.040020658            4 
  179000   0.96621685   -5.7640187    79.656298  0.037083937  0.039920832            5 
  180000   0.98663218   -5.8008786    79.910372  0.036995542  0.039816002            3 
  181000   0.98898895   -5.7817853    80.455419   0.03704209  0.039712443            5 
  182000   0.98091728   -5.7938239    80.575921  0.036893737  0.039612235            4 
  183000   0.98282724   -5.7945585      80.7465  0.036769809  0.039511091            4 
  184000   0.97127053   -5.7902568     81.02542  0.036696295  0.039409407            2 
  185000   0.96077421   -5.8274377    81.100521  0.036531766  0.039307708            3 
  186000    0.9779455   -5.7701735      81.5371  0.036530959  0.039205215            4 
  187000   0.95041767   -5.8158295    81.568798  0.036349731  0.039100474            9 
  188000   0.94226695   -5.8009063    81.849349   0.03628074  0.038992941            2 
  189000   0.95011916   -5.8089354    82.131355  0.036213119  0.038886028            4 
  190000   0.95679931   -5.8369332    81.952409  0.035944039  0.038777538            6 
  191000   0.96921243    -5.805983    82.455656  0.035975417  0.038666883            3 
  192000   0.97555191   -5.8320767    82.579618  0.035841848  0.038557584            5 
  193000    0.9614676   -5.7968675    82.724119  0.035718531  0.038449053            3 
  194000   0.97616807   -5.8224748    82.959683  0.035635603  0.038338761            5 
  195000    0.9568676   -5.8343947    83.281028  0.035590183  0.038227854            2 
  196000    0.9670161   -5.8521657     83.23894  0.035390705  0.038116123            2 
  197000   0.94321544   -5.8068969    83.932746  0.035504545  0.038005341            6 
  198000   0.94335503   -5.8461454     83.51472  0.035149293  0.037894316            4 
  199000    0.9452566   -5.8355662    83.682757   0.03504303  0.037781112            3 
  200000   0.95020292   -5.8282007    83.673514  0.034863964  0.037666075            5 
  201000   0.94901223   -5.8437996    83.794634  0.034740727  0.037549407            5 
  202000   0.97492636   -5.8470993    84.154395   0.03471716  0.037433922            3 
  203000   0.93996832   -5.8790983    84.539993  0.034704431  0.037319375            3 
  204000   0.93351136   -5.8744408    84.366011   0.03446324  0.037203817            6 
  205000   0.93881615   -5.8465782     84.56108  0.034374423  0.037085177            4 
  206000   0.92904606   -5.8354085    84.985141  0.034379102  0.036968205            5 
  207000   0.93024722   -5.8532503    85.279109  0.034331364  0.036854072            3 
  208000   0.92080725   -5.8797125    85.506086  0.034257246  0.036740483            3 
  209000   0.94544734   -5.8828632    85.898444  0.034249778  0.036631194            8 
  210000   0.93753413   -5.8454299    86.402185  0.034286581  0.036523331            7 
  211000   0.94843345   -5.8410676    86.598041  0.034201438  0.036416508            3 
  212000   0.92750156   -5.8776773    86.873301   0.03414831  0.036309605            5 
  213000   0.92709327   -5.8926399    86.709605  0.033923946  0.036201836            6 
  214000   0.90496102   -5.8925236    86.780687  0.033793102   0.03609246            4 
  215000   0.92396005   -5.8916714      87.4981  0.033913992  0.035984598            3 
  216000   0.90788755   -5.9049629    87.428796  0.033730245  0.035878643            7 
  217000    0.9069876   -5.8992815     88.11392  0.033837911  0.035773695           16 
  218000   0.92322317   -5.8718067    88.418823  0.033799244  0.035672939            5 
  219000   0.90934107   -5.8893987    88.350978  0.033619094  0.035572451            4 
  220000   0.92075308   -5.9296089     88.33934  0.033461871  0.035469136            9 
  221000   0.91614072   -5.9053837    88.610656  0.033412766  0.035366674            7 
  222000   0.91004608   -5.9552272    88.458825  0.033205264  0.035262179            3 
  223000   0.93869216   -5.9670794    88.709486  0.033150032   0.03515676            5 
  224000   0.92328798   -5.9483939    89.312104  0.033226229   0.03505404            5 
  225000   0.91124525   -5.9307359    89.419275   0.03311825  0.034952333            5 
  226000   0.90063325   -5.9179811    89.522585  0.033009803  0.034852213            5 
  227000   0.90914795   -5.9367356    90.082393  0.033069894  0.034755434            4 
  228000   0.90666927   -5.9518025    89.948162   0.03287579  0.034658139           12 
  229000   0.88689424   -5.9574785    90.465072  0.032920332  0.034562816            8 
  230000   0.89137694    -5.947648    90.429376  0.032764267  0.034465697            3 
  231000    0.8857243   -5.9469009    90.956277   0.03281251  0.034369239            4 
  232000   0.89535985   -5.9413407    91.161885   0.03274493  0.034272804            5 
  233000   0.88906306   -5.9568934     91.03952  0.032560629  0.034176918            2 
  234000   0.89465021   -5.9599022    91.468183  0.032574139  0.034080587            7 
  235000   0.88444555    -6.010647    91.490107    0.0324433  0.033984741            4 
  236000   0.89504614   -5.9830581    91.848943  0.032432536  0.033888683            4 
  237000   0.88738444   -5.9885671    92.004685  0.032350452   0.03379297            7 
  238000   0.89596637   -6.0108745     91.88233  0.032171684  0.033698531           11 
  239000   0.88173742   -5.9848594    91.781978  0.032002084  0.033603219            5 
  240000   0.87724531   -5.9790151    92.005324  0.031946293  0.033507085            5 
  241000   0.89800276   -5.9597569    92.667325  0.032042644  0.033410676            4 
  242000   0.87888142   -5.9944625    92.591533  0.031884137  0.033314795            4 
  243000   0.88019665    -6.006394    92.511843  0.031725598  0.033218081            9 
  244000   0.87022272   -6.0034111     92.70298  0.031660854  0.033121957            4 
  245000   0.87468976   -6.0269815     93.06707  0.031655466   0.03302375            5 
  246000    0.8652399   -6.0574121    92.786557  0.031431761  0.032927104            2 
  247000   0.86813913   -6.0190822    93.093096  0.031407927  0.032830765           11 
  248000   0.87711894   -6.0392673      93.4664   0.03140672  0.032736118            3 
  249000   0.88156293   -6.0200898    93.815573  0.031397447  0.032641675            5 
  250000    0.8858524   -6.0389419     93.61885  0.031206283  0.032547791           14 
  251000   0.85383937   -6.0297566    93.886687  0.031170879  0.032455489            7 
  252000   0.86376218   -6.0384041    94.184958  0.031145819  0.032363154            4 
  253000   0.86698784   -6.0414402    94.325049  0.031068857  0.032271981            6 
  254000   0.88687686   -6.0444742    94.547717  0.031019592  0.032180214            7 
  255000   0.86617512   -6.0628716    94.723754  0.030955475  0.032088609           10 
  256000   0.86167279   -6.0603883    94.727859  0.030835892  0.031996902            4 
  257000    0.8587428   -6.0584334    94.647305  0.030689787  0.031904968            6 
  258000   0.88044183    -6.081687    94.862549  0.030640358  0.031814052            4 
  259000   0.85090147   -6.1010012    95.129216  0.030607856  0.031723381            7 
  260000   0.85324015   -6.1038105    95.267879  0.030534577  0.031633248            8 
  261000   0.86274266   -6.0775605     95.68792  0.030551698  0.031544365           10 
  262000   0.86313021   -6.0844623    95.823658  0.030478263   0.03145691            5 
  263000   0.83231441   -6.0925567    96.036142  0.030429703  0.031369037            7 
  264000   0.85196568   -6.0938817    96.003544  0.030304149  0.031281507            5 
  265000   0.82276069    -6.086668    96.517099  0.030351289  0.031194963            4 
  266000   0.84219871   -6.0895861    96.381995   0.03019486  0.031108622            5 
  267000    0.8594973   -6.1028992    96.511785   0.03012228  0.031022782            9 
  268000   0.83988447   -6.1128975     96.94213  0.030143697  0.030937533            5 
  269000   0.84227932   -6.1072518    96.987397  0.030045662  0.030852948            5 
  270000   0.86346123   -6.1292287    97.132112  0.029979047  0.030767732            3 
  271000   0.82277564   -6.1165855    97.284259  0.029915209  0.030682442           11 
  272000   0.82449626    -6.116477    97.238871  0.029791321  0.030597773           13 
  273000    0.8536001   -6.1216803    97.524538  0.029769395  0.030512996            7 
  274000   0.82031343   -6.1250787    97.846355  0.029758624  0.030429134           12 
  275000   0.83260309   -6.1357234    97.988715   0.02969355  0.030345905            6 
  276000   0.83822175    -6.139911    98.172151   0.02964135  0.030263327            8 
  277000   0.83482241   -6.1352102    98.221761  0.029549266  0.030180845           10 
  278000   0.83118287   -6.1355336    98.368116  0.029486845  0.030098787            9 
  279000   0.79501518    -6.165708    98.564889  0.029439931  0.030018198            8 
  280000   0.81498869   -6.1264627    98.866642  0.029424596  0.029937631            6 
  281000   0.82432643   -6.1408998    99.067092  0.029379327  0.029856851            6 
  282000   0.82820635   -6.1678666    98.804884  0.029197661   0.02977622            8 
  283000   0.80323973    -6.181928    98.797545  0.029092328  0.029694958            6 
  284000   0.82262525   -6.1722329    98.863642  0.029009285  0.029613434           16 
  285000   0.82030692   -6.1907801    99.244427  0.029018838  0.029533237            6 
  286000   0.81692023   -6.1861102    99.294952  0.028932095  0.029452823            7 
  287000   0.78889625   -6.1172997    99.854571  0.028993778  0.029372918           12 
  288000   0.81341151   -6.1715743    99.370197  0.028752951   0.02929275            5 
  289000    0.8081173   -6.1731635    99.895568   0.02880495  0.029212908            5 
  290000    0.7921716    -6.196165     99.56598  0.028610914  0.029133684            8 
  291000   0.81429833   -6.1703125    99.965246  0.028626932  0.029054591            6 
  292000   0.80256623   -6.2129474    99.989706  0.028535875   0.02897485            7 
  293000   0.79696927   -6.1938257    99.763859  0.028374249  0.028894374            4 
  294000   0.79496205   -6.1726174    100.26071  0.028418569  0.028815317           11 
  295000   0.77828235    -6.207968    100.54499  0.028402538  0.028737478            5 
  296000   0.78252764   -6.2445782    100.18884  0.028206317  0.028658933            8 
  297000   0.80307688   -6.1952153    100.52882  0.028206741  0.028580698            7 
  298000   0.79117353   -6.2193696    100.85887  0.028204383  0.028502829            4 
  299000   0.79453535   -6.2044995    100.75651  0.028081525  0.028424781            8 
  300000   0.78388559   -6.2047303    100.79946  0.027999849  0.028346454           11 
  301000   0.79150176   -6.2555907    100.88654  0.027930936  0.028268635           13 
  302000   0.78943403   -6.2261444    101.32581   0.02795966  0.028191204           13 
  303000   0.78443435   -6.2223713    100.73207  0.027704088  0.028113825            6 
  304000   0.78990046   -6.1831189    101.55383  0.027838221  0.028036286           10 
  305000   0.78243958   -6.2431217    101.52523  0.027739135  0.027959985           10 
  306000   0.77512775   -6.2571999    101.34544  0.027599521  0.027884128            6 
  307000   0.77385395   -6.2497207    101.44454  0.027536519  0.027807235           14 
  308000   0.77539099   -6.2778264    101.34888  0.027421234  0.027730286            9 
  309000   0.77213281   -6.2642693    101.71956  0.027432459  0.027652716            6 
  310000   0.79128302   -6.2965897    101.58927  0.027308943   0.02757554           14 
  311000    0.7573859   -6.2784252    101.84948  0.027290857  0.027498552           13 
  312000   0.77447367   -6.2798206    101.72312  0.027169636  0.027422056           13 
  313000   0.76450154   -6.2907649    101.85127  0.027116953  0.027344678            6 
  314000   0.76944984   -6.3147232    101.52679  0.026944476  0.027266503            6 
  315000   0.75652314     -6.31867    101.85016  0.026944486  0.027188512            8 
  316000   0.74936551   -6.3287757    101.61408  0.026796962  0.027110563           13 
  317000   0.77715355   -6.3247206    101.77695  0.026755245  0.027032448            8 
  318000   0.74767369   -6.2916591    101.83244   0.02668565  0.026954978            5 
  319000   0.74965171   -6.2969109     101.9795  0.026640413  0.026877763            9 
  320000   0.76944268   -6.3063242    102.06449  0.026579294  0.026800374            7 
  321000   0.76296322   -6.3164902     102.1803  0.026526556  0.026722887            5 
  322000    0.7570378   -6.2902601    102.50478  0.026528153  0.026646042           14 
  323000   0.76090408   -6.3122609    102.37373   0.02641221  0.026569049           17 
  324000   0.75229023   -6.3128042    102.36502   0.02632845   0.02649231            9 
  325000   0.77135256   -6.3438124    102.14638   0.02619138  0.026415196            6 
  326000   0.74472991   -6.3411529     102.3164  0.026154499  0.026337799           14 
  327000   0.73535938   -6.3449272    102.26512  0.026061448  0.026260683            7 
  328000    0.7632966   -6.3549061    102.53473   0.02605049  0.026183634            8 
  329000   0.75483414   -6.3309513    102.58586  0.025984261  0.026107356            8 
  330000   0.73663731   -6.3669901    102.42956   0.02586605  0.026031161            9 
  331000   0.72155379   -6.3708152    102.63638  0.025839974  0.025954886            9 
  332000   0.73475659   -6.3496635    102.79826  0.025802776  0.025878764            5 
  333000   0.74014257   -6.3471343    102.67178  0.025693639  0.025803522           14 
  334000   0.72647093   -6.3667978    102.76342  0.025639577  0.025728118            9 
  335000    0.7222896   -6.3840012    102.59294  0.025520633  0.025652812            9 
  336000   0.73265742   -6.3762234     102.6842  0.025467312  0.025577635            6 
  337000   0.73558565   -6.3920394    102.90076  0.025445292  0.025502092            6 
  338000    0.7202193   -6.4168962    102.82875  0.025352256   0.02542716            8 
  339000   0.73136753   -6.3770515    103.17268  0.025362017  0.025352611           22 
  340000   0.72233581   -6.4102266    102.76478  0.025187446  0.025277611            7 
  341000   0.72709548   -6.3909706    103.17708  0.025214341  0.025203457            9 
  342000   0.73602303   -6.4034471    103.40172   0.02519535  0.025129196           11 
  343000   0.73604755   -6.4042307    103.23199  0.025080658  0.025055449           10 
  344000   0.70818487   -6.3786185    103.40016  0.025048489  0.024981929           14 
  345000    0.7194651    -6.420735    103.33429  0.024959974  0.024908964           22 
  346000   0.71082281    -6.422762    103.33851  0.024888851  0.024835862            5 
  347000   0.71083027   -6.4185709     103.6121   0.02488283  0.024762622            8 
  348000   0.71789805   -6.4254801    103.35787  0.024750447  0.024689676           10 
  349000   0.71776867   -6.4255201    103.45007  0.024701544  0.024617092            9 
  350000   0.70878535   -6.4074168    103.60253  0.024667268  0.024544653            6 
  351000   0.70057586   -6.4441893      103.418  0.024553181  0.024471969           21 
  352000   0.69888165   -6.4362232    103.55944  0.024516913  0.024399891            9 
  353000   0.69895345    -6.486348    103.60167   0.02445743  0.024327737           21 
  354000   0.70823425   -6.4438117    103.73338  0.024419345  0.024255619            4 
  355000   0.68430948   -6.4410674    103.68717  0.024339712  0.024183486           25 
  356000    0.7108541   -6.4483672    103.83142  0.024305107  0.024111718            8 
  357000   0.67828783   -6.4547293    103.78785  0.024226855  0.024040291            6 
  358000   0.70030473   -6.4710348     103.6668  0.024131005  0.023968623           19 
  359000   0.71322327   -6.4908501    104.02994  0.024148084  0.023897499           11 
  360000   0.69959093   -6.4554848    104.23506  0.024128485  0.023826686           11 
  361000   0.69934446   -6.4685615    103.67404  0.023932142  0.023756073           13 
  362000   0.67436108   -6.4522973    103.98529  0.023937682  0.023685666           11 
  363000   0.68942509   -6.4474343    104.16089  0.023912049  0.023615449           14 
  364000   0.68889986   -6.4964248    103.95931  0.023800209  0.023545339           19 
  365000   0.67717606   -6.4892967    104.09812  0.023766694  0.023475457           10 
  366000   0.69558278   -6.5096643    104.09375  0.023700763  0.023405659            7 
  367000   0.68334689   -6.5118065    104.22532  0.023666059  0.023335778           10 
  368000   0.68499997   -6.4870021    104.33152  0.023625798  0.023266502           23 
  369000   0.68936855   -6.5143498    104.09398  0.023508126  0.023197242           18 
  370000   0.67232307   -6.5402144    103.93438  0.023408644  0.023127763           26 
  371000   0.67642106   -6.5483173    103.82583  0.023321166  0.023057889           18 
  372000   0.67823367   -6.5333504    103.97806  0.023292577  0.022988005           19 
  373000   0.68207492   -6.5529716    103.77175  0.023184037  0.022918237           19 
  374000   0.66623944   -6.5485466    104.01178  0.023175529  0.022848943           19 
  375000   0.69740451   -6.5554784    103.71214  0.023047142    0.0227794           18 
  376000    0.6749562   -6.5611762    103.94246  0.023036894   0.02270994           39 
  377000   0.68152151   -6.5633346    104.04093  0.022997552  0.022640584           18 
  378000     0.672287   -6.5400852    103.84611  0.022893763  0.022571745           38 
  379000   0.66111066   -6.5509307     103.9673  0.022860005  0.022502966           19 
  380000   0.65891434   -6.5760078    104.06474  0.022821216  0.022434449           16 
  381000   0.66662396   -6.5761737    104.02617  0.022752881  0.022365977           25 
  382000   0.66683228   -6.5833281    103.71171  0.022624719  0.022297775           15 
  383000    0.6509352   -6.5792194     103.7927  0.022583268    0.0222296           21 
  384000   0.66063833    -6.604382    103.87064  0.022541372  0.022161165           19 
  385000   0.65822834   -6.5604279    104.08201  0.022528574  0.022092615           13 
  386000   0.65128684   -6.6213667    103.85151  0.022420447  0.022024406           23 
  387000   0.64500886    -6.613643    104.02842  0.022400607  0.021956266           15 
  388000   0.63984519   -6.6031251    103.93074  0.022321893  0.021888299           50 
  389000   0.64774723    -6.598354    104.00224   0.02227983  0.021820974           33 
  390000   0.64978055   -6.5880249    104.33443  0.022293683   0.02175419           31 
  391000    0.6419402   -6.5895938    104.41563   0.02225397  0.021687707           22 
  392000   0.63789462   -6.5914709    104.25105  0.022162213  0.021621513           44 
  393000   0.62733008   -6.5798354     104.1927  0.022093447  0.021555692           54 
  394000   0.64106212   -6.6236696    103.95341  0.021986761  0.021489838           62 
  395000   0.63607723   -6.6106813    104.17167  0.021977146  0.021423976           12 
  396000   0.62134977   -6.6410872    104.06774  0.021899777   0.02135834           70 
  397000    0.6293749   -6.6583696    104.21765  0.021876081   0.02129272           23 
  398000   0.62203946   -6.6499463    104.14872  0.021806684  0.021227514           48 
  399000   0.63478034   -6.6653149    104.24937  0.021773051  0.021162626           47 
  400000   0.62555995   -6.6531971    104.13908  0.021695641  0.021097804           87 
  401000    0.6238595    -6.667165    104.12189  0.021637965   0.02103276           41 
  402000   0.61528614   -6.6631562    104.16289  0.021592638  0.020967954           54 
  403000   0.62830679    -6.662259    104.26589  0.021560358  0.020903363           67 
  404000   0.62372425   -6.6604173    104.15523  0.021484164   0.02083897           53 
  405000   0.63504599   -6.6674897    104.20517  0.021441393   0.02077496           51 
  406000   0.61012031   -6.7129143    104.30977  0.021410051  0.020710796           44 
  407000   0.61653557   -6.6977445    104.22963  0.021341038  0.020646769           29 
  408000   0.61780398   -6.6888681    104.36201  0.021315771  0.020583031           64 
  409000   0.59962885   -6.6790663    104.18502  0.021227591  0.020519245           56 
  410000   0.61756111   -6.6960992    103.91831  0.021121608   0.02045566           68 
  411000     0.616087   -6.6927651     104.3411   0.02115594  0.020392269           29 
  412000   0.60795957   -6.7096769    104.09193  0.021054193  0.020329104           53 
  413000   0.60047346   -6.7284406    104.37343  0.021060014  0.020265858          129 
  414000   0.60723511   -6.7148059    103.97373   0.02092869  0.020202804          137 
  415000   0.61059821   -6.7128674    104.09556  0.020902723  0.020139881           59 
  416000   0.59882456    -6.703907    104.27386  0.020888193  0.020077339           74 
  417000   0.60053944   -6.7213689    103.75831  0.020735074  0.020015017           27 
  418000   0.59568476   -6.7019903    104.05389  0.020744396  0.019952747           49 
  419000   0.58859397   -6.7459191    104.00926   0.02068601  0.019890539           66 
  420000   0.60101373   -6.7378259    103.98157  0.020631264  0.019828651           52 
  421000   0.59453332   -6.7288512    104.20864  0.020627206  0.019767102           41 
  422000   0.60549013    -6.729571    104.22404  0.020581366  0.019705857           30 
  423000   0.61154505   -6.7231654    104.26222  0.020540231  0.019644841           21 
  424000   0.58750776   -6.7426972     104.2315   0.02048575   0.01958402           21 
  425000   0.58982812   -6.7399643    104.18785  0.020428991  0.019523396           69 
  426000   0.58487744   -6.7229924    104.30101  0.020403171  0.019463134           62 
  427000   0.59321759   -6.7432325    104.03947  0.020304346  0.019403007           33 
  428000   0.58625887   -6.7565393     104.2434  0.020296611   0.01934284           36 
  429000   0.58184119   -6.7509475    104.14521  0.020230228  0.019282996           42 
  430000   0.56706418   -6.7494488    104.40667  0.020233851  0.019223507           30 
  431000   0.58955203   -6.7747727    104.10135  0.020127872  0.019164179           67 
  432000   0.58406303    -6.770399    104.23436  0.020106937  0.019104987           27 
  433000   0.56908593   -6.7763208    104.42553  0.020097292  0.019046006           31 
  434000    0.5780713   -6.7771033    104.23346  0.020014106   0.01898715           23 
  435000   0.56631373   -6.7975031    104.23986  0.019969322  0.018928476           47 
  436000   0.57795545   -6.7687424    104.25927   0.01992723  0.018869921           35 
  437000   0.56807271   -6.7906426    104.19063   0.01986854  0.018811474           22 
  438000   0.56646004   -6.7800284    104.29001  0.019842087  0.018753249           28 
  439000   0.56413217   -6.8153935    104.00214  0.019742243  0.018695208           53 
  440000   0.56877024   -6.8006854    103.81022  0.019661026  0.018637212           23 
  441000   0.54935064   -6.8025472    104.06347  0.019664299  0.018579423           82 
  442000   0.54774631   -6.7993736    104.06041  0.019619232  0.018521767           35 
  443000   0.55744281   -6.8114304    104.13471  0.019588923  0.018464295          107 
  444000   0.56357832    -6.828555     103.9158  0.019503715  0.018406934           53 
  445000   0.55555151   -6.8140894    103.98308  0.019472487  0.018349734          101 
  446000   0.55903218   -6.8299172    104.01407  0.019434617   0.01829267           74 
  447000   0.55801763   -6.8458883    103.80047  0.019351318  0.018235829           65 
  448000   0.55041885   -6.8494543    103.96895  0.019339462  0.018179193           51 
  449000   0.54709216    -6.831804    103.86658   0.01927739  0.018122654           92 
  450000   0.55695118    -6.840876      104.007  0.019260555  0.018066105           81 
  451000   0.54204909   -6.8499327    103.92812  0.019203274   0.01800974          126 
  452000   0.54469306   -6.8453257    103.90528  0.019156578  0.017953553           87 
  453000   0.54114421   -6.8401854    103.81293  0.019097301  0.017897708          116 
  454000   0.52373358   -6.8500951    103.93495  0.019077633  0.017841958           76 
  455000   0.53400748   -6.8510395    103.67716  0.018988491  0.017786377          112 
  456000   0.53643546   -6.8807185    103.83562  0.018975809  0.017730961          174 
  457000   0.53136127   -6.8455392     103.9603   0.01895702  0.017675736          111 
  458000   0.53650953   -6.8759294    103.60933   0.01885177  0.017620604           59 
  459000   0.54248434   -6.8843726     103.5522  0.018800326  0.017565493           40 
  460000   0.53886201   -6.8905367    103.66474  0.018779844  0.017510477          106 
  461000   0.52205947   -6.8700361    103.67939  0.018741755  0.017455694           91 
  462000   0.53615388   -6.8884195     103.5432  0.018676623  0.017401027           82 
  463000   0.53215077   -6.8942525    103.52911  0.018633749   0.01734664           46 
  464000   0.52608182   -6.8859406    103.74076  0.018631602  0.017292296          158 
  465000   0.52939784   -6.8836838    103.60205  0.018566676    0.0172382           89 
  466000   0.52929878   -6.8982489    103.56389   0.01852001  0.017184197           74 
  467000   0.52561964   -6.8988638    103.86619  0.018534295  0.017130413           69 
  468000   0.51319968   -6.8977111    103.69898  0.018464918  0.017076911          106 
  469000   0.52803491   -6.9090002    103.52271  0.018394227  0.017023525          141 
  470000   0.51003246   -6.9120495    103.49315  0.018349849  0.016970366          219 
  471000   0.51867668   -6.9061312    103.43173  0.018300023  0.016917474          221 
  472000   0.51010245   -6.9320436    103.57242  0.018286091  0.016864614          167 
  473000   0.51746384   -6.9131906    103.46589  0.018228663  0.016811992          107 
  474000   0.51585995   -6.9129261    103.62574  0.018218309  0.016759555          166 
  475000   0.49991423   -6.9248333    103.52306   0.01816194  0.016707213           95 
  476000   0.49885522   -6.9346058    103.36732  0.018096519  0.016655001          210 
  477000   0.49988516   -6.9235427    103.42385  0.018068457  0.016603068          167 
  478000   0.49785841    -6.937688      103.326  0.018013598  0.016551253           57 
  479000   0.50568627   -6.9564315     103.3215  0.017975209  0.016499615           87 
  480000   0.50325691   -6.9340725    103.44923  0.017959936  0.016447982           63 
  481000   0.49574455   -6.9430163    103.27711  0.017892778  0.016396617          192 
  482000   0.50531608   -6.9599345    103.28618  0.017857224  0.016345448          118 
  483000   0.49121169   -6.9699417    103.12728  0.017792837  0.016294432          138 
  484000   0.49819498   -6.9563718     103.2261  0.017773088  0.016243561          178 
  485000   0.48324893   -6.9571642    103.18498  0.017729378  0.016192828          185 
  486000   0.48718423   -6.9628469    103.22966  0.017700559  0.016142365          248 
  487000   0.49724415   -6.9730648    103.36666  0.017687656  0.016092064          245 
  488000   0.49112279   -6.9815759    103.08549  0.017603396   0.01604197          115 
  489000    0.4986034   -6.9838242    103.20976  0.017588575  0.015991968          208 
  490000   0.47990092   -6.9846876    103.26621   0.01756228  0.015942293          107 
  491000   0.49613776   -6.9663833    103.15406  0.017507478  0.015892758          143 
  492000   0.47912731    -6.984711    103.05063  0.017454375  0.015843213          170 
  493000   0.48519254   -6.9789852    103.29577  0.017460407  0.015793956          160 
  494000   0.48421365   -6.9952724    103.01167  0.017377137  0.015744902          133 
  495000   0.48624352   -6.9895021     103.0299  0.017345102  0.015695936          118 
  496000    0.4752477   -6.9981467    103.11819  0.017324965  0.015647177          205 
  497000   0.48578153   -7.0055966    103.04921  0.017278539  0.015598551          112 
  498000   0.47327095   -7.0104836    102.83707  0.017208345  0.015550078          330 
  499000   0.46634284   -7.0043982    103.03531  0.017206966  0.015501743          273 
  500000   0.46175099   -7.0067373    102.90347  0.017150578  0.015453667          278 
  501000   0.45830959   -7.0089994    103.20733  0.017166888  0.015405853          224 
  502000   0.47060725   -7.0100865    103.03128  0.017103465  0.015358264          176 
  503000   0.47411394   -7.0060769    102.93851  0.017054093  0.015310788          197 
  504000    0.4616181   -7.0205833    103.13339  0.017052478  0.015263482          437 
  505000    0.4570024   -7.0204172     102.9403  0.016986847  0.015216314          169 
  506000   0.45082697   -7.0358455    102.93471  0.016952356   0.01516926          298 
  507000   0.45661692   -7.0232106     102.7219  0.016883942  0.015122336          277 
  508000   0.45315258   -7.0282476    102.92796  0.016884507  0.015075662          219 
  509000   0.46682403   -7.0302007    103.07187  0.016874897  0.015029178          339 
  510000   0.45327386   -7.0255038     102.9513  0.016822108  0.014982787          125 
  511000   0.44574666   -7.0358774    102.96127  0.016790814  0.014936559          174 
  512000   0.45484877   -7.0424208    102.93799  0.016754229  0.014890468          394 
Loop time of 1286.68 on 48 procs for 500000 steps with 4000 atoms

Performance: 67149.658 tau/day, 388.598 timesteps/s
99.4% CPU use with 48 MPI tasks x no OpenMP threads

MPI task timing breakdown:
Section |  min time  |  avg time  |  max time  |%varavg| %total
---------------------------------------------------------------
Pair    | 91.722     | 97.686     | 103.05     |  29.1 |  7.59
Neigh   | 9.0348     | 9.284      | 9.6138     |   4.8 |  0.72
Comm    | 82.875     | 88.817     | 94.55      |  31.9 |  6.90
Output  | 0.9561     | 0.95712    | 0.99145    |   0.5 |  0.07
Modify  | 1074.6     | 1078.3     | 1082       |   6.0 | 83.80
Other   |            | 11.68      |            |       |  0.91

Nlocal:        83.3333 ave          91 max          77 min
Histogram: 2 4 12 4 4 7 5 6 3 1
Nghost:        2385.48 ave        2404 max        2362 min
Histogram: 1 2 2 5 4 17 7 4 3 3
Neighs:        16502.4 ave       19258 max       14224 min
Histogram: 7 3 6 5 7 3 6 5 4 2
FullNghs:      33006.7 ave       36033 max       30311 min
Histogram: 1 5 11 5 5 4 6 6 4 1

Total # of neighbors = 1584320
Ave neighs/atom = 396.08000
Neighbor list builds = 26788
Dangerous builds = 0

#clear
#
#next RN
#
#jump SELF
Total wall time: 0:21:30
