
units lj                  # Use reduced LJ style units
atom_style atomic         # Uncharged point particles
atom_modify map hash      # Needed for indexing of clusters etc
                          # Used to be able to find where atoms are in relation to each other.

lattice fcc 1.0 spacing 1 1 1
Lattice spacing in x,y,z = 1.5874011 1.5874011 1.5874011
region box block 0 10 0 10 0 10 units lattice
create_box 2 box
Created orthogonal box = (0.0000000 0.0000000 0.0000000) to (15.874011 15.874011 15.874011)
  3 by 4 by 4 MPI processor grid
create_atoms 1 box
Created 4000 atoms
  using lattice units in orthogonal box = (0.0000000 0.0000000 0.0000000) to (15.874011 15.874011 15.874011)
  create_atoms CPU = 0.002 seconds
set type 1 type/fraction 2 0.63 78393
Setting atom values ...
  2531 settings made for type/fraction
mass 1 1.0
mass 2 1.0
pair_style lj/cut  3.5
pair_modify tail  yes
pair_coeff 1  1  1.0  1.0   # Intearaction between 1 and 1 set with epsilon = 1 and sigma = 1
pair_coeff 1  2  1.5  0.8
pair_coeff 2  2  0.5  0.88

write_data data.0
System init for write_data ...
Neighbor list info ...
  update every 1 steps, delay 10 steps, check yes
  max neighbors/atom: 2000, page size: 100000
  master list distance cutoff = 3.8
  ghost atom cutoff = 3.8
  binsize = 1.9, bins = 9 9 9
  1 neighbor lists, perpetual/occasional/extra = 1 0 0
  (1) pair lj/cut, perpetual
      attributes: half, newton on
      pair build: half/bin/atomonly/newton
      stencil: half/bin/3d
      bin: standard
WARNING: Not all mixed pair coeffs generated from mixing. Use write_data with 'pair ij' option to store all pair coeffs. (../write_data.cpp:312)


#############################
#   M E L T   S Y S T E M   #
#############################

velocity all create 2.4 3143649 mom yes dist gaussian # Assign velocities
                                                    # Temperature 2.4, random number seed, zero linear momentum
                                                                                # Gaussian distribution

timestep 0.002   # simulation timestep
thermo 1000       # output thermodynamic data every 1000 steps bf 100

# Define a fix  in this case with index 1 applied to all
# particles in the simulation. This fix is for simulations
# in the anisotropic NPT ensemble. Note that we use the MTK
# correction.
fix 1 all npt temp 2.4 2.4 0.1 iso 5.68 5.68 0.5 mtk yes tchain 5 pchain 5 # Use NPT ensemble
                                                                         # Set temperature and pressure and damping
                                                                         # Numbers of thermostats in chain and in barostat
run 10000          # run for 10000 steps
Per MPI rank memory allocation (min/avg/max) = 3.642 | 3.644 | 3.648 Mbytes
Step Temp E_pair E_mol TotEng Press Volume 
       0          2.4    -4.562992            0  -0.96389204   -3.9987934         4000 
    1000    2.4215474    -4.340828            0    -0.709415    5.6211499    3594.9775 
    2000    2.4301351    -4.299447            0  -0.65515573    5.8109897    3607.3032 
    3000    2.3923833   -4.2926778            0       -0.705    5.6976664    3613.7273 
    4000     2.425307   -4.2803271            0  -0.64327617    5.8741217    3610.7847 
    5000    2.4244829   -4.2684341            0  -0.63261892    5.9565407    3598.4408 
    6000    2.3904586   -4.2973926            0  -0.71260106    5.6617069     3611.206 
    7000    2.4239229   -4.2743358            0  -0.63936046    6.0740479    3584.1757 
    8000    2.4397484   -4.2541431            0  -0.59543546    5.7969863    3628.4593 
    9000    2.3958009   -4.2717461            0  -0.67894322    5.8243224     3609.988 
   10000    2.3769027   -4.3313513            0  -0.76688853    5.6467486    3600.5186 
Loop time of 2.69483 on 48 procs for 10000 steps with 4000 atoms

Performance: 641226.831 tau/day, 3710.803 timesteps/s
99.6% CPU use with 48 MPI tasks x no OpenMP threads

MPI task timing breakdown:
Section |  min time  |  avg time  |  max time  |%varavg| %total
---------------------------------------------------------------
Pair    | 1.2111     | 1.2785     | 1.463      |   3.5 | 47.44
Neigh   | 0.21887    | 0.2258     | 0.2565     |   1.2 |  8.38
Comm    | 0.72664    | 0.90558    | 0.99022    |   5.4 | 33.60
Output  | 0.00027379 | 0.00027884 | 0.00034633 |   0.0 |  0.01
Modify  | 0.21435    | 0.26914    | 0.31693    |   6.6 |  9.99
Other   |            | 0.01554    |            |       |  0.58

Nlocal:        83.3333 ave          91 max          74 min
Histogram: 2 2 3 4 10 8 5 5 5 4
Nghost:        1761.90 ave        1788 max        1736 min
Histogram: 3 2 6 5 6 10 7 4 2 3
Neighs:        10612.4 ave       12221 max        8901 min
Histogram: 2 1 4 4 12 9 7 5 3 1

Total # of neighbors = 509394
Ave neighs/atom = 127.34850
Neighbor list builds = 908
Dangerous builds = 205

# Equilibrate just above the melting temperature to avoid step fn in T

fix 1 all npt temp 1.25 1.25 0.1 iso 5.68 5.68 0.5 mtk yes tchain 5 pchain 5
run 2000
Per MPI rank memory allocation (min/avg/max) = 3.644 | 3.646 | 3.650 Mbytes
Step Temp E_pair E_mol TotEng Press Volume 
   10000    2.3769027   -4.3313513            0  -0.76688853    5.6467486    3600.5186 
   11000    1.2675483   -6.2742353            0   -4.3733882    5.9038056     2764.261 
   12000    1.2455455   -6.3869756            0   -4.5191244    5.2526209     2756.154 
Loop time of 0.668738 on 48 procs for 2000 steps with 4000 atoms

Performance: 516794.119 tau/day, 2990.707 timesteps/s
99.7% CPU use with 48 MPI tasks x no OpenMP threads

MPI task timing breakdown:
Section |  min time  |  avg time  |  max time  |%varavg| %total
---------------------------------------------------------------
Pair    | 0.298      | 0.32798    | 0.35517    |   2.5 | 49.04
Neigh   | 0.042664   | 0.044707   | 0.04693    |   0.5 |  6.69
Comm    | 0.21364    | 0.2458     | 0.27786    |   3.1 | 36.76
Output  | 5.1395e-05 | 5.2524e-05 | 6.8459e-05 |   0.0 |  0.01
Modify  | 0.041369   | 0.045325   | 0.048808   |   0.9 |  6.78
Other   |            | 0.004876   |            |       |  0.73

Nlocal:        83.3333 ave          89 max          79 min
Histogram: 4 5 4 6 4 6 9 6 2 2
Nghost:        2108.62 ave        2132 max        2091 min
Histogram: 5 5 9 2 8 6 5 5 1 2
Neighs:        13829.6 ave       14934 max       12602 min
Histogram: 2 6 2 7 7 6 3 7 4 4

Total # of neighbors = 663819
Ave neighs/atom = 165.95475
Neighbor list builds = 145
Dangerous builds = 9

#############################
# L I N E A R  Q U E N C H  #
#############################

# Define solid atoms. This closely follows ten Wolde  Ruiz-Montero and Frenkel  Faraday Discuss  1996  104  93-110
# Compute components of the per-atom q6 vector
compute q6 all orientorder/atom degrees 1 6 components 6 nnn NULL cutoff 1.3 # compute the Q6 parameter.
                                                                             # Use all neighbours within 1.3 unit cell.

# get number of connections
compute coord_number all coord/atom orientorder q6 0.5

# An atom is solid if it has 8 or more connections (of a possible 14)
variable is_solid atom c_coord_number>=8
group solid dynamic all var is_solid    # Must be dynamic to update
dynamic group solid defined

# do clustering
compute cluster solid cluster/atom 1.3 # Create a cluster where all atoms within are solid and max 1.3 units from another member

# define chunks one chunk per cluster
compute clus_chunks solid chunk/atom c_cluster nchunk every compress yes  # Says which atoms are in which chunk

# count the size of each chunk
compute size_chunks solid property/chunk clus_chunks count


# Find the maximum entry in the vector of chunk sizes
variable max_n equal max(c_size_chunks)


# Thermo style which includes this variable
# thermo_style custom step temp pe vol v_max_n

thermo ${N}  # Print the thermo information every 100 steps
thermo 1000  

# Reset the npt fix at a lower temperature (below freezing)
fix 1  all npt temp  ${temp} ${temp}  0.1  iso  5.68  5.68  0.5  mtk yes tchain  5  pchain  5
fix 1  all npt temp  0.45 ${temp}  0.1  iso  5.68  5.68  0.5  mtk yes tchain  5  pchain  5
fix 1  all npt temp  0.45 0.45  0.1  iso  5.68  5.68  0.5  mtk yes tchain  5  pchain  5

dump dmp2 all dcd ${N} traj.dcd
dump dmp2 all dcd 1000 traj.dcd


compute msd all msd com yes
variable twopoint equal c_msd[4]/6/(step*dt+1.0e-6)
fix 9 all vector 10 c_msd[4]
variable fit equal slope(f_9)/6/(10*dt)
thermo_style custom step temp pe c_msd[4] v_twopoint v_fit v_max_n

fix 1 all npt temp 1.25 ${temp} 0.1 iso 5.68 5.68 0.5 mtk yes tchain 5 pchain 5
fix 1 all npt temp 1.25 0.45 0.1 iso 5.68 5.68 0.5 mtk yes tchain 5 pchain 5
run 2000000 # 5000000  # Run for this many steps
Neighbor list info ...
  update every 1 steps, delay 10 steps, check yes
  max neighbors/atom: 2000, page size: 100000
  master list distance cutoff = 3.8
  ghost atom cutoff = 3.8
  binsize = 1.9, bins = 8 8 8
  4 neighbor lists, perpetual/occasional/extra = 1 3 0
  (1) pair lj/cut, perpetual
      attributes: half, newton on
      pair build: half/bin/atomonly/newton
      stencil: half/bin/3d
      bin: standard
  (2) compute orientorder/atom, occasional
      attributes: full, newton on
      pair build: full/bin/atomonly
      stencil: full/bin/3d
      bin: standard
  (3) compute coord/atom, occasional
      attributes: full, newton on
      pair build: full/bin/atomonly
      stencil: full/bin/3d
      bin: standard
  (4) compute cluster/atom, occasional
      attributes: full, newton on
      pair build: full/bin/atomonly
      stencil: full/bin/3d
      bin: standard
Per MPI rank memory allocation (min/avg/max) = 9.846 | 9.852 | 9.855 Mbytes
Step Temp PotEng c_msd[4] v_twopoint v_fit v_max_n 
   12000    1.2455455   -6.3869756 3.9184693e-30 2.7211591e-32 8.3333333e+20            1 
   13000    1.2711495   -6.3295145   0.51821754 0.0033219072  0.043214386            2 
   14000      1.26783   -6.3643894    0.9889615 0.0058866754  0.040399845            1 
   15000    1.2541728   -6.4044426     1.427667 0.0079314829  0.039182826            3 
   16000    1.2248342   -6.3717408    1.9301525  0.010052877  0.039262975            2 
   17000    1.2657073   -6.3897209    2.3750654  0.011642477  0.038953424            2 
   18000    1.2260275   -6.4163909    2.8343585   0.01312203  0.038747687            2 
   19000    1.2203222   -6.3865146    3.2468245  0.014240458  0.038281669            3 
   20000    1.2639565   -6.3783538    3.8191151  0.015912979  0.038444504            2 
   21000    1.2450143   -6.3992517    4.3039208   0.01707905  0.038894421            4 
   22000    1.2225759   -6.3845253    4.8054442   0.01820244   0.03929349            4 
   23000     1.251901   -6.4135994    5.2735077  0.019106911  0.039509364            4 
   24000    1.2561033   -6.3821774    5.7420028  0.019937509  0.039617211            1 
   25000    1.2356386   -6.3784023    6.2153892  0.020717964  0.039618118            3 
   26000    1.2255326   -6.3832109    6.7194033  0.021536548  0.039683919            3 
   27000    1.2478121   -6.3980542     7.090285  0.021883595  0.039648926            2 
   28000    1.2393354   -6.3572076    7.5699919  0.022529737  0.039569773            6 
   29000    1.2294151   -6.3949406    7.9448628  0.022830065  0.039403604           10 
   30000    1.2164481   -6.4352711    8.4151575  0.023375437  0.039258915            2 
   31000    1.2326456    -6.428361    8.8221116  0.023715353  0.039098503            1 
   32000    1.2258072   -6.4028713     9.282684  0.024173656  0.038928858            2 
   33000    1.2468294   -6.4241221    9.6565028  0.024385108  0.038703717            7 
   34000    1.2430516   -6.4184379      10.2418  0.025102452  0.038618559            3 
   35000    1.2164704   -6.4279213    10.856184  0.025848056  0.038630094            3 
   36000    1.2396224   -6.3777006    11.366196  0.026310639  0.038729198            3 
   37000    1.2331417   -6.4149708    11.771677  0.026512786  0.038824973            3 
   38000    1.2241683   -6.4345281    12.179515  0.026709461  0.038858685            2 
   39000    1.2320836    -6.426371    12.501806   0.02671326  0.038834093            2 
   40000     1.234765   -6.4279502     13.05388  0.027195584   0.03875634            2 
   41000    1.2333674   -6.4610913    13.440251  0.027317582  0.038675547            2 
   42000    1.2403309   -6.4388516    13.803846  0.027388583  0.038627908            1 
   43000    1.2616637   -6.4112634    14.379257  0.027866777  0.038560518            5 
   44000    1.2237136   -6.3528935    14.835958  0.028098405  0.038520586            1 
   45000    1.2112659   -6.4198883    15.129264  0.028017156  0.038455069            2 
   46000    1.2058812   -6.4206728    15.721535  0.028481041  0.038368527            4 
   47000    1.2574029   -6.4230464    16.057584  0.028470893  0.038291905            4 
   48000      1.27741   -6.4268332    16.405398  0.028481593  0.038211161            2 
   49000    1.2450622   -6.4069526    16.871442  0.028692928  0.038112559            1 
   50000    1.2560808   -6.4403059    17.362384  0.028937307  0.038039679            2 
   51000      1.22939   -6.4798037    17.505039  0.028603004    0.0379279            1 
   52000    1.2067519   -6.4227281    18.067504  0.028954333   0.03782237            2 
   53000    1.2463251   -6.4651884     18.50225  0.029091588  0.037742405            2 
   54000    1.2357603   -6.4507951    19.012581  0.029340403   0.03770254            2 
   55000    1.2467517   -6.4692149    19.530056  0.029590993  0.037669229            2 
   56000    1.2151426   -6.4224578    19.952725  0.029691555  0.037645056            2 
   57000    1.2484817   -6.3923788    20.479569   0.02994089  0.037601963            1 
   58000    1.2465967   -6.3842733      20.7213  0.029771982  0.037545454            2 
   59000    1.2179158   -6.4392675    21.130968     0.029846  0.037478172            1 
   60000    1.2402476   -6.4216975    21.677122  0.030107113  0.037432889            1 
   61000     1.243031   -6.4509744    22.002498  0.030058057  0.037390593            2 
   62000    1.2010595   -6.4134839    22.496851  0.030237703  0.037349361            2 
   63000    1.2642701   -6.4799172    22.878129  0.030262075  0.037315556            1 
   64000    1.2034624   -6.4782404     23.38146  0.030444609  0.037277878            2 
   65000    1.2431706   -6.4395226    23.954168  0.030710472  0.037264537            4 
   66000    1.2272628   -6.4879831    24.335563  0.030726721  0.037263211            2 
   67000    1.2180776   -6.4445212    24.648539  0.030657387  0.037238277            2 
   68000    1.2270437     -6.44988    25.222648  0.030910108  0.037204434            4 
   69000    1.2293834   -6.4544339    25.564514  0.030875017   0.03718676            5 
   70000    1.2249833   -6.4466327    26.204548   0.03119589  0.037186804            3 
   71000    1.2107645   -6.4374028    26.702272  0.031340694  0.037191661            1 
   72000    1.2217826   -6.4003628    27.144672  0.031417444  0.037197145            2 
   73000    1.2141886   -6.4269259    27.444132  0.031328918  0.037183482            3 
   74000    1.2437822   -6.4353039    28.077987  0.031619354  0.037178488            1 
   75000    1.2053935   -6.4649133    28.498811  0.031665346  0.037188399            5 
   76000    1.2447633   -6.4644422    28.823008  0.031604175  0.037182023            4 
   77000    1.2144383   -6.4719387    29.138242  0.031534894  0.037164067            5 
   78000    1.2235199   -6.4529588    29.530871  0.031550076  0.037146848            3 
   79000    1.2136095   -6.5020858    30.019147  0.031665766  0.037128326            2 
   80000    1.2166494   -6.4819104    30.386352  0.031652449    0.0371027            2 
   81000    1.2163677   -6.4300647     31.02695   0.03192073  0.037089067            3 
   82000    1.2413292   -6.4537252    31.386476  0.031896825  0.037082915            2 
   83000    1.2158553   -6.4765171    31.722629  0.031850029  0.037065816            3 
   84000    1.1940828   -6.3971158     32.33792   0.03208127  0.037050707            3 
   85000    1.2360018   -6.3736206    32.835485  0.032191651  0.037037165            2 
   86000    1.2157317   -6.4288704     33.11479  0.032087974  0.037022506            3 
   87000     1.219553   -6.4541578    33.604871  0.032188574  0.037016344            1 
   88000    1.2305336   -6.4972509    34.216038  0.032401551  0.037018155            2 
   89000     1.214219   -6.4612604    34.891504  0.032669947   0.03703099            2 
   90000    1.2412091    -6.456546    35.149909  0.032546212  0.037048891            2 
   91000    1.2276054   -6.4840568    35.458625  0.032471268  0.037063213            3 
   92000    1.2142475   -6.5311245    35.907526  0.032524933  0.037068415            6 
   93000    1.2134781   -6.4338552    36.552383  0.032753031  0.037075005            2 
   94000    1.1802938   -6.4404333    36.984677  0.032787834  0.037082555            2 
   95000    1.2190495   -6.5163399    37.456973  0.032856994  0.037096902            3 
   96000    1.1800746   -6.4744995    37.903857  0.032902654  0.037113715            4 
   97000    1.2287019   -6.4658651    38.459752  0.033041024  0.037124496            2 
   98000    1.2129224   -6.4686815    38.783355  0.032979044  0.037132912            3 
   99000    1.2261403   -6.4683181    38.993168  0.032822532  0.037130809            6 
  100000    1.2119768   -6.4582586    39.528377  0.032940314  0.037128627            3 
  101000    1.2208598   -6.5190553    39.627215  0.032695721   0.03711734            2 
  102000    1.2219332   -6.4465584    40.112917  0.032771991  0.037099583            6 
  103000    1.2222412    -6.432711    40.658981  0.032895615  0.037080158            3 
  104000     1.201562   -6.4666129     41.03998  0.032884599  0.037065782            2 
  105000    1.1893451   -6.4670683    41.321248  0.032794641  0.037045232            1 
  106000    1.2393198   -6.4319301    41.919355  0.032955468  0.037021987            1 
  107000    1.2190178   -6.5063895    42.001617  0.032711539  0.036998574            1 
  108000    1.1845442   -6.4780048    42.615352  0.032882216  0.036976187            7 
  109000     1.201959   -6.5026063    42.956723  0.032841531  0.036955855            2 
  110000    1.2059243   -6.5137657    43.369025  0.032855322  0.036935521            3 
  111000    1.1865573   -6.4741029    43.954174  0.032998629  0.036919472            2 
  112000    1.1935338   -6.5336928    43.996088  0.032735184  0.036893569            2 
  113000    1.1900686   -6.4403165    44.608792  0.032897339   0.03686794            3 
  114000    1.1747171   -6.4923229    44.824168  0.032766204   0.03683814            2 
  115000    1.2247981   -6.4876701     45.43867  0.032926572  0.036807429            2 
  116000    1.1849026   -6.4832826    45.737721  0.032857558  0.036778219            2 
  117000    1.2157549   -6.5062201    46.303882  0.032979973  0.036754747            2 
  118000    1.2233031   -6.4840066    46.547211  0.032872324  0.036728805            4 
  119000    1.1995803   -6.4471005     47.18748  0.033044453  0.036702705            3 
  120000    1.2054593   -6.4639091    47.489557  0.032978859  0.036678822            2 
  121000    1.1918884   -6.5567798    47.726093   0.03286921  0.036651561            2 
  122000    1.1815552   -6.4715559    48.592605   0.03319167  0.036632517            1 
  123000    1.1889571   -6.4883873    48.897857  0.033128629   0.03661683            5 
  124000     1.214903   -6.5126208     49.30187  0.033132977  0.036600984            1 
  125000    1.2176226   -6.5078133    49.736788  0.033157859  0.036583067            3 
  126000    1.1915861   -6.5127568    50.140085  0.033161432   0.03656631            3 
  127000    1.2240932   -6.4515527     50.41016  0.033077533  0.036544435            1 
  128000    1.2009335   -6.4801853    50.714546  0.033017283  0.036515329            2 
  129000     1.226815   -6.4956409    51.023134  0.032960681  0.036486654            2 
  130000    1.1971769   -6.5188531    51.215394  0.032830381  0.036458556            5 
  131000     1.215734   -6.5265842    51.952005  0.033048349  0.036429277            7 
  132000    1.1974516   -6.4891278    52.079127  0.032878237  0.036403869            2 
  133000    1.1826363    -6.506916    52.679131  0.033006974   0.03637733            1 
  134000    1.1755848   -6.4779443    53.035281  0.032982139  0.036345803            2 
  135000    1.2040447   -6.5088447    53.525255  0.033040281  0.036316178            1 
  136000    1.1926258   -6.4666072    54.085946  0.033140898  0.036288947            2 
  137000    1.1714389   -6.5194908    54.285673  0.033020482  0.036262284            3 
  138000    1.1941673   -6.5137201    54.643311  0.032997169  0.036240238            2 
  139000    1.2134643   -6.4974921    55.238823    0.0331168  0.036216345            6 
  140000    1.1869243   -6.5218809    55.915317  0.033282927  0.036196999            2 
  141000    1.1898912   -6.4715381    56.404543  0.033336018  0.036179318            2 
  142000    1.2148651   -6.5007806    56.419599  0.033110093  0.036160135           11 
  143000    1.1730933   -6.4993097    56.818973  0.033111289  0.036136738            2 
  144000    1.1931999   -6.5459588    56.991441  0.032981158  0.036114442            3 
  145000    1.1883302    -6.495108    57.818057  0.033228768  0.036088782            3 
  146000     1.184266   -6.5278939    57.887889  0.033041032  0.036062778            4 
  147000    1.1940108   -6.5461114    58.060558  0.032914149  0.036036916            3 
  148000    1.1791547   -6.5143093    58.584903  0.032986995  0.036007879            5 
  149000    1.2110706   -6.5038811    58.945862  0.032967484  0.035978724            4 
  150000    1.1908247   -6.4914386    59.591608  0.033106449  0.035952736            1 
  151000    1.1952218   -6.4993733    60.046558  0.033138277  0.035931155            6 
  152000    1.1865543   -6.5314173    60.317674    0.0330689  0.035905269            3 
  153000    1.2030328   -6.5103514    60.766815  0.033097394   0.03588133            3 
  154000    1.2087464   -6.4625422    61.068298  0.033045616   0.03585519            3 
  155000     1.178022   -6.5506872     61.29448  0.032954021  0.035832473            3 
  156000    1.1879692   -6.4678949    61.935413  0.033085156  0.035808796            1 
  157000    1.1831177   -6.4892329    62.345945  0.033092327  0.035783758            4 
  158000    1.1616874   -6.4976895     62.55417  0.032992705   0.03575835            2 
  159000    1.1936594   -6.5267209    62.813476  0.032921109  0.035731162            3 
  160000    1.2241969   -6.5464814    63.404759  0.033023312  0.035703298            2 
  161000    1.1955545   -6.5794348    63.080435  0.032650328  0.035673188            2 
  162000    1.1729707   -6.5202484    64.258615  0.033054843  0.035646802            2 
  163000     1.178572   -6.5499299     64.54133   0.03299659  0.035619287            3 
  164000    1.2008036   -6.5297537    64.663564  0.032857502  0.035593097            3 
  165000    1.1549709   -6.5227369    65.285214   0.03297233  0.035569025            5 
  166000    1.2196182   -6.5425829    65.834031  0.033049212  0.035545548            1 
  167000    1.1960434    -6.548402    66.130186  0.032999095  0.035522847            3 
  168000     1.188085   -6.5339092    66.505192  0.032988686  0.035503445            2 
  169000    1.1979802   -6.5418317    67.013281  0.033044024  0.035481451            2 
  170000    1.1835056   -6.4886315    67.029083  0.032857393  0.035456743            2 
  171000    1.1966708    -6.544541    67.374976  0.032833809  0.035429266            4 
  172000    1.1719202   -6.5342139    67.515626  0.032711059   0.03539983            6 
  173000    1.1755594   -6.5485922    68.156123  0.032830503   0.03537366            3 
  174000    1.1753546   -6.5358997    68.839505  0.032969112  0.035352173            2 
  175000    1.1822648   -6.5867438    68.883808  0.032801813  0.035327459            3 
  176000    1.2047209   -6.4901007    69.363497  0.032842565  0.035300926            5 
  177000    1.1707807   -6.4920396    69.989286  0.032951641  0.035273153            4 
  178000    1.1628399   -6.5359968      70.2182  0.032873689  0.035248271            2 
  179000    1.1953099     -6.53859    70.664821  0.032897961   0.03522395            2 
  180000    1.1866493   -6.5114755     71.11511  0.032923662  0.035199123            3 
  181000    1.1859711   -6.5788063    71.378647  0.032863097   0.03517466            3 
  182000     1.232564   -6.5592583    71.473568  0.032725993  0.035150038            3 
  183000    1.1709443   -6.5432728    71.981624  0.032778517   0.03512527            1 
  184000    1.2040666   -6.5201306    72.803701  0.032972691  0.035103581            5 
  185000    1.1794789   -6.5228888    73.353883  0.033042289  0.035083703            4 
  186000    1.1799375   -6.5891106    73.374743  0.032873989   0.03506458            4 
  187000    1.1712062   -6.5341766    74.166679  0.033051105  0.035044312            3 
  188000    1.1774783   -6.5339749    74.183115  0.032882586  0.035026081            3 
  189000    1.1737396   -6.5753671    74.949326   0.03304644  0.035009253            3 
  190000     1.185107   -6.5413934    75.907364  0.033292704  0.034997113            3 
  191000    1.1939831   -6.5520641    76.072181  0.033190306  0.034986996            4 
  192000    1.1911951   -6.5263985    76.698022  0.033289072  0.034978797            3 
  193000    1.1801895   -6.5883043    77.090993  0.033286266  0.034972224            1 
  194000    1.1874919   -6.5837308    77.414545   0.03325367  0.034964442            4 
  195000    1.1582886   -6.5351835    77.770533  0.033235271  0.034956525            3 
  196000    1.1760213   -6.5621829    78.205348  0.033250573  0.034948582            3 
  197000    1.1579076   -6.5522631    78.470072   0.03319377  0.034939748            4 
  198000    1.1565786   -6.5591532    78.561661  0.033064672  0.034929762            2 
  199000    1.2116003    -6.555782    79.166107  0.033151636  0.034918932            3 
  200000     1.182438   -6.5613968    79.473459  0.033113941  0.034909543            2 
  201000    1.1884477   -6.5438074    80.001758  0.033168225  0.034898788            3 
  202000    1.1803155   -6.5329698    80.667395  0.033278628  0.034888287            4 
  203000    1.1625737   -6.5626354    80.982276  0.033243956  0.034878907            2 
  204000    1.1737815   -6.5177065    81.486651  0.033287031  0.034870044            1 
  205000    1.1470161   -6.6183674    81.363645  0.033074652  0.034860031            3 
  206000    1.1641939   -6.5720456    81.907888  0.033134259  0.034848479            3 
  207000    1.1759062   -6.5695327    82.719835  0.033301061  0.034839628            1 
  208000    1.2082003   -6.5977802    82.812096  0.033177923  0.034829388            4 
  209000    1.1970569    -6.589539    83.429638  0.033265406  0.034820851            5 
  210000    1.1500662   -6.5889059    83.282754  0.033048712   0.03481067            2 
  211000    1.1808106   -6.5905197     83.51594  0.032984179  0.034796955            3 
  212000    1.1619139   -6.5526362    84.105727  0.033060427  0.034782457            3 
  213000    1.1751428   -6.5760141    84.553343  0.033080338  0.034768215            5 
  214000    1.1837468    -6.587542    84.736718  0.032997164  0.034753347            9 
  215000    1.1695241   -6.5713858    84.740611  0.032845198   0.03473633            4 
  216000    1.1772839   -6.6026305    85.199767  0.032870281  0.034718036            6 
  217000    1.1568428   -6.6084758     85.53428  0.032847266  0.034699653            2 
  218000    1.2049004   -6.5853789    85.884661  0.032830528  0.034683969            4 
  219000    1.1666751   -6.5619017    86.679349   0.03298301  0.034668504            2 
  220000    1.1863468   -6.5743808    87.073526  0.032982396  0.034654592            2 
  221000    1.1789757   -6.6081202    87.294082  0.032916321  0.034641796            4 
  222000    1.1397621   -6.6078504    87.988588  0.033028749  0.034629175            3 
  223000     1.150268   -6.5742598    88.188156  0.032955215  0.034617157            3 
  224000    1.1769082   -6.5832252    88.801092   0.03303612  0.034603056            3 
  225000    1.1392229   -6.5725714    88.981416   0.03295608   0.03458978            2 
  226000    1.1488821   -6.5841429    89.110796  0.032857963  0.034575763            3 
  227000    1.1773816   -6.6079813    89.130228  0.032720348  0.034558742            2 
  228000    1.1774189   -6.6207308    89.714236  0.032790291  0.034540359            4 
  229000    1.1582424   -6.5680406    90.524356  0.032941905  0.034523484            2 
  230000     1.157434   -6.5822883     90.75291  0.032881489  0.034506284            3 
  231000    1.1359587    -6.573495    90.911319  0.032796291  0.034488344            2 
  232000    1.1572727   -6.6038489    91.073042  0.032713018  0.034468927            3 
  233000    1.1746044   -6.5798304    91.603901  0.032762482  0.034449245            3 
  234000    1.1609717   -6.6202717    91.646738  0.032637727  0.034429916            5 
  235000    1.1453829    -6.614315    92.100584  0.032659781  0.034411387            2 
  236000    1.1375066   -6.5925759    93.012944  0.032843554  0.034396493            4 
  237000    1.1720098   -6.6138363    93.243944  0.032786197  0.034382442            3 
  238000    1.1250082   -6.6168825    93.507011   0.03274055  0.034366855            7 
  239000    1.1381351    -6.610139    93.636653  0.032648763  0.034349219            4 
  240000     1.137473   -6.6171715    94.092622  0.032671049  0.034331492            2 
  241000    1.1574008   -6.6039523    94.550297   0.03269374  0.034312313            3 
  242000      1.14044   -6.6083463    94.186945  0.032433521  0.034291553            2 
  243000    1.1647118   -6.6409295    94.832256   0.03252135  0.034271377            2 
  244000    1.1464463   -6.5889624    95.543202  0.032630875  0.034253738            4 
  245000    1.1341996   -6.6491082    95.349938  0.032431952  0.034235573            4 
  246000    1.1589966   -6.5954078    96.266681  0.032610664  0.034214953            2 
  247000     1.129775   -6.6056446    96.407983   0.03252631  0.034195906            2 
  248000     1.174579   -6.6318227    96.656011  0.032478498  0.034176863            3 
  249000    1.1520746   -6.6201775    96.938459   0.03244259   0.03415575            1 
  250000    1.1621382   -6.6314183      97.1132  0.032371067  0.034133439            2 
  251000    1.1412245   -6.6268451    97.653753  0.032421565  0.034112283            4 
  252000    1.1484438   -6.6677757    97.580144  0.032268566  0.034090688            4 
  253000    1.1342511   -6.6254569    98.166412  0.032334128  0.034068222            1 
  254000    1.1393342   -6.6413737    98.274066  0.032242147  0.034043913            3 
  255000    1.1625012   -6.6693196    98.429879  0.032166627   0.03401866            5 
  256000     1.171559   -6.6471651    99.205495  0.032293455  0.033994079            6 
  257000    1.1480389   -6.6067004    99.256747  0.032184418  0.033968978            2 
  258000    1.1439016   -6.6295223    99.668625  0.032192708  0.033944986            3 
  259000    1.1587106   -6.6597454    99.947326  0.032158084  0.033920071            2 
  260000    1.1325473   -6.6575116    100.64048  0.032256563  0.033897788            6 
  261000    1.1549066   -6.6556223    100.96527  0.032236675  0.033876527            2 
  262000    1.1521678   -6.6484658    101.58174  0.032309712  0.033855074            7 
  263000    1.1513665   -6.6637989    101.37464  0.032121241  0.033833396            1 
  264000    1.1705995   -6.6608513    101.64949  0.032086329  0.033811658            3 
  265000    1.1563003    -6.598233    102.27739  0.032162702  0.033789328            3 
  266000    1.1482884     -6.61571    103.02854  0.032277112  0.033769258            1 
  267000    1.1544739   -6.6681755     103.3567  0.032258646  0.033749874            2 
  268000    1.1746741   -6.6450469    103.44086  0.032164446  0.033729706            2 
  269000    1.1434865   -6.6586894    103.83838  0.032168024  0.033709358            1 
  270000     1.136439   -6.6380699    104.35239  0.032207529  0.033690386            4 
  271000    1.1483676   -6.6331988    104.56431  0.032153846  0.033670216            3 
  272000    1.1428373   -6.6685693    104.66239  0.032065682  0.033651017            3 
  273000    1.1480106   -6.6626282     105.1767   0.03210522  0.033630792            5 
  274000    1.1476118   -6.6374839    106.22712  0.032307518  0.033611696            3 
  275000    1.1344646   -6.6361644     106.2618  0.032200546  0.033594228            2 
  276000    1.1441106   -6.6102915    106.72442  0.032223558  0.033577313            5 
  277000    1.1513234   -6.6757491    106.74724  0.032114091  0.033560072            6 
  278000     1.140203   -6.6790219    107.25588  0.032151044   0.03354108            3 
  279000    1.1379027   -6.6793316    107.72227   0.03217511  0.033524763            3 
  280000    1.1343914   -6.7260614    107.68175  0.032048138  0.033507096            3 
  281000    1.1392856   -6.6829789    108.18945  0.032084653  0.033489488            4 
  282000    1.1349814   -6.7021088    108.60919  0.032094915  0.033471466            4 
  283000    1.1495415   -6.6397506    109.03426  0.032106673  0.033453678            2 
  284000    1.1605104   -6.6682525     109.0347  0.031993749  0.033434893            1 
  285000    1.1497653   -6.7062954    109.18825  0.031926388  0.033415835            1 
  286000    1.1430399   -6.6115109    110.16674  0.032099867  0.033397473            5 
  287000    1.1392153   -6.6506618    110.58162  0.032108485  0.033381035            1 
  288000     1.147697   -6.6698809    110.96466  0.032107829  0.033365026            4 
  289000    1.1356106   -6.6678508     111.2434  0.032077106  0.033347934            4 
  290000    1.1303157   -6.6176954    111.90474  0.032156535  0.033330186            3 
  291000    1.1346105   -6.6756664    111.69222  0.031985171  0.033314114            1 
  292000    1.1339524   -6.6443671    112.05333  0.031978691   0.03329734            2 
  293000    1.1561956   -6.6760051    112.28384  0.031935107  0.033278652            2 
  294000    1.1427603   -6.6506495    112.26674  0.031821637   0.03325927            4 
  295000    1.1348825   -6.6595385    113.11557  0.031953552  0.033239932            3 
  296000      1.12997    -6.669561    113.63207  0.031991012  0.033221315            2 
  297000    1.1473716   -6.6614285    113.81895  0.031935733  0.033201994            5 
  298000    1.1168282   -6.6742157    113.93111   0.03185993  0.033183175            2 
  299000    1.1369875   -6.6572226    114.01642  0.031777152  0.033163439            1 
  300000    1.1301113    -6.686121    114.18137  0.031717048  0.033143071            3 
  301000    1.1552873   -6.7046296    114.19868  0.031616469  0.033120903            2 
  302000    1.1043037   -6.6392541    114.62244  0.031628709  0.033099149            3 
  303000    1.1341525   -6.6304659    115.37126  0.031730269  0.033076168            2 
  304000    1.1443156   -6.6745445    115.03049  0.031532481   0.03305384            2 
  305000    1.1457853   -6.6973987    115.24078  0.031486552  0.033031117            7 
  306000    1.1339467   -6.6555446    116.36479  0.031689757  0.033010171            3 
  307000    1.1111759   -6.6693586    116.28048  0.031563649  0.032989552            2 
  308000    1.1317848   -6.6522022    117.09302  0.031681012  0.032967878            3 
  309000    1.1267889   -6.7094884    116.72517  0.031479281  0.032946443            2 
  310000    1.1179114   -6.7011884    116.89587  0.031423621  0.032923646            2 
  311000    1.1435011   -6.7099918    116.93443  0.031332913  0.032900367            3 
  312000    1.1319291   -6.6804436    117.58967  0.031407498  0.032875258            4 
  313000    1.1393641   -6.6908028    117.73265  0.031345221  0.032851588            2 
  314000    1.1416852   -6.7128113    117.38475  0.031153064  0.032826191            8 
  315000    1.1442501   -6.6551805    118.60154  0.031376067  0.032802251            3 
  316000     1.112196   -6.7073238    118.66071  0.031292381   0.03277728            2 
  317000    1.1327106   -6.7021289    118.71844  0.031208842  0.032750694            3 
  318000    1.1239643   -6.6936885      118.966  0.031175578  0.032724735            5 
  319000    1.1315623   -6.6989443    119.26667  0.031156393   0.03269857            2 
  320000      1.09013   -6.7059671    119.51987  0.031124966  0.032671838            2 
  321000    1.1486466   -6.7364594    119.75637  0.031089399  0.032645011            3 
  322000    1.1166097     -6.71486    120.24991  0.031120576  0.032619088            2 
  323000    1.1331431   -6.6946393    120.71084  0.031143148   0.03259367            3 
  324000    1.1085498   -6.6845922     121.2443  0.031184233   0.03256871            4 
  325000    1.1421069   -6.7085969    121.19922  0.031076723  0.032543799            3 
  326000    1.1394414   -6.7193059    121.56965  0.031076088  0.032518575            5 
  327000     1.111314    -6.717009    121.77027   0.03103218  0.032493611            2 
  328000     1.129956   -6.7050587    122.25665   0.03106114  0.032468778            1 
  329000    1.1167606   -6.7131337    122.40593  0.031004542  0.032442412            6 
  330000    1.1022332   -6.7413032    122.13845  0.030843043  0.032416641            5 
  331000    1.1185008   -6.7137073    123.24738  0.031029047  0.032390297            3 
  332000     1.117517   -6.6710722    123.43921  0.030983736   0.03236465            2 
  333000    1.1100399   -6.7348769    123.98622  0.031027583  0.032339222            4 
  334000    1.1201421   -6.6829458    124.24015  0.030998041  0.032315201            2 
  335000     1.117697   -6.6945006    124.19204  0.030893543  0.032289223            5 
  336000    1.0938285   -6.6985324     124.1833  0.030799428  0.032263272            2 
  337000    1.1181382   -6.7268494    124.73577  0.030844651  0.032237297            4 
  338000    1.1082616   -6.6946954    125.27067  0.030885275   0.03221314            2 
  339000    1.1165402   -6.7115662     125.9861  0.030970035  0.032189745            4 
  340000    1.1301057   -6.7029052    126.62422  0.031035347  0.032166948            3 
  341000     1.089861   -6.7080651    127.00326  0.031036965  0.032144405            4 
  342000    1.1159557   -6.7744937    126.22424  0.030756395  0.032121512            2 
  343000    1.1138879   -6.7283531     127.1676  0.030895919  0.032098714            3 
  344000    1.1069468   -6.7578092     127.3931  0.030860732   0.03207592            5 
  345000    1.1136409   -6.7244568    127.56365  0.030812476  0.032052771            3 
  346000     1.121721   -6.6798109    128.29853  0.030900417  0.032029875            3 
  347000    1.1338489   -6.7250786    128.36348  0.030826964  0.032007905            1 
  348000    1.1081368   -6.7056934    128.60841  0.030797032  0.031986564            2 
  349000    1.0915665   -6.6934079    129.01268   0.03080532  0.031965019            3 
  350000     1.124244   -6.7363942    129.44575  0.030820418  0.031942428            3 
  351000     1.105571   -6.7041611    129.89374   0.03083897  0.031920377            4 
  352000    1.1099291   -6.7205612    129.79676  0.030728401  0.031897893            3 
  353000    1.1309557    -6.719661    130.36415  0.030775294  0.031876577            6 
  354000    1.1180642   -6.7331458    130.62325  0.030749353   0.03185439            3 
  355000    1.1106245   -6.7031674    130.97456  0.030745203  0.031832497            4 
  356000    1.1049494   -6.7774008    131.05218  0.030677008  0.031811123            5 
  357000    1.1042498   -6.7391347     131.1748  0.030619701  0.031789303            4 
  358000    1.1010944   -6.7433227    131.72914  0.030663206  0.031767476            5 
  359000    1.1141176   -6.7672947    131.88767  0.030614594   0.03174519            3 
  360000    1.0838878   -6.7471692    132.09101  0.030576622  0.031723471            4 
  361000    1.1076748   -6.7259959    132.77373  0.030649522  0.031702364            5 
  362000    1.1648399   -6.7488157    133.10154  0.030640318  0.031681778            2 
  363000     1.092208   -6.6985822    133.76815  0.030708941  0.031661175            5 
  364000    1.1380136   -6.7662336    133.53939  0.030572205  0.031639896            3 
  365000    1.1205588   -6.7600738    133.75262  0.030537127  0.031618169            2 
  366000     1.103745   -6.7303548    134.19884   0.03055529  0.031596767            3 
  367000    1.1153478   -6.7053066    134.85843  0.030621806  0.031576028            5 
  368000    1.0913095   -6.7616277    134.71574  0.030506281  0.031554948            2 
  369000    1.0901688   -6.7808021    135.00518  0.030488976  0.031533962            3 
  370000    1.1106728   -6.7802568    135.03317  0.030412876  0.031511581            2 
  371000    1.1134649   -6.7280501    135.44518  0.030423446  0.031489153            5 
  372000    1.1159477   -6.7259157     135.6315    0.0303834  0.031467666            2 
  373000    1.1241789   -6.7422356    135.89132  0.030359991  0.031444906            4 
  374000    1.1204197   -6.8142167    135.60686  0.030215432  0.031421477            3 
  375000    1.0914939   -6.7643324    136.28148  0.030284773  0.031398252            1 
  376000    1.1054086   -6.7838467    136.33392   0.03021585  0.031374677            7 
  377000    1.1239838   -6.7940648    136.70036  0.030216702   0.03135106            4 
  378000    1.1104786   -6.7728707    136.43194  0.030077588  0.031327283            4 
  379000    1.0959384   -6.7397767    137.40258  0.030211648  0.031303622            4 
  380000    1.1140218   -6.7542295    137.72192  0.030202176  0.031280458            3 
  381000    1.1094172   -6.8071555    137.66185  0.030109765  0.031257551            3 
  382000    1.1165912   -6.7415592    138.57019  0.030229099  0.031235357            4 
  383000    1.0782267   -6.7562689    139.26907  0.030302235  0.031213977            2 
  384000     1.119782   -6.7322574    139.31241  0.030232728  0.031192774            3 
  385000    1.0772737   -6.7510991    139.20382  0.030130696   0.03117192            5 
  386000    1.1158394   -6.7320562    140.14828  0.030256536  0.031151121            3 
  387000    1.1177296    -6.763598    140.56932  0.030269017  0.031130659            2 
  388000    1.0896957   -6.7868784    140.67736  0.030214209  0.031110653            3 
  389000    1.0899466   -6.8026767    140.36837  0.030070344  0.031089397            2 
  390000    1.0982423   -6.7291784    141.14749  0.030159721  0.031068355            2 
  391000    1.0932055   -6.7721951    141.39179  0.030134653  0.031047735            5 
  392000    1.0902273   -6.7948495    141.50186  0.030081177  0.031027993            2 
  393000    1.0825762   -6.7814069    141.92539  0.030094442  0.031007938            3 
  394000    1.0607006    -6.748939     142.8381  0.030211105  0.030988876            3 
  395000    1.0842149   -6.7781819    142.85694  0.030138596  0.030969899            4 
  396000    1.0954039   -6.7517197    143.11562  0.030116923   0.03095117            4 
  397000    1.1070806   -6.8001143    143.47213  0.030115895  0.030932297            2 
  398000    1.1001952   -6.7930769    143.32629  0.030009693  0.030912083           15 
  399000    1.0719946   -6.7651002    143.86937  0.030047905  0.030891688            4 
  400000    1.0860127   -6.7476816    144.35632  0.030074233  0.030871549            7 
  401000    1.0971473   -6.7815173    144.14333  0.029954974  0.030850804            3 
  402000    1.0557513   -6.7731423    144.12597   0.02987686  0.030829107            2 
  403000    1.0841629   -6.7614297    144.34749   0.02984853  0.030808101            4 
  404000    1.0848653   -6.7262374     144.6721  0.029841604   0.03078633            4 
  405000    1.0907035   -6.7850613    145.06834  0.029849454  0.030764952            6 
  406000    1.0964253   -6.8397555    144.63218  0.029686409  0.030743402            3 
  407000     1.114073   -6.8134911    145.18867   0.02972741  0.030721338            3 
  408000    1.0712265    -6.800987    145.21923   0.02966079  0.030698594            5 
  409000    1.1208415    -6.779724    145.75393  0.029697214  0.030676185            4 
  410000    1.1006582   -6.8713311    145.40011  0.029552867  0.030653321            3 
  411000    1.0976544   -6.7937455    146.20135  0.029643421  0.030630926            3 
  412000    1.1029699   -6.7915919    146.45558  0.029622892  0.030608555            5 
  413000    1.1145939    -6.782406    146.55855  0.029571943  0.030585802            6 
  414000    1.0867215   -6.7815993    146.95757  0.029580831  0.030563191            4 
  415000     1.074309   -6.8003135    147.25188  0.029568651  0.030540422            3 
  416000    1.0862424   -6.8336244    146.81123  0.029409301  0.030517471            4 
  417000    1.0669144   -6.7348629    148.25281  0.029626861  0.030494795            3 
  418000    1.1117933   -6.7563496    147.99764  0.029505112  0.030472866            4 
  419000    1.0916926   -6.7687175    148.30931  0.029496681  0.030450461            3 
  420000    1.0929045   -6.7669868    148.82905  0.029529574  0.030429113            4 
  421000    1.0770178   -6.7981746    148.83172   0.02945996  0.030407229            3 
  422000    1.0813871   -6.8192865    149.35504  0.029493492   0.03038455            3 
  423000    1.0561519    -6.810857    149.06891  0.029367397  0.030362322            6 
  424000    1.1155614   -6.8642349    148.93709  0.029272228  0.030338641            2 
  425000     1.086863   -6.7938912    149.52276  0.029318188   0.03031497            3 
  426000    1.0645006   -6.8006472    150.12346  0.029366873  0.030291889            2 
  427000    1.0776856    -6.806135    150.21068   0.02931512  0.030269136            2 
  428000    1.0610325   -6.7861424    150.37293  0.029278219  0.030246242            3 
  429000    1.0935624   -6.8074932    149.97046  0.029131791  0.030222974            3 
  430000    1.0737874   -6.8351099    151.06964  0.029277063  0.030200057            3 
  431000    1.1093307   -6.7664268    150.97376  0.029190595  0.030177147            4 
  432000    1.0876039   -6.7987408    151.54303  0.029232838  0.030154026            4 
  433000    1.0714837   -6.8006155    151.50564  0.029158129  0.030131151            3 
  434000    1.1036811   -6.8010257    152.01614  0.029188968  0.030108687            6 
  435000    1.0813149   -6.8739083    152.14562  0.029146671  0.030085592            3 
  436000    1.0946028   -6.8762045    152.41435  0.029131183  0.030063089            5 
  437000    1.0862751   -6.8155425    152.87112  0.029151625  0.030041514            4 
  438000    1.1066507   -6.8405601    153.38795    0.0291834  0.030020536            3 
  439000    1.0583495    -6.822914     153.1201  0.029066079  0.029999038            2 
  440000    1.0681832   -6.8251526    153.56514  0.029084307  0.029977141            7 
  441000    1.0759719   -6.8477441    153.80934  0.029064502  0.029955506            4 
  442000    1.0505481   -6.8380304    154.08153  0.029050062  0.029932981           16 
  443000    1.0975486   -6.8513871    154.06219  0.028980849  0.029910631            3 
  444000    1.0809911   -6.8644933     154.2657  0.028953773  0.029888226            2 
  445000    1.0776252   -6.8338517    154.36668  0.028907617   0.02986575            2 
  446000    1.0479241   -6.7741547    155.51331  0.029057045  0.029843491            6 
  447000    1.0830086   -6.8233518       155.04  0.028903803  0.029821614            4 
  448000     1.073942   -6.8103529    155.47504  0.028920208  0.029799322            2 
  449000    1.0683717   -6.7902912    156.09635  0.028971112  0.029777396            4 
  450000    1.0707588   -6.8721186    155.96967  0.028883272  0.029755567            1 
  451000    1.0444847   -6.8182307     156.6492   0.02894479  0.029733944            5 
  452000    1.0652174   -6.8300637    156.95778  0.028937644  0.029711893            3 
  453000    1.0582243   -6.8085086    157.62849  0.028997147   0.02969062            3 
  454000    1.0959503   -6.8084101    157.74946  0.028955481   0.02966945            3 
  455000    1.0684779   -6.8192707    158.11474  0.028958744  0.029648436            6 
  456000    1.0585889   -6.8523025    157.66335  0.028812747  0.029627014            5 
  457000    1.0804326   -6.8422167    157.67908  0.028752567  0.029604968            6 
  458000    1.0550098   -6.8310124    158.69926  0.028875411  0.029583241            3 
  459000    1.0669264   -6.8425113    158.77811  0.028826817  0.029562039            6 
  460000    1.0907938    -6.832178    158.70776  0.028751406  0.029540927            4 
  461000    1.0806564   -6.8393807    159.10399  0.028760663   0.02951902            3 
  462000    1.0649927   -6.8329806    159.14373  0.028705579  0.029496867            3 
  463000    1.0615715   -6.8458909    159.22427  0.028658076  0.029474618            5 
  464000    1.0976606   -6.8325291     159.4789  0.028642043  0.029452556            2 
  465000    1.0697727   -6.8316465    159.70424  0.028620832  0.029430252            2 
  466000    1.0707501   -6.8170349    159.40587  0.028506056  0.029407784            3 
  467000    1.0485169   -6.8590584    159.18002  0.028404715  0.029384848            2 
  468000    1.0547625   -6.8423466    159.96863  0.028484442  0.029361588            3 
  469000    1.0791498   -6.8035128    160.39305  0.028499121  0.029338726            6 
  470000    1.0803531   -6.8902715    159.68537   0.02831301  0.029315127            2 
  471000    1.0691263   -6.8278398    160.42869  0.028384411   0.02929156            5 
  472000    1.0860186   -6.8817656     160.3684   0.02831363  0.029267943            3 
  473000    1.0844117   -6.8724015    160.72325  0.028316288  0.029243931            3 
  474000    1.0791654   -6.8914924    161.00726  0.028306481  0.029220079            5 
  475000    1.0709052   -6.8100202    162.04188    0.0284284  0.029196518            3 
  476000    1.0776916   -6.8161007    161.34526   0.02824672  0.029173349            7 
  477000    1.0608303   -6.8247071    161.48361  0.028211671   0.02914977            3 
  478000    1.0560763   -6.8918537    161.82498  0.028212164  0.029125825            6 
  479000    1.0609046   -6.8656206    162.06253  0.028194595  0.029102109            2 
  480000    1.0533868   -6.8507911    162.38209  0.028191336  0.029078534            5 
  481000    1.0483695   -6.8827706    162.06097  0.028077092  0.029055063            4 
  482000    1.0781644   -6.9201964    162.86767  0.028158311  0.029031305            3 
  483000    1.0691259   -6.8675073    163.01124  0.028124783  0.029007233            6 
  484000    1.0764948   -6.8511881    163.49539  0.028150032  0.028983147            3 
  485000    1.0470817   -6.8829348    163.39461  0.028074675  0.028959311            6 
  486000     1.069564   -6.8355805    164.16308  0.028148676  0.028935839            3 
  487000    1.0436715   -6.8974786    163.50591  0.027978424  0.028911993            2 
  488000    1.0659504    -6.878327    163.82035  0.027974787  0.028888635           10 
  489000    1.0642817   -6.8318616    164.84591   0.02809235  0.028865629            5 
  490000    1.0676784   -6.8727024    164.84441  0.028034763  0.028842251            3 
  491000    1.0598362   -6.8885202     164.8933  0.027985964  0.028818843            4 
  492000    1.0606598   -6.8570775    165.03217  0.027952603   0.02879543            4 
  493000    1.0596781   -6.8668769    165.48129   0.02797182  0.028772322            4 
  494000    1.0635184    -6.864099    165.30971  0.027886253    0.0287487            4 
  495000    1.0425588   -6.8737705    165.58367   0.02787604  0.028724768            3 
  496000    1.0864385     -6.90141    165.24008   0.02776211  0.028700466            3 
  497000     1.040247   -6.8897138    165.62221  0.027770324  0.028675524            2 
  498000    1.0609749   -6.8736035    165.72875  0.027732387   0.02865127            2 
  499000    1.0476669   -6.8740911    165.83246  0.027694132  0.028627358            3 
  500000    1.0591371   -6.9097492    166.15817  0.027693028  0.028603084            3 
  501000    1.0538942   -6.8778783    166.09129  0.027626628  0.028578545            3 
  502000    1.0363278   -6.8837519    166.43592  0.027628804  0.028554462            7 
  503000    1.0514065   -6.9058243    167.11183  0.027685857  0.028530086            4 
  504000    1.0538795   -6.8925871    166.74582  0.027570407  0.028506046            4 
  505000    1.0297456   -6.8896173     166.8529  0.027533482  0.028481772            5 
  506000    1.0719184   -6.8928826    167.64755   0.02760994  0.028457682            4 
  507000    1.0423642   -6.8705405    168.50997  0.027697233  0.028433945            2 
  508000    1.0473213   -6.8918213    167.81348  0.027528458  0.028410265            7 
  509000    1.0679582   -6.8922664    168.37962  0.027567063  0.028386991            8 
  510000    1.0322568   -6.8984874    168.27783  0.027496378  0.028362886            3 
  511000    1.0560833   -6.9329284     167.8568  0.027373908  0.028338549            3 
  512000    1.0446208   -6.9219544    168.65736  0.027450742  0.028314356           10 
  513000    1.0614953   -6.8566056    169.47611  0.027530232  0.028290189            4 
  514000    1.0707379   -6.8944871    169.15337  0.027424347   0.02826627            3 
  515000    1.0539135   -6.8996757    169.34453  0.027402027  0.028242139            5 
  516000     1.039711   -6.8558737    169.92057  0.027441953  0.028218219            4 
  517000    1.0382093    -6.905863    169.87538  0.027381589   0.02819466            5 
  518000    1.0447848   -6.8845517    170.03459  0.027354343   0.02817083            8 
  519000    1.0263648   -6.9049589    170.97108  0.027452004  0.028147784            9 
  520000    1.0291382   -6.8884528    170.60656  0.027340794  0.028124267            8 
  521000    1.0791259    -6.886215    171.09204   0.02736597  0.028101299            3 
  522000    1.0492854   -6.9200793    171.55745  0.027387843  0.028078935            3 
  523000    1.0466612   -6.9424857     171.2506  0.027286583  0.028056197           10 
  524000    1.0330438    -6.939198    171.75052  0.027314014  0.028033348            2 
  525000    1.0411427   -6.9277848    172.09933  0.027317353  0.028010623            6 
  526000    1.0277079   -6.9092798    172.49095  0.027327464   0.02798803            6 
  527000    1.0337658   -6.9293452    173.02773  0.027360489  0.027965754            5 
  528000     1.028685   -6.8965493     172.8448  0.027279798   0.02794331            6 
  529000    1.0572023   -6.9094013    173.54079  0.027337868  0.027921333            3 
  530000    1.0495758   -6.8897588    173.54389  0.027286774  0.027899427            4 
  531000    1.0425951   -6.9651167     173.1869  0.027179363  0.027877341           12 
  532000    1.0393421   -6.9227354    173.67663  0.027204986  0.027854708            2 
  533000    1.0413776   -6.8974383    173.86386  0.027183218  0.027832456            4 
  534000    1.0391042   -6.9181811    174.20174   0.02718504  0.027810095            2 
  535000    1.0544349   -6.9328986    174.45282  0.027173336   0.02778783            3 
  536000    1.0261672   -6.9544607    174.49492  0.027129185  0.027765752            3 
  537000    1.0638766    -6.962579    174.54132  0.027085865  0.027743529            7 
  538000    1.0623254   -6.9615202    174.61347  0.027046696  0.027721375            3 
  539000     1.043014   -6.9457111    174.37065  0.026958975   0.02769865            5 
  540000    1.0372245   -6.9622545    174.23336  0.026887865  0.027675554            4 
  541000    1.0440805   -6.9765801    174.30385  0.026849022  0.027652539            1 
  542000    1.0587481   -6.9479964    175.53448  0.026988697  0.027629687            3 
  543000    1.0440796    -6.887662    176.46794   0.02708225  0.027607668            4 
  544000    1.0481255   -6.9214527    176.21178  0.026993226  0.027585954            6 
  545000    1.0433024   -6.9752556    175.52219  0.026838255  0.027563701            4 
  546000     1.050073   -6.9399958     176.0888  0.026875579  0.027541329            2 
  547000    1.0595882   -6.9465485    176.28524  0.026856375  0.027519277            4 
  548000    1.0272625   -6.9672841    176.36611  0.026819665  0.027497148            6 
  549000    1.0479106   -6.9585958    176.66595  0.026816325  0.027474605            4 
  550000    1.0276925     -6.95732    177.14569  0.026840256  0.027452334            3 
  551000    1.0381667   -6.9500557    177.24328  0.026806304   0.02742977            3 
  552000      1.03564   -6.9196608     177.7288  0.026831039  0.027407889            4 
  553000    1.0330004   -6.9457925    178.00123  0.026823573  0.027386118            2 
  554000    1.0315046   -6.9146259    178.48552  0.026848003  0.027364101            4 
  555000     1.022036   -6.9882538    177.99327  0.026725716  0.027341972            4 
  556000    1.0565338   -6.9005555    178.36958  0.026734049  0.027320597            3 
  557000     1.012533   -6.9443516    178.45093  0.026698224  0.027299039            2 
  558000    1.0209424   -6.9726903    178.64498  0.026679357   0.02727697            6 
  559000    1.0279581    -6.980786    178.69379  0.026638907  0.027254969            3 
  560000    1.0424152   -6.9285705     179.0862  0.026649732  0.027233007            4 
  561000    1.0144297   -6.9836294    179.00551  0.026590242  0.027210567            4 
  562000     1.022625   -6.9974643    178.55275  0.026475794  0.027187959            6 
  563000    1.0253104   -7.0092973    179.08971  0.026508245  0.027165652            5 
  564000    1.0196226   -6.9536513    179.58506  0.026534435  0.027143124            4 
  565000    1.0342737   -6.9355718    180.10941  0.026564809  0.027121115            4 
  566000    1.0167582   -6.9745313    179.98819  0.026500028  0.027098678            4 
  567000    1.0324671   -6.9757435    179.53299  0.026386389  0.027076047            3 
  568000    1.0173401   -6.9733729    179.95086  0.026401242  0.027053563            4 
  569000     1.019443   -6.9536059    180.65894  0.026458544  0.027031247            6 
  570000    1.0322103   -6.9557858    180.30224  0.026359976  0.027008432            9 
  571000     1.009897   -7.0075045    180.41829  0.026330748  0.026985349            8 
  572000    1.0587657   -6.9564446    180.40421  0.026282665  0.026962488            5 
  573000    1.0238816   -6.9790344    180.93986  0.026314697  0.026940155            3 
  574000   0.99748058   -6.9407827    181.17865   0.02630352  0.026917569            3 
  575000    1.0220663   -6.9151571     181.7871  0.026345956  0.026895184            2 
  576000    1.0222251   -6.9891828    181.64431  0.026279559  0.026872635            6 
  577000     1.002113    -6.946809    182.17307   0.02631038  0.026849999            4 
  578000    1.0180783    -6.985496    181.83597  0.026216259  0.026827518            6 
  579000    1.0263496   -7.0403901    181.48563  0.026120557  0.026804772            7 
  580000    1.0415304   -6.9721763    181.83718  0.026126032  0.026782433            3 
  581000    1.0202067   -7.0047202    182.17098  0.026128941   0.02675995            5 
  582000    0.9930866   -6.9475047    182.49687  0.026130709  0.026737249           11 
  583000    1.0263702   -6.9894575    182.63231  0.026105248  0.026714545            6 
  584000    1.0380502    -6.979834    182.08082  0.025981853  0.026691647            4 
  585000    1.0187976   -7.0227425    181.97697  0.025922645  0.026668511            4 
  586000    1.0203661   -7.0058455    182.72273  0.025984462   0.02664559            3 
  587000    1.0072641   -6.9455677    183.40691  0.026037325   0.02662252            6 
  588000    1.0279177   -6.9751112     182.9718  0.025931377  0.026599557            3 
  589000    1.0085527   -6.9635993    183.56671  0.025971521  0.026576617            1 
  590000    1.0166437   -7.0333437    183.53283  0.025922716  0.026553858            3 
  591000    1.0373132   -6.9742402    183.72428  0.025905849  0.026530965            3 
  592000    1.0336395   -7.0075906    183.61362  0.025846512  0.026508113            5 
  593000    1.0055507   -6.9799887     184.1662   0.02588058  0.026485476            3 
  594000       1.0079   -6.9759585    183.70719  0.025772613  0.026462843            4 
  595000    1.0082018   -7.0093586    184.14964  0.025791267  0.026439762            7 
  596000   0.99561891   -6.9849631    184.78822  0.025837279  0.026416878            3 
  597000    1.0196306   -6.9669727    185.58554  0.025905295  0.026394135            7 
  598000   0.99409288   -7.0407512    184.93227   0.02577094  0.026371871            8 
  599000    1.0083772   -7.0313904    184.93063   0.02572769  0.026349443            5 
  600000    1.0165177   -7.0078803     184.8257  0.025670236  0.026326752            5 
  601000    1.0149834   -6.9992416    185.50711  0.025722006  0.026304005            4 
  602000    1.0115916   -7.0035892     185.3415  0.025656354  0.026281216            5 
  603000   0.99632338   -7.0238965     185.5402  0.025641266   0.02625859            6 
  604000   0.99755933   -7.0439277    185.29309  0.025564721  0.026235799            4 
  605000    1.0110441   -7.0327444    185.64777  0.025571318   0.02621314           10 
  606000    1.0074078    -7.022313    186.26285  0.025613703  0.026190653            7 
  607000    1.0311935   -7.0286382    186.63502    0.0256226  0.026168268            3 
  608000    1.0186402   -7.0444172     186.8461  0.025609389   0.02614608            8 
  609000    1.0257277   -7.0165223    186.70811  0.025548455  0.026124468            4 
  610000    1.0052755   -6.9685706    187.50697  0.025615706  0.026102799            2 
  611000   0.99532533   -7.0104299    187.18444  0.025529793  0.026081071            3 
  612000    1.0044015   -6.9978051     187.6193   0.02554729  0.026059407            6 
  613000    1.0168427   -7.0285765    187.85075  0.025537079   0.02603766            3 
  614000    1.0240304    -7.025306    187.82319  0.025491747   0.02601574            3 
  615000    1.0170942   -7.0097675    188.87035  0.025592188   0.02599434            3 
  616000   0.98650256   -7.0582102    188.02437  0.025436198  0.025972888            5 
  617000     1.007722   -7.0048533    188.95582  0.025520775  0.025951747            6 
  618000    1.0091508   -7.0099966    188.93197  0.025476263  0.025930237            7 
  619000    1.0007749   -7.0352494    189.20311  0.025471609   0.02590847            4 
  620000    1.0155631   -7.0314896    189.30845  0.025444684  0.025887011            3 
  621000    1.0007528   -7.0502628      189.072  0.025371981  0.025865292            5 
  622000    1.0049318   -7.0288857    189.42021  0.025377841  0.025843749            4 
  623000    1.0174428     -6.99832     190.3468  0.025461049   0.02582247            5 
  624000   0.98539783   -7.0168904    189.60238   0.02532083   0.02580109            3 
  625000   0.97965385    -7.039664     189.4607  0.025261427  0.025779068            4 
  626000   0.98082673   -7.0278561    189.76881  0.025262089  0.025757268            9 
  627000    1.0023209   -7.0432909    189.72669    0.0252162  0.025735181            6 
  628000    1.0390357   -7.0193853    190.49148  0.025277532  0.025713559            6 
  629000    1.0053851   -7.0348201    189.83024   0.02514974  0.025691781            7 
  630000   0.97983211   -7.0222734    190.72637  0.025228356  0.025669862            2 
  631000    1.0193126    -7.009187    191.05236  0.025231427  0.025648376            5 
  632000   0.99094078   -7.0560588    191.03089  0.025188672  0.025626814            2 
  633000     1.013538   -7.0485327    191.30461  0.025184914  0.025605117            8 
  634000    1.0050298   -7.0440928    191.81417  0.025212168  0.025583744            6 
  635000     1.018656   -7.0735686    192.00652  0.025197707  0.025562849            2 
  636000    0.9992773   -7.0438005    192.21715  0.025185685  0.025541855            4 
  637000   0.98611952   -7.0616879    192.24312  0.025149545  0.025520779            2 
  638000   0.99141176   -7.0733474    192.22082  0.025107212  0.025499979            1 
  639000     0.998504   -7.0320614    193.59406  0.025247009  0.025479386            6 
  640000    0.9862402    -7.069549    192.72476   0.02509437  0.025459172            4 
  641000   0.99603377   -7.0494411     193.4213  0.025145774  0.025438472            9 
  642000    1.0223474   -7.0334408    193.55257  0.025123646  0.025418016            5 
  643000   0.99436677   -7.0451716    193.56377  0.025086025  0.025397861            4 
  644000    1.0061538   -7.0239152    194.26428  0.025137717  0.025377578            2 
  645000   0.99408729   -7.0290859    193.80094  0.025038881  0.025357478            2 
  646000   0.97928544   -7.0668518    193.87099  0.025009158  0.025337081            5 
  647000    1.0073158   -7.0858274    194.08579  0.024998169   0.02531676            7 
  648000    1.0169341   -7.0302296    194.72716  0.025042073  0.025296453            8 
  649000    1.0059855   -7.0771513    194.57435  0.024983867  0.025276463            5 
  650000   0.99648801   -7.1142626    194.21394  0.024899222   0.02525639            4 
  651000   0.99230433   -7.0187613    194.60282  0.024910755  0.025235939            6 
  652000   0.97970298   -7.0447133    194.44293  0.024852113  0.025215494            4 
  653000     0.995978   -7.0547639    194.52913  0.024825054  0.025195072            4 
  654000   0.99314511   -7.0052849    195.26746  0.024881174   0.02517453            3 
  655000   0.98367692   -7.0597889     195.2057  0.024835331  0.025154268            4 
  656000   0.99869235    -7.037514    195.62886  0.024851227  0.025133972            3 
  657000   0.98589311   -7.0340459    196.11663   0.02487527  0.025113671            3 
  658000    1.0221749   -7.0199921    195.90541  0.024810716  0.025093637            4 
  659000    1.0048254   -7.0210851    196.40254  0.024835931  0.025073685            4 
  660000   0.97604965   -7.0952131    196.04593  0.024753273  0.025053626            8 
  661000   0.99296103   -7.0591275    196.50216  0.024773343  0.025032924            6 
  662000   0.97684919   -7.0380549     196.8404  0.024778499  0.025012737            6 
  663000    0.9886087   -7.0431215    196.78117  0.024733682  0.024992801            7 
  664000    1.0117235   -7.0843232    196.78312  0.024696677  0.024972476            9 
  665000    0.9725225    -7.062947    196.97092  0.024683073   0.02495253            3 
  666000   0.99437465   -7.0359492      197.248   0.02468068  0.024932736            3 
  667000   0.97545752   -7.0759176    197.03694  0.024617309  0.024912812            4 
  668000     1.010449   -7.0757508    196.99453  0.024575166  0.024892806            8 
  669000    1.0058147   -7.0917251    197.62921  0.024617491  0.024872489            5 
  670000   0.96644004   -7.0467062    198.14298  0.024644649  0.024852385            5 
  671000   0.99568368   -7.0400967    198.12674  0.024605904  0.024832645            5 
  672000   0.97054545   -7.0753793    198.40381  0.024603647  0.024813067            6 
  673000   0.98646777   -7.0887298     197.8083   0.02449335  0.024792945            6 
  674000   0.99222927    -7.074352    197.80108  0.024456118  0.024772682            3 
  675000   0.96928686   -7.0584078    197.97675  0.024441574  0.024752425            6 
  676000   0.98344667   -7.0582363    198.42237  0.024460351  0.024732008            7 
  677000   0.99046587   -7.0970769    197.59933  0.024322911  0.024711345            4 
  678000   0.98532346   -7.1202878    198.08509  0.024346742  0.024690482            5 
  679000    1.0152007   -7.0757584    198.35104  0.024343524  0.024669889            7 
  680000   0.98235696   -7.0876673    199.15614   0.02440639  0.024649316            2 
  681000   0.98786421   -7.0861294    198.43672  0.024282516  0.024628603           10 
  682000   0.98408188    -7.127472     198.0316   0.02419741  0.024607724            2 
  683000   0.98574217   -7.1315828    199.18167  0.024302303  0.024586635            6 
  684000   0.99653334   -7.0938073    199.04921  0.024250635  0.024566062            3 
  685000   0.98323877   -7.0885712    199.47207  0.024266675  0.024545497            5 
  686000   0.99376648   -7.1109854    199.66332  0.024254533  0.024525322            6 
  687000   0.97070043   -7.1411374    199.22632   0.02416622  0.024504831            8 
  688000   0.98937152   -7.0987848    200.32141  0.024263737  0.024484532            7 
  689000   0.99780118   -7.0799528    200.69245  0.024273397  0.024464852            3 
  690000   0.97576262   -7.0863348    200.57674  0.024224244  0.024445216            4 
  691000   0.96838242   -7.0995458    201.23742  0.024268864  0.024425675            4 
  692000   0.93653172   -7.1257209    201.01533  0.024207048  0.024405865            7 
  693000   0.98117793   -7.1423994    200.81427   0.02414794  0.024386283            6 
  694000   0.96746177    -7.113568    201.68229  0.024217373  0.024366537            3 
  695000   0.95208438   -7.1176114    201.30006  0.024136697  0.024346607            8 
  696000    0.9691927   -7.1410013     201.3602   0.02410922  0.024327068            2 
  697000   0.98820141   -7.0899552    201.70975  0.024116421  0.024307546            5 
  698000   0.96185925   -7.1098154    201.97243  0.024113232  0.024288004            4 
  699000   0.99468953   -7.1093441    202.31092  0.024119089  0.024268711           12 
  700000   0.99548683   -7.1470084    201.39529   0.02397563  0.024249163            8 
  701000   0.97823897   -7.1035138    202.09435   0.02402453  0.024229422            2 
  702000   0.97839599   -7.1116977    202.04514  0.023984466  0.024209363            5 
  703000   0.97042439   -7.1301815    201.48763  0.023884261  0.024189291            4 
  704000   0.96444654   -7.1214208    202.63696  0.023986382  0.024169111            6 
  705000   0.96483645    -7.094112      202.599  0.023947873  0.024149245           10 
  706000   0.94886683   -7.1144512    202.18765  0.023865398  0.024129227            4 
  707000   0.97291639    -7.099237    202.98071  0.023925119  0.024109302            5 
  708000   0.96437517   -7.1561702    202.44169  0.023827883  0.024089132            3 
  709000   0.97643863   -7.1351432    203.07405  0.023868601  0.024069175            4 
  710000   0.95819705   -7.1294961    203.33366  0.023865453  0.024049246            4 
  711000   0.97868976   -7.1226872    203.06843  0.023800801  0.024029462            3 
  712000    0.9911319   -7.1749331     202.4433  0.023694207  0.024009612            7 
  713000   0.97078471   -7.1416072     203.6249  0.023799076   0.02398963            5 
  714000   0.96784196   -7.1000276    204.23226  0.023836631  0.023969778            6 
  715000   0.97438105   -7.1301519    203.70215  0.023741509  0.023950018            6 
  716000   0.96865838    -7.145254    203.50417  0.023685308  0.023930084            5 
  717000   0.95364814   -7.1295271    203.85348  0.023692873  0.023910085            4 
  718000   0.98975055   -7.1296879      203.666  0.023638116  0.023890161            8 
  719000   0.97853814   -7.1194329    204.30046  0.023678773  0.023870258            5 
  720000   0.95844401   -7.1231017    204.12983  0.023626138  0.023850449            4 
  721000   0.96954379   -7.1262241    204.34058  0.023617727   0.02383048            3 
  722000   0.96992096   -7.1110337    204.44069   0.02359657  0.023810691            2 
  723000   0.97749559   -7.1481423    205.23716  0.023655735   0.02379088            6 
  724000   0.97066599     -7.15606     204.9079  0.023585163  0.023771407            6 
  725000   0.94068126   -7.1369017    205.03105  0.023566788  0.023751649            7 
  726000   0.97492606   -7.1006779    205.67913  0.023608715  0.023731945            4 
  727000   0.96116117   -7.1776001    205.64087  0.023571856   0.02371251            4 
  728000   0.98731519   -7.1612836    205.61061  0.023536014  0.023693012            5 
  729000   0.96910517     -7.13353    206.07598  0.023556925  0.023673443            6 
  730000   0.96763334   -7.1618663     206.1098  0.023528516  0.023654175            3 
  731000    0.9481304   -7.1435147    206.17123  0.023503332  0.023634851            4 
  732000   0.93975259   -7.1538216     206.1511  0.023468932  0.023615419            8 
  733000   0.96466584   -7.1769325    206.48282  0.023474627  0.023596483            8 
  734000   0.97423382     -7.15463    206.93537  0.023494025  0.023577271            9 
  735000   0.96018622   -7.1346949    206.84073   0.02345133  0.023558178            9 
  736000     0.949711   -7.1708942    206.62295  0.023394809   0.02353915            6 
  737000   0.98591574   -7.1722566    206.72482  0.023374584  0.023519931            7 
  738000   0.97898909    -7.185352    207.13787  0.023389552  0.023500975           11 
  739000   0.95690082   -7.1741535    207.65151  0.023415823   0.02348185            6 
  740000   0.96540463   -7.1658329     207.4358  0.023359888  0.023462885            4 
  741000   0.95223935   -7.1260612    207.57344  0.023343841  0.023443942            9 
  742000   0.97234656   -7.1262775    208.77158  0.023446943  0.023425215            5 
  743000   0.97925449   -7.1671409    208.34286  0.023367302  0.023406513            3 
  744000   0.95251738   -7.1314755    208.75827  0.023382423  0.023387797            6 
  745000   0.95831111   -7.1622439    208.58936  0.023332143  0.023369078            4 
  746000   0.95743163   -7.1462125    208.50785  0.023291762  0.023350287            3 
  747000   0.95047625   -7.1590571    208.63442  0.023274701  0.023331871            4 
  748000   0.94418809   -7.1958188    208.59811   0.02323954  0.023313477            7 
  749000   0.96505954    -7.178654    209.00883  0.023254209  0.023294863            5 
  750000    0.9369514   -7.1596493    209.14304  0.023238115  0.023276218            5 
  751000   0.96512874   -7.1381457    209.71228  0.023270338    0.0232579            3 
  752000   0.92841822   -7.1685725    209.27509  0.023190945  0.023239701            8 
  753000   0.97367927   -7.1782098    209.59076  0.023195082  0.023221301            6 
  754000   0.94293414   -7.1308147    210.11003   0.02322171  0.023202831            7 
  755000   0.95356059   -7.2327885    209.40819  0.023113486   0.02318462            5 
  756000   0.95089222   -7.2063773    210.05103  0.023153773  0.023166351            3 
  757000   0.94991388   -7.2337857    210.01297  0.023118998  0.023148062            8 
  758000   0.95145021   -7.1980304    210.33738  0.023124162  0.023129769           11 
  759000   0.95062401   -7.1696661    210.59067  0.023121505   0.02311148            7 
  760000   0.96362397   -7.1278418     211.0526  0.023141732  0.023093292            5 
  761000   0.97270912     -7.19649       210.55  0.023056285  0.023075103            4 
  762000   0.94614509   -7.1462974    211.85396   0.02316863  0.023056911            5 
  763000   0.96994146   -7.2040047    210.50229  0.022990638  0.023038563            3 
  764000    0.9303359   -7.1803403    211.11273  0.023027131  0.023019977            6 
  765000    0.9392036   -7.1695381    211.24935  0.023011912  0.023001355            3 
  766000   0.95122986   -7.1783253    211.21228  0.022977837  0.022982908            6 
  767000   0.95741176   -7.1853786     210.9435  0.022918676  0.022964588            7 
  768000   0.93885792   -7.1705426    211.62553   0.02296284  0.022946202            4 
  769000   0.93423886   -7.2139628    211.08199  0.022874078  0.022927734            3 
  770000   0.96954994   -7.1861645    211.73608   0.02291516  0.022909352            5 
  771000   0.97220726   -7.2039004    211.93857  0.022907325   0.02289108            5 
  772000   0.95209813   -7.1895044    211.98728   0.02288291   0.02287275           10 
  773000    0.9295928   -7.1802347    211.97775   0.02285228  0.022854539            4 
  774000   0.93668957   -7.1810756    211.93941  0.022818627  0.022836197            6 
  775000   0.94523671   -7.1917911    212.33521  0.022831743  0.022817744            3 
  776000   0.93799065   -7.1984045    211.61436   0.02272491  0.022799222            3 
  777000   0.94704574   -7.2335092     211.5428  0.022687988  0.022780675            6 
  778000   0.94954337    -7.222009    212.08185  0.022716565   0.02276177           18 
  779000   0.95401481   -7.2126368    212.18939  0.022698908  0.022743103            7 
  780000   0.94219738   -7.1744801    212.82198  0.022737391  0.022724448            4 
  781000   0.95836201   -7.2251397    212.38987  0.022662171  0.022705812            8 
  782000   0.96061077   -7.2181623    212.49214   0.02264409  0.022686956            4 
  783000   0.94322069    -7.207164    212.28929  0.022593582  0.022668322            7 
  784000   0.93535377   -7.2061855    212.86308  0.022625752  0.022649623           18 
  785000   0.93016882   -7.2171062    213.09492  0.022621541  0.022631034            4 
  786000   0.94513021   -7.1958841    213.52967  0.022638854  0.022612558            4 
  787000   0.92895753   -7.2220746    213.05421  0.022559742  0.022594299            3 
  788000    0.9601746   -7.2038642    213.68263  0.022597571  0.022576028            5 
  789000   0.92338796    -7.197284    214.05174  0.022607915  0.022557599            5 
  790000   0.91924034   -7.2683733    213.71227  0.022543489  0.022539241            4 
  791000   0.93618532   -7.2045646    213.83213  0.022527616  0.022520901            4 
  792000   0.92793823   -7.2193631    213.85144  0.022501204   0.02250256            8 
  793000   0.93721832   -7.2431262    213.90787  0.022478759  0.022484071            4 
  794000   0.94588285   -7.2191893    214.04574  0.022464919  0.022465627            7 
  795000   0.95356388   -7.1968746    214.13041  0.022445535  0.022447174            3 
  796000   0.93149388   -7.2474153    214.35007  0.022440334  0.022428833           21 
  797000   0.95484462   -7.2253717    214.41348  0.022418808  0.022410512            2 
  798000   0.92931593   -7.2652457    213.97628  0.022345058   0.02239225            3 
  799000   0.93702066   -7.2413404    214.85265  0.022408495  0.022373941            4 
  800000   0.93312483    -7.211682    215.26294  0.022423223  0.022355775            2 
  801000   0.91978248   -7.2524402    215.11247  0.022379574  0.022337609            7 
  802000   0.93583971   -7.2481712    214.55211  0.022293444   0.02231947           10 
  803000   0.93620567   -7.2207976     214.9824  0.022310337  0.022301383           11 
  804000   0.93384773   -7.2473539    215.06506  0.022291155  0.022283313            4 
  805000   0.93072492   -7.2492755      215.837  0.022343374  0.022265379            8 
  806000   0.95541252   -7.2195107    216.37108  0.022370872  0.022247737            7 
  807000   0.92412876   -7.2407188    215.64605  0.022268282  0.022230074            5 
  808000   0.92807884   -7.2605253    215.73671  0.022250073   0.02221205           12 
  809000   0.93928202   -7.2079408     216.5439  0.022305717  0.022194208            8 
  810000   0.93715202   -7.2577154    215.72682  0.022194118  0.022176507            6 
  811000   0.92788436   -7.2403532    216.03564  0.022198484  0.022158661            4 
  812000   0.92974795   -7.2627826    215.69041  0.022135715   0.02214051            8 
  813000   0.92706517   -7.2196363    215.97559  0.022137719  0.022122195            6 
  814000   0.92769887   -7.2724793    215.74673  0.022087094  0.022103971            5 
  815000   0.91537783   -7.2651151    216.34776  0.022121448  0.022085795           11 
  816000   0.90922385   -7.2418373    216.43817  0.022103571  0.022067504           10 
  817000   0.93458577   -7.2117732    216.87496  0.022121069  0.022049479            6 
  818000   0.92263456   -7.2186331    217.04253  0.022111097  0.022031495            8 
  819000   0.92181711   -7.2379929    217.01809  0.022081613  0.022013429           12 
  820000   0.92721247   -7.2242235    217.13359  0.022066422  0.021995523            7 
  821000     0.925612   -7.2133319    216.94596  0.022020499  0.021977785            3 
  822000   0.92122225   -7.2627364    216.74226   0.02197306  0.021959618           10 
  823000    0.9040155   -7.2724433    217.13177  0.021985801  0.021941694           10 
  824000   0.91783067    -7.279719    217.28743  0.021974862  0.021923637            9 
  825000   0.92494809   -7.2889335    216.63412  0.021882235   0.02190554           16 
  826000   0.92728406   -7.2644683    217.60299  0.021953489  0.021887385            5 
  827000   0.92367444   -7.2599168    217.61109  0.021927759  0.021869251            5 
  828000   0.91602354   -7.2893806    217.38732  0.021878756  0.021851259            4 
  829000   0.93076993   -7.2304974     218.7264  0.021986972  0.021833317            6 
  830000   0.89698325     -7.25084    218.06884  0.021894462   0.02181539            2 
  831000   0.94133088   -7.2705802    217.74988  0.021836129  0.021797522            6 
  832000   0.91965101   -7.2813894    217.27912  0.021762733  0.021779452            3 
  833000   0.92105861   -7.2573022    218.14027  0.021822756  0.021761354            3 
  834000   0.92116052   -7.2737769    218.41832  0.021824372  0.021743527            5 
  835000   0.91143606   -7.2216141    218.90586  0.021846892  0.021725848            7 
  836000   0.91342319   -7.2875781    218.46473  0.021776788  0.021708219            5 
  837000   0.92027894   -7.2350619    219.27081  0.021831024   0.02169042            7 
  838000   0.92363472   -7.2890742    218.38507  0.021716893  0.021672655           17 
  839000   0.91751736   -7.2557314    218.65127  0.021717448  0.021654701           19 
  840000   0.90872723   -7.2493708    219.65328     0.021791  0.021636775            4 
  841000   0.92303357   -7.2493504    219.16767  0.021716971     0.021619            9 
  842000   0.91859884   -7.2683735    218.96674  0.021671292   0.02160133            6 
  843000   0.91187383   -7.2877727    218.64573  0.021613852  0.021583372            8 
  844000   0.90924651   -7.3004733    219.25316  0.021648219  0.021565379            7 
  845000   0.92517131   -7.2409389    219.73074  0.021669699  0.021547679            8 
  846000   0.93093143   -7.2378962    219.69522  0.021640585  0.021530204            7 
  847000    0.9234643   -7.2518328    219.72083  0.021617555  0.021512546            3 
  848000   0.93308021   -7.2866888    219.93214  0.021612828  0.021494902            4 
  849000   0.91867325   -7.2994339    219.71335  0.021565896  0.021477211            5 
  850000      0.90222   -7.2822893    220.21822  0.021590022   0.02145962            4 
  851000    0.9230006   -7.2537099    220.10038  0.021553112  0.021442218            5 
  852000   0.89498127   -7.2504888    221.12748  0.021628274  0.021424961            9 
  853000   0.92098506   -7.2929452    219.71531  0.021464958  0.021407589            5 
  854000   0.89610695   -7.2872429    220.10518  0.021477867  0.021389906            9 
  855000   0.91305648   -7.2576727    220.71534  0.021512216  0.021372297            7 
  856000   0.92131729   -7.2917464    220.21946   0.02143881  0.021354676            3 
  857000   0.92788174   -7.3004015    220.64617  0.021455286  0.021337045           11 
  858000    0.9233249   -7.2940547    220.73891  0.021439288  0.021319377            4 
  859000   0.91065085   -7.2744917     221.2173  0.021460739  0.021301793            8 
  860000   0.91376638   -7.2914794    221.11384   0.02142576  0.021284308            6 
  861000   0.92835811   -7.3402249    220.42325  0.021334035  0.021266661            5 
  862000   0.91762147   -7.3186115    221.45746  0.021409267  0.021249005            6 
  863000   0.91045827   -7.2828703    221.28715  0.021368014   0.02123142            7 
  864000   0.90300248   -7.2945925    221.70831  0.021383904  0.021214027            5 
  865000   0.92205747   -7.2921808    222.00007   0.02138729  0.021196773           24 
  866000   0.89884471   -7.3294986    221.38298  0.021303212  0.021179181           15 
  867000   0.91468791   -7.3422834    222.03333  0.021341151  0.021161773           18 
  868000   0.89535085   -7.3260821    222.09319  0.021322311  0.021144316            7 
  869000   0.90399854   -7.3268031    221.84934   0.02127439   0.02112698           10 
  870000   0.87963316   -7.3070942    221.36533  0.021203575  0.021109521           10 
  871000   0.92893509   -7.3267828      221.913   0.02123163  0.021092118           15 
  872000   0.88935393   -7.3157467    221.97153  0.021212876  0.021074614            7 
  873000   0.90989444   -7.3138782    222.22346  0.021212625  0.021057063            7 
  874000   0.89179985   -7.3160255    221.95268  0.021162536  0.021039646            8 
  875000   0.89314554   -7.3089097    222.29967  0.021171397  0.021022307            5 
  876000   0.91752525    -7.336774      222.086  0.021126902  0.021004921            4 
  877000   0.90045831   -7.3102172    222.37203  0.021129991  0.020987508            9 
  878000   0.91761859   -7.2844968     223.1787  0.021182488  0.020970368            7 
  879000   0.91382968   -7.3230322    222.47497  0.021091673  0.020953139            5 
  880000    0.8971669    -7.346568    221.91961  0.021015115  0.020935868            6 
  881000   0.92566534   -7.3379777    222.65157  0.021060496  0.020918637            9 
  882000   0.90134589   -7.3027281    223.21749  0.021090088  0.020901236           10 
  883000   0.89861271   -7.3438698    222.92514  0.021038613  0.020883991            8 
  884000   0.90854934   -7.3042228    222.90631  0.021013038  0.020866669           10 
  885000   0.90528683   -7.3498217    223.29106  0.021025524  0.020849101            6 
  886000   0.89813894   -7.3194203    223.45965   0.02101765  0.020831725            4 
  887000    0.9111264   -7.3115379    223.13779  0.020963716  0.020814433            3 
  888000   0.90208309   -7.3501462     222.9885  0.020926098  0.020796991            5 
  889000   0.86008097   -7.3201407    223.50631  0.020951098  0.020779672            6 
  890000   0.92041298   -7.3400765     222.9415  0.020874673  0.020762368            9 
  891000   0.91210588   -7.3372692    223.37356  0.020891653  0.020745025            8 
  892000   0.89919468   -7.3332545     223.5696  0.020886547  0.020727541           10 
  893000   0.91396668   -7.3242049    223.68041  0.020873498  0.020710106            8 
  894000    0.8907524   -7.3555989    223.30304  0.020814974  0.020692696            7 
  895000   0.90611757    -7.343656      224.097  0.020865642  0.020675272            7 
  896000   0.88623546   -7.3655117    223.56648  0.020793014  0.020657898            3 
  897000   0.91322401   -7.3899149    223.32744  0.020747626  0.020640528            6 
  898000   0.88477158   -7.3975378    223.34424  0.020726081  0.020623145            9 
  899000   0.89669477   -7.3495662    224.66247   0.02082522  0.020605536            8 
  900000   0.90055363   -7.3474063    224.26719   0.02076548  0.020588092            7 
  901000   0.89543629   -7.3721584    223.63093  0.020683586  0.020570633            7 
  902000   0.87495116   -7.3514052     223.6701  0.020664274  0.020553185            4 
  903000   0.88381638   -7.3654624    224.06686  0.020678005  0.020535828            6 
  904000   0.89309104   -7.3333886    224.12812  0.020660778  0.020518379            6 
  905000   0.87708065   -7.3946843    223.91629  0.020618443  0.020501098           10 
  906000   0.89542243   -7.3367207    224.85061  0.020681624  0.020483731            5 
  907000   0.88742074   -7.3525274    224.59934  0.020635735  0.020466501            9 
  908000   0.88631475   -7.3884152    225.03408  0.020652908  0.020449249            8 
  909000   0.90486696   -7.3258842    225.76801   0.02069747  0.020432211            6 
  910000   0.89967092    -7.358701    225.02609  0.020606785  0.020415035            7 
  911000   0.89512136   -7.3835907    225.31909  0.020610966  0.020397928            7 
  912000   0.90918432   -7.4007575    224.98308  0.020557665  0.020380758            4 
  913000   0.88478035   -7.3943488    224.47398   0.02048868  0.020363591            8 
  914000   0.88290941   -7.3746024    224.57867  0.020475809  0.020346322           11 
  915000   0.87023008   -7.3422222    225.64488  0.020550535  0.020329173            9 
  916000   0.87501045   -7.3746522    224.75182  0.020446855  0.020312002            9 
  917000   0.87451242   -7.3232141    225.44463  0.020487516    0.0202948           12 
  918000   0.89916911   -7.3262834    225.53585  0.020473479  0.020277646           11 
  919000   0.88765399   -7.3452788    225.71642  0.020467575  0.020260471            4 
  920000   0.87899882   -7.3467983    225.54301   0.02042962  0.020243343            3 
  921000   0.88874228   -7.3545196    225.32986  0.020388153  0.020226205            5 
  922000   0.87529863   -7.3711034    225.73022  0.020402225   0.02020904            7 
  923000   0.89996769   -7.3671609    225.70254  0.020377622  0.020191879           10 
  924000   0.88891635   -7.3489682    226.37183   0.02041593  0.020174757            3 
  925000     0.864887   -7.3840369    225.92686  0.020353772  0.020157481            6 
  926000   0.89811674   -7.3701119    225.91446  0.020330675  0.020140349            7 
  927000   0.90783757   -7.3627102    226.21414  0.020335683  0.020123238           11 
  928000   0.88316351   -7.3690835    225.74282  0.020271446  0.020106122            4 
  929000   0.88888704     -7.39551    226.37807  0.020306609  0.020089008           11 
  930000   0.90056071   -7.3908735    226.40745  0.020287406   0.02007191            9 
  931000   0.89477946   -7.4093667    225.90575  0.020220708  0.020054796            9 
  932000   0.86117736   -7.3962482    226.50974  0.020253017  0.020037582            7 
  933000   0.90674508   -7.3488278    226.50672  0.020231039  0.020020519            7 
  934000   0.87912555   -7.3855261    226.31441  0.020192221   0.02000362           10 
  935000   0.90128359   -7.3939154    225.95095  0.020138231  0.019986533            5 
  936000   0.88840906    -7.348418    227.70249  0.020272657  0.019969669            6 
  937000   0.87227375   -7.4010359    226.70728  0.020162511  0.019952804            9 
  938000   0.86368928    -7.414842    227.36597  0.020199536  0.019935811           14 
  939000   0.86245758   -7.4399744    226.23415  0.020077579  0.019918709           28 
  940000   0.88429627   -7.4074051    227.57668  0.020175237  0.019901623           11 
  941000   0.88213687   -7.4171557    227.37819  0.020136219  0.019884732           14 
  942000   0.87860881   -7.4141641    226.96425  0.020078225  0.019867817            9 
  943000    0.8787092   -7.4309109    227.00326   0.02006038  0.019850808           10 
  944000   0.88070752   -7.4364606    226.87716  0.020027998  0.019833917            5 
  945000   0.87225469   -7.4199992    226.99843  0.020017498  0.019817021           10 
  946000    0.8721511    -7.419991    227.27786  0.020020954   0.01980017            8 
  947000   0.88911134   -7.3965648    228.41251  0.020099658  0.019783578            5 
  948000   0.87948126   -7.4107829     227.3831  0.019987966  0.019766757            8 
  949000   0.86243026   -7.3872039    228.02883  0.020023606  0.019750091            8 
  950000   0.86290779   -7.4079895    227.76747  0.019979603  0.019733466            7 
  951000   0.87993234   -7.4307126    227.00264  0.019891574  0.019716763           10 
  952000   0.88160788   -7.4542301    226.60649  0.019836002  0.019700047           10 
  953000   0.88638349   -7.4160392    227.86262  0.019925028  0.019683231           14 
  954000   0.88809245   -7.4509051    227.43133  0.019866468  0.019666507           13 
  955000   0.87292266   -7.4252238    228.24631  0.019916781  0.019649797           10 
  956000   0.86261155   -7.4700483    227.55894   0.01983603  0.019632962            6 
  957000   0.88777388   -7.4251224    228.11662  0.019863864  0.019616006           11 
  958000   0.90860496   -7.4409805    228.18244  0.019848855  0.019599277           14 
  959000   0.84832304   -7.4332767    228.00652  0.019812871  0.019582568            6 
  960000   0.85952683   -7.4120102    228.61938  0.019845432  0.019565794           21 
  961000   0.87716806   -7.4565406    228.49911  0.019814352   0.01954915            7 
  962000    0.8739137   -7.4333356    228.59743  0.019802272  0.019532485            4 
  963000   0.87419722   -7.4496305    228.36379  0.019761491  0.019515782            8 
  964000   0.86670332    -7.436123    229.07288  0.019802289  0.019499233           13 
  965000   0.87215296   -7.4604598    228.78379  0.019756804  0.019482639            5 
  966000   0.86662004   -7.4965558    228.54719  0.019715942  0.019465945            8 
  967000   0.85744765    -7.470101    228.13691  0.019660196  0.019449119           19 
  968000   0.87728297   -7.4946228    228.01531  0.019629417  0.019432274            5 
  969000   0.84868076   -7.4616756     228.4241  0.019644316  0.019415341            6 
  970000   0.87482408     -7.49249    227.90893  0.019579805  0.019398539            6 
  971000   0.85368642   -7.4606155    228.75388  0.019632156  0.019381649            9 
  972000   0.86361976   -7.4514211    229.27823  0.019656913  0.019364902            4 
  973000   0.87607116   -7.4826146    228.46135  0.019566748  0.019348156            9 
  974000   0.89626518   -7.4817782    228.37435  0.019539216  0.019331368           25 
  975000    0.8579917   -7.4500193    228.84884   0.01955973  0.019314644            3 
  976000   0.86793036   -7.4616095    228.84149  0.019539062  0.019297934            4 
  977000   0.87398157   -7.4397931    229.71735  0.019593769  0.019281309            8 
  978000   0.84065746   -7.4620058    229.91127  0.019590258  0.019264736            9 
  979000   0.87364333   -7.4886231    229.07594  0.019499144  0.019248163           11 
  980000   0.87321617   -7.4774796    228.88131  0.019462696   0.01923158            7 
  981000   0.86031582   -7.4552986    229.49934  0.019495357  0.019215137            5 
  982000   0.87800021   -7.4416182    230.04758  0.019522029  0.019198716            6 
  983000   0.85371288   -7.4644672    230.36121  0.019528756  0.019182282            9 
  984000   0.85375734   -7.4631723     229.5638  0.019441379  0.019165973            8 
  985000   0.84033288   -7.4740834    230.12433  0.019469063  0.019149708            9 
  986000   0.86298943   -7.4623056    230.18279  0.019454259  0.019133452           12 
  987000   0.85161875   -7.4471964    230.28884  0.019443502    0.0191171           21 
  988000   0.86880396   -7.4560897    229.90647  0.019391571  0.019100829            8 
  989000   0.86059661   -7.4516329    230.69357  0.019438285  0.019084645           10 
  990000   0.86007385   -7.4717975    229.87216  0.019349509  0.019068439           15 
  991000   0.85852478   -7.5026154    230.07745  0.019347246   0.01905215           25 
  992000   0.88928457   -7.4804078    230.59148  0.019370924  0.019035781           17 
  993000   0.85860132    -7.498128    230.59991  0.019352124  0.019019368            6 
  994000   0.84993589   -7.4851338    230.60561  0.019333133  0.019003012            7 
  995000   0.85595703   -7.4989424    230.26941  0.019285545  0.018986732           14 
  996000   0.85624588   -7.4660922    230.84661  0.019314475   0.01897055            9 
  997000   0.85300188   -7.4723618    231.10942   0.01931707  0.018954513            6 
  998000   0.85386359    -7.504641     230.9785  0.019286782  0.018938468            5 
  999000   0.84939999   -7.5158464    230.80221   0.01925277  0.018922253            7 
 1000000   0.84943296   -7.4923623    230.99941  0.019249951  0.018906072           15 
 1001000   0.84789499   -7.4943136    231.63348  0.019283506  0.018889937           15 
 1002000    0.8387042   -7.4485304    231.41667   0.01924623  0.018873848            7 
 1003000    0.8357714   -7.4903768    231.72995   0.01925307  0.018857752            5 
 1004000   0.86082798   -7.4916629    231.16876  0.019187314  0.018841638           12 
 1005000   0.85088533   -7.4962369    230.85511  0.019142215  0.018825436           12 
 1006000   0.84941351   -7.5310003    231.17495  0.019149681  0.018809195            6 
 1007000   0.83127384   -7.4917889    230.93045  0.019110431  0.018792977            9 
 1008000   0.86575583   -7.4929139    230.94179   0.01909241  0.018776779            4 
 1009000   0.85533216   -7.4820675    231.45027  0.019115483  0.018760696            9 
 1010000   0.85024473    -7.488814    231.45787  0.019097184  0.018744657            9 
 1011000   0.84334008   -7.5116894    231.59919  0.019089943  0.018728693           15 
 1012000   0.86210978   -7.5115464    230.62611  0.018990951  0.018712667           11 
 1013000   0.84473427   -7.4737843    231.21102  0.019020321  0.018696612           12 
 1014000   0.83071334    -7.476914    231.72116  0.019043488  0.018680537            9 
 1015000   0.85678996   -7.5196128    231.07798   0.01897192  0.018664362            9 
 1016000   0.84124412   -7.5111915    231.54219  0.018991322  0.018648282           16 
 1017000   0.85871114   -7.5184351    231.99738  0.019009946  0.018632042           13 
 1018000   0.84892568   -7.4840664    232.49354  0.019031888  0.018615926           14 
 1019000   0.86021071    -7.473799    232.41285  0.019006612  0.018599974            6 
 1020000   0.84581644   -7.5305223     231.7634  0.018934918  0.018584014            9 
 1021000   0.85907192   -7.4815581    231.92411   0.01892949  0.018568097            5 
 1022000    0.8510756   -7.5153084    231.92202  0.018910797  0.018552252           10 
 1023000   0.85455043   -7.4565262    233.25239  0.019000684  0.018536553           44 
 1024000   0.84142135   -7.5078955    232.21872  0.018898008  0.018520863           23 
 1025000   0.84004372   -7.5247247    231.79338   0.01884499  0.018505062            7 
 1026000   0.85414141   -7.4833868    232.59518  0.018891747  0.018489285           13 
 1027000   0.84518204   -7.5370472    231.95096  0.018821078  0.018473526           17 
 1028000    0.8319312   -7.5162625    232.57399  0.018853274  0.018457726           16 
 1029000   0.84584489   -7.5480794    232.18041  0.018803078   0.01844187            6 
 1030000   0.81525188   -7.5213021    232.50272    0.0188109     0.018426            7 
 1031000   0.84734536   -7.5412216    232.90011  0.018824775  0.018410187            4 
 1032000    0.8378513   -7.5544643    232.18202  0.018748548  0.018394423            6 
 1033000   0.86409265   -7.5317348    232.75994   0.01877702  0.018378718            6 
 1034000   0.83535164    -7.550229    233.08172  0.018784794   0.01836304            4 
 1035000   0.82705764   -7.5123352    232.70711  0.018736482  0.018347311            6 
 1036000   0.84853248   -7.5230559    233.04655  0.018745701  0.018331526           11 
 1037000   0.84674075   -7.5284885    232.37603  0.018673741  0.018315777            7 
 1038000   0.85867714   -7.5308928     232.6182  0.018675193  0.018300173           13 
 1039000   0.83794265   -7.5312599    233.15413  0.018700203  0.018284572           18 
 1040000   0.84211375   -7.5210295    233.50876  0.018710638   0.01826919            9 
 1041000   0.82778688   -7.5236393    233.29498  0.018675551   0.01825382            9 
 1042000   0.84134505    -7.527712    233.52877  0.018676326  0.018238429            9 
 1043000   0.85309957   -7.5333582    233.37425  0.018646073   0.01822301           11 
 1044000   0.83540877   -7.5233557    233.69923  0.018654153  0.018207527           10 
 1045000   0.82547256   -7.4899758     233.8684  0.018649792  0.018192239           11 
 1046000   0.84026417   -7.5359272    233.70225  0.018618726  0.018176867           17 
 1047000   0.82031405   -7.5554108    233.09428  0.018552553  0.018161375            6 
 1048000   0.82376301   -7.5233488    233.69235  0.018582407  0.018145834           10 
 1049000   0.83725984   -7.5276499    233.72268  0.018567102  0.018130373            6 
 1050000   0.84915096   -7.5393445    233.04824  0.018495892   0.01811485           11 
 1051000   0.83104614   -7.5859671    233.19265  0.018489744  0.018099282            6 
 1052000    0.8400342   -7.5751821    233.89027  0.018527429  0.018083661            8 
 1053000   0.82141388   -7.5635647    233.40619  0.018471525  0.018068162            9 
 1054000   0.82344566   -7.5729826    233.33369  0.018448268  0.018052654           10 
 1055000    0.8376051   -7.5837627    233.11655   0.01841363  0.018037152           13 
 1056000   0.82390627   -7.5558276    233.52404  0.018428349  0.018021661            8 
 1057000   0.84690142   -7.5602839    234.25792  0.018468773  0.018006229           13 
 1058000   0.82798696   -7.5603827    233.68061  0.018405845  0.017990682           15 
 1059000   0.82187464   -7.5859677    234.07798  0.018419734  0.017975266           28 
 1060000   0.82983694   -7.5979788    234.29657  0.018419542  0.017959674            7 
 1061000    0.8506886   -7.5841109    233.68318  0.018354004  0.017944144           15 
 1062000   0.83595024   -7.5965053    234.02585  0.018363611  0.017928674           17 
 1063000   0.82704332    -7.563918    234.16224  0.018357027  0.017913107            5 
 1064000   0.82028928   -7.5673419     234.2287   0.01834498  0.017897667           11 
 1065000   0.84205571   -7.5949337    234.20336  0.018325771  0.017882199           10 
 1066000    0.8381046   -7.5926792    234.07675  0.018298683  0.017866671           19 
 1067000   0.85662733   -7.6106939    234.36934  0.018304384  0.017851162           17 
 1068000   0.83456518   -7.5730026     234.4214  0.018291308  0.017835666           11 
 1069000   0.81312282   -7.5839821    234.68061  0.018294403  0.017820266            6 
 1070000   0.83947068   -7.5792173     234.5633   0.01826817  0.017804867            4 
 1071000   0.81934527   -7.5661028    234.47567  0.018244294  0.017789654           16 
 1072000   0.80873011   -7.5783633    234.89594  0.018259946  0.017774322            8 
 1073000   0.82514022   -7.5722911    234.69271  0.018227144  0.017759031            7 
 1074000   0.82421027   -7.5813733    234.82258  0.018220249  0.017743775            9 
 1075000   0.82194749   -7.5589031    235.44819  0.018251798  0.017728636           17 
 1076000    0.8166609   -7.5824627    235.37897  0.018229474  0.017713426            7 
 1077000   0.82683184   -7.5704556    235.08236  0.018189598  0.017698223            6 
 1078000   0.81681723   -7.5730003    234.98083  0.018164876  0.017683103           15 
 1079000   0.83051729    -7.589502    235.15465  0.018161465  0.017667937            7 
 1080000   0.81356889   -7.6111083    234.84287  0.018120592  0.017652791           26 
 1081000    0.8321384   -7.6038674    234.95098  0.018112163  0.017637617           20 
 1082000   0.84227413   -7.6105962    235.41999  0.018131546  0.017622475           13 
 1083000   0.82909011   -7.5886048     235.3927  0.018112704  0.017607366            9 
 1084000   0.82052183   -7.6117953    235.24259  0.018084455  0.017592325            9 
 1085000   0.81413154   -7.6062244    235.33836  0.018075143  0.017577349           19 
 1086000   0.82065219   -7.6129286    235.76786  0.018091457  0.017562377           14 
 1087000   0.81121224   -7.6030278    234.97694  0.018014178  0.017547367            8 
 1088000   0.83492384   -7.5830746    235.63915  0.018048342  0.017532351            9 
 1089000   0.82162264   -7.6308441    235.58812  0.018027864   0.01751726           11 
 1090000   0.81309892   -7.6104799    235.28549  0.017988188  0.017502237           18 
 1091000   0.82086224   -7.5882694    235.59094  0.017995031  0.017487257           14 
 1092000   0.82081964   -7.5637877     236.2749  0.018030746  0.017472302           26 
 1093000   0.82041974   -7.5594724    235.44638  0.017951081  0.017457296            7 
 1094000   0.81785986   -7.6009228    235.23551   0.01791861  0.017442319           10 
 1095000    0.8072701   -7.6006877    235.69814  0.017937453  0.017427361           28 
 1096000   0.81157494   -7.5940845    236.09395  0.017951182  0.017412368           24 
 1097000   0.83801186   -7.5919865    235.83436  0.017915098  0.017397393           16 
 1098000   0.79236994   -7.6198227    235.90621  0.017904236  0.017382445           15 
 1099000   0.81339216   -7.6005797    236.00527  0.017895456  0.017367463            7 
 1100000   0.80859087   -7.6162297     235.2913  0.017825098  0.017352572           12 
 1101000   0.79226045   -7.5993369    236.01186  0.017863447  0.017337719            7 
 1102000   0.83771878   -7.5973679    236.46655   0.01788162  0.017322842           13 
 1103000   0.81106105   -7.6106701    236.01297   0.01783114  0.017307957            8 
 1104000   0.81736203   -7.6476485    235.69286  0.017790826  0.017293096            8 
 1105000   0.82792115   -7.5789637    236.41211  0.017828967  0.017278205           13 
 1106000    0.8176035   -7.6285088    236.26663  0.017801886  0.017263417           18 
 1107000   0.81081023   -7.6297347    236.38253  0.017794529  0.017248564           17 
 1108000   0.82345671   -7.6060611    236.16066  0.017761782  0.017233724           10 
 1109000   0.80360991   -7.6222656    236.43142  0.017766112  0.017218939           15 
 1110000   0.82106292   -7.5948469    236.56423  0.017760077  0.017204174           12 
 1111000   0.82305468   -7.6058331    236.93049  0.017771564  0.017189482           11 
 1112000   0.81042007   -7.6394754    236.07169  0.017691224  0.017174762           15 
 1113000   0.81769807   -7.6369975    236.62923  0.017717074  0.017160075           11 
 1114000    0.8190438    -7.604258    236.37602  0.017682228  0.017145358           13 
 1115000   0.78201003   -7.5972319    236.73468  0.017693175  0.017130738            9 
 1116000   0.80277665   -7.6274917    236.29914  0.017644799  0.017116048           11 
 1117000   0.81481764   -7.6393318    237.35387  0.017707689  0.017101367           13 
 1118000   0.83612376   -7.5948971    236.62076  0.017637206  0.017086616           19 
 1119000    0.7936001   -7.6039836    236.74389  0.017630614  0.017071931           20 
 1120000   0.80586685   -7.6409669     236.4221   0.01759093  0.017057214           27 
 1121000   0.81570013   -7.6085221    237.30253  0.017640688  0.017042462           26 
 1122000   0.80359491    -7.616534    236.70665  0.017580708  0.017027691           17 
 1123000   0.77731098   -7.6558696    236.47812  0.017548094   0.01701288           12 
 1124000   0.80628557   -7.6973498    235.97335  0.017495058   0.01699804           11 
 1125000   0.80825093   -7.6270328    235.72856  0.017461374  0.016983189           19 
 1126000   0.78188122   -7.6386524    236.67508  0.017515918    0.0169683           31 
 1127000   0.81822322   -7.6418738    236.59589   0.01749452  0.016953454           29 
 1128000   0.80189153   -7.6512935    236.91933  0.017502906  0.016938645           25 
 1129000   0.79156547   -7.6364444     236.9357  0.017488611  0.016923892           31 
 1130000   0.81106294   -7.6380479    237.16449  0.017490007  0.016909175           24 
 1131000   0.81816827   -7.6169212    237.20613  0.017477611   0.01689441           14 
 1132000   0.80053612   -7.6639204    235.92259  0.017367682   0.01687964           24 
 1133000   0.78697081   -7.6615328    235.88201  0.017349368  0.016864822            9 
 1134000   0.79507817    -7.649852    236.22252  0.017359092  0.016849936            9 
 1135000   0.80023135   -7.6534649    236.59664  0.017371266  0.016835117           28 
 1136000   0.80724487    -7.638946    236.79851  0.017370783  0.016820349           39 
 1137000   0.80544102   -7.6450771    236.71008  0.017349023  0.016805559           13 
 1138000   0.80966133   -7.6545352    236.68087   0.01733164  0.016790765           15 
 1139000   0.79775888   -7.6641167    236.71793  0.017319134  0.016775954           35 
 1140000   0.78454307    -7.645953    236.22363  0.017267809  0.016761078           32 
 1141000   0.78355923   -7.6722337    235.93829  0.017231835  0.016746248           10 
 1142000   0.81105032   -7.6473742    236.83541   0.01728221  0.016731382           29 
 1143000   0.79750173   -7.6673519    236.33015  0.017230253  0.016716509           13 
 1144000    0.7858451   -7.6559346    236.62862  0.017236933  0.016701666            6 
 1145000   0.79030519   -7.6200617    236.87123  0.017239536  0.016686867           29 
 1146000   0.79103983   -7.6571018    236.38767   0.01718933  0.016672154           10 
 1147000   0.80077651   -7.6598322     237.3408  0.017243592  0.016657524           14 
 1148000   0.81288211   -7.6386668    236.55647  0.017171637  0.016642815            7 
 1149000   0.79813353   -7.6825107    236.62766  0.017161855  0.016628066            9 
 1150000   0.80026229   -7.6526434    237.15053  0.017184821  0.016613268           22 
 1151000   0.77836826   -7.6809289     236.3096  0.017109007  0.016598489            9 
 1152000    0.7809165   -7.6965567    236.52385  0.017109654  0.016583762           22 
 1153000   0.79033022   -7.6735474      236.701  0.017107618  0.016569065           12 
 1154000   0.80418637   -7.7014275    237.00104   0.01711446  0.016554412           12 
 1155000   0.78684712   -7.6562029    236.93075  0.017094571  0.016539785           11 
 1156000   0.80633282   -7.6398628    237.11766  0.017093257  0.016525214           10 
 1157000    0.8057621   -7.6505808    236.89462  0.017062419  0.016510677           14 
 1158000   0.79045774   -7.6892981    237.59849  0.017098337  0.016496131            8 
 1159000   0.78880494   -7.6771451    237.25925  0.017059192  0.016481567           31 
 1160000   0.78326355   -7.6762885     237.2895  0.017046659  0.016466956            8 
 1161000   0.78548346   -7.6781285    237.88375   0.01707463   0.01645242           15 
 1162000   0.78594306   -7.7055229    237.18759   0.01701001  0.016437869            9 
 1163000   0.80681643   -7.6903543    237.04689  0.016985303  0.016423334           18 
 1164000    0.7934789   -7.6868925    237.44308  0.016999075  0.016408781           28 
 1165000   0.78679729   -7.6865507    237.05741  0.016956896  0.016394311           19 
 1166000   0.79107664   -7.6938169    237.19543  0.016952218  0.016379828            9 
 1167000   0.79467153   -7.6895204    237.02733  0.016925688  0.016365219           10 
 1168000   0.79215299   -7.6856537    237.53029  0.016947081  0.016350637           30 
 1169000   0.77685554   -7.7081286    237.13542  0.016904435   0.01633601           13 
 1170000   0.78447868   -7.7338452    236.87316  0.016871308   0.01632135           15 
 1171000   0.80224254   -7.7280375    236.23482  0.016811473  0.016306735           23 
 1172000   0.77136435   -7.7023444    237.21104  0.016866542  0.016292125           22 
 1173000   0.79794061   -7.7448977    236.84916  0.016826454  0.016277522           40 
 1174000   0.77669749    -7.729186    236.51394  0.016788326  0.016262856           14 
 1175000   0.78609509   -7.7112989    236.85593  0.016798293  0.016248192           10 
 1176000   0.78148351   -7.7300794    236.91642  0.016788295  0.016233622           11 
 1177000   0.79261691   -7.7314869    237.06043  0.016784228  0.016219028            7 
 1178000   0.77739604   -7.7447377    236.84326  0.016754616  0.016204388           16 
 1179000   0.78327345   -7.7453789     236.6565  0.016727205  0.016189792           23 
 1180000    0.7655382   -7.7657521    236.79439  0.016722767  0.016175198           18 
 1181000   0.77060361   -7.7177216    236.91898  0.016717399  0.016160601           30 
 1182000   0.77252835    -7.755786      236.913  0.016702834  0.016146005           14 
 1183000   0.79314938   -7.7430308    236.75818  0.016677809  0.016131464           13 
 1184000   0.79359708   -7.7332012    237.71088  0.016730777  0.016116932            8 
 1185000   0.77659355   -7.7471379    236.76825  0.016650369  0.016102332           16 
 1186000   0.76671117   -7.7121997    237.35945  0.016677871  0.016087762           14 
 1187000   0.78203547   -7.7283588     236.9442  0.016634667  0.016073236           38 
 1188000   0.78717008   -7.7538159    237.07928  0.016630141  0.016058672           10 
 1189000   0.79154912     -7.73775    237.12553  0.016619395   0.01604408           25 
 1190000   0.76495124   -7.7518777    237.59418  0.016638248  0.016029526           10 
 1191000   0.76538859   -7.7400153    236.74884   0.01656513  0.016015026           11 
 1192000   0.79002626   -7.7526282    236.98077  0.016567448  0.016000539           18 
 1193000   0.77216966    -7.775758    237.03086  0.016557059  0.015986002           22 
 1194000   0.76902006   -7.7398482    236.82865  0.016529079  0.015971473           18 
 1195000   0.78702886   -7.7425995    237.21019  0.016541854  0.015957033           28 
 1196000   0.77540618   -7.7384513    237.13728  0.016522943  0.015942562           28 
 1197000    0.7794151   -7.7557532    236.75173  0.016482298  0.015928011           12 
 1198000   0.78365816   -7.7401211    237.48036  0.016519224  0.015913482           12 
 1199000   0.75866023   -7.7364402    236.60792   0.01644481  0.015899001           17 
 1200000   0.76038988   -7.7556473    236.55935  0.016427733  0.015884492           15 
 1201000   0.75874917   -7.7708118    237.03033  0.016446734  0.015870003           47 
 1202000   0.79345227   -7.7460512    237.30158  0.016451856  0.015855575           38 
 1203000   0.77997492   -7.7487646    237.69182  0.016465213  0.015841152           15 
 1204000   0.77819844   -7.7530619    237.83438  0.016461405  0.015826756           23 
 1205000   0.75861576   -7.7244642    237.59103  0.016430915  0.015812297           17 
 1206000   0.76932557   -7.7326215    237.32743  0.016399076  0.015797881           27 
 1207000   0.77010914    -7.730354    236.74402   0.01634521  0.015783525           19 
 1208000   0.77360032   -7.7194835    237.39116  0.016376322  0.015769148           25 
 1209000   0.79010385      -7.7643    236.91995  0.016330297  0.015754803           19 
 1210000   0.75497365   -7.7692715     237.3954  0.016349545  0.015740459           26 
 1211000   0.77931909   -7.7597516    237.43607  0.016338843  0.015726098           11 
 1212000   0.77591349   -7.7420738    237.18232  0.016307915  0.015711791           17 
 1213000   0.77045388   -7.7395347    237.08634  0.016287877  0.015697457           14 
 1214000   0.79014616   -7.7791699    236.53989   0.01623695  0.015683061           14 
 1215000   0.76962536   -7.7944861    237.00492  0.016255481  0.015668686           27 
 1216000    0.7548796   -7.7915943    236.26414  0.016191347  0.015654341           15 
 1217000   0.76129903   -7.7725816    237.19369  0.016241693  0.015639942           14 
 1218000   0.77249854     -7.75949    237.35751  0.016239567  0.015625578           20 
 1219000   0.77337204   -7.7831381    237.62757  0.016244707  0.015611221           16 
 1220000   0.75945418   -7.7831768    236.84005  0.016177599  0.015596864           17 
 1221000   0.77750498   -7.7790581    237.27128  0.016193781  0.015582511           21 
 1222000   0.77123363   -7.7625432    237.00079  0.016162083  0.015568179           20 
 1223000    0.7607353   -7.7967956    236.86984  0.016139945  0.015553869           12 
 1224000   0.75614114   -7.7541016    237.32075  0.016157458   0.01553962           24 
 1225000   0.76473623   -7.7901564    236.62623  0.016097022  0.015525346           12 
 1226000   0.75437451   -7.7789463    237.62785  0.016151975  0.015511071           26 
 1227000   0.77387571   -7.8079169    237.13864  0.016105585   0.01549681           22 
 1228000   0.76685156    -7.821655    237.15814  0.016093794  0.015482562           11 
 1229000    0.7557744   -7.8011275    236.37846  0.016027832  0.015468258           15 
 1230000   0.76913167   -7.8035075     237.1675  0.016068259  0.015454003           10 
 1231000   0.77411015   -7.7737282    237.34126  0.016066968  0.015439801           12 
 1232000   0.77142898   -7.8146271    237.40588  0.016058298  0.015425588            9 
 1233000    0.7676018   -7.7917313    236.71752  0.015998751  0.015411393           13 
 1234000   0.75656813   -7.7954145     237.6286  0.016047312   0.01539722           24 
 1235000   0.77138916   -7.7860354    237.48084  0.016024348  0.015383041            9 
 1236000   0.76703163   -7.7913799    236.86423  0.015969811  0.015368874           26 
 1237000   0.77798242   -7.8151499    236.63216  0.015941266  0.015354686            6 
 1238000   0.76330802   -7.7931686    237.49318  0.015986348  0.015340555           20 
 1239000   0.74583394   -7.8271629    237.47761  0.015972398  0.015326438           11 
 1240000   0.76009548   -7.8132428    237.02613  0.015929175  0.015312333           15 
 1241000   0.76460773   -7.8376808    236.92744  0.015909713  0.015298202           12 
 1242000   0.77762022   -7.8208498    237.33594  0.015924312  0.015284145           14 
 1243000   0.75571112   -7.8500912    236.78738  0.015874724  0.015270093           15 
 1244000   0.75312184   -7.8231503    237.43252  0.015905179  0.015256018           18 
 1245000   0.74262185   -7.8150483    237.20149   0.01587694  0.015241979           18 
 1246000   0.74581425   -7.8092437     237.1459   0.01586048  0.015227913           26 
 1247000   0.76599026   -7.8322863     236.7855  0.015823677  0.015213896           34 
 1248000   0.74549143   -7.7856253    237.04919  0.015828605   0.01519984           12 
 1249000   0.75943917   -7.7856933    237.78748  0.015865191  0.015185893           44 
 1250000   0.73745437   -7.7770772    237.44783  0.015829856  0.015171938           52 
 1251000   0.75835283   -7.7965271    237.39825  0.015813899  0.015157961           35 
 1252000   0.75874433    -7.796888     237.3091  0.015795334  0.015143996           27 
 1253000   0.75733819    -7.820499     237.5477  0.015798597  0.015129997           36 
 1254000   0.78148367   -7.8506896    236.79524  0.015735994  0.015116033           27 
 1255000   0.75915111   -7.8353651    237.08069   0.01574241  0.015102035           29 
 1256000   0.76184558   -7.8119702    237.49158  0.015757138  0.015088081           25 
 1257000   0.74475659   -7.8296916    237.63841  0.015754337  0.015074135           17 
 1258000   0.73015192   -7.8050647    237.88534  0.015758171  0.015060207           37 
 1259000   0.73828393   -7.8126651    236.96859  0.015684974  0.015046361           32 
 1260000   0.74834714   -7.8155737    237.52785  0.015709514  0.015032466           36 
 1261000   0.76248933   -7.8326944    237.31849   0.01568322  0.015018592           38 
 1262000   0.74863452   -7.8274163    237.10195  0.015656494  0.015004681           48 
 1263000   0.74534012   -7.8533704    237.29302  0.015656705  0.014990796           45 
 1264000   0.73724671   -7.8383029    237.00181   0.01562512  0.014976877           41 
 1265000   0.74515876   -7.8386485     237.1762  0.015624256  0.014963021           48 
 1266000   0.74170651   -7.8308498      236.979  0.015598934  0.014949152           46 
 1267000   0.72967501   -7.8532324    237.25934  0.015605061  0.014935195          107 
 1268000   0.74836949   -7.8334305    237.10432  0.015582566  0.014921223          109 
 1269000   0.75189158   -7.8516798    237.12799  0.015571841  0.014907299          110 
 1270000   0.74086398   -7.8623677    236.90239  0.015544776  0.014893392           91 
 1271000   0.74930673   -7.8347009    237.10864  0.015546069  0.014879468           99 
 1272000   0.74363972   -7.8558405    237.26612  0.015544164  0.014865578          114 
 1273000   0.73314859     -7.84528    237.19514  0.015527307  0.014851658           82 
 1274000   0.74487727   -7.8664651    236.58787  0.015475397  0.014837719           74 
 1275000     0.740822   -7.8643378    236.73754  0.015473042  0.014823722           55 
 1276000   0.75814046   -7.8871087    236.40804  0.015439397  0.014809792           66 
 1277000   0.74768812   -7.8317408    237.52541  0.015500222  0.014795927           23 
 1278000   0.74369129   -7.8314712    237.31526  0.015474391  0.014782074           72 
 1279000   0.72704123   -7.8294641    236.81086  0.015429428  0.014768241          114 
 1280000   0.75663435   -7.9209496    236.09447  0.015370734  0.014754382           83 
 1281000    0.7330028   -7.8622001    236.96123   0.01541512  0.014740532           81 
 1282000   0.73038948   -7.8675446    237.05459  0.015409165  0.014726749           54 
 1283000   0.73911186   -7.8714874    237.24872  0.015409763  0.014712939           44 
 1284000   0.74181329   -7.8585485    237.05958  0.015385487  0.014699155           67 
 1285000   0.74630844   -7.8547906    236.93784  0.015365618   0.01468539           62 
 1286000    0.7282954   -7.8539899    237.29932  0.015377094  0.014671618           59 
 1287000   0.74147671   -7.8902733    236.44482  0.015309817  0.014657822           65 
 1288000   0.73985089   -7.9017425    236.73597  0.015316768  0.014644014           39 
 1289000    0.7479432    -7.923919    236.85594  0.015312642  0.014630195           55 
 1290000   0.74771378    -7.889534    236.51385  0.015278672  0.014616403           56 
 1291000   0.74579284   -7.8863615    236.70937  0.015279458  0.014602636           65 
 1292000   0.74462504   -7.8867791    236.93312  0.015282064   0.01458887           60 
 1293000   0.72926014   -7.8931573     236.8266   0.01526338  0.014575127           48 
 1294000   0.75540715   -7.8888725    236.59101  0.015236412  0.014561393           51 
 1295000    0.7612475   -7.9075318    236.60386  0.015225473  0.014547693           38 
 1296000   0.73259302   -7.8674774    236.66801   0.01521785  0.014534001           58 
 1297000   0.73706965   -7.9012271    236.58124  0.015200542  0.014520357           48 
 1298000   0.73364256   -7.8718945    237.03685  0.015218082  0.014506736           58 
 1299000   0.73346829   -7.8973506    237.03235  0.015206078  0.014493108           41 
 1300000   0.73756398   -7.8721787    236.99478  0.015191973  0.014479538           51 
 1301000   0.73577828   -7.8702681    236.80217  0.015167959  0.014465958           45 
 1302000   0.73325247   -7.8774247    237.18063  0.015180532  0.014452374           56 
 1303000   0.74571075   -7.8681432    237.30879  0.015177078  0.014438786           59 
 1304000   0.73912135   -7.9103269    236.71502  0.015127494  0.014425188           49 
 1305000   0.72509564   -7.8968888    236.86892  0.015125729  0.014411568           48 
 1306000   0.71932348   -7.9300003     236.4461  0.015087168  0.014397956           76 
 1307000   0.72934031   -7.9057878    236.54232   0.01508176  0.014384365           64 
 1308000   0.73009542   -7.8900356    237.00604  0.015099773  0.014370807          125 
 1309000   0.75617094   -7.9263589    236.37144  0.015047838  0.014357263           54 
 1310000   0.69394502    -7.886313    237.28886  0.015094711  0.014343726           50 
 1311000   0.74102163    -7.894129     237.1132  0.015072031  0.014330243           48 
 1312000   0.74635986   -7.8682724    237.59657  0.015091246  0.014316815           85 
 1313000   0.71927937   -7.9022428    237.20819  0.015055102   0.01430333           50 
 1314000   0.74554767   -7.9037863    237.01554  0.015031427   0.01428985           47 
 1315000   0.73323983   -7.8880918    237.44198   0.01504702  0.014276387           75 
 1316000   0.73202744   -7.9061034    237.36374  0.015030632  0.014262964           76 
 1317000   0.72210255   -7.8947817    237.17892  0.015007524  0.014249548           59 
 1318000   0.72136508   -7.9102037    236.90927  0.014979089  0.014236143           36 
 1319000   0.70306842   -7.8929657    237.44961  0.015001871  0.014222771           47 
 1320000   0.72021847   -7.9021059    237.18662  0.014973903    0.0142094           45 
 1321000   0.73651422   -7.9310989    237.52572  0.014983959  0.014196057           62 
 1322000   0.72918679   -7.9381739    236.64092  0.014916851  0.014182706           52 
 1323000   0.72691063   -7.8858489    237.37723  0.014951954  0.014169372           57 
 1324000   0.71225077   -7.9110082    237.59317  0.014954253   0.01415603           63 
 1325000   0.71366727   -7.9117949    236.92674  0.014901053  0.014142694           91 
 1326000   0.73161149   -7.9302205    236.85564  0.014885347  0.014129391           67 
 1327000   0.71700038   -7.9022059    237.35537  0.014905512  0.014116059           78 
 1328000   0.73127737   -7.9151533    236.65124  0.014850103  0.014102713          101 
 1329000   0.71135829   -7.9230234    236.57303  0.014834025  0.014089361           73 
 1330000   0.71945126   -7.9158067    236.92339  0.014844824  0.014076027           70 
 1331000   0.72537555   -7.9262425    236.28952  0.014793984  0.014062699           54 
 1332000   0.72524209    -7.928795    236.84511  0.014817637  0.014049343           70 
 1333000   0.72038848   -7.9007966    236.77801  0.014802326  0.014036004           53 
 1334000   0.71667605   -7.9263517    236.62254  0.014781518  0.014022705           55 
 1335000   0.73320984   -7.9098071    236.96624    0.0147919  0.014009395           55 
 1336000   0.70969443   -7.9426776     236.6161  0.014758989  0.013996102          105 
 1337000   0.70673303   -7.9291656    236.78916  0.014758736  0.013982822           38 
 1338000    0.7102145   -7.9452093    236.81323  0.014749205  0.013969545          110 
 1339000   0.72454768   -7.9464339    236.87062  0.014741761   0.01395629           72 
 1340000   0.71597223    -7.925447    236.63395  0.014716042  0.013943004           34 
 1341000   0.71916639   -7.9433684    236.10536   0.01467222  0.013929723           91 
 1342000   0.72761075   -7.9515604    236.28742  0.014672592  0.013916536           67 
 1343000   0.71231617   -7.9627394    236.64824  0.014684056  0.013903306           81 
 1344000   0.71066264   -7.9292475    236.38667  0.014656912  0.013890097           59 
 1345000   0.72793986    -7.946806    236.83754  0.014673949  0.013876905          135 
 1346000   0.72033497    -7.959496    236.59491  0.014648026  0.013863707           90 
 1347000   0.72828259   -7.9425655    236.83035  0.014651717  0.013850534          122 
 1348000   0.71798192   -7.9479893    236.51986  0.014621653  0.013837408           68 
 1349000   0.72305349   -7.9324813    236.34661  0.014600112  0.013824304           59 
 1350000   0.71504276   -7.9449678    236.77582  0.014615791  0.013811201           57 
 1351000   0.70489076   -7.9664504    236.88362  0.014611622  0.013798113           99 
 1352000   0.71801557     -7.97292    236.49997  0.014577168   0.01378506           74 
 1353000   0.70474945   -7.9695328    236.82025   0.01458612  0.013772015           82 
 1354000   0.70482492   -7.9951789    236.36273  0.014547189   0.01375895           71 
 1355000   0.71757597   -7.9572663    235.94689  0.014510879  0.013745871           65 
 1356000   0.69045514   -7.9996136    236.20995  0.014516344  0.013732772          134 
 1357000   0.71307321   -7.9630951    236.90573  0.014548374  0.013719691           83 
 1358000   0.69942852   -7.9861885    236.22452  0.014495859  0.013706602           69 
 1359000   0.72320231   -8.0218126    235.57871  0.014445592   0.01369352           75 
 1360000   0.71855606   -7.9943436    236.21965  0.014474243  0.013680442           78 
 1361000   0.71321934   -8.0007891    236.62265  0.014488284  0.013667388           85 
 1362000    0.7038045   -8.0279263    236.46586  0.014468053  0.013654378           87 
 1363000   0.71005627    -8.000689    236.30457  0.014447577  0.013641335           81 
 1364000   0.70722306   -7.9736751    236.08863  0.014423792  0.013628293          114 
 1365000   0.70538579   -7.9832188    236.46903  0.014436449  0.013615266           81 
 1366000   0.70678157   -7.9853701    236.92673  0.014453803  0.013602325          105 
 1367000   0.70499207   -8.0054489     235.8459  0.014377341  0.013589364          151 
 1368000   0.70622424   -7.9804047    236.59657  0.014412559  0.013576461          156 
 1369000   0.70300398   -7.9967598    236.33731   0.01438625  0.013563549          167 
 1370000   0.70750613   -7.9915022    236.62585    0.0143933  0.013550641           97 
 1371000   0.71051209   -7.9993619    236.69532  0.014387024  0.013537787          101 
 1372000      0.71369   -7.9875249    236.14828  0.014343311  0.013524925           97 
 1373000   0.71409247   -7.9952158    236.37902   0.01434687   0.01351205           80 
 1374000   0.69417691   -7.9936882    237.32395  0.014393738  0.013499191           77 
 1375000   0.69924844   -7.9965353    236.41178  0.014327987  0.013486351           92 
 1376000   0.70057213   -7.9902351    236.56142  0.014326637  0.013473545           85 
 1377000   0.70287824    -8.008999     236.0797  0.014287079  0.013460736           82 
 1378000   0.72536451     -8.00012    236.51038  0.014302756  0.013447972           95 
 1379000   0.70176957    -7.989228    237.04815  0.014324882  0.013435229           60 
 1380000   0.71661329   -7.9972754     236.5989  0.014287373  0.013422495           69 
 1381000   0.69582445   -7.9896867    237.07475  0.014305742  0.013409763           65 
 1382000   0.70521543   -8.0060594    236.41464  0.014255586  0.013397007          100 
 1383000   0.70278036   -8.0079762     236.8249  0.014269999  0.013384298           63 
 1384000   0.69760979   -7.9980408    236.41017  0.014234717  0.013371609           76 
 1385000   0.70536743   -7.9994339    236.94275  0.014256483  0.013358945           52 
 1386000   0.70630461   -7.9956049    236.87834  0.014242324  0.013346268           72 
 1387000   0.70993236   -8.0211965     236.7062  0.014221714  0.013333632           55 
 1388000   0.69646743   -8.0154873    235.86697  0.014161081  0.013321032           68 
 1389000   0.67734804     -8.04288    236.38717  0.014182096  0.013308401          169 
 1390000   0.68456112   -8.0017026    237.07112  0.014212897  0.013295757          119 
 1391000   0.67162034   -8.0072214    236.75481  0.014183729  0.013283129          147 
 1392000   0.70049943   -8.0203579    236.33188  0.014148221  0.013270497          134 
 1393000   0.69125754   -7.9956935    236.96357  0.014175854  0.013257867          144 
 1394000   0.68505289   -8.0263782     235.9677  0.014106151  0.013245227          126 
 1395000   0.67726931   -8.0231312    236.48674  0.014127045  0.013232598           94 
 1396000   0.69045887   -8.0183607    236.50122   0.01411779  0.013219992          207 
 1397000   0.69489928   -8.0008182     236.3351  0.014097775  0.013207365           70 
 1398000   0.69093371    -8.026797     235.8693  0.014059925  0.013194769          135 
 1399000   0.69109344   -8.0270768    236.31198  0.014076244  0.013182148          116 
 1400000   0.70534128   -8.0242936    235.85124  0.014038765  0.013169541          187 
 1401000   0.69928358   -8.0269391    236.47036   0.01406557  0.013156951          115 
 1402000   0.70830647   -8.0345827     236.1699  0.014037678  0.013144399          176 
 1403000   0.70003486   -8.0294628    235.91582  0.014012581  0.013131813          215 
 1404000   0.70080009   -8.0244424    236.33898  0.014027717  0.013119271           70 
 1405000   0.71047579    -7.975921    236.70906  0.014039684  0.013106768          265 
 1406000   0.70814484   -8.0091443    236.46261   0.01401509  0.013094257          158 
 1407000   0.69460788   -8.0143737    236.31521    0.0139964  0.013081757           61 
 1408000   0.70736355   -8.0274323    236.17127   0.01397794   0.01306928           80 
 1409000    0.7164014   -8.0483704    236.12161  0.013965082   0.01305679           61 
 1410000   0.68973959   -8.0165875    236.40844   0.01397213  0.013044344          160 
 1411000   0.68304281    -8.052287    236.07859  0.013942747  0.013031924          105 
 1412000   0.69950061   -8.0219247    236.10691  0.013934544   0.01301949           80 
 1413000   0.69147665   -8.0144428    236.34675  0.013938827  0.013007094          117 
 1414000   0.69570704   -8.0355085    235.94064  0.013905035  0.012994693          136 
 1415000   0.69967894    -8.030455     235.9135   0.01389361  0.012982287          143 
 1416000   0.68383671   -8.0274009    236.04605  0.013891599  0.012969897           73 
 1417000   0.68417549   -8.0063358    236.33604   0.01389885  0.012957537          108 
 1418000   0.69473721   -8.0309962    236.01922  0.013870429  0.012945168           76 
 1419000    0.6801604   -8.0286782    236.44469  0.013885641  0.012932807          118 
 1420000   0.68941377   -8.0379134     236.6159  0.013885909  0.012920498           65 
 1421000    0.6872782   -8.0508893    235.62731  0.013818163  0.012908172           95 
 1422000   0.67923355   -8.0301661    235.74729  0.013815477  0.012895864           96 
 1423000   0.68393683    -8.017188    236.32891  0.013839828  0.012883563           68 
 1424000   0.69414607   -8.0500168    235.95243  0.013808078  0.012871261          128 
 1425000   0.68509545   -8.0580711    236.12131  0.013808264  0.012858959           87 
 1426000     0.677185   -8.0249639    236.29536  0.013808751  0.012846704          108 
 1427000   0.69362939   -8.0405987     236.1419  0.013790113  0.012834471          184 
 1428000   0.70215191   -8.0386434    235.50711  0.013743412  0.012822256          271 
 1429000   0.67708601   -8.0713925    235.71083  0.013745674  0.012810007          259 
 1430000   0.68668531   -8.0453957    236.01258  0.013753647  0.012797781          242 
 1431000   0.68643356   -8.0611844    236.25786   0.01375832  0.012785552          278 
 1432000   0.68757841    -8.062104    235.95194  0.013730909  0.012773323          315 
 1433000   0.66496882   -8.0608284    235.81249  0.013713218  0.012761109          405 
 1434000   0.68063562   -8.0535081     235.8857  0.013707909  0.012748916          234 
 1435000   0.68673911   -8.0330266    236.47001  0.013732289  0.012736735          160 
 1436000   0.68893513   -8.0567141    235.75428  0.013681191  0.012724566          326 
 1437000   0.67368035   -8.0778267    235.95287  0.013683187  0.012712404          188 
 1438000   0.68907881   -8.0436246    235.85834  0.013668193  0.012700261          107 
 1439000   0.68240435   -8.0512979       235.87   0.01365937  0.012688114          120 
 1440000   0.67597494   -8.0537082    235.78619  0.013645034  0.012675988          250 
 1441000   0.68683951   -8.0548447    235.81939  0.013637485   0.01266386          158 
 1442000   0.67189102   -8.0953877    235.59216  0.013614896  0.012651737          132 
 1443000    0.6746209   -8.0697517    236.27484  0.013644886  0.012639582          272 
 1444000   0.65937211   -8.0891531    235.93354   0.01361574  0.012627455          126 
 1445000   0.66550789   -8.0793056    236.15748  0.013619232  0.012615364           69 
 1446000    0.6728137   -8.0679784    235.93579  0.013597037  0.012603275          198 
 1447000    0.6600929   -8.0495224    235.81976  0.013580958  0.012591228          121 
 1448000   0.67899813   -8.0716837    235.65548  0.013562124  0.012579208          310 
 1449000   0.66922692   -8.0605301    236.47409  0.013599844  0.012567201          228 
 1450000   0.67195862   -8.0600977    235.86842  0.013555656  0.012555184          130 
 1451000   0.69272335   -8.0586056    236.06296  0.013557487  0.012543156          286 
 1452000    0.6790625    -8.080895    235.55504  0.013518999  0.012531134          226 
 1453000   0.66671034   -8.0705561    236.22187  0.013547939  0.012519141          116 
 1454000   0.67519849   -8.0801746    235.86665  0.013518263  0.012507136          150 
 1455000   0.67419208   -8.1113111    235.49556  0.013487718  0.012495145          195 
 1456000   0.67006083   -8.1109633    235.45178  0.013475949  0.012483158          207 
 1457000   0.66459244   -8.0533476    235.97712  0.013496746  0.012471184          290 
 1458000   0.66862817   -8.0779291    235.97853   0.01348757  0.012459222          158 
 1459000   0.66352883   -8.0863549    235.26903  0.013437802  0.012447269          205 
 1460000   0.67367344   -8.0960033    235.22875  0.013426299  0.012435307          208 
 1461000   0.67250567   -8.0900663     235.7645  0.013447667  0.012423341          120 
 1462000   0.67032936   -8.0875447    235.74615  0.013437423   0.01241142          408 
 1463000   0.66523831   -8.0894621    235.28668  0.013402066  0.012399506          223 
 1464000   0.67712906   -8.0682083    235.74786  0.013419163   0.01238763          220 
 1465000   0.66262995   -8.0815056     235.8147  0.013413806   0.01237575          204 
 1466000   0.66543665    -8.109391    235.18622   0.01336893  0.012363916          372 
 1467000   0.66498537   -8.1054181    235.55614   0.01338083  0.012352086          350 
 1468000   0.66925499   -8.0765237    235.67295  0.013378347  0.012340237          144 
 1469000   0.66199799   -8.1059512    235.54454  0.013361955  0.012328441          353 
 1470000   0.66767218   -8.1179693    235.67663  0.013360353  0.012316629          379 
 1471000   0.68177545   -8.1122431    235.52851   0.01334288  0.012304817          311 
 1472000   0.65181791    -8.101182     235.0905  0.013309018  0.012293005          136 
 1473000   0.66080279   -8.1066974    235.74143  0.013336809  0.012281246           79 
 1474000   0.67527325   -8.1112662    235.81702  0.013332034  0.012269469          328 
 1475000   0.65284708   -8.1375354    235.40647  0.013299801  0.012257727          197 
 1476000    0.6660378   -8.1014402    234.97191  0.013266255  0.012245961          234 
 1477000   0.65991275   -8.1128574    235.47093  0.013285428  0.012234238          276 
 1478000   0.67053409   -8.0845582    235.87645  0.013299304   0.01222251           90 
 1479000   0.65807887   -8.0990556     235.4299  0.013265151   0.01221081          224 
 1480000   0.65888581   -8.1193194    235.19665  0.013243055  0.012199127          290 
 1481000   0.65946211    -8.123159     234.9954  0.013222789   0.01218746          150 
 1482000   0.67809568   -8.0889338    235.42344  0.013237935  0.012175786          323 
 1483000   0.66710688   -8.0981277    235.86478  0.013253809  0.012164135          260 
 1484000   0.65716098   -8.1209414    235.27639  0.013211837  0.012152508          289 
 1485000   0.65682533   -8.0983455     235.7301    0.0132284  0.012140874          172 
 1486000    0.6668227   -8.1154275    235.57444   0.01321077  0.012129249          153 
 1487000   0.64475949   -8.1497427    235.01311  0.013170428  0.012117638          281 
 1488000   0.66552372   -8.1157714    234.85883  0.013152936  0.012106024          243 
 1489000    0.6649577   -8.1309549    235.27661  0.013167485  0.012094438          140 
 1490000   0.66117776    -8.124469    235.60612  0.013177076  0.012082845          364 
 1491000   0.64793367   -8.1221871    235.59675  0.013167715  0.012071276          140 
 1492000   0.66923748   -8.1351961    235.38225  0.013146908  0.012059725          202 
 1493000   0.66518639   -8.1401408     235.1934  0.013127562  0.012048175          417 
 1494000   0.66534162   -8.1360606    235.35263  0.013127657  0.012036632          327 
 1495000   0.65454158   -8.1314127    235.32663  0.013117426  0.012025108          212 
 1496000   0.64393218   -8.1404978     234.9531  0.013087851  0.012013592          269 
 1497000   0.64875943   -8.1229829    235.00995  0.013082273  0.012002101          252 
 1498000   0.64961881   -8.1215154    235.36172  0.013093109  0.011990613          216 
 1499000    0.6547515   -8.1314126    235.63652  0.013099651  0.011979145          205 
 1500000   0.65068195   -8.1567024    235.28869  0.013071594  0.011967667          124 
 1501000   0.64494439   -8.1306886    235.40139  0.013069142  0.011956225          175 
 1502000   0.64666762   -8.1168558    235.11998  0.013044828  0.011944772          309 
 1503000   0.65321983   -8.1351609    235.30247  0.013046267  0.011933345          279 
 1504000   0.66675228   -8.1467867    235.07623  0.013025057  0.011921925          346 
 1505000   0.65982258   -8.1628813    235.04382  0.013014608  0.011910535          206 
 1506000   0.65185536   -8.1291991    235.23289  0.013016428  0.011899125          339 
 1507000   0.65233515   -8.1541417    235.52591  0.013023994  0.011887754          111 
 1508000   0.63595058   -8.1368602    235.18027  0.012996257  0.011876409          294 
 1509000   0.66050247   -8.1320757    235.46972  0.013003629  0.011865081          135 
 1510000   0.65752413   -8.1342788    235.31397  0.012986422  0.011853782          333 
 1511000   0.63527592   -8.1646053     234.9312  0.012956717  0.011842458          403 
 1512000   0.64282078   -8.1450697    235.50874  0.012979979  0.011831136          305 
 1513000   0.65007865   -8.1330539    235.19712  0.012954237  0.011819833          356 
 1514000   0.64353438   -8.1481711    234.80754  0.012924237  0.011808571          181 
 1515000   0.66224645   -8.1529838    235.21941  0.012938361  0.011797318          294 
 1516000    0.6623646   -8.1518584    234.91979  0.012913357   0.01178606          325 
 1517000   0.65266957   -8.1132804    235.36718  0.012929421   0.01177481          194 
 1518000   0.63790572   -8.1551162    235.00071  0.012900786  0.011763572          342 
 1519000   0.63873504   -8.1389173    234.68192  0.012874804  0.011752359          263 
 1520000   0.65031274   -8.1317841     234.9223  0.012879512  0.011741167          306 
 1521000   0.64946817   -8.1292048    235.49066  0.012902184  0.011729967           99 
 1522000   0.65307918   -8.1636881    235.00992  0.012867385  0.011718786          133 
 1523000   0.63489785   -8.1482532    234.56397  0.012834535  0.011707601          335 
 1524000    0.6565963    -8.127433    234.96512  0.012848049  0.011696425          287 
 1525000   0.63552943   -8.1591658    235.20068  0.012852496  0.011685254          362 
 1526000   0.65038457    -8.144396    234.87836  0.012826473  0.011674104          240 
 1527000   0.63411724    -8.164944    234.92283  0.012820499  0.011662955          126 
 1528000   0.63607371   -8.1702143    234.45866  0.012786795  0.011651817          259 
 1529000   0.64478485    -8.172975    235.10014  0.012813393  0.011640675          101 
 1530000   0.64930757   -8.1694301    234.64569  0.012780266  0.011629561           81 
 1531000   0.63732734   -8.1664331     235.1359  0.012798601  0.011618448          228 
 1532000   0.64357844   -8.1623784    234.73693  0.012768545  0.011607375          116 
 1533000   0.63683847   -8.1519999    234.94798  0.012771688  0.011596311          181 
 1534000   0.63164218   -8.1585855    235.09496  0.012771347  0.011585249          118 
 1535000   0.62995581   -8.1590678    234.62118  0.012737306  0.011574215          215 
 1536000    0.6486262   -8.1617166    234.57629  0.012726578  0.011563172          124 
 1537000   0.64852581   -8.1568041    234.52641  0.012715594  0.011552152          157 
 1538000   0.63268181   -8.1551326    234.78416  0.012721292  0.011541166          189 
 1539000   0.62924465   -8.1592785    235.39176  0.012745926  0.011530163          344 
 1540000   0.63375817   -8.1664103    234.82435  0.012706946  0.011519163          159 
 1541000   0.62964803   -8.1563813    234.96211  0.012706149  0.011508173          322 
 1542000   0.64355095    -8.185524    234.68318  0.012682835  0.011497198          138 
 1543000   0.63552848   -8.2026004    235.23284  0.012704301  0.011486242          317 
 1544000   0.63837959   -8.1425626    235.20152  0.012694383  0.011475307          166 
 1545000   0.63041562   -8.1875293    234.72246  0.012660327  0.011464396          199 
 1546000   0.63394556    -8.163359    234.63267  0.012647298  0.011453488          205 
 1547000   0.64956164   -8.1798339    234.81818  0.012649116  0.011442593          127 
 1548000    0.6409763   -8.1580243    234.74229  0.012636859  0.011431698          172 
 1549000   0.63518641   -8.1851173    235.25654  0.012656366  0.011420817          159 
 1550000   0.64189039   -8.1844126    234.72806  0.012619788  0.011409927          280 
 1551000   0.62726636   -8.1648662    235.14259  0.012633924  0.011399064          274 
 1552000   0.63354585   -8.1672375    234.37192  0.012584403  0.011388208          160 
 1553000    0.6361476   -8.1859852    234.75218  0.012596704  0.011377366          168 
 1554000   0.63663173   -8.1549788    234.45785  0.012572815  0.011366564          323 
 1555000   0.63162957   -8.1699229    234.95695  0.012591477  0.011355756          376 
 1556000   0.65201571   -8.1867539    234.94553  0.012582773   0.01134497          155 
 1557000    0.6098683   -8.1826654    234.96396  0.012575678  0.011334189          151 
 1558000   0.63731522   -8.1897807    234.43371  0.012539244  0.011323438          181 
 1559000   0.62225355   -8.1930532    234.72695  0.012546875  0.011312684          114 
 1560000   0.62875423   -8.1751646    234.77594   0.01254145  0.011301943          168 
 1561000    0.6368679   -8.2008926    234.82754   0.01253617  0.011291202          111 
 1562000   0.62970437   -8.1737442    234.80739  0.012527069  0.011280454          205 
 1563000   0.62821748   -8.1909253    234.53291   0.01250442  0.011269726          128 
 1564000   0.62728868   -8.2079353    234.91808  0.012516948  0.011259029          127 
 1565000   0.63475248   -8.1795679    235.20912  0.012524447   0.01124834          134 
 1566000   0.63303199   -8.1908866    234.92611  0.012501389   0.01123765          379 
 1567000   0.63345122   -8.1819003    234.37195  0.012463941  0.011226977          346 
 1568000   0.64231484   -8.2073712    234.46634  0.012461009  0.011216319          212 
 1569000   0.61445339   -8.1963887    234.68209  0.012464526  0.011205667          118 
 1570000   0.62398817   -8.1908291    234.58354  0.012451356  0.011195041          151 
 1571000   0.62072479   -8.1813031    234.76464  0.012453036  0.011184413          144 
 1572000   0.63767723   -8.1791009    234.88336  0.012451408   0.01117379          105 
 1573000   0.62623185   -8.1954877    234.23283  0.012409029  0.011163189          194 
 1574000   0.62446478   -8.1921968    234.77538   0.01242987  0.011152598          133 
 1575000   0.62499065   -8.1826154    234.62267  0.012413898  0.011142021          213 
 1576000    0.6185227   -8.1799278     234.9986  0.012425899  0.011131444          125 
 1577000   0.62493375   -8.1972238     234.3541  0.012383962  0.011120914          309 
 1578000   0.61751398   -8.1737185    234.49241  0.012383418  0.011110374          335 
 1579000   0.62986773    -8.203711    235.05602  0.012405321  0.011099855          137 
 1580000   0.61372038    -8.183781    234.79893   0.01238391  0.011089346          126 
 1581000   0.62156241   -8.1989264    234.48036  0.012359285   0.01107884          209 
 1582000   0.61867422   -8.1981446    234.59628  0.012357579  0.011068351          126 
 1583000    0.6096585   -8.2153511    234.70001  0.012355233  0.011057842          386 
 1584000   0.61805001   -8.1954086    234.31774  0.012327322  0.011047351          296 
 1585000   0.61107249    -8.195212      234.675  0.012338328   0.01103688          114 
 1586000   0.62445845   -8.2146965    234.21404  0.012306328  0.011026418          195 
 1587000   0.61476235   -8.2063997    234.52078   0.01231468  0.011015983          175 
 1588000   0.61714377   -8.2267583    234.64538  0.012313465  0.011005562          137 
 1589000   0.62463029   -8.2136774    234.43796  0.012294837  0.010995148          413 
 1590000   0.60989747   -8.1978957    234.56249  0.012293631  0.010984729          167 
 1591000   0.60217697   -8.2245887    234.48062  0.012281616  0.010974325          119 
 1592000   0.61693425   -8.2359501    234.20353  0.012259397   0.01096392          199 
 1593000   0.61870967   -8.1923347    234.48032  0.012266181  0.010953541          344 
 1594000   0.60842994   -8.2131406    234.06206   0.01223662  0.010943162          205 
 1595000   0.59937215   -8.2042196    234.69278  0.012261901  0.010932795          125 
 1596000   0.63131657   -8.2189674    234.35865  0.012236772   0.01092243          252 
 1597000    0.6173329   -8.2203211    234.50128  0.012236552  0.010912093          197 
 1598000   0.60424067   -8.2235859    234.43069  0.012225213  0.010901778          179 
 1599000   0.61272004   -8.2228975    234.80024  0.012236827  0.010891452          209 
 1600000   0.62095718   -8.2369386    234.70009  0.012223963  0.010881139          374 
 1601000   0.61602596    -8.196437    234.51366  0.012206624  0.010870838          188 
 1602000   0.62240815   -8.2256254    234.55957  0.012201392  0.010860543          376 
 1603000   0.60627459   -8.2070628     234.0005  0.012164717  0.010850262          217 
 1604000   0.61398983    -8.237096    234.06408  0.012160436  0.010840011          281 
 1605000   0.61602275   -8.2260948     234.4176  0.012171215  0.010829748          148 
 1606000    0.6137375   -8.2193576    234.35385  0.012160328  0.010819519          205 
 1607000   0.61804157   -8.2266648    234.43085  0.012156754  0.010809285          288 
 1608000   0.60891631   -8.2241522    234.07995  0.012131009  0.010799063          260 
 1609000   0.60695776   -8.2246346    234.32001  0.012135903  0.010788854          135 
 1610000   0.60930964   -8.2100006    234.80308  0.012153368   0.01077867          226 
 1611000   0.60931927    -8.222777    234.43543  0.012126807   0.01076848          128 
 1612000   0.60251667   -8.2265646    234.27223  0.012110847  0.010758312          195 
 1613000   0.61061226   -8.2187452    234.17311  0.012098218  0.010748148          217 
 1614000   0.60833614   -8.2059966    234.46048   0.01210556  0.010737987          364 
 1615000   0.60138459   -8.2342822    234.35901  0.012092828  0.010727846          246 
 1616000   0.60802268   -8.2314462    233.71008  0.012051881  0.010717711          191 
 1617000   0.60026547   -8.2372384     234.1771  0.012068496  0.010707603          264 
 1618000    0.6048249   -8.2284793    233.91276  0.012047423  0.010697501          279 
 1619000   0.59908995   -8.2293604    234.12363  0.012050835  0.010687399          367 
 1620000   0.59973991   -8.2288252    234.29193  0.012052054  0.010677312          283 
 1621000   0.59734485   -8.2433888    234.53438  0.012057083  0.010667221          279 
 1622000   0.60063171   -8.2241371     234.0579   0.01202517  0.010657153          199 
 1623000   0.59803919   -8.2231271    233.81597  0.012005339  0.010647083          279 
 1624000   0.61258327    -8.255702    234.08769  0.012011889  0.010637026          251 
 1625000    0.6172719   -8.2291588    234.09308  0.012004773   0.01062699          383 
 1626000   0.59666165    -8.225672    233.98947   0.01199208  0.010616965          189 
 1627000   0.61035888   -8.2456878    233.92816  0.011981569  0.010606944          340 
 1628000   0.61012193   -8.2449637    234.11844   0.01198395  0.010596948          320 
 1629000   0.59662425   -8.2177363    234.74135  0.012008459  0.010586954          390 
 1630000   0.59910489   -8.2257902     233.9814  0.011962239  0.010576971          330 
 1631000   0.61843539   -8.2414796    233.95343  0.011953476  0.010567013          375 
 1632000   0.61131227   -8.2451201    233.86451  0.011941611   0.01055706          305 
 1633000   0.60348908    -8.253356    234.08303  0.011945449  0.010547108          181 
 1634000   0.59993047   -8.2626964    233.77959  0.011922664  0.010537176           91 
 1635000   0.59535805   -8.2388458    233.89715  0.011921363   0.01052726          125 
 1636000    0.6035416   -8.2449984    233.77856  0.011908036  0.010517346          182 
 1637000    0.6095968   -8.2117371     234.2068  0.011922562  0.010507446          337 
 1638000   0.61302358   -8.2324744    234.12674   0.01191121  0.010497577          170 
 1639000   0.59510124   -8.2542662    233.93155  0.011894018  0.010487704          172 
 1640000   0.58596305   -8.2472279    233.85064  0.011882654  0.010477834          141 
 1641000   0.59047603   -8.2442949    234.05692  0.011885889   0.01046797          429 
 1642000   0.59116747   -8.2351447    234.46812  0.011899519  0.010458136          185 
 1643000   0.60357283   -8.2626749    233.88752  0.011862828  0.010448294          227 
 1644000    0.6117433   -8.2201633    234.10714  0.011866745  0.010438473          510 
 1645000   0.60246987   -8.2618535    233.81208  0.011844584  0.010428658          348 
 1646000   0.60974089   -8.2455079    233.83237  0.011838415  0.010418849          594 
 1647000   0.60292339   -8.2280306    234.00851  0.011840139  0.010409064          188 
 1648000   0.60731937   -8.2642843    233.63316  0.011813974  0.010399279          275 
 1649000   0.60414647   -8.2361654    233.93425  0.011822026  0.010389502          459 
 1650000   0.60326388   -8.2587177    233.94813  0.011815562   0.01037975          365 
 1651000   0.59204503   -8.2587518    233.69627  0.011795693  0.010370004          511 
 1652000   0.60220137   -8.2530182    233.87528  0.011797583  0.010360277          498 
 1653000   0.59080299   -8.2561332    233.58399  0.011775761   0.01035057          403 
 1654000   0.59520675   -8.2258186    234.05607  0.011792426  0.010340855          172 
 1655000   0.58696155   -8.2549711    233.43105  0.011753829  0.010331153          231 
 1656000   0.59050825   -8.2451489    233.64138  0.011757316  0.010321453          224 
 1657000   0.58399286   -8.2559524    234.23133   0.01177989  0.010311762          384 
 1658000   0.60062593   -8.2830022    233.51417   0.01173674  0.010302092          457 
 1659000   0.59573757   -8.2600698    233.88517  0.011748301  0.010292449          446 
 1660000   0.57665293   -8.2706299    234.24014  0.011759043   0.01028282          472 
 1661000   0.59298014    -8.258202    233.77027   0.01172839  0.010273189          368 
 1662000     0.597571   -8.2590875    233.85954  0.011725809  0.010263572          474 
 1663000   0.59663515   -8.2559853    233.71882  0.011711707  0.010253965          281 
 1664000   0.59037169   -8.2609154    233.95544  0.011716519  0.010244354          247 
 1665000   0.59041922   -8.2665736    233.49205  0.011686289  0.010234769          538 
 1666000   0.59236823   -8.2723919    233.60154  0.011684751  0.010225201          252 
 1667000   0.59633143     -8.26651     233.5982  0.011677574  0.010215629          430 
 1668000   0.59497791   -8.2621795    233.29096  0.011655224  0.010206077          556 
 1669000   0.57754832   -8.2628918    233.33737  0.011650558  0.010196525          603 
 1670000   0.60439995   -8.2749034    234.18425  0.011685841   0.01018699          423 
 1671000   0.58767186   -8.2812285    233.67252  0.011653327  0.010177469          259 
 1672000   0.57085507   -8.2707477     233.8864  0.011657017  0.010167954          378 
 1673000   0.59114581   -8.2850251    233.47436  0.011629526  0.010158459          353 
 1674000   0.58647253   -8.2599702    233.96739  0.011647122  0.010148962          448 
 1675000   0.58730231   -8.2727657      234.063  0.011644925  0.010139483          507 
 1676000    0.5689809   -8.2691232    233.67611   0.01161874  0.010130004          572 
 1677000   0.58810499    -8.251937    233.83698  0.011619806  0.010120549          457 
 1678000   0.57831138   -8.2830058    233.96178  0.011619079  0.010111102          268 
 1679000    0.5905404   -8.2934618    233.57141  0.011592784  0.010101651          325 
 1680000   0.57239811     -8.26227    233.83521  0.011598969  0.010092223          586 
 1681000   0.57170218   -8.2885621     233.6255  0.011581673  0.010082807          278 
 1682000   0.56820525   -8.2919117    233.43697  0.011565446  0.010073394          324 
 1683000   0.57901524    -8.301121    233.57026  0.011565174  0.010063993          565 
 1684000   0.58256225   -8.2801794    233.72165  0.011565798  0.010054613          359 
 1685000   0.58193579   -8.2805527    233.86922  0.011566232   0.01004523          308 
 1686000   0.58173706   -8.2775378    233.53135  0.011542672  0.010035858          373 
 1687000   0.59770654   -8.2699476    233.57948  0.011538208  0.010026527          473 
 1688000    0.5739489   -8.2881625    233.66221  0.011535456  0.010017191          439 
 1689000   0.57582177   -8.2809695    233.71642  0.011531302  0.010007865          213 
 1690000   0.58885063   -8.2820774    233.44376  0.011511033 0.0099985449          595 
 1691000   0.58450156   -8.2871176    233.36905  0.011500544 0.0099892465          387 
 1692000   0.57820441   -8.2709441    233.42426  0.011496467 0.0099799523          185 
 1693000   0.58264708   -8.2750663     233.5371   0.01149523 0.0099706687          120 
 1694000    0.5757469   -8.2895711    233.82383   0.01150255  0.009961394          374 
 1695000   0.57115625   -8.2610303    233.73465  0.011491379 0.0099521406          431 
 1696000   0.59261005   -8.2804834     233.4459  0.011470416  0.009942888          188 
 1697000   0.58982533   -8.2920985    233.46858   0.01146477 0.0099336405          190 
 1698000   0.57819404   -8.2812622    233.80218  0.011474391 0.0099244223          205 
 1699000   0.58109628   -8.2821948    233.41469  0.011448631 0.0099152039          349 
 1700000   0.57772444   -8.3085807    233.75692  0.011458672 0.0099059942          149 
 1701000   0.58319086   -8.2870601    233.61264  0.011444868 0.0098967945          186 
 1702000   0.57843826   -8.2770082    233.81787  0.011448192 0.0098876141          560 
 1703000   0.57821063   -8.3058964    233.44478  0.011423213 0.0098784392          172 
 1704000   0.58007462   -8.3109654    233.49903  0.011419162 0.0098692685          446 
 1705000   0.56874401   -8.2875137    233.42443  0.011408819 0.0098601163          248 
 1706000   0.58286984   -8.2895434    233.43389  0.011402593 0.0098509688          497 
 1707000   0.55842267    -8.292636    233.04474  0.011376916 0.0098418264          248 
 1708000   0.58208316   -8.2967594    233.84605  0.011409351 0.0098326963          476 
 1709000   0.57350865   -8.3032234     233.5572   0.01138859 0.0098235815          234 
 1710000   0.57658614   -8.2959902    233.40741   0.01137463 0.0098144795          269 
 1711000   0.58636039   -8.2968265    233.97561  0.011395656 0.0098053782          240 
 1712000     0.565798   -8.2945267    233.10479  0.011346612 0.0097962926          512 
 1713000   0.55722658   -8.3043832    233.42635  0.011355631 0.0097872078          331 
 1714000   0.55938468    -8.309661    233.53888  0.011354477 0.0097781322          301 
 1715000   0.55982685   -8.3083821    233.34936  0.011338647 0.0097690635          292 
 1716000   0.57921423   -8.3004303    233.04434  0.011317227 0.0097600031          204 
 1717000   0.57568206   -8.2971569    233.25428  0.011320825 0.0097509547          236 
 1718000   0.58213616   -8.3106769    233.23667  0.011313381  0.009741917          232 
 1719000   0.57612308   -8.2962986    233.37084  0.011313304 0.0097329025          366 
 1720000   0.55730392   -8.2979876    233.31709  0.011304122 0.0097239128          215 
 1721000   0.56772023   -8.2864058    233.65875  0.011314098 0.0097149217          125 
 1722000   0.56749929   -8.2950433    233.35573  0.011292863  0.009705954          369 
 1723000   0.55688794   -8.2851939    233.94995  0.011315049 0.0096969897          179 
 1724000   0.56818597   -8.3050145    233.34363  0.011279178 0.0096880275          155 
 1725000   0.55615613   -8.2833306    233.55265  0.011282737 0.0096790784          312 
 1726000   0.58715407   -8.3182593    233.20138   0.01125924 0.0096701343          393 
 1727000   0.57459534    -8.313243    233.09901  0.011247781 0.0096612032          202 
 1728000   0.56353973   -8.3149525    233.06137  0.011239456 0.0096522759          134 
 1729000   0.55207254   -8.3052296    233.38622  0.011248613 0.0096433688          171 
 1730000   0.55325057    -8.296878    233.47646  0.011246457 0.0096344667          200 
 1731000    0.5723198   -8.3128487    233.28428  0.011230709 0.0096255616          381 
 1732000   0.56231054   -8.3032862    232.93109  0.011207231 0.0096166784          147 
 1733000   0.56862138   -8.3098837     233.2983  0.011218422 0.0096077961          285 
 1734000   0.55791091   -8.3056934    233.21421  0.011207911 0.0095989257          420 
 1735000   0.56865821   -8.3190022    233.25422  0.011203373 0.0095900739          239 
 1736000   0.54764953   -8.3244954    233.18565  0.011193628 0.0095812274          307 
 1737000   0.55567485   -8.3254591    233.12789  0.011184412 0.0095723867          439 
 1738000   0.56464346   -8.2969561    233.39674  0.011190868 0.0095635597          192 
 1739000   0.56153985   -8.3196368    233.01033  0.011165916 0.0095547455          425 
 1740000   0.56985699   -8.3055587    233.47664  0.011181831 0.0095459361          260 
 1741000   0.56544432   -8.3129696    233.15591  0.011160057 0.0095371436          246 
 1742000   0.56980429   -8.3273857    232.96265  0.011144405 0.0095283585          326 
 1743000     0.560898   -8.3069333    233.32591  0.011155379 0.0095195807          276 
 1744000   0.55868951   -8.3087074    233.29703  0.011147603  0.009510815          117 
 1745000   0.55126104   -8.3260452    233.44512  0.011148286 0.0095020614          445 
 1746000    0.5581718   -8.3119416     233.2961  0.011134789 0.0094933233          356 
 1747000   0.56786615   -8.3418888    232.80817  0.011105141 0.0094845825          215 
 1748000    0.5619426   -8.3450824    232.63181   0.01109038 0.0094758473          326 
 1749000   0.54827811   -8.3271041    232.92553  0.011098033 0.0094671175          229 
 1750000   0.55280118   -8.3347216    233.31759  0.011110362 0.0094584109          201 
 1751000   0.54833805   -8.3292275    232.96631  0.011087298 0.0094497053          167 
 1752000   0.55248755   -8.3294679    232.86872  0.011076328 0.0094410092          274 
 1753000    0.5510651   -8.3327829    232.94342   0.01107356 0.0094323254          454 
 1754000   0.54082213   -8.3303799    233.13192  0.011076203 0.0094236449          241 
 1755000   0.56043508   -8.3210795    232.77923  0.011053145 0.0094149823          316 
 1756000   0.54654085   -8.3331234    232.75216  0.011045566 0.0094063217          201 
 1757000   0.55351043    -8.314639    233.06091  0.011053923 0.0093976718          323 
 1758000   0.53397673   -8.3297716    233.25195  0.011056691   0.00938904          328 
 1759000   0.54593892   -8.3371273    233.01085  0.011038983 0.0093804085          489 
 1760000   0.54058178   -8.3436974    232.99761  0.011032084  0.009371786          340 
 1761000   0.55576193   -8.3265754    233.28538  0.011039437 0.0093631768          479 
 1762000   0.56287919   -8.3435891    233.13988   0.01102629 0.0093545938          308 
 1763000    0.5590282   -8.3217692    233.14157  0.011020116 0.0093460148          331 
 1764000    0.5477581   -8.3314189    232.58036  0.010987356 0.0093374496          265 
 1765000   0.54758641   -8.3475027    232.85858  0.010994267 0.0093288877          122 
 1766000   0.56053885   -8.3306423     232.9902  0.010994252 0.0093203307          235 
 1767000   0.55051369   -8.3546011    233.09935  0.010993178 0.0093117911          168 
 1768000   0.55475482   -8.3192696    233.09761  0.010986878 0.0093032663          274 
 1769000   0.55139062    -8.327681    233.17792   0.01098445  0.009294751          324 
 1770000   0.54965235   -8.3352919    232.85146  0.010962875 0.0092862398          211 
 1771000   0.53532113   -8.3432455    232.37104  0.010934079 0.0092777207          376 
 1772000   0.54763911   -8.3499601    232.34708  0.010926781 0.0092692219          364 
 1773000   0.53639786   -8.3378015    232.90094  0.010946651 0.0092607423          124 
 1774000   0.54397323   -8.3253807     233.0449  0.010947243 0.0092522638          245 
 1775000   0.54655121   -8.3367646    232.68484  0.010924171 0.0092437944          181 
 1776000   0.54982315   -8.3402168     232.6776   0.01091768 0.0092353399          289 
 1777000   0.53574909   -8.3416342    232.71729  0.010913397 0.0092269072          429 
 1778000    0.5346877    -8.340783     232.8271  0.010912406 0.0092184736          361 
 1779000   0.55131931   -8.3309434    232.89636  0.010909517 0.0092100572          472 
 1780000   0.54035949    -8.322514    232.93264  0.010905086 0.0092016383          428 
 1781000   0.55270758   -8.3483108    232.78167  0.010891899 0.0091932372          280 
 1782000   0.54412562   -8.3271664    232.57839  0.010876281 0.0091848318          392 
 1783000   0.55106406   -8.3389092     232.9402  0.010887091 0.0091764436          290 
 1784000   0.54709956    -8.343938    232.48964  0.010859942 0.0091680625          493 
 1785000   0.55589489   -8.3405975    233.10548  0.010882609 0.0091596864          232 
 1786000   0.53770398    -8.346906    232.65505  0.010855499 0.0091513285          260 
 1787000    0.5501116   -8.3362459    232.89827  0.010860766 0.0091429881          301 
 1788000   0.52863051   -8.3592092    232.95034  0.010857119 0.0091346628          115 
 1789000   0.53211057   -8.3571889     232.9393  0.010850536 0.0091263328          313 
 1790000   0.53421729   -8.3340811    232.90224  0.010842749 0.0091180063          258 
 1791000   0.54535786    -8.344435    232.73023  0.010828691  0.009109704          352 
 1792000   0.54025523    -8.361526    232.71659  0.010822014 0.0091014048          383 
 1793000    0.5441276   -8.3533531    232.47102  0.010804565 0.0090931204          260 
 1794000   0.53235111   -8.3408966    232.81763  0.010814643 0.0090848395          427 
 1795000   0.54255357   -8.3466442    232.95517  0.010815003 0.0090765767          422 
 1796000    0.5328169   -8.3482042    232.83803  0.010803546 0.0090683071          402 
 1797000   0.53487216   -8.3541714    232.71405  0.010791785 0.0090600503          431 
 1798000   0.53449805   -8.3480074    232.49745  0.010775744 0.0090518017          187 
 1799000   0.53733009   -8.3418988    232.23226   0.01075747 0.0090435608          391 
 1800000   0.53110808   -8.3640975    232.57706  0.010767456 0.0090353291          209 
 1801000   0.53519482   -8.3545266      232.803  0.010771932 0.0090271141          465 
 1802000   0.54735015   -8.3301892    232.69809  0.010761103 0.0090189171          327 
 1803000   0.53447481   -8.3482177    232.34421  0.010738778 0.0090107232          175 
 1804000   0.54460196   -8.3561522    232.88704  0.010757901 0.0090025419          440 
 1805000   0.53874574   -8.3707657    232.43488  0.010731066 0.0089943611          378 
 1806000   0.52382614   -8.3593177     232.8202  0.010742903   0.00898619          384 
 1807000   0.53506243    -8.357221    232.70944   0.01073185 0.0089780305          396 
 1808000   0.54918278   -8.3638519    232.36514  0.010710045 0.0089698757          351 
 1809000   0.53565558   -8.3543283    232.71126  0.010720069 0.0089617373          180 
 1810000    0.5380779   -8.3811194    232.11278  0.010686592 0.0089535925          161 
 1811000   0.52544592   -8.3519891    232.84488  0.010714379 0.0089454794          175 
 1812000   0.53541438    -8.367067    232.91382  0.010711637 0.0089373697          297 
 1813000    0.5288809   -8.3515538    232.20665  0.010673224 0.0089292623          164 
 1814000   0.52387607   -8.3596379    232.44258  0.010678178 0.0089211713          369 
 1815000   0.53235629    -8.361724    232.40625  0.010670627 0.0089130808          506 
 1816000   0.52931733   -8.3614052    232.43056  0.010665867 0.0089050089          286 
 1817000   0.53145996   -8.3790139    232.76784  0.010675465 0.0088969313          243 
 1818000   0.53070661   -8.3835594    232.55227  0.010659712 0.0088888811          209 
 1819000   0.52916732   -8.3784657    232.18688  0.010637112 0.0088808331          422 
 1820000    0.5136992     -8.36631      232.518  0.010646428 0.0088727864          561 
 1821000   0.52091943   -8.3716248    232.56439  0.010642705 0.0088647455          319 
 1822000   0.52024114   -8.3740423    232.33088  0.010626183 0.0088567042          363 
 1823000   0.53278882   -8.3714789    232.43517  0.010625122  0.008848677          399 
 1824000   0.51511016   -8.3660382        232.2  0.010608553 0.0088406578          243 
 1825000   0.52084389   -8.3736158     232.3952  0.010611653 0.0088326626          532 
 1826000   0.52141773   -8.3752145    232.09384  0.010592088  0.008824674          437 
 1827000   0.52124132   -8.3767761    232.32879  0.010597007 0.0088166905          305 
 1828000   0.53334626   -8.3784094    232.53948  0.010600815 0.0088087126          159 
 1829000   0.52650316   -8.3590948    232.54455   0.01059525 0.0088007484          499 
 1830000   0.53244066   -8.4065037    231.80545  0.010555804 0.0087927904          222 
 1831000    0.5264753   -8.3751005    232.37178  0.010575814 0.0087848394          149 
 1832000   0.52224358    -8.370035    232.47463  0.010574719  0.008776907          195 
 1833000   0.52618279   -8.3886972    232.16648  0.010554941 0.0087689797          278 
 1834000   0.52171591   -8.3848791    232.47853  0.010563365 0.0087610654          475 
 1835000   0.51305784   -8.3842588    232.39838  0.010553968 0.0087531581          295 
 1836000   0.52879047    -8.406641    232.06792  0.010533221 0.0087452598          336 
 1837000   0.51690882   -8.3724152    232.55921  0.010549774 0.0087373708          409 
 1838000   0.51681648   -8.3627537     232.9708  0.010562695 0.0087294921          238 
 1839000   0.51810729   -8.3666843    232.29165  0.010526176 0.0087216305          192 
 1840000   0.51578266   -8.3905867    232.47282   0.01052866  0.008713777          372 
 1841000   0.51209844   -8.3778811    232.46788  0.010522718 0.0087059261          315 
 1842000   0.51957112   -8.3864455    232.06547    0.0104988 0.0086980839          346 
 1843000   0.50758461   -8.3914339    232.79116  0.010525916 0.0086902586          341 
 1844000   0.50854005   -8.3907627    232.33532  0.010499608 0.0086824349          173 
 1845000   0.52078821   -8.3848058    232.46811  0.010499915 0.0086746306          388 
 1846000   0.51987498   -8.4018451    232.41966  0.010492039 0.0086668276          396 
 1847000   0.50997178   -8.4077968    232.32451  0.010482066 0.0086590321          456 
 1848000    0.5128338   -8.3901499    232.45666  0.010482353 0.0086512457          425 
 1849000   0.51712693   -8.3828331    232.52078  0.010479574 0.0086434699          561 
 1850000   0.51912423   -8.4010981    232.46292  0.010471303 0.0086357116          503 
 1851000   0.52685322   -8.3967137    231.46357  0.010420654 0.0086279506          440 
 1852000   0.51497603   -8.3868731    232.25697  0.010450727 0.0086202003          289 
 1853000   0.51799615   -8.3976234    232.23411   0.01044406 0.0086124677          222 
 1854000   0.51401434   -8.3823436    232.10385  0.010432572 0.0086047388          278 
 1855000   0.51704069    -8.383043    232.00198  0.010422371 0.0085970108          363 
 1856000   0.52372364   -8.3919602    232.23512  0.010427224  0.008589307          311 
 1857000   0.50930523   -8.3908907    232.54127  0.010435347 0.0085816111          169 
 1858000   0.51312353   -8.3964249    232.43276  0.010424864 0.0085739167          278 
 1859000   0.50624034   -8.3913846    232.31179  0.010413833 0.0085662285          299 
 1860000   0.51203839   -8.3919362    232.41008  0.010412638 0.0085585556          463 
 1861000    0.5048277   -8.4167629    232.08485  0.010392479 0.0085508848          405 
 1862000   0.50933826   -8.4066203    232.15328  0.010389961 0.0085432253          490 
 1863000   0.50271539   -8.4020171    232.39349  0.010395128 0.0085355772          321 
 1864000   0.50501358   -8.3806815    232.05738  0.010374525 0.0085279351          415 
 1865000   0.51502488   -8.3972359    232.41716  0.010385038 0.0085202985          235 
 1866000   0.51167767   -8.3735006    232.39223   0.01037836 0.0085126706          281 
 1867000   0.51216388   -8.3678708    232.13717  0.010361416 0.0085050518          133 
 1868000   0.51216966   -8.4010173    232.10341  0.010354364 0.0084974485          339 
 1869000   0.51627017   -8.4138875    232.54883  0.010368684  0.008489853          175 
 1870000   0.50928791   -8.4202581     232.1339  0.010344648 0.0084822618          213 
 1871000   0.50871752   -8.3881805     232.0223  0.010334148 0.0084746809          200 
 1872000   0.49926066   -8.3993134    232.27335  0.010339804 0.0084671078          178 
 1873000   0.50508681   -8.4080132    232.00882  0.010322514 0.0084595464          402 
 1874000   0.50097479   -8.4021703    232.58699  0.010342716 0.0084519899          245 
 1875000   0.49514105   -8.4101307    231.75087  0.010300039 0.0084444345          288 
 1876000   0.50071006   -8.4039963    232.06897  0.010308678 0.0084368896          260 
 1877000   0.49650441   -8.4110397    232.23664   0.01031063 0.0084293433          268 
 1878000   0.50236829   -8.4164391    231.80508   0.01028599 0.0084218174          212 
 1879000   0.50303938    -8.401316    232.30487  0.010302682 0.0084143043          351 
 1880000   0.50843385   -8.4071669    232.33107  0.010298363 0.0084067979          258 
 1881000   0.51139245   -8.3936424    232.37545  0.010294854 0.0083992929          517 
 1882000   0.50276646   -8.3966252    232.05903  0.010275373 0.0083918056          445 
 1883000   0.50555464   -8.4075547    232.28167  0.010279769 0.0083843284          157 
 1884000   0.48804494   -8.4223984    232.09255  0.010265948 0.0083768631          565 
 1885000   0.49869632   -8.4326649    232.04576  0.010258433 0.0083693966          368 
 1886000   0.51215578   -8.4188183    232.05815  0.010253542 0.0083619405          281 
 1887000   0.50372053   -8.4094524    232.37857  0.010262258 0.0083544998          266 
 1888000   0.50456737   -8.4210825    232.12411  0.010245591 0.0083470638          474 
 1889000   0.48645898   -8.4399424    231.94548  0.010232287 0.0083396362          385 
 1890000   0.50562951     -8.41738    231.56263  0.010209993 0.0083322092          517 
 1891000   0.49412526   -8.4110635    232.11719  0.010229032 0.0083247945          241 
 1892000   0.49184888   -8.4203534    232.20088  0.010227311 0.0083173887          495 
 1893000   0.50970807   -8.4073046    232.11744  0.010218235 0.0083099896          444 
 1894000   0.49840679   -8.3958835     232.1361  0.010213662  0.008302598          334 
 1895000   0.49169026   -8.4188574    232.12526  0.010207795 0.0082952177          226 
 1896000   0.49225107   -8.4240473    232.02171   0.01019786  0.008287847          475 
 1897000   0.49509329   -8.4228805    232.01376  0.010192135 0.0082804856          279 
 1898000   0.50625699   -8.4262411    231.75943  0.010175598 0.0082731257          527 
 1899000   0.49881228    -8.411914    231.73221  0.010169046 0.0082657665          259 
 1900000   0.49392522   -8.4299135    231.70664  0.010162572 0.0082584239          318 
 1901000   0.50302089   -8.4300388    231.89061  0.010165291 0.0082510871          208 
 1902000   0.50162928   -8.4246786    231.51698  0.010143576 0.0082437573          549 
 1903000   0.48485101   -8.4317646    231.52515  0.010138604 0.0082364425          363 
 1904000   0.48373119   -8.4309747    232.02101  0.010154981 0.0082291237          281 
 1905000   0.49444146   -8.4344447    231.98416  0.010148038 0.0082218169          266 
 1906000    0.4909987   -8.4260042    231.99331  0.010143114   0.00821452          325 
 1907000    0.4961697    -8.422294    231.94522  0.010135694 0.0082072262          408 
 1908000   0.47951609    -8.429327    231.94164  0.010130225 0.0081999446          498 
 1909000   0.48076815   -8.4407193     231.7086  0.010114746 0.0081926759          279 
 1910000    0.4928045   -8.4200549    232.03076  0.010123506 0.0081854093          473 
 1911000   0.47823516   -8.4395864    232.01267   0.01011742 0.0081781534          208 
 1912000   0.48966239   -8.4237926    231.80196  0.010102944 0.0081709062          465 
 1913000   0.48196552   -8.4227857    231.81598  0.010098274 0.0081636705          420 
 1914000    0.4989617   -8.4300709    231.82038   0.01009319 0.0081564465          395 
 1915000   0.48899647   -8.4378877    231.94107  0.010093171 0.0081492236          436 
 1916000   0.49390101   -8.4351567    232.10867  0.010095193 0.0081420096          165 
 1917000   0.48405079   -8.4387019     232.0172   0.01008595 0.0081348049          212 
 1918000   0.48023867   -8.4486627    231.67768   0.01006594 0.0081276069          252 
 1919000   0.48617698   -8.4459073     232.0352   0.01007622 0.0081204206          516 
 1920000   0.48134048   -8.4265738    231.80771  0.010061099 0.0081132394          283 
 1921000   0.48855706   -8.4437819    231.70511   0.01005141 0.0081060676          331 
 1922000    0.4968721   -8.4344868    231.92825  0.010055855 0.0080989004          320 
 1923000   0.48760149   -8.4369665    231.70259  0.010040847 0.0080917505          318 
 1924000   0.48137608   -8.4268408     231.2327  0.010015276 0.0080846122          252 
 1925000   0.48715888   -8.4389296    231.42163  0.010018252 0.0080774701          621 
 1926000   0.48207036   -8.4455849    231.56558  0.010019279 0.0080703388          397 
 1927000   0.48900103   -8.4460633    231.85106  0.010026425 0.0080632115          261 
 1928000   0.49861149   -8.4487122    231.80725  0.010019331 0.0080560976          528 
 1929000   0.48093364   -8.4392879    231.80016  0.010013831 0.0080489977          206 
 1930000   0.47380609   -8.4332808    231.62943  0.010001271 0.0080419041          605 
 1931000   0.48545007   -8.4423658    231.91439  0.010008389 0.0080348164          330 
 1932000   0.49139119   -8.4412085    231.60128 0.0099897034 0.0080277386          323 
 1933000   0.47270644   -8.4413333     231.5973 0.0099843635  0.008020665          346 
 1934000   0.47228503   -8.4443564    231.35643 0.0099688223 0.0080135943          420 
 1935000   0.48226988   -8.4501204    231.51728 0.0099705978 0.0080065403          242 
 1936000    0.4797338   -8.4472128    231.56241   0.00996739 0.0079994895          294 
 1937000   0.48150174   -8.4361799    231.77233 0.0099712757 0.0079924513          447 
 1938000   0.47271324   -8.4657339    231.69137 0.0099626491  0.007985417          485 
 1939000   0.47076872   -8.4316801    231.36791 0.0099436098 0.0079783836          387 
 1940000   0.47578529   -8.4615466    231.22128 0.0099321854 0.0079713653          107 
 1941000   0.48096311   -8.4404807    231.63604 0.0099448753 0.0079643543          543 
 1942000     0.493877   -8.4417848    231.89141 0.0099507128 0.0079573543          393 
 1943000   0.47056034   -8.4483327    231.56594 0.0099316326 0.0079503658          565 
 1944000   0.48545796    -8.446672    231.33534 0.0099166383 0.0079433809          488 
 1945000    0.4696257   -8.4340616    231.42354 0.0099153186 0.0079363964          517 
 1946000   0.47567121   -8.4693424    231.34266 0.0099067602 0.0079294286          227 
 1947000   0.47307763   -8.4504934    231.53841   0.00991005  0.007922465          325 
 1948000   0.47394294   -8.4531551    231.82085 0.0099170451 0.0079155128          456 
 1949000   0.47770523    -8.457522    231.48259  0.009897494 0.0079085663          197 
 1950000   0.48070807   -8.4428682    231.33754 0.0098862198 0.0079016358          402 
 1951000   0.47638512   -8.4633997    231.51123 0.0098885711  0.007894701          612 
 1952000   0.47152683   -8.4636422    231.53204 0.0098843938 0.0078877851          360 
 1953000   0.47095238   -8.4631725    231.21663 0.0098658741 0.0078808653          406 
 1954000   0.48152604   -8.4526468    231.35503 0.0098667275 0.0078739604          575 
 1955000   0.47283384   -8.4676037     231.1874 0.0098545356 0.0078670541          235 
 1956000   0.48426786   -8.4598216    231.66117  0.009869682 0.0078601584          251 
 1957000   0.46804755   -8.4622188    231.24167 0.0098467753 0.0078532785          472 
 1958000   0.46894797   -8.4560426    231.33754 0.0098458266    0.0078464          239 
 1959000   0.46149474   -8.4615882    231.26363 0.0098376566 0.0078395325          270 
 1960000   0.46966272   -8.4563162    231.43508  0.009839927 0.0078326704          458 
 1961000   0.46131404   -8.4678817    231.45031 0.0098355563 0.0078258149          385 
 1962000   0.46134189   -8.4634663    231.69819 0.0098410716 0.0078189709          482 
 1963000   0.46578593   -8.4721801    231.18615 0.0098143211  0.007812137          412 
 1964000   0.48036293   -8.4571428    231.31978 0.0098149942 0.0078053078          375 
 1965000   0.47355787    -8.455083    231.45465 0.0098157189 0.0077984842          286 
 1966000   0.47006567   -8.4523863    231.17993 0.0097990816 0.0077916683          561 
 1967000   0.46458427   -8.4567962    231.23811 0.0097965647  0.007784863          566 
 1968000   0.47304055    -8.465031     231.1587 0.0097882241  0.007778058          485 
 1969000   0.46723181    -8.476604    231.28828 0.0097887369 0.0077712594          317 
 1970000   0.47461641   -8.4699676     231.2728 0.0097831134 0.0077644771          427 
 1971000   0.46143671   -8.4612954    231.54342 0.0097895916 0.0077577063          182 
 1972000   0.46767777   -8.4673221      231.176 0.0097691009 0.0077509372          171 
 1973000   0.45891137   -8.4726606    231.19411 0.0097649142 0.0077441665          470 
 1974000   0.45621462    -8.449641    231.32502 0.0097654937 0.0077374091          557 
 1975000   0.46905697   -8.4721007    231.47372 0.0097668237 0.0077306637          507 
 1976000   0.47035056   -8.4845109    230.83199 0.0097348173 0.0077239257          420 
 1977000   0.45730588   -8.4702777     231.3119 0.0097501221 0.0077171967          203 
 1978000   0.46287732   -8.4686888    230.99949 0.0097320312 0.0077104688          214 
 1979000   0.45360887   -8.4741579    231.09301 0.0097310514 0.0077037579          276 
 1980000   0.46128708   -8.4646945    231.04901  0.009724285 0.0076970539          526 
 1981000    0.4648209    -8.468302     231.5882 0.0097420579 0.0076903492          375 
 1982000   0.45992317   -8.4857006    231.02752 0.0097135688 0.0076836563          309 
 1983000   0.47529731    -8.497061    230.63028 0.0096919768 0.0076769695          241 
 1984000   0.46886618    -8.471917    231.22598 0.0097121126 0.0076702879          440 
 1985000   0.45833756   -8.4721141    231.21726  0.009706854 0.0076636169          416 
 1986000   0.46080202   -8.4836062    231.04807  0.009694867 0.0076569507          191 
 1987000   0.46139439   -8.4723342    231.22965  0.009697603 0.0076502886          535 
 1988000   0.46216416   -8.4694869    231.26338  0.009694139 0.0076436402          490 
 1989000   0.46944257   -8.4743067    231.56934 0.0097020838 0.0076370043          448 
 1990000   0.45895435   -8.4867105    231.44441  0.009691977 0.0076303662          486 
 1991000   0.46228278   -8.4832351    231.48364 0.0096887512 0.0076237398          270 
 1992000   0.45271748   -8.4870632    231.46156 0.0096829637 0.0076171299          313 
 1993000   0.45119389   -8.4781687    231.17434 0.0096660957  0.007610515          577 
 1994000    0.4568292   -8.4888277    231.15362 0.0096603818 0.0076039138          600 
 1995000   0.45943316   -8.4702327    231.26261 0.0096600923 0.0075973147          345 
 1996000   0.44833841   -8.4868206    231.13037 0.0096497314 0.0075907244          393 
 1997000   0.46087002   -8.4800752    230.97347 0.0096383522 0.0075841461          537 
 1998000    0.4632647   -8.4752673    231.26887 0.0096458488 0.0075775704          325 
 1999000   0.45055625   -8.4880652    231.22315 0.0096391173 0.0075710092          335 
 2000000   0.45037161   -8.4840827    231.03768 0.0096265699 0.0075644551          408 
 2001000   0.45857529   -8.4861666    230.86078  0.009614392 0.0075579013          513 
 2002000   0.47000145   -8.4864406    231.40981 0.0096324431 0.0075513573          537 
 2003000   0.45959766   -8.4929555     231.1947 0.0096186843 0.0075448187          278 
 2004000   0.44843792   -8.4929609    231.29663 0.0096181234 0.0075382878          545 
 2005000   0.44047121   -8.4807086    231.28604  0.009612886 0.0075317643          240 
 2006000   0.46163355   -8.4847635    231.82599 0.0096305246 0.0075252489          442 
 2007000    0.4470023   -8.4891512    231.20493  0.009599939 0.0075187352          458 
 2008000   0.45570604   -8.4904868     230.9049 0.0095827066 0.0075122329          587 
 2009000   0.45026541   -8.4859186    231.45547 0.0096007744 0.0075057463          434 
 2010000   0.44289783    -8.492065    230.75178 0.0095668234 0.0074992567          310 
 2011000   0.45611495   -8.4758839    230.98579 0.0095717632 0.0074927789          314 
 2012000   0.45185608   -8.4843121    230.99254 0.0095672854  0.007486309          545 
Loop time of 5255.89 on 48 procs for 2000000 steps with 4000 atoms

Performance: 65754.754 tau/day, 380.525 timesteps/s
99.4% CPU use with 48 MPI tasks x no OpenMP threads

MPI task timing breakdown:
Section |  min time  |  avg time  |  max time  |%varavg| %total
---------------------------------------------------------------
Pair    | 374.23     | 429.48     | 476.16     | 104.8 |  8.17
Neigh   | 37.161     | 38.296     | 39.888     |  10.6 |  0.73
Comm    | 326.73     | 375.83     | 429.54     | 116.7 |  7.15
Output  | 6.8571     | 6.8591     | 6.9074     |   0.3 |  0.13
Modify  | 4343.4     | 4357.2     | 4370.2     |  10.5 | 82.90
Other   |            | 48.27      |            |       |  0.92

Nlocal:        83.3333 ave          90 max          77 min
Histogram: 2 1 2 12 9 8 9 3 1 1
Nghost:        2418.19 ave        2433 max        2399 min
Histogram: 1 1 5 4 6 10 9 5 4 3
Neighs:        16822.8 ave       18911 max       14743 min
Histogram: 4 6 7 0 7 5 6 4 5 4
FullNghs:      33643.9 ave       36162 max       31055 min
Histogram: 2 1 2 8 13 8 5 5 3 1

Total # of neighbors = 1614905
Ave neighs/atom = 403.72625
Neighbor list builds = 106585
Dangerous builds = 0

#clear
#
#next RN
#
#jump SELF
Total wall time: 1:27:39
