
units lj                  # Use reduced LJ style units
atom_style atomic         # Uncharged point particles
atom_modify map hash      # Needed for indexing of clusters etc
                          # Used to be able to find where atoms are in relation to each other.

lattice fcc 1.0 spacing 1 1 1
Lattice spacing in x,y,z = 1.5874011 1.5874011 1.5874011
region box block 0 10 0 10 0 10 units lattice
create_box 2 box
Created orthogonal box = (0.0000000 0.0000000 0.0000000) to (15.874011 15.874011 15.874011)
  3 by 4 by 4 MPI processor grid
create_atoms 1 box
Created 4000 atoms
  using lattice units in orthogonal box = (0.0000000 0.0000000 0.0000000) to (15.874011 15.874011 15.874011)
  create_atoms CPU = 0.002 seconds
set type 1 type/fraction 2 0.84 78393
Setting atom values ...
  3354 settings made for type/fraction
mass 1 1.0
mass 2 1.0
pair_style lj/cut  3.5
pair_modify tail  yes
pair_coeff 1  1  1.0  1.0   # Intearaction between 1 and 1 set with epsilon = 1 and sigma = 1
pair_coeff 1  2  1.5  0.8
pair_coeff 2  2  0.5  0.88

write_data data.0
System init for write_data ...
Neighbor list info ...
  update every 1 steps, delay 10 steps, check yes
  max neighbors/atom: 2000, page size: 100000
  master list distance cutoff = 3.8
  ghost atom cutoff = 3.8
  binsize = 1.9, bins = 9 9 9
  1 neighbor lists, perpetual/occasional/extra = 1 0 0
  (1) pair lj/cut, perpetual
      attributes: half, newton on
      pair build: half/bin/atomonly/newton
      stencil: half/bin/3d
      bin: standard
WARNING: Not all mixed pair coeffs generated from mixing. Use write_data with 'pair ij' option to store all pair coeffs. (../write_data.cpp:312)


#############################
#   M E L T   S Y S T E M   #
#############################

velocity all create 2.4 3143649 mom yes dist gaussian # Assign velocities
                                                    # Temperature 2.4, random number seed, zero linear momentum
                                                                                # Gaussian distribution

timestep 0.002   # simulation timestep
thermo 1000       # output thermodynamic data every 1000 steps bf 100

# Define a fix  in this case with index 1 applied to all
# particles in the simulation. This fix is for simulations
# in the anisotropic NPT ensemble. Note that we use the MTK
# correction.
fix 1 all npt temp 2.4 2.4 0.1 iso 5.68 5.68 0.5 mtk yes tchain 5 pchain 5 # Use NPT ensemble
                                                                         # Set temperature and pressure and damping
                                                                         # Numbers of thermostats in chain and in barostat
run 10000          # run for 10000 steps
Per MPI rank memory allocation (min/avg/max) = 3.642 | 3.644 | 3.648 Mbytes
Step Temp E_pair E_mol TotEng Press Volume 
       0          2.4   -3.4880302            0   0.11106983   -3.0192302         4000 
    1000    2.4053548   -2.7540681            0   0.85306211    5.3316728    3891.9671 
    2000    2.3903222    -2.739308            0   0.84527902     5.459082    3883.1811 
    3000    2.4116286   -2.7429559            0   0.87358267    5.7496555    3849.7722 
    4000    2.4228089    -2.696001            0   0.93730388    5.8292473    3870.2209 
    5000    2.3721448   -2.7697234            0   0.78760423    5.4154996    3870.4557 
    6000    2.3306902   -2.7396947            0   0.75546653    5.5184431      3860.07 
    7000    2.3506099   -2.7289392            0   0.79609418     5.580188    3881.1584 
    8000    2.3604571   -2.6651107            0   0.87468983    6.1411052      3852.96 
    9000    2.4265179   -2.7360718            0   0.90279519     5.626572    3864.4744 
   10000    2.3768988   -2.7531323            0   0.81132454    5.6007148    3859.1056 
Loop time of 2.53652 on 48 procs for 10000 steps with 4000 atoms

Performance: 681247.173 tau/day, 3942.403 timesteps/s
99.6% CPU use with 48 MPI tasks x no OpenMP threads

MPI task timing breakdown:
Section |  min time  |  avg time  |  max time  |%varavg| %total
---------------------------------------------------------------
Pair    | 1.0954     | 1.1908     | 1.2765     |   3.7 | 46.94
Neigh   | 0.20659    | 0.21861    | 0.2354     |   1.3 |  8.62
Comm    | 0.7773     | 0.86733    | 0.94915    |   4.5 | 34.19
Output  | 0.00025386 | 0.00025931 | 0.00032756 |   0.0 |  0.01
Modify  | 0.21566    | 0.24437    | 0.275      |   3.3 |  9.63
Other   |            | 0.0152     |            |       |  0.60

Nlocal:        83.3333 ave          96 max          75 min
Histogram: 2 3 8 11 14 5 4 0 0 1
Nghost:        1690.96 ave        1720 max        1656 min
Histogram: 4 2 3 4 4 9 6 10 3 3
Neighs:        9897.38 ave       11612 max        8684 min
Histogram: 3 4 7 8 10 7 7 1 0 1

Total # of neighbors = 475074
Ave neighs/atom = 118.76850
Neighbor list builds = 908
Dangerous builds = 228

# Equilibrate just above the melting temperature to avoid step fn in T

fix 1 all npt temp 1.25 1.25 0.1 iso 5.68 5.68 0.5 mtk yes tchain 5 pchain 5
run 2000
Per MPI rank memory allocation (min/avg/max) = 3.643 | 3.645 | 3.649 Mbytes
Step Temp E_pair E_mol TotEng Press Volume 
   10000    2.3768988   -2.7531323            0   0.81132454    5.6007148    3859.1056 
   11000    1.2455152   -4.0184372            0   -2.1506314    5.7951014    2977.6633 
   12000    1.2473923   -4.0308129            0   -2.1601921    5.5594515    2997.1232 
Loop time of 0.628299 on 48 procs for 2000 steps with 4000 atoms

Performance: 550056.626 tau/day, 3183.198 timesteps/s
99.6% CPU use with 48 MPI tasks x no OpenMP threads

MPI task timing breakdown:
Section |  min time  |  avg time  |  max time  |%varavg| %total
---------------------------------------------------------------
Pair    | 0.27948    | 0.30092    | 0.33774    |   2.4 | 47.89
Neigh   | 0.039691   | 0.042407   | 0.048459   |   0.8 |  6.75
Comm    | 0.19344    | 0.23631    | 0.25979    |   2.9 | 37.61
Output  | 5.2089e-05 | 5.4047e-05 | 7.0798e-05 |   0.0 |  0.01
Modify  | 0.040985   | 0.043811   | 0.047991   |   0.8 |  6.97
Other   |            | 0.004797   |            |       |  0.76

Nlocal:        83.3333 ave          91 max          75 min
Histogram: 2 4 4 5 7 9 6 1 7 3
Nghost:        1995.42 ave        2017 max        1965 min
Histogram: 1 1 2 7 4 9 9 7 5 3
Neighs:        12738.0 ave       14661 max       10926 min
Histogram: 3 3 3 6 8 10 7 4 2 2

Total # of neighbors = 611422
Ave neighs/atom = 152.85550
Neighbor list builds = 144
Dangerous builds = 14

#############################
# L I N E A R  Q U E N C H  #
#############################

# Define solid atoms. This closely follows ten Wolde  Ruiz-Montero and Frenkel  Faraday Discuss  1996  104  93-110
# Compute components of the per-atom q6 vector
compute q6 all orientorder/atom degrees 1 6 components 6 nnn NULL cutoff 1.3 # compute the Q6 parameter.
                                                                             # Use all neighbours within 1.3 unit cell.

# get number of connections
compute coord_number all coord/atom orientorder q6 0.5

# An atom is solid if it has 8 or more connections (of a possible 14)
variable is_solid atom c_coord_number>=8
group solid dynamic all var is_solid    # Must be dynamic to update
dynamic group solid defined

# do clustering
compute cluster solid cluster/atom 1.3 # Create a cluster where all atoms within are solid and max 1.3 units from another member

# define chunks one chunk per cluster
compute clus_chunks solid chunk/atom c_cluster nchunk every compress yes  # Says which atoms are in which chunk

# count the size of each chunk
compute size_chunks solid property/chunk clus_chunks count


# Find the maximum entry in the vector of chunk sizes
variable max_n equal max(c_size_chunks)


# Thermo style which includes this variable
# thermo_style custom step temp pe vol v_max_n

thermo ${N}  # Print the thermo information every 100 steps
thermo 1000  

# Reset the npt fix at a lower temperature (below freezing)
fix 1  all npt temp  ${temp} ${temp}  0.1  iso  5.68  5.68  0.5  mtk yes tchain  5  pchain  5
fix 1  all npt temp  0.45 ${temp}  0.1  iso  5.68  5.68  0.5  mtk yes tchain  5  pchain  5
fix 1  all npt temp  0.45 0.45  0.1  iso  5.68  5.68  0.5  mtk yes tchain  5  pchain  5

dump dmp2 all dcd ${N} traj.dcd
dump dmp2 all dcd 1000 traj.dcd


compute msd all msd com yes
variable twopoint equal c_msd[4]/6/(step*dt+1.0e-6)
fix 9 all vector 10 c_msd[4]
variable fit equal slope(f_9)/6/(10*dt)
thermo_style custom step temp pe c_msd[4] v_twopoint v_fit v_max_n

fix 1 all npt temp 1.25 ${temp} 0.1 iso 5.68 5.68 0.5 mtk yes tchain 5 pchain 5
fix 1 all npt temp 1.25 0.45 0.1 iso 5.68 5.68 0.5 mtk yes tchain 5 pchain 5
run 500000 # 5000000  # Run for this many steps
Neighbor list info ...
  update every 1 steps, delay 10 steps, check yes
  max neighbors/atom: 2000, page size: 100000
  master list distance cutoff = 3.8
  ghost atom cutoff = 3.8
  binsize = 1.9, bins = 8 8 8
  4 neighbor lists, perpetual/occasional/extra = 1 3 0
  (1) pair lj/cut, perpetual
      attributes: half, newton on
      pair build: half/bin/atomonly/newton
      stencil: half/bin/3d
      bin: standard
  (2) compute orientorder/atom, occasional
      attributes: full, newton on
      pair build: full/bin/atomonly
      stencil: full/bin/3d
      bin: standard
  (3) compute coord/atom, occasional
      attributes: full, newton on
      pair build: full/bin/atomonly
      stencil: full/bin/3d
      bin: standard
  (4) compute cluster/atom, occasional
      attributes: full, newton on
      pair build: full/bin/atomonly
      stencil: full/bin/3d
      bin: standard
Per MPI rank memory allocation (min/avg/max) = 9.831 | 9.835 | 9.839 Mbytes
Step Temp PotEng c_msd[4] v_twopoint v_fit v_max_n 
   12000    1.2473923   -4.0308129 1.8583591e-30 1.2905271e-32 8.3333333e+20            1 
   13000    1.2686783   -3.9816097   0.88434009 0.0056688465   0.07452356            1 
   14000    1.2285386   -4.0458347    1.7770092  0.010577435   0.07514741            2 
   15000    1.2435614   -4.0147949    2.6942271  0.014967928   0.07529904            3 
   16000    1.2301373   -4.0442066     3.591857  0.018707588  0.074847044            2 
   17000    1.2610796   -4.0402376    4.4594407  0.021860003  0.074886046            1 
   18000    1.2675107    -4.014643    5.3678318  0.024851073  0.075304888            1 
   19000    1.2379189   -4.0580365    6.3218395  0.027727365  0.075129066            3 
   20000    1.2357621   -4.0947346    7.1590314  0.029829297  0.074972203            1 
   21000    1.2622372   -4.0687838    8.1413883  0.032307096  0.075217099            6 
   22000    1.2254976   -4.0627823     8.921421  0.033793261   0.07497883            1 
   23000    1.2352803    -4.037575    9.8083504  0.035537501   0.07469832            1 
   24000    1.2088015   -4.0501485    10.697768  0.037145027  0.074436874            1 
   25000    1.2336492   -4.0831982    11.581815  0.038606049  0.074331689            2 
   26000    1.2121975   -4.0734789    12.453335  0.039914535  0.074192865            1 
   27000    1.2136554   -4.0896235    13.210438  0.040772955  0.073973916            3 
   28000    1.2225444   -4.0576063    14.034886  0.041770494  0.073591921            2 
   29000     1.218695    -4.060439    14.683934  0.042195212  0.073185681            2 
   30000    1.2254682   -4.0864214    15.596823  0.043324508  0.072785944            3 
   31000    1.2467461   -4.1061538    16.392832  0.044066753  0.072495128            3 
   32000    1.2337753   -4.0965404    17.252865  0.044929336   0.07214808            2 
   33000    1.2514151   -4.0636988     18.05784  0.045600606  0.071841367            4 
   34000    1.2003633   -4.1024037    18.943042  0.046429024  0.071614686            2 
   35000    1.1937837   -4.0844935     20.12594  0.047918904  0.071604265            4 
   36000    1.2451395    -4.119824    21.107366  0.048859644  0.071777002            2 
   37000    1.2339208   -4.0542222    21.879095  0.049277241  0.071915947            3 
   38000    1.1955508    -4.099759    22.865263   0.05014312  0.072072952            4 
   39000    1.1975232   -4.0777477    23.733084  0.050711717  0.072205866            3 
   40000    1.2014951   -4.0988026    24.375691  0.050782689   0.07222675            1 
   41000    1.1614628   -4.1397517    25.319898  0.051463206  0.072240137            2 
   42000    1.2075969   -4.1121476    26.099079  0.051783887  0.072244874            2 
   43000    1.1729966   -4.1397772    26.885519  0.052103718  0.072213485            4 
   44000     1.184502   -4.1162055    27.814933  0.052679797  0.072197023            1 
   45000    1.1859195   -4.1178622    28.595907  0.052955383  0.072180136            2 
   46000    1.1918812   -4.1087698    29.468395  0.053384773  0.072090774            2 
   47000    1.1748574   -4.0916875    30.138801  0.053437591  0.071963413            1 
   48000    1.1998491   -4.1562303    30.763439  0.053408749  0.071795746            3 
   49000    1.1951714   -4.1227236    31.685185  0.053886369  0.071637825            1 
   50000    1.1742283    -4.150179    32.611237   0.05435206  0.071530724            3 
   51000    1.2121891    -4.141061     33.70549  0.055074329  0.071513936            3 
   52000    1.1843383   -4.1230879    34.881166  0.055899304  0.071555772            1 
   53000      1.18263   -4.0900217    35.628783  0.056020098  0.071638074            2 
   54000    1.1926994   -4.1670692    36.686523  0.056615003   0.07171181            3 
   55000    1.1806256   -4.1330085      37.5933  0.056959545  0.071806314            3 
   56000     1.156489   -4.1357598    38.349075  0.057067076    0.0718678            1 
   57000    1.1743809   -4.1468582    39.295352  0.057449345  0.071937662            3 
   58000    1.1880265   -4.1422264    40.342291  0.057963061  0.072031824            3 
   59000    1.1979566   -4.1350452    41.068288  0.058006056  0.072116628            2 
   60000    1.1689748   -4.1568415    42.025849  0.058369235   0.07220025            3 
   61000    1.1771088   -4.1321177    42.935863  0.058655551  0.072268231            1 
   62000    1.1673218   -4.1495004    43.515686  0.058488825  0.072294042            2 
   63000    1.1816865   -4.1716575    44.139399  0.058385447  0.072299782            3 
   64000    1.1828454   -4.1700925    44.994287  0.058586311  0.072289902            4 
   65000     1.155354   -4.1672375    45.869049  0.058806473  0.072262084            2 
   66000    1.1396114   -4.1565868    46.610601  0.058851769   0.07221825            3 
   67000    1.1778429   -4.1347012    47.544685  0.059135179  0.072159954            3 
   68000    1.1666465   -4.1590924    48.258582  0.059140419  0.072097534            2 
   69000    1.1721372   -4.1704582     49.01957  0.059202379  0.072037359            2 
   70000    1.1462221   -4.1887095    49.749509  0.059225605  0.071966543            6 
   71000    1.1497695   -4.1792888     50.71386  0.059523309  0.071893841            2 
   72000     1.155436   -4.2024886    51.406083  0.059497781  0.071822951            3 
   73000    1.1587781    -4.190674     52.38214  0.059796963  0.071761167            3 
   74000    1.1643731   -4.1614697    53.008048  0.059693747  0.071723874            2 
   75000    1.1470081   -4.2046427    54.109259  0.060121398  0.071660516            3 
   76000    1.1433313   -4.1681583    54.922916  0.060222496  0.071612592            3 
   77000     1.146985     -4.19312    55.417671  0.059975834  0.071543044            3 
   78000    1.1493117   -4.2066375    56.122907   0.05996037   0.07146504            3 
   79000    1.1463444   -4.2368843    56.349732  0.059440645  0.071366598            1 
   80000    1.1388969   -4.2257127    57.384714  0.059775743  0.071256097            3 
   81000    1.1594763   -4.2367168    58.029965   0.05970161  0.071150606            2 
   82000    1.1452123   -4.2121907    59.166591  0.060128649  0.071053784            2 
   83000    1.1106813   -4.1910471    60.062793  0.060304009  0.070957487            2 
   84000    1.1440465   -4.1971808    61.082775   0.06059799  0.070860726            3 
   85000    1.1483031   -4.1984333    61.323301  0.060120883  0.070755717            3 
   86000    1.1358433   -4.2288475    61.785388  0.059869561  0.070628258            4 
   87000    1.1302593   -4.2149185    62.614537   0.05997561  0.070506755            3 
   88000    1.1211284    -4.219418    63.115897  0.059768842  0.070366845            1 
   89000    1.1328509   -4.2039862     63.95998  0.059887622  0.070221227            3 
   90000    1.1174501   -4.2109999    64.649077  0.059860256  0.070078393            4 
   91000    1.1221798   -4.2232625    65.178795  0.059687541  0.069943439            2 
   92000    1.0891322   -4.2388794    66.219895  0.059981788  0.069809325            2 
   93000    1.1364614   -4.1846878       67.306  0.060310035  0.069690375            1 
   94000    1.1217274   -4.2267531    67.662144   0.05998417  0.069582958            2 
   95000    1.1060341   -4.2480158    68.258156  0.059875575  0.069461719            2 
   96000     1.100249   -4.2212059    68.978992  0.059877597  0.069320638            2 
   97000    1.0921435   -4.2589312    69.376134   0.05960149  0.069176168            4 
   98000    1.1178371   -4.2651037    69.969771  0.059498105   0.06901393            3 
   99000    1.0760895   -4.2455371    70.600825  0.059428304  0.068849584            1 
  100000    1.0928312   -4.2421714    71.451785  0.059543154  0.068697984            3 
  101000    1.1066178   -4.2341576    71.871112  0.059299597  0.068542141            2 
  102000    1.1147707   -4.2718589     72.20752  0.058993072  0.068373366            1 
  103000    1.1158256   -4.2779457    73.166672  0.059196336  0.068207615            3 
  104000    1.1069487   -4.2436448     73.63006  0.058998445  0.068036785            1 
  105000    1.1167715   -4.2408311    74.482271  0.059112913  0.067867359            2 
  106000    1.0899263   -4.3036882    74.696324  0.058723525  0.067705678            2 
  107000    1.0967091   -4.2748297    75.363103  0.058694005  0.067525313            3 
  108000    1.0893217   -4.2645109     75.66489  0.058383403   0.06734278            3 
  109000    1.0761188   -4.2715457    76.910381  0.058799985  0.067168251            2 
  110000    1.0907738   -4.3099275    77.270469  0.058538234  0.066992905            9 
  111000    1.1032797   -4.3207431    77.593027  0.058253023  0.066818375            5 
  112000    1.0663631   -4.2824037    78.361573  0.058304742  0.066644082            4 
  113000    1.0891131   -4.3031486    79.170858  0.058385588  0.066476605            4 
  114000    1.0776286   -4.3068557    79.671828   0.05823964   0.06630369            3 
  115000    1.0932259   -4.2962842    80.268394  0.058165503  0.066138076            3 
  116000    1.0809321   -4.2860462    80.939429  0.058146141  0.065979223            3 
  117000    1.0851164   -4.3108203    81.343714  0.057937118  0.065810578            2 
  118000    1.0615363   -4.2879564    82.673664  0.058385356  0.065649109            2 
  119000    1.0975441   -4.2801221    82.908366   0.05805908  0.065490134            3 
  120000    1.0951933   -4.3212684    83.395998  0.057913887  0.065330981            3 
  121000    1.0774272   -4.2834964     83.98908  0.057843719  0.065169145            1 
  122000    1.0690994   -4.3117768    84.746594  0.057887018  0.065010806            4 
  123000    1.0871505   -4.3232209    84.759039  0.057424823  0.064846096            3 
  124000    1.0581831    -4.288228     85.74699  0.057625665  0.064681181            3 
  125000    1.0900235   -4.3271784    86.187372  0.057458248  0.064521758            2 
  126000    1.0707888   -4.3083549    86.926073  0.057490789  0.064354421            2 
  127000    1.0655643   -4.3498103    86.952248  0.057055281    0.0641863            2 
  128000    1.0582261   -4.3488565      87.6835  0.057085612  0.064018978            3 
  129000    1.0474899   -4.3338655    88.324435  0.057057128  0.063847548            2 
  130000    1.0645929   -4.3396433    89.068857  0.057095421   0.06367937            3 
  131000    1.0397186   -4.3413385    89.427828  0.056887931  0.063517618            2 
  132000     1.050678   -4.3566835    89.607298  0.056570264  0.063348926            4 
  133000     1.051663   -4.3552779    90.052559  0.056423909  0.063176067            4 
  134000    1.0422029   -4.3555597    90.560493  0.056318715  0.063001682            2 
  135000      1.08738   -4.3309702    91.579325  0.056530448  0.062837444            4 
  136000    1.0409855   -4.3276862    92.274295  0.056540622  0.062678432            5 
  137000    1.0580743   -4.3291092    93.093104  0.056625976  0.062519132            2 
  138000    1.0507914   -4.3919367    92.722118  0.055991617  0.062353487            3 
  139000    1.0670492   -4.3661072    92.960441  0.055731679   0.06218256            3 
  140000    1.0461505   -4.3769441    93.407976  0.055599986  0.062012083            1 
  141000    1.0579694   -4.3668387    94.235178  0.055694549  0.061838268            5 
  142000    1.0197311    -4.355853    95.304747  0.055930015  0.061672789            2 
  143000    1.0490292   -4.3643218    95.528437  0.055669252  0.061510727            1 
  144000    1.0306756   -4.3795569    96.195764  0.055668845  0.061356293            2 
  145000    1.0643179   -4.4002125    96.637975  0.055539066  0.061203691            2 
  146000    1.0486576   -4.3590035    97.406212  0.055597153  0.061051456            4 
  147000    1.0446869   -4.3732006     97.73269  0.055404019  0.060900051            2 
  148000     1.060549   -4.3622579    98.076904  0.055223482  0.060742489            5 
  149000    1.0223611   -4.4038653    98.833783  0.055276165   0.06059776            2 
  150000    1.0177869   -4.3424551    99.758868  0.055421593  0.060454832            3 
  151000    1.0412697   -4.3724144    100.50689   0.05546738  0.060318217            6 
  152000    1.0610343   -4.3680002    100.67316   0.05519362  0.060182034            1 
  153000    1.0057874    -4.394562    101.21593  0.055128503  0.060049331            3 
  154000    1.0061539    -4.391457    101.66687   0.05501454  0.059911813            4 
  155000    1.0231594   -4.4151182    102.77333   0.05525448  0.059776966            3 
  156000     1.039822   -4.3966751    103.24745  0.055153555   0.05965236            4 
  157000    1.0164847   -4.4249149    103.68589  0.055034975  0.059528885            2 
  158000     1.000294   -4.4248005    103.98428  0.054844029  0.059405987            1 
  159000   0.99726834   -4.3964329    104.94034   0.05500018  0.059280136            4 
  160000    1.0206948   -4.4013885    105.48915  0.054942263  0.059159355            2 
  161000     1.010627   -4.4456884    105.76985  0.054746299  0.059039526            5 
  162000    1.0054053   -4.4136128    105.99945  0.054526465  0.058915978            2 
  163000    1.0053508   -4.4329124    106.99103   0.05469889  0.058795038            2 
  164000    1.0057803   -4.4487386    107.26924  0.054506727  0.058672087            2 
  165000    1.0132646   -4.4340641    107.90567  0.054497814  0.058549306            2 
  166000    1.0083607   -4.4039328    108.59372  0.054514922  0.058431725            2 
  167000    1.0255938   -4.4396593    108.93311  0.054357839    0.0583155            5 
  168000   0.99994708   -4.4345532    109.57914  0.054354732  0.058200001            5 
  169000   0.96467444   -4.4460687    109.88256  0.054182721  0.058085611            3 
  170000    1.0306734   -4.4593047    110.55197  0.054192143  0.057967785            7 
  171000   0.98267818   -4.4598123    110.80403  0.053998064  0.057851398            2 
  172000   0.99599177   -4.4294674    111.47116  0.054007346  0.057736477            3 
  173000   0.97766464   -4.4397342    112.19887    0.0540457  0.057621233            7 
  174000   0.97763476   -4.4286906    112.45901  0.053859678  0.057506934            3 
  175000    1.0075255   -4.4582622    113.23696   0.05392236  0.057395139            4 
  176000    1.0049334   -4.4737496    113.24841  0.053621405  0.057282588            3 
  177000   0.97243226   -4.4627815    113.79733  0.053576899  0.057163184            3 
  178000   0.98744329   -4.4515667    114.18531  0.053457544  0.057047814            3 
  179000      0.99776   -4.4865769    114.51101  0.053310528  0.056932164            7 
  180000   0.99289023   -4.4983309    115.20999  0.053337958  0.056818369            2 
  181000   0.98128768   -4.4624855    116.03654  0.053423823  0.056705323            4 
  182000    1.0196692   -4.4947182    116.24818   0.05322719  0.056594807            3 
  183000   0.97958702   -4.5010817    116.33983  0.052978066  0.056487353            2 
  184000   0.98565486   -4.4967132    117.46294  0.053198797  0.056376447            5 
  185000   0.95377339   -4.4828871      118.238  0.053260359  0.056268903            4 
  186000   0.98616301   -4.5047433     118.5954  0.053134138  0.056162611            4 
  187000   0.97807938   -4.5164635     118.4762  0.052796882  0.056054911            3 
  188000   0.95475093   -4.4912342    119.79257  0.053099542    0.0559496            2 
  189000   0.98139636   -4.5008597     120.2476  0.053019226  0.055846613            4 
  190000   0.97180403   -4.4890936    120.51184  0.052856072  0.055744031            4 
  191000   0.96550259   -4.5041802    120.70026  0.052661545   0.05564015            5 
  192000   0.96155633   -4.5049939    120.88196  0.052466127  0.055534298            1 
  193000   0.95113334   -4.5216474    120.79065  0.052154859   0.05542708            4 
  194000   0.95867714   -4.5299963    121.60682  0.052236606  0.055315002            2 
  195000   0.93670714   -4.4995746    122.44224  0.052325745  0.055205559            4 
  196000   0.94829815   -4.5342806    122.55055  0.052104826  0.055097636            4 
  197000    0.9389258   -4.5266214    123.24301  0.052133251  0.054990707            4 
  198000    0.9497135    -4.506505    123.65302  0.052042517  0.054883221            8 
  199000   0.95743077   -4.5199756    124.20475   0.05201204  0.054777751            2 
  200000   0.97614204    -4.508748    124.94154  0.052058975  0.054671994            4 
  201000   0.94329211   -4.5121942    124.94365  0.051800851  0.054567526            2 
  202000   0.96238678   -4.5080227    125.71281  0.051861718  0.054461539            4 
  203000   0.94480723   -4.5511181    125.59355  0.051557285   0.05435277            3 
  204000   0.92989148   -4.5407981    125.94463  0.051447971  0.054246058            3 
  205000   0.92994535   -4.5450929    126.25363  0.051322614  0.054137818            4 
  206000   0.91962916   -4.5106896    126.95531  0.051357328  0.054028717            4 
  207000   0.93653259   -4.5828559    126.74802  0.051025771  0.053916197            4 
  208000   0.92845798    -4.541593    127.45919  0.051065382  0.053804723            3 
  209000   0.94788998   -4.5796899    127.65891  0.050900682  0.053696134            4 
  210000   0.91879083   -4.5690822    128.36525  0.050938592  0.053587648            2 
  211000   0.94678309     -4.56024    128.75324  0.050850409  0.053479669            5 
  212000   0.93260714   -4.5925606    128.80292  0.050630079   0.05336997            6 
  213000   0.91411044   -4.5656569    129.95028  0.050841267  0.053263892            3 
  214000    0.9248229   -4.5626829    130.48354  0.050811346  0.053160007            4 
  215000   0.93333635   -4.5984601    130.76276  0.050683241  0.053056817            2 
  216000   0.90908995   -4.5532065    131.31329  0.050660991  0.052954815            3 
  217000   0.92176206   -4.5999688    131.16915  0.050372178  0.052854319            3 
  218000   0.92017609   -4.5796086    132.72915  0.050737443  0.052756189            5 
  219000   0.89962377   -4.5761078    132.68994  0.050490846  0.052658967            4 
  220000   0.91029632    -4.602128    133.20239  0.050455452  0.052562595            2 
  221000   0.91737505   -4.6164481    133.45274  0.050321547  0.052467091            2 
  222000   0.92287891   -4.5896078    134.34878  0.050431224    0.0523693            2 
  223000   0.91380473   -4.5881554    134.53672  0.050275307  0.052273551            2 
  224000   0.90398474   -4.5769953    135.08547  0.050255011  0.052181356            8 
  225000   0.91572198   -4.6104702     135.2045  0.050075739  0.052088125            2 
  226000   0.91886639   -4.6024971    136.20464  0.050222949  0.051993882            6 
  227000   0.90428932   -4.6224275    136.13407  0.049975795     0.051901            4 
  228000   0.90098204   -4.6157804     136.4511   0.04987248  0.051807278            4 
  229000   0.89306002   -4.6027796    136.68957  0.049741475  0.051714488            3 
  230000   0.89180875   -4.6112779    137.37084  0.049772044  0.051622207            4 
  231000   0.89803563   -4.6097611    137.51981  0.049610321  0.051529138            3 
  232000    0.9005665   -4.5897482    137.72831  0.049471375  0.051433391            6 
  233000   0.89370809   -4.6479187    137.81436  0.049289827  0.051336687           13 
  234000   0.89460373    -4.632056     138.8612  0.049451994  0.051239194            3 
  235000   0.89017173   -4.6320525     138.7837  0.049214077  0.051142607            3 
  236000   0.87744884   -4.6390956     139.1298  0.049127755  0.051044864            2 
  237000   0.88366608   -4.6208777    139.00969  0.048878231    0.0509434            3 
  238000   0.90818841   -4.6417658    139.17616   0.04873115  0.050843763            8 
  239000    0.8790085   -4.6546393    139.91424  0.048784601  0.050743897            8 
  240000   0.87416927   -4.6345198    140.32608  0.048724334   0.05064499            6 
  241000   0.88380836   -4.6565529     140.4448  0.048563208  0.050547062            2 
  242000   0.87912123    -4.655905     140.8462  0.048500756  0.050449776            3 
  243000   0.86697553   -4.6613935    141.56726  0.048548444   0.05035371            5 
  244000   0.87940402   -4.6561351    141.86161  0.048450005  0.050256471            3 
  245000   0.88068426    -4.678513    141.87223  0.048255861  0.050156293            2 
  246000    0.8691992   -4.6531486     141.7387  0.048014465  0.050053935            5 
  247000   0.86384646   -4.6496013    142.65494  0.048129198  0.049952998            5 
  248000   0.87960448   -4.6538726    143.11273  0.048088954  0.049851961            4 
  249000   0.87046878   -4.6463647    142.63113   0.04773465  0.049750743            2 
  250000   0.85971071   -4.6624641    143.16866  0.047722887  0.049649946            7 
  251000   0.85552852   -4.6697307    143.46128  0.047629908  0.049548939           12 
  252000   0.86365985   -4.7138653     143.4838  0.047448345  0.049448519            3 
  253000   0.86526845   -4.6991254    144.34334   0.04754392  0.049349373            3 
  254000   0.85299901    -4.683296    145.13155  0.047615339  0.049251562            4 
  255000    0.8426131   -4.6973125    145.05941  0.047405037  0.049153423            8 
  256000   0.87486478   -4.7126096    145.01067  0.047203995  0.049052724            7 
  257000   0.84199839   -4.7243245    145.82921  0.047285734  0.048954049            5 
  258000   0.85065765   -4.6901608    146.51918  0.047325316  0.048857037            2 
  259000   0.84956185    -4.694129      146.584  0.047163449  0.048760903            9 
  260000   0.84841361   -4.7170014    147.09577  0.047146079    0.0486634            3 
  261000   0.86993254   -4.7027579    147.25286    0.0470156  0.048566373            9 
  262000   0.84534287   -4.7174274    147.53543  0.046926028  0.048470575           10 
  263000   0.86406456    -4.745272    147.34659  0.046687765  0.048372628            7 
  264000   0.84233268   -4.7338926    147.87758  0.046678528  0.048273985            5 
  265000   0.84463416   -4.6987225    147.81391  0.046482363  0.048173852            3 
  266000   0.84936734    -4.716403    147.60386   0.04624181  0.048073218            5 
  267000   0.86193229   -4.7302407    147.74777  0.046113535  0.047971414            4 
  268000   0.83773752   -4.7294608    147.64498  0.045909508  0.047868841            4 
  269000   0.82881238   -4.7213789    148.41914  0.045978668  0.047765825            7 
  270000   0.83984676   -4.7422444    148.91159  0.045960368  0.047662061            5 
  271000   0.84145498   -4.7209482    149.34265  0.045923323  0.047561153           14 
  272000   0.82275349   -4.7494489     149.2025  0.045711549   0.04745776            6 
  273000   0.82662524   -4.7472488    149.65632  0.045682637  0.047355497            3 
  274000   0.82048846   -4.7656556    149.44525  0.045451719  0.047252151            4 
  275000   0.84384847   -4.7534066    150.27702  0.045538489  0.047147318            3 
  276000   0.80864132   -4.7298329    150.20766  0.045352556  0.047043939            7 
  277000   0.81374875   -4.7972893    149.45896  0.044963587  0.046938222            3 
  278000   0.84508651   -4.7793943      150.117    0.0449991  0.046832858            6 
  279000   0.82505698    -4.779966    150.17718  0.044855789  0.046726574            6 
  280000   0.83302996   -4.7720128    150.94208  0.044923238  0.046619374            4 
  281000   0.82334959   -4.7803633    150.80771  0.044723521  0.046513318            6 
  282000   0.81440046   -4.7869794    151.21799  0.044686166  0.046409236            8 
  283000   0.81203883   -4.7890666     151.6512  0.044655831  0.046304948            4 
  284000   0.81774715   -4.7735544    152.00751  0.044603141   0.04620018            9 
  285000   0.82425484   -4.7840535    151.58896  0.044324256  0.046095419            4 
  286000   0.82323673   -4.7888866    152.46547  0.044424672  0.045991171            5 
  287000   0.79988069   -4.7861933    152.51312  0.044283717  0.045888189            4 
  288000   0.79871939    -4.797429    153.16118  0.044317471  0.045786222            5 
  289000   0.80189448   -4.8151136    152.97868  0.044111499  0.045682035            3 
  290000   0.79776846   -4.7899794    152.73733  0.043890036  0.045577888            9 
  291000   0.81007046   -4.8056301    152.90768  0.043787996  0.045472327            7 
  292000   0.79203723   -4.7934446    153.55073  0.043821554  0.045368479            8 
  293000   0.79303506   -4.8182012    153.79356  0.043741058  0.045262896            6 
  294000   0.80935216   -4.8275883    153.96475  0.043640801  0.045158417            5 
  295000   0.79709948   -4.8435437    154.15129  0.043545563  0.045055309            4 
  296000   0.77934769    -4.820954    154.67777   0.04354667  0.044954603            6 
  297000   0.78351503   -4.8446798    154.42007  0.043327742  0.044851682            5 
  298000   0.78685962   -4.8340956    154.64911  0.043246396  0.044748062            4 
  299000   0.77196363   -4.8337911    154.45056   0.04304642  0.044643634            4 
  300000   0.78250618   -4.8356704    155.07694  0.043076927  0.044539912           12 
  301000   0.80661513   -4.8579566    155.42527  0.043030251  0.044437603            4 
  302000   0.79911818   -4.8313959    155.66355  0.042953518  0.044335383           11 
  303000   0.79496856   -4.8389896    156.07569  0.042925108  0.044234079            5 
  304000   0.78001024   -4.8489555    156.23397  0.042827295  0.044133446            8 
  305000   0.79263792   -4.8590638    156.40431  0.042733418  0.044032918            8 
  306000   0.78029281   -4.8522958    156.93795  0.042739093  0.043932888            7 
  307000     0.784398    -4.890473    156.38076  0.042448631  0.043832149           10 
  308000   0.77073083   -4.8701979     156.3902  0.042313366  0.043730513            6 
  309000   0.78143007   -4.8884533    156.83889  0.042297435  0.043628837            6 
  310000   0.77830586   -4.8299196    156.94368  0.042189161  0.043525912           12 
  311000   0.76538393   -4.8670689    157.05483  0.042083288  0.043425227            3 
  312000   0.76249433   -4.8742531    157.93592   0.04218374  0.043324399            7 
  313000   0.76705856   -4.8675915    157.91971   0.04204465  0.043223328            4 
  314000   0.77701173   -4.8541583    157.91715  0.041910072  0.043123592            4 
  315000   0.76981092   -4.8905084    158.07036  0.041817556  0.043022607            5 
  316000   0.77109314    -4.890497    158.13558  0.041702421  0.042922678            9 
  317000   0.76405757   -4.9003897    158.84178  0.041756514   0.04282301            4 
  318000   0.74660553   -4.8758633    159.48107  0.041792732   0.04272375            7 
  319000   0.75089346   -4.9222454    158.94458  0.041521573  0.042624061            6 
  320000   0.75590055   -4.8779008     159.7218  0.041594219  0.042526888            7 
  321000   0.76766942   -4.9065589    159.39329  0.041379359  0.042430252            7 
  322000   0.74336522   -4.9065606    159.20622  0.041202437  0.042333232           10 
  323000   0.75326263   -4.9125131    159.84089   0.04123862  0.042235829            4 
  324000   0.75091772   -4.9109031     159.9254  0.041133075  0.042137828           11 
  325000   0.76514804   -4.9012638    160.76891  0.041222798  0.042040532           14 
  326000   0.74184617   -4.9340318    160.22026  0.040956098  0.041942853           10 
  327000   0.75329782   -4.9318889    160.47787  0.040896501  0.041845517            5 
  328000   0.74365895   -4.9449141    160.81741  0.040858083  0.041749203            4 
  329000   0.75980279   -4.9201798    160.99027  0.040777678  0.041652455            7 
  330000   0.75071257   -4.9188188    160.99906  0.040656329  0.041555867            3 
  331000   0.75284644   -4.9508139    160.60419  0.040434086    0.0414585            7 
  332000   0.71225627   -4.9361634    161.20649  0.040463475   0.04136137            5 
  333000   0.71784494   -4.9533662    161.09755  0.040314701  0.041264117            8 
  334000   0.72667255   -4.9329678    161.22203  0.040225058  0.041166289           11 
  335000   0.72845099   -4.9481389     161.5204  0.040179204  0.041069373           11 
  336000   0.73589575    -4.940557    161.30722  0.040006751  0.040972198            7 
  337000   0.71360964   -4.9481726    162.03206  0.040067275  0.040876299            9 
  338000   0.73411401   -4.9365827    162.19046  0.039987787  0.040780893            6 
  339000   0.73877884   -4.9677887    161.77301   0.03976721  0.040684581            9 
  340000   0.73317698   -4.9529807    162.63455   0.03986141  0.040589041            7 
  341000   0.73228056   -4.9786292    162.82141  0.039790178  0.040493304            9 
  342000   0.72696408   -4.9714615    163.63095   0.03987109  0.040399398            5 
  343000   0.72295865   -4.9652846    162.86138  0.039567878  0.040306442            4 
  344000   0.72488296   -4.9578902    162.89357   0.03946065  0.040212766            8 
  345000   0.70285602   -4.9882226    163.23355  0.039428393  0.040118597            8 
  346000    0.7102806   -4.9898562    163.06211  0.039273147  0.040024611            7 
  347000   0.71619762   -4.9842604    163.49409   0.03926371  0.039930363            7 
  348000   0.71025577   -4.9922388    163.18353  0.039076515  0.039835781            9 
  349000    0.7186298   -4.9989921    163.46425  0.039031579  0.039741629           10 
  350000   0.71128168   -5.0415452    163.68074  0.038971605  0.039647016            5 
  351000   0.71362087   -5.0236261    163.49486  0.038816443  0.039552965           14 
  352000   0.69313358   -5.0147352    163.85049  0.038790362    0.0394594            9 
  353000   0.70240084   -5.0237855    163.95308  0.038704693  0.039366315            4 
  354000   0.71369977   -5.0034482    164.49854  0.038723761  0.039273336            6 
  355000   0.69421867   -5.0057737    164.44677  0.038602528  0.039180486            6 
  356000   0.70478738   -5.0377133    164.25679  0.038449623  0.039087056            7 
  357000   0.71027343   -5.0171132    164.31092  0.038354556  0.038993603            5 
  358000   0.69260347   -5.0187392    164.34891  0.038256264  0.038900149            5 
  359000   0.69694985   -5.0334095     164.7189  0.038235585  0.038806762           15 
  360000   0.68451787   -5.0654702    164.71626  0.038128765  0.038713661            9 
  361000   0.69903794   -5.0236582    165.01475  0.038092048  0.038620511           16 
  362000   0.68493036   -5.0534454       165.11  0.038008748  0.038526654           11 
  363000   0.67987563   -5.0230522    165.25973  0.037938414  0.038433857            5 
  364000   0.68688442   -5.0321264    165.44945  0.037877622  0.038342439            8 
  365000   0.69919869   -5.0853658    165.25694  0.037729894  0.038250563            9 
  366000   0.68654209   -5.0795176    165.21965  0.037618317  0.038157986            5 
  367000    0.6959272   -5.0501172    165.68203  0.037620807  0.038065428            8 
  368000   0.69294942   -5.0730468    165.84112  0.037554601  0.037973512            7 
  369000   0.67509247   -5.0719849    166.05751  0.037501695   0.03788143            7 
  370000   0.66850339   -5.0509277    165.83203  0.037349555  0.037789611           14 
  371000   0.67158163   -5.0693611    166.26401  0.037345915  0.037698165            9 
  372000   0.65889479   -5.0785372    165.71413  0.037122342   0.03760644            9 
  373000   0.66614227   -5.0756606    166.30481  0.037154783  0.037515459           10 
  374000   0.66007909   -5.0703445    166.14425  0.037019664  0.037424859            9 
  375000   0.67042047   -5.0693229    166.24575  0.036943499  0.037334544           14 
  376000   0.65705035   -5.0982826    166.53183   0.03690865  0.037244653           12 
  377000   0.66776106   -5.0855952     166.6302  0.036832494  0.037155056           10 
  378000   0.65762025   -5.0846852    166.70785  0.036752171  0.037065476           12 
  379000   0.65194372   -5.1182486    166.81948  0.036679744  0.036975692           13 
  380000   0.66784834   -5.0863692    167.04495  0.036632664  0.036886517           21 
  381000   0.66577499   -5.1073112    167.18728  0.036567646  0.036798095            7 
  382000   0.65927264   -5.1074438    167.21957  0.036478963   0.03670913            9 
  383000   0.66255546   -5.0971584    167.29791  0.036400764  0.036620794           13 
  384000    0.6486766   -5.1030224    167.52882  0.036356081   0.03653291           11 
  385000   0.65901514   -5.0998621    167.27492  0.036206693  0.036444758            9 
  386000    0.6452889   -5.1122321    167.35423  0.036130014  0.036355784           19 
  387000   0.65275011   -5.1143875     167.5024  0.036068562  0.036266755           13 
  388000   0.64597641   -5.1432088    167.71179  0.036020572  0.036178071           16 
  389000   0.63774202   -5.1505478    167.53805  0.035890757  0.036089173            8 
  390000   0.66222757   -5.1659381    167.56159  0.035803758  0.036000326           11 
  391000   0.63216477   -5.1542681    167.50714  0.035700583  0.035911359            7 
  392000   0.63675648    -5.154104    167.80475  0.035672778  0.035822752           11 
  393000   0.64437753   -5.1612313     167.7259  0.035565288  0.035734779           13 
  394000   0.63178307   -5.1206844    168.40736  0.035619154  0.035647083           27 
  395000   0.62897188   -5.1431841    168.47166  0.035542545  0.035560374            9 
  396000   0.64914875   -5.1476329    167.98974  0.035351376  0.035473063           12 
  397000   0.63930231   -5.1703192    168.19674  0.035305782  0.035385877            9 
  398000   0.63670902   -5.1628474    168.80953   0.03534538  0.035299318           21 
  399000   0.62852189    -5.147367    168.91987   0.03527984  0.035213154           18 
  400000   0.62443036   -5.2013159    168.43714  0.035091071  0.035127664           14 
  401000   0.63689887   -5.1454869    168.60445   0.03503833  0.035042409           12 
  402000   0.63430276   -5.1954025    168.88118  0.035008536  0.034956859           26 
  403000   0.61146306   -5.1729053    168.92567  0.034930866  0.034871065           13 
  404000    0.6149333   -5.1847918    168.56158  0.034769303  0.034785974           12 
  405000   0.62897254   -5.2001845    168.78844  0.034730132   0.03470034            7 
  406000   0.61568544   -5.1921047    168.88781  0.034664985  0.034614723           25 
  407000   0.61391668   -5.1969072    169.00184  0.034603162  0.034529895           14 
  408000    0.6204068   -5.1791221    169.52014  0.034624212  0.034445192           12 
  409000   0.61152891   -5.1975197    169.35536  0.034505981  0.034361173            8 
  410000   0.61283836   -5.1863382     169.7679   0.03450567  0.034277279            6 
  411000   0.61607542   -5.2097698    169.11075  0.034288474  0.034193076           22 
  412000   0.60943346   -5.2096877    169.66579  0.034317515  0.034108778           26 
  413000   0.59573458   -5.2290388    169.47156   0.03419523  0.034024558           10 
  414000   0.62474626    -5.235641    169.30957  0.034080026    0.0339404           13 
  415000   0.60238624   -5.2253566    169.56827  0.034049854  0.033856746           14 
  416000   0.60865268   -5.2189798    169.73731  0.034001866  0.033773228            7 
  417000   0.60294383   -5.2475317     169.3572  0.033844364  0.033689995           12 
  418000   0.58879742   -5.2305678    169.90483  0.033872573  0.033606668            7 
  419000    0.5888975   -5.2232156    169.38223  0.033687794  0.033522938           23 
  420000   0.59079104   -5.2451559    169.72566  0.033675726  0.033439548           21 
  421000   0.58846318   -5.2604173    169.39828  0.033530935  0.033356344            5 
  422000   0.59125244   -5.2441035    169.23031  0.033418307   0.03327276            9 
  423000    0.5846069   -5.2304321    169.55379  0.033403033  0.033189185           11 
  424000   0.58261425   -5.2338349    169.62954  0.033339139  0.033105618           15 
  425000   0.59734467   -5.2641956    169.35762  0.033207376  0.033021855            9 
  426000   0.56940794   -5.2623268    169.80024  0.033216009  0.032938289            8 
  427000   0.58232138   -5.2623957    169.56908  0.033093107  0.032855263           19 
  428000   0.58972564   -5.2790281    169.55413  0.033012875  0.032772309           14 
  429000   0.58855121   -5.2675411    169.74704  0.032973395  0.032689564           31 
  430000   0.58807287   -5.2708601    169.98345   0.03294253  0.032607391           18 
  431000   0.57770851   -5.2719032    169.97455  0.032864375  0.032525274           12 
  432000   0.58540842   -5.2890896    169.85226   0.03276471  0.032443234            9 
  433000   0.57044803   -5.2886459    169.75678  0.032670667  0.032361076           10 
  434000   0.57917224   -5.2908262    169.81847  0.032607233  0.032279017           20 
  435000   0.57486664   -5.3029665     170.1703  0.032599675  0.032197467           21 
  436000   0.56708695   -5.2882046    169.52377  0.032401331  0.032116063           22 
  437000   0.57448689    -5.300275    169.91005  0.032400849  0.032034653           10 
  438000   0.57774013   -5.2890545    170.41003  0.032421999   0.03195335           14 
  439000   0.57395972   -5.2884791    169.82626  0.032237331  0.031872351           35 
  440000   0.56100219   -5.3110569    169.97137  0.032191547   0.03179157           15 
  441000   0.54703124   -5.3171772    170.02779  0.032129211  0.031711078            9 
  442000   0.54789744   -5.3285295    169.77446  0.032008758  0.031630156           16 
  443000   0.55854997   -5.3078171    170.26454  0.032028694   0.03154982            9 
  444000    0.5614686   -5.3226732    170.54925  0.032009994  0.031469916           20 
  445000   0.55028807   -5.3402058    170.03378  0.031841531  0.031389781           14 
  446000   0.56773456   -5.3386108    170.17874  0.031797223  0.031309656           31 
  447000    0.5545693   -5.3491069    169.78901  0.031653432  0.031229464           27 
  448000   0.55339321   -5.3295901     170.2176    0.0316625  0.031149478           26 
  449000   0.53695571   -5.3617175    170.51037   0.03164632  0.031070056           10 
  450000   0.53246717   -5.3476438     170.3019  0.031537388  0.030990881           12 
  451000   0.55606946   -5.3416538    170.36141  0.031478458  0.030911873           15 
  452000   0.54938571   -5.3742323    170.37376  0.031411092  0.030832991           21 
  453000   0.54757272   -5.3649731    170.10576   0.03129245  0.030753826           27 
  454000   0.54527605   -5.3973814     169.9689  0.031198403  0.030674915           17 
  455000   0.54161781   -5.3848756    170.24146  0.031179755  0.030596241           16 
  456000   0.53268417   -5.3813921    170.57346  0.031172051  0.030517682           18 
  457000   0.53591598   -5.3980876    170.15588  0.031027695  0.030439223           24 
  458000   0.52983212   -5.3899482    170.52152  0.031026478  0.030360764           33 
  459000   0.52445366    -5.388127     170.2136  0.030902978  0.030282805           20 
  460000   0.52225484   -5.3855224     170.3614  0.030862573  0.030204732           10 
  461000   0.52769637   -5.3951676     170.2367  0.030773084  0.030126914           17 
  462000   0.52439717    -5.388663    170.47364  0.030749214  0.030049263           17 
  463000   0.52931061   -5.3941824    169.81881   0.03056494  0.029971522           13 
  464000   0.53315593   -5.3902571    170.08308   0.03054653  0.029893653           20 
  465000   0.54619168   -5.4055053    170.20681  0.030503013  0.029815907           24 
  466000   0.52177545   -5.4066807    170.29384  0.030453118  0.029738068           20 
  467000    0.5230287    -5.407507    170.38555  0.030404273  0.029660716           10 
  468000   0.51986342   -5.4081134    169.96331  0.030264123  0.029583535           17 
  469000   0.51007006   -5.4148007     169.9059  0.030189392  0.029506313           25 
  470000   0.52402652   -5.4279689    170.09109  0.030157995  0.029429207           14 
  471000   0.52150622   -5.4226463    169.85363  0.030051952  0.029352283           39 
  472000   0.50417827   -5.4214519      169.969  0.030008652  0.029275515           21 
  473000   0.51860922   -5.3998543    170.20618  0.029986994  0.029198909           21 
  474000   0.49559936   -5.4330702    169.58381  0.029814312  0.029122557           19 
  475000   0.52363632   -5.4364431    170.15236  0.029851291   0.02904623           21 
  476000   0.50356942   -5.4251932    170.04071  0.029769032  0.028969991           24 
  477000   0.50726697   -5.4571621    169.76085  0.029657731  0.028893749           33 
  478000   0.49780142   -5.4339738    169.60042  0.029567716  0.028817337           30 
  479000    0.4976448   -5.4440025    169.61931  0.029509275  0.028740908           48 
  480000   0.49615664   -5.4434322    169.33296  0.029398083   0.02866471           32 
  481000   0.49749448   -5.4718091    169.44888  0.029357048  0.028588656           28 
  482000   0.49839778   -5.4633879    169.78637   0.02935449  0.028512457           18 
  483000   0.50903052   -5.4729547    169.11865  0.029178511  0.028436196           14 
  484000   0.49483847   -5.4733754    169.58571  0.029198642   0.02836034           22 
  485000   0.49456214   -5.4648252    169.67204  0.029153271  0.028284593           34 
  486000   0.48825519   -5.4632748    169.42577  0.029051058  0.028209117           23 
  487000   0.48554749   -5.4837434    169.52941   0.02900914  0.028133705           10 
  488000   0.49405155   -5.4850694    169.38936  0.028925778  0.028058557           50 
  489000   0.49680861   -5.4972779    169.43536  0.028874465  0.027983765           39 
  490000   0.48275358    -5.493391    169.23734   0.02878186  0.027909266           36 
  491000   0.48778252   -5.4745351    169.37452  0.028746525  0.027834491           25 
  492000   0.47873139   -5.5034399    169.67829  0.028739548  0.027760052           39 
  493000   0.48150941   -5.5142317    169.06459  0.028577517  0.027685764           42 
  494000    0.4877982   -5.5260174    169.36685  0.028570657  0.027611596           60 
  495000   0.47058568    -5.516265    169.10036  0.028468073  0.027537481           70 
  496000   0.47119264   -5.5285477    169.13032  0.028415712  0.027463526           30 
  497000   0.46983344   -5.5247792    169.12824  0.028358189  0.027389622           30 
  498000   0.47065415   -5.5212999    168.84559  0.028253948  0.027315965           36 
  499000   0.46623285   -5.5340067    169.02655  0.028227547  0.027242521           96 
  500000    0.4699583   -5.5298991     169.4142    0.0282357  0.027169285          127 
  501000   0.46620839   -5.5459103    168.75126  0.028069072  0.027096084           91 
  502000   0.47038493   -5.5574672    168.79878  0.028021046  0.027023024           93 
  503000   0.47534515   -5.5364625    169.04365  0.028005907  0.026950073           77 
  504000   0.46067757   -5.5273955    169.06058  0.027953139  0.026877643           46 
  505000   0.46396645   -5.5418416    169.01294  0.027889925  0.026805059           85 
  506000   0.46062875   -5.5517396    169.18441  0.027863044  0.026732728          125 
  507000   0.46564227   -5.5511732    168.93997  0.027767911  0.026660482           96 
  508000   0.45739461   -5.5381258    168.65331  0.027666226  0.026588499           44 
  509000   0.45403913   -5.5524509     168.8966  0.027651703   0.02651668           82 
  510000   0.45239947   -5.5687064    168.72901  0.027570099  0.026445139           39 
  511000   0.44589848   -5.5628639    168.86486  0.027538301  0.026373843           71 
  512000   0.45623942   -5.5836258    168.65481  0.027450327  0.026302604          162 
Loop time of 1261.09 on 48 procs for 500000 steps with 4000 atoms

Performance: 68512.020 tau/day, 396.482 timesteps/s
99.4% CPU use with 48 MPI tasks x no OpenMP threads

MPI task timing breakdown:
Section |  min time  |  avg time  |  max time  |%varavg| %total
---------------------------------------------------------------
Pair    | 83.701     | 91.301     | 96.235     |  30.6 |  7.24
Neigh   | 8.4911     | 8.8575     | 9.1752     |   6.3 |  0.70
Comm    | 82.787     | 87.528     | 94.394     |  30.7 |  6.94
Output  | 0.87092    | 0.87608    | 0.90734    |   1.3 |  0.07
Modify  | 1056.4     | 1060.4     | 1063.9     |   6.1 | 84.09
Other   |            | 12.12      |            |       |  0.96

Nlocal:        83.3333 ave          91 max          76 min
Histogram: 2 3 4 3 13 5 10 2 5 1
Nghost:        2321.96 ave        2339 max        2306 min
Histogram: 3 5 6 6 6 2 8 7 3 2
Neighs:        15787.9 ave       17514 max       14120 min
Histogram: 3 3 9 5 5 3 7 7 5 1
FullNghs:      31574.9 ave       34710 max       28824 min
Histogram: 5 2 2 10 7 5 10 3 3 1

Total # of neighbors = 1515593
Ave neighs/atom = 378.89825
Neighbor list builds = 26924
Dangerous builds = 0

#clear
#
#next RN
#
#jump SELF
Total wall time: 0:21:04
