
units lj                  # Use reduced LJ style units
atom_style atomic         # Uncharged point particles
atom_modify map hash      # Needed for indexing of clusters etc
                          # Used to be able to find where atoms are in relation to each other.

lattice fcc 1.0 spacing 1 1 1
Lattice spacing in x,y,z = 1.5874011 1.5874011 1.5874011
region box block 0 10 0 10 0 10 units lattice
create_box 2 box
Created orthogonal box = (0.0000000 0.0000000 0.0000000) to (15.874011 15.874011 15.874011)
  3 by 4 by 4 MPI processor grid
create_atoms 1 box
Created 4000 atoms
  using lattice units in orthogonal box = (0.0000000 0.0000000 0.0000000) to (15.874011 15.874011 15.874011)
  create_atoms CPU = 0.009 seconds
set type 1 type/fraction 2 1.0 78393
Setting atom values ...
  4000 settings made for type/fraction
mass 1 1.0
mass 2 1.0
pair_style lj/cut  3.5
pair_modify tail  yes
pair_coeff 1  1  1.0  1.0   # Intearaction between 1 and 1 set with epsilon = 1 and sigma = 1
pair_coeff 1  2  1.5  0.8
pair_coeff 2  2  0.5  0.88

write_data data.0
System init for write_data ...
Neighbor list info ...
  update every 1 steps, delay 10 steps, check yes
  max neighbors/atom: 2000, page size: 100000
  master list distance cutoff = 3.8
  ghost atom cutoff = 3.8
  binsize = 1.9, bins = 9 9 9
  1 neighbor lists, perpetual/occasional/extra = 1 0 0
  (1) pair lj/cut, perpetual
      attributes: half, newton on
      pair build: half/bin/atomonly/newton
      stencil: half/bin/3d
      bin: standard
WARNING: Not all mixed pair coeffs generated from mixing. Use write_data with 'pair ij' option to store all pair coeffs. (../write_data.cpp:312)


#############################
#   M E L T   S Y S T E M   #
#############################

velocity all create 2.4 8172548 mom yes dist gaussian # Assign velocities
                                                    # Temperature 2.4, random number seed, zero linear momentum
                                                                                # Gaussian distribution

timestep 0.002   # simulation timestep
thermo 1000       # output thermodynamic data every 1000 steps bf 100

# Define a fix  in this case with index 1 applied to all
# particles in the simulation. This fix is for simulations
# in the anisotropic NPT ensemble. Note that we use the MTK
# correction.
fix 1 all npt temp 2.4 2.4 0.1 iso 5.68 5.68 0.5 mtk yes tchain 5 pchain 5 # Use NPT ensemble
                                                                         # Set temperature and pressure and damping
                                                                         # Numbers of thermostats in chain and in barostat
run 10000          # run for 10000 steps
Per MPI rank memory allocation (min/avg/max) = 3.642 | 3.644 | 3.648 Mbytes
Step Temp E_pair E_mol TotEng Press Volume 
       0          2.4   -2.7016284            0   0.89747158   -1.6956087         4000 
    1000    2.3807174   -1.4145662            0    2.1556171    5.6686709    4291.6706 
    2000    2.3383981    -1.409952            0    2.0967682    5.8034177    4252.3033 
    3000    2.4431144   -1.4697802            0    2.1939753    5.5415899    4263.2321 
    4000    2.4038758   -1.4048873            0     2.200025    5.7595637    4276.8714 
    5000    2.3982051   -1.4423518            0    2.1540565    5.7747512    4234.3083 
    6000    2.4154097   -1.4051991            0    2.2170097    5.6333415     4309.802 
    7000    2.4189238   -1.4194131            0    2.2080655    5.6249462    4300.2868 
    8000    2.3613326    -1.430884            0    2.1102293    5.5356178    4294.2409 
    9000    2.3614576   -1.4449872            0    2.0963137    5.4902892    4285.8103 
   10000    2.4221891   -1.4101829            0    2.2221924    5.5726209    4321.1317 
Loop time of 2.76022 on 48 procs for 10000 steps with 4000 atoms

Performance: 626036.335 tau/day, 3622.895 timesteps/s
99.3% CPU use with 48 MPI tasks x no OpenMP threads

MPI task timing breakdown:
Section |  min time  |  avg time  |  max time  |%varavg| %total
---------------------------------------------------------------
Pair    | 1.0531     | 1.0894     | 1.1752     |   2.5 | 39.47
Neigh   | 0.20491    | 0.21018    | 0.22776    |   0.9 |  7.61
Comm    | 0.74114    | 0.88326    | 0.97338    |   4.8 | 32.00
Output  | 0.00025347 | 0.00025805 | 0.00032305 |   0.0 |  0.01
Modify  | 0.51271    | 0.56231    | 0.6282     |   3.9 | 20.37
Other   |            | 0.01479    |            |       |  0.54

Nlocal:        83.3333 ave          92 max          70 min
Histogram: 1 1 2 1 8 10 7 7 7 4
Nghost:        1559.17 ave        1594 max        1518 min
Histogram: 1 3 6 6 7 6 6 2 6 5
Neighs:        8823.88 ave       10217 max        7346 min
Histogram: 2 1 6 4 7 11 8 4 4 1

Total # of neighbors = 423546
Ave neighs/atom = 105.88650
Neighbor list builds = 910
Dangerous builds = 231

# Equilibrate just above the melting temperature to avoid step fn in T

fix 1 all npt temp 1.25 1.25 0.1 iso 5.68 5.68 0.5 mtk yes tchain 5 pchain 5
run 2000
Per MPI rank memory allocation (min/avg/max) = 3.643 | 3.645 | 3.649 Mbytes
Step Temp E_pair E_mol TotEng Press Volume 
   10000    2.4221891   -1.4101829            0    2.2221924    5.5726209    4321.1317 
   11000    1.2246264   -2.2270492            0  -0.39056882    5.6006812    3350.5262 
   12000     1.236346   -2.2545695            0  -0.40051411    5.7017189    3313.3888 
Loop time of 0.567525 on 48 procs for 2000 steps with 4000 atoms

Performance: 608959.682 tau/day, 3524.072 timesteps/s
99.7% CPU use with 48 MPI tasks x no OpenMP threads

MPI task timing breakdown:
Section |  min time  |  avg time  |  max time  |%varavg| %total
---------------------------------------------------------------
Pair    | 0.24617    | 0.27146    | 0.29918    |   2.2 | 47.83
Neigh   | 0.036632   | 0.039683   | 0.043781   |   0.7 |  6.99
Comm    | 0.17721    | 0.20831    | 0.23655    |   2.8 | 36.71
Output  | 4.9967e-05 | 5.1417e-05 | 6.6398e-05 |   0.0 |  0.01
Modify  | 0.039724   | 0.043395   | 0.046573   |   0.9 |  7.65
Other   |            | 0.004619   |            |       |  0.81

Nlocal:        83.3333 ave          94 max          76 min
Histogram: 3 5 7 8 9 8 4 2 1 1
Nghost:        1861.27 ave        1887 max        1838 min
Histogram: 3 4 3 7 11 7 4 4 3 2
Neighs:        11525.6 ave       13065 max       10216 min
Histogram: 2 1 12 7 5 8 6 2 3 2

Total # of neighbors = 553228
Ave neighs/atom = 138.30700
Neighbor list builds = 143
Dangerous builds = 14

#############################
# L I N E A R  Q U E N C H  #
#############################

# Define solid atoms. This closely follows ten Wolde  Ruiz-Montero and Frenkel  Faraday Discuss  1996  104  93-110
# Compute components of the per-atom q6 vector
compute q6 all orientorder/atom degrees 1 6 components 6 nnn NULL cutoff 1.3 # compute the Q6 parameter.
                                                                             # Use all neighbours within 1.3 unit cell.

# get number of connections
compute coord_number all coord/atom orientorder q6 0.5

# An atom is solid if it has 8 or more connections (of a possible 14)
variable is_solid atom c_coord_number>=8
group solid dynamic all var is_solid    # Must be dynamic to update
dynamic group solid defined

# do clustering
compute cluster solid cluster/atom 1.3 # Create a cluster where all atoms within are solid and max 1.3 units from another member

# define chunks one chunk per cluster
compute clus_chunks solid chunk/atom c_cluster nchunk every compress yes  # Says which atoms are in which chunk

# count the size of each chunk
compute size_chunks solid property/chunk clus_chunks count


# Find the maximum entry in the vector of chunk sizes
variable max_n equal max(c_size_chunks)


# Thermo style which includes this variable
# thermo_style custom step temp pe vol v_max_n

thermo ${N}  # Print the thermo information every 100 steps
thermo 1000  

# Reset the npt fix at a lower temperature (below freezing)
fix 1  all npt temp  ${temp} ${temp}  0.1  iso  5.68  5.68  0.5  mtk yes tchain  5  pchain  5
fix 1  all npt temp  0.45 ${temp}  0.1  iso  5.68  5.68  0.5  mtk yes tchain  5  pchain  5
fix 1  all npt temp  0.45 0.45  0.1  iso  5.68  5.68  0.5  mtk yes tchain  5  pchain  5

dump dmp2 all dcd ${N} traj.dcd
dump dmp2 all dcd 1000 traj.dcd


compute msd all msd com yes
variable twopoint equal c_msd[4]/6/(step*dt+1.0e-6)
fix 9 all vector 10 c_msd[4]
variable fit equal slope(f_9)/6/(10*dt)
thermo_style custom step temp pe c_msd[4] v_twopoint v_fit v_max_n

fix 1 all npt temp 1.25 ${temp} 0.1 iso 5.68 5.68 0.5 mtk yes tchain 5 pchain 5
fix 1 all npt temp 1.25 0.45 0.1 iso 5.68 5.68 0.5 mtk yes tchain 5 pchain 5
run 2000000 # 5000000  # Run for this many steps
Neighbor list info ...
  update every 1 steps, delay 10 steps, check yes
  max neighbors/atom: 2000, page size: 100000
  master list distance cutoff = 3.8
  ghost atom cutoff = 3.8
  binsize = 1.9, bins = 8 8 8
  4 neighbor lists, perpetual/occasional/extra = 1 3 0
  (1) pair lj/cut, perpetual
      attributes: half, newton on
      pair build: half/bin/atomonly/newton
      stencil: half/bin/3d
      bin: standard
  (2) compute orientorder/atom, occasional
      attributes: full, newton on
      pair build: full/bin/atomonly
      stencil: full/bin/3d
      bin: standard
  (3) compute coord/atom, occasional
      attributes: full, newton on
      pair build: full/bin/atomonly
      stencil: full/bin/3d
      bin: standard
  (4) compute cluster/atom, occasional
      attributes: full, newton on
      pair build: full/bin/atomonly
      stencil: full/bin/3d
      bin: standard
Per MPI rank memory allocation (min/avg/max) = 9.810 | 9.816 | 9.823 Mbytes
Step Temp PotEng c_msd[4] v_twopoint v_fit v_max_n 
   12000     1.236346   -2.2545695 1.3677073e-29 9.4979671e-32 8.3333333e+20            2 
   13000    1.2513677   -2.2165554    1.2198259 0.0078193962   0.10350816            3 
   14000    1.2479574   -2.2590165    2.5222975  0.015013675   0.10675052            1 
   15000    1.2492695   -2.2315724    3.8964819  0.021647121   0.10947394            1 
   16000    1.2666124   -2.2098533    5.2819481  0.027510145   0.11158701            1 
   17000    1.2237782   -2.2312215    6.7989931  0.033328397   0.11392406            1 
   18000    1.2549008   -2.2236133    8.1662492  0.037806708   0.11501744            1 
   19000    1.2321074   -2.2380912    9.6110292  0.042153636   0.11614644            3 
   20000    1.2212247   -2.2433848    11.107161  0.046279837    0.1170551            2 
   21000    1.2496505   -2.2206235    12.559929  0.049840988   0.11801737            2 
   22000    1.2326998   -2.2218369    13.933387  0.052777982   0.11851419            3 
   23000     1.243043   -2.2460646    15.158937  0.054923684   0.11802439            1 
   24000    1.2882939   -2.2100772     16.62634  0.057730347   0.11753363            1 
   25000    1.2476352    -2.238517    18.153424  0.060511413   0.11741903            3 
   26000    1.2354293   -2.2243115    19.542675  0.062636776    0.1175239            2 
   27000     1.244384   -2.2418923      21.0745  0.065044752    0.1178384            1 
   28000    1.2289057    -2.234853    22.495425  0.066950667    0.1181315            1 
   29000    1.2185019   -2.2304659    23.897159  0.068669996   0.11824193            2 
   30000    1.2441805   -2.2496146    25.518582   0.07088495   0.11851445            2 
   31000      1.25517   -2.2447339     26.94366  0.072429192   0.11867461            3 
   32000    1.2954261   -2.2448851    28.303539   0.07370713   0.11886289            1 
   33000    1.2296533    -2.214202    29.390233   0.07421776   0.11888207            1 
   34000    1.2399897    -2.220782     30.73709  0.075336004   0.11860946            1 
   35000    1.2786755   -2.2179347    32.078766  0.076378014    0.1183776            2 
   36000    1.2548068   -2.2215147    33.295941  0.077073936   0.11807717            1 
   37000    1.2467984   -2.2267584    34.511026  0.077727536   0.11769399            1 
   38000    1.2327254   -2.2258836    35.739079  0.078375172   0.11720673            1 
   39000     1.246404   -2.2353264     36.83775   0.07871314   0.11662698            3 
   40000    1.2475747   -2.2157053    38.350958  0.079897828   0.11615256            3 
   41000    1.2543797   -2.2677384    39.430194  0.080142669   0.11573383            1 
   42000    1.2072667   -2.2276657     40.53962  0.080435754   0.11523782            1 
   43000    1.2226842   -2.2382692    41.794941  0.080997947   0.11465117            3 
   44000    1.2438496   -2.2456427    43.291781  0.081992009   0.11417772            2 
   45000     1.247923   -2.2619326    44.546346  0.082493232   0.11384585            1 
   46000    1.2359416   -2.2423509      45.9234  0.083194565   0.11353387       -1e+20 
   47000    1.2273718   -2.2679448    47.040124  0.083404474   0.11317934            2 
   48000    1.2642235   -2.2377981    48.275062   0.08381087   0.11283618            2 
   49000    1.2650465   -2.2857084    49.553772  0.084275121   0.11251789            1 
   50000    1.2395403   -2.2571636    51.073395  0.085122324   0.11228938            1 
   51000    1.2272981   -2.2626447    52.036108   0.08502632   0.11206597       -1e+20 
   52000    1.2313869   -2.2503023    53.329546  0.085464015   0.11182845            1 
   53000    1.2115111   -2.2435702    54.984359  0.086453394   0.11171078            1 
   54000    1.2451584    -2.225636     56.36803    0.0869877   0.11163579            1 
   55000    1.2165914   -2.2496228    57.645244  0.087341278    0.1115519            2 
   56000    1.2460551   -2.2411357    59.182848  0.088069713   0.11145843            1 
   57000     1.213681   -2.2658542    60.190131  0.087997267   0.11134273            2 
   58000    1.2292689   -2.2480065    61.098141  0.087784685   0.11115546            2 
   59000    1.2028752   -2.2754892    62.283592  0.087971174   0.11094643            1 
   60000    1.2349528   -2.2465927    63.885254  0.088729519   0.11077185            2 
   61000    1.2410992   -2.2849484    64.973335  0.088761386   0.11056491            1 
   62000    1.2195611   -2.2477551    66.765797  0.089738973   0.11045536            1 
   63000    1.2298882   -2.2422964    67.900732  0.089815782   0.11034969            1 
   64000    1.2617308   -2.2498306    69.734295  0.090799862   0.11028733            2 
   65000    1.2464663   -2.2338971    70.946072  0.090956502   0.11027166            1 
   66000    1.2574767   -2.2417583    72.588117  0.091651662   0.11030072            1 
   67000    1.2376131   -2.2243507    74.142056  0.092216486   0.11034109            2 
   68000    1.2014748   -2.2400586    75.675989  0.092740182   0.11043535            1 
   69000    1.1899843   -2.2611586    77.012244  0.093009956   0.11054573            1 
   70000    1.2249276   -2.2358629    78.483576  0.093432828   0.11064118            1 
   71000     1.232184   -2.2474734    80.023745  0.093924583   0.11075875            1 
   72000    1.2171569   -2.2345961    81.534307   0.09436841   0.11089543            2 
   73000    1.2172542    -2.263781    82.039125  0.093651969    0.1110096            1 
   74000    1.2221477   -2.2468635    83.461084  0.093987707   0.11104161            1 
   75000     1.236407   -2.2666275    85.038534   0.09448726   0.11109783            2 
   76000    1.2233424    -2.241666        86.42  0.094758772   0.11114376            2 
   77000    1.2432692   -2.2352202    88.029591   0.09527012   0.11122822            1 
   78000    1.2131508   -2.2699807    88.876551  0.094953579   0.11126763            1 
   79000     1.207476   -2.2801406    90.059515  0.094999488   0.11126851            2 
   80000    1.2302737   -2.2740677    90.758464  0.094540066   0.11125203            3 
   81000    1.2152449    -2.224022    92.571767  0.095238443   0.11122957            1 
   82000    1.2237086   -2.2647424    94.103759  0.095633901   0.11122962            1 
   83000    1.2362559   -2.2353261    95.460403  0.095843778   0.11122625            1 
   84000    1.2213436   -2.2500463    96.298363   0.09553409   0.11123446            1 
   85000    1.2164702   -2.2373062    97.823573  0.095905463   0.11123371            2 
   86000    1.2178103    -2.249228    99.134218  0.096060288   0.11120913            5 
   87000    1.2383412    -2.239857    100.79005  0.096542196   0.11120651            1 
   88000    1.2157707   -2.2845918    102.04978  0.096638044   0.11120477            2 
   89000    1.2209562   -2.2382959    103.23695  0.096663815   0.11117861            1 
   90000    1.2316907   -2.2363624    104.53408  0.096790818   0.11114226            3 
   91000    1.2008669   -2.2420777      104.958  0.096115387   0.11107971            2 
   92000    1.2003775   -2.2628912    105.70209  0.095744644   0.11100049            1 
   93000    1.2279974   -2.2653797    107.30105  0.096147896   0.11092432            1 
   94000    1.2029372   -2.2984997    109.30005  0.096897204   0.11087617            2 
   95000    1.2155953   -2.2438548    110.50919  0.096937885   0.11083771            1 
   96000    1.2182008   -2.2697103    112.57148  0.097718301   0.11082142            1 
   97000    1.1993045   -2.2851794    113.83236  0.097794126   0.11079894            1 
   98000    1.2157507   -2.2486994    114.71275  0.097544855   0.11077631            1 
   99000    1.2046482   -2.2328359    116.82458  0.098337189   0.11078239            1 
  100000    1.2109465   -2.2499049     117.9949   0.09832908   0.11078938            1 
  101000    1.2458955   -2.2403692    118.98133  0.098169411   0.11079667            1 
  102000    1.2464694   -2.2751106    120.08222   0.09810639   0.11079551            1 
  103000    1.2031923   -2.2746992    120.77822   0.09771701   0.11077464            1 
  104000    1.2011372    -2.260934    123.07448  0.098617371   0.11076095            1 
  105000    1.2386406   -2.2412464    123.89679  0.098330786    0.1107561            1 
  106000    1.1999466   -2.2401307     125.1262  0.098369656   0.11072639            1 
  107000    1.2066867   -2.2823638    126.68702  0.098665903   0.11071268            2 
  108000    1.2060053   -2.2700093    127.93422  0.098714676   0.11070334            1 
  109000    1.2183662   -2.2444136    129.40653  0.098934659   0.11068857            2 
  110000    1.2128968   -2.2587206    130.94169  0.099198252   0.11067814            1 
  111000    1.2351901   -2.2717448    132.03276  0.099123691    0.1106553       -1e+20 
  112000    1.1874275   -2.2612641    133.01932  0.098972709   0.11063566            1 
  113000    1.2328203   -2.2932637    134.91965  0.099498269   0.11064068            1 
  114000    1.2090526   -2.2502615    136.19616  0.099558595   0.11063346            2 
  115000    1.2255051   -2.2781464    137.04301  0.099306531   0.11063294            1 
  116000    1.2281705   -2.2727368    138.72375  0.099657866   0.11063226            6 
  117000    1.2369035   -2.2712891    139.54212  0.099388976   0.11063583            2 
  118000    1.2081229    -2.266413     141.7188    0.1000839   0.11063076            1 
  119000    1.2414831   -2.2732539    142.97179    0.1001203   0.11060905            2 
  120000    1.2009295   -2.2575229    144.31099   0.10021597   0.11058224            2 
  121000    1.2155724   -2.2752486    144.55888  0.099558455   0.11056901            2 
  122000    1.1999921   -2.2943425    146.06831  0.099773437   0.11056085            2 
  123000    1.2028379   -2.2774285    148.21081   0.10041383   0.11056911            1 
  124000    1.2001335   -2.2788864    149.25097   0.10030307   0.11058105            5 
  125000    1.2115987   -2.2710008    150.51852   0.10034568   0.11058376            1 
  126000    1.1982065    -2.252126    151.73664   0.10035492   0.11058767            1 
  127000    1.1914453   -2.2535527    153.05617   0.10043056   0.11058073            4 
  128000    1.2140982      -2.2654    153.99012   0.10025398   0.11058412            1 
  129000    1.1660112   -2.2761643     156.3473   0.10099955   0.11057652            2 
  130000    1.2032874   -2.2873681    156.53443   0.10034258   0.11055497            1 
  131000    1.2124511   -2.2496806    158.72536   0.10097033   0.11053004            5 
  132000    1.2002314   -2.2718915     158.3289   0.09995511   0.11050345            2 
  133000    1.2036939   -2.2930377    159.20949  0.099755317   0.11045925            2 
  134000    1.2120166   -2.2728146     161.2957   0.10030827   0.11039358            3 
  135000    1.2158978   -2.2481422    162.17153   0.10010588   0.11033414            1 
  136000    1.2215414   -2.2927598    162.56563  0.099611291   0.11026869            2 
  137000    1.1824616   -2.2816338    164.04595  0.099784644   0.11020503            2 
  138000    1.1828174   -2.2715467    165.00977  0.099643583    0.1101335            6 
  139000    1.2267951   -2.2583204    166.94535   0.10008714   0.11005833            1 
  140000    1.2052288   -2.3009957    167.10546  0.099467535   0.10997668            1 
  141000    1.2030415    -2.296616    168.92143  0.099835361   0.10989264            2 
  142000    1.2135989   -2.2941883    169.73361  0.099608924   0.10980614            1 
  143000    1.2073066   -2.2797972    170.63829  0.099439563   0.10971502            2 
  144000    1.2076595   -2.2916173    170.99009    0.0989526    0.1096135            1 
  145000    1.1694077   -2.2858484    171.77304  0.098720136   0.10951268            1 
  146000    1.1957339   -2.2706976    173.50745  0.099033932   0.10941646            3 
  147000    1.1786354   -2.2892236    175.86988  0.099699478   0.10931598            1 
  148000    1.2206365   -2.2826768    176.35513  0.099299059   0.10921925            1 
  149000     1.183371   -2.2861237    178.17701  0.099651572    0.1091295            1 
  150000    1.2118062   -2.2824913    179.10333  0.099501848   0.10904618            1 
  151000    1.1712663    -2.266106    179.69863  0.099171429   0.10895921            1 
  152000    1.1862998   -2.2477128    181.29582   0.09939464   0.10886675            1 
  153000    1.1815999   -2.2968294    182.25318  0.099266439   0.10876466            1 
  154000    1.2056367   -2.2629365    182.40493  0.098703965   0.10866916            1 
  155000    1.2005706   -2.2939885    183.45082  0.098629471   0.10856638            1 
  156000    1.1775178   -2.2830044    185.94528  0.099329741   0.10847293            4 
  157000    1.1928066   -2.2727286    186.71359   0.09910488   0.10838547            2 
  158000    1.1907785   -2.2883037    187.65847  0.098975983   0.10829619            1 
  159000    1.1870023   -2.3160556    189.63771  0.099390832   0.10821681            4 
  160000    1.1845022   -2.2915086    190.79405  0.099371901   0.10814379            1 
  161000    1.2079242   -2.2861428    193.17294  0.099985993   0.10807487            1 
  162000    1.2066902   -2.2932291    195.05814   0.10033855   0.10802426            3 
  163000    1.1842822   -2.2970759    195.95089   0.10017939   0.10797224            1 
  164000    1.2071169   -2.2989984    196.34501  0.099768806   0.10791718            3 
  165000    1.1765526   -2.2626583    197.23262  0.099612432    0.1078547            1 
  166000     1.181645   -2.2690199     199.2854   0.10004287   0.10779389            1 
  167000    1.2123658    -2.261887    200.25518  0.099927735   0.10772781            1 
  168000    1.2312031   -2.2723192    202.19488   0.10029508   0.10766591            1 
  169000    1.1524269   -2.3127465    202.85647   0.10002785    0.1076106            2 
  170000    1.1874088   -2.2711444    203.25323  0.099633934   0.10755138            1 
  171000    1.1782435   -2.2978634    204.80226  0.099806171   0.10749389            1 
  172000    1.1841475   -2.3011572    206.93699   0.10026017   0.10744414            1 
  173000     1.199348   -2.2676882     208.1991   0.10028858     0.107398            2 
  174000    1.1789339   -2.3005551    209.80964   0.10048354   0.10736112            1 
  175000      1.18254   -2.3030285    210.50486   0.10024041   0.10732869            3 
  176000    1.1806811   -2.3095342    212.28028   0.10051149    0.1072917            4 
  177000    1.1785767   -2.3021355    213.60363   0.10056668    0.1072548            1 
  178000    1.1934026   -2.2956105    214.76465   0.10054525   0.10722179            2 
  179000    1.1978848   -2.2975096    215.24957    0.1002093   0.10719398            1 
  180000    1.1873676   -2.3124847    218.20328   0.10102004   0.10717515            2 
  181000    1.2009326   -2.2858054    218.95421   0.10080765    0.1071568            3 
  182000    1.1622236   -2.2716793    221.50396   0.10142123   0.10713414            1 
  183000    1.2042081   -2.3002444    220.88868   0.10058683   0.10711556            1 
  184000    1.1766841   -2.2699768    223.30831   0.10113601    0.1070925            3 
  185000    1.1709983   -2.3026923    223.91621   0.10086316   0.10707873            1 
  186000    1.1919625   -2.2799257    225.09093   0.10084719   0.10705356            1 
  187000    1.1415925   -2.3194989    225.64898   0.10055659   0.10703524            1 
  188000    1.1860446   -2.2982352    227.66718    0.1009163   0.10701492            1 
  189000    1.1780843   -2.2862781    227.61996   0.10036153   0.10699469            1 
  190000    1.1806878   -2.2740819    230.34034   0.10102646   0.10697178            2 
  191000    1.1761888   -2.3034595     231.9032   0.10117941   0.10694248            3 
  192000    1.1754829   -2.2789381    231.88664   0.10064524   0.10691437            1 
  193000    1.1743405   -2.3156328    233.03508   0.10061964    0.1068897            1 
  194000    1.1695256    -2.309151    235.67937   0.10123684   0.10687648            1 
  195000    1.1797491   -2.2643703    237.50428   0.10149756   0.10686611            2 
  196000    1.1923522   -2.3003226    238.49578   0.10140127   0.10686155            2 
  197000    1.1542243   -2.2780672    240.00492   0.10152492   0.10685453            2 
  198000    1.2121322   -2.3005849    241.42597   0.10161026   0.10685577            2 
  199000    1.1737277   -2.2758592    242.58277   0.10158407   0.10686146            2 
  200000     1.154707   -2.3077867    243.46652   0.10144438   0.10686052            2 
  201000    1.1939228   -2.3397567    245.42808   0.10175294   0.10686844            2 
  202000     1.171272   -2.2839555    247.95019   0.10228968   0.10687876            2 
  203000    1.1554168   -2.3099289    248.96866   0.10220388    0.1068894            3 
  204000     1.170738    -2.299092    249.49759   0.10191895   0.10689521            2 
  205000    1.1722754   -2.3150326    250.95194   0.10201299   0.10689483            2 
  206000    1.1815957   -2.3027038    253.72239   0.10263851   0.10690319            2 
  207000    1.1912107   -2.2775323    253.59318   0.10209065   0.10691137            1 
  208000    1.1613458   -2.3248114    253.95853    0.1017462   0.10692325            1 
  209000    1.1763474   -2.3216838    255.90323   0.10203478    0.1069245            4 
  210000    1.2068767   -2.3015381    255.43825   0.10136438   0.10692267            2 
  211000    1.1704018   -2.2785565    259.38299   0.10244194   0.10692338            2 
  212000    1.1777169   -2.2987603    259.59831   0.10204336   0.10692049            1 
  213000    1.1373018   -2.2666493    260.02428   0.10173094   0.10692168            1 
  214000    1.1699677   -2.3127566    262.38587   0.10217518   0.10692463            2 
  215000    1.1467896   -2.2963614    263.08133   0.10196951   0.10691956            2 
  216000    1.1666157   -2.3167058    264.34918   0.10198657   0.10691422            1 
  217000    1.1758958   -2.3068848    266.44442   0.10232121   0.10691397            1 
  218000    1.1823597   -2.3089545    265.37287   0.10144223   0.10690728            1 
  219000    1.1446073   -2.3090754    266.78693    0.1015171   0.10689319            2 
  220000    1.1519478   -2.3045996    269.01542   0.10189978   0.10687781            2 
  221000    1.1892024   -2.3243094    269.64276   0.10167525   0.10686248            3 
  222000    1.1649791   -2.3066334     270.0964   0.10138754   0.10684596            1 
  223000    1.1687739    -2.299512    271.88095   0.10159976   0.10682559            1 
  224000    1.1608984    -2.321487    273.50795   0.10175147    0.1068021            4 
  225000     1.168078   -2.3067841    273.05955   0.10113317   0.10677418            1 
  226000    1.1623641   -2.2915217    275.10368   0.10143941    0.1067486            1 
  227000    1.1878683   -2.3120641     274.9272   0.10092775    0.1067186            1 
  228000    1.1425492   -2.3052744    275.76358   0.10079078   0.10668825            3 
  229000    1.1690214   -2.3011943    279.43406   0.10168634   0.10665737            1 
  230000     1.158075    -2.318942    279.10095   0.10112353   0.10662661            1 
  231000    1.1470019   -2.3097592    280.19508   0.10108048   0.10659076            1 
  232000    1.1837562   -2.3116418    281.56538   0.10113699   0.10655961            2 
  233000     1.143184   -2.3020047    283.17644   0.10127913   0.10652562            3 
  234000    1.1839029   -2.3415617    281.35246   0.10019675    0.1064833            5 
  235000    1.1574527   -2.3170154    284.54446   0.10090229   0.10643912            1 
  236000    1.1554685   -2.3264228    284.49803   0.10045834   0.10639444            2 
  237000    1.1733282   -2.3176353    286.26129   0.10065446   0.10634998            2 
  238000    1.1649192   -2.3219309    288.20627   0.10091256    0.1063011            1 
  239000    1.1815576   -2.2932294    287.63938   0.10029267   0.10625556            2 
  240000    1.1571278   -2.2935533    289.76751   0.10061372    0.1062096            2 
  241000    1.1341364   -2.3229905    292.36356    0.1010939   0.10617072            1 
  242000    1.1476057   -2.3110137     292.7518   0.10080985   0.10613784            1 
  243000    1.1704897   -2.3138302    294.16483   0.10087957   0.10611008            2 
  244000    1.1297608   -2.3205383    296.07693   0.10111917    0.1060807            2 
  245000    1.1403853   -2.3019905    297.10693   0.10105678   0.10605012            1 
  246000    1.1519597   -2.3104146     298.7831   0.10121379   0.10601684            2 
  247000     1.160332   -2.3267854    299.92332    0.1011887   0.10598607            2 
  248000    1.1494863   -2.3392112    300.55412   0.10099265   0.10595838            3 
  249000    1.1720571   -2.3433599    301.07076   0.10075996   0.10592223            2 
  250000    1.1624331   -2.3336265    301.50259   0.10050086   0.10588697            3 
  251000    1.1518823    -2.330868      303.835   0.10087483   0.10585409            1 
  252000    1.1703604   -2.3091797    304.66111   0.10074772   0.10581711            2 
  253000    1.1429306   -2.3088586    306.53619   0.10096713   0.10577857            1 
  254000    1.1501266   -2.3396555     306.0762    0.1004187   0.10573884            3 
  255000     1.176152   -2.3195087    309.42908   0.10112061   0.10570252            2 
  256000    1.1431963   -2.3389052     307.8637   0.10021605   0.10567047            1 
  257000    1.1622055   -2.3174561    310.90132   0.10081106   0.10563933            2 
  258000    1.1456734   -2.3081219    311.72794   0.10068732   0.10560636            2 
  259000    1.1087939   -2.3136127     313.2986   0.10080393   0.10557217            3 
  260000    1.1233341   -2.3147997    312.15505   0.10004969   0.10553909            1 
  261000    1.1377781   -2.3006969    315.55183    0.1007509   0.10550448            1 
  262000    1.1473214   -2.3090658    316.92165   0.10080205   0.10546646            2 
  263000    1.1568339   -2.3081307    316.08341   0.10015317   0.10542745            3 
  264000    1.1512124   -2.3303266    318.26276   0.10046173   0.10538335            4 
  265000    1.1619566   -2.3174829    318.45091   0.10014179   0.10534015            3 
  266000    1.1287436   -2.3222477    319.59028   0.10012227   0.10529519            1 
  267000    1.1523679   -2.2980812    320.34184  0.099981848    0.1052453            1 
  268000    1.1411791   -2.3213344    321.12442  0.099852119   0.10519748            1 
  269000    1.1469214   -2.3259217    322.66639  0.099958609   0.10514929            2 
  270000    1.1756786   -2.3543197    322.98457  0.099686594   0.10510057            1 
  271000    1.1470025   -2.3184096    323.80868  0.099572163   0.10504876            1 
  272000    1.1442749   -2.3041413    325.52995  0.099733441   0.10499844            2 
  273000    1.1099371   -2.3447379    327.53299  0.099979544   0.10495464            1 
  274000    1.1807355   -2.3563921    328.82036   0.10000619   0.10491061            1 
  275000    1.1482848   -2.3487306    328.03088  0.099403296   0.10486353            2 
  276000    1.1367882   -2.3238233    329.99603  0.099636481   0.10482011            1 
  277000     1.133169   -2.3234671    332.25646  0.099956818   0.10477472            1 
  278000    1.1663628   -2.3332321    332.60257   0.09970101   0.10473109            2 
  279000    1.1076972    -2.328244    335.52069   0.10021526   0.10469017            3 
  280000    1.1435428   -2.3290867    335.39147  0.099818888   0.10464464            1 
  281000    1.1352781   -2.3223633     337.0024    0.0999414   0.10459949            4 
  282000    1.1616953   -2.3679389    338.74229   0.10010115   0.10455285            1 
  283000    1.1572269    -2.357266    337.64482  0.099424269   0.10450997            1 
  284000    1.1642702   -2.3711475    339.87966  0.099729947   0.10446488            1 
  285000    1.1247222   -2.3438561    340.69766  0.099619198   0.10441758            1 
  286000    1.1298287   -2.3287159    341.09903   0.09938783   0.10437193            3 
  287000    1.1366401   -2.3216812    344.90274   0.10014597    0.1043294            1 
  288000    1.1374962   -2.3671243    342.91804  0.099223971   0.10428122            1 
  289000    1.1283031   -2.3442001    343.41701  0.099024511   0.10423286            3 
  290000    1.1393838   -2.3410047    345.59677  0.099309416   0.10418446            1 
  291000    1.1481817   -2.3359201    347.22089  0.099433244   0.10413273            2 
  292000    1.1413197   -2.3228849    347.50762  0.099174548   0.10408679            2 
  293000    1.1604204   -2.3327179    349.61272  0.099434789   0.10404308            1 
  294000    1.1396498   -2.2860161    350.37716  0.099313253   0.10399962            3 
  295000    1.1249369   -2.3452569    351.34919  0.099251184   0.10395663            2 
  296000    1.1312648   -2.3282832    351.84725  0.099056096   0.10391239            2 
  297000    1.1180151   -2.3387337     353.8075  0.099272587   0.10386857            3 
  298000    1.1472589   -2.3664177    354.17994  0.099043606   0.10382338            2 
  299000    1.1462489   -2.3136614    355.81244  0.099167347   0.10377659            3 
  300000    1.1330917   -2.3676346     354.4326  0.098453499   0.10372547            2 
  301000    1.1271484   -2.3358767    357.68387  0.099026542   0.10367679            3 
  302000    1.1468078   -2.3533833    357.81514  0.098734863   0.10362704            1 
  303000    1.1292578   -2.3481016    359.75123  0.098941481    0.1035774            1 
  304000    1.1230084   -2.3339515    360.36768  0.098785001   0.10352984            2 
  305000    1.1429441   -2.3263233    363.07902  0.099201918   0.10348497            2 
  306000    1.1447661   -2.3222053    361.89548  0.098555413   0.10343638            1 
  307000    1.1085964   -2.3281115    363.96715   0.09879673   0.10338474            1 
  308000    1.1189908    -2.335645    366.09597  0.099051938   0.10333348            1 
  309000    1.1155214   -2.3406623    364.65387  0.098342466   0.10328256            1 
  310000    1.1316151   -2.3310686     365.7428  0.098317958     0.103226            2 
  311000    1.1539985   -2.3400829    366.30186  0.098151623   0.10316915            2 
  312000    1.1543554   -2.3271488    367.68927  0.098207603   0.10311186            1 
  313000    1.1345916   -2.3566436    367.96187  0.097966419   0.10305173            1 
  314000    1.1214279   -2.3377284    370.88062  0.098429038   0.10299186            3 
  315000    1.1135732   -2.3645348     370.6447  0.098054153   0.10293686            1 
  316000    1.1131921   -2.3262851    371.87628   0.09806864   0.10288076            2 
  317000    1.1192263   -2.3493743    372.79783  0.098001533   0.10282033            1 
  318000    1.1314958   -2.3678719    373.33772  0.097834832   0.10276239            2 
  319000    1.1152205   -2.3515228    372.93584  0.097423154   0.10270423            3 
  320000    1.1547422   -2.4036608    374.87414  0.097623475   0.10264464            1 
  321000     1.125494   -2.3466434    377.31578  0.097953215   0.10258314            1 
  322000    1.1395888   -2.3666766    374.73626  0.096981434   0.10251938            1 
  323000    1.1273854   -2.3311005    377.80808  0.097473704   0.10245698            1 
  324000    1.1248818   -2.3353109    379.40765  0.097584271    0.1023925            3 
  325000     1.088693   -2.3637258    379.50742  0.097309593   0.10233049            1 
  326000    1.1318866    -2.369503    381.09376  0.097416604   0.10226754            3 
  327000    1.1177512   -2.3272388    382.89572   0.09757791   0.10220903            1 
  328000    1.1327788   -2.3476081    383.14193   0.09734297   0.10215289            3 
  329000    1.1213734    -2.359999    385.39997  0.097619041   0.10209149            1 
  330000    1.1430772   -2.3762948    384.99905  0.097221983   0.10203069            3 
  331000    1.1288369   -2.3642679    385.67412  0.097098216   0.10197186            2 
  332000    1.1053994   -2.3697824    387.08188  0.097159106   0.10191523            2 
  333000    1.1116249   -2.3408074    388.67305  0.097265529   0.10186004            1 
  334000    1.1135447   -2.3390583    389.05523  0.097069668   0.10180242            3 
  335000    1.1302748   -2.3498165    393.69856  0.097934964   0.10174996            1 
  336000    1.1365159   -2.3686696    391.83539  0.097181397   0.10169635            2 
  337000    1.1242456   -2.3430437     393.3767  0.097274159   0.10164407            1 
  338000    1.1036082   -2.3714242    395.86583  0.097600056   0.10159387            2 
  339000    1.1141836   -2.3562645     394.9492  0.097086823   0.10154048            5 
  340000    1.1197712   -2.3589933    395.54984  0.096948489   0.10149031            1 
  341000    1.1242499   -2.3637758    397.43459  0.097124778   0.10143686            1 
  342000    1.1253562   -2.3328635    400.16236  0.097505447   0.10138431            2 
  343000    1.1085556   -2.3918752    398.74391  0.096876557    0.1013342            3 
  344000     1.134222   -2.3689794    400.85088  0.097105349   0.10127982            1 
  345000    1.1211098    -2.341739    401.11363  0.096887349   0.10122851            1 
  346000    1.1192994   -2.3599488    402.50664  0.096942832   0.10117548            1 
  347000    1.1138788   -2.3421653    403.32982  0.096861148   0.10112034            3 
  348000    1.1017466   -2.3485719    404.93216  0.096966514   0.10106577            2 
  349000    1.0998751   -2.3495236    403.52277  0.096352142   0.10101089            1 
  350000    1.1253546   -2.3281874    407.77222  0.097088623   0.10095566            2 
  351000    1.0922798   -2.3535006    406.79142  0.096579159   0.10089821            1 
  352000    1.1400682   -2.3661651     404.2656  0.095706817   0.10083528            2 
  353000    1.1152144   -2.3711325    407.50409   0.09620021   0.10077287            1 
  354000    1.1016088   -2.3681079    408.94232  0.096267025   0.10071156            1 
  355000    1.1430023   -2.3502097    409.59222  0.096148409   0.10065077            5 
  356000    1.1059183   -2.3812222    412.92999  0.096659641   0.10059129            1 
  357000    1.1305999   -2.3795638    412.62796  0.096318385   0.10052969            2 
  358000    1.1071405   -2.3224147    413.79457  0.096320896   0.10047027            2 
  359000    1.1059892   -2.3664191    414.45633  0.096206204   0.10041091            2 
  360000      1.14568   -2.3867093    414.90704  0.096043296   0.10035254            2 
  361000     1.124749   -2.3923451    416.78763  0.096211363   0.10029672            1 
  362000    1.1212109   -2.3235228    416.76418  0.095940189   0.10023867            1 
  363000    1.0913472   -2.3505675    418.55335  0.096086627   0.10018053            2 
  364000    1.1332496   -2.3548696    419.72142  0.096090068   0.10012208            1 
  365000    1.0991744   -2.3662625    418.84694  0.095627156   0.10006365            1 
  366000    1.1190344   -2.3775841    422.39687  0.096174151    0.1000053            1 
  367000    1.1038685   -2.3850224    422.36709  0.095905334  0.099946424            3 
  368000    1.1062659   -2.3610732     422.6332  0.095704981  0.099888028            3 
  369000     1.101207   -2.3842601    423.08016  0.095546557  0.099826267            1 
  370000    1.0954015   -2.3667491    424.42992  0.095592323  0.099764851            2 
  371000     1.099805   -2.3471936    427.05229  0.095923694  0.099702595            1 
  372000     1.089563   -2.3809682    424.59384  0.095115108  0.099640347            1 
  373000    1.1015191    -2.383994    427.41542  0.095490487   0.09957957            2 
  374000     1.121626   -2.3745783    428.89731  0.095565354  0.099519424            1 
  375000    1.1075322   -2.3613739    430.84967  0.095744371  0.099459947            3 
  376000    1.0948959   -2.3819919    431.59116  0.095654068  0.099398804            3 
  377000    1.1060929   -2.3628061    431.63942  0.095411011  0.099342777            2 
  378000    1.1027909   -2.3783322    431.67971  0.095167485   0.09928186            2 
  379000    1.0991313   -2.3852496    433.59439  0.095337376  0.099224419            3 
  380000    1.1297649   -2.3561093    433.17973  0.094995554  0.099163505            1 
  381000     1.066239   -2.3770149    434.30323  0.094991957   0.09910233            2 
  382000    1.1036184   -2.3989738    432.91552  0.094440558  0.099038772            2 
  383000    1.1017566   -2.3944916    435.06637   0.09466196  0.098975708            1 
  384000    1.1283843   -2.3632118    436.54909  0.094737216  0.098913482            1 
  385000    1.1064192   -2.3786634    438.54175  0.094922457  0.098849989            3 
  386000    1.1153185   -2.3816685    438.75896  0.094723438  0.098786684            1 
  387000     1.075786   -2.3792023     438.2212  0.094362877  0.098721239            2 
  388000    1.1107146    -2.347615    439.22487  0.094335238  0.098654215            2 
  389000    1.0787361   -2.3998101    438.63098  0.093965505  0.098586775            5 
  390000    1.1346977   -2.3671849    441.24653  0.094283447   0.09851997            2 
  391000    1.0995182   -2.3925624    442.00886  0.094204786  0.098454334            1 
  392000    1.0802842   -2.3505766    442.75706  0.094123524  0.098389504            2 
  393000     1.056512   -2.3668189    443.06613  0.093949561  0.098323156            2 
  394000    1.0880622   -2.3925862    444.58003  0.094031309  0.098260506            4 
  395000      1.09385   -2.3786602    445.60603  0.094009711  0.098197587            5 
  396000    1.0934084   -2.3864263    446.55669  0.093972367  0.098135301            2 
  397000    1.0822609   -2.3827713    447.72558  0.093981019  0.098074319            1 
  398000    1.0887838   -2.3839043    449.54701  0.094126258  0.098010054            2 
  399000    1.0924422   -2.3892933    448.79742  0.093733797  0.097945915            1 
  400000    1.0539377    -2.386335    450.42266  0.093838055  0.097881799            2 
  401000    1.0787205   -2.3937801    451.07717  0.093740059  0.097818982            1 
  402000    1.0939146   -2.3725267    452.68961   0.09384113  0.097756824            1 
  403000    1.0895611   -2.3873114    452.72405  0.093615394  0.097693496            4 
  404000    1.0791296   -2.3796744     453.8406  0.093613985  0.097630559            2 
  405000    1.0965456   -2.3707968    455.11732  0.093645539  0.097565577            1 
  406000    1.0796195   -2.3657946    455.36072  0.093464845  0.097500345            2 
  407000     1.080258   -2.3735407    454.25823  0.093009466  0.097435311            2 
  408000    1.0929906   -2.3550552    457.31282  0.093405396  0.097368498            2 
  409000    1.0875479   -2.3929385    458.18511   0.09335475  0.097305332            1 
  410000    1.1001572   -2.3994796    459.29484   0.09335261  0.097244784            1 
  411000    1.0905386   -2.3843897    460.61338  0.093392819  0.097182158            1 
  412000    1.0835177   -2.3868583    464.15003  0.093881478   0.09712246            1 
  413000    1.1028909   -2.4114896    462.65405   0.09335231  0.097060953            1 
  414000    1.0942648   -2.3855816    465.47583  0.093694812  0.097001144            2 
  415000    1.0846018   -2.3769711    464.80274  0.093333884  0.096942642            3 
  416000    1.0724233   -2.4004295    464.21548  0.092991882   0.09688709            1 
  417000    1.1011266   -2.3585884    467.31765  0.093388818  0.096830873            1 
  418000    1.0761382   -2.3895203    469.76411  0.093653132  0.096775074            2 
  419000    1.0722582   -2.3949445      469.279  0.093333134  0.096717506            1 
  420000    1.0954793   -2.3672548    470.41905  0.093337114  0.096660669            2 
  421000    1.0912321   -2.3779796    470.29312  0.093090483  0.096601271            1 
  422000    1.0916256    -2.390736    467.34679   0.09228807   0.09654196            2 
  423000     1.101282   -2.4035035    473.01267  0.093186106  0.096482492            1 
  424000    1.0889838   -2.4314133    472.83834  0.092932063  0.096423253            2 
  425000    1.0745731   -2.3884432    474.55364  0.093049733  0.096362737            2 
  426000    1.0895674   -2.3907856    475.79865  0.093074854  0.096302215            2 
  427000    1.0914367    -2.390776    473.83422    0.0924735  0.096242244            2 
  428000     1.119762   -2.3838939     475.4394  0.092569976  0.096183898            5 
  429000     1.072458   -2.3857679    477.48794  0.092752124   0.09612768            1 
  430000    1.0909936   -2.3831584    481.55689  0.093324978  0.096073542            2 
  431000    1.0602447    -2.398142     480.2594   0.09285758  0.096021126            1 
  432000    1.0624647   -2.3951584    482.76749  0.093126446  0.095968259            2 
  433000    1.0645788   -2.3883254    485.24714  0.093388594  0.095915331            2 
  434000    1.0887989   -2.3889004    484.83909  0.093095063  0.095863115            2 
  435000    1.0707435    -2.410783    485.67792  0.093041747  0.095812004            1 
  436000    1.0671989   -2.4002779    485.66614  0.092826098   0.09575865            2 
  437000    1.0689354   -2.3782224    487.46586  0.092956876  0.095705408            2 
  438000    1.0635248   -2.3724998    488.70144  0.092979726  0.095652754            1 
  439000    1.0995821    -2.391001    487.70142  0.092578099  0.095601527            1 
  440000    1.0848994   -2.3886194    489.69373  0.092745025  0.095550605            2 
  441000    1.0866654    -2.399455    490.21872  0.092633922  0.095500811            3 
  442000     1.084622   -2.3954583    491.99863  0.092759923  0.095448407            4 
  443000    1.0589765   -2.3980893    491.96183   0.09254361  0.095395578            1 
  444000    1.0817757   -2.4057684    494.04886  0.092726888  0.095342851            2 
  445000    1.0944937   -2.4096019     493.8145  0.092474625  0.095288954            1 
  446000    1.0610144   -2.3779037    495.41813  0.092566914  0.095234331            2 
  447000    1.0870408   -2.4251745    492.80862  0.091873345  0.095178845            2 
  448000    1.0621115   -2.4056479    496.67996  0.092388385  0.095124729            2 
  449000    1.0634719   -2.3904742    496.08383  0.092071979  0.095071949            3 
  450000    1.0810317    -2.396516    497.85686  0.092195714  0.095018462            1 
  451000    1.0723001   -2.4157075     499.1722  0.092234331  0.094967256            1 
  452000    1.0581502   -2.4085455    500.54156  0.092282735  0.094917783            1 
  453000    1.0613627   -2.4147924    501.40859   0.09223852  0.094868736            1 
  454000    1.0860082   -2.4155096    502.08056  0.092158694  0.094819045            1 
  455000    1.0626291   -2.4199987    502.24783  0.091986783  0.094768999            2 
  456000    1.0575901   -2.4141303    503.55721  0.092024343  0.094719859            1 
  457000     1.072307   -2.3878835     506.4978  0.092359191  0.094669409            2 
  458000    1.0612201   -2.3752724    507.13741  0.092273911  0.094620551            3 
  459000    1.0853825   -2.4194446    507.77679   0.09218896  0.094571317            1 
  460000    1.0729849    -2.386459     510.8278  0.092541268   0.09452447            2 
  461000    1.0527642   -2.4351818    507.93403  0.091817431  0.094476791            2 
  462000    1.0979607   -2.3873878     510.7216    0.0921215  0.094430479            1 
  463000       1.0853   -2.3986343    514.57852  0.092616725  0.094383853            3 
  464000     1.070854   -2.3894308    512.67215  0.092074739  0.094339166            3 
  465000    1.0575013   -2.3973367    511.29846  0.091630548    0.0942908            6 
  466000    1.0637077     -2.41426    514.39048  0.091986853  0.094244167            2 
  467000    1.0711459   -2.4113585    515.77865   0.09203759   0.09419669            1 
  468000    1.0755525   -2.3941265    518.44322  0.092315388  0.094150843            3 
  469000    1.0590976   -2.3969167     520.1831  0.092427701  0.094105844            1 
  470000    1.0623267   -2.4200259     519.8173  0.092166188  0.094063459            1 
  471000    1.0725489   -2.3936458    520.81246  0.092146579  0.094019851            2 
  472000    1.0764986   -2.4098562    520.27338  0.091856176  0.093976826            1 
  473000    1.0354386   -2.4391647    521.99138  0.091964655  0.093933347            4 
  474000    1.0945772   -2.4076794    522.96626  0.091942028   0.09389051            2 
  475000    1.0601998   -2.4285169     522.9488  0.091745404  0.093846882            2 
  476000    1.0736561   -2.4122059    527.01927  0.092265278  0.093803051            1 
  477000    1.0594155   -2.4072053    525.72569  0.091845857  0.093759875            1 
  478000    1.0528678    -2.418885    525.72779  0.091654078  0.093717336            2 
  479000    1.0663828   -2.4274835    527.56067  0.091781605  0.093673655            3 
  480000    1.0888209   -2.4298204    528.14912  0.091692555  0.093629015            2 
  481000    1.0487795   -2.4219869    527.93284  0.091464455   0.09358203            1 
  482000     1.047669   -2.4145207    527.79707  0.091251223  0.093535608            1 
  483000    1.0747607   -2.4025403    530.79932  0.091580283   0.09348936            2 
  484000    1.0617289   -2.4086257    528.81772  0.091049884  0.093443396            2 
  485000    1.0771754   -2.4213479    529.86688  0.091042419  0.093396677            3 
  486000    1.0781231   -2.4206834     531.2346   0.09108961  0.093348786            1 
  487000    1.0616037   -2.4198323    531.17138  0.090891749  0.093301995            2 
  488000    1.0443794   -2.4141023    532.85788  0.090993491  0.093256517            1 
  489000     1.028036   -2.4325733    535.01443  0.091174919  0.093209787            3 
  490000    1.0482405   -2.4080902     535.7973   0.09112199  0.093163472            3 
  491000    1.0521477   -2.4411659    534.09614  0.090647681  0.093119287            2 
  492000    1.0407223   -2.4016698    538.65138   0.09123499  0.093074471            3 
  493000    1.0539532   -2.4265296    536.19152  0.090634131  0.093029639            2 
  494000    1.0695132   -2.4196153    540.23706  0.091133107  0.092985439            2 
  495000    1.0709313   -2.4137303    539.25474  0.090783626  0.092940201            2 
  496000    1.0566203   -2.4182833    539.49204  0.090640464  0.092894661            1 
  497000    1.0234864   -2.4348649    538.50976  0.090293386  0.092848794            2 
  498000    1.0467991   -2.4301582    539.77579  0.090323927  0.092801611            1 
  499000    1.0424081   -2.4180793    543.06999  0.090693051  0.092755655            2 
  500000    1.0558813   -2.4238045    543.73204  0.090622007  0.092709661            1 
  501000     1.049532    -2.436769    541.74575  0.090110737  0.092664342            3 
  502000    1.0761807   -2.4358839    545.48334  0.090551684  0.092617683            2 
  503000    1.0402056   -2.4293211    546.75743  0.090582741  0.092572234            2 
  504000    1.0530635   -2.4441875     547.2415  0.090483052  0.092529561            1 
  505000    1.0300787   -2.4382006    548.22522  0.090466208  0.092484284            2 
  506000    1.0508557   -2.4196229    551.04556  0.090751903  0.092438017            2 
  507000    1.0770788   -2.4536523    550.51222  0.090485243  0.092390614            4 
  508000     1.042377   -2.4573785    550.65427  0.090330424  0.092344794            1 
  509000    1.0254116    -2.445436    551.26341  0.090252686  0.092299138            2 
  510000    1.0669859   -2.4356074    552.19732  0.090228321  0.092255271            3 
  511000    1.0434529      -2.4341     555.1957  0.090540721  0.092211413            2 
  512000    1.0264776   -2.4309156    552.74817  0.089965522  0.092167516            3 
  513000    1.0469056   -2.4214639    553.28628  0.089877564  0.092123294            1 
  514000    1.0503449   -2.4163673    555.83467  0.090115867  0.092077167            2 
  515000    1.0334548   -2.4553773    554.05609  0.089653089  0.092031957            2 
  516000    1.0463815   -2.4315491    557.24766  0.089994777  0.091984562            2 
  517000    1.0578134   -2.4335206    557.56807  0.089872351  0.091939256            2 
  518000    1.0405897   -2.4049704    558.95916  0.089922645  0.091894169            3 
  519000    1.0481338   -2.4476676    560.33124  0.089969692  0.091849489            3 
  520000     1.037222   -2.4285649    558.94335  0.089574254  0.091806434            2 
  521000     1.045692   -2.4421585    565.17671  0.090399346  0.091762276            4 
  522000     1.060876   -2.4567649    563.88521   0.09001999  0.091718623            3 
  523000    1.0554648   -2.4318879    564.88886  0.090007786  0.091674447            2 
  524000    1.0470679   -2.4386635    565.46715  0.089927982  0.091632188            1 
  525000     1.053523    -2.460679    567.21403  0.090033974  0.091590596            2 
  526000    1.0373768   -2.4245256     568.6478  0.090089956    0.0915496            2 
  527000    1.0296009   -2.4218307     569.5107  0.090055455  0.091509665            2 
  528000    1.0304966   -2.4081396    573.63357  0.090535601  0.091469546            5 
  529000    1.0479872   -2.4255623    571.08882  0.089963582  0.091430599            2 
  530000    1.0485092   -2.4439649    574.35541  0.090307454  0.091390219            1 
  531000    1.0545721   -2.4412772    575.56555  0.090327299  0.091350143            4 
  532000    1.0554993   -2.4341657    573.99263  0.089911126  0.091312355            2 
  533000    1.0331562   -2.4249944    576.14344  0.090078712  0.091272985            2 
  534000    1.0851864   -2.4257551    575.66375  0.089835167  0.091234388            1 
  535000    1.0417817   -2.4377305    575.07643  0.089575768  0.091194736            2 
  536000    1.0166601   -2.4270114    580.82785  0.090302837  0.091154907            4 
  537000    1.0434026   -2.4272521    582.47644  0.090390508  0.091115976            4 
  538000    1.0333531   -2.4345894    577.94516  0.089520626  0.091074961            1 
  539000    1.0097472   -2.4351846    578.29956  0.089409333  0.091033519            3 
  540000    1.0289049   -2.4454039    577.99835  0.089197276    0.0909932            3 
  541000    1.0583301   -2.4564319    578.23507  0.089068865  0.090951424            1 
  542000    1.0542867   -2.4523109    579.95493  0.089168962  0.090907487            3 
  543000    1.0468367   -2.4292465    583.02056  0.089475223  0.090866118            2 
  544000     1.009853   -2.4491041    585.03723  0.089619674   0.09082446            2 
  545000     1.029012    -2.424281     582.0235  0.088994419  0.090782272            3 
  546000    1.0431907   -2.4801699    583.07703   0.08899222   0.09073746            3 
  547000    1.0502357   -2.4388001    584.57914  0.089058369  0.090694988            5 
  548000    1.0202162    -2.440489    587.80493  0.089386394  0.090652908            2 
  549000    1.0514534   -2.4460863    588.78365  0.089372138  0.090611292            2 
  550000    1.0529782    -2.447557    589.57336  0.089329297  0.090570102            2 
  551000    1.0544492    -2.436758    588.83842  0.089056022  0.090529481            4 
  552000    1.0478491   -2.4426545     590.3156  0.089117694  0.090488922            2 
  553000    1.0449339   -2.4962393    588.30736  0.088653911  0.090447096            4 
  554000    1.0169356   -2.4607602    590.61333  0.088840753  0.090405168            3 
  555000    1.0334536   -2.4306307    592.95113  0.089031701  0.090363814            3 
  556000    1.0433395   -2.4599321     593.7038  0.088984382  0.090322251            1 
  557000     1.037435   -2.4500001    593.43979  0.088785127  0.090280541            1 
  558000    1.0427204   -2.4417659    592.56339  0.088495129  0.090237798            3 
  559000    1.0396017   -2.4365057    596.03838  0.088854857  0.090196612            2 
  560000      1.02216   -2.4493935    594.25703  0.088431106  0.090154541            2 
  561000    1.0266814   -2.4428461    595.71948  0.088490713  0.090113576            2 
  562000     1.010262    -2.450104    595.32878  0.088275323  0.090069918            4 
  563000    1.0172243   -2.4715301    597.94759  0.088506157   0.09002616            4 
  564000    1.0306774   -2.4595308    599.22113  0.088537401  0.089983233            4 
  565000    1.0353895   -2.4481202    599.86219   0.08847525  0.089939647            3 
  566000    1.0224818   -2.4670199    600.39676  0.088397639   0.08989657            5 
  567000    1.0320763   -2.4489771    601.88638  0.088460667  0.089854974            1 
  568000    1.0291707   -2.4579738    602.47852  0.088391801  0.089812265            2 
  569000    1.0244773   -2.4303224    603.96103  0.088453578  0.089770592            2 
  570000    1.0082072   -2.4464933    605.46477  0.088518241   0.08972853            2 
  571000    1.0298832   -2.4390256    605.45514  0.088361813  0.089687467            1 
  572000    1.0187831   -2.4565321     605.7557  0.088251122  0.089645229            2 
  573000    1.0146872   -2.4340482    606.21885  0.088164464  0.089601819            3 
  574000    1.0164934   -2.4614392    606.16159  0.088002554  0.089556901            1 
  575000    1.0195175   -2.4620861    606.63926  0.087918733  0.089511863            3 
  576000    1.0167176   -2.4478538    603.85565  0.087363375  0.089467666            2 
  577000     1.038157   -2.4384403    606.95418  0.087659471  0.089422192            1 
  578000    1.0261565   -2.4694954    606.53553  0.087447453  0.089376528            2 
  579000    1.0230225   -2.4565406    607.51742   0.08743774  0.089330919            3 
  580000    1.0231878   -2.4698872    608.92474  0.087489186  0.089284729            2 
  581000    1.0217896   -2.4566688    610.11559  0.087509407  0.089237614            2 
  582000     1.027798   -2.4598162    611.40264  0.087543333  0.089191975            1 
  583000    1.0259291   -2.4715026    612.99557  0.087620865  0.089147051            1 
  584000    1.0043469   -2.4453376    612.31543  0.087373776  0.089101157            3 
  585000    1.0368293   -2.4396538    614.33282  0.087511798  0.089057462            2 
  586000    1.0377127   -2.4497586    614.66917  0.087410292   0.08901374            4 
  587000    1.0066667   -2.4645812    617.48993   0.08766183  0.088970544            7 
  588000    1.0013142   -2.4366312    618.39894  0.087641573  0.088927428            1 
  589000    1.0184788   -2.4674542    615.71528  0.087113084  0.088882672            2 
  590000   0.99384234   -2.4802903    616.89614  0.087132224  0.088836629            1 
  591000    1.0457235   -2.4773003    616.08361  0.086870221  0.088791965            2 
  592000    1.0356866   -2.4662283    618.51264  0.087065406  0.088745259            2 
  593000    1.0163072   -2.4432289    621.53793  0.087343722  0.088698307            3 
  594000    1.0316518   -2.4517018     622.7249  0.087363202  0.088654352            1 
  595000    1.0234594   -2.4679893    622.87738  0.087237728   0.08861097            1 
  596000    1.0341826   -2.4573132    624.02453  0.087251753  0.088567134            2 
  597000    1.0254079   -2.4567162    626.38645  0.087435295  0.088524989            1 
  598000    1.0475482   -2.4825993    626.85166   0.08735391  0.088483313            1 
  599000     1.015154   -2.4734985    626.84509  0.087207163  0.088440943            2 
  600000    1.0161946   -2.4770535    627.98257  0.087219802  0.088399482            1 
  601000    1.0335781   -2.4638024    628.81619  0.087190265  0.088357757            2 
  602000    1.0020683   -2.4753344    629.96637  0.087204648  0.088316871            4 
  603000    1.0215946   -2.4604861    630.81745  0.087177646  0.088276942            1 
  604000    1.0356213   -2.4632515    632.80179   0.08730709  0.088237968            1 
  605000    1.0338466   -2.4644454    631.57556  0.086993879  0.088199174            2 
  606000    1.0400666   -2.5016477    634.54932  0.087259257  0.088160494            5 
  607000    1.0014795   -2.4684567    634.24893  0.087074263  0.088122255            2 
  608000    1.0162082   -2.4752188    639.35746  0.087631231  0.088084765            3 
  609000     1.012325   -2.4684686    637.06882  0.087174168  0.088046618            1 
  610000   0.99805443   -2.4857084    633.61058  0.086558823  0.088008331            2 
  611000    1.0267075   -2.4825952    637.03362  0.086884018  0.087970096            1 
  612000    1.0362404   -2.4655677    639.70605  0.087105944  0.087932668            1 
  613000    1.0137752    -2.494768    640.49439  0.087071015  0.087895425            4 
  614000    1.0369246   -2.4651293    642.12105   0.08714998  0.087859047            2 
  615000    1.0020989   -2.4858441    642.39784  0.087045778  0.087822124            2 
  616000    1.0103901   -2.5125413    641.01704  0.086717673  0.087783595            3 
  617000    1.0369443   -2.4709403    642.66772   0.08680007  0.087746305            1 
  618000   0.99553055   -2.4567065    644.42745  0.086896905  0.087708607            2 
  619000    1.0153789   -2.4870456    642.90193  0.086551148  0.087670654            2 
  620000   0.99349739   -2.4759764    645.28959  0.086732472  0.087632333            4 
  621000   0.99580679   -2.4830208    647.51477  0.086891407  0.087595344            2 
  622000   0.98617258   -2.4831632    646.26034  0.086583646    0.0875571            1 
  623000    1.0251459   -2.4867748    647.18072   0.08656778  0.087520238            4 
  624000   0.99346751   -2.4512366    650.68215  0.086896655  0.087485357            3 
  625000    1.0078875   -2.4535654    649.87918  0.086650557  0.087449173            5 
  626000   0.99756619   -2.4799818    651.61718  0.086743501  0.087413056            2 
  627000   0.99914399   -2.4946123    653.19026  0.086814229  0.087378179            2 
  628000   0.97963304   -2.4598098    653.79909  0.086756779  0.087341901            2 
  629000   0.99584354   -2.4581822    652.28716  0.086418543  0.087304775            3 
  630000    1.0052737   -2.4568945    653.74304  0.086473947  0.087267227            1 
  631000   0.98727702   -2.4985434     656.7054   0.08672813  0.087229478            1 
  632000   0.99515377   -2.4798007    657.39666   0.08668205   0.08719126            1 
  633000   0.99554213   -2.4670418    655.23583  0.086260641  0.087153427            1 
  634000    1.0018464   -2.4655138     656.5884  0.086302366   0.08711642            4 
  635000    1.0060695   -2.5018951     659.3738  0.086531995  0.087079911            2 
  636000   0.99148222   -2.4845307    657.22201  0.086113995  0.087043955            3 
  637000    1.0001966   -2.5025235    658.46656  0.086141623  0.087007038            3 
  638000     1.017496   -2.4881338    659.08184   0.08608697  0.086969571            2 
  639000   0.99770973   -2.4871868    665.21738  0.086752396   0.08693254            1 
  640000   0.99830287   -2.4909177    661.05115  0.086074369  0.086896039            2 
  641000    1.0095893   -2.4878195    663.32879  0.086236193  0.086860126            1 
  642000   0.99149754   -2.4919534    662.12226  0.085945257  0.086822277            3 
  643000      1.00027   -2.4644424    663.93523  0.086046557  0.086783231            1 
  644000   0.99791142   -2.4664104    663.88187  0.085906039  0.086745314            2 
  645000   0.98244503   -2.4694378    666.01093  0.086047924  0.086706859            4 
  646000    1.0188055   -2.4827547     665.0495    0.0857907  0.086669237            3 
  647000    1.0020991    -2.493622    665.63939  0.085734079   0.08663156            1 
  648000     1.007379   -2.4874024    667.72146   0.08586953  0.086593364            4 
  649000    0.9982616   -2.4786176    671.03457  0.086162631  0.086555045            3 
  650000   0.99018925   -2.4883559    668.50004  0.085705134  0.086518149            1 
  651000    1.0023009   -2.4953071    670.36571  0.085812303  0.086480218            1 
  652000     1.003577   -2.4929384    669.34411  0.085550116  0.086442142            3 
  653000    1.0063761   -2.5037157     670.4186  0.085556228  0.086403132            1 
  654000    1.0036943   -2.5142172    670.98444  0.085497508  0.086364121            2 
  655000   0.99612807   -2.4793762    672.01705  0.085498352  0.086325383            2 
  656000   0.98039051    -2.470037     675.6095  0.085824377   0.08628729            1 
  657000    1.0100943   -2.5122667    671.67065  0.085194147  0.086249498            1 
  658000    1.0166036   -2.4740832    673.18257  0.085256151  0.086211975            2 
  659000   0.99475628   -2.4963014    678.58162  0.085809512  0.086176121            1 
  660000    1.0041267   -2.5037525    678.58627  0.085680085  0.086140445            2 
  661000   0.98071098   -2.4819644    677.64127  0.085431325  0.086105959            2 
  662000   0.99632223   -2.4825221    680.88428  0.085710509  0.086070964            2 
  663000   0.97352662   -2.4912753    680.69914  0.085557961  0.086036892            3 
  664000     1.004007   -2.4876511    682.09771  0.085604632  0.086001538            3 
  665000   0.99281869   -2.5028435    681.14379  0.085356365  0.085965803            4 
  666000   0.99962205   -2.4707134     680.4789  0.085145007  0.085929501            2 
  667000    1.0101527   -2.4649288    682.84126  0.085312501  0.085892852            2 
  668000   0.98683256   -2.4985777    684.44117  0.085384377  0.085857241            2 
  669000   0.97246515   -2.4899752     685.1407  0.085343884  0.085822827            3 
  670000    0.9633385   -2.5023901    684.41654  0.085126435  0.085788353            3 
  671000   0.98890408   -2.5029539    689.01205    0.0855703  0.085753359            6 
  672000   0.97682583   -2.4813571    689.83083  0.085544498  0.085718964            2 
  673000   0.99661771    -2.495553    689.71061  0.085402502  0.085685339            2 
  674000   0.98823629   -2.4874418    689.79911  0.085286735  0.085651469            3 
  675000   0.97273025   -2.4920486    691.95413  0.085426436  0.085618358            2 
  676000   0.99390733   -2.5192826    692.68629  0.085390322  0.085585618            3 
  677000   0.99051011   -2.4880441    691.54314  0.085123479  0.085552087            2 
  678000   0.98965073   -2.5094917    695.09398  0.085434363  0.085517896            3 
  679000   0.97334589   -2.4984148    693.25227  0.085082507  0.085484686            4 
  680000   0.99357892   -2.4891458    694.95159  0.085165636  0.085451497            1 
  681000   0.97440811   -2.5170143     694.8703   0.08503063  0.085417228            2 
  682000    0.9628927   -2.4920691    698.84047  0.085391064  0.085382821            1 
  683000   0.96821026   -2.5254259    698.12614  0.085178884  0.085350246            2 
  684000   0.98129455   -2.5214296    699.23611  0.085189585  0.085317046            1 
  685000   0.97856871   -2.5201638    699.77351  0.085130597  0.085283524            2 
  686000   0.94297163   -2.4914223    699.05159  0.084918803  0.085250581            2 
  687000   0.96579589   -2.5205144    700.28186  0.084944427  0.085217023            4 
  688000   0.98339969   -2.5087504    700.31578   0.08482507  0.085184175            3 
  689000   0.98107887   -2.5088438    700.64094  0.084741285  0.085152079            4 
  690000   0.96323492    -2.522103    702.80968  0.084880396  0.085119136            2 
  691000   0.95939658   -2.5323961    703.08522  0.084790788  0.085086202            3 
  692000   0.96484432   -2.5451174     702.0073  0.084538451  0.085051829            3 
  693000    1.0019883   -2.5022499    705.80883  0.084873597  0.085018335            3 
  694000   0.99534366   -2.5258165    704.05316  0.084540485  0.084984726            2 
  695000   0.97574178   -2.4991679    708.39752   0.08493975  0.084950496            3 
  696000   0.97353445   -2.4986198    709.30398  0.084926243  0.084918095            2 
  697000   0.98035222   -2.5047544    707.70565  0.084613301  0.084885483            1 
  698000   0.97190597   -2.5074751    707.22579  0.084434789  0.084852586            1 
  699000   0.96384015   -2.4898905    712.13862  0.084899692  0.084820647            3 
  700000   0.98197279   -2.4932864    710.76141  0.084614453  0.084789481            3 
  701000   0.97203682   -2.5029805    709.51968  0.084346134  0.084757435            4 
  702000   0.95872196   -2.5050678      713.227  0.084666073  0.084724846            2 
  703000    0.9574877   -2.4959571    711.49501  0.084340328  0.084691811            2 
  704000   0.97663941   -2.5112848     716.5793  0.084822361  0.084660123            2 
  705000   0.98037346   -2.5152968    714.53239  0.084460093   0.08462818            5 
  706000   0.97465058   -2.5219308    715.13851  0.084412005  0.084596772            2 
  707000   0.98929508   -2.5216123     715.6668   0.08435488  0.084564279            2 
  708000   0.97288751   -2.5149188     716.9045  0.084381415   0.08453173            2 
  709000    0.9559711   -2.5031351     716.0367  0.084160402  0.084498442            2 
  710000   0.96655114    -2.499417     719.4382  0.084441104  0.084465949            3 
  711000   0.98173635   -2.5034632    720.80005  0.084481957  0.084433402            1 
  712000   0.98205125   -2.5293858    718.02952  0.084039035  0.084400494            2 
  713000   0.96205291   -2.5184151    720.43901  0.084202783  0.084367299            3 
  714000   0.96946574   -2.5238873    719.63663  0.083991203  0.084333729            3 
  715000   0.97236517    -2.510515    721.25161  0.084061959  0.084301185            3 
  716000   0.98566013   -2.5246941     720.9532  0.083909823  0.084267561            2 
  717000   0.96065322   -2.5202517    722.89343  0.084018297  0.084233413            5 
  718000   0.95756936   -2.5270555    721.72128  0.083765237  0.084199554            2 
  719000   0.94298442   -2.5035903    722.91473  0.083787057  0.084165454            3 
  720000   0.95913097   -2.5315904    724.65021  0.083871552  0.084131521            3 
  721000   0.97566621   -2.5020571    725.22582  0.083821754   0.08409768            2 
  722000   0.97453609   -2.5242642    724.55381  0.083628095  0.084063515            1 
  723000   0.95329448   -2.5284469    726.13722  0.083694931  0.084028212            2 
  724000   0.95529477   -2.5395407    726.47784  0.083618536  0.083994262            2 
  725000   0.97464436   -2.4967239    725.89448  0.083436148   0.08395967            6 
  726000   0.94649709   -2.5341943     728.6405  0.083636421  0.083924606            2 
  727000   0.94765352   -2.5129032    729.71596  0.083644654  0.083890892            2 
  728000    0.9597739   -2.5357033     731.7077  0.083757749  0.083857198            1 
  729000   0.97316791   -2.5621255    727.45988   0.08315728  0.083823951            1 
  730000   0.97431766   -2.5316116    733.47924  0.083730507  0.083790636            1 
  731000   0.96529362   -2.5385022    731.57902  0.083399341  0.083756948            3 
  732000   0.96198445   -2.5091664    734.55288  0.083623962  0.083722618            2 
  733000   0.93182965   -2.5427335     731.0646  0.083113302  0.083688478            1 
  734000   0.96002367   -2.5131246    732.52608  0.083165995  0.083654409            3 
  735000   0.94317847   -2.5233191    733.75351  0.083192008   0.08361998            2 
  736000    0.9567323   -2.5364659     738.5665  0.083623925  0.083585847            1 
  737000   0.96238854   -2.5381507    737.47526  0.083387072  0.083551982            2 
  738000   0.98450626   -2.5050221    737.61695   0.08329008  0.083518091            2 
  739000   0.95501872   -2.5237092    737.63051  0.083178903  0.083483246            5 
  740000   0.93774517   -2.5279701    736.76959  0.082969549  0.083447859            1 
  741000    0.9669371   -2.5385171    737.21408  0.082907566   0.08341271            2 
  742000   0.95121569   -2.5251875    738.57921  0.082949148  0.083376655            3 
  743000   0.96529254   -2.5183702    739.58505   0.08295032  0.083342082            4 
  744000   0.95584944   -2.5395819    739.15676  0.082790856  0.083305668            3 
  745000   0.96960151   -2.5490152    743.07821  0.083118368  0.083270486            3 
  746000   0.99148007    -2.530644    740.81974  0.082754663  0.083235026            2 
  747000    0.9628716   -2.5483606    742.57073  0.082839216  0.083199768            1 
  748000   0.98903252   -2.5229878    742.71059   0.08274405  0.083164287            3 
  749000    0.9651233   -2.5529475    739.86417  0.082316886  0.083128426            4 
  750000   0.93556388   -2.5576338    743.32889  0.082592099  0.083092536            2 
  751000   0.96469506   -2.5379237     744.4014  0.082601132  0.083057561            4 
  752000   0.96276741    -2.557337    744.75509  0.082530484  0.083023601            4 
  753000   0.94770009   -2.5180155    746.65585  0.082631236  0.082989526            2 
  754000   0.95910178   -2.5331063    748.73867  0.082751842   0.08295502            3 
  755000   0.95057394   -2.5424988     748.6115  0.082628201  0.082921215            4 
  756000   0.94423811   -2.5402384    747.48262  0.082394469  0.082887614            1 
  757000   0.95654676   -2.5648714    747.83777  0.082324721  0.082852649            2 
  758000   0.94394874   -2.5306992    751.73025  0.082644047  0.082818605            1 
  759000   0.96293358   -2.5502642    750.41815  0.082391101  0.082784366            3 
  760000   0.94170191   -2.5555333    748.96315  0.082123152  0.082749146            3 
  761000    0.9357983    -2.549242    751.16996  0.082256894  0.082713434            2 
  762000   0.94586454   -2.5431652    753.07881    0.0823577   0.08267856            2 
  763000   0.94983183   -2.5587234     751.9801  0.082129762  0.082643472            2 
  764000   0.96483035   -2.5512675    751.93547  0.082017394  0.082608165            1 
  765000   0.96128034   -2.5624915     752.9581  0.082021579  0.082571833            3 
  766000   0.95531526   -2.5424357    751.27496  0.081731393  0.082534797            6 
  767000   0.94920674   -2.5785839      752.544  0.081762712  0.082499355            1 
  768000   0.95240883   -2.5613554    753.86305  0.081799376  0.082463527            3 
  769000   0.94069172   -2.5481856    758.25472  0.082168912  0.082428607            1 
  770000   0.94368945   -2.5285978    759.73085  0.082221954  0.082393288            2 
  771000   0.94610051   -2.5543481    760.46889  0.082195081  0.082357987            1 
  772000   0.93301305   -2.5257249    758.57954  0.081884665  0.082323393            1 
  773000   0.94466808   -2.5579675    759.81706  0.081912145  0.082289108            2 
  774000   0.96357008   -2.5594271    763.59389  0.082212951  0.082255154            2 
  775000   0.95052466   -2.5459351    764.74673  0.082230831  0.082221724            3 
  776000    0.9372496    -2.541555    763.07599  0.081945445  0.082188597            2 
  777000   0.94611931   -2.5577314     765.1816  0.082065809  0.082155566            6 
  778000   0.97287711     -2.52743    765.44674  0.081988725  0.082121698            4 
  779000   0.95135042   -2.5371046    767.49434  0.082102518  0.082087618            7 
  780000   0.92292434   -2.5499882    766.68198  0.081910468  0.082054597            1 
  781000   0.94359592    -2.552518    764.29928  0.081551353  0.082020825            2 
  782000   0.93690685   -2.5473267    767.32327  0.081769317  0.081987749            3 
  783000   0.93598263   -2.5406272    768.73523  0.081815158  0.081955311            1 
  784000   0.94833251   -2.5424109    766.31233  0.081453266  0.081921524            4 
  785000   0.90985804   -2.5492746    766.73429  0.081394298   0.08188733            2 
  786000   0.94561558   -2.5520913    769.54139  0.081588357  0.081853128            6 
  787000   0.93489923   -2.5602346    768.95386  0.081422476  0.081818841            3 
  788000   0.93450058   -2.5485051    770.89184  0.081524095  0.081784642            1 
  789000     0.947034   -2.5615306    771.23768  0.081457296  0.081751101            3 
  790000    0.9347722   -2.5522109    771.67658  0.081400483  0.081716879            3 
  791000   0.92915764   -2.5571046     770.6162  0.081185862  0.081682582            1 
  792000   0.92124955   -2.5796737    771.01923   0.08112576  0.081648326            1 
  793000   0.92158692   -2.5502018    772.28421  0.081156391  0.081614208            3 
  794000   0.93849405   -2.5727428    773.90348  0.081224126  0.081579626            3 
  795000   0.93065917   -2.5445524    772.10831  0.080933785  0.081545664            4 
  796000   0.94943982   -2.5706872    772.87956  0.080912852  0.081509902            4 
  797000   0.93962496   -2.5459373    774.29865  0.080959708  0.081475867            6 
  798000   0.95127846   -2.5409815    777.20784  0.081162055  0.081441478            2 
  799000   0.92994841   -2.5449901     777.2127  0.081060982  0.081407685            1 
  800000   0.92470431   -2.5492595    776.42873  0.080877993    0.0813736            1 
  801000    0.9420365   -2.5318865    778.31921  0.080973701  0.081339231            2 
  802000   0.91888157   -2.5726093     780.3232  0.081080964  0.081304571            2 
  803000   0.94404147   -2.5664216    780.56774  0.081005369  0.081269773            3 
  804000   0.95355137   -2.5606054    780.76981  0.080925561  0.081235006            1 
  805000   0.93748587   -2.5521381    782.26849  0.080980175  0.081200476            3 
  806000   0.92731607   -2.5784029    782.37649   0.08089087  0.081165466            3 
  807000   0.94581751   -2.5807585    780.74291  0.080621944  0.081130106            1 
  808000   0.94934593   -2.5754536    780.08534  0.080454346  0.081095211            1 
  809000   0.92493752   -2.5719845    785.52852  0.080915587  0.081060522            2 
  810000   0.91843145   -2.5645663     784.4363  0.080703323  0.081027506            4 
  811000   0.95684338   -2.5401008     786.3584  0.080801315  0.080994233            4 
  812000   0.94058482   -2.5551175    788.28697   0.08089973  0.080959792            2 
  813000   0.94641883   -2.5617706     789.6544  0.080940386  0.080927227            3 
  814000   0.92210071    -2.576415    787.98607  0.080670154  0.080894094            5 
  815000   0.94926783   -2.5573288     789.2292  0.080698283  0.080860733            4 
  816000   0.90133838   -2.5562503    786.94125  0.080365733  0.080827775            1 
  817000   0.91474507   -2.5655018    791.36749  0.080718838  0.080794669            4 
  818000   0.92105715   -2.5573051    792.01953  0.080686586  0.080761397            2 
  819000   0.92002349   -2.5475719    790.95866  0.080480124  0.080728057            2 
  820000   0.91598727   -2.5535992    794.43663   0.08073543  0.080695181            2 
  821000   0.91639597   -2.5382397    791.04436  0.080292769  0.080662586            2 
  822000    0.9363652   -2.5562921    794.41037  0.080536331  0.080628502            2 
  823000   0.93943599   -2.5541965    795.89152  0.080588449   0.08059506            2 
  824000   0.94807816   -2.5772038    792.80545  0.080178544  0.080560907            2 
  825000   0.92468245   -2.5639957    795.46881  0.080350385  0.080526818            3 
  826000   0.92158333   -2.5499774    795.52104  0.080258378  0.080493534            3 
  827000   0.92526139    -2.603809    795.81087  0.080190535  0.080459481            1 
  828000   0.92953185   -2.5799604    798.78815  0.080393332  0.080426068            7 
  829000   0.93143042   -2.5836095    798.40088  0.080257426  0.080392194            2 
  830000   0.93455548   -2.6038572    799.39189   0.08026023  0.080358326            3 
  831000   0.92937686   -2.5695407    800.98073  0.080322977  0.080323494            2 
  832000   0.92504775   -2.5949751    797.31567  0.079859341  0.080289014            2 
  833000   0.90666978   -2.5992931    798.41076  0.079873026  0.080254321            3 
  834000   0.92978284   -2.5859983    800.32208  0.079968233  0.080220141            1 
  835000   0.91973076   -2.5862922    800.69514  0.079909694  0.080185196            2 
  836000   0.90648808   -2.5738181    801.31603     0.079876  0.080150811            3 
  837000   0.93337127   -2.5849169    797.71425  0.079421968  0.080115908            4 
  838000   0.92717501   -2.5767743    801.36968    0.0796907  0.080079819            3 
  839000   0.90678317    -2.569801    801.86427  0.079644842  0.080044633            2 
  840000   0.93246068   -2.5848416    802.79778  0.079642637  0.080008739            3 
  841000    0.9338206   -2.5786553    801.05503  0.079375251  0.079972608            4 
  842000   0.89831207    -2.578084    802.55377  0.079429312  0.079936662            2 
  843000   0.90800174   -2.5650204    803.38163  0.079416927  0.079901271            5 
  844000   0.90726658   -2.5905619    802.91838  0.079277091  0.079865891            3 
  845000   0.90697118   -2.6136305    803.24956  0.079215932  0.079829899            2 
  846000   0.91935629   -2.6076659    804.44473  0.079240024  0.079793162            2 
  847000   0.91359465   -2.5937178      805.974   0.07929693   0.07975739            3 
  848000   0.92573854   -2.5680824     809.6112  0.079560849   0.07972226            2 
  849000   0.92544746   -2.5839697    806.04516  0.079117114   0.07968744            2 
  850000   0.92426647   -2.5660725    808.15843  0.079231219  0.079652613            3 
  851000   0.91418903   -2.6049274    808.45247  0.079166909  0.079617323            1 
  852000   0.90886216   -2.6104673    806.92858   0.07892494  0.079581346            7 
  853000   0.90455003   -2.5908602     808.5815  0.078993894  0.079544256            2 
  854000   0.90616843   -2.5863608    806.69162  0.078716981  0.079507979            2 
  855000   0.93739809    -2.575524    809.76277  0.078924247  0.079471641            3 
  856000   0.90196979     -2.58517    810.43243  0.078897238  0.079435501            2 
  857000   0.90176334   -2.5934535    809.41771  0.078706506  0.079398638            6 
  858000   0.91960498   -2.6027003    811.26797  0.078794481  0.079361612            5 
  859000    0.9051605   -2.5825695    811.63979  0.078738823  0.079325037            3 
  860000   0.91600823   -2.5694132    814.27068  0.078902198  0.079288552            2 
  861000   0.90302823   -2.5671088    814.68569  0.078850725  0.079252759            3 
  862000   0.89496299   -2.5872033    813.22004   0.07861756  0.079216035            3 
  863000   0.90698789   -2.5829511    814.97335  0.078695765  0.079179434            3 
  864000   0.91532528   -2.5909506    816.40786  0.078743042  0.079143858            3 
  865000    0.8864592   -2.5932335    816.56002  0.078666669  0.079108766            3 
  866000   0.92610494   -2.5843867    817.71231  0.078686712  0.079072518            2 
  867000   0.92028357   -2.5915958    819.53374  0.078771025  0.079036706            3 
  868000   0.91671028   -2.5993449    816.10383  0.078350982  0.079000285            4 
  869000   0.90217431   -2.5730854    816.41874  0.078291019  0.078963436            4 
  870000   0.92070884   -2.6154517    818.06621  0.078358833  0.078926472            4 
  871000   0.90938106   -2.6092317    821.26869  0.078575267  0.078889382            3 
  872000   0.90341733   -2.5881291     816.1273  0.077993817  0.078852529            3 
  873000   0.90944928   -2.5913546    821.15436  0.078384341  0.078815764            3 
  874000   0.88944992   -2.6134909    818.95746  0.078085188  0.078779156            2 
  875000   0.88504305    -2.600409    822.63869  0.078346542  0.078742008            2 
  876000   0.92408862   -2.5906994    820.26821  0.078031603  0.078705451            2 
  877000   0.92121005   -2.5960145    826.69073  0.078552901  0.078668834            2 
  878000   0.91175413   -2.5846188     822.6023  0.078075389   0.07863255            2 
  879000   0.88644999   -2.6242401    820.00069  0.077739921  0.078594996            4 
  880000   0.90089871   -2.6051354    821.90875  0.077832268  0.078558051            2 
  881000   0.89981769   -2.6151259    824.51332  0.077990287  0.078521714            1 
  882000   0.91322511    -2.615006      827.709  0.078203799  0.078486058            2 
  883000     0.904292   -2.6154823    824.18389  0.077782549  0.078449446            3 
  884000    0.8993315   -2.6046235    826.17109   0.07788189  0.078412751            4 
  885000   0.90551926   -2.5839283    828.59354   0.07802199  0.078376796            3 
  886000   0.89698771   -2.6202687    827.39276   0.07782099  0.078340036            3 
  887000   0.91120987   -2.5997063    826.90171  0.077687121  0.078303491            2 
  888000   0.91692235   -2.6138247    826.74328  0.077584767  0.078266933            3 
  889000   0.89411618     -2.59505    825.93406  0.077421641  0.078230393            4 
  890000    0.8904283   -2.6034982     826.6017  0.077397163  0.078194371            1 
  891000   0.88880249   -2.5907644    832.55014  0.077866642  0.078157539            2 
  892000   0.90001003   -2.5858929    833.01759  0.077823018  0.078120195            7 
  893000   0.88861085    -2.611817    832.37684  0.077676077  0.078083251            3 
  894000   0.88816015   -2.6285991     831.2785   0.07748681  0.078046055            3 
  895000   0.88065185   -2.5979031    831.37299  0.077409031  0.078008996            2 
  896000    0.8895369   -2.6211754    834.48103  0.077611703  0.077971845            4 
  897000   0.90254818   -2.6292332    830.54124  0.077159163  0.077935478            2 
  898000   0.88446174   -2.6021461    837.27752  0.077698359   0.07789931            2 
  899000   0.90638599   -2.5954911    836.40608  0.077531153  0.077862213            3 
  900000   0.90662056   -2.6140534    833.42053  0.077168567  0.077826588            4 
  901000    0.8964742   -2.6114953    837.01511  0.077415382  0.077790541            2 
  902000   0.90197407   -2.6214406    838.90485  0.077504143   0.07775471            2 
  903000   0.88482433   -2.6244391      838.551  0.077385659  0.077719095            2 
  904000   0.89734871   -2.5781544    838.79843  0.077322864  0.077683526            2 
  905000   0.89885671   -2.6050292     835.0888  0.076895838  0.077647758            1 
  906000   0.90549279   -2.6091666    839.16411  0.077185808  0.077612317            2 
  907000   0.89212385   -2.6072159    841.94593  0.077356296  0.077575546            7 
  908000   0.87676058   -2.6247041    840.12212  0.077103719  0.077540211            4 
  909000   0.86700464   -2.6086344    840.38429  0.077042931  0.077504102            2 
  910000   0.89793497   -2.6109306    840.32387  0.076952735  0.077467118            4 
  911000   0.89568666   -2.6221824    841.67561  0.076991914  0.077430389            1 
  912000   0.91103034   -2.5995286    842.00963  0.076938014  0.077394645            2 
  913000   0.88476357   -2.6197995    842.71594  0.076918213  0.077358356            3 
  914000   0.89177363    -2.617009    842.23209  0.076789942  0.077321958            2 
  915000   0.88602547   -2.6017614    848.38613  0.077266496  0.077286495            2 
  916000   0.87921235   -2.6239204     845.3999  0.076910471  0.077250804            4 
  917000   0.88650808   -2.6101079    844.61302  0.076755091  0.077215376            2 
  918000   0.88880185   -2.6218041    843.39617  0.076561017  0.077179353            4 
  919000   0.88895766   -2.6011395    848.34441  0.076926407  0.077144055            2 
  920000   0.88953932   -2.6168141    850.12428  0.077004011   0.07710861            2 
  921000   0.87819616    -2.624426    848.23543  0.076749496  0.077073029            4 
  922000   0.85776727   -2.6249784    850.11904  0.076836501  0.077037864            1 
  923000   0.89919114   -2.6315165    847.43712  0.076511116   0.07700226            2 
  924000   0.87243169   -2.6191054    850.92539  0.076742911   0.07696684            5 
  925000   0.86160816   -2.6097774    850.84142   0.07665238  0.076931634            2 
  926000   0.88243132   -2.6088408    849.10564  0.076413394  0.076896747            4 
  927000   0.88484898   -2.6033397    852.07238  0.076597661  0.076862027            2 
  928000     0.864646   -2.6236994     850.2853  0.076354642  0.076827212            4 
  929000   0.89011214   -2.6220793    851.19417   0.07635398   0.07679175            2 
  930000   0.88906812   -2.6056727    855.53547  0.076660885  0.076756484            5 
  931000   0.87964486   -2.6359836    855.06519  0.076536448  0.076721912            2 
  932000   0.90189315   -2.6205609    857.26812  0.076651298  0.076686638            4 
  933000   0.88360123   -2.6315565    856.98769  0.076544095   0.07665193            2 
  934000   0.87344449   -2.6132768    855.81342  0.076357372  0.076616712            2 
  935000   0.88211583   -2.6466372    856.77921  0.076361783  0.076581485            3 
  936000   0.87393202   -2.6340655    854.73638  0.076098324   0.07654579            5 
  937000    0.8482135   -2.6229566    856.51718  0.076175487    0.0765103            2 
  938000   0.86829002   -2.5986027    862.20916  0.076599961  0.076476168            2 
  939000   0.87531017   -2.6300858    859.35965    0.0762655  0.076441904            3 
  940000    0.8566924   -2.6092995    862.79375  0.076488807  0.076407422            1 
  941000   0.89832197   -2.6299356     861.2375  0.076269705   0.07637341            3 
  942000   0.87313583   -2.6256621    861.53147  0.076214744  0.076339075            3 
  943000   0.87663625   -2.6262251    860.96128  0.076083535  0.076305394            4 
  944000   0.85800213   -2.6411493    861.45584  0.076046596  0.076271691            7 
  945000   0.86328109   -2.6224038    862.82319  0.076086701  0.076238104            4 
  946000   0.86635965   -2.6633085    863.77956  0.076090518  0.076203751            2 
  947000   0.87086902   -2.6665646    862.81609  0.075925386   0.07616921            6 
  948000   0.87562678   -2.5911231    863.77722  0.075929784  0.076135251            2 
  949000   0.87556969   -2.6329013    866.39827  0.076079933  0.076101394            3 
  950000   0.88348272   -2.6260206    866.44794  0.076004205  0.076067633            3 
  951000   0.87816967   -2.6256054    864.64948  0.075766691  0.076033044            4 
  952000   0.86771481   -2.6421258    868.25338  0.076002572  0.075999013            3 
  953000   0.87904949   -2.6202151    868.18366  0.075916725  0.075964412            3 
  954000   0.87265623   -2.6174814      864.179  0.075487334   0.07592988            4 
  955000   0.87722422   -2.6351076    868.03306  0.075744595  0.075895032            4 
  956000   0.87212028   -2.6452633    866.39884  0.075522911  0.075859474            3 
  957000   0.87390377   -2.6420313    870.47087  0.075798578  0.075824634            3 
  958000   0.86608468   -2.5985274    871.51431  0.075810221  0.075789851            3 
  959000   0.87707303   -2.6594289    866.24211  0.075273037  0.075754587            3 
  960000   0.86710366   -2.6401003    873.02801  0.075783681  0.075719355            3 
  961000   0.88453773   -2.6456649    873.89731  0.075780204   0.07568511            2 
  962000   0.88431222   -2.6339369    874.76219  0.075776351  0.075650828            3 
  963000   0.87605681   -2.6121235    867.65648  0.075082769  0.075615862            3 
  964000   0.85846002   -2.6519799    870.30511  0.075233844  0.075580224            6 
  965000   0.86844335   -2.6382568    870.79726  0.075198382  0.075544513            5 
  966000   0.87786687   -2.6413698    872.55703  0.075272346  0.075509573            2 
  967000   0.86946052   -2.6113732    872.58695  0.075197083  0.075474772            6 
  968000   0.87823071   -2.6512574    874.71183  0.075302327  0.075439606            4 
  969000   0.88129353   -2.6448411    875.88333  0.075325364  0.075404538            3 
  970000    0.8674576   -2.6530497    872.25847  0.074936295  0.075368981            6 
  971000   0.87285613   -2.6565702    877.07575   0.07527255   0.07533271            2 
  972000   0.85240357   -2.6362037    872.25915  0.074782163   0.07529696            2 
  973000   0.85496942   -2.6631279    874.48258  0.074895733  0.075261218            2 
  974000   0.86763908   -2.6344482    876.06568  0.074954285  0.075226018            2 
  975000    0.8654327    -2.622563    882.47676  0.075425364  0.075191012            2 
  976000   0.86612664   -2.6500002    877.43688  0.074917766  0.075156304            4 
  977000   0.87317922   -2.6457688    878.49154  0.074931042  0.075122415            1 
  978000   0.86881098   -2.6497486    878.40285  0.074846869   0.07508764            3 
  979000   0.84966363   -2.6512974    878.45149  0.074774557  0.075053908            2 
  980000   0.86232187   -2.6654911    883.11622  0.075094917  0.075019714            2 
  981000   0.87487546   -2.6521838    882.43746  0.074960708  0.074985993            3 
  982000   0.85519928   -2.6500301    882.32921  0.074875188  0.074951569            3 
  983000   0.85967756   -2.6295336    881.23585  0.074706329  0.074917179            2 
  984000    0.8481531   -2.6345975    886.32536  0.075061429  0.074883322            3 
  985000   0.85399108   -2.6360225    883.45252  0.074742176  0.074849152            4 
  986000   0.86282957    -2.645672    883.54772  0.074674418  0.074814758            3 
  987000   0.85493253   -2.6457487    885.35722  0.074751538  0.074780929            4 
  988000   0.86182116   -2.6347303     884.1509  0.074574132  0.074747478            3 
  989000   0.85401336   -2.6599507     887.7572  0.074802595   0.07471401            3 
  990000   0.84263603   -2.6316045    888.15777  0.074760755  0.074679868            2 
  991000   0.85403535       -2.651       888.46  0.074710729  0.074646166            1 
  992000    0.8541263   -2.6301354    888.41193  0.074631378  0.074612543            4 
  993000     0.854511   -2.6666609    893.09554  0.074949273  0.074579413            4 
  994000   0.85570167   -2.6589623    886.87594  0.074352443  0.074545686            5 
  995000   0.86134276   -2.6586003    887.20448  0.074305233  0.074512481            2 
  996000   0.85163286   -2.6869609    890.50029  0.074506383  0.074479163            2 
  997000    0.8520959   -2.6775601    895.03423  0.074810618  0.074445927            3 
  998000   0.85033134   -2.6730975    892.81591  0.074550427  0.074413109            3 
  999000   0.87887772   -2.6675407    891.66442  0.074379748  0.074380137            2 
 1000000   0.84231671   -2.6654269    893.11979  0.074426649  0.074347177            2 
 1001000   0.86434823   -2.6540815    896.66846  0.074647724  0.074314742            2 
 1002000   0.85200534   -2.6698782    896.47516  0.074557149  0.074282029            3 
 1003000   0.84149143   -2.6924349    893.00432  0.074194443  0.074248634            5 
 1004000   0.84080772    -2.671775    893.91648  0.074196255  0.074215976            2 
 1005000   0.86266198   -2.6601719    898.43851  0.074497389  0.074183791            4 
 1006000   0.83700423   -2.6455182    898.51206  0.074429429  0.074151522            4 
 1007000   0.86188655   -2.6541556    898.35735  0.074342713  0.074119319            2 
 1008000   0.86526671   -2.6758881    897.29614  0.074181228  0.074086384            2 
 1009000   0.87001755   -2.6705739    901.72327  0.074473345  0.074054493            2 
 1010000   0.86643626   -2.6311994    900.78935  0.074322554  0.074022259            2 
 1011000   0.85688648   -2.6687228    900.35147  0.074212947  0.073990368            4 
 1012000   0.83547375   -2.6436586    902.26996  0.074297592   0.07395843            3 
 1013000   0.84358903   -2.6402604    902.33269  0.074229408  0.073927277            5 
 1014000   0.83742571   -2.6628564    903.62574  0.074262471  0.073895815            5 
 1015000   0.83662173   -2.6591518    906.61494  0.074434724  0.073864387            5 
 1016000   0.87126814   -2.6574868    906.43381  0.074346605  0.073832956            3 
 1017000   0.85611788   -2.6594683    903.80552  0.074058138  0.073801277            3 
 1018000   0.83854153   -2.6856183    903.36116  0.073949014   0.07376978            3 
 1019000   0.85629853   -2.6775408    907.29013  0.074197754  0.073738156            3 
 1020000    0.8387835   -2.6599592    908.10123  0.074191277  0.073707016            5 
 1021000   0.82297378   -2.6699358    911.29899  0.074379611  0.073675862            3 
 1022000   0.83882365   -2.6642746    910.29136   0.07422467  0.073644961            7 
 1023000   0.84344657   -2.6544223     910.3809  0.074159408  0.073613567            4 
 1024000   0.85574223   -2.6684157    908.56881  0.073939519  0.073582604            3 
 1025000   0.82243526   -2.6802815    911.42963   0.07409997  0.073551131            2 
 1026000   0.85310304   -2.6558875    908.29006  0.073772747  0.073519637            4 
 1027000   0.83797402   -2.6602668     907.3341  0.073623344  0.073487285            4 
 1028000   0.83472223   -2.6639285    909.60658  0.073735942  0.073455537            4 
 1029000   0.84924134   -2.6771421    907.50056  0.073493728  0.073423422            2 
 1030000    0.8548998    -2.690881    912.44683  0.073822559  0.073391654            4 
 1031000   0.85082613    -2.672384    909.72409  0.073530884  0.073359545            3 
 1032000   0.85636366   -2.6705224    913.85014  0.073792808  0.073328155            2 
 1033000   0.85684731   -2.6644193    913.74872  0.073713191   0.07329673            4 
 1034000     0.836455   -2.6722712    913.59635  0.073629622  0.073265345            3 
 1035000   0.83233719   -2.6639507    915.20799  0.073688244  0.073233928            2 
 1036000   0.85122363   -2.6983913    918.77776   0.07390426  0.073202424            4 
 1037000   0.83397936   -2.6543075    915.72779  0.073587897  0.073170821            3 
 1038000   0.84366577   -2.6878854    917.84526  0.073686999    0.0731391            3 
 1039000   0.83969535   -2.6696152    914.27524  0.073329744  0.073107334            4 
 1040000   0.82968378   -2.6583008    918.88999  0.073629006  0.073075509            5 
 1041000   0.82315225   -2.6842417    916.05093  0.073331006  0.073043738            3 
 1042000   0.83734351   -2.6707239    917.18216    0.0733511  0.073011292            2 
 1043000      0.82912   -2.6942387    916.43961  0.073221446   0.07297885            6 
 1044000   0.86005227      -2.6382    918.60486  0.073324143   0.07294666            1 
 1045000   0.84333679   -2.6770943    915.83505  0.073033098  0.072914596            2 
 1046000   0.83197865   -2.6573949    919.19218  0.073230735  0.072882235            3 
 1047000   0.85760394   -2.6813493    918.66458  0.073118798  0.072849722            3 
 1048000   0.81231141    -2.686507    917.23906  0.072935676  0.072817427            2 
 1049000   0.85169058   -2.6929342    925.04562  0.073486306  0.072785536            6 
 1050000   0.83685053   -2.6855508    921.21759  0.073112507  0.072753346            5 
 1051000     0.824572   -2.6704078    923.36935  0.073213555  0.072721248            2 
 1052000   0.83481222    -2.696404    918.76905  0.072779551  0.072689433            2 
 1053000    0.8295336   -2.6614889     917.4516  0.072606173  0.072656955            1 
 1054000   0.82334451   -2.6839007    922.20771  0.072913323  0.072624993            7 
 1055000   0.83833843    -2.678035    921.01712  0.072750168  0.072593369            3 
 1056000   0.82556454   -2.6740539    925.37083  0.073024844  0.072561299            3 
 1057000   0.81394428   -2.6961089    924.08128   0.07285409  0.072529896            2 
 1058000   0.83618863   -2.6659383    927.84823  0.073081934  0.072498624            4 
 1059000   0.84780354   -2.6835769    926.53248  0.072909386  0.072467223            4 
 1060000   0.84203859   -2.6794079    924.27408  0.072663057    0.0724356            8 
 1061000    0.8377167   -2.7012246    926.10275  0.072738199  0.072403982            4 
 1062000   0.82128046   -2.6993113    926.64554  0.072712299  0.072372184            3 
 1063000    0.8164413    -2.672866     927.5331  0.072713476  0.072340702            2 
 1064000   0.83302355   -2.6851197    928.53756  0.072723806  0.072309125            2 
 1065000   0.82187266   -2.6788923     930.4136  0.072802316  0.072277913            4 
 1066000   0.82050158    -2.681803    929.99099  0.072700984  0.072245944            4 
 1067000   0.82498374   -2.6759972    928.41168  0.072509504  0.072214306            2 
 1068000   0.82514217   -2.7006741    929.51499  0.072527699  0.072182841            2 
 1069000    0.8089905   -2.6888795    931.53653  0.072617441  0.072151826            6 
 1070000   0.82979913   -2.6904871    930.91358  0.072501058  0.072120609            2 
 1071000   0.83136044   -2.6975194    928.88394  0.072275438  0.072088917            2 
 1072000   0.84023045   -2.6788269    932.35063  0.072477506   0.07205702            4 
 1073000   0.84217045    -2.673147     930.1051  0.072235562  0.072025216            3 
 1074000   0.84184837   -2.7064685    927.87438  0.071995219  0.071993157            5 
 1075000   0.82314428   -2.6923319    934.33911  0.072429389  0.071961409            3 
 1076000   0.81732328   -2.7218413    928.74738   0.07192901  0.071929256            3 
 1077000   0.81608629   -2.7048208    931.46108  0.072072198  0.071896781            3 
 1078000   0.81183246   -2.7163619    932.43296   0.07208047  0.071864507            2 
 1079000   0.82263628   -2.7054207    933.87147  0.072124766  0.071832107            4 
 1080000   0.83838213    -2.681406     938.4064  0.072407902  0.071800259            4 
 1081000    0.8201094   -2.6894854     937.3345  0.072258287  0.071768654            3 
 1082000   0.82480895    -2.691654    938.12071  0.072252057  0.071737159            3 
 1083000   0.81716233   -2.6967034    937.42265  0.072131629  0.071705704            3 
 1084000   0.81417217   -2.7018045    937.51617  0.072072277  0.071673949            3 
 1085000   0.81235605   -2.7059658    937.08831  0.071972988  0.071642155            3 
 1086000   0.83625604    -2.712779    936.67167  0.071874744  0.071610483            5 
 1087000   0.82114868   -2.6979327    939.86357  0.072053325  0.071578909            3 
 1088000   0.81134403   -2.6871092    939.47959  0.071957689  0.071547765            2 
 1089000   0.80890789   -2.7150892    943.43757  0.072194488  0.071516175            1 
 1090000   0.82460311   -2.6901315    939.75779  0.071846926  0.071485082            8 
 1091000   0.81025911   -2.7159999    941.49252  0.071913575  0.071454083            5 
 1092000   0.81795769   -2.6926116    942.35955  0.071913885  0.071423356            3 
 1093000   0.82456916    -2.681626    942.36807   0.07184874  0.071392711            3 
 1094000   0.82273016   -2.7344206    943.30972  0.071854793  0.071361933            2 
 1095000   0.82746164    -2.709552    944.88702   0.07190921  0.071331597            3 
 1096000   0.81706631   -2.7156215    944.52942   0.07181641  0.071301072            3 
 1097000   0.82101332   -2.7003332    944.87148  0.071776928  0.071270398            4 
 1098000   0.81931672   -2.7135508    944.25324  0.071664636   0.07124041            2 
 1099000   0.80990159   -2.6977242     942.0467  0.071432113  0.071209869            7 
 1100000   0.81908437   -2.7175629     947.5412  0.071783424  0.071178982            2 
 1101000    0.8264599   -2.7035688     946.7758  0.071660294  0.071148374            3 
 1102000   0.82444219   -2.7276499    946.85427    0.0716012  0.071117779            2 
 1103000   0.81631533    -2.673327    947.00404    0.0715476   0.07108671            2 
 1104000   0.81177608   -2.6922733    947.63009  0.071530049  0.071055979            3 
 1105000   0.81258403    -2.719492    949.55027  0.071610126  0.071024724            4 
 1106000   0.81911735   -2.7313965    951.92228  0.071724102  0.070993832            3 
 1107000   0.81624901   -2.7170797    947.35258   0.07131531  0.070963305            3 
 1108000   0.80459534   -2.7405559    948.31521  0.071323346  0.070932278            7 
 1109000   0.80420047   -2.7162467    950.65632   0.07143495  0.070902055            5 
 1110000   0.80947403   -2.7000134    953.04128  0.071549645  0.070871985            4 
 1111000   0.80512864   -2.7035053    954.21882  0.071573569  0.070842196            3 
 1112000    0.8193032   -2.7169806      950.783  0.071251723  0.070811336            4 
 1113000     0.795332   -2.7212206    950.47915  0.071164956   0.07078086            4 
 1114000   0.81509116   -2.7252996     951.4602  0.071174462  0.070749714            3 
 1115000   0.81424873    -2.723992     951.3286  0.071100792  0.070718753            7 
 1116000   0.80448164   -2.7047966    954.51964  0.071275362  0.070687766            4 
 1117000   0.81512982   -2.7066511    956.64285  0.071369953   0.07065792            2 
 1118000    0.7920559    -2.712404    954.32431  0.071133297   0.07062776           10 
 1119000   0.80586558   -2.7207487    956.33504   0.07121947  0.070597605            2 
 1120000   0.79504938   -2.7184529    955.50302  0.071093975  0.070567092            3 
 1121000   0.79715553   -2.7091648    960.00717  0.071365386  0.070536498            4 
 1122000   0.81009227    -2.721102    954.42246  0.070886992   0.07050599            3 
 1123000   0.80700749   -2.7305539    957.75208  0.071070947  0.070476259            3 
 1124000   0.81624853   -2.7392406    952.96886  0.070653089  0.070445814            4 
 1125000   0.80174628   -2.7284336     961.1634  0.071197289  0.070415405            2 
 1126000   0.81958529   -2.7404327    956.84977  0.070814814  0.070385099            3 
 1127000   0.79756158   -2.7115817    960.41844  0.071015856  0.070354368            3 
 1128000   0.79437171   -2.7388032    959.60788  0.070893017   0.07032435            4 
 1129000   0.80320236   -2.7068688    959.94152  0.070854851   0.07029399            2 
 1130000    0.8020737   -2.7083247    962.22924  0.070960858   0.07026397            6 
 1131000   0.80281088    -2.738681     964.4436  0.071061274  0.070233855            4 
 1132000   0.81509931   -2.7216895    964.05887  0.070970176  0.070203976            6 
 1133000   0.80091713   -2.7124183    962.98134  0.070828283  0.070173883            5 
 1134000   0.81130308   -2.7096358    964.18624  0.070854368  0.070143675            5 
 1135000   0.79941638   -2.7224219     963.9223  0.070772562  0.070113675            5 
 1136000   0.82643341   -2.7225986    961.62916  0.070542045  0.070083548            2 
 1137000   0.81364562   -2.7436776    963.61026  0.070625202  0.070053667            5 
 1138000   0.78922966   -2.7365369    965.10352   0.07067249   0.07002363            5 
 1139000   0.78936828   -2.7259608    966.00964  0.070676737  0.069993096            3 
 1140000    0.8031808    -2.714231    964.78065  0.070524901  0.069962346            5 
 1141000   0.80880386   -2.7018127    966.81197   0.07061145  0.069931523            3 
 1142000   0.79384152   -2.7312162    962.26949  0.070218147  0.069900389            2 
 1143000   0.79161728   -2.7115523    963.32704  0.070233817  0.069869335            5 
 1144000   0.79683333   -2.7358684    964.71369  0.070273433  0.069838329            4 
 1145000    0.8080691   -2.7047563    968.50995  0.070488352  0.069807894            3 
 1146000   0.79443409    -2.725017    967.32253  0.070340498  0.069777226            2 
 1147000   0.80958661   -2.7075043    967.31891  0.070278909  0.069746253            5 
 1148000   0.79851978   -2.7380425    967.98835  0.070266286  0.069715554            2 
 1149000   0.81343685   -2.7404349    966.68685  0.070110738  0.069684749            3 
 1150000   0.80080655   -2.7390591    967.99034  0.070144228  0.069654091            2 
 1151000   0.79320041   -2.7278381    969.15626  0.070167699  0.069623135            2 
 1152000   0.80559515   -2.7446276    971.74204   0.07029384   0.06959219            3 
 1153000   0.78682923   -2.7516049    966.90235  0.069883084  0.069561119            2 
 1154000   0.79542572   -2.7275877    968.98645  0.069973025  0.069529695            2 
 1155000    0.7945826   -2.7200551    966.86007  0.069759024  0.069498488            4 
 1156000   0.79740741   -2.7342289    967.71357  0.069760205  0.069467168            2 
 1157000   0.78947251   -2.7511935    970.64067  0.069910737  0.069436147            4 
 1158000   0.78308232    -2.768344    965.25768  0.069462988  0.069404813            2 
 1159000   0.77699902   -2.7575609    968.68639  0.069649582  0.069372835            4 
 1160000   0.76332307   -2.7279678    970.62566  0.069728855  0.069340717            3 
 1161000   0.78809945   -2.7294348    970.75268  0.069677913  0.069309514            4 
 1162000   0.80284835   -2.7335797    974.01232  0.069851715  0.069278046            3 
 1163000   0.80393662   -2.7387086     967.5958  0.069331886  0.069245871            3 
 1164000   0.78861662   -2.7563431    973.64788  0.069705604  0.069213412            2 
 1165000   0.81403065   -2.7520328    972.73952  0.069580795  0.069181392            2 
 1166000   0.78499715   -2.7489895    970.66025  0.069372516  0.069149238            4 
 1167000   0.80407166   -2.7603883    971.75154  0.069390998  0.069117528            3 
 1168000   0.77997262   -2.7405399    971.60041  0.069320806  0.069085577            6 
 1169000    0.7892987   -2.7370359    972.94418  0.069357299  0.069053619            4 
 1170000   0.80108683    -2.734342    969.99137  0.069087704  0.069021153            3 
 1171000   0.77241205    -2.732952    972.16065  0.069183081  0.068989648            3 
 1172000   0.80246734   -2.7578129    972.09393  0.069119307  0.068957638            3 
 1173000   0.78654842   -2.7431609    972.85516  0.069114462  0.068925454            3 
 1174000   0.78303247   -2.7575654    975.05354  0.069211637  0.068893776            3 
 1175000   0.78211066   -2.7649873    973.75349  0.069060531  0.068862005            4 
 1176000   0.78152793   -2.7386862     974.8559  0.069079925  0.068830225            3 
 1177000   0.78628131   -2.7455153    975.72132  0.069082506  0.068798165            1 
 1178000   0.78431394   -2.7529418    974.93876  0.068968503  0.068766028            3 
 1179000   0.77638929   -2.7418771    977.67009   0.06910306  0.068734053            3 
 1180000   0.78137715   -2.7748766    975.00102  0.068856004  0.068702294            5 
 1181000   0.78205619   -2.7384817    979.23554  0.069096496  0.068670697            3 
 1182000   0.78823563   -2.7328482    975.84128  0.068798737  0.068638915            4 
 1183000   0.78103177   -2.7564073    979.19018  0.068976485  0.068607279            3 
 1184000     0.781338   -2.7573416    977.31148  0.068785999  0.068575544            2 
 1185000   0.77126234    -2.725791     976.7261  0.068686786  0.068543624            6 
 1186000   0.78747945    -2.764755    977.83947  0.068707102  0.068511732            4 
 1187000   0.77812817   -2.7709426    982.54204  0.068979362  0.068479712            3 
 1188000   0.78268423   -2.7450676    980.86349  0.068803556  0.068447767            3 
 1189000    0.7790594   -2.7490522    978.59182  0.068586475  0.068416061            6 
 1190000   0.78249172   -2.7540657    980.67801  0.068674931  0.068384457            4 
 1191000   0.77041864   -2.7627594    983.23084  0.068795889  0.068352993            5 
 1192000   0.80060425   -2.7476357    980.03709  0.068514897  0.068321955            3 
 1193000   0.77217403   -2.7642798    981.71064  0.068574367  0.068290745            3 
 1194000   0.76380542   -2.7419326    983.83322  0.068665077  0.068259807            3 
 1195000   0.78410459   -2.7815532    984.22298  0.068634797  0.068228739            5 
 1196000   0.76651169   -2.7512249    984.91476   0.06862561  0.068197825            4 
 1197000   0.77454828   -2.7584702     985.5528  0.068612699   0.06816707            6 
 1198000   0.77867152   -2.7415553    987.69158    0.0687042  0.068135924            2 
 1199000   0.78321347    -2.769506    986.45267  0.068560792  0.068105059            6 
 1200000   0.76967665   -2.7470664    987.85834  0.068601274  0.068074289            4 
 1201000   0.79244677   -2.7750561    989.79326  0.068678411  0.068043866            5 
 1202000   0.77246432   -2.7790987    986.59909  0.068399826  0.068012869            3 
 1203000   0.76485406   -2.7890251    983.38468  0.068120302  0.067981674            3 
 1204000   0.77574871   -2.7499957    988.58661  0.068423769    0.0679508            3 
 1205000   0.77126186   -2.7724164    990.13039  0.068473747  0.067920132            2 
 1206000   0.76602647   -2.7593813    990.71196  0.068457156  0.067889851            5 
 1207000   0.76583585   -2.7474188    991.48931  0.068454108  0.067859382            7 
 1208000   0.76930444   -2.7813476    987.47567  0.068120562  0.067828295            4 
 1209000   0.76837621    -2.756173    994.50018    0.0685484  0.067797787            3 
 1210000   0.78803273   -2.7622979    990.39991   0.06820936  0.067766747            5 
 1211000   0.75891749   -2.7528312    989.68817  0.068104058  0.067735814            7 
 1212000   0.78678281   -2.7625038    993.01029  0.068276285  0.067704834            8 
 1213000   0.77499185   -2.7478595     995.5359  0.068393508  0.067673835            3 
 1214000   0.76981649   -2.7703502    993.55737  0.068201357  0.067642782            3 
 1215000   0.79491722   -2.7862656     989.7869  0.067886619  0.067612078            2 
 1216000    0.7491679   -2.7509431    993.17323  0.068062858   0.06758106            4 
 1217000    0.7611792   -2.7466913    992.68321  0.067973378   0.06755011            4 
 1218000   0.76080003   -2.7612707    993.39003   0.06796593  0.067519204            4 
 1219000   0.78560911   -2.7843473    994.22215   0.06796706  0.067487973            4 
 1220000   0.76455309   -2.7791051    995.20591  0.067978546  0.067456951            3 
 1221000   0.74979073   -2.7614629    993.72423  0.067821747  0.067425796            3 
 1222000   0.78595745   -2.7747028    989.35213  0.067468094  0.067394699            2 
 1223000    0.7521356   -2.7477642    996.45069  0.067896613  0.067363866            3 
 1224000    0.7866321   -2.7861055    993.28205  0.067625412  0.067332649            4 
 1225000   0.75790482   -2.7905993    995.32926  0.067709473  0.067301407            2 
 1226000   0.76748504   -2.7797071    998.91691  0.067898104  0.067270577            3 
 1227000     0.791238   -2.7753838    997.05069  0.067716021  0.067239745            3 
 1228000   0.76704085   -2.7707045    999.58729  0.067833014  0.067208666            3 
 1229000   0.74917168   -2.7680485    998.06981  0.067674926  0.067177512            4 
 1230000   0.77645567   -2.7560575    999.77694  0.067735565  0.067146603            2 
 1231000   0.76698452   -2.7820762    994.13853  0.067298845  0.067115722            4 
 1232000   0.77097369   -2.7794168    1001.0463  0.067711467  0.067084508            3 
 1233000   0.75979821    -2.786772    999.41177  0.067546078  0.067053527            3 
 1234000   0.77559864   -2.7877675    996.28127  0.067279934  0.067022593            2 
 1235000   0.76344532    -2.763593    998.26556   0.06735935  0.066991475            2 
 1236000   0.76658751   -2.7819003    1000.3805  0.067447442  0.066960535            4 
 1237000   0.75351005   -2.7899552    998.94966  0.067296528  0.066929514            3 
 1238000   0.76265081   -2.7691243    1003.9379  0.067577942  0.066898503            3 
 1239000   0.76214385   -2.7953115    998.83222  0.067179999  0.066867698            5 
 1240000   0.76545224   -2.7903343    1001.1911  0.067284349  0.066836931            7 
 1241000   0.74307977   -2.7830771    1001.4776  0.067249369  0.066806118            2 
 1242000   0.76063568   -2.7891313    1004.3956   0.06739101  0.066775355            5 
 1243000   0.75933786   -2.7831008    1003.4446  0.067273034  0.066744805            5 
 1244000   0.77175689   -2.7800321    1005.6002  0.067363355  0.066714066            5 
 1245000   0.76834532   -2.7743806    1005.9732  0.067334216  0.066683451            5 
 1246000   0.77025274   -2.7711638    1004.4354  0.067177327  0.066652968            3 
 1247000   0.74653881   -2.8011365    1006.6083  0.067268667  0.066622599            5 
 1248000   0.75667228   -2.7642787    1007.8154  0.067295364  0.066592259            3 
 1249000   0.76251125   -2.7749629    1006.8323  0.067175895  0.066561768            6 
 1250000    0.7509597    -2.786248    1007.8947  0.067192978  0.066531534            6 
 1251000   0.76574872   -2.7684176    1007.3337  0.067101899  0.066501123            3 
 1252000   0.76737657   -2.7868052    1005.3599  0.066916928  0.066470698            3 
 1253000   0.75066077   -2.8044751    1006.7185  0.066953877  0.066439837            6 
 1254000   0.75042468   -2.7790601    1008.3275  0.067007407  0.066409078            2 
 1255000   0.76354006    -2.786671    1004.1564  0.066677052  0.066378637            3 
 1256000   0.74539183   -2.8063329    1004.1955  0.066626557  0.066347352            5 
 1257000   0.74338544   -2.7781139    1007.8225  0.066814007  0.066316297            3 
 1258000   0.76519697   -2.7999306    1007.8003  0.066759428  0.066285567            3 
 1259000   0.75830314    -2.826288    1010.2584    0.0668691  0.066254799            5 
 1260000    0.7627793   -2.7871709     1007.311  0.066621096  0.066223772            3 
 1261000    0.7354893   -2.7926066     1009.396  0.066706051  0.066193095           11 
 1262000   0.74877871   -2.7871466    1006.5719  0.066466712  0.066162228            7 
 1263000    0.7614894   -2.8074332     1011.945  0.066768605  0.066131555            3 
 1264000   0.75562049   -2.7969286    1008.8274  0.066510248  0.066100704            5 
 1265000   0.75180435   -2.7817344    1010.4657  0.066565594  0.066069598            3 
 1266000   0.75333421   -2.7910486     1012.085  0.066619605  0.066038725            5 
 1267000   0.73338859   -2.8145345    1009.4174   0.06639157  0.066007585            6 
 1268000   0.74716101   -2.7806433    1010.9475  0.066439768  0.065976687            3 
 1269000   0.76235383   -2.7970224    1007.8181  0.066181909  0.065946069            3 
 1270000   0.73929644   -2.7906358    1012.6112  0.066444305  0.065915118            6 
 1271000   0.75338783    -2.817975    1008.8121  0.066142937  0.065884186            5 
 1272000   0.72975469    -2.815297    1008.9581  0.066100502  0.065852965           10 
 1273000   0.75498099   -2.8083389    1011.2181  0.066196522  0.065822133            4 
 1274000   0.75334515   -2.7969256    1018.3484  0.066610963  0.065791237            3 
 1275000   0.74764617   -2.7947458    1014.3437  0.066296976   0.06576045            3 
 1276000   0.75774467   -2.8252935    1014.2458  0.066238624   0.06572953            8 
 1277000   0.75099602   -2.8028434    1014.1583  0.066181041  0.065698466            3 
 1278000   0.74489275   -2.7909685    1013.0904  0.066059625  0.065667776            5 
 1279000   0.73344914   -2.8040529    1015.7061    0.0661784  0.065636834            9 
 1280000   0.75087657   -2.8085043    1016.6172  0.066186018  0.065605827           12 
 1281000   0.75384832   -2.7831182     1010.773  0.065754165  0.065574399            4 
 1282000   0.74892848   -2.8124033    1013.1905  0.065860018  0.065543111            4 
 1283000   0.73443781   -2.7853527    1018.5355  0.066155854  0.065512062            5 
 1284000   0.72970741   -2.8127599    1013.7347  0.065792749  0.065480995            9 
 1285000   0.74885297   -2.7911665    1014.1948  0.065771385  0.065449712            3 
 1286000   0.74328186   -2.8245886    1015.8978  0.065830601  0.065418368           13 
 1287000   0.73018975   -2.7972503    1014.2905  0.065675377  0.065386986            4 
 1288000   0.76391522   -2.8044774    1018.2013  0.065877416  0.065355709            7 
 1289000   0.73267714   -2.8114677    1018.1086  0.065820316  0.065324497            3 
 1290000   0.74971061   -2.8160081    1016.2512  0.065649304  0.065293264            6 
 1291000   0.74377445   -2.8267489    1016.9319  0.065642388  0.065262091            7 
 1292000   0.73718942   -2.7979542    1017.6827  0.065640007  0.065231148            4 
 1293000   0.73001404    -2.809302    1019.5085  0.065706918   0.06520019            9 
 1294000    0.7369709   -2.8445767    1019.8461  0.065677879  0.065169239            5 
 1295000   0.74031363   -2.8117158    1020.8095  0.065689154  0.065138388            7 
 1296000   0.74118441   -2.8219611    1017.4687  0.065423656  0.065106818            2 
 1297000   0.74174877   -2.8043352    1019.7032  0.065516781  0.065075686            5 
 1298000   0.72069973   -2.8151459     1021.194  0.065562021  0.065044736            3 
 1299000   0.73660532    -2.801393    1019.7485  0.065418816  0.065013495            7 
 1300000   0.73471346   -2.8236544    1022.0991  0.065519173  0.064982553            3 
 1301000   0.73021017   -2.7886512    1025.5938   0.06569266  0.064951826            4 
 1302000   0.73278479   -2.8257631    1019.9407  0.065280382  0.064921369            4 
 1303000   0.74669722   -2.8175845    1023.9201  0.065484786  0.064890531            4 
 1304000   0.73607377   -2.8175119    1023.4714  0.065405895  0.064859988            4 
 1305000   0.72630359   -2.8215352     1020.387  0.065158815  0.064828956            3 
 1306000   0.72718133   -2.7964691    1023.3238  0.065296314  0.064797866           10 
 1307000   0.73077164   -2.8093509    1025.1551  0.065363117  0.064766866            4 
 1308000   0.73049759   -2.8295054    1020.1576  0.064994753   0.06473595            6 
 1309000   0.72932702    -2.826946    1025.0323  0.065255431  0.064705103            3 
 1310000   0.73821948   -2.8314302    1024.2825  0.065157917  0.064674328            7 
 1311000   0.72014018   -2.8373367      1026.42  0.065244086  0.064643625            3 
 1312000   0.74790636   -2.8345054    1025.3456   0.06512612  0.064613087           10 
 1313000   0.72190515   -2.8228645    1026.0657  0.065122219  0.064582379            4 
 1314000   0.71234738   -2.8146008    1028.4542  0.065224136  0.064551768            4 
 1315000   0.72749883   -2.8099478    1028.4981  0.065177317  0.064521055            6 
 1316000   0.73446049   -2.8269811    1027.2416  0.065048227  0.064490313            8 
 1317000   0.73128293   -2.8148507    1031.0328  0.065238727  0.064460058            8 
 1318000   0.72560934   -2.8169624    1028.9851  0.065059755   0.06442956            4 
 1319000   0.72051517   -2.8202765    1026.8207  0.064873688  0.064399339            6 
 1320000   0.72538851   -2.8357067    1032.3322  0.065172489  0.064369347            3 
 1321000   0.73558825   -2.8298968    1031.3188  0.065059221  0.064339211            3 
 1322000   0.73843995   -2.8119435    1031.5694  0.065025808  0.064309572            2 
 1323000   0.71627988   -2.7972796    1034.7295  0.065175706  0.064279665            8 
 1324000   0.71088498   -2.8311805    1035.9826  0.065205352  0.064250405            5 
 1325000   0.73642007   -2.8252928    1033.2474  0.064984111  0.064221139            4 
 1326000   0.71640633   -2.8139567    1034.8886  0.065038245  0.064191436            3 
 1327000   0.71713291   -2.8293041    1028.6287  0.064596128  0.064161545            6 
 1328000   0.73422584   -2.8368898    1033.9081  0.064878773  0.064131836            3 
 1329000   0.73124629   -2.8249293    1034.7234  0.064881073   0.06410208            4 
 1330000   0.72008961   -2.8462038    1030.4569  0.064564968  0.064072304            6 
 1331000    0.7268027   -2.8443821    1032.5741  0.064649016  0.064042292            4 
 1332000   0.71044838   -2.8411234    1032.2615  0.064580923   0.06401259            5 
 1333000   0.72137937    -2.821304    1034.4836  0.064671395   0.06398262            5 
 1334000   0.73141214   -2.8450833    1031.1469  0.064414476  0.063952964            6 
 1335000   0.72138026   -2.8549796    1034.5554  0.064578988  0.063923124            4 
 1336000   0.71543543   -2.8589948    1034.5385  0.064529596  0.063893387            5 
 1337000   0.72288994   -2.8357418    1036.4233  0.064598808  0.063863535            3 
 1338000   0.72504271   -2.8067648    1035.6369  0.064501549  0.063833885            6 
 1339000   0.71618547   -2.8311898      1037.54  0.064571822  0.063804367            5 
 1340000   0.72269366   -2.8572397    1034.6467  0.064343699  0.063774802            2 
 1341000    0.7200134    -2.848434    1037.6283     0.064481  0.063745139            8 
 1342000   0.71213602   -2.8633143    1039.9576  0.064577596  0.063715949            7 
 1343000   0.71236358   -2.8374713    1038.0036  0.064408262   0.06368675            6 
 1344000   0.71246633    -2.859557    1040.9824  0.064545037  0.063657263            4 
 1345000   0.72127193   -2.8386375    1037.1383  0.064258877  0.063627814            7 
 1346000   0.72713374   -2.8408126    1040.9539  0.064447371  0.063598441            4 
 1347000   0.72802107   -2.8503536    1042.8945  0.064519583  0.063569013            6 
 1348000   0.70716858   -2.8517034    1041.1785  0.064365633  0.063539395            3 
 1349000   0.72876198   -2.8466604     1040.004  0.064245368  0.063509939            2 
 1350000   0.71677228   -2.8366253    1039.1311  0.064143898  0.063480441            2 
 1351000   0.70726102   -2.8435278    1042.8787  0.064327577  0.063450957            3 
 1352000   0.72437071   -2.8266054    1037.8767   0.06397169  0.063421726           10 
 1353000   0.71938516   -2.8411718     1042.251  0.064193827  0.063392417            4 
 1354000   0.70692524   -2.8546138    1042.8451  0.064182981  0.063363101            6 
 1355000   0.73235555   -2.8496965    1043.2169  0.064158482  0.063333577            6 
 1356000   0.71279453   -2.8333385     1038.961  0.063849622  0.063303794            5 
 1357000   0.72043922   -2.8643393    1039.0022  0.063805098  0.063274209            5 
 1358000   0.70929268   -2.8417158    1043.8512  0.064055671  0.063244493            9 
 1359000   0.70065857    -2.840428    1045.5001  0.064109647   0.06321508            7 
 1360000   0.69875402   -2.8643928    1040.6262  0.063763862  0.063185324            6 
 1361000   0.70881522   -2.8657426    1041.6792  0.063781484  0.063155548            3 
 1362000    0.7218146   -2.8624738    1042.5454  0.063787654  0.063126011            8 
 1363000   0.72403401   -2.8489495    1042.7855  0.063755534  0.063096384            4 
 1364000   0.70114059   -2.8464078    1044.1784  0.063793888  0.063066574            5 
 1365000   0.69229784    -2.876029    1041.4928  0.063583199  0.063036673            4 
 1366000   0.71191873   -2.8605937    1042.9546  0.063625831  0.063006807            5 
 1367000   0.70509107   -2.8592965    1041.9886  0.063520395   0.06297701            5 
 1368000   0.69945314   -2.8525578    1044.5408  0.063629435  0.062946912            5 
 1369000   0.69627988   -2.8589472    1041.7578  0.063413549  0.062917151           17 
 1370000   0.69439876   -2.8646209    1044.0726  0.063508068  0.062887399            2 
 1371000   0.70547329   -2.8385883    1046.0226  0.063580272   0.06285757            2 
 1372000   0.70444386    -2.839209    1045.6861  0.063513492  0.062827716            5 
 1373000   0.70907331   -2.8637365    1047.9108  0.063602255  0.062798054            4 
 1374000   0.70729021   -2.8529604    1047.6051  0.063537427  0.062768455            4 
 1375000   0.68889086   -2.8740194    1046.7365  0.063438575  0.062738426            5 
 1376000   0.70542507   -2.8561996    1051.1368  0.063658963  0.062708903            6 
 1377000   0.70537228   -2.8629293    1044.9137  0.063236121  0.062679128           10 
 1378000   0.69947514    -2.867792    1047.2959  0.063334295  0.062649443            7 
 1379000   0.70863878   -2.8574193    1046.9467  0.063267262  0.062619877            4 
 1380000   0.70495952   -2.8692811    1045.3031  0.063122169  0.062590161           12 
 1381000   0.69888101   -2.8742166     1045.659  0.063097937  0.062560389            4 
 1382000   0.69163858   -2.8660914    1049.6072  0.063290353  0.062530368            4 
 1383000    0.6876406   -2.8561538     1047.698   0.06312955  0.062500756            5 
 1384000   0.70041033   -2.8856767    1044.7485  0.062906343  0.062470609            4 
 1385000   0.68775001    -2.878043    1048.5704  0.063090877  0.062440622            6 
 1386000   0.71138726   -2.8357876    1049.9267  0.063126906  0.062410773            4 
 1387000    0.7090105   -2.8647864    1049.6916  0.063067269  0.062380759            7 
 1388000    0.7015212   -2.8708387    1049.0894  0.062985673  0.062350771            4 
 1389000   0.70430447   -2.8601266    1047.5324  0.062846918  0.062321278            2 
 1390000   0.69891595   -2.8799026     1052.314   0.06308837  0.062291454            5 
 1391000   0.70298478   -2.8757677    1049.8471  0.062895225  0.062261505            3 
 1392000   0.69392259   -2.8681713    1055.7181  0.063201516    0.0622318            4 
 1393000   0.69767775   -2.8505071    1053.4267  0.063019064  0.062202323            6 
 1394000   0.70448792   -2.8783703    1052.8049  0.062936687  0.062172988           10 
 1395000   0.70968403   -2.8568231    1052.0146  0.062844362  0.062143512            3 
 1396000   0.70364941   -2.8663456    1053.0018  0.062858276  0.062113979            3 
 1397000   0.70056149   -2.8811834    1054.4983  0.062902549  0.062084924            6 
 1398000   0.69584528   -2.8782522    1055.5882  0.062922519  0.062055597            4 
 1399000    0.7023735   -2.8786557    1054.2827  0.062799779  0.062026263            5 
 1400000   0.69172748   -2.8673365    1053.3747  0.062700875  0.061996918            5 
 1401000   0.71615861   -2.8501925    1056.2766  0.062828732  0.061967554            4 
 1402000   0.68783976   -2.8742089    1058.4908  0.062915523   0.06193861            6 
 1403000   0.68247914   -2.8613871    1055.2758  0.062679724  0.061909505            4 
 1404000   0.70461631   -2.8640275    1054.2535  0.062574401  0.061880375            9 
 1405000   0.70206793   -2.8585652    1058.0002  0.062752088  0.061851188            5 
 1406000   0.68681399   -2.8707353    1059.1592   0.06277615  0.061822139            7 
 1407000   0.70311846   -2.8513397    1059.1142  0.062728869  0.061792922            8 
 1408000   0.69964131   -2.8782036    1055.3837  0.062463525  0.061763753            3 
 1409000   0.68631898   -2.8805215    1059.1088  0.062639506  0.061734522            6 
 1410000   0.69412046    -2.877233    1057.6143  0.062506753   0.06170498            4 
 1411000   0.68525096   -2.8725268    1058.5989  0.062520606  0.061675714            4 
 1412000   0.68840675   -2.8755869    1058.0092  0.062441524  0.061646341            6 
 1413000   0.69757783   -2.8572798    1056.9897  0.062337208  0.061617094            3 
 1414000   0.68894182    -2.858978     1061.137  0.062537542  0.061587983            8 
 1415000   0.69882017   -2.8804181    1058.1956  0.062320115  0.061559001            4 
 1416000   0.68234327   -2.8692058    1059.1971  0.062335044  0.061529978            7 
 1417000   0.70201276   -2.8960901    1058.4028  0.062244342  0.061500677            4 
 1418000   0.67435476   -2.8707246    1059.8465  0.062285292  0.061471538            5 
 1419000   0.68876062   -2.8798743    1061.2357  0.062322983  0.061442512            9 
 1420000   0.67014213   -2.8978437    1061.2012  0.062277066  0.061413445            4 
 1421000    0.6802331   -2.8807806    1059.3922  0.062127151    0.0613845            8 
 1422000   0.68615092   -2.8626285    1063.7128  0.062336664  0.061355635            3 
 1423000   0.67780822   -2.8704739    1061.5332  0.062165215  0.061326732            6 
 1424000    0.6837288   -2.8889142    1061.5483   0.06212244   0.06129776            5 
 1425000   0.67712888   -2.9089037    1063.3355  0.062183361   0.06126883            5 
 1426000   0.69688043   -2.8846347     1062.456  0.062088358  0.061240134            3 
 1427000   0.69009305   -2.8703812    1065.7886  0.062239466   0.06121118            6 
 1428000   0.67545332   -2.8682181    1062.5594  0.062007437  0.061182176            4 
 1429000   0.67147511    -2.884086    1064.0093  0.062048596  0.061153557            9 
 1430000   0.68877348   -2.8874671    1065.4394  0.062088541  0.061124682            5 
 1431000   0.67100135   -2.8772347    1063.3006  0.061920605  0.061095848            3 
 1432000   0.69667217   -2.8622563    1070.3538  0.062287814  0.061067132            6 
 1433000   0.69335389   -2.8624011    1064.7844  0.061920468  0.061038493            4 
 1434000   0.67912513   -2.8891068    1064.7576  0.061875729  0.061009528            5 
 1435000   0.68606327   -2.8890729    1064.3692  0.061810061  0.060980364            9 
 1436000    0.6810161   -2.9094826     1064.627  0.061781977  0.060951367            4 
 1437000   0.68181363   -2.8958145    1064.7827  0.061748011  0.060922316            5 
 1438000   0.68435474   -2.9086522    1066.0067  0.061776003    0.0608935            3 
 1439000   0.68027571    -2.891531    1068.7339  0.061891008  0.060864854            6 
 1440000   0.68726908    -2.869996    1067.3303    0.0617668  0.060836025            6 
 1441000   0.68398195    -2.910939    1067.4057  0.061728296  0.060807375            9 
 1442000   0.68064623   -2.8896002    1068.1114   0.06172627  0.060779003            5 
 1443000    0.6837491   -2.8731454    1066.5104  0.061591035  0.060750368            5 
 1444000     0.670924   -2.9026206    1070.5003  0.061778641  0.060721961            4 
 1445000   0.67708091   -2.8848522    1072.2059  0.061834253   0.06069356            6 
 1446000   0.67562536   -2.9009959    1070.8376  0.061712631  0.060665284            6 
 1447000   0.68308483   -2.8912289    1069.1485  0.061572709  0.060637085            3 
 1448000   0.67759113   -2.9210445    1069.1984  0.061533056  0.060608596            6 
 1449000   0.68146362   -2.9130784    1066.7217  0.061348157  0.060579867            5 
 1450000   0.68551307   -2.8862067    1071.3174  0.061569967  0.060551209            6 
 1451000   0.66441999   -2.8904817    1073.4208  0.061648332   0.06052269            4 
 1452000   0.67818252   -2.8928786    1071.9176  0.061519605  0.060494459            7 
 1453000   0.68597274   -2.9149758    1072.3718  0.061503318  0.060466072            3 
 1454000    0.6698809   -2.8927363    1069.6945  0.061307574  0.060437866            9 
 1455000   0.66248131   -2.8875977    1075.1389  0.061577258  0.060409632            5 
 1456000   0.66813897   -2.8901261    1073.8435  0.061460824  0.060381495            7 
 1457000   0.67679458   -2.8980584    1072.3658  0.061334125  0.060353521            5 
 1458000   0.67162547   -2.9021713      1071.55  0.061245429  0.060325135           11 
 1459000   0.65990951    -2.907661    1073.7721  0.061330371   0.06029687            8 
 1460000   0.67804333     -2.91361    1075.8651  0.061407827  0.060268642            6 
 1461000   0.66364884   -2.9168511    1073.2605  0.061217229   0.06024031            6 
 1462000   0.66604187   -2.9056543    1075.8699  0.061324095  0.060212007            4 
 1463000   0.66683709   -2.8940495    1073.9428  0.061172406  0.060183636            4 
 1464000   0.66532098   -2.9258074    1073.1963  0.061088132  0.060155407            3 
 1465000   0.67185364   -2.9101681    1073.7981  0.061080663  0.060126844           12 
 1466000   0.66156606   -2.9339244    1071.8436  0.060927901   0.06009852            4 
 1467000   0.67138615   -2.9033557    1078.0569  0.061239314  0.060070088            9 
 1468000   0.66958179   -2.9087218    1075.2788  0.061039893  0.060041962            8 
 1469000   0.65660081   -2.9168591    1074.8715  0.060975237  0.060013902           10 
 1470000   0.66599322    -2.917865    1077.0602  0.061057835  0.059985338            4 
 1471000   0.67068574   -2.9071862    1077.1644  0.061022231  0.059957286            6 
 1472000   0.66963383   -2.9227609    1076.4784  0.060941941  0.059929192            4 
 1473000   0.66769658   -2.9293527    1077.0073  0.060930487  0.059900812            3 
 1474000   0.66904113   -2.9027876    1076.9864  0.060887969  0.059872621            4 
 1475000   0.66985998   -2.9209703    1080.4061  0.061039891  0.059844481            3 
 1476000   0.66694577    -2.919459    1076.9284  0.060802189  0.059816354            7 
 1477000   0.67512745   -2.9162116    1077.7737  0.060808718  0.059788125            3 
 1478000   0.67097728   -2.9272286    1074.5334  0.060584876  0.059759752            6 
 1479000   0.65660438   -2.9221844    1079.3101  0.060813053  0.059731847           11 
 1480000   0.66069335   -2.9093084     1076.136  0.060593245  0.059703488            4 
 1481000   0.67268018   -2.9094614    1081.0625  0.060829532  0.059675358            9 
 1482000   0.66818743   -2.9355311    1078.7172  0.060656612  0.059647391            6 
 1483000   0.65047728    -2.916809    1078.6944  0.060614431  0.059619086            5 
 1484000   0.66333538   -2.9398614    1078.1187  0.060541255    0.0595908            4 
 1485000   0.65903049   -2.9140343    1078.9115  0.060544979  0.059562746            4 
 1486000     0.661148   -2.9254958    1081.1576  0.060630191  0.059534378            6 
 1487000   0.65249999   -2.9287601    1080.6392   0.06056037  0.059505933           11 
 1488000   0.67039933   -2.9303707     1080.575  0.060516071  0.059477613            6 
 1489000   0.66046521   -2.9334139    1077.0835  0.060280025  0.059449519            6 
 1490000   0.67075131   -2.9160694    1079.9226  0.060398358  0.059421147           10 
 1491000   0.66141437    -2.925313    1079.6646  0.060343425  0.059392761            5 
 1492000   0.66195679   -2.9341715    1077.3428  0.060173301  0.059364389            5 
 1493000   0.65108109   -2.9421565    1081.4693  0.060363322  0.059335991            3 
 1494000   0.66132962   -2.9418478    1080.2069  0.060252504   0.05930759           10 
 1495000   0.65197279   -2.9294901    1080.0053  0.060200962  0.059279137            5 
 1496000   0.66363703   -2.9367844    1079.6935  0.060143356  0.059250559            4 
 1497000   0.64076739   -2.9122499    1082.0735  0.060235668  0.059221962            6 
 1498000   0.66272384   -2.9264079    1082.6912  0.060229815  0.059193462            7 
 1499000   0.64239726   -2.9397631     1079.639  0.060019958  0.059164914            6 
 1500000   0.65080581   -2.9187578    1084.3668    0.0602426  0.059136413            5 
 1501000   0.65462401   -2.9376575    1079.5563  0.059935394  0.059108017            5 
 1502000   0.65442626    -2.933716    1080.2816   0.05993573  0.059079665            4 
 1503000   0.65480746   -2.9329168    1083.4162  0.060069652  0.059051321            5 
 1504000   0.65133686   -2.9517968    1081.9515  0.059948554  0.059022948            4 
 1505000   0.65920169   -2.9471301    1083.1367  0.059974349  0.058994353            5 
 1506000   0.64464301   -2.9423036    1080.1955  0.059771774  0.058965892            7 
 1507000   0.64630746   -2.9341157    1083.2104  0.059898828  0.058937491            6 
 1508000    0.6693345   -2.9250504    1082.5404  0.059822084  0.058909088            4 
 1509000   0.65645479   -2.9284851    1081.9557  0.059750148  0.058880659            9 
 1510000   0.64240275   -2.9417459    1084.4919  0.059850545  0.058852422            2 
 1511000   0.64737288    -2.936899    1085.3996     0.059861  0.058824077            6 
 1512000   0.63377822    -2.940899    1080.6905  0.059561866  0.058795374            5 
 1513000   0.65240312   -2.9274681    1084.8003  0.059748862  0.058766817            9 
 1514000   0.64190882   -2.9547646    1080.8095  0.059489737  0.058738205            5 
 1515000   0.63442341   -2.9415361    1082.8204  0.059561076  0.058709622            5 
 1516000   0.64204445   -2.9525464    1083.1311  0.059538866  0.058681038            8 
 1517000   0.63723733   -2.9276688    1087.6532  0.059748035  0.058652573           13 
 1518000   0.65601832   -2.9325248    1083.8073  0.059497545  0.058624259            5 
 1519000   0.64040114   -2.9454299     1082.726  0.059399058  0.058596047            3 
 1520000   0.65544141   -2.9478279    1088.3599  0.059668856  0.058567728            8 
 1521000   0.63928437   -2.9509751    1085.5783  0.059477224  0.058539582            6 
 1522000   0.64950509   -2.9419277    1087.4458  0.059540396  0.058511383            7 
 1523000   0.63489492   -2.9524587    1087.1102  0.059482941  0.058483106            5 
 1524000   0.64565527   -2.9439262    1090.9983  0.059656511  0.058454889            5 
 1525000   0.63902937   -2.9380445    1087.1686  0.059408118  0.058426827            5 
 1526000   0.64201684   -2.9249396     1085.144   0.05925863  0.058398257           10 
 1527000   0.65606556   -2.9340747    1090.8372  0.059530517  0.058369904            5 
 1528000   0.63237625   -2.9571513    1084.5227  0.059147183  0.058341369            8 
 1529000   0.64196594    -2.932856    1084.2504  0.059093657   0.05831294            5 
 1530000   0.63051967   -2.9501355    1085.5356  0.059125032  0.058284286           10 
 1531000   0.64368448   -2.9608189    1084.9333  0.059053628  0.058255516            7 
 1532000   0.65030491   -2.9360044    1090.7709  0.059332623  0.058227125            4 
 1533000   0.63297282   -2.9368864    1088.1936  0.059153819  0.058198715           12 
 1534000   0.63724779   -2.9555238    1086.5546  0.059026217  0.058170409            5 
 1535000    0.6353058   -2.9422782    1091.5871  0.059260974  0.058142237           11 
 1536000   0.64540915   -2.9559343    1088.1219  0.059034391  0.058113919            5 
 1537000   0.63890314   -2.9466952    1087.8273  0.058980009  0.058085536            6 
 1538000   0.62615876   -2.9449965    1089.3043  0.059021691  0.058057292            7 
 1539000   0.63457189   -2.9479689    1087.2539  0.058872314  0.058028903            3 
 1540000   0.64694114   -2.9667239    1089.3049  0.058945071  0.058000351            4 
 1541000   0.63580563     -2.95375    1090.6765  0.058980993  0.057972018            4 
 1542000   0.62690956   -2.9432525    1090.1068  0.058911952   0.05794369            4 
 1543000   0.63661121   -2.9328529    1088.2797  0.058775099    0.0579155            7 
 1544000   0.65466852   -2.9634596    1089.2336  0.058788513  0.057887042            7 
 1545000    0.6411872   -2.9493477    1091.5141  0.058873468  0.057858808            5 
 1546000    0.6288716   -2.9557428    1092.2286  0.058873902  0.057830374            9 
 1547000   0.63730109   -2.9534032    1093.8629   0.05892388  0.057802451            3 
 1548000   0.63635854    -2.947143    1093.5905  0.058871149   0.05777429            3 
 1549000   0.64550277   -2.9604863     1093.022  0.058802562  0.057745988           13 
 1550000   0.63004687   -2.9723686    1092.6706  0.058745729  0.057717321            5 
 1551000   0.62288204   -2.9829443    1086.5835    0.0583808  0.057688605            6 
 1552000   0.61854825   -2.9495559    1091.7815  0.058622289  0.057659876           10 
 1553000   0.64689801   -2.9578041    1091.0956  0.058547738  0.057631258           10 
 1554000    0.6309019   -2.9410928    1092.6815  0.058595106  0.057602661            7 
 1555000   0.62930973   -2.9739583    1089.0596  0.058363325  0.057574212            6 
 1556000   0.63546462    -2.962673    1093.7209  0.058575453  0.057545599            4 
 1557000   0.62928221   -2.9647253    1091.8368  0.058436993  0.057516918            6 
 1558000   0.62816788    -2.975823    1092.5786  0.058439164  0.057488264            8 
 1559000   0.62876213   -2.9412952    1090.4844  0.058289739  0.057460017            3 
 1560000   0.64674267    -2.954572    1090.8878  0.058273922  0.057431542            5 
 1561000   0.62941444   -2.9679653    1090.9189  0.058238247  0.057403039            7 
 1562000    0.6275565   -2.9546161    1093.5784  0.058342853   0.05737444            7 
 1563000   0.62858394   -2.9824545    1094.1673  0.058336924  0.057345806            7 
 1564000   0.64393916   -2.9818215    1092.9639  0.058235503  0.057317165            7 
 1565000   0.61564201   -2.9503772     1092.381  0.058167252  0.057288817            5 
 1566000   0.62470207    -3.004061    1092.2674  0.058124062  0.057260308            6 
 1567000   0.63105282   -2.9583814     1093.077  0.058130023  0.057231474            6 
 1568000   0.62623596   -2.9648856    1092.7847  0.058077419  0.057202622            7 
 1569000    0.6184726   -2.9927358    1091.5701  0.057975892  0.057173931            6 
 1570000   0.63306118    -2.980635    1091.5332  0.057937009  0.057145044           10 
 1571000   0.64461711   -2.9690745    1096.0973  0.058142227   0.05711634            5 
 1572000   0.63189573    -2.961678    1091.5201  0.057862599  0.057087792            3 
 1573000   0.63125856   -2.9605882    1090.4035  0.057766659  0.057059156            8 
 1574000   0.61349633   -2.9912095    1091.2382  0.057774151  0.057030357            4 
 1575000   0.63252135   -2.9767755    1094.0464  0.057886053  0.057001568           10 
 1576000   0.62712227   -2.9690954    1095.3811  0.057919896  0.056972753            7 
 1577000    0.6147265    -2.985177    1092.3713  0.057724125  0.056944069            6 
 1578000   0.62412264    -2.961261     1090.593  0.057593631  0.056915312            5 
 1579000   0.64064145   -2.9913238     1094.913  0.057785151  0.056886511            5 
 1580000   0.63105001   -2.9948998    1094.2217  0.057712117  0.056857623            8 
 1581000   0.62419337   -2.9697638    1094.7414  0.057703006  0.056828615            6 
 1582000   0.62078612   -2.9591808    1097.6521  0.057819852  0.056800123            5 
 1583000   0.62248472   -2.9794944    1093.1464  0.057546136  0.056771456            3 
 1584000   0.63432271   -2.9826541    1094.2128  0.057565907  0.056742624            6 
 1585000   0.60669362   -2.9640413     1093.887  0.057512459  0.056713904            6 
 1586000   0.62364456   -2.9679064    1095.9441  0.057584286  0.056685323            5 
 1587000   0.61476106   -2.9775365    1093.7463  0.057432592  0.056656548            6 
 1588000   0.61422782   -2.9849191    1094.6428   0.05744347  0.056627761            6 
 1589000   0.62117384   -2.9873698    1093.4833   0.05734651  0.056599033            7 
 1590000   0.62037894   -2.9911546    1093.6576  0.057319581  0.056570204            8 
 1591000   0.62090002   -2.9802058    1094.3892  0.057321875  0.056541439            7 
 1592000   0.61396305    -2.975707    1092.8712  0.057206409   0.05651249            5 
 1593000   0.61730241   -2.9795969    1098.3788  0.057458613  0.056484019            6 
 1594000   0.61211735   -2.9736008    1094.2942  0.057209025  0.056455319            6 
 1595000   0.61049232   -2.9997682      1093.22  0.057117031  0.056426464           11 
 1596000   0.62575972   -2.9901102    1096.7477  0.057265437  0.056397821            7 
 1597000    0.6015417   -2.9813632    1094.8879  0.057132537  0.056369005            8 
 1598000   0.60421769   -2.9867774    1093.5991  0.057029576  0.056340029           13 
 1599000   0.61560391   -2.9911513     1098.002  0.057223371  0.056311052            8 
 1600000   0.59892729   -2.9859543    1099.8606  0.057284405   0.05628227            7 
 1601000   0.61878444    -2.990025    1094.6619  0.056978031  0.056253481           13 
 1602000   0.62869545   -2.9937606    1096.2645  0.057025829  0.056224737            4 
 1603000   0.62110385   -2.9797985     1096.339  0.056994123  0.056195811            4 
 1604000   0.62103314   -2.9904084    1094.5647  0.056866414  0.056166993            5 
 1605000   0.60175711   -2.9981431    1100.1969  0.057123412  0.056138055            7 
 1606000   0.61360742   -2.9721293    1094.9969   0.05681802  0.056109236            8 
 1607000   0.62264391   -2.9907486    1096.5311  0.056862224  0.056080484            5 
 1608000   0.61359651   -2.9960377    1096.4342  0.056821839  0.056051568            6 
 1609000   0.61315948   -2.9797775     1096.283  0.056778691  0.056022684           12 
 1610000   0.59682882   -2.9935001     1094.959  0.056674894  0.055993487            9 
 1611000   0.60162057   -3.0027825    1097.4711  0.056769661  0.055964464            6 
 1612000   0.60323931   -2.9894282    1096.6455  0.056691762  0.055935547            6 
 1613000   0.61993653   -2.9914577    1098.3697  0.056745698  0.055906539            8 
 1614000   0.60482151   -2.9916351    1095.8479  0.056580332  0.055877411            5 
 1615000   0.61317493   -2.9931168    1094.0047  0.056450192   0.05584836            5 
 1616000   0.60521849   -3.0033249    1093.0457  0.056365805  0.055819229           13 
 1617000   0.60529131   -3.0003335    1098.3654  0.056605102  0.055790399            7 
 1618000   0.61381055    -3.001332    1094.1354  0.056352255  0.055761299            3 
 1619000   0.62325746   -3.0027068     1097.018  0.056465825  0.055732391            4 
 1620000   0.60866088   -3.0053287    1096.7777  0.056418608  0.055703505            5 
 1621000    0.6024447   -3.0002181    1102.1424  0.056659593   0.05567469           11 
 1622000   0.60692058   -2.9900972     1101.868  0.056610564  0.055645921            8 
 1623000   0.60682318    -2.990292    1099.2283  0.056440148  0.055617144           10 
 1624000   0.60196344   -3.0136957    1099.3124  0.056409707  0.055588356            9 
 1625000    0.5951329   -3.0091631    1101.5853  0.056491556  0.055559702           11 
 1626000   0.61262525   -3.0086986    1098.2372  0.056285221  0.055530818            9 
 1627000     0.602094   -3.0114105    1101.3116  0.056408091  0.055502015            8 
 1628000   0.60198931   -2.9980364    1097.3918    0.0561728  0.055473123           10 
 1629000   0.59483726   -3.0216582    1096.8444  0.056110314  0.055444096            8 
 1630000   0.60835288   -3.0059603    1100.1121   0.05624295  0.055415185           20 
 1631000   0.60341207   -3.0028464     1101.748   0.05629205  0.055386354            8 
 1632000   0.59422058   -3.0025283     1099.551  0.056145371  0.055357658            4 
 1633000   0.61302008   -3.0009922    1104.3468  0.056355725  0.055329073            6 
 1634000   0.59828168   -3.0074748    1097.7984  0.055987272  0.055300375            4 
 1635000   0.60381828   -2.9970457    1098.4304  0.055985242  0.055271834            3 
 1636000   0.61594707   -3.0325036    1100.6339   0.05606326  0.055243293            3 
 1637000   0.60764208   -3.0018282    1104.6458  0.056233239  0.055214797            8 
 1638000   0.59602274   -3.0040152    1103.2269  0.056126724  0.055186324            7 
 1639000   0.61189313   -3.0154527    1102.1624  0.056038357  0.055157859            8 
 1640000   0.58122259   -3.0157213    1103.3411  0.056064082   0.05512949           12 
 1641000   0.61064976   -3.0161706    1102.7938  0.056002122  0.055101017            8 
 1642000   0.60129082    -3.021723    1103.1802  0.055987628  0.055072654            9 
 1643000   0.58814798   -3.0290611    1102.6879  0.055928581  0.055044208           16 
 1644000   0.59681625   -3.0264137    1105.3578  0.056029896  0.055015702            6 
 1645000   0.60314162   -3.0104499    1104.0578  0.055929981  0.054987226            9 
 1646000   0.59134471   -3.0112441    1102.9064  0.055837705  0.054958857            8 
 1647000   0.58789925   -3.0372951     1104.652  0.055892129  0.054930397           10 
 1648000   0.60857395   -3.0262758    1103.0096   0.05577516  0.054901718           10 
 1649000   0.59079437   -3.0228996    1103.6653  0.055774473   0.05487291           12 
 1650000   0.58410477   -3.0126377     1102.819  0.055697931  0.054844323           15 
 1651000    0.5922694   -3.0206829    1104.5851  0.055753339  0.054815691            6 
 1652000   0.59255796   -3.0222123    1101.6764   0.05557286  0.054787104           16 
 1653000   0.58975778   -3.0147189    1100.9824  0.055504252  0.054758374            5 
 1654000    0.6023299   -3.0254648    1105.1502  0.055680685  0.054729934            6 
 1655000   0.59590291    -3.015046    1102.3369  0.055505385  0.054701382            6 
 1656000   0.59846141   -3.0356045    1102.5663  0.055483407  0.054672937           11 
 1657000   0.58857819   -3.0285907    1104.5006  0.055547206  0.054644273           11 
 1658000   0.59500179   -3.0378647    1101.4387  0.055359804  0.054615505            9 
 1659000   0.59472806    -3.018113    1106.8596  0.055598736  0.054587099            4 
 1660000   0.59011171   -3.0163067    1104.7843   0.05546106  0.054558932            4 
 1661000   0.59937682   -3.0372707    1102.7781  0.055327016   0.05453044            9 
 1662000   0.57638817   -3.0178779    1105.5578  0.055433104  0.054502001            7 
 1663000   0.59725872   -3.0520395    1105.8797  0.055415898  0.054473252            8 
 1664000   0.60103235   -3.0185632     1108.138  0.055495694  0.054444559            7 
 1665000   0.57723967   -3.0223206    1103.0933  0.055209876  0.054415895            8 
 1666000   0.58947713   -3.0312508    1104.6146   0.05525283  0.054387161            6 
 1667000   0.58575704   -3.0240472    1109.1232  0.055445071  0.054358513           10 
 1668000   0.59136301   -3.0181815    1103.6226  0.055137021  0.054329985            7 
 1669000   0.59946953   -3.0352118    1102.2823  0.055037064  0.054301291            6 
 1670000   0.58325427   -3.0276504    1104.9034  0.055134899  0.054272671           14 
 1671000   0.58441349   -3.0342485    1105.1502  0.055114213  0.054244228            5 
 1672000   0.57864752   -3.0355999     1103.284  0.054988239  0.054215527            7 
 1673000   0.58273224    -3.045524    1102.2703  0.054904878  0.054186703            7 
 1674000   0.58319678   -3.0312077    1105.4663  0.055031178  0.054157967            7 
 1675000   0.59283656   -3.0388225    1104.5062  0.054950558  0.054129157            8 
 1676000   0.59198481   -3.0321314    1106.3729  0.055010586  0.054100307            7 
 1677000   0.57690086   -3.0634248    1103.9634  0.054858048  0.054071571           12 
 1678000   0.58619257   -3.0292126    1103.7448  0.054814503  0.054042713           11 
 1679000   0.57890704   -3.0490151    1105.8513  0.054886404  0.054014077            5 
 1680000   0.59875237   -3.0586189    1105.3785  0.054830282  0.053985259            7 
 1681000   0.58078039   -3.0451319    1107.0503  0.054880542  0.053956672           10 
 1682000   0.58495951   -3.0500071    1104.6469  0.054728839  0.053928113           14 
 1683000    0.5694991   -3.0558138    1106.0122  0.054763924  0.053899711            5 
 1684000   0.59057455    -3.034932    1105.6944  0.054715677  0.053871026           12 
 1685000   0.56719134   -3.0260447    1107.3669  0.054765921  0.053842609            6 
 1686000   0.58342576   -3.0236615    1103.9312   0.05456362  0.053814214            6 
 1687000   0.57082274   -3.0291339    1107.7185   0.05471836  0.053785892           14 
 1688000   0.57796815   -3.0402581    1104.9553   0.05454953  0.053757447            8 
 1689000    0.5791663   -3.0508625    1107.8432  0.054659719  0.053728833           12 
 1690000   0.57943452   -3.0597456    1104.3195  0.054453622  0.053700029            9 
 1691000   0.58615344   -3.0566698    1108.3031  0.054617737  0.053671454            4 
 1692000    0.5885726   -3.0471241    1111.3696  0.054736486   0.05364294           13 
 1693000   0.58262618   -3.0506472    1105.6602  0.054423125  0.053614534            6 
 1694000   0.57763424    -3.064083     1106.294  0.054422176  0.053586131            7 
 1695000   0.57627395   -3.0407208    1108.9085  0.054518608  0.053557841            7 
 1696000   0.56603681   -3.0509672     1107.382  0.054411459  0.053529578           21 
 1697000   0.56696217   -3.0602361     1106.526  0.054337362  0.053501116            9 
 1698000   0.57485219   -3.0430602    1112.0995  0.054578891  0.053472793           11 
 1699000   0.58306977   -3.0463465    1110.3571  0.054461305  0.053444507            3 
 1700000   0.56883694   -3.0441875     1108.607  0.054343479  0.053416248            9 
 1701000   0.57655327   -3.0684583    1108.6784  0.054315031  0.053387998           13 
 1702000   0.57498171   -3.0512789    1109.6438  0.054330386  0.053359686            9 
 1703000   0.57847722   -3.0670352    1106.1937  0.054129657  0.053331287           19 
 1704000   0.57259481   -3.0597452     1112.924  0.054427036  0.053303202            6 
 1705000   0.58205265   -3.0345176    1110.3547  0.054269535  0.053275196           11 
 1706000   0.57677369    -3.077884    1106.0931   0.05402956  0.053246922            9 
 1707000      0.56471    -3.074966    1106.1374  0.054000067  0.053218676            6 
 1708000   0.56482329   -3.0763014    1109.4162  0.054128427  0.053190411           16 
 1709000   0.56882345   -3.0577882    1107.9009  0.054022863  0.053162271           25 
 1710000   0.56548929   -3.0697922    1110.8794  0.054136423  0.053134141            4 
 1711000   0.57485373   -3.0582875    1109.2803    0.0540269  0.053106002           18 
 1712000   0.57657222   -3.0458134    1111.7875   0.05411738  0.053077939            8 
 1713000   0.57699094   -3.0628321    1110.3365  0.054015201  0.053049935           12 
 1714000   0.55939617   -3.0694705    1111.2625  0.054028711  0.053021828           10 
 1715000   0.56688372   -3.0581324    1107.7599  0.053827011  0.052993767            8 
 1716000    0.5748297   -3.0492741    1110.3429  0.053921083   0.05296567           11 
 1717000   0.57166159   -3.0546166    1111.0206  0.053922569  0.052937498           10 
 1718000   0.55858415   -3.0551357    1111.3717  0.053908212  0.052909501           10 
 1719000    0.5545321   -3.0694008    1112.7835  0.053945294  0.052881306            9 
 1720000   0.56972183   -3.0654768    1111.1756  0.053836029   0.05285317           10 
 1721000   0.57358146   -3.0574783     1112.537  0.053870668  0.052825263            6 
 1722000   0.56821071   -3.0709125    1114.0971  0.053914881  0.052797306            6 
 1723000   0.55674576   -3.0567131    1110.7363  0.053721043  0.052769257            8 
 1724000   0.56602515   -3.0689953     1110.889  0.053697265  0.052741094            7 
 1725000   0.57139124   -3.0816216    1113.0842  0.053772183   0.05271301           18 
 1726000   0.55889251   -3.0722409    1109.5127  0.053568594  0.052684832           10 
 1727000    0.5746194   -3.0696307    1112.2584  0.053670064  0.052656732            7 
 1728000   0.55854839   -3.0638068     1113.565  0.053702014  0.052628825            5 
 1729000   0.56134401   -3.0652831    1111.0352  0.053549026  0.052600817            6 
 1730000   0.55716815   -3.0814174    1110.4223  0.053488552  0.052572851           11 
 1731000   0.55621763   -3.0686213    1113.6372  0.053612421  0.052544886            8 
 1732000   0.56414419   -3.0795263    1112.5028  0.053526888  0.052516819           14 
 1733000   0.55846698   -3.0637847    1113.3699  0.053537695  0.052488627            9 
 1734000   0.56595748   -3.0861321    1110.0992  0.053349634  0.052460655            6 
 1735000   0.55716502   -3.0591345    1114.2226  0.053516936  0.052432844            6 
 1736000   0.56656226    -3.081567    1114.4054  0.053494883  0.052405004            8 
 1737000   0.56161124   -3.0816128    1112.6473  0.053379738  0.052377061           13 
 1738000   0.55412459    -3.080651    1114.2428  0.053425527  0.052349132            9 
 1739000   0.55353283   -3.0771204    1112.8477  0.053327951  0.052321258           12 
 1740000   0.55922939   -3.0798043    1112.3791   0.05327486  0.052293397            6 
 1741000   0.54928735   -3.0933639    1110.3227  0.053145831  0.052265412           17 
 1742000   0.56917017   -3.0780819    1113.2841  0.053256991  0.052237454           10 
 1743000   0.54698657   -3.0879417    1112.9032  0.053208223   0.05220937           11 
 1744000   0.55949689   -3.0890468    1111.6687  0.053118725  0.052181142            4 
 1745000   0.55398826   -3.0834834     1113.319  0.053167098  0.052152934           20 
 1746000   0.56231495   -3.0838535    1112.5934  0.053102013  0.052124828           21 
 1747000   0.57080039   -3.0897985    1113.0254  0.053092226  0.052096943            5 
 1748000   0.56618909   -3.0760242    1116.3617  0.053220904  0.052068946            3 
 1749000   0.55724643   -3.0890353    1111.6638  0.052966638  0.052041173            8 
 1750000    0.5408479   -3.0923798    1111.1936  0.052913979  0.052013259           12 
 1751000   0.55964872   -3.0879469    1114.1472  0.053024329  0.051985426            9 
 1752000   0.56079382   -3.0862193    1118.7059  0.053210895  0.051957698           13 
 1753000   0.56125524   -3.0928818    1112.8096  0.052900247   0.05193002           13 
 1754000   0.54655874   -3.0789015    1115.1986  0.052983591  0.051902197           11 
 1755000   0.55088068   -3.0902524    1114.2365  0.052907716  0.051874386            7 
 1756000   0.55520306   -3.0691612    1115.3716  0.052931454  0.051846557            4 
 1757000   0.55869547   -3.1041813    1114.7358   0.05287117  0.051818619            7 
 1758000   0.55140106   -3.0809985    1112.2486  0.052723197  0.051790743           15 
 1759000   0.54244648   -3.0821247    1114.5808  0.052803716  0.051763032           11 
 1760000   0.54718094   -3.0908244    1115.3367  0.052809503  0.051735224           14 
 1761000   0.54423759   -3.0873303    1113.0618  0.052671862  0.051707288           22 
 1762000   0.55721144   -3.0892092    1116.8193  0.052819679  0.051679407           18 
 1763000   0.54819974   -3.0813461    1111.8979  0.052557097  0.051651626            6 
 1764000   0.55033446   -3.0986256    1116.1505  0.052728196  0.051623833           17 
 1765000   0.55883379   -3.0918676    1116.7864   0.05272835  0.051596169           10 
 1766000   0.55874345   -3.1098547    1114.5278   0.05259191  0.051568388            9 
 1767000   0.55763966   -3.0818475    1114.3204  0.052552369   0.05154061           12 
 1768000   0.53483993   -3.0982044    1114.9557  0.052552586  0.051512789           11 
 1769000   0.52724812   -3.0965398    1113.1978   0.05244007  0.051484986            9 
 1770000   0.55972212   -3.0793506    1115.7152  0.052528965  0.051457372            6 
 1771000   0.55282746   -3.0714979    1119.9301  0.052697633   0.05142981           10 
 1772000   0.53142112   -3.0920811    1116.9948  0.052529856  0.051402329           12 
 1773000   0.55042443   -3.1030624    1114.2378  0.052370645  0.051374772           13 
 1774000   0.54784954   -3.0827683    1118.1674  0.052525715   0.05134711           29 
 1775000   0.54259041   -3.1129959    1117.2612  0.052453579   0.05131958            7 
 1776000   0.54618219   -3.1030324    1117.7557  0.052447247   0.05129216            8 
 1777000   0.54149855   -3.1173859    1118.7668  0.052465146  0.051264763           26 
 1778000   0.54500397   -3.0691691    1117.1829  0.052361402  0.051237376            4 
 1779000   0.54741677   -3.0921807    1117.0446  0.052325491  0.051210004            7 
 1780000   0.53288449   -3.1049449    1115.4871  0.052223177  0.051182695           19 
 1781000   0.53960247    -3.110974    1118.0986  0.052316048  0.051155155           14 
 1782000   0.54819463   -3.1258163    1117.5152   0.05225941  0.051127584           13 
 1783000   0.52970711   -3.0902823    1121.5464  0.052418506  0.051100248            6 
 1784000    0.5465513   -3.1003631    1118.1106  0.052228636  0.051072902            7 
 1785000   0.54417445    -3.102562     1113.974  0.052006258  0.051045505            8 
 1786000   0.53863669   -3.1041472    1118.8532  0.052204797   0.05101827           11 
 1787000   0.55566724   -3.0965449    1124.8181  0.052453746  0.050991151            8 
 1788000   0.53953465   -3.0961113    1121.6004   0.05227444  0.050964101           18 
 1789000    0.5323275   -3.1157055    1118.7898    0.0521143  0.050936907           13 
 1790000   0.53855841   -3.1241496    1121.1116  0.052193279   0.05090954           10 
 1791000   0.53127075   -3.1192646    1121.5986  0.052186793  0.050882416           21 
 1792000   0.54712832   -3.1198045    1119.6209  0.052065702  0.050855444           10 
 1793000   0.53919634    -3.087656    1122.4587  0.052168558  0.050828389            4 
 1794000   0.52984507   -3.1022404    1119.4746  0.052000862  0.050801428           10 
 1795000   0.53878854   -3.1112222    1120.0134   0.05199691  0.050774384           12 
 1796000   0.53723123   -3.1050269    1120.1406  0.051973858  0.050747288            6 
 1797000    0.5349939   -3.0954514    1118.8836  0.051886646  0.050720167            6 
 1798000   0.53895958   -3.1143961    1122.8893  0.052043443   0.05069319            7 
 1799000   0.53220867   -3.1209939    1118.5169  0.051811975  0.050666077           11 
 1800000   0.53045115   -3.1259756    1120.0386  0.051853639  0.050638985           13 
 1801000   0.55445041    -3.095508    1121.6509  0.051899449   0.05061186           10 
 1802000   0.54177427   -3.1055229    1120.5339  0.051818991  0.050584849           10 
 1803000   0.52910383    -3.128971    1123.9643  0.051948801  0.050557966            9 
 1804000   0.54405708   -3.1297272    1122.6437  0.051859002  0.050531127           12 
 1805000   0.53785558   -3.1228992    1123.0951  0.051851115  0.050504066           10 
 1806000   0.53096311   -3.1044796    1123.4872  0.051840493  0.050477281            9 
 1807000   0.53768816   -3.1324032    1123.8269  0.051827473  0.050450412           11 
 1808000   0.53576936   -3.1325432    1120.2172   0.05163243  0.050423587            9 
 1809000   0.52643989   -3.1288877    1120.8484  0.051632965  0.050396628           13 
 1810000    0.5333287   -3.1216037    1119.1121  0.051524497  0.050369568           20 
 1811000   0.52100065   -3.1238745    1121.3196  0.051597626  0.050342524           10 
 1812000   0.53851227   -3.1296883    1123.2704  0.051658868  0.050315695           20 
 1813000   0.54118322   -3.1185189    1118.4155  0.051407221   0.05028859           14 
 1814000   0.53239876   -3.1316881    1121.0743  0.051501025  0.050261528           16 
 1815000   0.52352425   -3.1268414    1121.6831  0.051500602  0.050234424           13 
 1816000   0.53131514   -3.1333536    1124.7214  0.051611666  0.050207615           10 
 1817000   0.53519361   -3.1239264    1119.3993  0.051339171  0.050180623           15 
 1818000   0.52895639   -3.1278592    1122.9623  0.051474253  0.050153642           10 
 1819000   0.52948483   -3.1348704    1122.3966  0.051420036  0.050126554           10 
 1820000   0.53615225   -3.1102601    1118.5024  0.051213481   0.05009962           20 
 1821000   0.52549428   -3.1335174    1121.7168  0.051332455  0.050072682           15 
 1822000   0.51983078   -3.1234821    1123.9984  0.051408634  0.050045702           28 
 1823000   0.51465619   -3.1421643    1121.4019  0.051261742  0.050018625           12 
 1824000   0.52096401    -3.150838     1120.836  0.051207787   0.04999166            9 
 1825000   0.52891612    -3.132078    1121.1604  0.051194537  0.049964652           17 
 1826000   0.53218393   -3.1426398    1123.1634  0.051257914  0.049937685            9 
 1827000   0.51660081   -3.1280942    1122.6256  0.051205326  0.049910755            7 
 1828000   0.51848017   -3.1414003    1123.0804  0.051198049  0.049883771           14 
 1829000    0.5160492   -3.1243462    1123.5057  0.051189433  0.049856814            6 
 1830000   0.53830375   -3.1306421    1124.6732  0.051214625  0.049829874           12 
 1831000   0.51713313   -3.1370953    1122.2239   0.05107518  0.049802933            8 
 1832000   0.51788153   -3.1403501    1119.5944  0.050927693  0.049775866           15 
 1833000   0.51293607   -3.1266637    1124.0607  0.051102959  0.049749002           14 
 1834000    0.5287843   -3.1416024    1124.8244  0.051109797    0.0497221            8 
 1835000   0.50767125     -3.14514    1120.5282  0.050886839  0.049695114           14 
 1836000   0.54866831   -3.1327239    1123.1963  0.050980225  0.049668213            5 
 1837000   0.51892735   -3.1460529    1122.3866   0.05091574  0.049641407            7 
 1838000   0.52958643    -3.132058     1124.125  0.050966858  0.049614592            5 
 1839000   0.52301901     -3.14133    1120.5273  0.050776116  0.049587697            7 
 1840000    0.5057969   -3.1251922    1127.2676  0.051053784  0.049560931           10 
 1841000   0.52589899   -3.1482168    1124.0758  0.050881575  0.049534218           22 
 1842000   0.52208769   -3.1435328    1125.9552   0.05093898  0.049507513           13 
 1843000   0.52532535   -3.1605963    1126.1169  0.050918654  0.049481006            8 
 1844000   0.50199604   -3.1409624    1125.9872  0.050885176   0.04945456           16 
 1845000   0.51768743   -3.1426762    1123.8189  0.050759659  0.049427982            4 
 1846000   0.51467491   -3.1454749    1123.4205  0.050714177  0.049401364           23 
 1847000   0.50719164    -3.147855    1123.9741    0.0507117  0.049374778           10 
 1848000   0.51343385   -3.1288389    1125.2343  0.050741086  0.049348102           12 
 1849000   0.51592586   -3.1534722    1124.7707  0.050692747  0.049321532            7 
 1850000    0.5106554   -3.1476525    1126.6107   0.05074823  0.049294927           25 
 1851000   0.51848009   -3.1484602    1128.0857  0.050787217  0.049268379            8 
 1852000   0.51265365   -3.1330975     1126.079  0.050669501  0.049241868           10 
 1853000   0.52445051   -3.1490305    1126.7304   0.05067145  0.049215382           12 
 1854000   0.50151243   -3.1678162    1123.3357  0.050491535  0.049188805           30 
 1855000   0.51315072   -3.1599322    1125.2269  0.050549275  0.049162252           10 
 1856000   0.51944805   -3.1477607    1125.4625   0.05053262  0.049135719           12 
 1857000   0.50244641    -3.149224    1124.0281  0.050441038  0.049109171           12 
 1858000   0.50928723   -3.1603142    1126.4194  0.050521145  0.049082623           12 
 1859000    0.5100295   -3.1612292    1122.8815  0.050335374  0.049055837            8 
 1860000   0.52205585   -3.1584578    1124.6346  0.050386854  0.049029122           22 
 1861000    0.5106887   -3.1483643    1124.4879   0.05035321   0.04900244           11 
 1862000   0.51607104   -3.1627251    1119.5543  0.050105366  0.048975718           26 
 1863000   0.51018981   -3.1495556    1124.7509  0.050310919  0.048948994           33 
 1864000   0.50602023   -3.1635962     1124.194  0.050259032  0.048922314           18 
 1865000   0.50343923   -3.1516448    1124.4505  0.050243544   0.04889558            8 
 1866000   0.51255157   -3.1717653     1120.846  0.050055645  0.048868912           40 
 1867000   0.51307762    -3.158946    1123.6673  0.050154762  0.048842211           16 
 1868000   0.51090062   -3.1682425    1122.4891  0.050075354  0.048815474           11 
 1869000   0.51780393   -3.1656258    1124.0558  0.050118414    0.0487887           16 
 1870000   0.51417869   -3.1532497    1124.8993    0.0501292   0.04876206           17 
 1871000   0.50647202   -3.1618077    1126.5241  0.050174779  0.048735649           24 
 1872000    0.5019795   -3.1529075    1126.9066  0.050165003  0.048709171           12 
 1873000   0.51103732    -3.175238    1126.3797  0.050114774  0.048682756           11 
 1874000   0.49796492   -3.1671592    1124.5088  0.050004837  0.048656152           11 
 1875000   0.51010682   -3.1732115    1126.1722  0.050052097    0.0486296           13 
 1876000   0.50646863   -3.1686964    1127.7366   0.05009491   0.04860317           13 
 1877000   0.49505401   -3.1669052    1126.3477  0.050006559  0.048576726           17 
 1878000   0.51529922   -3.1738004    1123.5933  0.049857708   0.04855019            9 
 1879000   0.50280637   -3.1679367    1127.0315  0.049983657  0.048523653           15 
 1880000    0.5089631   -3.1513411    1125.1935  0.049875598  0.048497289           27 
 1881000   0.51401121   -3.1688522    1124.1632  0.049803436  0.048470855           16 
 1882000   0.49645031   -3.1679753    1127.1041  0.049907196   0.04844445           10 
 1883000   0.50690243   -3.1875768    1125.8131  0.049823557  0.048418014            5 
 1884000   0.50003153   -3.1525378    1127.8801  0.049888541  0.048391565           13 
 1885000   0.49774116    -3.166367    1124.9107  0.049730801  0.048365147            7 
 1886000   0.49481641   -3.1745504    1124.1679  0.049671611  0.048338686           13 
 1887000   0.49252377   -3.1861045    1125.0712  0.049685179  0.048312242           14 
 1888000   0.49984191   -3.1610581    1127.7141  0.049775518  0.048285849            5 
 1889000   0.51163194   -3.1739501    1124.2793   0.04959764  0.048259466           18 
 1890000   0.49252246   -3.1842632    1126.5899  0.049673275  0.048233113           19 
 1891000   0.50161818   -3.1682303    1124.0606  0.049535544  0.048206744           12 
 1892000   0.49183079   -3.1702264    1127.6403   0.04966703  0.048180446           20 
 1893000   0.49389346    -3.166865    1127.2426  0.049623289  0.048154283            9 
 1894000   0.50151816    -3.168382    1126.9045   0.04958221  0.048128103           18 
 1895000   0.49963915   -3.1854662    1126.9726  0.049559039  0.048101791            6 
 1896000   0.49092789   -3.1973454    1124.6154  0.049429298  0.048075402           19 
 1897000   0.48885363   -3.1910625    1122.2678  0.049300113  0.048048993           18 
 1898000   0.47714963   -3.1985167    1124.9839  0.049393392  0.048022652            9 
 1899000   0.49743205   -3.1875006    1128.5586  0.049524252  0.047996246           10 
 1900000   0.48974445    -3.190243    1123.6741   0.04928395  0.047969917           16 
 1901000   0.49164101   -3.1803931    1125.2968  0.049329161  0.047943667           12 
 1902000   0.49653387   -3.1769485     1125.193  0.049298679  0.047917402           13 
 1903000   0.49099515   -3.1707622    1126.0152  0.049308777  0.047891194            8 
 1904000   0.48370492   -3.1853639    1129.1673   0.04942084  0.047865061           14 
 1905000   0.50980964   -3.1695061    1130.3736  0.049447664  0.047839087           18 
 1906000   0.48817806   -3.1824456    1127.0318   0.04927561   0.04781303            6 
 1907000   0.49702171   -3.1861568    1128.5667  0.049316847  0.047786986           10 
 1908000    0.4941558   -3.1872851    1123.9922  0.049091202  0.047760876           17 
 1909000   0.49442569   -3.1816622    1128.5011  0.049262313  0.047734703           29 
 1910000   0.49732235   -3.2013821    1127.6553  0.049199622  0.047708504           24 
 1911000   0.47507054   -3.1854762    1123.1996  0.048979573  0.047682261           10 
 1912000   0.48969676   -3.1955686    1128.5914  0.049188955  0.047656157            8 
 1913000   0.49777919   -3.1902416    1130.3058  0.049237923  0.047630181           23 
 1914000   0.48579301   -3.1971599     1125.474  0.049001828  0.047603987           22 
 1915000   0.47561133   -3.2101306    1125.8438  0.048992334  0.047577714           71 
 1916000   0.47162598   -3.2077684    1125.8787  0.048968278  0.047551496           12 
 1917000   0.49261687   -3.1997145    1128.1913  0.049043265  0.047525277           12 
 1918000   0.49214475   -3.1988128    1126.3008  0.048935559  0.047499162           15 
 1919000   0.48763206   -3.1967018    1124.0767  0.048813477  0.047472999           13 
 1920000   0.48982835   -3.2059094      1127.31  0.048928385  0.047446782           12 
 1921000   0.48801957   -3.2042718    1128.1021  0.048937277  0.047420518           28 
 1922000   0.49340786   -3.1839986    1127.8559   0.04890114  0.047394463            9 
 1923000   0.48143963   -3.1893626    1126.9923  0.048838288  0.047368494           16 
 1924000    0.4979719   -3.1875399    1126.5574  0.048794068  0.047342502           17 
 1925000   0.48005992   -3.1982137    1129.1043  0.048878974  0.047316488           19 
 1926000   0.48743202   -3.1986586    1127.4489   0.04878197  0.047290481           35 
 1927000   0.48663235    -3.207441    1125.7479  0.048683095  0.047264422           22 
 1928000   0.48253999   -3.1801541    1126.7864  0.048702731  0.047238336           11 
 1929000   0.48677175   -3.1897448    1127.1909  0.048694959  0.047212317           14 
 1930000    0.4792292   -3.2012386    1124.9377  0.048572438  0.047186285           18 
 1931000   0.48016015   -3.2061728    1127.3668  0.048652115  0.047160167           17 
 1932000   0.49180547   -3.2079959    1126.0923  0.048571958  0.047133959           23 
 1933000   0.48788834   -3.2013395    1127.3729  0.048602039  0.047107884           25 
 1934000   0.48732389   -3.2175597    1125.7808  0.048508309  0.047081717           29 
 1935000   0.48285732   -3.2093429    1125.6027  0.048475567  0.047055505           29 
 1936000     0.487023   -3.1835358    1126.0141   0.04846824   0.04702942           16 
 1937000     0.476137   -3.2141269     1125.752  0.048431941  0.047003269           35 
 1938000   0.49524984   -3.2046651    1124.3034  0.048344658  0.046977122           20 
 1939000     0.487947   -3.2079521    1125.1083   0.04835432  0.046951009           14 
 1940000   0.47659719   -3.2043407    1124.2032  0.048290514  0.046924902           20 
 1941000    0.4685756   -3.2121905    1128.2327  0.048438636  0.046898867            8 
 1942000   0.47850774   -3.2085006    1128.3047  0.048416781  0.046872849           11 
 1943000   0.47789958    -3.214035    1124.5691   0.04823165  0.046846846           14 
 1944000   0.46196649   -3.1981179    1125.3728  0.048241288  0.046820846           18 
 1945000   0.46894713   -3.1989554    1126.3199  0.048257064  0.046794795           24 
 1946000   0.47130442   -3.2257895    1125.4713  0.048195927  0.046768766           47 
 1947000   0.47109692   -3.2335659     1123.761   0.04809797  0.046742636           20 
 1948000   0.48001477    -3.224044    1125.6423  0.048153758  0.046716491            9 
 1949000   0.46628758   -3.2214639    1127.6646  0.048215523  0.046690408           10 
 1950000   0.46945306   -3.2195474     1126.449  0.048138846  0.046664346           20 
 1951000   0.47237132   -3.2266162    1127.0201  0.048138566  0.046638265           39 
 1952000   0.46535851   -3.2209308    1122.7036  0.047929627  0.046612154           24 
 1953000   0.47236702   -3.2197472    1123.9131  0.047956695  0.046586042            9 
 1954000   0.48198672   -3.2288996    1123.9117  0.047932092  0.046560024           17 
 1955000   0.46360667   -3.1899918    1127.1974  0.048047628  0.046533995           17 
 1956000    0.4637249    -3.217259    1126.7031  0.048002008   0.04650804           22 
 1957000   0.47080605   -3.2186279    1125.6793  0.047933881  0.046482017           13 
 1958000   0.48467754   -3.2211357     1125.128  0.047885939  0.046455867           13 
 1959000    0.4696934   -3.2324973    1124.7198  0.047844131   0.04642979           30 
 1960000   0.47167495   -3.2298039    1124.7488  0.047820953  0.046403652           13 
 1961000   0.47628256   -3.2336341    1124.1678  0.047771875  0.046377616           14 
 1962000   0.46509308   -3.2288186    1124.7155  0.047770793  0.046351596           20 
 1963000   0.47932838   -3.2175552    1126.5635  0.047824908  0.046325568           40 
 1964000   0.46968855    -3.229301    1125.2119  0.047743209  0.046299491           20 
 1965000   0.48024491   -3.2129527    1125.9109  0.047748555   0.04627351           16 
 1966000   0.46210866   -3.2328877    1128.1129  0.047817604  0.046247639           61 
 1967000    0.4758265   -3.2062945    1126.0906  0.047707619  0.046221751           33 
 1968000   0.47256035   -3.2445768    1123.7732  0.047585249  0.046195744           20 
 1969000   0.47406068   -3.2148547    1126.7976  0.047689082  0.046169743           10 
 1970000   0.46304688   -3.2288225    1127.3567  0.047688525   0.04614382           10 
 1971000   0.46934574   -3.2440314    1127.7077  0.047679171  0.046117807           15 
 1972000   0.45833973   -3.2273604    1127.2294  0.047634777  0.046091897           22 
 1973000   0.46870512   -3.2264924    1124.6238  0.047500583  0.046065943           18 
 1974000   0.47319429   -3.2226498    1127.1104  0.047581494  0.046040108           22 
 1975000   0.47716736   -3.2370688     1126.088  0.047514261  0.046014237           31 
 1976000   0.46459757   -3.2436782    1125.2087  0.047453134  0.045988223           12 
 1977000   0.46067625   -3.2368941    1124.5924  0.047403153  0.045962298           16 
 1978000   0.46225632   -3.2279581    1127.1503  0.047486951  0.045936397           10 
 1979000   0.46921967   -3.2445409     1127.757  0.047488505  0.045910521            9 
 1980000   0.46491137   -3.2331162    1126.7636  0.047422709  0.045884635           17 
 1981000   0.46765872   -3.2407515    1124.7328  0.047313343  0.045858804           24 
 1982000   0.46657078   -3.2361914    1125.2402  0.047310806  0.045832844           62 
 1983000   0.45201623   -3.2451474    1124.0793  0.047238161  0.045806958           43 
 1984000   0.45475794   -3.2439219    1124.7078  0.047240751  0.045781013           25 
 1985000   0.45960628   -3.2502367    1122.8357  0.047138359  0.045755036           60 
 1986000   0.45816453   -3.2354194    1125.3937  0.047221957  0.045729098           15 
 1987000   0.45089001   -3.2621008    1124.8875  0.047176964  0.045703233           21 
 1988000   0.46540796   -3.2331317    1124.0538  0.047118283   0.04567743           11 
 1989000   0.46791907     -3.24204    1125.1265  0.047139539  0.045651588           24 
 1990000   0.45472211   -3.2502369    1123.9591  0.047066966  0.045625565           31 
 1991000   0.45200092   -3.2594535    1122.2581  0.046972129  0.045599448           21 
 1992000   0.45554332   -3.2651566    1124.5679  0.047045176   0.04557341           21 
 1993000   0.45221829   -3.2412665    1124.8803  0.047034632  0.045547414           17 
 1994000   0.46753693     -3.25086     1123.681  0.046960923   0.04552141           31 
 1995000   0.47012214   -3.2433962    1123.9363   0.04694805  0.045495544           14 
 1996000   0.45005436   -3.2415715    1123.6463  0.046912421  0.045469593           15 
 1997000    0.4632606   -3.2455612    1124.8322  0.046938415  0.045443692           72 
 1998000   0.46548961   -3.2465721     1123.667  0.046866323  0.045417784           15 
 1999000   0.44496871   -3.2326442    1124.6335  0.046883172  0.045391987           17 
 2000000   0.46470491   -3.2467769    1123.5301  0.046813755  0.045366074           20 
 2001000   0.44634019   -3.2506075    1122.7978   0.04675986  0.045340242           22 
 2002000   0.45343584   -3.2427589    1125.6738  0.046856217  0.045314398           26 
 2003000   0.45257501   -3.2547435    1123.0253  0.046722635  0.045288549           13 
 2004000    0.4569223   -3.2587714    1124.4587  0.046758929  0.045262606           27 
 2005000   0.45787233   -3.2489334    1123.0975  0.046679032  0.045236736           15 
 2006000   0.44950999   -3.2494343    1124.6338  0.046719584   0.04521093           17 
 2007000   0.44913246   -3.2509121     1124.247  0.046680242  0.045185066           18 
 2008000   0.45674785   -3.2651205    1127.9847  0.046812114  0.045159209           35 
 2009000   0.45333109   -3.2405619    1125.1578  0.046671553  0.045133372           23 
 2010000    0.4587573   -3.2685532    1125.2378  0.046651648   0.04510762           42 
 2011000   0.45444369   -3.2707989    1125.2488  0.046628906  0.045081782           29 
 2012000   0.45559738   -3.2654085    1127.7334  0.046708638  0.045056045           39 
Loop time of 4794.41 on 48 procs for 2000000 steps with 4000 atoms

Performance: 72084.004 tau/day, 417.153 timesteps/s
99.4% CPU use with 48 MPI tasks x no OpenMP threads

MPI task timing breakdown:
Section |  min time  |  avg time  |  max time  |%varavg| %total
---------------------------------------------------------------
Pair    | 304.63     | 325.51     | 345.56     |  52.0 |  6.79
Neigh   | 32.168     | 33.58      | 36.371     |  14.1 |  0.70
Comm    | 311.58     | 331.34     | 355.24     |  54.0 |  6.91
Output  | 4.1503     | 4.1519     | 4.1887     |   0.3 |  0.09
Modify  | 4048.3     | 4056       | 4064.2     |   6.0 | 84.60
Other   |            | 43.83      |            |       |  0.91

Nlocal:        83.3333 ave          91 max          77 min
Histogram: 5 1 5 6 4 19 4 2 1 1
Nghost:        2149.27 ave        2162 max        2131 min
Histogram: 2 2 2 5 6 5 10 6 4 6
Neighs:        14163.3 ave       15323 max       12337 min
Histogram: 2 0 1 3 6 9 12 6 4 5
FullNghs:      28351.4 ave       30717 max       25897 min
Histogram: 1 2 2 7 13 8 7 5 2 1

Total # of neighbors = 1360865
Ave neighs/atom = 340.21625
Neighbor list builds = 108696
Dangerous builds = 0

#clear
#
#next RN
#
#jump SELF
Total wall time: 1:19:58
