
units lj                  # Use reduced LJ style units
atom_style atomic         # Uncharged point particles
atom_modify map hash      # Needed for indexing of clusters etc
                          # Used to be able to find where atoms are in relation to each other.

lattice fcc 1.0 spacing 1 1 1
Lattice spacing in x,y,z = 1.5874011 1.5874011 1.5874011
region box block 0 10 0 10 0 10 units lattice
create_box 2 box
Created orthogonal box = (0.0000000 0.0000000 0.0000000) to (15.874011 15.874011 15.874011)
  3 by 4 by 4 MPI processor grid
create_atoms 1 box
Created 4000 atoms
  using lattice units in orthogonal box = (0.0000000 0.0000000 0.0000000) to (15.874011 15.874011 15.874011)
  create_atoms CPU = 0.002 seconds
set type 1 type/fraction 2 0.45 78393
Setting atom values ...
  1799 settings made for type/fraction
mass 1 1.0
mass 2 1.0
pair_style lj/cut  3.5
pair_modify tail  yes
pair_coeff 1  1  1.0  1.0   # Intearaction between 1 and 1 set with epsilon = 1 and sigma = 1
pair_coeff 1  2  1.5  0.8
pair_coeff 2  2  0.5  0.88

write_data data.0
System init for write_data ...
Neighbor list info ...
  update every 1 steps, delay 10 steps, check yes
  max neighbors/atom: 2000, page size: 100000
  master list distance cutoff = 3.8
  ghost atom cutoff = 3.8
  binsize = 1.9, bins = 9 9 9
  1 neighbor lists, perpetual/occasional/extra = 1 0 0
  (1) pair lj/cut, perpetual
      attributes: half, newton on
      pair build: half/bin/atomonly/newton
      stencil: half/bin/3d
      bin: standard
WARNING: Not all mixed pair coeffs generated from mixing. Use write_data with 'pair ij' option to store all pair coeffs. (../write_data.cpp:312)


#############################
#   M E L T   S Y S T E M   #
#############################

velocity all create 2.4 5833274 mom yes dist gaussian # Assign velocities
                                                    # Temperature 2.4, random number seed, zero linear momentum
                                                                                # Gaussian distribution

timestep 0.002   # simulation timestep
thermo 1000       # output thermodynamic data every 1000 steps bf 100

# Define a fix  in this case with index 1 applied to all
# particles in the simulation. This fix is for simulations
# in the anisotropic NPT ensemble. Note that we use the MTK
# correction.
fix 1 all npt temp 2.4 2.4 0.1 iso 5.68 5.68 0.5 mtk yes tchain 5 pchain 5 # Use NPT ensemble
                                                                         # Set temperature and pressure and damping
                                                                         # Numbers of thermostats in chain and in barostat
run 10000          # run for 10000 steps
Per MPI rank memory allocation (min/avg/max) = 3.642 | 3.644 | 3.648 Mbytes
Step Temp E_pair E_mol TotEng Press Volume 
       0          2.4   -5.5879345            0   -1.9888345   -4.1997978         4000 
    1000    2.4082271   -4.9774226            0    -1.365985    5.7986622     3780.045 
    2000    2.3900417   -5.0640998            0   -1.4799336    5.2105114    3788.5219 
    3000    2.4127035    -4.979957            0   -1.3618066    5.6903109    3786.4344 
    4000    2.4026161   -5.0295414            0   -1.4265182    5.8018045    3755.5357 
    5000    2.3946611   -4.9982345            0   -1.4071408    5.6904497    3784.9717 
    6000    2.4119919   -4.9726179            0   -1.3555345    5.5403033    3808.9994 
    7000      2.36503   -4.9099179            0   -1.3632598    5.2491555     3858.628 
    8000    2.3902733   -4.9869912            0   -1.4024776    5.4001124    3814.5912 
    9000    2.4086692   -5.0379868            0   -1.4258862    5.5891097     3774.837 
   10000    2.3684775   -5.0138043            0   -1.4619762    5.6903771    3771.9444 
Loop time of 2.56916 on 48 procs for 10000 steps with 4000 atoms

Performance: 672593.796 tau/day, 3892.325 timesteps/s
99.6% CPU use with 48 MPI tasks x no OpenMP threads

MPI task timing breakdown:
Section |  min time  |  avg time  |  max time  |%varavg| %total
---------------------------------------------------------------
Pair    | 1.1259     | 1.2102     | 1.3907     |   3.4 | 47.11
Neigh   | 0.20963    | 0.21697    | 0.25471    |   1.3 |  8.45
Comm    | 0.68054    | 0.8614     | 0.95373    |   4.7 | 33.53
Output  | 0.00024059 | 0.00024522 | 0.00030885 |   0.0 |  0.01
Modify  | 0.21473    | 0.26492    | 0.30944    |   6.5 | 10.31
Other   |            | 0.01541    |            |       |  0.60

Nlocal:        83.3333 ave          90 max          74 min
Histogram: 3 1 2 7 4 7 9 2 5 8
Nghost:        1708.38 ave        1736 max        1684 min
Histogram: 2 4 1 8 11 11 6 3 0 2
Neighs:        10136.9 ave       11271 max        8571 min
Histogram: 1 3 2 4 5 9 9 4 8 3

Total # of neighbors = 486571
Ave neighs/atom = 121.64275
Neighbor list builds = 898
Dangerous builds = 158

# Equilibrate just above the melting temperature to avoid step fn in T

fix 1 all npt temp 1.25 1.25 0.1 iso 5.68 5.68 0.5 mtk yes tchain 5 pchain 5
run 2000
Per MPI rank memory allocation (min/avg/max) = 3.644 | 3.645 | 3.649 Mbytes
Step Temp E_pair E_mol TotEng Press Volume 
   10000    2.3684775   -5.0138043            0   -1.4619762    5.6903771    3771.9444 
   11000    1.2734342   -7.0674549            0   -5.1577812    5.9893322      2966.52 
   12000    1.2494611    -7.068628            0   -5.1949049    5.8674184    2970.7411 
Loop time of 0.644287 on 48 procs for 2000 steps with 4000 atoms

Performance: 536406.656 tau/day, 3104.205 timesteps/s
99.6% CPU use with 48 MPI tasks x no OpenMP threads

MPI task timing breakdown:
Section |  min time  |  avg time  |  max time  |%varavg| %total
---------------------------------------------------------------
Pair    | 0.27896    | 0.30445    | 0.37533    |   3.1 | 47.25
Neigh   | 0.039884   | 0.042175   | 0.050962   |   1.0 |  6.55
Comm    | 0.17478    | 0.24888    | 0.27446    |   3.8 | 38.63
Output  | 5.0683e-05 | 5.1875e-05 | 6.5191e-05 |   0.0 |  0.01
Modify  | 0.037507   | 0.043961   | 0.049064   |   1.6 |  6.82
Other   |            | 0.004773   |            |       |  0.74

Nlocal:        83.3333 ave          90 max          75 min
Histogram: 4 4 1 3 7 1 13 2 8 5
Nghost:        1999.81 ave        2022 max        1979 min
Histogram: 3 4 6 5 5 8 6 7 2 2
Neighs:        12856.3 ave       14463 max       11302 min
Histogram: 3 3 2 9 9 8 6 4 0 4

Total # of neighbors = 617101
Ave neighs/atom = 154.27525
Neighbor list builds = 142
Dangerous builds = 8

#############################
# L I N E A R  Q U E N C H  #
#############################

# Define solid atoms. This closely follows ten Wolde  Ruiz-Montero and Frenkel  Faraday Discuss  1996  104  93-110
# Compute components of the per-atom q6 vector
compute q6 all orientorder/atom degrees 1 6 components 6 nnn NULL cutoff 1.3 # compute the Q6 parameter.
                                                                             # Use all neighbours within 1.3 unit cell.

# get number of connections
compute coord_number all coord/atom orientorder q6 0.5

# An atom is solid if it has 8 or more connections (of a possible 14)
variable is_solid atom c_coord_number>=8
group solid dynamic all var is_solid    # Must be dynamic to update
dynamic group solid defined

# do clustering
compute cluster solid cluster/atom 1.3 # Create a cluster where all atoms within are solid and max 1.3 units from another member

# define chunks one chunk per cluster
compute clus_chunks solid chunk/atom c_cluster nchunk every compress yes  # Says which atoms are in which chunk

# count the size of each chunk
compute size_chunks solid property/chunk clus_chunks count


# Find the maximum entry in the vector of chunk sizes
variable max_n equal max(c_size_chunks)


# Thermo style which includes this variable
# thermo_style custom step temp pe vol v_max_n

thermo ${N}  # Print the thermo information every 100 steps
thermo 1000  

# Reset the npt fix at a lower temperature (below freezing)
fix 1  all npt temp  ${temp} ${temp}  0.1  iso  5.68  5.68  0.5  mtk yes tchain  5  pchain  5
fix 1  all npt temp  0.45 ${temp}  0.1  iso  5.68  5.68  0.5  mtk yes tchain  5  pchain  5
fix 1  all npt temp  0.45 0.45  0.1  iso  5.68  5.68  0.5  mtk yes tchain  5  pchain  5

dump dmp2 all dcd ${N} traj.dcd
dump dmp2 all dcd 1000 traj.dcd


compute msd all msd com yes
variable twopoint equal c_msd[4]/6/(step*dt+1.0e-6)
fix 9 all vector 10 c_msd[4]
variable fit equal slope(f_9)/6/(10*dt)
thermo_style custom step temp pe c_msd[4] v_twopoint v_fit v_max_n

fix 1 all npt temp 1.25 ${temp} 0.1 iso 5.68 5.68 0.5 mtk yes tchain 5 pchain 5
fix 1 all npt temp 1.25 0.45 0.1 iso 5.68 5.68 0.5 mtk yes tchain 5 pchain 5
run 500000 # 5000000  # Run for this many steps
Neighbor list info ...
  update every 1 steps, delay 10 steps, check yes
  max neighbors/atom: 2000, page size: 100000
  master list distance cutoff = 3.8
  ghost atom cutoff = 3.8
  binsize = 1.9, bins = 8 8 8
  4 neighbor lists, perpetual/occasional/extra = 1 3 0
  (1) pair lj/cut, perpetual
      attributes: half, newton on
      pair build: half/bin/atomonly/newton
      stencil: half/bin/3d
      bin: standard
  (2) compute orientorder/atom, occasional
      attributes: full, newton on
      pair build: full/bin/atomonly
      stencil: full/bin/3d
      bin: standard
  (3) compute coord/atom, occasional
      attributes: full, newton on
      pair build: full/bin/atomonly
      stencil: full/bin/3d
      bin: standard
  (4) compute cluster/atom, occasional
      attributes: full, newton on
      pair build: full/bin/atomonly
      stencil: full/bin/3d
      bin: standard
Per MPI rank memory allocation (min/avg/max) = 9.832 | 9.837 | 9.842 Mbytes
Step Temp PotEng c_msd[4] v_twopoint v_fit v_max_n 
   12000    1.2494611    -7.068628  7.79789e-31 5.4152012e-33 8.3333333e+20            2 
   13000    1.2330663   -7.1581895   0.45332859 0.0029059524  0.036828008            3 
   14000    1.2432426   -7.1487553   0.84145352 0.0050086517  0.034183812            2 
   15000    1.2279096   -7.1668984    1.2550591 0.0069725502  0.033798293            3 
   16000    1.2196776   -7.1789749    1.6716266 0.0087063882  0.033876995            1 
   17000     1.258598   -7.2069662    2.0516036   0.01005688  0.033811832            2 
   18000    1.2458126   -7.1849622    2.3744934  0.010993025  0.033098927            2 
   19000    1.2231497   -7.1947264    2.7671383  0.012136571   0.03264286            2 
   20000     1.264778   -7.1847395    3.1171896   0.01298829  0.032200693            2 
   21000    1.2417771    -7.185351    3.4757039  0.013792475  0.031707684            2 
   22000    1.2134816   -7.2060655    3.9032653  0.014785096  0.031623266            1 
   23000    1.2455932   -7.2206047    4.2894364  0.015541436  0.031592553            3 
   24000    1.2634951   -7.1599141    4.6485183  0.016140688  0.031566665            6 
   25000    1.2277758   -7.1784433    5.1463706  0.017154568  0.031716815            2 
   26000    1.2197886   -7.2034635    5.6006529   0.01795081   0.03205144            1 
   27000    1.2412799   -7.1772217       5.9211     0.018275   0.03230172            1 
   28000    1.2205402   -7.2083031     6.365028  0.018943535  0.032437905            2 
   29000    1.2299749   -7.2393885    6.7396611  0.019366842  0.032575773            1 
   30000    1.2220229   -7.2574543    7.1010657  0.019725182  0.032651341            1 
   31000     1.224629   -7.1953944    7.5506329    0.0202974   0.03268832            2 
   32000    1.2043778   -7.2232435    7.9842209  0.020792242  0.032737292            1 
   33000     1.214516   -7.2412937    8.3779328  0.021156396  0.032875845            3 
   34000    1.2148207   -7.2681621    8.6798354  0.021274106  0.032890272            1 
   35000    1.1926367   -7.1990538    9.0919751  0.021647559  0.032896413            1 
   36000    1.2331804   -7.2331974      9.53904  0.022081111  0.032894678            1 
   37000    1.2046617   -7.2344433    9.8583378  0.022203463  0.032891797            2 
   38000    1.1953576   -7.2454547    10.189318  0.022344996  0.032868405            1 
   39000    1.1978543   -7.2418226     10.53659  0.022514081   0.03281498            1 
   40000    1.1855716   -7.2337502    10.903709  0.022716061  0.032736781            1 
   41000    1.1900758   -7.2798014    11.231854  0.022828971  0.032661129            2 
   42000    1.1748868   -7.2725782    11.644811  0.023104783  0.032571178            3 
   43000    1.2180554   -7.2710202    11.949127  0.023157222  0.032487208            2 
   44000     1.185279   -7.2758924    12.287881  0.023272502  0.032380349            2 
   45000    1.1940727   -7.2372097    12.619595  0.023369621  0.032260854            3 
   46000    1.2069821   -7.2616333    12.893897  0.023358508  0.032132929            5 
   47000    1.1880471   -7.2906808    13.253743  0.023499544    0.0320057            1 
   48000    1.1706139   -7.2970627    13.524163   0.02347945  0.031883851            1 
   49000    1.2044332   -7.2793378    13.907451  0.023652127  0.031752337            2 
   50000    1.2034703    -7.278767    14.155264  0.023592106   0.03160268            3 
   51000    1.1678167   -7.3037218    14.555958  0.023784245  0.031463916            2 
   52000    1.1766867   -7.3269445    14.888556  0.023859865  0.031345714            3 
   53000    1.1871568   -7.3177193    15.236393  0.023956593  0.031229648            4 
   54000     1.214099   -7.3192895    15.531462  0.023968306   0.03111925            2 
   55000    1.2005906   -7.3374632    15.910465  0.024106764    0.0310162            2 
   56000    1.1801112   -7.3365113    16.224055  0.024142938  0.030916756            1 
   57000    1.1878571   -7.3262816    16.447605  0.024046207  0.030803825            1 
   58000    1.1604221   -7.2848181    16.795526  0.024131502  0.030681365            4 
   59000    1.1812701   -7.2940608    17.101546  0.024154726  0.030561521            6 
   60000    1.1970189   -7.3134751    17.484773  0.024284406   0.03046096            3 
   61000    1.1945122   -7.3172017    17.909653  0.024466739  0.030372525            1 
   62000    1.1632416   -7.3652621    18.195929  0.024456893  0.030303032            1 
   63000    1.1865141    -7.336965    18.482431  0.024447661  0.030224513            2 
   64000    1.1834451   -7.3057289    18.823809  0.024510168  0.030139531            1 
   65000    1.1106958   -7.2993931    19.061124  0.024437338  0.030044871            3 
   66000    1.1441687   -7.2922428    19.329371  0.024405772  0.029947499            2 
   67000    1.1485233   -7.2999228    19.726462  0.024535401  0.029847667            1 
   68000    1.1821256   -7.3363926    19.978552  0.024483519  0.029760803            3 
   69000    1.1266304   -7.3492506    20.134715  0.024317288  0.029657392            2 
   70000    1.1572207   -7.3874614    20.364451  0.024243394   0.02954242            2 
   71000    1.1409851   -7.3759311    20.626737  0.024209786  0.029420905            2 
   72000    1.1786007   -7.3771082    20.667597   0.02392083  0.029290573            1 
   73000    1.1643912   -7.3612264     20.96537   0.02393307  0.029150724            2 
   74000    1.1679771   -7.3774727    21.225255  0.023902314  0.029008931            1 
   75000    1.1248264    -7.395758    21.513129  0.023903476  0.028875121            2 
   76000     1.169493   -7.4351151     21.65135  0.023740515    0.0287392            1 
   77000    1.1480893   -7.4314568    21.920762  0.023723768  0.028594223            1 
   78000    1.1655875   -7.4022224    22.349339  0.023877499  0.028460964            2 
   79000    1.1308391   -7.4355998    22.648617  0.023890946  0.028341334            2 
   80000    1.1204506   -7.4216521    22.872728  0.023825758  0.028227608            1 
   81000    1.1381746   -7.3934194    23.389725  0.024063503  0.028126651            1 
   82000    1.1611739   -7.4636155    23.501702  0.023883844  0.028030674            2 
   83000    1.1483582   -7.4341563    23.897514  0.023993488   0.02794028            2 
   84000    1.1468108   -7.4377403    24.194185  0.024002168   0.02785748            5 
   85000    1.1269125   -7.4505012    24.406536  0.023927977  0.027774807            2 
   86000    1.1418712   -7.3948926    24.775012  0.024006795  0.027689909            1 
   87000    1.1657732   -7.4536201    25.003222  0.023949446  0.027602016            3 
   88000    1.1544044   -7.5060948    25.105134  0.023773801  0.027515683            2 
   89000    1.1182854   -7.4695879    25.698599  0.024062359   0.02743765            2 
   90000    1.1300009   -7.4433269    26.000172  0.024074233  0.027375149            2 
   91000    1.1132902   -7.4796358    26.137619  0.023935548  0.027306029            2 
   92000    1.0916044   -7.4488647    26.580957  0.024076954  0.027236038            5 
   93000     1.091235   -7.4649718    26.882098  0.024087901  0.027172444            2 
   94000    1.1018018   -7.4693003    27.070353   0.02399854  0.027112796            1 
   95000    1.1368785   -7.4730234    27.273925  0.023924496  0.027049873            2 
   96000    1.1246542   -7.4353448    27.661177  0.024011439   0.02698538            3 
   97000    1.1065122   -7.4984814    27.913266  0.023980469  0.026924335            2 
   98000    1.0882091   -7.4289364    28.091819  0.023887601  0.026863397            2 
   99000    1.1258983   -7.4663318    28.271643  0.023797679  0.026796434            2 
  100000    1.1050683   -7.4997534     28.55632  0.023796933  0.026728897            2 
  101000    1.1013381   -7.4631109    28.718041  0.023694753  0.026661718            2 
  102000    1.0835788   -7.4992738    28.838838  0.023561142  0.026588797            2 
  103000    1.1290246   -7.4747199    29.235429   0.02365326   0.02651345            3 
  104000    1.0942434   -7.5310618    29.315153  0.023489706   0.02643876            3 
  105000    1.0951192   -7.5285815    29.522152  0.023430279  0.026358525            1 
  106000    1.1168196   -7.5300502    29.662715  0.023319744  0.026273186            3 
  107000    1.0775231   -7.5256988    29.968546  0.023339989  0.026190871            1 
  108000    1.1192354   -7.5134429    30.184303  0.023290357  0.026112107            5 
  109000    1.1089361   -7.4958687    30.557396  0.023361923  0.026037336            2 
  110000    1.0789456   -7.4966734    30.789183  0.023325138  0.025965249            1 
  111000    1.1016955   -7.5083288    31.149188  0.023385276  0.025894101            1 
  112000    1.0981343   -7.5909154    31.384565  0.023351611   0.02582833            1 
  113000    1.0788782   -7.5301464     31.55203  0.023268458  0.025760424            1 
  114000    1.0830149   -7.5762415    31.615322  0.023110616  0.025689503            2 
  115000    1.0843846   -7.5162653     31.92143  0.023131471  0.025617459            4 
  116000    1.0925729   -7.5536799    32.226328  0.023151097  0.025551825            1 
  117000    1.0938595   -7.5440724    32.588646  0.023211286  0.025486574            2 
  118000    1.0951064   -7.5553199     32.95887  0.023276038  0.025426274            5 
  119000    1.0811025   -7.5508291    33.074071  0.023161114  0.025367708            2 
  120000    1.0437196   -7.5605805     33.31091  0.023132576  0.025305678            1 
  121000     1.055133   -7.5817375    33.603348  0.023142801  0.025247759            4 
  122000    1.0759948   -7.6306005    33.753838  0.023055901  0.025190842            2 
  123000    1.0793708   -7.6160349    33.969399  0.023014498  0.025130816            3 
  124000    1.0667168   -7.6148918    34.262585   0.02302593  0.025070982            3 
  125000    1.0601053   -7.5995748    34.649682  0.023099788  0.025011726            1 
  126000    1.0831629   -7.6437511    34.552802  0.022852382  0.024951288            1 
  127000     1.073475   -7.6493484    34.690868  0.022763037  0.024887404            5 
  128000    1.0546967   -7.5976496    34.888652  0.022713966  0.024822427            4 
  129000    1.0802826   -7.5996896    35.114041  0.022683489  0.024757599            2 
  130000    1.0569775   -7.5880528    35.256988  0.022600633    0.0246885            2 
  131000    1.0427558   -7.5938502    35.493854  0.022578788  0.024621076            2 
  132000    1.0328593   -7.6446951    35.715898  0.022547915  0.024557065            3 
  133000    1.0414913   -7.6035904    35.919371  0.022505872  0.024491848            2 
  134000    1.0564844   -7.6439543    36.042904  0.022414741  0.024426093            1 
  135000    1.0513206   -7.6188886    36.365643  0.022447928  0.024360863            3 
  136000    1.0593823   -7.6173583    36.552775  0.022397534  0.024295993            3 
  137000    1.0305285   -7.6664588    36.812048  0.022391757  0.024232762            2 
  138000    1.0540226   -7.6392507    36.996873  0.022341107  0.024169791            3 
  139000    1.0442658   -7.6647232    37.009328  0.022187846  0.024104307            1 
  140000     1.031044   -7.6370853    37.371545  0.022244967   0.02403792            1 
  141000    1.0458688   -7.6473433    37.479362  0.022150923  0.023971496            5 
  142000    1.0508671   -7.7004771    37.632832  0.022084995  0.023906882            3 
  143000    1.0607995   -7.6353809    37.933969  0.022106042  0.023841164            6 
  144000    1.0453898   -7.6804907     38.03875  0.022013166  0.023775672            2 
  145000    1.0532646   -7.6300578    38.308944  0.022016634   0.02371176            4 
  146000     1.003475   -7.7049141    38.422179  0.021930468  0.023649221            4 
  147000     1.019807   -7.7423182    38.484722  0.021816736   0.02358312            2 
  148000     1.027483   -7.6835039    38.826577  0.021861811  0.023517955            3 
  149000    1.0417593    -7.702705    38.781949  0.021690128  0.023452411            2 
  150000    1.0136422   -7.7133279    39.049092   0.02169394  0.023386156            2 
  151000    1.0318497   -7.7203803    39.161932  0.021612545  0.023318839            2 
  152000    1.0252981   -7.7192035    39.382553  0.021591312  0.023252849            4 
  153000    1.0233468   -7.7008585      39.7343  0.021641776  0.023188005            2 
  154000    1.0260581   -7.7187397    39.917664  0.021600467  0.023122891            3 
  155000    1.0157391   -7.6902179    39.955795   0.02148161  0.023057934            2 
  156000    1.0157549   -7.6888752    40.144467  0.021444694  0.022994005            2 
  157000    1.0116766   -7.7430141    40.036143  0.021250607  0.022926447            2 
  158000    1.0175396    -7.756739    40.211413  0.021208551   0.02285664            2 
  159000    1.0234899   -7.7432894    40.362011  0.021154094  0.022786335            3 
  160000   0.99949379   -7.7852318    40.487901  0.021087448  0.022717088            2 
  161000    1.0254143   -7.7192748    40.714599  0.021073809  0.022647586            3 
  162000    1.0235658   -7.7099895    40.891717  0.021034834  0.022578293            2 
  163000    1.0257265   -7.7552894    41.019775  0.020971255   0.02250911            5 
  164000   0.99520963   -7.7545461    41.165567  0.020917463  0.022438764            2 
  165000   0.97638246   -7.7281222     41.26298  0.020839889  0.022368111            2 
  166000    0.9893499   -7.7548186    41.493296  0.020829968  0.022296733            3 
  167000   0.99645299   -7.7573007    41.587612  0.020752302  0.022225597            4 
  168000   0.99235476   -7.7631909    41.443642  0.020557362  0.022154646            4 
  169000    1.0014275   -7.7527676    41.637146  0.020531137  0.022081825            2 
  170000    1.0176209    -7.783091    41.804081  0.020492196  0.022009268            4 
  171000    1.0006598   -7.7633619    41.952635  0.020444754  0.021936768            3 
  172000    1.0219646   -7.7750176     42.04294  0.020369642   0.02186443            2 
  173000   0.98973747   -7.7900737    42.011887   0.02023694    0.0217909            6 
  174000    1.0010888    -7.773561    42.174016  0.020198283  0.021717315            2 
  175000    1.0087531   -7.7728696    42.260484   0.02012404  0.021643054            2 
  176000   0.99134352    -7.771401    42.368638  0.020060908  0.021566792            1 
  177000   0.98669211   -7.8017403    42.309018    0.0199195   0.02148951            2 
  178000   0.96146639   -7.8460907    42.274516   0.01979144  0.021411534            5 
  179000   0.99780816   -7.8255454    42.628852  0.019845834  0.021333502            6 
  180000   0.99169821   -7.7924662    42.746693  0.019790136  0.021256991            2 
  181000   0.97524705   -7.7899949    42.976104   0.01978642  0.021182912            2 
  182000   0.96572384   -7.8327055    43.137422  0.019751567  0.021110121            1 
  183000   0.96255592   -7.8273498    43.100797  0.019626957  0.021035913            2 
  184000   0.98579722   -7.8241438    43.388156  0.019650433  0.020961712            3 
  185000    0.9738926   -7.8432745    43.643933  0.019659429   0.02088882            3 
  186000   0.99769695   -7.8052106    43.667945  0.019564491   0.02081814            2 
  187000   0.97339458   -7.8693862    43.687213  0.019468455  0.020746442            1 
  188000   0.96883102   -7.8492368    43.982791  0.019495918  0.020675896            3 
  189000   0.97500752   -7.8493293    43.891234  0.019352396  0.020606016            2 
  190000   0.95782864     -7.85798    44.175786  0.019375345  0.020536753            2 
  191000    0.9574766   -7.8444457    44.409336  0.019375801  0.020469298            3 
  192000   0.96819703   -7.8847889    44.423448   0.01928101  0.020400189            1 
  193000   0.96856334   -7.8642158     44.44877  0.019192042  0.020331211            2 
  194000   0.97067903   -7.8606368    44.689423  0.019196488   0.02026366            1 
  195000   0.94347307   -7.9259677    44.721194  0.019111622  0.020195761            6 
  196000   0.94254513   -7.9245362    44.716863  0.019012271  0.020127516            8 
  197000   0.94929216   -7.8943003    44.990996  0.019031724  0.020058941            8 
  198000   0.94147466   -7.9162786    44.905359  0.018899562  0.019991077            6 
  199000   0.95699753   -7.8687985    45.104984  0.018888184  0.019923622            5 
  200000   0.95835388   -7.9149467    45.298709  0.018874462  0.019856415            4 
  201000   0.94346322   -7.9368396    45.324084   0.01879108  0.019790181            2 
  202000   0.93525635   -7.9687051    45.404471  0.018731217  0.019723345            4 
  203000   0.94428663   -7.9078708    45.599234  0.018718897  0.019656577            3 
  204000   0.94813665    -7.969421    45.582061  0.018620123  0.019590107            4 
  205000   0.91447286   -7.9317568     45.60033  0.018536719  0.019523437            4 
  206000   0.95756131   -7.9388629     45.82901  0.018539243  0.019456948            3 
  207000   0.92529369   -7.9506082    45.871519  0.018466795  0.019390206            2 
  208000    0.9540045   -7.9452584    45.878836  0.018380944   0.01932357            3 
  209000   0.93345136   -7.9400321    46.069448  0.018368998  0.019257535            3 
  210000   0.93052682   -7.9266178     46.12495  0.018303552  0.019191914            3 
  211000   0.92448163    -7.960801    46.220853  0.018254681  0.019125341            4 
  212000   0.92913735   -7.9375077     46.55721   0.01830079  0.019060889            3 
  213000   0.91799899   -7.9757164     46.36512  0.018139718  0.018996785            4 
  214000   0.91098291   -7.9641649    46.597277  0.018145357  0.018932133            2 
  215000   0.93776376   -8.0019739    46.589466  0.018057933  0.018867138            2 
  216000   0.91277541   -8.0024156    46.687455  0.018012136  0.018802542            3 
  217000    0.9194745   -7.9803728    46.820305  0.017980148    0.0187382            3 
  218000   0.93081899   -8.0173939    46.781507  0.017882839  0.018674588            3 
  219000   0.92885676   -7.9666328    47.202352  0.017961321  0.018611686            2 
  220000   0.92234595     -7.95162    47.334191  0.017929618  0.018550669            4 
  221000   0.91792043   -7.9741717    47.273215  0.017825496  0.018489777            2 
  222000   0.92078335   -7.9896357    47.587308  0.017863103  0.018429987            4 
  223000   0.91179275   -8.0121826    47.629582  0.017798797  0.018371337            2 
  224000   0.91939782   -7.9994787     47.93425  0.017832682  0.018313479            3 
  225000   0.89731088   -8.0176813    47.874514  0.017731301  0.018255622            2 
  226000   0.91391471   -8.0354097    47.912856  0.017666982  0.018197899            5 
  227000   0.89972596   -8.0452623    47.906627  0.017586867  0.018139658            2 
  228000   0.88492145   -8.0422262    47.980212  0.017536627  0.018081415            2 
  229000   0.90131383   -8.0590028     48.11801  0.017510193  0.018022778            3 
  230000   0.89489705   -8.0529153    48.072434  0.017417549  0.017964333            1 
  231000   0.90596282   -8.0677629      48.1902  0.017384632  0.017905998            3 
  232000   0.89944171   -8.0536289    48.496015  0.017419546  0.017849379            2 
  233000   0.90902413   -8.0631223    48.374096  0.017301179  0.017792409            3 
  234000   0.89412861   -8.0809673    48.701041  0.017343676   0.01773645            4 
  235000   0.88758205   -8.0887917     48.64888  0.017251376  0.017680409            1 
  236000   0.91123146    -8.095325    48.601969  0.017161712  0.017623715            2 
  237000   0.87689075   -8.1059669    48.688934  0.017119878  0.017566851            6 
  238000   0.88030247   -8.0866335    48.794309  0.017084842  0.017510014            5 
  239000   0.89744932   -8.0952678    48.924103  0.017058613  0.017453858            4 
  240000   0.89507519   -8.0775012    49.102715  0.017049554  0.017398553            3 
  241000    0.8884666   -8.1143791    49.155577  0.016997087  0.017342336            3 
  242000   0.86461541   -8.1281659    49.075615  0.016899316  0.017286561            2 
  243000   0.89047049   -8.1097527    49.135467  0.016850297  0.017231119            4 
  244000    0.8685435   -8.1049452    49.411193  0.016875407   0.01717582            3 
  245000   0.88615112    -8.110363    49.267395  0.016757617  0.017121166            3 
  246000   0.88306218   -8.1255832    49.375134  0.016725994  0.017066238            6 
  247000   0.87055767   -8.1026816    49.462833  0.016687865  0.017010968            3 
  248000   0.89104829   -8.1268693    49.441608  0.016613444  0.016955429            3 
  249000   0.84986501   -8.1387955    49.401117  0.016533172  0.016899599            2 
  250000   0.86513435   -8.1234615    49.532035  0.016510678  0.016844289            4 
  251000   0.86581548   -8.1464131    49.663105  0.016488415  0.016789205            4 
  252000   0.86543623   -8.1570504    49.624968  0.016410373    0.0167341            5 
  253000   0.86498716   -8.1840869    49.699345  0.016370008  0.016679425            5 
  254000   0.85630681   -8.1622313    49.736509  0.016317752  0.016623965            2 
  255000   0.86646826   -8.1451757    49.749408  0.016257976  0.016568312            2 
  256000   0.84496591    -8.148005    49.789342  0.016207468  0.016512528           11 
  257000   0.85803216   -8.1658615    49.805652  0.016149693  0.016456433            4 
  258000   0.85771745   -8.1382586    49.895068  0.016115978  0.016400465            4 
  259000   0.85572226   -8.1705865    49.827517   0.01603202  0.016344349            6 
  260000   0.84068058   -8.1840639    49.847833   0.01597687  0.016288756            3 
  261000   0.84502946   -8.1765241    49.903697  0.015933492  0.016232878            2 
  262000    0.8718218   -8.1602082    50.002783  0.015904193  0.016177304            2 
  263000   0.83992619   -8.1915996    49.953858  0.015828219  0.016121696            2 
  264000   0.83532475   -8.2025886    50.120798  0.015820959  0.016066755            5 
  265000   0.85335008   -8.2195848    50.129049  0.015763852  0.016011846            3 
  266000   0.84114004   -8.1464468    50.389271  0.015786112  0.015957287            7 
  267000   0.84952156   -8.1992004    50.188679  0.015664382  0.015902812            6 
  268000   0.84618193   -8.2226381    50.256113  0.015626901  0.015848093            3 
  269000   0.82451766   -8.2109842    50.305074  0.015583976  0.015793473            3 
  270000   0.83733478   -8.2284867     50.39749  0.015554781  0.015739389            3 
  271000   0.83016877   -8.2166248     50.50283  0.015529775   0.01568564            4 
  272000   0.83492286    -8.203261    50.508173  0.015474318  0.015632324            3 
  273000   0.82601437   -8.2226897    50.407207  0.015386815  0.015578568            3 
  274000    0.8192001   -8.2135752    50.637376  0.015400662  0.015525001            2 
  275000   0.83761116   -8.2465444    50.582089  0.015327906  0.015471745            2 
  276000   0.83431609   -8.2475512    50.587781  0.015274089  0.015418288            2 
  277000   0.82841104     -8.26649    50.537192  0.015203728  0.015364981            5 
  278000   0.83372121    -8.215799     50.68722  0.015194011  0.015311492            2 
  279000   0.80719882   -8.2260429    50.766117  0.015163117  0.015258634            5 
  280000   0.83362472   -8.2254507    50.866729  0.015138907  0.015206833            5 
  281000   0.80052233   -8.2362006    50.798726  0.015064865  0.015154736            3 
  282000   0.80875733   -8.2930734    50.794279   0.01501013  0.015102267            3 
  283000   0.80760253   -8.2409629    50.745583  0.014942751  0.015049498            3 
  284000   0.82679287    -8.286909    50.864292  0.014924968  0.014996982            3 
  285000   0.81687821   -8.2727543    50.829219  0.014862345  0.014944424            3 
  286000    0.8134578   -8.3015593    50.980666  0.014854506  0.014892222            4 
  287000   0.79433372   -8.2577948    50.987412  0.014804707  0.014840133            3 
  288000   0.79974925    -8.283626    50.872379  0.014720017  0.014788087            5 
  289000   0.79521476   -8.3377793    50.733828  0.014629132  0.014735667            2 
  290000   0.78456256   -8.3399004    50.979242  0.014649208   0.01468344            8 
  291000   0.79826628   -8.3111924    50.918853  0.014581573  0.014631203           12 
  292000   0.79159351   -8.2891796    50.958535  0.014542961  0.014579241            5 
  293000    0.8188893   -8.3194103    51.024633  0.014512125  0.014527843            7 
  294000   0.80861494   -8.3278472    51.033203  0.014465194  0.014476654            7 
  295000   0.78439112   -8.3320787    51.209461  0.014465949  0.014425976            8 
  296000   0.80295694   -8.3433127    51.090369   0.01438355  0.014375795            8 
  297000   0.79871094    -8.341062      51.1335  0.014347222  0.014325286            2 
  298000   0.78243234   -8.3668392     51.05555  0.014277279  0.014274494           18 
  299000   0.78083856    -8.366751    51.269366  0.014289121   0.01422374            6 
  300000   0.77565276   -8.3401778    51.242264  0.014233962  0.014173798            9 
  301000   0.78498922   -8.3724274    51.217166  0.014179725  0.014123929            5 
  302000   0.78431265   -8.3671892     51.16143  0.014117392  0.014073968            2 
  303000   0.78768129   -8.3799463    51.307236  0.014110901  0.014024039            4 
  304000   0.77623881   -8.3754913    51.318883  0.014067676  0.013974442            3 
  305000   0.76724288   -8.3735433    51.227492  0.013996582  0.013925003            8 
  306000   0.76276486   -8.4143679    51.258065  0.013959168  0.013875392            8 
  307000   0.77562401   -8.3958245    51.270841  0.013917166  0.013826122            4 
  308000   0.76578274   -8.4018369    51.394668  0.013905484  0.013776779           12 
  309000    0.7841599   -8.4166545    51.381875  0.013857032  0.013728032            2 
  310000   0.78229785   -8.3816664    51.277347  0.013784233  0.013679398            7 
  311000   0.75738979   -8.4159838     51.29005  0.013743315   0.01363084            7 
  312000   0.76607636   -8.4030953    51.342571  0.013713294  0.013582418            2 
  313000    0.7723735   -8.4093428    51.518042  0.013716199  0.013533978            1 
  314000   0.76473286   -8.4405882     51.40162  0.013641619  0.013485582            4 
  315000   0.76268764   -8.4545553    51.441445  0.013608848  0.013437319            3 
  316000    0.7550754   -8.4485456    51.469828  0.013573267  0.013389219            3 
  317000   0.77155596   -8.4570803    51.432888  0.013520738  0.013341511            9 
  318000   0.76055714    -8.455293     51.49733  0.013495107  0.013293647            4 
  319000   0.76469592   -8.4651142    51.474298  0.013446786  0.013246102            3 
  320000   0.75656471   -8.4912193    51.437587  0.013395205  0.013198382            8 
  321000   0.75938932   -8.4533024    51.431206  0.013351819  0.013150787            5 
  322000   0.73983229   -8.4658087    51.459247   0.01331761  0.013103264            8 
  323000   0.75784264   -8.4722069    51.538133  0.013296732   0.01305596           12 
  324000   0.74649461    -8.485317    51.403749  0.013221129  0.013008876            8 
  325000   0.74683619   -8.4625075    51.375709  0.013173259   0.01296172           10 
  326000   0.76403043   -8.4802985     51.52832  0.013171861  0.012914841           11 
  327000   0.74009791    -8.482727    51.372978  0.013091992  0.012868083            6 
  328000   0.75223431   -8.4821102    51.467792  0.013076167  0.012821488            3 
  329000   0.74924808   -8.4909775     51.42959  0.013026745  0.012774973            5 
  330000   0.74034446   -8.5139335    51.444666  0.012991077  0.012728283            4 
  331000   0.75126102   -8.5087442    51.541791  0.012976282  0.012681806            4 
  332000   0.74149977   -8.4823127    51.597861   0.01295127  0.012635743            3 
  333000   0.73132683   -8.5045534     51.52731  0.012894722  0.012589877            3 
  334000   0.74378001   -8.5438957    51.430986  0.012832082  0.012544069            3 
  335000   0.72731505   -8.5244223    51.518848  0.012815634  0.012498304            4 
  336000   0.72673154   -8.5277602     51.48845  0.012769953  0.012452644            2 
  337000   0.70870391   -8.5188801    51.370512  0.012702896  0.012407115            4 
  338000   0.73033077   -8.5374192    51.481771  0.012692744   0.01236165            7 
  339000   0.72428344   -8.5470521    51.537206   0.01266893  0.012316477            6 
  340000   0.73563788   -8.5666545    51.445984   0.01260931  0.012271323            7 
  341000     0.731119   -8.5560694    51.420292  0.012566054   0.01222631            4 
  342000   0.72614963   -8.5544468    51.445227  0.012535387   0.01218137            4 
  343000   0.73110121   -8.5661678     51.55689  0.012525969  0.012136573           15 
  344000   0.71223102   -8.5449091     51.54506  0.012486691  0.012092217           11 
  345000   0.71639045   -8.5777198     51.63375   0.01247192  0.012047991            6 
  346000   0.73250461   -8.5807246    51.487674  0.012400692  0.012004034            6 
  347000    0.7196137   -8.5892316    51.576016  0.012386171  0.011960379            4 
  348000   0.70563539   -8.5863593    51.586423  0.012353071  0.011916826           11 
  349000   0.71044404   -8.6079787     51.61099  0.012323541   0.01187354            6 
  350000   0.70600897   -8.5776001    51.626786  0.012292092  0.011830447            5 
  351000   0.71516255    -8.559033    51.777809  0.012292927  0.011787607           11 
  352000   0.70870821   -8.5698777    51.623009  0.012221356  0.011744888           12 
  353000   0.71153601    -8.601097    51.629743  0.012188325  0.011702274           11 
  354000   0.70219667   -8.6066959    51.590502  0.012144657  0.011659826            5 
  355000   0.69391992   -8.5846784    51.638305  0.012121668  0.011617581           15 
  356000   0.70263559   -8.5982092    51.633407  0.012086472  0.011575305           10 
  357000   0.69672535   -8.6022999    51.670658  0.012061311  0.011533115           10 
  358000   0.70320133   -8.6020303    51.527153  0.011994216  0.011490948            3 
  359000   0.68637899   -8.6273417    51.502542  0.011955093  0.011448997           14 
  360000   0.69074048   -8.6076053     51.58336  0.011940593  0.011407085            6 
  361000   0.69771328   -8.6014999    51.491813  0.011886383  0.011365605            7 
  362000   0.68771506   -8.6281476    51.619973  0.011883051  0.011324303            9 
  363000   0.67341923   -8.6151047     51.62364  0.011851157  0.011283116           10 
  364000   0.68562987    -8.596215    51.721125  0.011840917  0.011242052            3 
  365000   0.68526627   -8.6149519     51.62475  0.011786473  0.011201186            6 
  366000   0.69151138   -8.6493032    51.674973  0.011765704  0.011160332            7 
  367000    0.6861429   -8.6393187    51.575035  0.011710952  0.011119404           12 
  368000   0.65711695   -8.6736886    51.442029   0.01164901  0.011078755           11 
  369000   0.68498112   -8.6468019    51.605983  0.011654468  0.011038339           11 
  370000   0.67457849   -8.6333627    51.595627  0.011620637  0.010998077            9 
  371000   0.67146152   -8.6413174    51.647173  0.011600892  0.010957955            5 
  372000   0.68010738    -8.658137    51.673232  0.011575545  0.010918158            9 
  373000   0.68119136   -8.6295064    51.643858  0.011537949  0.010878337            9 
  374000   0.67120154   -8.6655461    51.572306  0.011491156  0.010838846            8 
  375000   0.66588963   -8.6735737    51.516801  0.011448178  0.010799491           10 
  376000   0.67444263   -8.6720129     51.50615   0.01141537  0.010760155            8 
  377000   0.66903178   -8.6602605       51.649  0.011416667  0.010720974            9 
  378000   0.67140309   -8.6519697    51.704364  0.011398669  0.010682038           10 
  379000   0.64808936   -8.6924108     51.58882  0.011343188  0.010643078            8 
  380000   0.65625748   -8.6863129    51.595145  0.011314725  0.010604285           11 
  381000   0.65688486   -8.6966909     51.46958  0.011257563  0.010565607            9 
  382000   0.66148647   -8.7158087    51.582994  0.011252835  0.010527014           10 
  383000    0.6546273   -8.6778572    51.600628  0.011227291  0.010488581           10 
  384000   0.63117508   -8.7170991    51.481458  0.011172191   0.01045027            9 
  385000   0.64531258   -8.6957505    51.498622  0.011146888   0.01041219           12 
  386000   0.65752887   -8.7141898    51.492329  0.011116651  0.010374358            7 
  387000   0.64396568   -8.7113228     51.52066  0.011094027  0.010336683            4 
  388000   0.64967336   -8.7203803    51.517828  0.011064826  0.010299212            7 
  389000   0.64609601   -8.7185237     51.49645  0.011031802  0.010261822            7 
  390000   0.64483387   -8.7148806    51.504782  0.011005295  0.010224495           10 
  391000   0.64039659   -8.7248195    51.461752  0.010967978  0.010187366            6 
  392000   0.64013247   -8.7271615    51.499895  0.010948107   0.01015039            9 
  393000   0.65428953   -8.7251645    51.423962  0.010904148   0.01011348           11 
  394000   0.64056549   -8.7499301    51.390716  0.010869441  0.010076571           10 
  395000   0.63718061   -8.7373428    51.437424  0.010851777  0.010039923           10 
  396000    0.6355828   -8.7441869    51.414282  0.010819504  0.010003344            7 
  397000   0.63657547    -8.741304    51.516118  0.010813627 0.0099669282            5 
  398000   0.63803736    -8.757036    51.427769  0.010767958 0.0099306527           11 
  399000   0.63981904   -8.7572037    51.364891  0.010727839 0.0098945173            8 
  400000   0.63075249   -8.7511749    51.450396  0.010718833 0.0098585522           11 
  401000   0.63421818   -8.7718553    51.424193  0.010686657 0.0098227592            4 
  402000   0.62558174   -8.7567286    51.435455  0.010662408  0.009787155            7 
  403000   0.62977039   -8.7670509    51.380023  0.010624488 0.0097516888            8 
  404000   0.62170319   -8.7589384    51.469558  0.010616658 0.0097164762            3 
  405000   0.63302415    -8.772426    51.428485  0.010581993 0.0096814878            7 
  406000    0.6051441   -8.7973603    51.406448  0.010551406 0.0096464994            9 
  407000   0.63626183   -8.7915906    51.454507  0.010535321  0.009611595            5 
  408000   0.62382993   -8.8007325    51.380981  0.010494481 0.0095768836            7 
  409000    0.6152253   -8.7898473    51.347359  0.010461972 0.0095423254            6 
  410000   0.60408528   -8.7617394    51.387377  0.010444589 0.0095079417           10 
  411000   0.59999094   -8.7713369    51.410274  0.010423819 0.0094737604            7 
  412000   0.60964275   -8.7842934    51.423444  0.010401182 0.0094396133            4 
  413000   0.59855009   -8.7835447    51.460528   0.01038348 0.0094056712            8 
  414000   0.59704916   -8.7940856    51.504306  0.010367211 0.0093719455            6 
  415000   0.59462476   -8.8070119    51.371875  0.010315637  0.009338284            7 
  416000   0.59217955   -8.7790652    51.488902  0.010314283 0.0093048609            4 
  417000   0.61549488   -8.8093096    51.454503  0.010282674  0.009271588            6 
  418000   0.58494858    -8.811451    51.389556  0.010245127 0.0092384072            6 
  419000   0.58588343   -8.8206558    51.328607  0.010208554 0.0092052623            7 
  420000   0.58647013   -8.8249681     51.34605  0.010187708  0.009172239            6 
  421000    0.5893303   -8.8034567    51.386784  0.010171572 0.0091393366            6 
  422000   0.59880734   -8.8170622    51.279664  0.010126316 0.0091066108            7 
  423000   0.59421482    -8.821444    51.411279  0.010128305 0.0090740107            6 
  424000   0.58638209   -8.8588367    51.349461  0.010092268 0.0090414739           10 
  425000   0.60161371      -8.8349    51.301841  0.010059184 0.0090090782           10 
  426000   0.58780241   -8.8229374    51.450147  0.010064583 0.0089767844           10 
  427000   0.59450281   -8.8313851    51.260614  0.010004023 0.0089445936            5 
  428000   0.57573696   -8.8411297    51.220967 0.0099729298 0.0089124964           11 
  429000   0.58688243   -8.8415744    51.252282 0.0099557657 0.0088805282            8 
  430000   0.57671293   -8.8574094    51.306904 0.0099431984 0.0088488332            4 
  431000    0.5757272   -8.8631681    51.237314 0.0099066733 0.0088173217           10 
  432000   0.57242286   -8.8451083    51.301944 0.0098962083 0.0087858476           13 
  433000   0.57908327    -8.847756     51.24991 0.0098633391 0.0087544631            6 
  434000   0.57135678   -8.8403222    51.290665  0.009848438 0.0087232193           12 
  435000   0.57136225   -8.8638162    51.268239 0.0098215017 0.0086921629            3 
  436000   0.57004381   -8.8759059    51.244591 0.0097944554 0.0086611975            8 
  437000   0.58223473   -8.8631033    51.288606  0.009780436 0.0086303374           11 
  438000   0.57251766   -8.8583156    51.218764  0.009744818 0.0085996318           10 
  439000   0.55405071   -8.8636421    51.173551 0.0097140377 0.0085690453            6 
  440000   0.55683398   -8.8624645    51.290177 0.0097140486 0.0085386108            5 
  441000   0.56072852   -8.8579847    51.169634  0.009669243 0.0085083472            8 
  442000   0.57303491   -8.8565433    51.214373 0.0096558018 0.0084782326            5 
  443000   0.57219863   -8.8761452    51.266481 0.0096438075 0.0084482394            7 
  444000   0.55727443   -8.8634563    51.198895 0.0096094023 0.0084184131            7 
  445000   0.55425644   -8.8902822     51.14706 0.0095781011 0.0083887436            7 
  446000   0.54587862   -8.8938072    51.245699 0.0095750558 0.0083591512            7 
  447000   0.55545831   -8.8844735    51.173966 0.0095402621 0.0083297327           10 
  448000   0.55104992   -8.8853678    51.181567 0.0095203807 0.0083003589            7 
  449000   0.54450037   -8.9015611    51.195195 0.0095017065 0.0082711113           20 
  450000   0.54172958   -8.8876228    51.169945 0.0094759156 0.0082420738           19 
  451000   0.54922682   -8.9006841    51.264999 0.0094724683 0.0082130948           13 
  452000   0.53542102   -8.8860182    51.208717 0.0094411352 0.0081843057            7 
  453000   0.53617422   -8.9109791    51.240204 0.0094260862 0.0081556627           11 
  454000   0.53729734   -8.9065275    51.149568 0.0093886873 0.0081270884            6 
  455000   0.55571315   -8.9187116    51.132212 0.0093648739 0.0080985914           20 
  456000   0.53386261   -8.9261488    51.178333 0.0093527655 0.0080701746            7 
  457000   0.53857327   -8.9395727    51.108002 0.0093194753 0.0080419604            8 
  458000   0.54405652   -8.9036235    51.181706 0.0093125374 0.0080138771            5 
  459000   0.54306711   -8.9343089    51.094129 0.0092763487 0.0079859433           14 
  460000   0.54184774   -8.9338109    51.138589 0.0092642372 0.0079580833           15 
  461000   0.52573201   -8.9338903    51.112499  0.009239425 0.0079303804            7 
  462000    0.5210606    -8.934543    51.148768 0.0092259682   0.00790282           11 
  463000   0.53510496   -8.9323469    51.129816 0.0092026307 0.0078753287            9 
  464000   0.52753277   -8.9375434     51.08086  0.009174005 0.0078479416            7 
  465000   0.52640486   -8.9183554    51.164055 0.0091691854 0.0078207406           17 
  466000     0.532153   -8.9529212    51.118588 0.0091413783 0.0077936693            9 
  467000   0.52125206   -8.9374343    51.155157 0.0091283292 0.0077666201           12 
  468000   0.51835685   -8.9422659    51.038451 0.0090880432 0.0077396822            8 
  469000   0.51436961   -8.9622101    51.016477 0.0090647614 0.0077128864            7 
  470000   0.51986679   -8.9435272    51.200252 0.0090780589 0.0076861974           16 
  471000   0.52278005   -8.9700983    51.046784 0.0090316321 0.0076596363            7 
  472000   0.51519914   -8.9501052    51.005211 0.0090051573 0.0076331843            6 
  473000   0.50966975   -8.9777026    50.924051 0.0089718201 0.0076067965            9 
  474000   0.51274665   -8.9690931    50.973781 0.0089616352 0.0075804937            9 
  475000   0.50680586   -8.9721284    51.009962 0.0089491162 0.0075543468            5 
  476000    0.5051045   -8.9658623    51.029309 0.0089337026 0.0075283378           10 
  477000   0.51136263   -8.9764166    50.981721 0.0089066598 0.0075024908            9 
  478000   0.49775213   -8.9795889     50.99234 0.0088898779 0.0074767338            9 
  479000   0.49579342   -8.9739219    50.969472 0.0088673403  0.007451051            9 
  480000   0.50602431   -8.9940117    50.967051 0.0088484464 0.0074254972            9 
  481000   0.49821136   -8.9954679    51.051086 0.0088446095 0.0074000715            5 
  482000   0.50219309   -8.9947117    50.999843 0.0088174003 0.0073747363            9 
  483000   0.49004546   -8.9856658    51.001356 0.0087994058 0.0073494947           10 
  484000   0.49735018   -8.9908745    50.936282  0.008770021 0.0073243821            6 
  485000   0.48579515   -8.9968439    51.026656 0.0087674667 0.0072993666           10 
  486000    0.4940479   -8.9820838    51.029557  0.008749924 0.0072744635            6 
  487000   0.49460398   -8.9951993    50.932295 0.0087153139  0.007249621            7 
  488000   0.49144968   -9.0148047    50.955557 0.0087014271 0.0072249173           12 
  489000    0.4873425   -9.0011648    50.949476 0.0086825964  0.007200338            6 
  490000   0.48447232   -9.0167461     50.97509  0.008669233 0.0071758453           11 
  491000   0.48935459   -9.0217816    50.895045 0.0086379914 0.0071514747            6 
  492000   0.48930393   -9.0123376    50.892754 0.0086200464 0.0071272012           10 
  493000   0.48142865   -9.0164435    50.962766 0.0086143959 0.0071030927            9 
  494000   0.47681507   -9.0125303    50.841832 0.0085765574 0.0070790359            9 
  495000   0.48384776   -9.0267212    50.890906 0.0085674926  0.007055124            7 
  496000   0.47836896   -9.0201087    50.915104 0.0085542849 0.0070312485            7 
  497000   0.45972563   -9.0233741    50.884838 0.0085319983   0.00700748            7 
  498000   0.47201318   -9.0246551    50.872884 0.0085128654 0.0069838594           10 
  499000   0.47162086   -9.0426532    50.925657 0.0085046187 0.0069603556           13 
  500000   0.46781662    -9.036746    50.985368 0.0084975613  0.006936959            7 
  501000   0.47288396   -9.0525068    50.899212 0.0084662695 0.0069136607           10 
  502000   0.47740554   -9.0469033    50.815816 0.0084355603 0.0068904151            7 
  503000   0.46791353   -9.0680497    50.831103 0.0084213226 0.0068672879           10 
  504000   0.47178848   -9.0550631    50.869659 0.0084109886 0.0068442507            8 
  505000   0.45567145   -9.0437125    50.845289 0.0083903117 0.0068213298            8 
  506000   0.46711269   -9.0475119    50.834378 0.0083719331 0.0067985221           12 
  507000   0.46074194   -9.0503051    50.865836 0.0083605911 0.0067757856           10 
  508000   0.45733366    -9.064954    50.791221 0.0083318932 0.0067531491            7 
  509000   0.46044733   -9.0497974    50.801038 0.0083171314 0.0067305719           10 
  510000   0.44919515   -9.0674502    50.776471 0.0082968089 0.0067081178            9 
  511000    0.4581739   -9.0534505     50.76643  0.008278935 0.0066857674            9 
  512000   0.45593257   -9.0711629     50.86119 0.0082781885 0.0066635195           11 
Loop time of 1256.3 on 48 procs for 500000 steps with 4000 atoms

Performance: 68773.234 tau/day, 397.993 timesteps/s
99.4% CPU use with 48 MPI tasks x no OpenMP threads

MPI task timing breakdown:
Section |  min time  |  avg time  |  max time  |%varavg| %total
---------------------------------------------------------------
Pair    | 86.253     | 91.349     | 97.047     |  27.1 |  7.27
Neigh   | 8.3404     | 8.7184     | 9.0979     |   6.6 |  0.69
Comm    | 81.243     | 86.74      | 92.823     |  29.9 |  6.90
Output  | 0.85128    | 0.85206    | 0.87417    |   0.3 |  0.07
Modify  | 1051.1     | 1056.4     | 1058.7     |   5.1 | 84.08
Other   |            | 12.28      |            |       |  0.98

Nlocal:        83.3333 ave          90 max          75 min
Histogram: 2 1 2 6 7 7 12 1 6 4
Nghost:        2247.56 ave        2277 max        2228 min
Histogram: 5 4 8 10 4 8 6 1 1 1
Neighs:        15119.3 ave       16618 max       13172 min
Histogram: 3 0 4 3 7 7 11 6 5 2
FullNghs:      30239.2 ave       32827 max       27019 min
Histogram: 2 2 1 7 6 7 13 1 8 1

Total # of neighbors = 1451482
Ave neighs/atom = 362.87050
Neighbor list builds = 26658
Dangerous builds = 0

#clear
#
#next RN
#
#jump SELF
Total wall time: 0:20:59
