
units lj                  # Use reduced LJ style units
atom_style atomic         # Uncharged point particles
atom_modify map hash      # Needed for indexing of clusters etc
                          # Used to be able to find where atoms are in relation to each other.

lattice fcc 1.0 spacing 1 1 1
Lattice spacing in x,y,z = 1.5874011 1.5874011 1.5874011
region box block 0 10 0 10 0 10 units lattice
create_box 2 box
Created orthogonal box = (0.0000000 0.0000000 0.0000000) to (15.874011 15.874011 15.874011)
  3 by 4 by 4 MPI processor grid
create_atoms 1 box
Created 4000 atoms
  using lattice units in orthogonal box = (0.0000000 0.0000000 0.0000000) to (15.874011 15.874011 15.874011)
  create_atoms CPU = 0.002 seconds
set type 1 type/fraction 2 0.13 78393
Setting atom values ...
  541 settings made for type/fraction
mass 1 1.0
mass 2 1.0
pair_style lj/cut  3.5
pair_modify tail  yes
pair_coeff 1  1  1.0  1.0   # Intearaction between 1 and 1 set with epsilon = 1 and sigma = 1
pair_coeff 1  2  1.5  0.8
pair_coeff 2  2  0.5  0.88

write_data data.0
System init for write_data ...
Neighbor list info ...
  update every 1 steps, delay 10 steps, check yes
  max neighbors/atom: 2000, page size: 100000
  master list distance cutoff = 3.8
  ghost atom cutoff = 3.8
  binsize = 1.9, bins = 9 9 9
  1 neighbor lists, perpetual/occasional/extra = 1 0 0
  (1) pair lj/cut, perpetual
      attributes: half, newton on
      pair build: half/bin/atomonly/newton
      stencil: half/bin/3d
      bin: standard
WARNING: Not all mixed pair coeffs generated from mixing. Use write_data with 'pair ij' option to store all pair coeffs. (../write_data.cpp:312)


#############################
#   M E L T   S Y S T E M   #
#############################

velocity all create 2.4 9622624 mom yes dist gaussian # Assign velocities
                                                    # Temperature 2.4, random number seed, zero linear momentum
                                                                                # Gaussian distribution

timestep 0.002   # simulation timestep
thermo 1000       # output thermodynamic data every 1000 steps bf 100

# Define a fix  in this case with index 1 applied to all
# particles in the simulation. This fix is for simulations
# in the anisotropic NPT ensemble. Note that we use the MTK
# correction.
fix 1 all npt temp 2.4 2.4 0.1 iso 5.68 5.68 0.5 mtk yes tchain 5 pchain 5 # Use NPT ensemble
                                                                         # Set temperature and pressure and damping
                                                                         # Numbers of thermostats in chain and in barostat
run 10000          # run for 10000 steps
Per MPI rank memory allocation (min/avg/max) = 3.642 | 3.644 | 3.648 Mbytes
Step Temp E_pair E_mol TotEng Press Volume 
       0          2.4     -7.50335            0     -3.90425   -3.2182506         4000 
    1000    2.3409479   -4.6783177            0   -1.1677738    5.7266031     4724.248 
    2000    2.3508663   -4.6943296            0   -1.1689117    5.4270213    4735.4788 
    3000    2.3679219   -4.6596682            0   -1.1086732    5.5388735    4758.0257 
    4000    2.3567997   -4.6530998            0    -1.118784    5.4201682     4771.999 
    5000     2.387847   -4.6891116            0   -1.1082366    5.7077086    4727.5701 
    6000    2.4022434   -4.6766813            0   -1.0742171     5.677535    4726.7672 
    7000    2.4276382    -4.634891            0  -0.99434406    5.9220219     4726.797 
    8000    2.3836933   -4.6932427            0   -1.1185966    5.5728667    4742.3658 
    9000    2.4343404   -4.6472339            0  -0.99663619      5.92065    4718.1885 
   10000    2.3987304   -4.6965942            0   -1.0993982    5.6426825    4723.3085 
Loop time of 2.27503 on 48 procs for 10000 steps with 4000 atoms

Performance: 759551.143 tau/day, 4395.551 timesteps/s
99.6% CPU use with 48 MPI tasks x no OpenMP threads

MPI task timing breakdown:
Section |  min time  |  avg time  |  max time  |%varavg| %total
---------------------------------------------------------------
Pair    | 0.91189    | 0.98668    | 1.1613     |   4.7 | 43.37
Neigh   | 0.19023    | 0.20094    | 0.23142    |   1.6 |  8.83
Comm    | 0.62932    | 0.80524    | 0.90009    |   6.5 | 35.39
Output  | 0.00024263 | 0.00024713 | 0.00030879 |   0.0 |  0.01
Modify  | 0.20887    | 0.26746    | 0.34636    |   7.6 | 11.76
Other   |            | 0.01446    |            |       |  0.64

Nlocal:        83.3333 ave          97 max          72 min
Histogram: 2 1 6 6 15 7 6 3 1 1
Nghost:        1470.08 ave        1498 max        1446 min
Histogram: 3 1 6 8 9 12 3 2 1 3
Neighs:        8066.52 ave        9289 max        6862 min
Histogram: 4 1 2 9 10 6 7 4 3 2

Total # of neighbors = 387193
Ave neighs/atom = 96.798250
Neighbor list builds = 908
Dangerous builds = 221

# Equilibrate just above the melting temperature to avoid step fn in T

fix 1 all npt temp 1.25 1.25 0.1 iso 5.68 5.68 0.5 mtk yes tchain 5 pchain 5
run 2000
Per MPI rank memory allocation (min/avg/max) = 3.642 | 3.644 | 3.648 Mbytes
Step Temp E_pair E_mol TotEng Press Volume 
   10000    2.3987304   -4.6965942            0   -1.0993982    5.6426825    4723.3085 
   11000    1.2369796    -6.309719            0   -4.4547134    5.7124612    3880.3298 
   12000    1.2561567   -6.3042984            0   -4.4205344    5.8828868    3874.3816 
Loop time of 0.478197 on 48 procs for 2000 steps with 4000 atoms

Performance: 722714.330 tau/day, 4182.375 timesteps/s
99.6% CPU use with 48 MPI tasks x no OpenMP threads

MPI task timing breakdown:
Section |  min time  |  avg time  |  max time  |%varavg| %total
---------------------------------------------------------------
Pair    | 0.21028    | 0.22878    | 0.25201    |   1.9 | 47.84
Neigh   | 0.031043   | 0.033217   | 0.03534    |   0.5 |  6.95
Comm    | 0.13896    | 0.16134    | 0.1785     |   2.1 | 33.74
Output  | 4.856e-05  | 4.9837e-05 | 6.4893e-05 |   0.0 |  0.01
Modify  | 0.039582   | 0.050421   | 0.060164   |   2.6 | 10.54
Other   |            | 0.004388   |            |       |  0.92

Nlocal:        83.3333 ave          91 max          75 min
Histogram: 1 1 6 8 4 7 12 4 4 1
Nghost:        1674.08 ave        1703 max        1645 min
Histogram: 1 1 5 10 7 7 10 3 2 2
Neighs:        9834.69 ave       10799 max        8750 min
Histogram: 1 2 6 6 4 10 9 3 4 3

Total # of neighbors = 472065
Ave neighs/atom = 118.01625
Neighbor list builds = 142
Dangerous builds = 11

#############################
# L I N E A R  Q U E N C H  #
#############################

# Define solid atoms. This closely follows ten Wolde  Ruiz-Montero and Frenkel  Faraday Discuss  1996  104  93-110
# Compute components of the per-atom q6 vector
compute q6 all orientorder/atom degrees 1 6 components 6 nnn NULL cutoff 1.3 # compute the Q6 parameter.
                                                                             # Use all neighbours within 1.3 unit cell.

# get number of connections
compute coord_number all coord/atom orientorder q6 0.5

# An atom is solid if it has 8 or more connections (of a possible 14)
variable is_solid atom c_coord_number>=8
group solid dynamic all var is_solid    # Must be dynamic to update
dynamic group solid defined

# do clustering
compute cluster solid cluster/atom 1.3 # Create a cluster where all atoms within are solid and max 1.3 units from another member

# define chunks one chunk per cluster
compute clus_chunks solid chunk/atom c_cluster nchunk every compress yes  # Says which atoms are in which chunk

# count the size of each chunk
compute size_chunks solid property/chunk clus_chunks count


# Find the maximum entry in the vector of chunk sizes
variable max_n equal max(c_size_chunks)


# Thermo style which includes this variable
# thermo_style custom step temp pe vol v_max_n

thermo ${N}  # Print the thermo information every 100 steps
thermo 1000  

# Reset the npt fix at a lower temperature (below freezing)
fix 1  all npt temp  ${temp} ${temp}  0.1  iso  5.68  5.68  0.5  mtk yes tchain  5  pchain  5
fix 1  all npt temp  0.45 ${temp}  0.1  iso  5.68  5.68  0.5  mtk yes tchain  5  pchain  5
fix 1  all npt temp  0.45 0.45  0.1  iso  5.68  5.68  0.5  mtk yes tchain  5  pchain  5

dump dmp2 all dcd ${N} traj.dcd
dump dmp2 all dcd 1000 traj.dcd


compute msd all msd com yes
variable twopoint equal c_msd[4]/6/(step*dt+1.0e-6)
fix 9 all vector 10 c_msd[4]
variable fit equal slope(f_9)/6/(10*dt)
thermo_style custom step temp pe c_msd[4] v_twopoint v_fit v_max_n

fix 1 all npt temp 1.25 ${temp} 0.1 iso 5.68 5.68 0.5 mtk yes tchain 5 pchain 5
fix 1 all npt temp 1.25 0.45 0.1 iso 5.68 5.68 0.5 mtk yes tchain 5 pchain 5
run 500000 # 5000000  # Run for this many steps
Neighbor list info ...
  update every 1 steps, delay 10 steps, check yes
  max neighbors/atom: 2000, page size: 100000
  master list distance cutoff = 3.8
  ghost atom cutoff = 3.8
  binsize = 1.9, bins = 9 9 9
  4 neighbor lists, perpetual/occasional/extra = 1 3 0
  (1) pair lj/cut, perpetual
      attributes: half, newton on
      pair build: half/bin/atomonly/newton
      stencil: half/bin/3d
      bin: standard
  (2) compute orientorder/atom, occasional
      attributes: full, newton on
      pair build: full/bin/atomonly
      stencil: full/bin/3d
      bin: standard
  (3) compute coord/atom, occasional
      attributes: full, newton on
      pair build: full/bin/atomonly
      stencil: full/bin/3d
      bin: standard
  (4) compute cluster/atom, occasional
      attributes: full, newton on
      pair build: full/bin/atomonly
      stencil: full/bin/3d
      bin: standard
Per MPI rank memory allocation (min/avg/max) = 9.758 | 9.763 | 9.768 Mbytes
Step Temp PotEng c_msd[4] v_twopoint v_fit v_max_n 
   12000    1.2561567   -6.3042984 1.1832914e-33 8.2173008e-36 8.3333333e+20            2 
   13000    1.2550333   -6.3096043   0.57232353 0.0036687404  0.047374685            1 
   14000    1.2500725   -6.3068148    1.0808715 0.0064337586  0.045228513            1 
   15000    1.2464341    -6.351592    1.5635258 0.0086862544  0.043060274            2 
   16000    1.2426106   -6.3488611    2.0612236  0.010735539  0.042260732            2 
   17000    1.2321493   -6.3632358    2.6025827  0.012757758  0.042257092            1 
   18000    1.2529524   -6.3207938    3.1487469  0.014577532  0.042710206            2 
   19000    1.2202993   -6.3270275     3.697323  0.016216329   0.04324474            1 
   20000    1.2660376   -6.3221556    4.2485139  0.017702141  0.043787022            3 
   21000    1.2253269    -6.364886    4.7655833  0.018911044  0.043931282            4 
   22000    1.2559048   -6.3527888    5.3443608  0.020243791  0.044226187            2 
   23000     1.230217   -6.3488465    5.7993701   0.02101221  0.044300713            2 
   24000    1.2224049   -6.3504475    6.2518552   0.02170783   0.04411599            4 
   25000    1.2248995   -6.3462799    6.8331851  0.022777283   0.04397421            3 
   26000    1.2381442   -6.3265138    7.3440999  0.023538781  0.043952722            1 
   27000    1.2196415   -6.3531571    7.8800394  0.024321109  0.043885438            3 
   28000    1.2347741   -6.3641208     8.294711  0.024686639  0.043725075            1 
   29000    1.2640374   -6.3741262    8.8715868  0.025493065  0.043592413            1 
   30000    1.2367496   -6.3394808    9.3912553   0.02608682  0.043572481            3 
   31000    1.2356223    -6.391064    9.9201695  0.026667122   0.04349874            4 
   32000    1.2134659   -6.4043371    10.396757  0.027074887  0.043426294            3 
   33000    1.2183897    -6.390509    10.838935  0.027371048  0.043323276            3 
   34000    1.2171153   -6.4165126      11.3371  0.027787008   0.04321674            2 
   35000    1.1986758    -6.395797    11.919335  0.028379368  0.043113852            3 
   36000    1.2172642   -6.3841823    12.350465  0.028589039     0.043015            2 
   37000    1.2248798   -6.3447908     12.84555   0.02893142  0.042923079            2 
   38000    1.2209771     -6.38782    13.429544  0.029450754  0.042886996            2 
   39000     1.221072   -6.3566328    13.868751  0.029634082   0.04283246            4 
   40000    1.1928664   -6.3701701    14.383938  0.029966536  0.042745644            2 
   41000    1.1745416   -6.3963467    14.756758  0.029993411  0.042636331            2 
   42000    1.1847545   -6.3705355    15.174136  0.030107412  0.042520997            2 
   43000    1.1993372   -6.3932011    15.663702  0.030356011    0.0423997            5 
   44000    1.1635814   -6.3896846    16.185784  0.030654894  0.042276346            5 
   45000    1.1940821   -6.3906762    16.816015  0.031140769   0.04221742            4 
   46000     1.181948   -6.4007069    17.310235  0.031359121  0.042163983            2 
   47000    1.2005096   -6.4065241    17.787513  0.031538143  0.042130463            3 
   48000    1.2081733   -6.4456052    18.236959  0.031661387  0.042108806            2 
   49000    1.1789647   -6.4354345    18.835246  0.032032731  0.042083463            2 
   50000    1.1997678   -6.4111255    19.265712   0.03210952  0.042054767            4 
   51000    1.2018425   -6.4092258    19.756705  0.032282198  0.041997986            3 
   52000    1.1792924    -6.475252    20.024673  0.032090822   0.04193781            2 
   53000    1.2152198   -6.4098371    20.547081  0.032306732  0.041856536            2 
   54000    1.1749009   -6.4175382    21.038156   0.03246629    0.0417884            2 
   55000    1.1539736   -6.4672106     21.67034  0.032833849  0.041731403            3 
   56000    1.1743912   -6.4603231    22.192312  0.033024274  0.041708295            2 
   57000     1.182144   -6.4553184    22.559089  0.032981123  0.041679418            4 
   58000    1.1745873   -6.4372425    22.962347  0.032991878  0.041622682            3 
   59000    1.1728755   -6.4431265    23.592625  0.033322917  0.041573971            4 
   60000    1.1790659   -6.4532213     23.90989   0.03320818  0.041507542            4 
   61000    1.1635944   -6.4656752    24.265059  0.033148988  0.041439259            2 
   62000    1.1670398   -6.4530984    24.841084  0.033388553  0.041373448            4 
   63000    1.1554097   -6.4845184    25.169692  0.033293244  0.041304775            3 
   64000    1.1736555   -6.4613891     25.61571  0.033353789  0.041205111            3 
   65000     1.164491   -6.4448357    25.921581  0.033232796  0.041108308            4 
   66000    1.1413645   -6.4524447    26.384614  0.033313906  0.040996588            2 
   67000    1.1590906   -6.4309131    26.772889  0.033299613  0.040888125            2 
   68000    1.1858285    -6.509181    27.050495  0.033150116  0.040773283            2 
   69000    1.1483832   -6.5140958    27.497393  0.033209412  0.040659132            2 
   70000    1.1615001   -6.4784143    28.022669   0.03336032  0.040550169            2 
   71000    1.1291746   -6.4921279    28.571643  0.033534791  0.040463907            1 
   72000    1.1597656   -6.5241591    28.925598  0.033478702  0.040379823            2 
   73000    1.1408389   -6.4863878    29.464497   0.03363527  0.040294792            2 
   74000    1.1542423    -6.515291    29.862993  0.033629497  0.040214562            4 
   75000    1.1470101   -6.4931686    30.303415   0.03367046  0.040137036            2 
   76000    1.1397909   -6.4770841    30.822044  0.033796101   0.04006124            4 
   77000    1.1588932   -6.5008841    31.191139  0.033756643  0.039989277            3 
   78000    1.1385125   -6.4849119    31.636942  0.033800151  0.039915259            1 
   79000    1.1336297   -6.5333901    32.015337  0.033771452  0.039841823            2 
   80000    1.1258919   -6.4755591    32.672842  0.034034211  0.039779728            5 
   81000    1.1561222   -6.4884375     32.98396  0.033934115  0.039721898            3 
   82000    1.1275612   -6.5261798    33.477281  0.034021627  0.039665015            2 
   83000     1.158073   -6.4841933    33.775838  0.033911484  0.039601723            4 
   84000    1.1443584   -6.5295438    34.260593  0.033988683  0.039535034            1 
   85000    1.1391938   -6.5140362    34.536864   0.03385967  0.039468772            8 
   86000    1.1207972   -6.5351823     34.83363  0.033753517  0.039392571            4 
   87000    1.1228837   -6.4834743     35.37896  0.033887892  0.039309892            5 
   88000    1.1223197   -6.5649811    35.688651  0.033796071  0.039233153            3 
   89000    1.1589003   -6.5654831    35.990531  0.033698999  0.039151095            2 
   90000    1.1338102   -6.5513351     36.22026  0.033537278  0.039067154            4 
   91000    1.1294953   -6.5203785    36.656052  0.033567813   0.03897533            2 
   92000    1.1229647   -6.5749951    36.949699   0.03346893  0.038876652            2 
   93000    1.1133695   -6.5307008    37.392491  0.033505816  0.038780341            3 
   94000    1.1025684   -6.5453978     37.75797  0.033473378  0.038682914            2 
   95000    1.1363018   -6.5623726    38.349927  0.033640287  0.038590152            2 
   96000    1.1326331   -6.5387825     38.74866  0.033635989  0.038505308            1 
   97000    1.1241122   -6.5535575    39.189458  0.033667919     0.038421            5 
   98000    1.1044987   -6.5878335    39.324061  0.033438828  0.038339069            2 
   99000    1.0969442   -6.5791807    39.821103  0.033519447  0.038257294            3 
  100000    1.1005295   -6.5755624    40.295066  0.033579222   0.03817604            3 
  101000     1.111606   -6.5457234    40.834169  0.033691558  0.038098361            3 
  102000     1.109923   -6.5617345    40.991122  0.033489478  0.038025354            1 
  103000    1.1228974   -6.5934093    41.406622  0.033500503  0.037944185            2 
  104000    1.1142312   -6.5857625    41.779449  0.033477123  0.037866193            1 
  105000    1.0914634   -6.5986596    42.052854  0.033375281   0.03778471            5 
  106000    1.1056311    -6.626438    42.225576  0.033196207  0.037695042            1 
  107000     1.121981   -6.5957413    42.543706  0.033133727  0.037597433            3 
  108000    1.1042521   -6.5861922    42.707916  0.032953638  0.037492288            5 
  109000    1.0937875   -6.5725598    42.974725  0.032855294  0.037390838            3 
  110000    1.0946167   -6.6480194    43.304268  0.032806263  0.037286016            2 
  111000    1.0868852   -6.6187272    43.651667  0.032771522  0.037179377            3 
  112000     1.081646   -6.6219895    43.957298  0.032706323  0.037072409            3 
  113000    1.0950659   -6.6156877    44.258011  0.032638651   0.03696642            5 
  114000    1.1038858   -6.6074097    44.744569  0.032708018  0.036862652            2 
  115000    1.0901775   -6.5998829     45.05644  0.032649594  0.036765734            5 
  116000    1.1014807   -6.6433328    45.409851  0.032622019  0.036666221            4 
  117000    1.0703319   -6.6390126     45.77457   0.03260297  0.036570719            3 
  118000    1.0846093   -6.6010474    46.274864  0.032679989  0.036478971            2 
  119000    1.0573927   -6.5997721    46.713419  0.032712478  0.036392875            4 
  120000    1.0675959   -6.6634693    46.827656  0.032519206  0.036305543            2 
  121000    1.0769481   -6.6376566    47.186225    0.0324974  0.036214184            4 
  122000    1.0753413   -6.6237068    47.567095  0.032491185   0.03612132            3 
  123000    1.0580235   -6.6180794    47.998838  0.032519538  0.036029831            2 
  124000    1.0579135   -6.6408889    48.177212  0.032377159  0.035938932            4 
  125000    1.0535449   -6.6375409    48.309375   0.03220625  0.035847594            3 
  126000    1.0558149   -6.6767705    48.676287  0.032193312  0.035752238            2 
  127000     1.066251   -6.6649429     48.98816  0.032144462  0.035656502            2 
  128000    1.0479547   -6.6176935     49.28855    0.0320889  0.035566927            1 
  129000    1.0339936   -6.6458057    49.684434  0.032095888  0.035477914            2 
  130000    1.0628563   -6.6988593    50.117248  0.032126441  0.035395099            3 
  131000     1.064722   -6.6490422    50.553454  0.032158686    0.0353133            3 
  132000    1.0429405   -6.6724881    50.631541  0.031964357  0.035227621            4 
  133000    1.0596706   -6.6817731    51.082463  0.032006556  0.035140598            2 
  134000     1.056349   -6.6695068    51.335927  0.031925328  0.035057712            4 
  135000    1.0510995   -6.6385496    51.637153  0.031874786  0.034976616            3 
  136000    1.0715971   -6.6762494    51.955994  0.031835781  0.034895721            2 
  137000    1.0487549   -6.6736053    52.327655  0.031829474  0.034810961            6 
  138000     1.042234   -6.7110306    52.500628  0.031703278  0.034726917            3 
  139000    1.0463082   -6.6578054     52.72652  0.031610624  0.034643489            3 
  140000    1.0459674   -6.6513309    53.181312  0.031655543  0.034559555            2 
  141000     1.056891   -6.7333089    53.289547  0.031495004  0.034476905            6 
  142000     1.038101   -6.6958588    53.532306  0.031415672  0.034392618            3 
  143000    1.0289134    -6.696225    53.837783  0.031373999  0.034307115            5 
  144000    1.0432509   -6.7143015    53.990919  0.031244745  0.034220459            4 
  145000    1.0427458    -6.690706    54.739725  0.031459612  0.034139162            3 
  146000    1.0402096    -6.726558    55.019164  0.031403632   0.03406147            3 
  147000     1.039042   -6.7137222    55.284147  0.031340219  0.033982631            5 
  148000    1.0205045   -6.7509402    55.459605  0.031227255  0.033904076            3 
  149000    1.0330195   -6.7079793    55.868544  0.031246389  0.033826349            2 
  150000    1.0029871   -6.7262991    55.931473   0.03107304  0.033747353            6 
  151000    1.0098565   -6.7270212    56.093988  0.030956947  0.033666781           15 
  152000    1.0383357   -6.7288074    56.427082    0.0309359  0.033585932            6 
  153000     1.032241   -6.7092327     56.56341  0.030807958  0.033501322            2 
  154000    1.0019989   -6.7504889    56.706203  0.030685175  0.033415048            3 
  155000    1.0294322   -6.7402808    56.990881  0.030640259   0.03332698            5 
  156000    1.0167507    -6.754754    57.473949  0.030701896   0.03323911            3 
  157000    1.0122961   -6.7533246    57.379572  0.030456248  0.033149596            2 
  158000   0.99550635   -6.7401199    57.775356  0.030472234  0.033060771            5 
  159000    1.0085903   -6.7568969    57.906318  0.030349223  0.032972237            2 
  160000    1.0259256    -6.750275    58.330419  0.030380426     0.032884            3 
  161000   0.99329077   -6.7967537    58.603026  0.030332829  0.032800139            5 
  162000    1.0217379   -6.7574372    58.758165  0.030225393  0.032714979            3 
  163000    1.0209396    -6.750288    58.891186  0.030107968  0.032628669            4 
  164000    1.0038306     -6.78299    59.110589  0.030035868  0.032541824            3 
  165000   0.98912125   -6.7649706    59.552697  0.030077119  0.032455871            3 
  166000    1.0222114   -6.7852801    60.013385  0.030127201  0.032370672            6 
  167000    1.0115288   -6.7705778    60.053236  0.029966684  0.032287217            4 
  168000   0.99763833   -6.7864885    60.612957  0.030065951  0.032202532            2 
  169000    1.0060755   -6.7681623    60.851032   0.03000544  0.032120604            3 
  170000    1.0223982    -6.797819    60.684897  0.029747498  0.032036783            7 
  171000   0.99724543   -6.7779948    61.130632  0.029790756  0.031954276            6 
  172000   0.98229137   -6.7881449    61.251241  0.029675989  0.031872264            3 
  173000    1.0114654   -6.7673768    61.526693  0.029637135  0.031788917            4 
  174000   0.99897819   -6.7813534    61.628176   0.02951541  0.031704674            4 
  175000    1.0027235   -6.7813507    61.691686  0.029376993  0.031619489            2 
  176000   0.99928163   -6.8220868    61.933619   0.02932463  0.031533435            3 
  177000   0.95267284   -6.7789744    62.380887  0.029369532  0.031448075            5 
  178000   0.99248018   -6.8111186    62.525014   0.02927201  0.031363778            3 
  179000    1.0071159   -6.8319153     62.54665  0.029118552  0.031280283            3 
  180000   0.96167666   -6.8516391    62.798291  0.029073283  0.031196039            3 
  181000   0.99605307   -6.7988988    63.181198  0.029088949  0.031109808            2 
  182000   0.98187658   -6.8294853    63.233321  0.028952986  0.031026161            3 
  183000   0.96120556    -6.837044    63.494234  0.028913586  0.030942215            3 
  184000   0.96843585   -6.8398754    63.697879  0.028848677  0.030858468            2 
  185000    0.9796036    -6.839272    63.756597  0.028719188  0.030772889            3 
  186000   0.98920132   -6.8112621    64.016235  0.028681109  0.030687521            7 
  187000   0.94826979   -6.8227675    64.267223  0.028639582  0.030602201            8 
  188000   0.98285933   -6.8210109    64.396881  0.028544717  0.030516983            2 
  189000   0.96136259    -6.829739    64.619517   0.02849185  0.030433984            3 
  190000   0.95618549   -6.8595052    64.827822  0.028433255  0.030349573            4 
  191000   0.96570962   -6.8620659    65.193396   0.02844389  0.030265395            3 
  192000   0.94482753   -6.8285187    65.312564  0.028347467   0.03018058            3 
  193000   0.96248287   -6.8461949    65.450801  0.028260277  0.030097547            3 
  194000   0.96887148   -6.8551258      65.4281  0.028104854  0.030013889            4 
  195000   0.95104775   -6.8796077    65.621349  0.028043312  0.029928974            2 
  196000   0.97218957   -6.8781975    65.987502  0.028055911  0.029844786            5 
  197000   0.96511104   -6.8580949    66.227729  0.028015114  0.029760514            4 
  198000   0.96671078   -6.8732937    66.123844  0.027829901  0.029675877            4 
  199000   0.96957201    -6.871157    66.461775  0.027831564  0.029592104            6 
  200000   0.94775453   -6.8682422     66.57515  0.027739646  0.029508361            7 
  201000   0.93264448   -6.8934007    67.111316  0.027823928  0.029426764            2 
  202000   0.94983961   -6.8984824    66.907527  0.027602115  0.029345509            6 
  203000   0.95595006   -6.8645196    67.219532  0.027594225  0.029264311            3 
  204000   0.94810168   -6.8906445    67.515742   0.02757996  0.029184122            4 
  205000    0.9282433   -6.8507967    68.057282  0.027665562    0.0291072            4 
  206000   0.94752494   -6.8883281    68.264439  0.027615064  0.029032202            6 
  207000   0.93800817   -6.8758741    68.447148  0.027555212  0.028957296            4 
  208000   0.93704938   -6.9161388    68.578779  0.027475472  0.028883258            2 
  209000   0.91237648   -6.8941519    68.780902  0.027424602  0.028808893            5 
  210000   0.92842916    -6.904043    68.986153  0.027375457  0.028734879            5 
  211000   0.92178251   -6.9383506    69.105895  0.027293008  0.028660294            3 
  212000   0.93852935   -6.9303505    69.335345  0.027254459  0.028585411            7 
  213000   0.93267345   -6.9048905    69.694067  0.027266849  0.028511562            7 
  214000   0.94360349    -6.951541    69.649888   0.02712223  0.028439179            3 
  215000   0.92217964   -6.9099971    69.612092  0.026981431  0.028363758            6 
  216000    0.9339095   -6.9463695    69.751666  0.026910365  0.028287273            5 
  217000   0.90153783   -6.9236513    70.071673  0.026909245  0.028211049            2 
  218000   0.92843801   -6.9692235    70.122075  0.026805074  0.028135123            3 
  219000   0.92019043   -6.9483638    70.442121   0.02680446  0.028060539            2 
  220000   0.93805163   -6.9521848    70.556571  0.026725974  0.027986102            3 
  221000   0.92854406   -6.9602549    70.751076  0.026678384  0.027913688            4 
  222000   0.89589559   -6.9551448    71.021166  0.026659597  0.027841005            5 
  223000   0.92618761   -6.9754633    71.205422  0.026608902  0.027768246            3 
  224000   0.89906519   -6.9646939    71.299308   0.02652504   0.02769596            3 
  225000   0.90279355   -6.9726707    71.503931  0.026482937   0.02762404            5 
  226000   0.91794648   -6.9672798    71.630132  0.026412291   0.02755251            4 
  227000   0.92939602    -6.943814    71.949463  0.026413166  0.027481359            8 
  228000   0.92157869   -6.9495017     72.04958  0.026333911  0.027410884            5 
  229000   0.92484124   -6.9854405    72.177993  0.026265645  0.027339011           10 
  230000   0.89415329     -7.02587    72.315116  0.026201129  0.027267073            5 
  231000   0.90630283   -6.9740658     72.34868  0.026099812   0.02719427            4 
  232000   0.91395891    -6.994383    72.711928   0.02611779  0.027122208            5 
  233000   0.90186698   -7.0356919    72.507303  0.025932512  0.027050083            8 
  234000    0.9077305   -6.9813426    72.624495  0.025863424  0.026977116            3 
  235000   0.91814348   -6.9870189    72.945894  0.025867338  0.026903936            4 
  236000    0.8938268    -7.025281    73.148791  0.025829375   0.02683112            3 
  237000   0.90098032   -7.0202849    73.160177  0.025724394   0.02675944            5 
  238000   0.89161891   -6.9937017    73.159939  0.025616225  0.026687014            5 
  239000   0.88734922   -6.9787771    73.251023  0.025540803  0.026613948            8 
  240000    0.8766348   -7.0281998    73.484122   0.02551532  0.026541675            3 
  241000   0.88942244   -7.0370505    73.326536  0.025354957  0.026468143            6 
  242000    0.9019137   -7.0389024      73.5547  0.025328753  0.026393856            7 
  243000    0.8699198   -6.9962497    73.991503  0.025374315  0.026321021            5 
  244000   0.87581085   -7.0275841    74.104544  0.025308929  0.026248734            8 
  245000   0.85782587   -7.0215279    73.979047  0.025162941  0.026176701            5 
  246000   0.90036978   -7.0114038    74.164316  0.025123413  0.026103435            4 
  247000   0.87978713   -7.0312241    73.979369  0.024959301  0.026030221            8 
  248000   0.87548471   -7.0482068    74.232067  0.024943571  0.025956255            4 
  249000     0.877792    -7.040231    74.590288  0.024963282  0.025883235            8 
  250000   0.85673837   -7.0185517    74.305522  0.024768507  0.025809355            8 
  251000   0.86727259   -7.0275376    74.419367  0.024707625   0.02573459            5 
  252000   0.86535654   -7.0696663    74.487223  0.024632018  0.025660316            5 
  253000   0.86478533   -7.0519732    74.681719  0.024598721  0.025585527            5 
  254000   0.86462372   -7.0606246    74.716862  0.024513406  0.025511095            6 
  255000   0.86369184   -7.0547204    75.027164  0.024518681  0.025437506            8 
  256000   0.85249212    -7.101898     74.97555  0.024406104  0.025364336            9 
  257000   0.85462326   -7.0757785    75.093411  0.024349355  0.025290304           15 
  258000   0.84594159    -7.057668    75.305303  0.024323418  0.025216879            6 
  259000    0.8492392   -7.0754234     75.51796  0.024297928   0.02514435            3 
  260000   0.84654108   -7.0710914    75.527232  0.024207446  0.025071654            6 
  261000   0.85082625   -7.0882364     75.80193  0.024202404  0.025000037           10 
  262000   0.85534517    -7.092293    75.806046  0.024111338  0.024928764            8 
  263000   0.87373965   -7.0708412    75.873014  0.024040879  0.024857406            3 
  264000   0.85350076   -7.0793766    76.080366  0.024015267  0.024786744            4 
  265000   0.84172314   -7.0949987    76.367435  0.024014917  0.024717391            3 
  266000   0.83967257   -7.0770935    76.545806  0.023980516  0.024647807            5 
  267000   0.83769836   -7.0802744    76.293474  0.023811946  0.024578815            6 
  268000    0.8481756   -7.1216033    76.497016  0.023786386  0.024508825            4 
  269000    0.8396431   -7.1012079    76.805764  0.023793607  0.024439043            3 
  270000    0.8344234   -7.1225961    76.883505  0.023729477  0.024369589            6 
  271000   0.85138803   -7.0743168    76.890054  0.023643928  0.024300488            5 
  272000   0.83924659   -7.1060395    77.098243  0.023620785  0.024232043            4 
  273000    0.8216159   -7.1180708    77.106456  0.023536769  0.024163265            5 
  274000    0.8590865   -7.1370955    77.093228  0.023446845  0.024093776            5 
  275000   0.82441062   -7.1303007    77.142653  0.023376562  0.024024859            9 
  276000   0.83732606    -7.137465    77.334913  0.023349913  0.023956839            5 
  277000   0.81785871   -7.1550073    77.426236  0.023293091  0.023888772            4 
  278000   0.81281937   -7.1538528    77.866475   0.02334127  0.023821628            7 
  279000   0.83986181   -7.1250371    77.797143    0.0232369  0.023755015            5 
  280000   0.83162444   -7.1556775    77.739354  0.023136712  0.023687705            4 
  281000   0.79835864   -7.1587137    77.965063  0.023121312  0.023620781           24 
  282000   0.81547758   -7.1809138    78.231422  0.023118032  0.023555138            7 
  283000   0.83047238   -7.1798758    78.252029  0.023042411  0.023490434           10 
  284000   0.81102689   -7.1489809     78.65415  0.023079269  0.023426262            4 
  285000   0.79250973   -7.2080965    78.324727  0.022901967  0.023362304            7 
  286000   0.82422785   -7.1829534    78.604457  0.022903397  0.023297798           11 
  287000   0.80829592   -7.2072022    78.752868  0.022866686  0.023234061            6 
  288000   0.80212009   -7.2120281    78.640459  0.022754762  0.023170059            7 
  289000   0.79447108   -7.1606139    78.784783  0.022717642  0.023105898           12 
  290000   0.79689153   -7.1579904     78.96716  0.022691712  0.023042409            7 
  291000   0.81747512    -7.176576     79.09118   0.02264925  0.022979181            4 
  292000   0.79833902   -7.2130335    79.445928  0.022672925  0.022916586            6 
  293000   0.79436586   -7.1785568    79.470089  0.022602414  0.022854768           14 
  294000   0.80669263   -7.1803447    79.439719  0.022516927  0.022792894            7 
  295000   0.81199861   -7.2013681    79.314178  0.022405135  0.022730841            5 
  296000   0.79005339   -7.1935016     79.54422  0.022394206  0.022669158            5 
  297000   0.79601731   -7.2004256    79.509298  0.022309006  0.022606831            7 
  298000   0.77731743   -7.2111673     79.85088  0.022329664  0.022544243            9 
  299000   0.78284435   -7.2110185    79.796444  0.022239812  0.022482497            8 
  300000   0.77776691   -7.2073338     79.91604    0.0221989   0.02242082            6 
  301000   0.78980043   -7.2331242    80.045884  0.022161097   0.02235944            8 
  302000   0.78834941   -7.2067693    80.081902  0.022097655  0.022298816            4 
  303000   0.76524482   -7.2312876    80.391531  0.022109882  0.022238367            4 
  304000   0.76827155   -7.2158063    80.217632  0.021989482  0.022177928            5 
  305000   0.78038893   -7.2029032    80.405506  0.021968718  0.022116818            5 
  306000   0.77481478   -7.2043318    80.481743  0.021917686  0.022056077           12 
  307000    0.7934257   -7.2236918    80.525612  0.021858201   0.02199581            9 
  308000   0.80085561   -7.2217208    80.704989  0.021835765  0.021935553            4 
  309000   0.75649888   -7.2544174     80.70325   0.02176463  0.021875502            4 
  310000   0.78486382   -7.2430388    80.758324  0.021709227  0.021815632            4 
  311000   0.76621829    -7.240519    80.773892  0.021643594  0.021755553            6 
  312000   0.76352804    -7.260797    80.836508  0.021590948   0.02169614            6 
  313000    0.7608194   -7.2406896    81.001616  0.021565925  0.021636533            7 
  314000   0.77332249   -7.2709514    80.952921  0.021484321  0.021577586           15 
  315000    0.7703001   -7.2435596    81.013582  0.021432164  0.021518771            6 
  316000    0.7604394   -7.2676232    81.151118  0.021400611  0.021459831            6 
  317000   0.76372014   -7.2913014    81.131646  0.021327983  0.021400947           11 
  318000   0.77797642   -7.2787882    81.154322  0.021266856  0.021341396            9 
  319000    0.7575695    -7.291646    81.118548  0.021190843  0.021281923           10 
  320000   0.74833168   -7.2788003    81.188651  0.021142878  0.021222914            9 
  321000   0.74617236    -7.272885     81.39279  0.021130008  0.021163637            5 
  322000    0.7234727   -7.2722148    81.438753  0.021076282  0.021104407           11 
  323000   0.76115397   -7.2944307    81.234132  0.020958238  0.021045269           15 
  324000   0.74037717   -7.3003655     81.43903  0.020946252  0.020986154            7 
  325000   0.75793853   -7.2832026    81.586147  0.020919525  0.020927504            7 
  326000   0.74037845   -7.3116655    81.657201  0.020873518  0.020869056           10 
  327000   0.76137149   -7.3140956     81.66821   0.02081249  0.020810577            5 
  328000   0.74253081    -7.293675    81.561027  0.020721806  0.020752309            9 
  329000   0.74747219   -7.2976167    81.780089  0.020714308  0.020693729           18 
  330000   0.74257394   -7.2999299    81.819397  0.020661464  0.020635737           14 
  331000   0.75146419   -7.3111838    82.025941  0.020651043  0.020578316            8 
  332000   0.73596532   -7.3373576    81.973323  0.020575633  0.020520594           15 
  333000   0.73314394   -7.3620659    82.161021  0.020560816  0.020462978            7 
  334000   0.74201511   -7.3407144    82.163161  0.020499791  0.020405579            4 
  335000    0.7404627   -7.3270712    82.211081  0.020450518  0.020348308            7 
  336000   0.72724469   -7.3400648    82.418813  0.020441174  0.020291085           12 
  337000   0.72574937   -7.3179185    82.313848  0.020354562  0.020234119            6 
  338000   0.73865651    -7.345154    82.382221  0.020311199  0.020177227            8 
  339000   0.73718693   -7.3172981    82.391478  0.020253559  0.020120131           12 
  340000   0.73132375   -7.3439808    82.245276  0.020158156  0.020063137            8 
  341000   0.73235644    -7.363209    82.246816  0.020099417  0.020006407            7 
  342000   0.72896198   -7.3730792    82.487273  0.020099238  0.019949702           10 
  343000   0.72450417    -7.352481    82.520853  0.020048798  0.019893233           16 
  344000   0.72433564   -7.3564839    82.588199  0.020006831  0.019836895            8 
  345000   0.71371541   -7.3878059    82.411272  0.019906104  0.019780451           11 
  346000    0.7078836   -7.3683933    82.620599  0.019898988  0.019724412           10 
  347000   0.71859671    -7.378815     82.54018  0.019822329  0.019668201            8 
  348000   0.71268086   -7.3796754    82.540762  0.019765508  0.019611988            6 
  349000    0.7078915   -7.3840242    82.645759  0.019733944  0.019556089           10 
  350000   0.73208652   -7.3851153    82.939352  0.019747465  0.019500388           24 
  351000   0.72249308   -7.4115373    82.611796  0.019613437  0.019444877           10 
  352000   0.71480125   -7.3677606    82.602258  0.019555459  0.019389583            7 
  353000   0.71291064   -7.3572439     82.88066  0.019565784  0.019334348            8 
  354000   0.69560981   -7.3840676    83.075845  0.019556461   0.01927944           10 
  355000   0.69575955   -7.4111611     82.86925  0.019452876  0.019224503           17 
  356000     0.704681   -7.4018001    82.864712   0.01939717  0.019169618           14 
  357000   0.68745768   -7.3777724    82.854375  0.019340424  0.019114744           15 
  358000   0.70397418   -7.4255346    82.886305  0.019293833  0.019059636           17 
  359000     0.703168   -7.4010928    82.755144  0.019209644  0.019004451            7 
  360000   0.71036836    -7.446086    82.867601  0.019182315   0.01894943           12 
  361000   0.69628896   -7.4377279    82.838722  0.019122512  0.018894492            8 
  362000   0.68490844   -7.4168062    82.913856  0.019086983  0.018839715            8 
  363000    0.6787799    -7.442849    82.917894  0.019035329  0.018785041            8 
  364000   0.68841618   -7.4576087    82.946815  0.018989655  0.018730264            8 
  365000   0.69338351   -7.4789324    82.907455  0.018928643   0.01867565            6 
  366000   0.67765284   -7.4559514    83.086899  0.018917782  0.018621185           11 
  367000    0.6843651   -7.4304512    83.015026  0.018849915    0.0185667           10 
  368000   0.67286648   -7.4176759     83.10761  0.018819658   0.01851235            6 
  369000   0.66572818   -7.4631689    83.111472  0.018769528  0.018458068           10 
  370000   0.68685149   -7.4590948    82.884655  0.018667715   0.01840379           10 
  371000   0.66775841   -7.4619505    82.944518  0.018630844  0.018349565           19 
  372000   0.66550541   -7.4688991    83.130923  0.018622519    0.0182955           12 
  373000   0.66757024   -7.4544568    83.117601  0.018569616    0.0182417           16 
  374000   0.66458977   -7.5078405    83.045639   0.01850393  0.018187953            8 
  375000   0.66580339   -7.4901261    83.098733  0.018466385  0.018134482            6 
  376000    0.6660805    -7.499143     83.20516   0.01844086  0.018080942           11 
  377000   0.65190057   -7.5071567    83.272419  0.018406812  0.018027815            8 
  378000   0.66414046   -7.5145782    83.290558  0.018362116  0.017974713           16 
  379000   0.65558221   -7.4887238    83.239432  0.018302426  0.017921593           15 
  380000   0.65039815    -7.496997    83.082617  0.018219872  0.017868601           12 
  381000   0.64500456   -7.4780113    83.205076  0.018198836  0.017815703           34 
  382000   0.64751047   -7.4778894     83.16253  0.018141913  0.017762949           16 
  383000   0.65970716   -7.4844477    83.289471  0.018122165   0.01771037           11 
  384000   0.66189406   -7.5018503    83.243838  0.018065069  0.017657772           10 
  385000   0.64287596   -7.4999031    83.122388  0.017991859  0.017605258           37 
  386000   0.64801484   -7.5171609    83.101739   0.01794079  0.017552978           10 
  387000   0.64170783   -7.5275993    83.361469  0.017950359  0.017500915           11 
  388000   0.65081875   -7.5368995    83.281864  0.017886998  0.017448728           10 
  389000   0.65050111    -7.528378    83.053586  0.017792113  0.017396729            6 
  390000   0.64731239   -7.5080847    83.202849  0.017778386  0.017344799           13 
  391000    0.6476992   -7.5127244    83.128127  0.017716992  0.017293078           12 
  392000   0.63509695   -7.5111575    83.307547  0.017709938  0.017241419           17 
  393000   0.62882576    -7.524371    83.246719  0.017651976  0.017190077           13 
  394000    0.6242012   -7.5171038    83.461602  0.017652623  0.017138804           10 
  395000   0.62635832   -7.5065102    83.325106  0.017579136  0.017087733           24 
  396000   0.62776896   -7.5387827    83.266057  0.017522318  0.017036528           15 
  397000   0.63063515   -7.5450935    83.257934  0.017476476  0.016985353           15 
  398000   0.61959058    -7.537578    83.254861  0.017431922  0.016934355           17 
  399000   0.62355556   -7.5437453    83.197143  0.017376179  0.016883514           17 
  400000   0.64135971    -7.551857    83.325205  0.017359418  0.016832723            8 
  401000    0.6269055   -7.5586781    83.176773  0.017285281  0.016782146           14 
  402000    0.6297888   -7.5698784    83.214799  0.017250166  0.016731565           27 
  403000   0.61991661   -7.5791883    83.240936  0.017212766  0.016681177           18 
  404000   0.61896706   -7.5705629    83.279374  0.017178089  0.016630584           14 
  405000   0.61585012   -7.5790887    83.189921  0.017117268   0.01658028           21 
  406000   0.62278813   -7.5975019    83.307009   0.01709914  0.016530275           19 
  407000   0.61154102   -7.5791546     83.34781  0.017065481  0.016480364           28 
  408000   0.59727645   -7.5811007    83.211957  0.016995906  0.016430536           13 
  409000   0.62462534   -7.5908523    83.160366   0.01694384  0.016380928           17 
  410000    0.6184385    -7.582755    82.996201  0.016869147  0.016331206           20 
  411000   0.62373021   -7.5908139    83.381509  0.016906226  0.016281894           13 
  412000   0.59574446   -7.6269583    83.313937  0.016851524  0.016232632           19 
  413000   0.61003944   -7.5990308    83.354527  0.016818912  0.016183492           21 
  414000    0.5910827   -7.6171006    83.322807  0.016771902  0.016134368           14 
  415000   0.60589932      -7.6007     83.27965  0.016722821  0.016085517           18 
  416000   0.60995596   -7.6271273    83.231407  0.016672958  0.016036753           16 
  417000   0.60177971   -7.6168398    83.278874  0.016642461  0.015988253            9 
  418000   0.59448134   -7.6154544    83.348303  0.016616488  0.015939858           23 
  419000   0.59793467   -7.5885094    83.275523  0.016562355  0.015891557            8 
  420000   0.59109273   -7.6184648    83.362132  0.016540106   0.01584339           18 
  421000   0.60267997   -7.6044398    83.507603  0.016529613  0.015795471           26 
  422000   0.60231033   -7.6186805    83.363166  0.016461921  0.015747914           29 
  423000   0.59320135    -7.612972    83.583046  0.016466321  0.015700392           20 
  424000   0.57903889   -7.6302274    83.214428  0.016355037  0.015652921           19 
  425000   0.57764021   -7.6297497    83.363794  0.016345842  0.015605632           27 
  426000   0.59335993   -7.6149649     83.29094   0.01629322  0.015558478           17 
  427000    0.5765539   -7.6442412    83.448859  0.016285882   0.01551146           35 
  428000   0.58011465   -7.6481865    83.424599  0.016243107  0.015464658           36 
  429000   0.58054264   -7.6598095    83.368444  0.016194336  0.015417912           34 
  430000   0.57537632   -7.6591872    83.319283  0.016147148  0.015371231           37 
  431000   0.57919787   -7.6478717    83.246973  0.016095702   0.01532467           42 
  432000   0.57510574   -7.6628614    83.100346  0.016030159  0.015278199           67 
  433000   0.56710836   -7.6530734      83.4031  0.016051405  0.015231917           73 
  434000   0.56243286   -7.6576051    83.180118  0.015971605  0.015185627           42 
  435000   0.57397192   -7.6523995    83.294716  0.015956842  0.015139537           52 
  436000   0.56612586    -7.672224    83.349961  0.015930803  0.015093593           64 
  437000   0.55665074   -7.6699426    83.266902  0.015878509  0.015047748           53 
  438000   0.55985451   -7.6852563    83.163669  0.015822616  0.015001997           56 
  439000   0.56636086   -7.6838042     83.51634  0.015853519  0.014956472           55 
  440000   0.56648341   -7.7038876    83.189554  0.015755597  0.014911108           63 
  441000   0.56081893   -7.6816261    83.166997  0.015715608  0.014865786           60 
  442000   0.55484855    -7.697338    83.165911  0.015679848   0.01482056           52 
  443000   0.56180103   -7.7046655     83.31901  0.015673252  0.014775471           43 
  444000    0.5648778   -7.7049094    83.354249  0.015644566  0.014730472           46 
  445000   0.55878754   -7.7133615    83.267783  0.015593218  0.014685719           36 
  446000   0.56385075   -7.7038407    83.225542  0.015550363  0.014641157           51 
  447000   0.55343488   -7.6959606     83.13548  0.015498784  0.014596741           57 
  448000   0.55691347   -7.6994855    83.179449  0.015472368   0.01455232           46 
  449000   0.56756289   -7.7023217    83.365011  0.015472348  0.014508167           45 
  450000   0.55256411   -7.7260586    83.159023  0.015399819  0.014464092           48 
  451000   0.54013177   -7.7330292    83.166937  0.015367135  0.014420073           62 
  452000    0.5448183   -7.7118024    83.083581  0.015317769  0.014376121           64 
  453000   0.53460277   -7.7175248    83.148413  0.015295882  0.014332294           62 
  454000   0.52869973    -7.722345    83.048191  0.015243794  0.014288615           28 
  455000   0.53313074   -7.7398632     83.16959  0.015232526  0.014245045           30 
  456000   0.54342649   -7.7420869    83.061853  0.015179432    0.0142016           58 
  457000   0.55138832   -7.7554987    83.059033  0.015145702  0.014158269           58 
  458000   0.53793772   -7.7272898    83.088068  0.015117916  0.014115041           39 
  459000   0.53957147   -7.7428697    83.151279  0.015096456  0.014071916           52 
  460000   0.52660429   -7.7400699    82.996651  0.015035625   0.01402901           51 
  461000   0.53233678   -7.7554574    83.147579  0.015030293  0.013986139           43 
  462000   0.52895162   -7.7548688    83.142077  0.014996767  0.013943471           23 
  463000    0.5255231   -7.7528671     82.90026  0.014920853  0.013901004           25 
  464000   0.53644985   -7.7628958    83.026023  0.014911283  0.013858637           29 
  465000   0.53312529    -7.766326    83.017011  0.014877601  0.013816431           29 
  466000   0.51952095   -7.7579484    82.937911  0.014831529  0.013774383           43 
  467000   0.51460162   -7.7665025    82.973502  0.014806121    0.0137325           34 
  468000   0.51812972   -7.7721533    83.044402  0.014787109   0.01369071           43 
  469000   0.51789207   -7.7638651      83.0295  0.014752932  0.013649085           35 
  470000    0.5211755   -7.7783503    83.108359  0.014735525  0.013607613           32 
  471000   0.51810255   -7.7798496    82.964376  0.014678764  0.013566179           31 
  472000   0.52004229   -7.7772738     83.00874  0.014655498  0.013524952           41 
  473000   0.51857487   -7.7911696    82.913829  0.014607792  0.013483835           42 
  474000    0.5042345     -7.79424    82.995168  0.014591274   0.01344285           38 
  475000      0.49582   -7.7762552    82.935532  0.014550093  0.013401963           44 
  476000   0.50753515   -7.7932143    82.907756  0.014514663    0.0133612           35 
  477000   0.50808576   -7.7973134    82.981918   0.01449719   0.01332062           28 
  478000   0.50761858   -7.7915767    82.833848  0.014441047   0.01328012           33 
  479000   0.50770078   -7.8001997    82.837607  0.014411553  0.013239782           25 
  480000   0.49380958   -7.8009728     82.94859  0.014400797  0.013199507           41 
  481000   0.49466418   -7.7938376    82.927236  0.014367158  0.013159402           36 
  482000   0.50239631     -7.79446    82.820746  0.014318939   0.01311942           55 
  483000    0.4850279   -7.8240201    82.805999  0.014286749  0.013079534           42 
  484000   0.51280018    -7.800983    82.731749  0.014244447  0.013039784           39 
  485000   0.49842804   -7.8080753    82.771576   0.01422192  0.013000181           35 
  486000   0.49795488   -7.8217827    82.763405  0.014191256  0.012960771           30 
  487000   0.49592866   -7.8110187     82.79201  0.014167011  0.012921467           42 
  488000    0.4906693   -7.8175057    82.782084  0.014136285  0.012882168           35 
  489000    0.4907181    -7.822198    82.698858  0.014093193  0.012843051           34 
  490000   0.48312608   -7.8139068    82.705473  0.014065557  0.012804076           38 
  491000   0.49993452   -7.8408011    82.782247   0.01404994  0.012765229           35 
  492000     0.486225   -7.8389867    82.748894  0.014015734  0.012726522           47 
  493000   0.47292599   -7.8231349    82.745695  0.013986764  0.012687941           57 
  494000   0.48054856   -7.8461956    82.759415  0.013960765  0.012649466           33 
  495000   0.46393243   -7.8510677    82.738685  0.013929072  0.012611163           41 
  496000   0.47835879   -7.8422502    82.729699  0.013899479  0.012572985           35 
  497000   0.46982392   -7.8458928    82.701452  0.013866776  0.012534924           48 
  498000   0.47497545   -7.8244096    82.632092  0.013827325   0.01249696           41 
  499000   0.48557345   -7.8436164    82.703083   0.01381147  0.012459188           42 
  500000   0.47272845   -7.8415107    82.770354  0.013795059  0.012421541           33 
  501000   0.47792831   -7.8439818    82.637303  0.013745393  0.012383916           46 
  502000   0.45357741   -7.8612217    82.672677  0.013723884  0.012346448           44 
  503000    0.4692502    -7.850642    82.586126  0.013682261  0.012309112           43 
  504000   0.46177804   -7.8456328    82.609666  0.013659006  0.012271962           45 
  505000   0.46087592   -7.8598107    82.635631  0.013636243  0.012234923           38 
  506000   0.45841589   -7.8616402    82.708583  0.013621308  0.012198045           39 
  507000   0.45419945   -7.8769891    82.548955  0.013568204   0.01216126           63 
  508000   0.46013035   -7.8852691    82.673633  0.013561948  0.012124632           38 
  509000   0.45298049   -7.8777008    82.656867  0.013532558  0.012088115          102 
  510000    0.4591465   -7.8601379    82.628219  0.013501343  0.012051712           98 
  511000   0.45331548   -7.8674676    82.586739  0.013468157  0.012015471           58 
  512000   0.45441688   -7.8791183    82.511098  0.013429541   0.01197934           41 
Loop time of 1103.9 on 48 procs for 500000 steps with 4000 atoms

Performance: 78267.886 tau/day, 452.939 timesteps/s
99.4% CPU use with 48 MPI tasks x no OpenMP threads

MPI task timing breakdown:
Section |  min time  |  avg time  |  max time  |%varavg| %total
---------------------------------------------------------------
Pair    | 68.824     | 73.317     | 77.095     |  21.4 |  6.64
Neigh   | 6.9432     | 7.1324     | 7.317      |   3.7 |  0.65
Comm    | 61.627     | 66.871     | 72.715     |  28.1 |  6.06
Output  | 0.80041    | 0.80086    | 0.8092     |   0.1 |  0.07
Modify  | 938.05     | 943.94     | 950.25     |   8.2 | 85.51
Other   |            | 11.84      |            |       |  1.07

Nlocal:        83.3333 ave          92 max          74 min
Histogram: 1 3 2 7 5 15 7 3 3 2
Nghost:        1840.25 ave        1862 max        1816 min
Histogram: 2 1 3 8 7 11 4 5 6 1
Neighs:        11419.0 ave       13072 max        9751 min
Histogram: 2 1 7 5 11 7 5 6 3 1
FullNghs:      22837.2 ave       25100 max       20058 min
Histogram: 1 3 4 5 4 11 8 7 1 4

Total # of neighbors = 1096188
Ave neighs/atom = 274.04700
Neighbor list builds = 26946
Dangerous builds = 0

#clear
#
#next RN
#
#jump SELF
Total wall time: 0:18:26
